H1 O1
1.0
   8.7924087739126335    0.0000000000000000   -0.8715550484187008
  -0.4936850450067164    8.7786596678487445   -0.8703273880686958
   0.0000000000000000    0.0000000000000000   13.7029999999999994
H O
1 1
direct
   0.3392847467784402    0.8136284636087459    0.9748530086049154 H
   0.2707700000000000    0.7220500000000000    0.9626200000000000 O
