H4 O2
1.0
  39.6479999033802315    0.0000000000000000    0.0027679525650784
   2.4703262274487576   17.1217081205510908    0.0006038490144819
   0.0000000000000000    0.0000000000000000   36.7620000000000005
H O
4 2
direct
   0.4150344186073897    0.3189384107458782    0.4864166209806143 H
   0.3777885858564803    0.3519476131261491    0.5065960063630757 H
   0.4554250799759345    0.6478670478987290    0.4934057010886443 H
   0.4181766573476347    0.6807581068797964    0.5136182043372345 H
   0.3929133333333333    0.3086600000000000    0.4955300000000000 O
   0.4402766666666666    0.6911100000000000    0.5044750000000000 O
