H12 C6 N4
1.0
  26.8083068409256526    0.0000000000000000    5.5658857626418081
   6.6792514794443507   32.6977962810122520    1.3911585243105606
   0.0000000000000000    0.0000000000000000   33.4020000000000010
H C N
12 6 4
direct
   0.6543099999999999    0.0526450000000000    0.8597300000000000 H
   0.6914300000000000    0.0546600000000000    0.8979100000000000 H
   0.5812250000000000    0.1043800000000000    0.8565499999999999 H
   0.6106700000000000    0.1973850000000000    0.8901950000000001 H
   0.6677999999999999    0.1953550000000000    0.8520799999999999 H
   0.5618000000000000    0.1456650000000000    0.8933200000000000 H
   0.6943200000000000    0.1402550000000000    0.8026400000000000 H
   0.6562000000000000    0.1021000000000000    0.8046000000000000 H
   0.7416400000000000    0.1434050000000000    0.8544000000000000 H
   0.6659150000000000    0.1097600000000000    0.9473500000000000 H
   0.6097800000000000    0.1479200000000000    0.9453000000000000 H
   0.7405349999999999    0.1066200000000000    0.8956750000000000 H
   0.6683150000000000    0.0728500000000000    0.8778800000000000 C
   0.6437800000000000    0.1771750000000000    0.8720850000000000 C
   0.6702500000000000    0.1221200000000000    0.8228350000000000 C
   0.6428600000000000    0.1279000000000000    0.9271350000000000 C
   0.5942250000000000    0.1250200000000000    0.8745000000000001 C
   0.7183750000000000    0.1250100000000000    0.8750249999999999 C
   0.6240200000000000    0.1000950000000000    0.9029800000000000 N
   0.6255550000000000    0.1499300000000000    0.8469550000000000 N
   0.7009900000000000    0.0970000000000000    0.8500950000000000 N
   0.6746350000000000    0.1530250000000000    0.8999150000000000 N
