Ag128 H1398 C698 S128 N252 O385
1.0
  26.8083068409256526    0.0000000000000000    5.5658857626418081
   6.6792514794443507   32.6977962810122520    1.3911585243105606
   0.0000000000000000    0.0000000000000000   33.4020000000000010
Ag H C S N O
128 1398 698 128 252 385
direct
   0.5732349999999999    0.0598500000000000    0.9464500000000000 Ag
   0.0217100000000000    0.0535550000000000    0.3098050000000000 Ag
   0.0217100000000000    0.5535550000000000    0.3098050000000000 Ag
   0.5217100000000000    0.5535550000000000    0.3098050000000000 Ag
   0.5217100000000000    0.5535550000000000    0.8098050000000000 Ag
   0.0217100000000000    0.5535550000000000    0.8098050000000000 Ag
   0.5217100000000000    0.0535550000000000    0.3098050000000000 Ag
   0.0217100000000000    0.0535550000000000    0.8098050000000000 Ag
   0.5217100000000000    0.0535550000000000    0.8098050000000000 Ag
   0.9782999999999999    0.9464450000000000    0.6901800000000000 Ag
   0.4783000000000000    0.4464450000000000    0.1901800000000000 Ag
   0.4783000000000000    0.4464450000000000    0.6901800000000000 Ag
   0.4783000000000000    0.9464450000000000    0.1901800000000000 Ag
   0.9782999999999999    0.9464450000000000    0.1901800000000000 Ag
   0.4783000000000000    0.9464450000000000    0.6901800000000000 Ag
   0.9782999999999999    0.4464450000000000    0.1901800000000000 Ag
   0.9782999999999999    0.4464450000000000    0.6901800000000000 Ag
   0.2717150000000000    0.5535550000000000    0.3098050000000000 Ag
   0.7717149999999999    0.0535550000000000    0.3098050000000000 Ag
   0.7717149999999999    0.5535550000000000    0.3098050000000000 Ag
   0.2717150000000000    0.0535550000000000    0.3098050000000000 Ag
   0.2717150000000000    0.5535550000000000    0.8098050000000000 Ag
   0.7717149999999999    0.5535550000000000    0.8098050000000000 Ag
   0.2717150000000000    0.0535550000000000    0.8098050000000000 Ag
   0.2282950000000000    0.9464450000000000    0.1901800000000000 Ag
   0.7282950000000000    0.9464450000000000    0.1901800000000000 Ag
   0.2282950000000000    0.9464450000000000    0.6901800000000000 Ag
   0.7282950000000000    0.9464450000000000    0.6901800000000000 Ag
   0.2282950000000000    0.4464450000000000    0.1901800000000000 Ag
   0.7282950000000000    0.4464450000000000    0.1901800000000000 Ag
   0.2282950000000000    0.4464450000000000    0.6901800000000000 Ag
   0.7282950000000000    0.4464450000000000    0.6901800000000000 Ag
   0.1735350000000000    0.3098050000000000    0.1965800000000000 Ag
   0.4235400000000000    0.3098050000000000    0.1965800000000000 Ag
   0.9235400000000000    0.3098050000000000    0.1965800000000000 Ag
   0.6735350000000000    0.3098050000000000    0.1965800000000000 Ag
   0.6735350000000000    0.8098050000000000    0.1965800000000000 Ag
   0.9235400000000000    0.8098050000000000    0.1965800000000000 Ag
   0.4235400000000000    0.3098050000000000    0.6965800000000000 Ag
   0.6735350000000000    0.3098050000000000    0.6965800000000000 Ag
   0.1735350000000000    0.8098050000000000    0.1965800000000000 Ag
   0.4235400000000000    0.8098050000000000    0.1965800000000000 Ag
   0.9235400000000000    0.8098050000000000    0.6965800000000000 Ag
   0.1735350000000000    0.3098050000000000    0.6965800000000000 Ag
   0.9235400000000000    0.3098050000000000    0.6965800000000000 Ag
   0.1735350000000000    0.8098050000000000    0.6965800000000000 Ag
   0.4235400000000000    0.8098050000000000    0.6965800000000000 Ag
   0.6735350000000000    0.8098050000000000    0.6965800000000000 Ag
   0.8264750000000001    0.1901950000000000    0.3034050000000000 Ag
   0.8264750000000001    0.1901950000000000    0.8034049999999999 Ag
   0.8264750000000001    0.6901950000000000    0.3034050000000000 Ag
   0.5764700000000000    0.1901950000000000    0.3034050000000000 Ag
   0.5764700000000000    0.6901950000000000    0.3034050000000000 Ag
   0.5764700000000000    0.6901950000000000    0.8034049999999999 Ag
   0.0764700000000000    0.1901950000000000    0.3034050000000000 Ag
   0.0764700000000000    0.6901950000000000    0.3034050000000000 Ag
   0.0764700000000000    0.1901950000000000    0.8034049999999999 Ag
   0.0764700000000000    0.6901950000000000    0.8034049999999999 Ag
   0.3264750000000000    0.1901950000000000    0.3034050000000000 Ag
   0.3264750000000000    0.1901950000000000    0.8034049999999999 Ag
   0.3264750000000000    0.6901950000000000    0.3034050000000000 Ag
   0.3264750000000000    0.6901950000000000    0.8034049999999999 Ag
   0.8264750000000001    0.6901950000000000    0.8034049999999999 Ag
   0.3232400000000000    0.0598500000000000    0.9464500000000000 Ag
   0.8232400000000000    0.0598500000000000    0.9464500000000000 Ag
   0.8232400000000000    0.0598500000000000    0.4464500000000000 Ag
   0.0732350000000000    0.0598500000000000    0.9464500000000000 Ag
   0.0732350000000000    0.0598500000000000    0.4464500000000000 Ag
   0.3232400000000000    0.0598500000000000    0.4464500000000000 Ag
   0.0732350000000000    0.5598500000000000    0.9464500000000000 Ag
   0.5732349999999999    0.0598500000000000    0.4464500000000000 Ag
   0.8232400000000000    0.5598500000000000    0.9464500000000000 Ag
   0.0732350000000000    0.5598500000000000    0.4464500000000000 Ag
   0.3232400000000000    0.5598500000000000    0.4464500000000000 Ag
   0.3232400000000000    0.5598500000000000    0.9464500000000000 Ag
   0.5732349999999999    0.5598500000000000    0.4464500000000000 Ag
   0.8232400000000000    0.5598500000000000    0.4464500000000000 Ag
   0.5732349999999999    0.5598500000000000    0.9464500000000000 Ag
   0.9267799999999999    0.4401500000000000    0.0535100000000000 Ag
   0.6767750000000000    0.4401500000000000    0.0535100000000000 Ag
   0.6767750000000000    0.4401500000000000    0.5535099999999999 Ag
   0.9267799999999999    0.4401500000000000    0.5535099999999999 Ag
   0.1767750000000000    0.4401500000000000    0.0535100000000000 Ag
   0.4267800000000000    0.4401500000000000    0.0535100000000000 Ag
   0.1767750000000000    0.4401500000000000    0.5535099999999999 Ag
   0.4267800000000000    0.4401500000000000    0.5535099999999999 Ag
   0.6767750000000000    0.9401500000000000    0.0535100000000000 Ag
   0.9267799999999999    0.9401500000000000    0.0535100000000000 Ag
   0.6767750000000000    0.9401500000000000    0.5535099999999999 Ag
   0.9267799999999999    0.9401500000000000    0.5535099999999999 Ag
   0.1767750000000000    0.9401500000000000    0.0535100000000000 Ag
   0.4267800000000000    0.9401500000000000    0.0535100000000000 Ag
   0.1767750000000000    0.9401500000000000    0.5535099999999999 Ag
   0.4267800000000000    0.9401500000000000    0.5535099999999999 Ag
   0.7963400000000000    0.3033300000000000    0.0598250000000000 Ag
   0.7963400000000000    0.3033300000000000    0.5598250000000000 Ag
   0.5463350000000000    0.3033300000000000    0.5598250000000000 Ag
   0.5463350000000000    0.3033300000000000    0.0598250000000000 Ag
   0.0463350000000000    0.3033300000000000    0.5598250000000000 Ag
   0.0463350000000000    0.3033300000000000    0.0598250000000000 Ag
   0.2963400000000000    0.3033300000000000    0.0598250000000000 Ag
   0.7963400000000000    0.8033300000000000    0.0598250000000000 Ag
   0.7963400000000000    0.8033300000000000    0.5598250000000000 Ag
   0.5463350000000000    0.8033300000000000    0.5598250000000000 Ag
   0.0463350000000000    0.8033300000000000    0.0598250000000000 Ag
   0.2963400000000000    0.3033300000000000    0.5598250000000000 Ag
   0.2963400000000000    0.8033300000000000    0.0598250000000000 Ag
   0.5463350000000000    0.8033300000000000    0.0598250000000000 Ag
   0.0463350000000000    0.8033300000000000    0.5598250000000000 Ag
   0.2963400000000000    0.8033300000000000    0.5598250000000000 Ag
   0.2036750000000000    0.1966700000000000    0.4401550000000000 Ag
   0.2036750000000000    0.6966700000000000    0.4401550000000000 Ag
   0.4536800000000000    0.1966700000000000    0.4401550000000000 Ag
   0.9536800000000001    0.1966700000000000    0.4401550000000000 Ag
   0.4536800000000000    0.6966700000000000    0.4401550000000000 Ag
   0.7036750000000001    0.6966700000000000    0.4401550000000000 Ag
   0.9536800000000001    0.6966700000000000    0.4401550000000000 Ag
   0.4536800000000000    0.6966700000000000    0.9401550000000001 Ag
   0.7036750000000001    0.1966700000000000    0.4401550000000000 Ag
   0.2036750000000000    0.1966700000000000    0.9401550000000001 Ag
   0.2036750000000000    0.6966700000000000    0.9401550000000001 Ag
   0.4536800000000000    0.1966700000000000    0.9401550000000001 Ag
   0.9536800000000001    0.1966700000000000    0.9401550000000001 Ag
   0.7036750000000001    0.6966700000000000    0.9401550000000001 Ag
   0.9536800000000001    0.6966700000000000    0.9401550000000001 Ag
   0.7717149999999999    0.0535550000000000    0.8098050000000000 Ag
   0.5764700000000000    0.1901950000000000    0.8034049999999999 Ag
   0.7036750000000001    0.1966700000000000    0.9401550000000001 Ag
   0.6364299844698540    0.1184102663579772    0.9188909965429578 H
   0.6532352472031753    0.0821252650400607    0.8864250230319517 H
   0.8981749999999999    0.9365399999999999    0.8043350000000000 H
   0.9303350000000000    0.8889050000000001    0.8201100000000000 H
   0.1018350000000000    0.0634600000000000    0.6956500000000000 H
   0.0696800000000000    0.1110950000000000    0.6798500000000001 H
   0.0125400000000000    0.8988350000000001    0.7753350000000000 H
   0.9882000000000000    0.9330450000000000    0.8171700000000000 H
   0.0675900000000000    0.9396450000000001    0.7451900000000000 H
   0.0446200000000000    0.9746100000000000    0.7864700000000000 H
   0.0456150000000000    0.9952600000000000    0.6955300000000000 H
   0.0882850000000000    0.0066250000000000    0.7252850000000000 H
   0.9117299999999999    0.9933750000000000    0.7746999999999999 H
   0.9544000000000000    0.0047400000000000    0.8044549999999999 H
   0.9874700000000001    0.1011650000000000    0.7246500000000000 H
   0.0118150000000000    0.0669550000000000    0.6828149999999999 H
   0.9324200000000000    0.0603500000000000    0.7547950000000000 H
   0.9553900000000000    0.0253900000000000    0.7135150000000000 H
   0.9499800000000000    0.5543450000000000    0.5634150000000000 H
   0.9100600000000000    0.5700750000000000    0.6110600000000000 H
   0.8000350000000001    0.4456550000000000    0.4365500000000000 H
   0.8399550000000000    0.4299250000000000    0.3889250000000000 H
   0.8501400000000000    0.5252400000000000    0.6011600000000000 H
   0.8535750000000000    0.5671150000000000    0.5669900000000000 H
   0.8099850000000000    0.4951200000000000    0.5603500000000000 H
   0.8123250000000000    0.5364400000000000    0.5254550000000000 H
   0.8998750000000000    0.4747600000000000    0.3988250000000000 H
   0.8964400000000000    0.4328850000000000    0.4329950000000000 H
   0.9400299999999999    0.5000000000000000    0.4396000000000000 H
   0.9376900000000000    0.4635600000000000    0.4745250000000000 H
   0.8934700000000000    0.5544850000000000    0.4952700000000000 H
   0.9510149999999999    0.5247550000000000    0.5065350000000000 H
   0.7989999999999999    0.4752450000000000    0.4934450000000000 H
   0.8565499999999999    0.4455100000000000    0.5047150000000000 H
   0.8322100000000000    0.3046450000000000    0.6479050000000000 H
   0.8893400000000000    0.3026150000000000    0.6097900000000001 H
   0.9382100000000000    0.3543350000000000    0.6066650000000000 H
   0.9187900000000000    0.3956150000000000    0.6434350000000000 H
   0.8085850000000000    0.4453350000000000    0.6020750000000000 H
   0.8457049999999999    0.4473550000000000    0.6402550000000000 H
   0.8438150000000000    0.3979000000000000    0.6953400000000001 H
   0.8056950000000001    0.3597450000000000    0.6973450000000000 H
   0.7583750000000000    0.3565950000000000    0.6455850000000000 H
   0.7594750000000000    0.3933800000000000    0.6043100000000000 H
   0.8902350000000000    0.3520800000000000    0.5546850000000000 H
   0.8341000000000001    0.3902400000000000    0.5526300000000000 H
   0.7414900000000000    0.3042800000000000    0.8133900000000001 H
   0.7499300000000000    0.3201350000000000    0.8609899999999999 H
   0.0085200000000000    0.1957200000000000    0.6865900000000000 H
   0.0000000000000000    0.1798650000000000    0.6389950000000000 H
   0.8371500000000001    0.2753550000000000    0.8511100000000000 H
   0.8297550000000000    0.3171950000000000    0.8168900000000000 H
   0.9124900000000000    0.2451350000000000    0.8103899999999999 H
   0.9069400000000001    0.2864350000000000    0.7754350000000000 H
   0.7834300000000001    0.2747950000000000    0.7565100000000000 H
   0.8317700000000000    0.3045000000000000    0.7452200000000000 H
   0.9128650000000000    0.2246450000000000    0.6488750000000000 H
   0.9202650000000000    0.1828050000000000    0.6830499999999999 H
   0.8375250000000001    0.2548600000000000    0.6895900000000000 H
   0.8430750000000000    0.2135600000000000    0.7245500000000000 H
   0.9665900000000001    0.2252050000000000    0.7434750000000000 H
   0.9182450000000000    0.1955000000000000    0.7547650000000000 H
   0.9414350000000000    0.0546600000000000    0.8979100000000000 H
   0.9043150000000000    0.0526450000000000    0.8597300000000000 H
   0.9178050000000000    0.1953550000000000    0.8520799999999999 H
   0.8606750000000001    0.1973850000000000    0.8901950000000001 H
   0.8312300000000000    0.1043800000000000    0.8565499999999999 H
   0.8118050000000000    0.1456650000000000    0.8933200000000000 H
   0.9062049999999999    0.1021000000000000    0.8046000000000000 H
   0.9443250000000001    0.1402550000000000    0.8026400000000000 H
   0.9916400000000001    0.1434000000000000    0.8544000000000000 H
   0.9905400000000000    0.1066200000000000    0.8956750000000000 H
   0.8597850000000000    0.1479200000000000    0.9453000000000000 H
   0.9159150000000000    0.1097600000000000    0.9473500000000000 H
   0.7843450000000001    0.3609350000000000    0.9299299999999999 H
   0.7681600000000000    0.3132950000000000    0.9457500000000000 H
   0.9818549999999999    0.1867050000000000    0.0541900000000000 H
   0.9656700000000000    0.1390650000000000    0.0700550000000000 H
   0.8492299999999999    0.3511650000000000    0.9747900000000000 H
   0.8628050000000000    0.3170050000000000    0.9329000000000001 H
   0.9096900000000000    0.3105350000000000    0.0000000000000000 H
   0.9248400000000000    0.2756450000000000    0.9636150000000000 H
   0.7957950000000000    0.2563100000000000    0.9751500000000000 H
   0.8589350000000000    0.2452600000000000    0.9454800000000000 H
   0.9007849999999999    0.1488350000000000    0.0251900000000000 H
   0.8872100000000001    0.1829950000000000    0.0670650000000000 H
   0.8403250000000000    0.1894650000000000    0.9950250000000000 H
   0.8251800000000000    0.2243550000000000    0.0363700000000000 H
   0.9542200000000001    0.2436900000000000    0.0248250000000000 H
   0.8910800000000000    0.2547400000000000    0.0545050000000000 H
   0.8518399999999999    0.5634600000000000    0.6956500000000000 H
   0.8196800000000000    0.6110949999999999    0.6798500000000001 H
   0.6481749999999999    0.4365400000000000    0.8043350000000000 H
   0.6803300000000000    0.3889050000000000    0.8201100000000000 H
   0.7374700000000000    0.6011649999999999    0.7246500000000000 H
   0.7618199999999999    0.5669550000000000    0.6828149999999999 H
   0.6824150000000000    0.5603500000000000    0.7547950000000000 H
   0.7053900000000000    0.5253900000000000    0.7135150000000000 H
   0.7625450000000000    0.3988350000000000    0.7753350000000000 H
   0.7381949999999999    0.4330450000000000    0.8171700000000000 H
   0.8175950000000001    0.4396450000000000    0.7451900000000000 H
   0.7946250000000000    0.4746100000000000    0.7864700000000000 H
   0.7956150000000000    0.4952600000000000    0.6955300000000000 H
   0.8382900000000000    0.5066250000000000    0.7252850000000000 H
   0.6617250000000000    0.4933750000000000    0.7746999999999999 H
   0.7043950000000000    0.5047400000000000    0.8044549999999999 H
   0.6999750000000000    0.0543450000000000    0.5634150000000000 H
   0.6600550000000001    0.0700750000000000    0.6110600000000000 H
   0.5500350000000001    0.9456550000000000    0.4365700000000000 H
   0.5899500000000000    0.9299250000000000    0.3889250000000000 H
   0.6001400000000000    0.0252400000000000    0.6011600000000000 H
   0.6035750000000000    0.0671150000000000    0.5669900000000000 H
   0.5599850000000000    0.9951200000000000    0.5603850000000000 H
   0.5623200000000000    0.0364400000000000    0.5254550000000000 H
   0.6498699999999999    0.9747600000000001    0.3988250000000000 H
   0.6464350000000000    0.9328850000000000    0.4329950000000000 H
   0.6900250000000000    0.0000000000000000    0.4396000000000000 H
   0.6876900000000000    0.9635600000000000    0.4745250000000000 H
   0.6434650000000000    0.0544850000000000    0.4952500000000000 H
   0.7010100000000000    0.0247550000000000    0.5065350000000000 H
   0.5489950000000000    0.9752449999999999    0.4934500000000000 H
   0.6065450000000000    0.9455150000000000    0.5047150000000000 H
   0.5822050000000000    0.8046450000000001    0.6479050000000000 H
   0.6393400000000000    0.8026150000000001    0.6097900000000001 H
   0.6882050000000000    0.8543350000000001    0.6066650000000000 H
   0.6687850000000000    0.8956150000000000    0.6434350000000000 H
   0.5585800000000000    0.9453350000000000    0.6020750000000000 H
   0.5957000000000000    0.9473549999999999    0.6402550000000000 H
   0.5938099999999999    0.8978999999999999    0.6953400000000001 H
   0.5556900000000000    0.8597450000000000    0.6973450000000000 H
   0.5083700000000000    0.8565950000000000    0.6455850000000000 H
   0.5094750000000000    0.8933800000000001    0.6043100000000000 H
   0.6402300000000000    0.8520799999999999    0.5546850000000000 H
   0.5840950000000000    0.8902350000000000    0.5526300000000000 H
   0.4914950000000000    0.8042800000000000    0.8133900000000001 H
   0.4999250000000000    0.8201350000000001    0.8609899999999999 H
   0.7585250000000000    0.6957200000000000    0.6865900000000000 H
   0.7500850000000000    0.6798649999999999    0.6389950000000000 H
   0.5871450000000000    0.7753550000000000    0.8511000000000000 H
   0.5797500000000000    0.8171950000000000    0.8168900000000000 H
   0.6624900000000000    0.7451350000000000    0.8103899999999999 H
   0.6569350000000000    0.7864350000000000    0.7754350000000000 H
   0.5334250000000000    0.7747950000000000    0.7565000000000000 H
   0.5817700000000000    0.8045000000000000    0.7452200000000000 H
   0.6628650000000000    0.7246450000000000    0.6488750000000000 H
   0.6702600000000000    0.6828050000000000    0.6830499999999999 H
   0.5875200000000000    0.7548600000000000    0.6895900000000000 H
   0.5930750000000000    0.7135600000000000    0.7245500000000000 H
   0.7165850000000000    0.7252050000000000    0.7434750000000000 H
   0.6682399999999999    0.6955000000000000    0.7547650000000000 H
   0.6914300000000000    0.5546600000000000    0.8979100000000000 H
   0.6543099999999999    0.5526450000000001    0.8597300000000000 H
   0.6677999999999999    0.6953549999999999    0.8520799999999999 H
   0.6106700000000000    0.6973850000000000    0.8901950000000001 H
   0.5812250000000000    0.6043800000000000    0.8565499999999999 H
   0.5618000000000000    0.6456649999999999    0.8933200000000000 H
   0.6562000000000000    0.6021000000000000    0.8046000000000000 H
   0.6943200000000000    0.6402550000000000    0.8026400000000000 H
   0.7405349999999999    0.6066200000000000    0.8956750000000000 H
   0.7416400000000000    0.6434050000000000    0.8544000000000000 H
   0.6097800000000000    0.6479200000000001    0.9453000000000000 H
   0.6659150000000000    0.6097600000000000    0.9473500000000000 H
   0.5181600000000000    0.8132950000000000    0.9457949999999999 H
   0.5343450000000000    0.8609300000000000    0.9299299999999999 H
   0.7318500000000000    0.6867050000000000    0.0541900000000000 H
   0.7156650000000000    0.6390650000000000    0.0700550000000000 H
   0.5992250000000000    0.8511649999999999    0.9747900000000000 H
   0.6128050000000000    0.8170050000000000    0.9329200000000000 H
   0.6596900000000000    0.8105350000000000    0.0000000000000000 H
   0.6748350000000000    0.7756400000000000    0.9636150000000000 H
   0.5457900000000000    0.7563100000000000    0.9751600000000000 H
   0.6089300000000000    0.7452600000000000    0.9454800000000000 H
   0.6507849999999999    0.6488350000000001    0.0251500000000000 H
   0.6372050000000000    0.6829950000000000    0.0670650000000000 H
   0.5903200000000000    0.6894650000000000    0.9950250000000000 H
   0.5751750000000000    0.7243550000000000    0.0363700000000000 H
   0.7042150000000000    0.7436900000000000    0.0248250000000000 H
   0.6410800000000000    0.7547400000000000    0.0545050000000000 H
   0.3518400000000000    0.5634600000000000    0.6956500000000000 H
   0.3196800000000000    0.6110949999999999    0.6798500000000001 H
   0.1481750000000000    0.4365400000000000    0.8043350000000000 H
   0.1803300000000000    0.3889050000000000    0.8201100000000000 H
   0.2374700000000000    0.6011649999999999    0.7246500000000000 H
   0.2618200000000000    0.5669550000000000    0.6828149999999999 H
   0.1824150000000000    0.5603500000000000    0.7547950000000000 H
   0.2053900000000000    0.5253900000000000    0.7135150000000000 H
   0.2625450000000000    0.3988350000000000    0.7753350000000000 H
   0.2381950000000000    0.4330450000000000    0.8171700000000000 H
   0.3175950000000000    0.4396450000000000    0.7451900000000000 H
   0.2946250000000000    0.4746100000000000    0.7864700000000000 H
   0.2956150000000000    0.4952600000000000    0.6955300000000000 H
   0.3382900000000000    0.5066250000000000    0.7252850000000000 H
   0.1617250000000000    0.4933750000000000    0.7746999999999999 H
   0.2043950000000000    0.5047400000000000    0.8044549999999999 H
   0.1999750000000000    0.0543450000000000    0.5634150000000000 H
   0.1600550000000000    0.0700750000000000    0.6110600000000000 H
   0.0500350000000000    0.9456550000000000    0.4365700000000000 H
   0.0899500000000000    0.9299250000000000    0.3889250000000000 H
   0.1001400000000000    0.0252400000000000    0.6011600000000000 H
   0.1035750000000000    0.0671150000000000    0.5669900000000000 H
   0.0599850000000000    0.9951200000000000    0.5603850000000000 H
   0.0623200000000000    0.0364400000000000    0.5254550000000000 H
   0.1498700000000000    0.9747600000000001    0.3988250000000000 H
   0.1464350000000000    0.9328850000000000    0.4329950000000000 H
   0.1900250000000000    0.0000000000000000    0.4396000000000000 H
   0.1876900000000000    0.9635600000000000    0.4745250000000000 H
   0.1434650000000000    0.0544850000000000    0.4952500000000000 H
   0.2010100000000000    0.0247550000000000    0.5065350000000000 H
   0.0489950000000000    0.9752449999999999    0.4934500000000000 H
   0.1065450000000000    0.9455150000000000    0.5047150000000000 H
   0.0822050000000000    0.8046450000000001    0.6479050000000000 H
   0.1393400000000000    0.8026150000000001    0.6097900000000001 H
   0.1882050000000000    0.8543350000000001    0.6066650000000000 H
   0.1687850000000000    0.8956150000000000    0.6434350000000000 H
   0.0585800000000000    0.9453350000000000    0.6020750000000000 H
   0.0957000000000000    0.9473549999999999    0.6402550000000000 H
   0.0938100000000000    0.8978999999999999    0.6953400000000001 H
   0.0556900000000000    0.8597450000000000    0.6973450000000000 H
   0.0083700000000000    0.8565950000000000    0.6455850000000000 H
   0.0094750000000000    0.8933800000000001    0.6043100000000000 H
   0.1402300000000000    0.8520799999999999    0.5546850000000000 H
   0.0840950000000000    0.8902350000000000    0.5526300000000000 H
   0.9914950000000000    0.8042800000000000    0.8133900000000001 H
   0.9999250000000000    0.8201350000000001    0.8609899999999999 H
   0.2585250000000000    0.6957200000000000    0.6865900000000000 H
   0.2500850000000000    0.6798649999999999    0.6389950000000000 H
   0.0871450000000000    0.7753550000000000    0.8511000000000000 H
   0.0797500000000000    0.8171950000000000    0.8168900000000000 H
   0.1624900000000000    0.7451350000000000    0.8103899999999999 H
   0.1569350000000000    0.7864350000000000    0.7754350000000000 H
   0.0334250000000000    0.7747950000000000    0.7565000000000000 H
   0.0817700000000000    0.8045000000000000    0.7452200000000000 H
   0.1628650000000000    0.7246450000000000    0.6488750000000000 H
   0.1702600000000000    0.6828050000000000    0.6830499999999999 H
   0.0875200000000000    0.7548600000000000    0.6895900000000000 H
   0.0930750000000000    0.7135600000000000    0.7245500000000000 H
   0.2165850000000000    0.7252050000000000    0.7434750000000000 H
   0.1682400000000000    0.6955000000000000    0.7547650000000000 H
   0.1914300000000000    0.5546600000000000    0.8979100000000000 H
   0.1543100000000000    0.5526450000000001    0.8597300000000000 H
   0.1678000000000000    0.6953549999999999    0.8520799999999999 H
   0.1106700000000000    0.6973850000000000    0.8901950000000001 H
   0.0812250000000000    0.6043800000000000    0.8565499999999999 H
   0.0618000000000000    0.6456649999999999    0.8933200000000000 H
   0.1562000000000000    0.6021000000000000    0.8046000000000000 H
   0.1943200000000000    0.6402550000000000    0.8026400000000000 H
   0.2405350000000000    0.6066200000000000    0.8956750000000000 H
   0.2416400000000000    0.6434050000000000    0.8544000000000000 H
   0.1097800000000000    0.6479200000000001    0.9453000000000000 H
   0.1659150000000000    0.6097600000000000    0.9473500000000000 H
   0.0181600000000000    0.8132950000000000    0.9457949999999999 H
   0.0343450000000000    0.8609300000000000    0.9299299999999999 H
   0.2318500000000000    0.6867050000000000    0.0541900000000000 H
   0.2156650000000000    0.6390650000000000    0.0700550000000000 H
   0.0992250000000000    0.8511649999999999    0.9747900000000000 H
   0.1128050000000000    0.8170050000000000    0.9329200000000000 H
   0.1596900000000000    0.8105350000000000    0.0000000000000000 H
   0.1748350000000000    0.7756400000000000    0.9636150000000000 H
   0.0457900000000000    0.7563100000000000    0.9751600000000000 H
   0.1089300000000000    0.7452600000000000    0.9454800000000000 H
   0.1507850000000000    0.6488350000000001    0.0251500000000000 H
   0.1372050000000000    0.6829950000000000    0.0670650000000000 H
   0.0903200000000000    0.6894650000000000    0.9950250000000000 H
   0.0751750000000000    0.7243550000000000    0.0363700000000000 H
   0.2042150000000000    0.7436900000000000    0.0248250000000000 H
   0.1410800000000000    0.7547400000000000    0.0545050000000000 H
   0.3981750000000000    0.9365399999999999    0.8043350000000000 H
   0.4303350000000000    0.8889050000000001    0.8201100000000000 H
   0.6018350000000000    0.0634600000000000    0.6956500000000000 H
   0.5696800000000000    0.1110950000000000    0.6798500000000001 H
   0.4874700000000000    0.1011650000000000    0.7246500000000000 H
   0.5118150000000000    0.0669550000000000    0.6828149999999999 H
   0.4324200000000000    0.0603500000000000    0.7547950000000000 H
   0.4553900000000000    0.0253900000000000    0.7135150000000000 H
   0.5125400000000000    0.8988350000000001    0.7753350000000000 H
   0.4882000000000000    0.9330450000000000    0.8171700000000000 H
   0.5675900000000000    0.9396450000000001    0.7451900000000000 H
   0.5446200000000000    0.9746100000000000    0.7864700000000000 H
   0.5456150000000000    0.9952600000000000    0.6955300000000000 H
   0.5882849999999999    0.0066250000000000    0.7252850000000000 H
   0.4117300000000000    0.9933750000000000    0.7746999999999999 H
   0.4544000000000000    0.0047400000000000    0.8044549999999999 H
   0.4499800000000000    0.5543450000000000    0.5634150000000000 H
   0.4100600000000000    0.5700750000000000    0.6110600000000000 H
   0.3000350000000000    0.4456550000000000    0.4365500000000000 H
   0.3399550000000000    0.4299250000000000    0.3889250000000000 H
   0.3501400000000000    0.5252400000000000    0.6011600000000000 H
   0.3535750000000000    0.5671150000000000    0.5669900000000000 H
   0.3099850000000000    0.4951200000000000    0.5603500000000000 H
   0.3123250000000000    0.5364400000000000    0.5254550000000000 H
   0.3998750000000000    0.4747600000000000    0.3988250000000000 H
   0.3964400000000000    0.4328850000000000    0.4329950000000000 H
   0.4400300000000000    0.5000000000000000    0.4396000000000000 H
   0.4376900000000000    0.4635600000000000    0.4745250000000000 H
   0.3934700000000000    0.5544850000000000    0.4952700000000000 H
   0.4510150000000000    0.5247550000000000    0.5065350000000000 H
   0.2990000000000000    0.4752450000000000    0.4934450000000000 H
   0.3565500000000000    0.4455100000000000    0.5047150000000000 H
   0.3322100000000000    0.3046450000000000    0.6479050000000000 H
   0.3893400000000000    0.3026150000000000    0.6097900000000001 H
   0.4382100000000000    0.3543350000000000    0.6066650000000000 H
   0.4187900000000000    0.3956150000000000    0.6434350000000000 H
   0.3085850000000000    0.4453350000000000    0.6020750000000000 H
   0.3457050000000000    0.4473550000000000    0.6402550000000000 H
   0.3438150000000000    0.3979000000000000    0.6953400000000001 H
   0.3056950000000000    0.3597450000000000    0.6973450000000000 H
   0.2583750000000000    0.3565950000000000    0.6455850000000000 H