H2 O1
1.0
  26.8083068409256526    0.0000000000000000    5.5658857626418081
   6.6792514794443507   32.6977962810122520    1.3911585243105606
   0.0000000000000000    0.0000000000000000   33.4020000000000010
H O
2 1
direct
   0.6364299844698540    0.1184102663579772    0.9188909965429578 H
   0.6532352472031753    0.0821252650400607    0.8864250230319517 H
   0.6240200000000000    0.1000950000000000    0.9029800000000000 O
