K8 V20 P14 H14 C7 O46
1.0
  10.8499990481314992    0.0000000000000000    0.0045448372392882
  -0.0007564432171247   14.4469999801963613    0.0000000000000009
   0.0000000000000000    0.0000000000000000   15.8569999999999993
K V P H C O
8 20 14 14 7 46
direct
   0.0000000000000000    0.4876500000000000    0.7500100000000000 K
   0.3323300000000000    0.0000000000000000    0.7499700000000000 K
   0.0000000000000000    0.0000000000000000    0.7500100000000000 K
   0.1725500000000000    0.5123200000000000    0.2499200000000000 K
   0.6725200000000000    0.5123100000000000    0.2498800000000000 K
   0.1725400000000000    0.9876700000000000    0.2499000000000000 K
   0.6724900000000000    0.9877000000000000    0.2498000000000000 K
   0.3323900000000000    0.4876600000000000    0.7499900000000000 K
   0.0671400000000000    0.4679800000000000    0.5471800000000000 V
   0.5671700000000000    0.4679600000000000    0.5471500000000000 V
   0.0669800000000000    0.0320500000000000    0.9527600000000001 V
   0.5669999999999999    0.0320100000000000    0.9525900000000000 V
   0.4379200000000000    0.5319700000000001    0.0472300000000000 V
   0.0000000000000000    0.5319500000000000    0.0472500000000000 V
   0.4380700000000000    0.9679200000000000    0.4527900000000000 V
   0.0000000000000000    0.9679200000000000    0.4527900000000000 V
   0.4380700000000000    0.5320900000000000    0.4528000000000000 V
   0.0000000000000000    0.5320800000000000    0.4527900000000000 V
   0.4379200000000000    0.9680700000000000    0.0472100000000000 V
   0.0000000000000000    0.9681000000000000    0.0472600000000000 V
   0.0670200000000000    0.4679500000000000    0.9527600000000001 V
   0.5670200000000000    0.4679700000000000    0.9526800000000000 V
   0.0671500000000000    0.0320100000000000    0.5471800000000000 V
   0.5671800000000000    0.0320300000000000    0.5471300000000000 V
   0.8840200000000000    0.7500100000000000    0.7500400000000000 V
   0.3840000000000000    0.7500200000000000    0.7501000000000000 V
   0.6209400000000000    0.2499800000000000    0.2499800000000000 V
   0.1210600000000000    0.2499900000000000    0.2501000000000000 V
   0.7606500000000000    0.6447900000000000    0.5834800000000000 P
   0.2606700000000000    0.6447900000000000    0.5835100000000000 P
   0.7605900000000000    0.8552100000000000    0.9165900000000000 P
   0.2605500000000000    0.8552300000000000    0.9166200000000000 P
   0.7440700000000000    0.3552200000000000    0.0832800000000000 P
   0.7446900000000000    0.1447800000000000    0.4163700000000000 P
   0.2446700000000000    0.1447800000000000    0.4164900000000000 P
   0.7446500000000000    0.3552000000000000    0.4164100000000000 P
   0.2446600000000000    0.3552200000000000    0.4165000000000000 P
   0.7439200000000000    0.1447800000000000    0.0831500000000000 P
   0.7606100000000000    0.6447800000000000    0.9165900000000000 P
   0.2605800000000000    0.6447800000000000    0.9166200000000000 P
   0.7606500000000000    0.8552200000000000    0.5834800000000000 P
   0.2606700000000000    0.8552100000000000    0.5834900000000000 P
   0.6340700000000000    0.7499900000000000    0.5021000000000000 H
   0.1341000000000000    0.7499900000000000    0.5021000000000000 H
   0.5975600000000000    0.7499900000000000    0.6120600000000000 H
   0.0975600000000000    0.7499900000000000    0.6120600000000000 H
   0.6341300000000000    0.7499800000000000    0.9981100000000001 H
   0.1340900000000000    0.7499900000000000    0.9981300000000000 H
   0.5975000000000000    0.7499800000000000    0.8881900000000000 H
   0.0974700000000000    0.7499900000000000    0.8882100000000001 H
   0.8713600000000000    0.2500100000000000    0.0000000000000000 H
   0.9068000000000001    0.2499300000000000    0.1124600000000000 H
   0.8707500000000000    0.2499800000000000    0.4981100000000000 H
   0.3707800000000000    0.2500000000000000    0.4981700000000000 H
   0.9078800000000000    0.2500200000000000    0.3882300000000000 H
   0.4078500000000000    0.2500200000000000    0.3882900000000000 H
   0.6734599999999999    0.7500000000000000    0.5659300000000000 C
   0.1734700000000000    0.7500000000000000    0.5659400000000000 C
   0.6734500000000000    0.7499800000000000    0.9342400000000000 C
   0.1734200000000000    0.7500000000000000    0.9342600000000000 C
   0.8313400000000000    0.2499900000000000    0.0660400000000000 C
   0.8317400000000000    0.2500000000000000    0.4341700000000000 C
   0.3317400000000000    0.2500100000000000    0.4342400000000000 C
   0.8340000000000000    0.6553200000000000    0.6661300000000000 O
   0.3340200000000000    0.6553400000000000    0.6661500000000000 O
   0.6707400000000000    0.5623200000000000    0.5961700000000000 O
   0.1707400000000000    0.5623300000000000    0.5961800000000000 O
   0.8442900000000000    0.6293100000000000    0.5059100000000000 O
   0.3443200000000000    0.6293100000000000    0.5059399999999999 O
   0.8340300000000000    0.8446800000000000    0.8339400000000000 O
   0.3339400000000000    0.8447200000000000    0.8339500000000000 O
   0.6705900000000000    0.9375800000000000    0.9038100000000000 O
   0.1705500000000000    0.9376100000000001    0.9038700000000000 O
   0.8441500000000000    0.8708000000000000    0.9941400000000000 O
   0.3441600000000000    0.8708100000000000    0.9941400000000000 O
   0.6701200000000000    0.3447200000000000    0.1657300000000000 O
   0.8340400000000000    0.4376200000000000    0.0961800000000000 O
   0.6610600000000000    0.3706900000000000    0.0054100000000000 O
   0.6716500000000000    0.1552900000000000    0.3335800000000000 O
   0.1715200000000000    0.1552900000000000    0.3337600000000000 O
   0.8346500000000000    0.0623400000000000    0.4038100000000000 O
   0.3346200000000000    0.0623500000000000    0.4038400000000000 O
   0.6607200000000000    0.1292300000000000    0.4937500000000000 O
   0.1608100000000000    0.1292300000000000    0.4939300000000000 O
   0.6715500000000000    0.3446500000000000    0.3336600000000000 O
   0.1714900000000000    0.3446900000000000    0.3337700000000000 O
   0.8346000000000000    0.4376600000000000    0.4038200000000000 O
   0.3346000000000000    0.4376600000000000    0.4038500000000000 O
   0.6607600000000000    0.3707500000000000    0.4938300000000000 O
   0.1608100000000000    0.3707600000000000    0.4939400000000000 O
   0.6695600000000000    0.1552800000000000    0.1654300000000000 O
   0.8338800000000000    0.0624000000000000    0.0961900000000000 O
   0.6612600000000000    0.1293100000000000    0.0050800000000000 O
   0.8340300000000000    0.6553099999999999    0.8339400000000000 O
   0.3339800000000000    0.6553099999999999    0.8339600000000000 O
   0.6706299999999999    0.5623800000000000    0.9038300000000000 O
   0.1706100000000000    0.5623700000000000    0.9038700000000000 O
   0.8441900000000000    0.6292200000000000    0.9941400000000000 O
   0.3441700000000000    0.6292300000000000    0.9941600000000000 O
   0.8340000000000000    0.8446900000000001    0.6661200000000000 O
   0.3340300000000000    0.8446800000000000    0.6661300000000000 O
   0.6707400000000000    0.9376800000000000    0.5961600000000000 O
   0.1707500000000000    0.9376700000000000    0.5961800000000000 O
   0.8442900000000000    0.8706900000000000    0.5059000000000000 O
   0.3443000000000000    0.8706900000000000    0.5059200000000000 O
   0.5314600000000000    0.7500100000000000    0.7502400000000000 O
   0.0315000000000000    0.7500100000000000    0.7500700000000000 O
   0.9735900000000000    0.2500000000000000    0.2509100000000000 O
   0.4735000000000000    0.2500300000000000    0.2510500000000000 O
