H9 O6
1.0
  13.6869988972205281    0.0000000000000000    0.0054943137910080
   0.0012237913755381   35.7039559309912349    0.0560836889883923
   0.0000000000000000    0.0000000000000000   21.7869999999999990
H O
9 6
direct
   0.8156704429241608    0.2387390449955028    0.3271986481379856 H
   0.8453572068271965    0.1390491926326936    0.2384514217199770 H
   0.8316385115249326    0.1856105379073004    0.2844123610259651 H
   0.1597993844654822    0.0902178772294382    0.5869831792256428 H
   0.1759192903800376    0.1798802484105041    0.7005114950296819 H
   0.1616041041299690    0.1366800865531253    0.6429009175843289 H
   0.4367553811428814    0.0717810174352467    0.5683186334829011 H
   0.5184893965805601    0.1639426002550246    0.6645682472167236 H
   0.4844083456238851    0.1187798632603859    0.6141676436277956 H
   0.8201700000000000    0.2215500000000000    0.2928800000000000 O
   0.8368400000000000    0.1657400000000000    0.2447400000000000 O
   0.1875200000000000    0.1062700000000000    0.6183500000000000 O
   0.1958400000000000    0.1565050000000000    0.6816400000000000 O
   0.4319500000000000    0.0908000000000000    0.5999200000000000 O
   0.4784000000000000    0.1425600000000000    0.6536800000000000 O
