Cd24 H189 C180 N45 O141
1.0
  13.6869988972205281    0.0000000000000000    0.0054943137910080
   0.0012237913755381   35.7039559309912349    0.0560836889883923
   0.0000000000000000    0.0000000000000000   21.7869999999999990
Cd H C N O
24 189 180 45 141
direct
   0.1765300000000000    0.2217050000000000    0.7354800000000000 Cd
   0.1476800000000000    0.4009100000000000    0.7146400000000001 Cd
   0.1476800000000000    0.9009100000000000    0.7146400000000001 Cd
   0.3521100000000000    0.1507300000000000    0.7147200000000000 Cd
   0.3521100000000000    0.6507300000000000    0.7147200000000000 Cd
   0.8518500000000000    0.1005700000000000    0.2150200000000000 Cd
   0.6478500000000000    0.3504550000000000    0.2149000000000000 Cd
   0.6478500000000000    0.8504550000000000    0.2149000000000000 Cd
   0.8518500000000000    0.6005700000000000    0.2150200000000000 Cd
   0.3230300000000000    0.4716900000000000    0.7357900000000001 Cd
   0.3230300000000000    0.9716899999999999    0.7357900000000001 Cd
   0.8234300000000000    0.2794150000000000    0.2352600000000000 Cd
   0.8234300000000000    0.7794150000000000    0.2352600000000000 Cd
   0.1765300000000000    0.7217050000000000    0.7354800000000000 Cd
   0.6759700000000000    0.0294600000000000    0.2346000000000000 Cd
   0.6759700000000000    0.5294600000000000    0.2346000000000000 Cd
   0.1968500000000000    0.8143850000000000    0.6491200000000000 Cd
   0.1968500000000000    0.3143850000000000    0.6491200000000000 Cd
   0.3027100000000000    0.0642750000000000    0.6493000000000000 Cd
   0.3027100000000000    0.5642750000000000    0.6493000000000000 Cd
   0.6972699999999999    0.9367799999999999    0.1484900000000000 Cd
   0.6972699999999999    0.4367800000000000    0.1484900000000000 Cd
   0.8028200000000000    0.6867449999999999    0.1492000000000000 Cd
   0.8028200000000000    0.1867450000000000    0.1492000000000000 Cd
   0.1597993844654822    0.0902178772294382    0.5869831792256428 H
   0.1759192903800376    0.1798802484105041    0.7005114950296819 H
   0.1616041041299690    0.1366800865531253    0.6429009175843289 H
   0.4367553811428814    0.0717810174352467    0.5683186334829011 H
   0.5184893965805601    0.1639426002550246    0.6645682472167236 H
   0.4844083456238851    0.1187798632603859    0.6141676436277956 H
   0.9613000000000000    0.2844500000000000    0.5990400000000000 H
   0.9004400000000000    0.2855850000000000    0.6718300000000000 H
   0.6281200000000000    0.3344100000000000    0.4256500000000000 H
   0.7594400000000000    0.3359450000000000    0.4315000000000000 H
   0.7664299999999999    0.2672400000000000    0.4150000000000000 H
   0.6355400000000000    0.2649400000000000    0.4148500000000000 H
   0.4766700000000000    0.2938150000000000    0.6021500000000000 H
   0.5428900000000000    0.2872000000000000    0.6720500000000000 H
   0.8420900000000000    0.2202850000000000    0.6571000000000000 H
   0.9025100000000000    0.2185050000000000    0.5840600000000000 H
   0.5098100000000000    0.2183450000000000    0.6670600000000000 H
   0.4571200000000000    0.2237000000000000    0.5933000000000000 H
   0.4829100000000000    0.9139250000000000    0.6493000000000000 H
   0.4177100000000000    0.9264700000000000    0.5823600000000000 H
   0.8790200000000000    0.8428899999999999    0.5797300000000000 H
   0.9378200000000000    0.8722400000000000    0.5260899999999999 H
   0.7291200000000000    0.9603699999999999    0.4080100000000000 H
   0.5991400000000000    0.9594600000000000    0.4094900000000000 H
   0.8263500000000000    0.8998250000000000    0.6406600000000000 H
   0.8834100000000000    0.9290250000000000    0.5847700000000000 H
   0.5189600000000000    0.8506050000000001    0.6036400000000000 H
   0.4532500000000000    0.8630000000000000    0.5360300000000000 H
   0.6036600000000000    0.8970800000000000    0.3537000000000000 H
   0.7322600000000000    0.8981749999999999    0.3552300000000000 H
   0.5380900000000000    0.0343600000000000    0.5997900000000000 H
   0.5997000000000000    0.0354200000000000    0.6722800000000000 H
   0.8720300000000000    0.0841800000000000    0.4253000000000000 H
   0.7407800000000000    0.0860500000000000    0.4313600000000000 H
   0.7325300000000000    0.0173700000000000    0.4152100000000000 H
   0.8633600000000000    0.0146950000000000    0.4147400000000000 H
   0.0231000000000000    0.0435850000000000    0.6016899999999999 H
   0.9567300000000000    0.0374450000000000    0.6716900000000000 H
   0.6576600000000000    0.9700550000000000    0.6570000000000000 H
   0.5969100000000001    0.9685500000000000    0.5841300000000000 H
   0.9895300000000000    0.9685850000000000    0.6679000000000000 H
   0.0419700000000000    0.9733400000000000    0.5940000000000000 H
   0.9613000000000000    0.7844500000000000    0.5990400000000000 H
   0.9004400000000000    0.7855850000000000    0.6718300000000000 H
   0.6281200000000000    0.8344100000000000    0.4256500000000000 H
   0.7594400000000000    0.8359449999999999    0.4315000000000000 H
   0.7664299999999999    0.7672399999999999    0.4150000000000000 H
   0.6355400000000000    0.7649400000000000    0.4148500000000000 H
   0.4766700000000000    0.7938149999999999    0.6021500000000000 H
   0.5428900000000000    0.7872000000000000    0.6720500000000000 H
   0.8420900000000000    0.7202850000000001    0.6571000000000000 H
   0.9025100000000000    0.7185049999999999    0.5840600000000000 H
   0.5098100000000000    0.7183450000000000    0.6670600000000000 H
   0.4571200000000000    0.7237000000000000    0.5933000000000000 H
   0.0167400000000000    0.6638450000000000    0.6496700000000000 H
   0.0821200000000000    0.6763600000000000    0.5826700000000000 H
   0.6206700000000001    0.5922350000000000    0.5791200000000000 H
   0.5618500000000000    0.6219500000000000    0.5260600000000000 H
   0.6163700000000000    0.6783450000000000    0.5856100000000000 H
   0.6733700000000000    0.6488000000000000    0.6410100000000000 H
   0.7706300000000000    0.7102100000000000    0.4088800000000000 H
   0.9006000000000000    0.7094000000000000    0.4102000000000000 H
   0.9813499999999999    0.6004000000000000    0.6040500000000000 H
   0.0470100000000000    0.6128750000000001    0.5364300000000000 H
   0.8963300000000000    0.6470050000000001    0.3544700000000000 H
   0.7677000000000000    0.6480500000000000    0.3560700000000000 H
   0.4829100000000000    0.4139250000000000    0.6493000000000000 H
   0.4177100000000000    0.4264700000000000    0.5823600000000000 H
   0.8790200000000000    0.3428900000000000    0.5797300000000000 H
   0.9378200000000000    0.3722400000000000    0.5260899999999999 H
   0.7291200000000000    0.4603700000000000    0.4080100000000000 H
   0.5991400000000000    0.4594600000000000    0.4094900000000000 H
   0.8263500000000000    0.3998250000000000    0.6406600000000000 H
   0.8834100000000000    0.4290250000000000    0.5847700000000000 H
   0.5189600000000000    0.3506050000000000    0.6036400000000000 H
   0.4532500000000000    0.3630000000000000    0.5360300000000000 H
   0.6036600000000000    0.3970800000000000    0.3537000000000000 H
   0.7322600000000000    0.3981750000000000    0.3552300000000000 H
   0.5380900000000000    0.5343599999999999    0.5997900000000000 H
   0.5997000000000000    0.5354200000000000    0.6722800000000000 H
   0.8720300000000000    0.5841800000000000    0.4253000000000000 H
   0.7407800000000000    0.5860500000000000    0.4313600000000000 H
   0.7325300000000000    0.5173700000000000    0.4152100000000000 H
   0.8633600000000000    0.5146950000000000    0.4147400000000000 H
   0.0231000000000000    0.5435850000000000    0.6016899999999999 H
   0.9567300000000000    0.5374450000000000    0.6716900000000000 H
   0.6576600000000000    0.4700550000000000    0.6570000000000000 H
   0.5969100000000001    0.4685500000000000    0.5841300000000000 H
   0.9895300000000000    0.4685850000000000    0.6679000000000000 H
   0.0419700000000000    0.4733400000000000    0.5940000000000000 H
   0.8156704429241608    0.2387390449955028    0.3271986481379856 H
   0.8453572068271965    0.1390491926326936    0.2384514217199770 H
   0.8316385115249326    0.1856105379073004    0.2844123610259651 H
   0.5168300000000000    0.0875850000000000    0.1486900000000000 H
   0.5829700000000000    0.0747500000000000    0.0822500000000000 H
   0.1185800000000000    0.1587250000000000    0.0771600000000000 H
   0.0602600000000000    0.1279600000000000    0.0256900000000000 H
   0.1180300000000000    0.0727100000000000    0.0872200000000000 H
   0.1748700000000000    0.1033200000000000    0.1409000000000000 H
   0.4822500000000000    0.1509100000000000    0.1015400000000000 H
   0.5476300000000000    0.1377600000000000    0.0342800000000000 H
   0.2682700000000000    0.0409200000000000    0.9085299999999999 H
   0.3982600000000000    0.0410300000000000    0.9097100000000000 H
   0.3959200000000000    0.1037200000000000    0.8542600000000000 H
   0.2673000000000000    0.1032250000000000    0.8558800000000000 H
   0.0093200000000000    0.0331350000000000    0.1668400000000000 H
   0.9569100000000000    0.0271000000000000    0.0932200000000000 H
   0.9763200000000000    0.9570200000000000    0.1044300000000000 H
   0.0433800000000000    0.9644850000000000    0.1737400000000000 H
   0.4621600000000000    0.9666300000000000    0.0972000000000000 H
   0.4015800000000000    0.9648450000000000    0.1700600000000000 H
   0.2619200000000000    0.9841700000000000    0.9147800000000000 H
   0.1309400000000000    0.9856000000000000    0.9155799999999999 H
   0.3426900000000000    0.0302900000000000    0.1562200000000000 H
   0.4016500000000000    0.0322650000000000    0.0826700000000000 H
   0.1264500000000000    0.9161750000000000    0.9255800000000000 H
   0.2577000000000000    0.9153200000000000    0.9321500000000000 H
   0.0375500000000000    0.2170150000000000    0.0983200000000000 H
   0.0985400000000000    0.2153300000000000    0.1709000000000000 H
   0.3744400000000000    0.1669050000000000    0.9253200000000000 H
   0.2433200000000000    0.1651050000000000    0.9321600000000000 H
   0.2354100000000000    0.2338750000000000    0.9150600000000000 H
   0.3662700000000000    0.2363450000000000    0.9151000000000000 H
   0.5234700000000000    0.2072650000000000    0.1031600000000000 H
   0.4568100000000000    0.2140850000000000    0.1728200000000000 H
   0.1577000000000000    0.2807150000000000    0.1566600000000000 H
   0.0981200000000000    0.2826450000000000    0.0833600000000000 H
   0.4902700000000000    0.2828950000000000    0.1671200000000000 H
   0.5429700000000000    0.2773750000000000    0.0934800000000000 H
   0.9822300000000000    0.3369350000000000    0.1490200000000000 H
   0.9168600000000000    0.3250450000000000    0.0817900000000000 H
   0.3800700000000000    0.4084100000000000    0.0790100000000000 H
   0.4390100000000000    0.3790250000000000    0.0256500000000000 H
   0.3271500000000000    0.3515050000000000    0.1402500000000000 H
   0.3839300000000000    0.3222900000000000    0.0844300000000000 H
   0.2286900000000000    0.2906900000000000    0.9082700000000000 H
   0.0987500000000000    0.2916700000000000    0.9099200000000000 H
   0.0199000000000000    0.4003950000000000    0.1039700000000000 H
   0.9540700000000000    0.3886000000000000    0.0362000000000000 H
   0.1032200000000000    0.3541200000000000    0.8540400000000000 H
   0.2318100000000000    0.3530800000000000    0.8556800000000000 H
   0.5168300000000000    0.5875850000000000    0.1486900000000000 H
   0.5829700000000000    0.5747500000000000    0.0822500000000000 H
   0.1185800000000000    0.6587250000000000    0.0771600000000000 H
   0.0602600000000000    0.6279600000000000    0.0256900000000000 H
   0.1180300000000000    0.5727100000000001    0.0872200000000000 H
   0.1748700000000000    0.6033200000000000    0.1409000000000000 H
   0.4822500000000000    0.6509100000000000    0.1015400000000000 H
   0.5476300000000000    0.6377600000000000    0.0342800000000000 H
   0.2682700000000000    0.5409200000000000    0.9085299999999999 H
   0.3982600000000000    0.5410300000000000    0.9097100000000000 H
   0.3959200000000000    0.6037200000000000    0.8542600000000000 H
   0.2673000000000000    0.6032250000000000    0.8558800000000000 H
   0.0093200000000000    0.5331350000000000    0.1668400000000000 H
   0.9569100000000000    0.5271000000000000    0.0932200000000000 H
   0.9763200000000000    0.4570200000000000    0.1044300000000000 H
   0.0433800000000000    0.4644850000000000    0.1737400000000000 H
   0.4621600000000000    0.4666300000000000    0.0972000000000000 H
   0.4015800000000000    0.4648450000000000    0.1700600000000000 H
   0.2619200000000000    0.4841700000000000    0.9147800000000000 H
   0.1309400000000000    0.4856000000000000    0.9155799999999999 H
   0.3426900000000000    0.5302900000000000    0.1562200000000000 H
   0.4016500000000000    0.5322650000000000    0.0826700000000000 H
   0.1264500000000000    0.4161750000000000    0.9255800000000000 H
   0.2577000000000000    0.4153200000000000    0.9321500000000000 H
   0.0375500000000000    0.7170150000000000    0.0983200000000000 H
   0.0985400000000000    0.7153300000000000    0.1709000000000000 H
   0.3744400000000000    0.6669050000000000    0.9253200000000000 H
   0.2433200000000000    0.6651050000000001    0.9321600000000000 H
   0.2354100000000000    0.7338750000000001    0.9150600000000000 H
   0.3662700000000000    0.7363450000000000    0.9151000000000000 H
   0.5234700000000000    0.7072650000000000    0.1031600000000000 H
   0.4568100000000000    0.7140850000000000    0.1728200000000000 H
   0.1577000000000000    0.7807150000000000    0.1566600000000000 H
   0.0981200000000000    0.7826450000000000    0.0833600000000000 H
   0.4902700000000000    0.7828950000000000    0.1671200000000000 H
   0.5429700000000000    0.7773749999999999    0.0934800000000000 H
   0.9822300000000000    0.8369350000000000    0.1490200000000000 H
   0.9168600000000000    0.8250450000000000    0.0817900000000000 H
   0.3800700000000000    0.9084099999999999    0.0790100000000000 H
   0.4390100000000000    0.8790249999999999    0.0256500000000000 H
   0.3271500000000000    0.8515050000000000    0.1402500000000000 H
   0.3839300000000000    0.8222900000000000    0.0844300000000000 H
   0.2286900000000000    0.7906900000000000    0.9082700000000000 H
   0.0987500000000000    0.7916700000000000    0.9099200000000000 H
   0.0199000000000000    0.9003950000000001    0.1039700000000000 H
   0.9540700000000000    0.8886000000000001    0.0362000000000000 H
   0.1032200000000000    0.8541200000000000    0.8540400000000000 H
   0.2318100000000000    0.8530800000000001    0.8556800000000000 H
   0.9372700000000000    0.2674800000000000    0.6381000000000000 C
   0.0251300000000000    0.2503450000000000    0.6690000000000000 C
   0.6965800000000000    0.3210200000000000    0.4117500000000000 C
   0.7065000000000000    0.3219150000000000    0.3421000000000000 C
   0.6994500000000000    0.2800700000000000    0.4323700000000000 C
   0.5229800000000000    0.2745400000000000    0.6279900000000000 C
   0.8666100000000000    0.2367300000000000    0.6176000000000000 C
   0.6943700000000000    0.2556500000000000    0.6236400000000000 C
   0.6112500000000000    0.2785400000000000    0.5300100000000000 C
   0.7870600000000000    0.2627950000000000    0.5265500000000000 C
   0.4685800000000000    0.2377200000000000    0.6378300000000000 C
   0.3680900000000000    0.2446000000000000    0.6649500000000000 C
   0.4388000000000000    0.9025750000000000    0.6115000000000000 C
   0.3446800000000000    0.8868500000000000    0.6387699999999999 C
   0.0099600000000000    0.8681550000000000    0.6125900000000000 C
   0.9162400000000001    0.8700150000000000    0.5746000000000000 C
   0.6651700000000000    0.9421850000000001    0.4089000000000000 C
   0.8478000000000000    0.9019900000000001    0.5924199999999999 C
   0.4965700000000000    0.8738450000000000    0.5742300000000000 C
   0.5811200000000000    0.9077999999999999    0.4913700000000000 C
   0.6744200000000000    0.8844650000000001    0.5810000000000000 C
   0.7580600000000000    0.9209800000000000    0.4995800000000000 C
   0.6667500000000000    0.9160600000000000    0.3536800000000000 C
   0.6697900000000000    0.9366200000000000    0.2925300000000000 C
   0.5625400000000000    0.0173450000000000    0.6386700000000000 C
   0.4750500000000000    0.0002050000000000    0.6700700000000001 C
   0.8033400000000001    0.0709300000000000    0.4115900000000000 C
   0.7933900000000000    0.0718400000000000    0.3419800000000000 C
   0.7998300000000000    0.0300300000000000    0.4323500000000000 C
   0.9766400000000000    0.0245100000000000    0.6278300000000000 C
   0.6330300000000000    0.9866450000000000    0.6177600000000000 C
   0.8052600000000000    0.0055950000000000    0.6236100000000000 C
   0.8882700000000000    0.0284950000000000    0.5299100000000000 C
   0.7123900000000000    0.0127800000000000    0.5266300000000000 C
   0.0308000000000000    0.9877150000000000    0.6382600000000000 C
   0.1314800000000000    0.9946250000000000    0.6650400000000000 C
   0.9372700000000000    0.7674799999999999    0.6381000000000000 C
   0.0251300000000000    0.7503450000000000    0.6690000000000000 C
   0.6965800000000000    0.8210200000000001    0.4117500000000000 C
   0.7065000000000000    0.8219150000000000    0.3421000000000000 C
   0.6994500000000000    0.7800700000000000    0.4323700000000000 C
   0.5229800000000000    0.7745400000000000    0.6279900000000000 C
   0.8666100000000000    0.7367300000000000    0.6176000000000000 C
   0.6943700000000000    0.7556499999999999    0.6236400000000000 C
   0.6112500000000000    0.7785400000000000    0.5300100000000000 C
   0.7870600000000000    0.7627950000000000    0.5265500000000000 C
   0.4685800000000000    0.7377199999999999    0.6378300000000000 C
   0.3680900000000000    0.7446000000000000    0.6649500000000000 C
   0.0610500000000000    0.6524900000000000    0.6119700000000000 C
   0.1551400000000000    0.6368150000000000    0.6392200000000000 C
   0.4898200000000000    0.6173600000000000    0.6125500000000000 C
   0.5834900000000000    0.6194050000000000    0.5745100000000000 C
   0.6519600000000000    0.6512650000000000    0.5928099999999999 C
   0.8346800000000000    0.6920750000000000    0.4097200000000000 C
   0.0000000000000000    0.6236699999999999    0.5746300000000000 C
   0.8255600000000000    0.6340350000000000    0.5814200000000000 C
   0.9188600000000000    0.6576100000000000    0.4918600000000000 C
   0.7417700000000000    0.6706100000000000    0.5001400000000000 C
   0.8331800000000000    0.6659500000000000    0.3545000000000000 C
   0.8300800000000000    0.6866800000000000    0.2936000000000000 C
   0.4388000000000000    0.4025750000000000    0.6115000000000000 C
   0.3446800000000000    0.3868500000000000    0.6387699999999999 C
   0.0099600000000000    0.3681550000000000    0.6125900000000000 C
   0.9162400000000001    0.3700150000000000    0.5746000000000000 C
   0.6651700000000000    0.4421850000000000    0.4089000000000000 C
   0.8478000000000000    0.4019900000000000    0.5924199999999999 C
   0.4965700000000000    0.3738450000000000    0.5742300000000000 C
   0.5811200000000000    0.4078000000000000    0.4913700000000000 C
   0.6744200000000000    0.3844650000000000    0.5810000000000000 C
   0.7580600000000000    0.4209800000000000    0.4995800000000000 C
   0.6667500000000000    0.4160600000000000    0.3536800000000000 C
   0.6697900000000000    0.4366200000000000    0.2925300000000000 C
   0.5625400000000000    0.5173449999999999    0.6386700000000000 C
   0.4750500000000000    0.5002050000000000    0.6700700000000001 C
   0.8033400000000001    0.5709300000000000    0.4115900000000000 C
   0.7933900000000000    0.5718400000000000    0.3419800000000000 C
   0.7998300000000000    0.5300300000000000    0.4323500000000000 C
   0.9766400000000000    0.5245100000000000    0.6278300000000000 C
   0.6330300000000000    0.4866450000000000    0.6177600000000000 C
   0.8052600000000000    0.5055950000000000    0.6236100000000000 C
   0.8882700000000000    0.5284950000000000    0.5299100000000000 C
   0.7123900000000000    0.5127800000000000    0.5266300000000000 C
   0.0308000000000000    0.4877150000000000    0.6382600000000000 C
   0.1314800000000000    0.4946250000000000    0.6650400000000000 C
   0.5614600000000000    0.0987800000000000    0.1109400000000000 C
   0.6551800000000000    0.1146950000000000    0.1383000000000000 C
   0.9891500000000000    0.1333150000000000    0.1123400000000000 C
   0.0824900000000000    0.1312800000000000    0.0739000000000000 C
   0.1526700000000000    0.1000900000000000    0.0929700000000000 C
   0.5041300000000000    0.1273450000000000    0.0728000000000000 C
   0.3329700000000000    0.0587100000000000    0.9093000000000000 C
   0.3257500000000000    0.1178300000000000    0.0796000000000000 C
   0.4185400000000000    0.0929150000000000    0.9910000000000000 C
   0.2414100000000000    0.0801850000000000    0.0000000000000000 C
   0.3322400000000000    0.0850400000000000    0.8542300000000000 C
   0.3285000000000000    0.0646250000000000    0.7931300000000000 C
   0.8677900000000000    0.0067450000000000    0.1652000000000000 C
   0.9682900000000000    0.0134750000000000    0.1381100000000000 C
   0.0000000000000000    0.9766250000000001    0.1293500000000000 C
   0.4379200000000000    0.9832750000000000    0.1365000000000000 C
   0.5255000000000000    0.0000000000000000    0.1676500000000000 C
   0.1958600000000000    0.9708800000000000    0.9326200000000000 C
   0.3665300000000000    0.0139400000000000    0.1165100000000000 C
   0.1941500000000000    0.9953600000000000    0.1238100000000000 C
   0.1091500000000000    0.9725699999999999    0.0308300000000000 C
   0.2851600000000000    0.9878600000000000    0.0261000000000000 C
   0.1946200000000000    0.9299500000000001    0.9120200000000001 C
   0.2057800000000000    0.9291550000000000    0.8424700000000001 C
   0.0621000000000000    0.2337450000000000    0.1374400000000000 C
   0.9747800000000000    0.2510150000000000    0.1687800000000000 C
   0.3055900000000000    0.1802100000000000    0.9119000000000000 C
   0.2942200000000000    0.1792750000000000    0.8423800000000000 C
   0.3024000000000000    0.2211150000000000    0.9325300000000000 C
   0.4770500000000000    0.2266250000000000    0.1286700000000000 C
   0.1334600000000000    0.2643350000000000    0.1170900000000000 C
   0.3056900000000000    0.2454650000000000    0.1238100000000000 C
   0.3897800000000000    0.2226750000000000    0.0304900000000000 C
   0.2139800000000000    0.2383150000000000    0.0263800000000000 C
   0.5314900000000000    0.2634400000000000    0.1381100000000000 C
   0.6319500000000000    0.2566650000000000    0.1652400000000000 C
   0.9385100000000000    0.3486650000000000    0.1113300000000000 C
   0.8447500000000000    0.3646450000000000    0.1385300000000000 C
   0.5107900000000000    0.3831450000000000    0.1122000000000000 C
   0.4172400000000000    0.3812650000000000    0.0741100000000000 C
   0.3485000000000000    0.3493550000000000    0.0920000000000000 C
   0.1648100000000000    0.3089100000000000    0.9092300000000000 C
   0.9970800000000000    0.3773900000000000    0.0743200000000000 C
   0.1750600000000000    0.3669800000000000    0.0806600000000000 C
   0.0809700000000000    0.3429250000000000    0.9919500000000000 C
   0.2583400000000000    0.3304100000000000    0.9992000000000000 C
   0.1663700000000000    0.3351700000000000    0.8540700000000000 C
   0.1696100000000000    0.3146950000000000    0.7929900000000000 C
   0.5614600000000000    0.5987800000000000    0.1109400000000000 C
   0.6551800000000000    0.6146950000000000    0.1383000000000000 C
   0.9891500000000000    0.6333150000000000    0.1123400000000000 C
   0.0824900000000000    0.6312800000000001    0.0739000000000000 C
   0.1526700000000000    0.6000900000000000    0.0929700000000000 C
   0.5041300000000000    0.6273450000000000    0.0728000000000000 C
   0.3329700000000000    0.5587100000000000    0.9093000000000000 C
   0.3257500000000000    0.6178300000000000    0.0796000000000000 C
   0.4185400000000000    0.5929150000000000    0.9910000000000000 C
   0.2414100000000000    0.5801850000000000    0.0000000000000000 C
   0.3322400000000000    0.5850400000000000    0.8542300000000000 C
   0.3285000000000000    0.5646250000000000    0.7931300000000000 C
   0.8677900000000000    0.5067450000000000    0.1652000000000000 C
   0.9682900000000000    0.5134750000000000    0.1381100000000000 C
   0.0000000000000000    0.4766250000000000    0.1293500000000000 C
   0.4379200000000000    0.4832750000000000    0.1365000000000000 C
   0.5255000000000000    0.5000000000000000    0.1676500000000000 C
   0.1958600000000000    0.4708800000000000    0.9326200000000000 C
   0.3665300000000000    0.5139400000000000    0.1165100000000000 C
   0.1941500000000000    0.4953600000000000    0.1238100000000000 C
   0.1091500000000000    0.4725700000000000    0.0308300000000000 C
   0.2851600000000000    0.4878600000000000    0.0261000000000000 C
   0.1946200000000000    0.4299500000000000    0.9120200000000001 C
   0.2057800000000000    0.4291550000000000    0.8424700000000001 C
   0.0621000000000000    0.7337450000000000    0.1374400000000000 C
   0.9747800000000000    0.7510150000000000    0.1687800000000000 C
   0.3055900000000000    0.6802100000000000    0.9119000000000000 C
   0.2942200000000000    0.6792750000000000    0.8423800000000000 C
   0.3024000000000000    0.7211150000000000    0.9325300000000000 C
   0.4770500000000000    0.7266250000000000    0.1286700000000000 C
   0.1334600000000000    0.7643350000000000    0.1170900000000000 C
   0.3056900000000000    0.7454650000000000    0.1238100000000000 C
   0.3897800000000000    0.7226750000000000    0.0304900000000000 C
   0.2139800000000000    0.7383150000000001    0.0263800000000000 C
   0.5314900000000000    0.7634400000000000    0.1381100000000000 C
   0.6319500000000000    0.7566649999999999    0.1652400000000000 C
   0.9385100000000000    0.8486650000000000    0.1113300000000000 C
   0.8447500000000000    0.8646450000000000    0.1385300000000000 C
   0.5107900000000000    0.8831450000000001    0.1122000000000000 C
   0.4172400000000000    0.8812650000000000    0.0741100000000000 C
   0.3485000000000000    0.8493550000000001    0.0920000000000000 C
   0.1648100000000000    0.8089100000000000    0.9092300000000000 C
   0.9970800000000000    0.8773900000000000    0.0743200000000000 C
   0.1750600000000000    0.8669800000000000    0.0806600000000000 C
   0.0809700000000000    0.8429249999999999    0.9919500000000000 C
   0.2583400000000000    0.8304100000000000    0.9992000000000000 C
   0.1663700000000000    0.8351700000000000    0.8540700000000000 C
   0.1696100000000000    0.8146949999999999    0.7929900000000000 C
   0.6133600000000000    0.2696650000000000    0.5925100000000000 N
   0.7791000000000000    0.2521900000000000    0.5880500000000000 N
   0.7004700000000000    0.2751400000000000    0.4993700000000000 N
   0.5874800000000000    0.8898050000000000    0.5484599999999999 N
   0.6693400000000000    0.9216800000000001    0.4679000000000000 N
   0.7566600000000000    0.9021749999999999    0.5559600000000000 N
   0.8862700000000000    0.0195550000000000    0.5923900000000000 N
   0.7204600000000000    0.0021500000000000    0.5881100000000000 N
   0.7989400000000000    0.0251600000000000    0.4993700000000000 N
   0.6133600000000000    0.7696650000000000    0.5925100000000000 N
   0.7791000000000000    0.7521900000000000    0.5880500000000000 N
   0.7004700000000000    0.7751399999999999    0.4993700000000000 N
   0.9125400000000000    0.6395200000000000    0.5488800000000000 N
   0.8306200000000000    0.6715350000000000    0.4686200000000000 N
   0.7431600000000000    0.6516550000000000    0.5563800000000000 N
   0.5874800000000000    0.3898050000000000    0.5484599999999999 N
   0.6693400000000000    0.4216800000000000    0.4679000000000000 N
   0.7566600000000000    0.4021750000000000    0.5559600000000000 N
   0.8862700000000000    0.5195550000000000    0.5923900000000000 N
   0.7204600000000000    0.5021500000000000    0.5881100000000000 N
   0.7989400000000000    0.5251600000000000    0.4993700000000000 N
   0.4128200000000000    0.1114350000000000    0.0476200000000000 N
   0.2433300000000000    0.0996400000000000    0.0559100000000000 N
   0.3298300000000000    0.0791650000000000    0.9682100000000000 N
   0.1127000000000000    0.9812500000000000    0.0933300000000000 N
   0.1979400000000000    0.9757150000000000    0.9996100000000000 N
   0.2784700000000000    0.9984600000000000    0.0877100000000000 N
   0.3869600000000000    0.2314800000000000    0.0929500000000000 N
   0.2211700000000000    0.2487650000000000    0.0879400000000000 N
   0.3008400000000000    0.2259750000000000    0.9995000000000001 N
   0.0878200000000000    0.3613250000000000    0.0485800000000000 N
   0.1691900000000000    0.3293550000000000    0.9681400000000000 N
   0.2572300000000000    0.3492200000000000    0.0556100000000000 N
   0.4128200000000000    0.6114350000000000    0.0476200000000000 N
   0.2433300000000000    0.5996400000000000    0.0559100000000000 N
   0.3298300000000000    0.5791650000000000    0.9682100000000000 N
   0.1127000000000000    0.4812500000000000    0.0933300000000000 N
   0.1979400000000000    0.4757150000000000    0.9996100000000000 N
   0.2784700000000000    0.4984600000000000    0.0877100000000000 N
   0.3869600000000000    0.7314800000000000    0.0929500000000000 N
   0.2211700000000000    0.7487650000000000    0.0879400000000000 N
   0.3008400000000000    0.7259750000000000    0.9995000000000001 N
   0.0878200000000000    0.8613250000000000    0.0485800000000000 N