H4 O2
1.0
  31.8823258126954094    0.0000000000000000    0.6995718498738385
   8.7502223856681240   33.7565147549529030   16.8368493430332542
   0.0000000000000000    0.0000000000000000   21.9100000000000001
H O
4 2
direct
   0.4766076585015663    0.1228601307252113    0.3618046419724012 H
   0.4336616988279603    0.1541833998935292    0.3714559575570485 H
   0.5663478588645290    0.0958106697617961    0.6285076335471286 H
   0.5234010653562192    0.1271270054768905    0.6381646351078769 H
   0.4474550000000000    0.1402850000000000    0.3452900000000000 O
   0.5525550000000000    0.1097050000000000    0.6546800000000000 O
