H4 C8 O4
1.0
  31.8823258126954094    0.0000000000000000    0.6995718498738385
   8.7502223856681240   33.7565147549529030   16.8368493430332542
   0.0000000000000000    0.0000000000000000   21.9100000000000001
H C O
4 8 4
direct
   0.1769800000000000    0.4924400000000000    0.0907400000000000 H
   0.0843200000000000    0.4487150000000000    0.0242000000000000 H
   0.0730250000000000    0.5075400000000000    0.9092400000000000 H
   0.1656800000000000    0.5512700000000000    0.9757800000000000 H
   0.1314350000000000    0.4669900000000000    0.0640500000000000 C
   0.1368800000000000    0.4321400000000000    0.1330900000000000 C
   0.1543350000000000    0.4959700000000000    0.0506800000000000 C
   0.1020800000000000    0.4713250000000000    0.0128100000000000 C
   0.1131200000000000    0.5678450000000000    0.8668800000000000 C
   0.1185650000000000    0.5329950000000000    0.9359000000000000 C
   0.0956650000000000    0.5040100000000000    0.9493000000000000 C
   0.1479250000000000    0.5286600000000000    0.9871700000000000 C
   0.1647350000000000    0.4288050000000000    0.1777200000000000 O
   0.1128400000000000    0.4088000000000000    0.1419400000000000 O
   0.0852650000000000    0.5711750000000000    0.8222600000000000 O
   0.1371600000000000    0.5911850000000000    0.8580300000000000 O
