H8 C10 N2
1.0
  31.8823258126954094    0.0000000000000000    0.6995718498738385
   8.7502223856681240   33.7565147549529030   16.8368493430332542
   0.0000000000000000    0.0000000000000000   21.9100000000000001
H C N
8 10 2
direct
   0.4974950000000000    0.1484550000000000    0.6623700000000000 H
   0.4586600000000000    0.1602250000000000    0.5569000000000000 H
   0.3960400000000000    0.1786000000000000    0.3610900000000000 H
   0.4304050000000000    0.1710300000000000    0.4675800000000000 H
   0.6039750000000000    0.0714000000000000    0.6388000000000000 H
   0.5696150000000000    0.0789750000000000    0.5323700000000000 H
   0.5000000000000000    0.1015250000000000    0.3376000000000000 H
   0.5413500000000000    0.0897600000000000    0.4430500000000000 H
   0.4908000000000000    0.1400800000000000    0.5721300000000000 C
   0.4284250000000000    0.1594600000000000    0.3813900000000000 C
   0.4480700000000000    0.1546200000000000    0.4414000000000000 C
   0.4893350000000000    0.1286400000000000    0.4672200000000000 C
   0.4876500000000000    0.1162600000000000    0.3680600000000000 C
   0.5715850000000000    0.0905350000000000    0.6185700000000000 C
   0.5519450000000000    0.0953800000000000    0.5585500000000000 C
   0.5106800000000000    0.1213550000000000    0.5327499999999999 C
   0.5123600000000000    0.1337250000000000    0.6319100000000000 C
   0.5092100000000001    0.1099050000000000    0.4278400000000000 C
   0.4474550000000000    0.1402850000000000    0.3452900000000000 N
   0.5525550000000000    0.1097050000000000    0.6546800000000000 N
