H12 O8
1.0
  16.8449586188058653    0.0000000000000000    0.0373380599125491
   0.1422498416108370   18.9604530426157503    0.0225033625211490
   0.0000000000000000    0.0000000000000000   23.8880000000000017
H O
12 8
direct
   0.3428766391685003    0.9512746057976771    0.4498766855687375 H
   0.3546610122237348    0.8021202195259269    0.5714527919196144 H
   0.3524010885156599    0.8741832890920550    0.5096756845948996 H
   0.3065314147697278    0.1551777796778994    0.5256429217067571 H
   0.3060744725139622    0.1637892937354575    0.5948550326511204 H
   0.3100085818929073    0.1741164131497774    0.6457391084105962 H
   0.3436478752447725    0.1658864684298337   -0.0873398079150956 H
   0.3316388971019978    0.0217769575403591    0.0293176916868866 H
   0.3379040485455138    0.0871281062602799   -0.0334967781019593 H
   0.2990208685610254    0.8095619869567914    0.8848113821220382 H
   0.2796397290496840    0.8099936948216149    0.9593443809115502 H
   0.7706871726504072    0.8194887333507590    0.9162105427674679 H
   0.3299066666666667    0.9258100000000000    0.4838900000000000 O
   0.3366966666666666    0.8433500000000000    0.5508600000000000 O
   0.3394800000000000    0.1886000000000000    0.5454599999999999 O
   0.3333333333333333    0.1914400000000000    0.6112500000000000 O
   0.3401933333333333    0.1537800000000000   -0.0479500000000000 O
   0.3333333333333333    0.0711100000000000    0.0186200000000000 O
   0.2419400000000000    0.8081300000000000    0.8900700000000000 O
   0.3370466666666667    0.8086100000000001    0.9561600000000000 O
