H6 C16 N2 O7
1.0
  16.8449586188058653    0.0000000000000000    0.0373380599125491
   0.1422498416108370   18.9604530426157503    0.0225033625211490
   0.0000000000000000    0.0000000000000000   23.8880000000000017
H C N O
6 16 2 7
direct
   0.8306499999999999    0.0487700000000000    0.0191100000000000 H
   0.8471466666666666    0.8904200000000000    0.1478200000000000 H
   0.8120600000000000    0.1078800000000000    0.1936200000000000 H
   0.8100499999999999    0.8882700000000000    0.3093600000000000 H
   0.8296866666666667    0.9476900000000000    0.4836100000000000 H
   0.8510899999999999    0.1046700000000000    0.3543700000000000 H
   0.8009533333333333    0.1595900000000000    0.0877900000000000 C
   0.8223199999999999    0.0864800000000000    0.1047900000000000 C
   0.8327000000000000    0.0347900000000000    0.0633100000000000 C
   0.8393400000000000    0.9639100000000000    0.0788800000000000 C
   0.8354433333333333    0.9077100000000000    0.0353000000000000 C
   0.8418899999999999    0.9456200000000000    0.1355900000000000 C
   0.8355199999999999    0.9976800000000000    0.1769700000000000 C
   0.8225899999999999    0.0682900000000000    0.1614100000000000 C
   0.8361833333333333    0.0000000000000000    0.3256000000000000 C
   0.8215133333333333    0.9276900000000000    0.3413900000000000 C
   0.8208466666666666    0.9098000000000001    0.3980800000000000 C
   0.7988666666666666    0.8372600000000000    0.4154600000000000 C
   0.8323466666666666    0.9613400000000000    0.4393700000000000 C
   0.8409733333333334    0.0318900000000000    0.4235800000000000 C
   0.8383699999999999    0.0884400000000000    0.4669700000000000 C
   0.8441900000000000    0.0497600000000000    0.3668000000000000 C
   0.8372900000000000    0.9731600000000000    0.2329600000000000 N
   0.8384866666666666    0.0221000000000000    0.2695600000000000 N
   0.7442466666666666    0.1913100000000000    0.1119300000000000 O
   0.8300333333333333    0.9258400000000000    0.9836700000000000 O
   0.8335266666666666    0.8431200000000000    1.0505700000000000 O
   0.7429566666666666    0.8057299999999999    0.3911200000000000 O
   0.8371899999999999    0.8085100000000000    0.4576300000000000 O
   0.8400399999999999    0.1529700000000000    0.4515800000000000 O
   0.8300399999999999    0.0708600000000000    0.5185400000000000 O
