H6 O4
1.0
  21.0285279309291298    0.0000000000000000   -2.0270394811481669
  -2.3919486596610708   10.9845626608535660   -1.6676899470007145
   0.0000000000000000    0.0000000000000000   33.6319999999999979
H O
6 4
direct
   0.2281921688442857    0.8204932147769789    0.4355366977917646 H
   0.0457121409966120    0.6249961670287609    0.4559950670259476 H
   0.1277517681859902    0.7334896967579274    0.4402897029387356 H
   0.1959117099793540    0.8224864463313949    0.2761858517769586 H
   0.2029370364197252    0.8455692835367578    0.2772762642741058 H
   0.0834856844735737    0.7551147504308549    0.2927165807539711 H
   0.2052450000000000    0.7597699999999999    0.4495250000000000 O
   0.0927850000000000    0.6409600000000000    0.4616050000000000 O
   0.1592400000000000    0.8282600000000000    0.2847000000000000 O
   0.0422300000000000    0.7616100000000000    0.3022950000000000 O
