H12 C12 S4 O4
1.0
  39.4319730398005603    0.0000000000000000    0.0461106109444831
   0.0025020639425359   13.1259907871031718    0.0153491549821791
   0.0000000000000000    0.0000000000000000   27.3200000000000003
H C S O
12 12 4 4
direct
   0.1390800000000000    0.1885400000000000    0.3964200000000000 H
   0.1385500000000000    0.1425400000000000    0.3351250000000000 H
   0.1141166666666667    0.0776100000000000    0.3819950000000000 H
   0.1532666666666667    0.7061600000000000    0.4883500000000000 H
   0.2056800000000000    0.3562000000000000    0.4659750000000000 H
   0.1685300000000000    0.2890000000000000    0.4472750000000000 H
   0.1276466666666667    0.6437000000000000    0.5340250000000000 H
   0.1648000000000000    0.7109000000000000    0.5527200000000000 H
   0.1942633333333333    0.8113800000000000    0.6035699999999999 H
   0.1947800000000000    0.8573900000000000    0.6648600000000000 H
   0.2192233333333333    0.9223200000000000    0.6180000000000000 H
   0.1800666666666667    0.2937100000000000    0.5116450000000000 H
   0.1268666666666667    0.8800900000000000    0.4300800000000000 C
   0.1480466666666667    0.9421900000000000    0.4659150000000000 C
   0.1697700000000000    0.0199500000000000    0.4492350000000000 C
   0.1373266666666667    0.1200900000000000    0.3737500000000000 C
   0.1881333333333333    0.0784200000000000    0.4835450000000000 C
   0.1892666666666666    0.2906800000000000    0.4738050000000000 C
   0.1452066666666667    0.9215100000000001    0.5164350000000000 C
   0.1440633333333333    0.7092000000000001    0.5261900000000000 C
   0.2064666666666666    0.1198500000000000    0.5698900000000000 C
   0.1852966666666667    0.0577000000000000    0.5340500000000000 C
   0.1635733333333333    0.9799400000000000    0.5507500000000000 C
   0.1960100000000000    0.8798400000000000    0.6262099999999999 C
   0.1734666666666667    0.0371500000000000    0.3844800000000000 S
   0.2164166666666666    0.1794200000000000    0.4671750000000000 S
   0.1169300000000000    0.8205000000000000    0.5328000000000001 S
   0.1598666666666667    0.9627700000000000    0.6155050000000000 S
   0.1392233333333333    0.7942600000000000    0.4185500000000000 O
   0.0991766666666667    0.9199800000000000    0.4166700000000000 O
   0.1940966666666666    0.2056600000000000    0.5814250000000000 O
   0.2341600000000000    0.0800000000000000    0.5833100000000000 O
