Ag48 H276 C276 S92 O92
1.0
  39.4319730398005603    0.0000000000000000    0.0461106109444831
   0.0025020639425359   13.1259907871031718    0.0153491549821791
   0.0000000000000000    0.0000000000000000   27.3200000000000003
Ag H C S O
48 276 276 92 92
direct
   0.2251800000000000    0.1685200000000000    0.3756850000000000 Ag
   0.2224766666666667    0.3251000000000000    0.1253500000000000 Ag
   0.2770500000000000    0.1742200000000000    0.1255100000000000 Ag
   0.0580533333333333    0.6670400000000000    0.1247600000000000 Ag
   0.1081400000000000    0.8314500000000000    0.1242850000000000 Ag
   0.1108300000000000    0.6748300000000000    0.3746250000000000 Ag
   0.0562833333333333    0.8257800000000000    0.3744850000000000 Ag
   0.2752666666666667    0.3329200000000000    0.3752200000000000 Ag
   0.5585133333333333    0.1685200000000000    0.3756850000000000 Ag
   0.5558099999999999    0.3251000000000000    0.1253500000000000 Ag
   0.6103833333333333    0.1742200000000000    0.1255100000000000 Ag
   0.3913866666666667    0.6670400000000000    0.1247600000000000 Ag
   0.4414733333333333    0.8314500000000000    0.1242850000000000 Ag
   0.4441633333333333    0.6748300000000000    0.3746250000000000 Ag
   0.3896166666666667    0.8257800000000000    0.3744850000000000 Ag
   0.6086000000000000    0.3329200000000000    0.3752200000000000 Ag
   0.8918466666666667    0.1685200000000000    0.3756850000000000 Ag
   0.8891433333333333    0.3251000000000000    0.1253500000000000 Ag
   0.9437166666666666    0.1742200000000000    0.1255100000000000 Ag
   0.7247199999999999    0.6670400000000000    0.1247600000000000 Ag
   0.7748066666666666    0.8314500000000000    0.1242850000000000 Ag
   0.7774966666666666    0.6748300000000000    0.3746250000000000 Ag
   0.7229500000000000    0.8257800000000000    0.3744850000000000 Ag
   0.9419333333333333    0.3329200000000000    0.3752200000000000 Ag
   0.2251800000000000    0.1685200000000000    0.8756850000000000 Ag
   0.2224766666666667    0.3251000000000000    0.6253500000000000 Ag
   0.2770500000000000    0.1742200000000000    0.6255100000000000 Ag
   0.0580533333333333    0.6670400000000000    0.6247600000000000 Ag
   0.1081400000000000    0.8314500000000000    0.6242850000000000 Ag
   0.1108300000000000    0.6748300000000000    0.8746250000000000 Ag
   0.0562833333333333    0.8257800000000000    0.8744850000000000 Ag
   0.2752666666666667    0.3329200000000000    0.8752200000000000 Ag
   0.5585133333333333    0.1685200000000000    0.8756850000000000 Ag
   0.5558099999999999    0.3251000000000000    0.6253500000000000 Ag
   0.6103833333333333    0.1742200000000000    0.6255100000000000 Ag
   0.3913866666666667    0.6670400000000000    0.6247600000000000 Ag
   0.4414733333333333    0.8314500000000000    0.6242850000000000 Ag
   0.4441633333333333    0.6748300000000000    0.8746250000000000 Ag
   0.3896166666666667    0.8257800000000000    0.8744850000000000 Ag
   0.6086000000000000    0.3329200000000000    0.8752200000000000 Ag
   0.8918466666666667    0.1685200000000000    0.8756850000000000 Ag
   0.8891433333333333    0.3251000000000000    0.6253500000000000 Ag
   0.9437166666666666    0.1742200000000000    0.6255100000000000 Ag
   0.7247199999999999    0.6670400000000000    0.6247600000000000 Ag
   0.7748066666666666    0.8314500000000000    0.6242850000000000 Ag
   0.7774966666666666    0.6748300000000000    0.8746250000000000 Ag
   0.7229500000000000    0.8257800000000000    0.8744850000000000 Ag
   0.9419333333333333    0.3329200000000000    0.8752200000000000 Ag
   0.0276033333333333    0.3112900000000000    0.3971600000000000 H
   0.0287300000000000    0.3567700000000000    0.3357450000000000 H
   0.0530266666666667    0.4213700000000000    0.3827300000000000 H
   0.0136566666666667    0.7938600000000000    0.4885000000000000 H
   0.0392866666666667    0.8559700000000000    0.0341450000000000 H
   0.0019366666666667    0.7896500000000000    0.0529100000000000 H
   0.1276466666666667    0.6437000000000000    0.0340250000000000 H
   0.1648000000000000    0.7109000000000000    0.0527200000000000 H
   0.2294933333333333    0.5831200000000000    0.1471000000000000 H
   0.2143766666666667    0.5863600000000000    0.0857150000000000 H
   0.1927233333333333    0.6589600000000000    0.1327700000000000 H
   0.0686833333333333    0.5401899999999999    0.2386450000000000 H
   0.0479666666666667    0.6170099999999999    0.2843550000000000 H
   0.0702266666666667    0.5050400000000000    0.3029800000000000 H
   0.2701100000000000    0.9168200000000000    0.1473400000000000 H
   0.2852300000000000    0.9138300000000000    0.0859150000000000 H
   0.3068100000000000    0.8407200000000000    0.1328600000000000 H
   0.0976400000000000    0.9589200000000000    0.2375000000000000 H
   0.1186233333333333    0.8823900000000000    0.2830700000000000 H
   0.0965066666666667    0.9945800000000000    0.3017500000000000 H
   0.3057233333333333    0.6887300000000000    0.1028300000000000 H
   0.3045966666666666    0.6432600000000001    0.1642400000000000 H
   0.2802866666666667    0.5786800000000000    0.1172600000000000 H
   0.3196666666666667    0.2061500000000000    0.0114450000000000 H
   0.2940500000000000    0.1440200000000000    0.4658400000000000 H
   0.3313933333333333    0.2103700000000000    0.4470800000000000 H
   0.1942633333333333    0.8113800000000000    0.1035700000000000 H
   0.1947800000000000    0.8573900000000000    0.1648600000000000 H
   0.2192233333333333    0.9223200000000000    0.1180000000000000 H
   0.1800666666666667    0.2937100000000000    0.0116450000000000 H
   0.1038300000000000    0.4168100000000000    0.3528700000000000 H
   0.1189466666666667    0.4135700000000000    0.4142500000000000 H
   0.1406066666666667    0.3409900000000000    0.3672000000000000 H
   0.2646466666666666    0.4598000000000000    0.2613100000000000 H
   0.2853533333333333    0.3829600000000000    0.2156050000000000 H
   0.2630966666666666    0.4949300000000000    0.1969750000000000 H
   0.0632233333333333    0.0831800000000000    0.3526350000000000 H
   0.0481100000000000    0.0861800000000000    0.4140650000000000 H
   0.0265266666666667    0.1592800000000000    0.3671150000000000 H
   0.2356966666666667    0.0410400000000000    0.2624950000000000 H
   0.2147066666666667    0.1175800000000000    0.2169000000000000 H
   0.2368233333333333    0.0053900000000000    0.1982400000000000 H
   0.3609366666666666    0.3112900000000000    0.3971600000000000 H
   0.3620633333333333    0.3567700000000000    0.3357450000000000 H
   0.3863600000000000    0.4213700000000000    0.3827300000000000 H
   0.3469900000000000    0.7938600000000000    0.4885000000000000 H
   0.3726200000000000    0.8559700000000000    0.0341450000000000 H
   0.3352700000000000    0.7896500000000000    0.0529100000000000 H
   0.4724133333333333    0.1885400000000000    0.3964200000000000 H
   0.4718833333333333    0.1425400000000000    0.3351250000000000 H
   0.4474500000000000    0.0776100000000000    0.3819950000000000 H
   0.4866000000000000    0.7061600000000000    0.4883500000000000 H
   0.4609799999999999    0.6437000000000000    0.0340250000000000 H
   0.4981333333333333    0.7109000000000000    0.0527200000000000 H
   0.5628266666666666    0.5831200000000000    0.1471000000000000 H
   0.5477099999999999    0.5863600000000000    0.0857150000000000 H
   0.5260566666666666    0.6589600000000000    0.1327700000000000 H
   0.4020166666666666    0.5401899999999999    0.2386450000000000 H
   0.3813000000000000    0.6170099999999999    0.2843550000000000 H
   0.4035600000000000    0.5050400000000000    0.3029800000000000 H
   0.6034433333333333    0.9168200000000000    0.1473400000000000 H
   0.6185633333333334    0.9138300000000000    0.0859150000000000 H
   0.6401433333333333    0.8407200000000000    0.1328600000000000 H
   0.4309733333333333    0.9589200000000000    0.2375000000000000 H
   0.4519566666666667    0.8823900000000000    0.2830700000000000 H
   0.4298400000000000    0.9945800000000000    0.3017500000000000 H
   0.6390566666666666    0.6887300000000000    0.1028300000000000 H
   0.6379299999999999    0.6432600000000001    0.1642400000000000 H
   0.6136200000000001    0.5786800000000000    0.1172600000000000 H
   0.6530000000000000    0.2061500000000000    0.0114450000000000 H
   0.6273833333333333    0.1440200000000000    0.4658400000000000 H
   0.6647266666666667    0.2103700000000000    0.4470800000000000 H
   0.5275966666666667    0.8113800000000000    0.1035700000000000 H
   0.5281133333333333    0.8573900000000000    0.1648600000000000 H
   0.5525566666666666    0.9223200000000000    0.1180000000000000 H
   0.5134000000000000    0.2937100000000000    0.0116450000000000 H
   0.5390133333333333    0.3562000000000000    0.4659750000000000 H
   0.5018633333333333    0.2890000000000000    0.4472750000000000 H
   0.4371633333333333    0.4168100000000000    0.3528700000000000 H
   0.4522800000000000    0.4135700000000000    0.4142500000000000 H
   0.4739400000000000    0.3409900000000000    0.3672000000000000 H
   0.5979800000000000    0.4598000000000000    0.2613100000000000 H
   0.6186866666666666    0.3829600000000000    0.2156050000000000 H
   0.5964300000000000    0.4949300000000000    0.1969750000000000 H
   0.3965566666666667    0.0831800000000000    0.3526350000000000 H
   0.3814433333333333    0.0861800000000000    0.4140650000000000 H
   0.3598600000000000    0.1592800000000000    0.3671150000000000 H
   0.5690299999999999    0.0410400000000000    0.2624950000000000 H
   0.5480400000000000    0.1175800000000000    0.2169000000000000 H
   0.5701566666666666    0.0053900000000000    0.1982400000000000 H
   0.6942699999999999    0.3112900000000000    0.3971600000000000 H
   0.6953966666666667    0.3567700000000000    0.3357450000000000 H
   0.7196933333333333    0.4213700000000000    0.3827300000000000 H
   0.6803233333333333    0.7938600000000000    0.4885000000000000 H
   0.7059533333333333    0.8559700000000000    0.0341450000000000 H
   0.6686033333333333    0.7896500000000000    0.0529100000000000 H
   0.8057466666666666    0.1885400000000000    0.3964200000000000 H
   0.8052166666666667    0.1425400000000000    0.3351250000000000 H
   0.7807833333333333    0.0776100000000000    0.3819950000000000 H
   0.8199333333333333    0.7061600000000000    0.4883500000000000 H
   0.7943133333333333    0.6437000000000000    0.0340250000000000 H
   0.8314666666666666    0.7109000000000000    0.0527200000000000 H
   0.8961600000000000    0.5831200000000000    0.1471000000000000 H
   0.8810433333333333    0.5863600000000000    0.0857150000000000 H
   0.8593899999999999    0.6589600000000000    0.1327700000000000 H
   0.7353499999999999    0.5401899999999999    0.2386450000000000 H
   0.7146333333333333    0.6170099999999999    0.2843550000000000 H
   0.7368933333333333    0.5050400000000000    0.3029800000000000 H
   0.9367766666666666    0.9168200000000000    0.1473400000000000 H
   0.9518966666666666    0.9138300000000000    0.0859150000000000 H
   0.9734766666666665    0.8407200000000000    0.1328600000000000 H
   0.7643066666666667    0.9589200000000000    0.2375000000000000 H
   0.7852899999999999    0.8823900000000000    0.2830700000000000 H
   0.7631733333333333    0.9945800000000000    0.3017500000000000 H
   0.9723900000000000    0.6887300000000000    0.1028300000000000 H
   0.9712633333333333    0.6432600000000001    0.1642400000000000 H
   0.9469533333333333    0.5786800000000000    0.1172600000000000 H
   0.9863333333333333    0.2061500000000000    0.0114450000000000 H
   0.9607166666666667    0.1440200000000000    0.4658400000000000 H
   0.9980599999999999    0.2103700000000000    0.4470800000000000 H
   0.8609300000000000    0.8113800000000000    0.1035700000000000 H
   0.8614466666666666    0.8573900000000000    0.1648600000000000 H
   0.8858900000000000    0.9223200000000000    0.1180000000000000 H
   0.8467333333333333    0.2937100000000000    0.0116450000000000 H
   0.8723466666666666    0.3562000000000000    0.4659750000000000 H
   0.8351966666666666    0.2890000000000000    0.4472750000000000 H
   0.7704966666666666    0.4168100000000000    0.3528700000000000 H
   0.7856133333333333    0.4135700000000000    0.4142500000000000 H
   0.8072733333333333    0.3409900000000000    0.3672000000000000 H
   0.9313133333333332    0.4598000000000000    0.2613100000000000 H
   0.9520200000000000    0.3829600000000000    0.2156050000000000 H
   0.9297633333333333    0.4949300000000000    0.1969750000000000 H
   0.7298899999999999    0.0831800000000000    0.3526350000000000 H
   0.7147766666666666    0.0861800000000000    0.4140650000000000 H
   0.6931933333333333    0.1592800000000000    0.3671150000000000 H
   0.9023633333333333    0.0410400000000000    0.2624950000000000 H
   0.8813733333333333    0.1175800000000000    0.2169000000000000 H
   0.9034899999999999    0.0053900000000000    0.1982400000000000 H
   0.0276033333333333    0.3112900000000000    0.8971600000000000 H
   0.0287300000000000    0.3567700000000000    0.8357450000000000 H
   0.0530266666666667    0.4213700000000000    0.8827300000000000 H
   0.0136566666666667    0.7938600000000000    0.9884999999999999 H
   0.0392866666666667    0.8559700000000000    0.5341450000000000 H
   0.0019366666666667    0.7896500000000000    0.5529100000000000 H
   0.1390800000000000    0.1885400000000000    0.8964200000000000 H
   0.1385500000000000    0.1425400000000000    0.8351250000000000 H
   0.1141166666666667    0.0776100000000000    0.8819950000000000 H
   0.1532666666666667    0.7061600000000000    0.9883500000000001 H
   0.2294933333333333    0.5831200000000000    0.6471000000000000 H
   0.2143766666666667    0.5863600000000000    0.5857150000000000 H
   0.1927233333333333    0.6589600000000000    0.6327700000000001 H
   0.0686833333333333    0.5401899999999999    0.7386450000000000 H
   0.0479666666666667    0.6170099999999999    0.7843550000000000 H
   0.0702266666666667    0.5050400000000000    0.8029800000000000 H
   0.2701100000000000    0.9168200000000000    0.6473400000000000 H
   0.2852300000000000    0.9138300000000000    0.5859150000000000 H
   0.3068100000000000    0.8407200000000000    0.6328600000000000 H
   0.0976400000000000    0.9589200000000000    0.7375000000000000 H
   0.1186233333333333    0.8823900000000000    0.7830699999999999 H
   0.0965066666666667    0.9945800000000000    0.8017500000000000 H
   0.3057233333333333    0.6887300000000000    0.6028300000000000 H
   0.3045966666666666    0.6432600000000001    0.6642399999999999 H
   0.2802866666666667    0.5786800000000000    0.6172600000000000 H
   0.3196666666666667    0.2061500000000000    0.5114450000000000 H
   0.2940500000000000    0.1440200000000000    0.9658400000000000 H
   0.3313933333333333    0.2103700000000000    0.9470799999999999 H
   0.2056800000000000    0.3562000000000000    0.9659750000000000 H
   0.1685300000000000    0.2890000000000000    0.9472750000000000 H
   0.1038300000000000    0.4168100000000000    0.8528700000000000 H
   0.1189466666666667    0.4135700000000000    0.9142500000000000 H
   0.1406066666666667    0.3409900000000000    0.8672000000000000 H
   0.2646466666666666    0.4598000000000000    0.7613099999999999 H
   0.2853533333333333    0.3829600000000000    0.7156050000000000 H
   0.2630966666666666    0.4949300000000000    0.6969750000000000 H
   0.0632233333333333    0.0831800000000000    0.8526350000000000 H
   0.0481100000000000    0.0861800000000000    0.9140650000000000 H
   0.0265266666666667    0.1592800000000000    0.8671150000000001 H
   0.2356966666666667    0.0410400000000000    0.7624949999999999 H
   0.2147066666666667    0.1175800000000000    0.7169000000000000 H
   0.2368233333333333    0.0053900000000000    0.6982400000000000 H
   0.3609366666666666    0.3112900000000000    0.8971600000000000 H
   0.3620633333333333    0.3567700000000000    0.8357450000000000 H
   0.3863600000000000    0.4213700000000000    0.8827300000000000 H
   0.3469900000000000    0.7938600000000000    0.9884999999999999 H
   0.3726200000000000    0.8559700000000000    0.5341450000000000 H
   0.3352700000000000    0.7896500000000000    0.5529100000000000 H
   0.4724133333333333    0.1885400000000000    0.8964200000000000 H
   0.4718833333333333    0.1425400000000000    0.8351250000000000 H
   0.4474500000000000    0.0776100000000000    0.8819950000000000 H
   0.4866000000000000    0.7061600000000000    0.9883500000000001 H
   0.4609799999999999    0.6437000000000000    0.5340250000000000 H
   0.4981333333333333    0.7109000000000000    0.5527200000000000 H
   0.5628266666666666    0.5831200000000000    0.6471000000000000 H
   0.5477099999999999    0.5863600000000000    0.5857150000000000 H
   0.5260566666666666    0.6589600000000000    0.6327700000000001 H
   0.4020166666666666    0.5401899999999999    0.7386450000000000 H
   0.3813000000000000    0.6170099999999999    0.7843550000000000 H
   0.4035600000000000    0.5050400000000000    0.8029800000000000 H
   0.6034433333333333    0.9168200000000000    0.6473400000000000 H
   0.6185633333333334    0.9138300000000000    0.5859150000000000 H
   0.6401433333333333    0.8407200000000000    0.6328600000000000 H
   0.4309733333333333    0.9589200000000000    0.7375000000000000 H
   0.4519566666666667    0.8823900000000000    0.7830699999999999 H
   0.4298400000000000    0.9945800000000000    0.8017500000000000 H
   0.6390566666666666    0.6887300000000000    0.6028300000000000 H
   0.6379299999999999    0.6432600000000001    0.6642399999999999 H
   0.6136200000000001    0.5786800000000000    0.6172600000000000 H
   0.6530000000000000    0.2061500000000000    0.5114450000000000 H
   0.6273833333333333    0.1440200000000000    0.9658400000000000 H
   0.6647266666666667    0.2103700000000000    0.9470799999999999 H
   0.5275966666666667    0.8113800000000000    0.6035699999999999 H
   0.5281133333333333    0.8573900000000000    0.6648600000000000 H
   0.5525566666666666    0.9223200000000000    0.6180000000000000 H
   0.5134000000000000    0.2937100000000000    0.5116450000000000 H
   0.5390133333333333    0.3562000000000000    0.9659750000000000 H
   0.5018633333333333    0.2890000000000000    0.9472750000000000 H
   0.4371633333333333    0.4168100000000000    0.8528700000000000 H
   0.4522800000000000    0.4135700000000000    0.9142500000000000 H
   0.4739400000000000    0.3409900000000000    0.8672000000000000 H
   0.5979800000000000    0.4598000000000000    0.7613099999999999 H
   0.6186866666666666    0.3829600000000000    0.7156050000000000 H
   0.5964300000000000    0.4949300000000000    0.6969750000000000 H
   0.3965566666666667    0.0831800000000000    0.8526350000000000 H
   0.3814433333333333    0.0861800000000000    0.9140650000000000 H
   0.3598600000000000    0.1592800000000000    0.8671150000000001 H
   0.5690299999999999    0.0410400000000000    0.7624949999999999 H
   0.5480400000000000    0.1175800000000000    0.7169000000000000 H
   0.5701566666666666    0.0053900000000000    0.6982400000000000 H
   0.6942699999999999    0.3112900000000000    0.8971600000000000 H
   0.6953966666666667    0.3567700000000000    0.8357450000000000 H
   0.7196933333333333    0.4213700000000000    0.8827300000000000 H
   0.6803233333333333    0.7938600000000000    0.9884999999999999 H
   0.7059533333333333    0.8559700000000000    0.5341450000000000 H
   0.6686033333333333    0.7896500000000000    0.5529100000000000 H
   0.8057466666666666    0.1885400000000000    0.8964200000000000 H
   0.8052166666666667    0.1425400000000000    0.8351250000000000 H
   0.7807833333333333    0.0776100000000000    0.8819950000000000 H
   0.8199333333333333    0.7061600000000000    0.9883500000000001 H
   0.7943133333333333    0.6437000000000000    0.5340250000000000 H
   0.8314666666666666    0.7109000000000000    0.5527200000000000 H
   0.8961600000000000    0.5831200000000000    0.6471000000000000 H
   0.8810433333333333    0.5863600000000000    0.5857150000000000 H
   0.8593899999999999    0.6589600000000000    0.6327700000000001 H
   0.7353499999999999    0.5401899999999999    0.7386450000000000 H
   0.7146333333333333    0.6170099999999999    0.7843550000000000 H
   0.7368933333333333    0.5050400000000000    0.8029800000000000 H
   0.9367766666666666    0.9168200000000000    0.6473400000000000 H
   0.9518966666666666    0.9138300000000000    0.5859150000000000 H
   0.9734766666666665    0.8407200000000000    0.6328600000000000 H
   0.7643066666666667    0.9589200000000000    0.7375000000000000 H
   0.7852899999999999    0.8823900000000000    0.7830699999999999 H
   0.7631733333333333    0.9945800000000000    0.8017500000000000 H
   0.9723900000000000    0.6887300000000000    0.6028300000000000 H
   0.9712633333333333    0.6432600000000001    0.6642399999999999 H
   0.9469533333333333    0.5786800000000000    0.6172600000000000 H
   0.9863333333333333    0.2061500000000000    0.5114450000000000 H
   0.9607166666666667    0.1440200000000000    0.9658400000000000 H
   0.9980599999999999    0.2103700000000000    0.9470799999999999 H
   0.8609300000000000    0.8113800000000000    0.6035699999999999 H
   0.8614466666666666    0.8573900000000000    0.6648600000000000 H
   0.8858900000000000    0.9223200000000000    0.6180000000000000 H
   0.8467333333333333    0.2937100000000000    0.5116450000000000 H
   0.8723466666666666    0.3562000000000000    0.9659750000000000 H
   0.8351966666666666    0.2890000000000000    0.9472750000000000 H
   0.7704966666666666    0.4168100000000000    0.8528700000000000 H
   0.7856133333333333    0.4135700000000000    0.9142500000000000 H
   0.8072733333333333    0.3409900000000000    0.8672000000000000 H
   0.9313133333333332    0.4598000000000000    0.7613099999999999 H
   0.9520200000000000    0.3829600000000000    0.7156050000000000 H
   0.9297633333333333    0.4949300000000000    0.6969750000000000 H
   0.7298899999999999    0.0831800000000000    0.8526350000000000 H
   0.7147766666666666    0.0861800000000000    0.9140650000000000 H
   0.6931933333333333    0.1592800000000000    0.8671150000000001 H
   0.9023633333333333    0.0410400000000000    0.7624949999999999 H
   0.8813733333333333    0.1175800000000000    0.7169000000000000 H
   0.9034899999999999    0.0053900000000000    0.6982400000000000 H
   0.0402166666666667    0.6205000000000001    0.4303750000000000 C
   0.0188100000000000    0.5581199999999999    0.4660500000000000 C
   0.3304566666666666    0.4804800000000000    0.4492150000000000 C
   0.0213633333333333    0.5783300000000000    0.0166150000000000 C
   0.0297433333333333    0.3795100000000000    0.3743400000000000 C
   0.0227400000000000    0.7907700000000000    0.0264150000000000 C
   0.1452066666666667    0.9215100000000001    0.0164350000000000 C
   0.1440633333333333    0.7092000000000001    0.0261900000000000 C
   0.1263266666666666    0.6192800000000001    0.1802300000000000 C
   0.1472033333333333    0.5557500000000000    0.2159900000000000 C
   0.1732100000000000    0.4910200000000000    0.1992250000000000 C
   0.1404466666666667    0.5639500000000000    0.2665350000000000 C
   0.2067866666666667    0.5892300000000000    0.1243300000000000 C
   0.0697233333333333    0.5675400000000000    0.2764900000000000 C
   0.0397600000000000    0.8790900000000000    0.1801500000000000 C
   0.0191100000000000    0.9432600000000000    0.2159650000000000 C
   0.3265766666666666    0.0085200000000000    0.1992700000000000 C
   0.0261200000000000    0.9356500000000000    0.2664500000000000 C
   0.2928166666666666    0.9106300000000001    0.1245000000000000 C
   0.0968300000000000    0.9318700000000000    0.2754350000000000 C
   0.2931000000000000    0.3794800000000000    0.0696100000000000 C
   0.3144900000000000    0.4419100000000000    0.0339300000000000 C
   0.0028466666666667    0.5195200000000000    0.0507700000000000 C
   0.3119433333333334    0.4216500000000000    0.4833650000000000 C
   0.3035766666666667    0.6205200000000000    0.1255000000000000 C
   0.3105866666666667    0.2092400000000000    0.4735750000000000 C
   0.2064666666666666    0.1198500000000000    0.0698900000000000 C
   0.1852966666666667    0.0577000000000000    0.0340500000000000 C
   0.1635733333333333    0.9799400000000000    0.0507500000000000 C
   0.1960100000000000    0.8798400000000000    0.1262100000000000 C
   0.2070033333333333    0.3807300000000000    0.3197550000000000 C
   0.1861166666666667    0.4442200000000000    0.2839850000000000 C
   0.1601133333333333    0.5089700000000000    0.3007550000000000 C
   0.1928800000000000    0.4360400000000000    0.2334400000000000 C
   0.1265366666666667    0.4107100000000000    0.3756450000000000 C
   0.2635966666666666    0.4324400000000000    0.2234700000000000 C
   0.2935733333333333    0.1209100000000000    0.3197900000000000 C
   0.3142233333333333    0.0567300000000000    0.2840200000000000 C
   0.0067600000000000    0.9914700000000000    0.3007200000000000 C
   0.3072100000000000    0.0643400000000000    0.2335400000000000 C
   0.0405200000000000    0.0893700000000000    0.3754750000000000 C
   0.2365033333333333    0.0681000000000000    0.2245600000000000 C
   0.3735500000000000    0.6205000000000001    0.4303750000000000 C
   0.3521433333333333    0.5581199999999999    0.4660500000000000 C
   0.6637899999999999    0.4804800000000000    0.4492150000000000 C
   0.3546966666666667    0.5783300000000000    0.0166150000000000 C
   0.3630766666666667    0.3795100000000000    0.3743400000000000 C
   0.3560733333333333    0.7907700000000000    0.0264150000000000 C
   0.4601999999999999    0.8800900000000000    0.4300800000000000 C
   0.4813800000000000    0.9421900000000000    0.4659150000000000 C
   0.5031033333333333    0.0199500000000000    0.4492350000000000 C
   0.4785400000000000    0.9215100000000001    0.0164350000000000 C
   0.4706600000000000    0.1200900000000000    0.3737500000000000 C
   0.4773966666666666    0.7092000000000001    0.0261900000000000 C
   0.4596600000000000    0.6192800000000001    0.1802300000000000 C
   0.4805366666666666    0.5557500000000000    0.2159900000000000 C
   0.5065433333333333    0.4910200000000000    0.1992250000000000 C
   0.4737800000000000    0.5639500000000000    0.2665350000000000 C
   0.5401199999999999    0.5892300000000000    0.1243300000000000 C
   0.4030566666666666    0.5675400000000000    0.2764900000000000 C
   0.3730933333333333    0.8790900000000000    0.1801500000000000 C
   0.3524433333333333    0.9432600000000000    0.2159650000000000 C
   0.6599100000000000    0.0085200000000000    0.1992700000000000 C
   0.3594533333333333    0.9356500000000000    0.2664500000000000 C
   0.6261500000000000    0.9106300000000001    0.1245000000000000 C
   0.4301633333333333    0.9318700000000000    0.2754350000000000 C
   0.6264333333333333    0.3794800000000000    0.0696100000000000 C
   0.6478233333333333    0.4419100000000000    0.0339300000000000 C
   0.3361800000000000    0.5195200000000000    0.0507700000000000 C
   0.6452766666666667    0.4216500000000000    0.4833650000000000 C
   0.6369100000000000    0.6205200000000000    0.1255000000000000 C
   0.6439200000000000    0.2092400000000000    0.4735750000000000 C
   0.5397999999999999    0.1198500000000000    0.0698900000000000 C
   0.5186299999999999    0.0577000000000000    0.0340500000000000 C
   0.4969066666666666    0.9799400000000000    0.0507500000000000 C
   0.5214666666666666    0.0784200000000000    0.4835450000000000 C
   0.5293433333333333    0.8798400000000000    0.1262100000000000 C
   0.5226000000000000    0.2906800000000000    0.4738050000000000 C
   0.5403366666666667    0.3807300000000000    0.3197550000000000 C
   0.5194500000000000    0.4442200000000000    0.2839850000000000 C
   0.4934466666666666    0.5089700000000000    0.3007550000000000 C
   0.5262133333333333    0.4360400000000000    0.2334400000000000 C
   0.4598700000000000    0.4107100000000000    0.3756450000000000 C
   0.5969300000000000    0.4324400000000000    0.2234700000000000 C
   0.6269066666666666    0.1209100000000000    0.3197900000000000 C
   0.6475566666666666    0.0567300000000000    0.2840200000000000 C
   0.3400933333333333    0.9914700000000000    0.3007200000000000 C
   0.6405433333333332    0.0643400000000000    0.2335400000000000 C
   0.3738533333333333    0.0893700000000000    0.3754750000000000 C
   0.5698366666666667    0.0681000000000000    0.2245600000000000 C
   0.7068833333333333    0.6205000000000001    0.4303750000000000 C
   0.6854766666666666    0.5581199999999999    0.4660500000000000 C
   0.9971233333333333    0.4804800000000000    0.4492150000000000 C
   0.6880299999999999    0.5783300000000000    0.0166150000000000 C
   0.6964100000000000    0.3795100000000000    0.3743400000000000 C
   0.6894066666666666    0.7907700000000000    0.0264150000000000 C
   0.7935333333333333    0.8800900000000000    0.4300800000000000 C
   0.8147133333333333    0.9421900000000000    0.4659150000000000 C
   0.8364366666666666    0.0199500000000000    0.4492350000000000 C
   0.8118733333333332    0.9215100000000001    0.0164350000000000 C
   0.8039933333333333    0.1200900000000000    0.3737500000000000 C
   0.8107300000000000    0.7092000000000001    0.0261900000000000 C
   0.7929933333333332    0.6192800000000001    0.1802300000000000 C
   0.8138700000000000    0.5557500000000000    0.2159900000000000 C
   0.8398766666666666    0.4910200000000000    0.1992250000000000 C
   0.8071133333333333    0.5639500000000000    0.2665350000000000 C
   0.8734533333333333    0.5892300000000000    0.1243300000000000 C
   0.7363900000000000    0.5675400000000000    0.2764900000000000 C
   0.7064266666666666    0.8790900000000000    0.1801500000000000 C
   0.6857766666666666    0.9432600000000000    0.2159650000000000 C
   0.9932433333333333    0.0085200000000000    0.1992700000000000 C
   0.6927866666666667    0.9356500000000000    0.2664500000000000 C