H6 O4
1.0
  29.6939961964473689    0.0000000000000000    0.0150294833328073
  -0.4600206363705521   16.5516054419755925    0.0101147059850220
   0.0000000000000000    0.0000000000000000   24.3739999999999988
H O
6 4
direct
   0.6962053184177763    0.6667266189436538    0.8304413801025320 H
   0.6051931752903942    0.6237187419053520    0.7170944955304787 H
   0.6505145730719692    0.6745614603850537    0.7608961380250765 H
   0.6103625186317113   -0.0977241921450366    0.7837019772313993 H
   0.7366565365942390   -0.1389015023320976    0.7526220060099771 H
   0.6810837293724391   -0.1531898402962393    0.7718419499992454 H
   0.6769733333333333    0.6197900000000000    0.8227500000000000 O
   0.6184433333333332    0.5962900000000000    0.7480700000000000 O
   0.6331133333333333   -0.0594400000000000    0.7702850000000000 O
   0.7148733333333332   -0.0963300000000000    0.7519150000000000 O
