Al96 P94 H188 C94 O282 F96
1.0
  29.6939961964473689    0.0000000000000000    0.0150294833328073
  -0.4600206363705521   16.5516054419755925    0.0101147059850220
   0.0000000000000000    0.0000000000000000   24.3739999999999988
Al P H C O F
96 94 188 94 282 96
direct
   0.1274300000000000    0.9308200000000000    0.1249900000000000 Al
   0.2940933333333333    0.4308400000000000    0.1249900000000000 Al
   0.2940900000000000    0.9308200000000000    0.1249900000000000 Al
   0.0392266666666667    0.0691500000000000    0.3749950000000000 Al
   0.0392266666666667    0.5691300000000000    0.3749900000000000 Al
   0.2058900000000000    0.0691500000000000    0.3749900000000000 Al
   0.2058866666666667    0.5691300000000000    0.3749950000000000 Al
   0.0833300000000000    0.0000000000000000    0.2499900000000000 Al
   0.0833300000000000    0.4999800000000000    0.2499900000000000 Al
   0.2499900000000000    0.0000000000000000    0.2499900000000000 Al
   0.2499900000000000    0.4999800000000000    0.2499900000000000 Al
   0.0833300000000000    0.0000000000000000    0.0000000000000000 Al
   0.0833300000000000    0.4999900000000000    0.0000000000000000 Al
   0.2499900000000000    0.0000000000000000    0.4999950000000000 Al
   0.2499900000000000    0.4999800000000000    0.4999850000000000 Al
   0.1274300000000000    0.4308400000000000    0.1249900000000000 Al
   0.4607633333333333    0.9308200000000000    0.1249900000000000 Al
   0.6274266666666666    0.4308400000000000    0.1249900000000000 Al
   0.6274233333333332    0.9308200000000000    0.1249900000000000 Al
   0.3725600000000000    0.0691500000000000    0.3749950000000000 Al
   0.3725600000000000    0.5691300000000000    0.3749900000000000 Al
   0.5392233333333334    0.0691500000000000    0.3749900000000000 Al
   0.5392200000000000    0.5691300000000000    0.3749950000000000 Al
   0.4166633333333333    0.0000000000000000    0.2499900000000000 Al
   0.4166633333333333    0.4999800000000000    0.2499900000000000 Al
   0.5833233333333333    0.0000000000000000    0.2499900000000000 Al
   0.5833233333333333    0.4999800000000000    0.2499900000000000 Al
   0.4166633333333333    0.0000000000000000    0.0000000000000000 Al
   0.4166633333333333    0.4999900000000000    0.0000000000000000 Al
   0.5833233333333333    0.0000000000000000    0.4999950000000000 Al
   0.5833233333333333    0.4999800000000000    0.4999850000000000 Al
   0.4607633333333333    0.4308400000000000    0.1249900000000000 Al
   0.7940966666666667    0.9308200000000000    0.1249900000000000 Al
   0.9607599999999999    0.4308400000000000    0.1249900000000000 Al
   0.9607566666666666    0.9308200000000000    0.1249900000000000 Al
   0.7058933333333333    0.0691500000000000    0.3749950000000000 Al
   0.7058933333333333    0.5691300000000000    0.3749900000000000 Al
   0.8725566666666666    0.0691500000000000    0.3749900000000000 Al
   0.8725533333333333    0.5691300000000000    0.3749950000000000 Al
   0.7499966666666666    0.0000000000000000    0.2499900000000000 Al
   0.7499966666666666    0.4999800000000000    0.2499900000000000 Al
   0.9166566666666667    0.0000000000000000    0.2499900000000000 Al
   0.9166566666666667    0.4999800000000000    0.2499900000000000 Al
   0.7499966666666666    0.0000000000000000    0.0000000000000000 Al
   0.7499966666666666    0.4999900000000000    0.0000000000000000 Al
   0.9166566666666667    0.0000000000000000    0.4999950000000000 Al
   0.9166566666666667    0.4999800000000000    0.4999850000000000 Al
   0.7940966666666667    0.4308400000000000    0.1249900000000000 Al
   0.1274300000000000    0.9308200000000000    0.6249900000000000 Al
   0.2940933333333333    0.4308400000000000    0.6249900000000000 Al
   0.2940900000000000    0.9308200000000000    0.6249900000000000 Al
   0.0392266666666667    0.0691500000000000    0.8749950000000000 Al
   0.0392266666666667    0.5691300000000000    0.8749899999999999 Al
   0.2058900000000000    0.0691500000000000    0.8749899999999999 Al
   0.2058866666666667    0.5691300000000000    0.8749950000000000 Al
   0.0833300000000000    0.0000000000000000    0.7499899999999999 Al
   0.0833300000000000    0.4999800000000000    0.7499899999999999 Al
   0.2499900000000000    0.0000000000000000    0.7499899999999999 Al
   0.2499900000000000    0.4999800000000000    0.7499899999999999 Al
   0.0833300000000000    0.0000000000000000    0.5000000000000000 Al
   0.0833300000000000    0.4999900000000000    0.5000000000000000 Al
   0.2499900000000000    0.0000000000000000    0.9999950000000000 Al
   0.2499900000000000    0.4999800000000000    0.9999850000000000 Al
   0.1274300000000000    0.4308400000000000    0.6249900000000000 Al
   0.4607633333333333    0.9308200000000000    0.6249900000000000 Al
   0.6274266666666666    0.4308400000000000    0.6249900000000000 Al
   0.6274233333333332    0.9308200000000000    0.6249900000000000 Al
   0.3725600000000000    0.0691500000000000    0.8749950000000000 Al
   0.3725600000000000    0.5691300000000000    0.8749899999999999 Al
   0.5392233333333334    0.0691500000000000    0.8749899999999999 Al
   0.5392200000000000    0.5691300000000000    0.8749950000000000 Al
   0.4166633333333333    0.0000000000000000    0.7499899999999999 Al
   0.4166633333333333    0.4999800000000000    0.7499899999999999 Al
   0.5833233333333333    0.0000000000000000    0.7499899999999999 Al
   0.5833233333333333    0.4999800000000000    0.7499899999999999 Al
   0.4166633333333333    0.0000000000000000    0.5000000000000000 Al
   0.4166633333333333    0.4999900000000000    0.5000000000000000 Al
   0.5833233333333333    0.0000000000000000    0.9999950000000000 Al
   0.5833233333333333    0.4999800000000000    0.9999850000000000 Al
   0.4607633333333333    0.4308400000000000    0.6249900000000000 Al
   0.7940966666666667    0.9308200000000000    0.6249900000000000 Al
   0.9607599999999999    0.4308400000000000    0.6249900000000000 Al
   0.9607566666666666    0.9308200000000000    0.6249900000000000 Al
   0.7058933333333333    0.0691500000000000    0.8749950000000000 Al
   0.7058933333333333    0.5691300000000000    0.8749899999999999 Al
   0.8725566666666666    0.0691500000000000    0.8749899999999999 Al
   0.8725533333333333    0.5691300000000000    0.8749950000000000 Al
   0.7499966666666666    0.0000000000000000    0.7499899999999999 Al
   0.7499966666666666    0.4999800000000000    0.7499899999999999 Al
   0.9166566666666667    0.0000000000000000    0.7499899999999999 Al
   0.9166566666666667    0.4999800000000000    0.7499899999999999 Al
   0.7499966666666666    0.0000000000000000    0.5000000000000000 Al
   0.7499966666666666    0.4999900000000000    0.5000000000000000 Al
   0.9166566666666667    0.0000000000000000    0.9999950000000000 Al
   0.9166566666666667    0.4999800000000000    0.9999850000000000 Al
   0.7940966666666667    0.4308400000000000    0.6249900000000000 Al
   0.1650400000000000    0.3837700000000000    0.2408650000000000 P
   0.1650366666666667    0.8837500000000000    0.2408650000000000 P
   0.3317000000000000    0.3837700000000000    0.2408650000000000 P
   0.3316966666666666    0.8837600000000000    0.2408650000000000 P
   0.0016633333333333    0.1162800000000000    0.4908500000000000 P
   0.0016600000000000    0.6162700000000000    0.4908500000000000 P
   0.1683233333333333    0.1162800000000000    0.4908500000000000 P
   0.1683200000000000    0.6162700000000000    0.4908500000000000 P
   0.0016200000000000    0.1162100000000000    0.2591150000000000 P
   0.0016200000000000    0.6162000000000000    0.2591150000000000 P
   0.1682833333333333    0.1162100000000000    0.2591150000000000 P
   0.1682800000000000    0.6162000000000000    0.2591150000000000 P
   0.1649966666666667    0.3837000000000000    0.0091350000000000 P
   0.1649966666666667    0.8836900000000000    0.0091350000000000 P
   0.3316600000000000    0.3837000000000000    0.0091350000000000 P
   0.3316566666666667    0.8836900000000000    0.0091350000000000 P
   0.4983733333333333    0.3837700000000000    0.2408650000000000 P
   0.4983700000000000    0.8837500000000000    0.2408650000000000 P
   0.6650333333333334    0.3837700000000000    0.2408650000000000 P
   0.6650300000000000    0.8837600000000000    0.2408650000000000 P
   0.3349966666666667    0.1162800000000000    0.4908500000000000 P
   0.3349933333333333    0.6162700000000000    0.4908500000000000 P
   0.5016566666666666    0.1162800000000000    0.4908500000000000 P
   0.5016533333333333    0.6162700000000000    0.4908500000000000 P
   0.3349533333333333    0.1162100000000000    0.2591150000000000 P
   0.3349533333333333    0.6162000000000000    0.2591150000000000 P
   0.5016166666666666    0.1162100000000000    0.2591150000000000 P
   0.5016133333333332    0.6162000000000000    0.2591150000000000 P
   0.4983299999999999    0.3837000000000000    0.0091350000000000 P
   0.4983299999999999    0.8836900000000000    0.0091350000000000 P
   0.6649933333333333    0.3837000000000000    0.0091350000000000 P
   0.6649900000000000    0.8836900000000000    0.0091350000000000 P
   0.8317066666666666    0.3837700000000000    0.2408650000000000 P
   0.8317033333333332    0.8837500000000000    0.2408650000000000 P
   0.9983666666666666    0.3837700000000000    0.2408650000000000 P
   0.9983633333333333    0.8837600000000000    0.2408650000000000 P
   0.6683300000000000    0.1162800000000000    0.4908500000000000 P
   0.6683266666666666    0.6162700000000000    0.4908500000000000 P
   0.8349899999999999    0.1162800000000000    0.4908500000000000 P
   0.8349866666666665    0.6162700000000000    0.4908500000000000 P
   0.6682866666666666    0.1162100000000000    0.2591150000000000 P
   0.6682866666666666    0.6162000000000000    0.2591150000000000 P
   0.8349500000000000    0.1162100000000000    0.2591150000000000 P
   0.8349466666666666    0.6162000000000000    0.2591150000000000 P
   0.8316633333333333    0.3837000000000000    0.0091350000000000 P
   0.8316633333333333    0.8836900000000000    0.0091350000000000 P
   0.9983266666666666    0.3837000000000000    0.0091350000000000 P
   0.9983233333333332    0.8836900000000000    0.0091350000000000 P
   0.1650400000000000    0.3837700000000000    0.7408650000000000 P
   0.1650366666666667    0.8837500000000000    0.7408650000000000 P
   0.3317000000000000    0.3837700000000000    0.7408650000000000 P
   0.3316966666666666    0.8837600000000000    0.7408650000000000 P
   0.0016633333333333    0.1162800000000000    0.9908500000000000 P
   0.0016600000000000    0.6162700000000000    0.9908500000000000 P
   0.1683233333333333    0.1162800000000000    0.9908500000000000 P
   0.1683200000000000    0.6162700000000000    0.9908500000000000 P
   0.0016200000000000    0.1162100000000000    0.7591150000000000 P
   0.0016200000000000    0.6162000000000000    0.7591150000000000 P
   0.1682833333333333    0.1162100000000000    0.7591150000000000 P
   0.1682800000000000    0.6162000000000000    0.7591150000000000 P
   0.1649966666666667    0.3837000000000000    0.5091350000000000 P
   0.1649966666666667    0.8836900000000000    0.5091350000000000 P
   0.3316600000000000    0.3837000000000000    0.5091350000000000 P
   0.3316566666666667    0.8836900000000000    0.5091350000000000 P
   0.4983733333333333    0.3837700000000000    0.7408650000000000 P
   0.4983700000000000    0.8837500000000000    0.7408650000000000 P
   0.6650333333333334    0.3837700000000000    0.7408650000000000 P
   0.3349966666666667    0.1162800000000000    0.9908500000000000 P
   0.3349933333333333    0.6162700000000000    0.9908500000000000 P
   0.5016566666666666    0.1162800000000000    0.9908500000000000 P
   0.5016533333333333    0.6162700000000000    0.9908500000000000 P
   0.3349533333333333    0.1162100000000000    0.7591150000000000 P
   0.3349533333333333    0.6162000000000000    0.7591150000000000 P
   0.5016166666666666    0.1162100000000000    0.7591150000000000 P
   0.5016133333333332    0.6162000000000000    0.7591150000000000 P
   0.4983299999999999    0.3837000000000000    0.5091350000000000 P
   0.4983299999999999    0.8836900000000000    0.5091350000000000 P
   0.6649933333333333    0.3837000000000000    0.5091350000000000 P
   0.6649900000000000    0.8836900000000000    0.5091350000000000 P
   0.8317066666666666    0.3837700000000000    0.7408650000000000 P
   0.8317033333333332    0.8837500000000000    0.7408650000000000 P
   0.9983666666666666    0.3837700000000000    0.7408650000000000 P
   0.9983633333333333    0.8837600000000000    0.7408650000000000 P
   0.6683300000000000    0.1162800000000000    0.9908500000000000 P
   0.6683266666666666    0.6162700000000000    0.9908500000000000 P
   0.8349899999999999    0.1162800000000000    0.9908500000000000 P
   0.8349866666666665    0.6162700000000000    0.9908500000000000 P
   0.6682866666666666    0.1162100000000000    0.7591150000000000 P
   0.8349500000000000    0.1162100000000000    0.7591150000000000 P
   0.8349466666666666    0.6162000000000000    0.7591150000000000 P
   0.8316633333333333    0.3837000000000000    0.5091350000000000 P
   0.8316633333333333    0.8836900000000000    0.5091350000000000 P
   0.9983266666666666    0.3837000000000000    0.5091350000000000 P
   0.9983233333333332    0.8836900000000000    0.5091350000000000 P
   0.1171333333333333    0.2715700000000000    0.2620900000000000 H
   0.1171333333333333    0.7715500000000000    0.2620900000000000 H
   0.2837933333333333    0.2715700000000000    0.2620900000000000 H
   0.2837933333333333    0.7715500000000000    0.2620900000000000 H
   0.1620233333333333    0.2822200000000000    0.3092900000000000 H
   0.1620200000000000    0.7822100000000000    0.3092900000000000 H
   0.3286833333333333    0.2822200000000000    0.3092900000000000 H
   0.3286833333333333    0.7822000000000000    0.3092900000000000 H
   0.0495066666666667    0.2284500000000000    0.0121850000000000 H
   0.0495066666666667    0.7284400000000000    0.0121800000000000 H
   0.2161666666666666    0.2284500000000000    0.0121800000000000 H
   0.2161666666666666    0.7284400000000000    0.0121850000000000 H
   0.0045266666666667    0.2177200000000000    0.0593150000000000 H
   0.0045266666666667    0.7177000000000000    0.0593150000000000 H
   0.1711900000000000    0.2177200000000000    0.0593150000000000 H
   0.1711866666666667    0.7177000000000000    0.0593150000000000 H
   0.0495266666666667    0.2284200000000000    0.2378950000000000 H
   0.0495233333333333    0.7284000000000000    0.2378900000000000 H
   0.2161866666666667    0.2284200000000000    0.2378900000000000 H
   0.2161833333333333    0.7284000000000000    0.2378950000000000 H
   0.0046366666666667    0.2177600000000000    0.1906950000000000 H
   0.0046333333333333    0.7177500000000000    0.1906500000000000 H
   0.1712966666666667    0.2177600000000000    0.1906950000000000 H
   0.1712966666666667    0.7177500000000000    0.1906950000000000 H
   0.1171533333333333    0.2715300000000000    0.4878000000000000 H
   0.1171500000000000    0.7715200000000000    0.4878000000000000 H
   0.2838133333333333    0.2715300000000000    0.4878000000000000 H
   0.2838133333333333    0.7715200000000000    0.4878000000000000 H
   0.1621333333333333    0.2822700000000000    0.4406650000000000 H
   0.1621300000000000    0.7822500000000000    0.4406500000000000 H
   0.3287933333333333    0.2822700000000000    0.4406500000000000 H
   0.3287933333333333    0.7822500000000000    0.4406650000000000 H
   0.4504666666666666    0.2715700000000000    0.2620900000000000 H
   0.4504666666666666    0.7715500000000000    0.2620900000000000 H
   0.6171266666666666    0.2715700000000000    0.2620900000000000 H
   0.6171266666666666    0.7715500000000000    0.2620900000000000 H
   0.4953566666666667    0.2822200000000000    0.3092900000000000 H
   0.4953533333333333    0.7822100000000000    0.3092900000000000 H
   0.6620166666666667    0.2822200000000000    0.3092900000000000 H
   0.6620166666666667    0.7822000000000000    0.3092900000000000 H
   0.3828400000000000    0.2284500000000000    0.0121850000000000 H
   0.3828400000000000    0.7284400000000000    0.0121800000000000 H
   0.5495000000000000    0.2284500000000000    0.0121800000000000 H
   0.5495000000000000    0.7284400000000000    0.0121850000000000 H
   0.3378600000000000    0.2177200000000000    0.0593150000000000 H
   0.3378600000000000    0.7177000000000000    0.0593150000000000 H
   0.5045233333333333    0.2177200000000000    0.0593150000000000 H
   0.5045200000000000    0.7177000000000000    0.0593150000000000 H
   0.3828600000000000    0.2284200000000000    0.2378950000000000 H
   0.3828566666666666    0.7284000000000000    0.2378900000000000 H
   0.5495200000000000    0.2284200000000000    0.2378900000000000 H
   0.5495166666666667    0.7284000000000000    0.2378950000000000 H
   0.3379700000000000    0.2177600000000000    0.1906950000000000 H
   0.3379666666666666    0.7177500000000000    0.1906500000000000 H
   0.5046299999999999    0.2177600000000000    0.1906950000000000 H
   0.5046299999999999    0.7177500000000000    0.1906950000000000 H
   0.4504866666666666    0.2715300000000000    0.4878000000000000 H
   0.4504833333333333    0.7715200000000000    0.4878000000000000 H
   0.6171466666666666    0.2715300000000000    0.4878000000000000 H
   0.6171466666666666    0.7715200000000000    0.4878000000000000 H
   0.4954666666666666    0.2822700000000000    0.4406650000000000 H
   0.4954633333333333    0.7822500000000000    0.4406500000000000 H
   0.6621266666666666    0.2822700000000000    0.4406500000000000 H
   0.6621266666666666    0.7822500000000000    0.4406650000000000 H
   0.7837999999999999    0.2715700000000000    0.2620900000000000 H
   0.7837999999999999    0.7715500000000000    0.2620900000000000 H
   0.9504600000000000    0.2715700000000000    0.2620900000000000 H
   0.9504600000000000    0.7715500000000000    0.2620900000000000 H
   0.8286899999999999    0.2822200000000000    0.3092900000000000 H
   0.8286866666666666    0.7822100000000000    0.3092900000000000 H
   0.9953500000000000    0.2822200000000000    0.3092900000000000 H
   0.9953500000000000    0.7822000000000000    0.3092900000000000 H
   0.7161733333333333    0.2284500000000000    0.0121850000000000 H
   0.7161733333333333    0.7284400000000000    0.0121800000000000 H
   0.8828333333333332    0.2284500000000000    0.0121800000000000 H
   0.8828333333333332    0.7284400000000000    0.0121850000000000 H
   0.6711933333333333    0.2177200000000000    0.0593150000000000 H
   0.6711933333333333    0.7177000000000000    0.0593150000000000 H
   0.8378566666666666    0.2177200000000000    0.0593150000000000 H
   0.8378533333333333    0.7177000000000000    0.0593150000000000 H
   0.7161933333333332    0.2284200000000000    0.2378950000000000 H
   0.7161900000000000    0.7284000000000000    0.2378900000000000 H
   0.8828533333333333    0.2284200000000000    0.2378900000000000 H
   0.8828499999999999    0.7284000000000000    0.2378950000000000 H
   0.6713033333333333    0.2177600000000000    0.1906950000000000 H
   0.6713000000000000    0.7177500000000000    0.1906500000000000 H
   0.8379633333333333    0.2177600000000000    0.1906950000000000 H
   0.8379633333333333    0.7177500000000000    0.1906950000000000 H
   0.7838200000000000    0.2715300000000000    0.4878000000000000 H
   0.7838166666666666    0.7715200000000000    0.4878000000000000 H
   0.9504800000000000    0.2715300000000000    0.4878000000000000 H
   0.9504800000000000    0.7715200000000000    0.4878000000000000 H
   0.8288000000000000    0.2822700000000000    0.4406650000000000 H
   0.8287966666666666    0.7822500000000000    0.4406500000000000 H
   0.9954600000000000    0.2822700000000000    0.4406500000000000 H
   0.9954600000000000    0.7822500000000000    0.4406650000000000 H
   0.1171333333333333    0.2715700000000000    0.7620899999999999 H
   0.1171333333333333    0.7715500000000000    0.7620899999999999 H
   0.2837933333333333    0.2715700000000000    0.7620899999999999 H
   0.2837933333333333    0.7715500000000000    0.7620899999999999 H
   0.1620233333333333    0.2822200000000000    0.8092900000000001 H
   0.1620200000000000    0.7822100000000000    0.8092900000000001 H
   0.3286833333333333    0.2822200000000000    0.8092900000000001 H
   0.3286833333333333    0.7822000000000000    0.8092900000000001 H
   0.0495066666666667    0.2284500000000000    0.5121850000000000 H
   0.0495066666666667    0.7284400000000000    0.5121800000000000 H
   0.2161666666666666    0.2284500000000000    0.5121800000000000 H
   0.2161666666666666    0.7284400000000000    0.5121850000000000 H
   0.0045266666666667    0.2177200000000000    0.5593150000000000 H
   0.0045266666666667    0.7177000000000000    0.5593150000000000 H
   0.1711900000000000    0.2177200000000000    0.5593150000000000 H
   0.1711866666666667    0.7177000000000000    0.5593150000000000 H
   0.0495266666666667    0.2284200000000000    0.7378950000000000 H
   0.0495233333333333    0.7284000000000000    0.7378899999999999 H
   0.2161866666666667    0.2284200000000000    0.7378899999999999 H
   0.2161833333333333    0.7284000000000000    0.7378950000000000 H
   0.0046366666666667    0.2177600000000000    0.6906950000000001 H
   0.0046333333333333    0.7177500000000000    0.6906500000000000 H
   0.1712966666666667    0.2177600000000000    0.6906950000000001 H
   0.1712966666666667    0.7177500000000000    0.6906950000000001 H
   0.1171533333333333    0.2715300000000000    0.9878000000000000 H
   0.1171500000000000    0.7715200000000000    0.9878000000000000 H
   0.2838133333333333    0.2715300000000000    0.9878000000000000 H
   0.2838133333333333    0.7715200000000000    0.9878000000000000 H
   0.1621333333333333    0.2822700000000000    0.9406650000000000 H
   0.1621300000000000    0.7822500000000000    0.9406500000000000 H
   0.3287933333333333    0.2822700000000000    0.9406500000000000 H
   0.3287933333333333    0.7822500000000000    0.9406650000000000 H
   0.4504666666666666    0.2715700000000000    0.7620899999999999 H
   0.4504666666666666    0.7715500000000000    0.7620899999999999 H
   0.6171266666666666    0.2715700000000000    0.7620899999999999 H
   0.4953566666666667    0.2822200000000000    0.8092900000000001 H
   0.4953533333333333    0.7822100000000000    0.8092900000000001 H
   0.6620166666666667    0.2822200000000000    0.8092900000000001 H
   0.3828400000000000    0.2284500000000000    0.5121850000000000 H
   0.3828400000000000    0.7284400000000000    0.5121800000000000 H
   0.5495000000000000    0.2284500000000000    0.5121800000000000 H
   0.5495000000000000    0.7284400000000000    0.5121850000000000 H
   0.3378600000000000    0.2177200000000000    0.5593150000000000 H
   0.3378600000000000    0.7177000000000000    0.5593150000000000 H
   0.5045233333333333    0.2177200000000000    0.5593150000000000 H
   0.5045200000000000    0.7177000000000000    0.5593150000000000 H
   0.3828600000000000    0.2284200000000000    0.7378950000000000 H
   0.3828566666666666    0.7284000000000000    0.7378899999999999 H
   0.5495200000000000    0.2284200000000000    0.7378899999999999 H
   0.5495166666666667    0.7284000000000000    0.7378950000000000 H
   0.3379700000000000    0.2177600000000000    0.6906950000000001 H
   0.3379666666666666    0.7177500000000000    0.6906500000000000 H
   0.5046299999999999    0.2177600000000000    0.6906950000000001 H
   0.5046299999999999    0.7177500000000000    0.6906950000000001 H
   0.4504866666666666    0.2715300000000000    0.9878000000000000 H
   0.4504833333333333    0.7715200000000000    0.9878000000000000 H
   0.6171466666666666    0.2715300000000000    0.9878000000000000 H
   0.6171466666666666    0.7715200000000000    0.9878000000000000 H
   0.4954666666666666    0.2822700000000000    0.9406650000000000 H
   0.4954633333333333    0.7822500000000000    0.9406500000000000 H
   0.6621266666666666    0.2822700000000000    0.9406500000000000 H
   0.6621266666666666    0.7822500000000000    0.9406650000000000 H
   0.7837999999999999    0.2715700000000000    0.7620899999999999 H
   0.7837999999999999    0.7715500000000000    0.7620899999999999 H
   0.9504600000000000    0.2715700000000000    0.7620899999999999 H
   0.9504600000000000    0.7715500000000000    0.7620899999999999 H
   0.8286899999999999    0.2822200000000000    0.8092900000000001 H
   0.8286866666666666    0.7822100000000000    0.8092900000000001 H
   0.9953500000000000    0.2822200000000000    0.8092900000000001 H
   0.9953500000000000    0.7822000000000000    0.8092900000000001 H
   0.7161733333333333    0.2284500000000000    0.5121850000000000 H
   0.7161733333333333    0.7284400000000000    0.5121800000000000 H
   0.8828333333333332    0.2284500000000000    0.5121800000000000 H
   0.8828333333333332    0.7284400000000000    0.5121850000000000 H
   0.6711933333333333    0.2177200000000000    0.5593150000000000 H
   0.6711933333333333    0.7177000000000000    0.5593150000000000 H
   0.8378566666666666    0.2177200000000000    0.5593150000000000 H
   0.8378533333333333    0.7177000000000000    0.5593150000000000 H
   0.7161933333333332    0.2284200000000000    0.7378950000000000 H
   0.8828533333333333    0.2284200000000000    0.7378899999999999 H
   0.8828499999999999    0.7284000000000000    0.7378950000000000 H
   0.6713033333333333    0.2177600000000000    0.6906950000000001 H
   0.8379633333333333    0.2177600000000000    0.6906950000000001 H
   0.8379633333333333    0.7177500000000000    0.6906950000000001 H
   0.7838200000000000    0.2715300000000000    0.9878000000000000 H
   0.7838166666666666    0.7715200000000000    0.9878000000000000 H
   0.9504800000000000    0.2715300000000000    0.9878000000000000 H
   0.9504800000000000    0.7715200000000000    0.9878000000000000 H
   0.8288000000000000    0.2822700000000000    0.9406650000000000 H
   0.8287966666666666    0.7822500000000000    0.9406500000000000 H
   0.9954600000000000    0.2822700000000000    0.9406500000000000 H
   0.9954600000000000    0.7822500000000000    0.9406650000000000 H
   0.1537133333333333    0.2823800000000000    0.2653200000000000 C
   0.1537133333333333    0.7823700000000000    0.2653250000000000 C
   0.3203733333333333    0.2823800000000000    0.2653250000000000 C
   0.3203733333333333    0.7823700000000000    0.2653200000000000 C
   0.0129233333333333    0.2176000000000000    0.0153650000000000 C
   0.0129200000000000    0.7175900000000000    0.0153650000000000 C
   0.1795833333333333    0.2176000000000000    0.0153650000000000 C
   0.1795833333333333    0.7175900000000000    0.0153650000000000 C
   0.0129466666666667    0.2176000000000000    0.2346600000000000 C
   0.0129433333333333    0.7175900000000000    0.2346600000000000 C
   0.1796066666666666    0.2176000000000000    0.2346600000000000 C
   0.1796033333333333    0.7175900000000000    0.2346600000000000 C
   0.1537366666666667    0.2823800000000000    0.4846150000000000 C
   0.1537333333333333    0.7823700000000000    0.4846200000000000 C
   0.3203966666666667    0.2823800000000000    0.4846200000000000 C
   0.3203966666666667    0.7823700000000000    0.4846150000000000 C
   0.4870466666666666    0.2823800000000000    0.2653200000000000 C
   0.4870466666666666    0.7823700000000000    0.2653250000000000 C
   0.6537066666666667    0.2823800000000000    0.2653250000000000 C
   0.6537066666666667    0.7823700000000000    0.2653200000000000 C
   0.3462566666666667    0.2176000000000000    0.0153650000000000 C
   0.3462533333333333    0.7175900000000000    0.0153650000000000 C
   0.5129166666666667    0.2176000000000000    0.0153650000000000 C
   0.5129166666666667    0.7175900000000000    0.0153650000000000 C
   0.3462800000000000    0.2176000000000000    0.2346600000000000 C
   0.3462766666666667    0.7175900000000000    0.2346600000000000 C
   0.5129400000000000    0.2176000000000000    0.2346600000000000 C
   0.5129366666666666    0.7175900000000000    0.2346600000000000 C
   0.4870700000000000    0.2823800000000000    0.4846150000000000 C
   0.4870666666666666    0.7823700000000000    0.4846200000000000 C
   0.6537299999999999    0.2823800000000000    0.4846200000000000 C
   0.6537299999999999    0.7823700000000000    0.4846150000000000 C
   0.8203799999999999    0.2823800000000000    0.2653200000000000 C
   0.8203799999999999    0.7823700000000000    0.2653250000000000 C
   0.9870399999999999    0.2823800000000000    0.2653250000000000 C
   0.9870399999999999    0.7823700000000000    0.2653200000000000 C
   0.6795899999999999    0.2176000000000000    0.0153650000000000 C
   0.6795866666666667    0.7175900000000000    0.0153650000000000 C
   0.8462499999999999    0.2176000000000000    0.0153650000000000 C
   0.8462499999999999    0.7175900000000000    0.0153650000000000 C
   0.6796133333333333    0.2176000000000000    0.2346600000000000 C
   0.6796099999999999    0.7175900000000000    0.2346600000000000 C
   0.8462733333333332    0.2176000000000000    0.2346600000000000 C
   0.8462700000000000    0.7175900000000000    0.2346600000000000 C
   0.8204033333333333    0.2823800000000000    0.4846150000000000 C
   0.8204000000000000    0.7823700000000000    0.4846200000000000 C
   0.9870633333333333    0.2823800000000000    0.4846200000000000 C
   0.9870633333333333    0.7823700000000000    0.4846150000000000 C
   0.1537133333333333    0.2823800000000000    0.7653200000000000 C
   0.1537133333333333    0.7823700000000000    0.7653250000000000 C
   0.3203733333333333    0.2823800000000000    0.7653250000000000 C
   0.3203733333333333    0.7823700000000000    0.7653200000000000 C
   0.0129233333333333    0.2176000000000000    0.5153650000000000 C
   0.0129200000000000    0.7175900000000000    0.5153650000000000 C
   0.1795833333333333    0.2176000000000000    0.5153650000000000 C
   0.1795833333333333    0.7175900000000000    0.5153650000000000 C
   0.0129466666666667    0.2176000000000000    0.7346600000000000 C