H12 O8
1.0
  10.3368020389324524    0.0000000000000000   -3.1837681460687310
  -3.1684325095257653   14.1671198265065605   -6.5831110619512545
   0.0000000000000000    0.0000000000000000   36.9939999999999998
H O
12 8
direct
   0.7904654916214007    0.4384674050566120    0.8898330347084059 H
   0.7388450582669197    0.6724477527492074    0.8792235087588001 H
   0.7624140983017470    0.5589710908942150    0.8880999359232580 H
   0.1870902335479220    0.7741169732136697    0.8746407315640244 H
  -0.0475435214810633    0.5190009521743251    0.8429690786396190 H
   0.0657137609119823    0.6436012448524352    0.8617251796272823 H
   0.6191644539057845    0.2987691532315879    0.2730282731720750 H
   0.9571127638485890    0.3403542081759265    0.2499237184668982 H
   0.7919386702808697    0.3158603766509954    0.2598197147419499 H
  -0.1075690212206393    0.5119214758652125    0.2173074974880268 H
   0.6049079870562830    0.5323817707550538    0.2617959518940415 H
  -0.2744461524026853    0.5203924746369319    0.2361299734223608 H
   0.7867499999999999    0.4777200000000000    0.8754700000000000 O
   0.7576000000000001    0.6098300000000000    0.8694900000000000 O
   0.1332900000000000    0.7108300000000000    0.8559700000000000 O
   0.0000000000000000    0.5663000000000000    0.8389200000000000 O
   0.7018799999999999    0.3297900000000000    0.2743550000000000 O
   0.8864100000000000    0.3512900000000000    0.2613350000000000 O
  -0.1307300000000001    0.5239100000000000    0.2421500000000000 O
   0.6979900000000000    0.5346600000000000    0.2656950000000000 O
