H8 C14 O5
1.0
  15.5390485472112623    0.0000000000000000    4.7300126054178238
   5.0930335163039775   14.7019176778262075    4.6706157191772508
   0.0000000000000000    0.0000000000000000   23.1750000000000007
H C O
8 14 5
direct
   0.2216900000000000    0.5527900000000000    0.5644800000000000 H
   0.3562200000000000    0.5077700000000001    0.6136700000000000 H
   0.3744600000000000    0.2272900000000000    0.6488600000000000 H
   0.2403400000000000    0.2730800000000000    0.5998800000000000 H
   0.5995200000000001    0.2520700000000000    0.6921600000000000 H
   0.6203100000000000    0.1496000000000000    0.7950700000000001 H
   0.3313500000000000    0.2089800000000000    0.8522000000000000 H
   0.3094700000000000    0.3119400000000000    0.7508600000000000 H
   0.1416500000000000    0.4427400000000000    0.5513900000000000 C
   0.2225700000000000    0.4157100000000000    0.5797500000000000 C
   0.2556500000000000    0.4818100000000000    0.5832000000000001 C
   0.3299200000000000    0.4572000000000000    0.6104000000000001 C
   0.3714900000000000    0.3656600000000000    0.6343200000000000 C
   0.3404600000000000    0.2984700000000000    0.6304900000000000 C
   0.2659900000000000    0.3239600000000000    0.6034000000000000 C
   0.4538400000000000    0.2864000000000000    0.7154000000000000 C
   0.5414800000000000    0.2415900000000000    0.7277500000000000 C
   0.5525900000000000    0.1851900000000000    0.7847800000000000 C
   0.4771800000000000    0.1718800000000000    0.8299200000000000 C
   0.3899700000000000    0.2181000000000000    0.8168500000000000 C
   0.3775500000000000    0.2756000000000000    0.7603100000000000 C
   0.4891500000000000    0.1095200000000000    0.8907600000000000 C
   1.1057899999999998    0.5272500000000000    0.5308000000000000 O
   0.1147400000000000    0.3792600000000000    0.5501000000000000 O
   0.4477900000000000    0.3439100000000000    0.6586700000000000 O
   0.5680600000000000    1.0799600000000000    0.9035500000000000 O
   0.4192900000000000    0.0902300000000000   -0.0746200000000000 O
