H10 C12 N2
1.0
  15.5390485472112623    0.0000000000000000    4.7300126054178238
   5.0930335163039775   14.7019176778262075    4.6706157191772508
   0.0000000000000000    0.0000000000000000   23.1750000000000007
H C N
10 12 2
direct
   0.0987600000000000    0.7111900000000000    0.4039700000000000 H
   0.1163700000000000    0.8599100000000000    0.3997200000000000 H
   0.9060300000000000    0.8844000000000000    0.5652900000000000 H
   0.8988600000000000    0.7353499999999999    0.5621000000000000 H
   0.0746400000000000    0.9909200000000000    0.4410400000000000 H
   0.9012900000000000    0.2888200000000000    0.5959800000000000 H
   0.8836500000000000    0.1401000000000000    0.6002600000000000 H
   0.0940000000000000    0.1155200000000000    0.4346900000000000 H
   0.1011800000000000    0.2645800000000000    0.4378200000000000 H
   0.9253800000000000    0.0000000000000000    0.5589000000000000 H
   0.0575500000000000    0.7529500000000000    0.4382000000000000 C
   0.0666700000000000    0.8352400000000000    0.4364600000000000 C
   0.0124400000000000    0.8861200000000000    0.4821400000000000 C
   0.9502200000000000    0.8494500000000000    0.5280000000000000 C
   0.9450300000000000    0.7668700000000001    0.5269300000000000 C
   0.0233500000000000    0.9720700000000000    0.4797300000000000 C
   0.9424900000000000    0.2470400000000000    0.5617500000000000 C
   0.9333600000000000    0.1647400000000000    0.5635100000000000 C
   0.9875900000000000    0.1138500000000000    0.5178500000000000 C
   0.0498100000000000    0.1505000000000000    0.4717800000000000 C
   0.0550100000000000    0.2330700000000000    0.4730000000000000 C
   0.9766700000000000    0.0278900000000000    0.5202599999999999 C
   0.9975400000000000    0.7191100000000000    0.4826000000000000 N
   0.0025000000000000    0.2808600000000000    0.5173100000000000 N
