Zn4 H44 C66 N4 O15
1.0
  15.5390485472112623    0.0000000000000000    4.7300126054178238
   5.0930335163039775   14.7019176778262075    4.6706157191772508
   0.0000000000000000    0.0000000000000000   23.1750000000000007
Zn H C N O
4 44 66 4 15
direct
   0.4094000000000000    0.0048700000000000    0.0122300000000000 Zn
   0.0051000000000000    0.4094700000000000    0.5117000000000000 Zn
   0.5906500000000000    0.9950700000000000    0.9877100000000000 Zn
   0.9950000000000000    0.5904800000000000    0.4882000000000000 Zn
   0.0987600000000000    0.7111900000000000    0.4039700000000000 H
   0.1163700000000000    0.8599100000000000    0.3997200000000000 H
   0.9060300000000000    0.8844000000000000    0.5652900000000000 H
   0.8988600000000000    0.7353499999999999    0.5621000000000000 H
   0.0746400000000000    0.9909200000000000    0.4410400000000000 H
   0.4472300000000000    0.7761400000000001    0.9378000000000000 H
   0.4921000000000000    0.6413600000000000    0.8885700000000000 H
   0.7730500000000000    0.6228000000000000    0.8523500000000001 H
   0.7274100000000000    0.7573000000000000    0.9012700000000000 H
   0.7480400000000000    0.3991600000000000    0.8073000000000000 H
   0.8496300000000000    0.3799500000000000    0.7035500000000000 H
   0.7883100000000000    0.6688600000000000    0.6487400000000000 H
   0.6862200000000001    0.6891900000000000    0.7510200000000000 H
   0.2875900000000000    0.9020300000000000    0.0964600000000000 H
   0.1389300000000000    0.8844700000000000    0.1004600000000000 H
   0.1162400000000000    0.0934300000000000    0.9348900000000000 H
   0.2652100000000000    0.1005500000000000    0.9382800000000000 H
   0.0000000000000000    0.9255800000000000    0.0588000000000000 H
   0.7782200000000000    0.4471600000000000    0.4355600000000000 H
   0.6437000000000000    0.4922300000000000    0.3863500000000000 H
   0.6256600000000000    0.7726600000000000    0.3510700000000000 H
   0.7598700000000000    0.7268200000000000    0.3999700000000000 H
   0.4005200000000000    0.7478700000000000    0.3077700000000000 H
   0.3797500000000000    0.8502999999999999    0.2048000000000000 H
   0.6687100000000000    0.7910000000000000    0.1477000000000000 H
   0.6905700000000000    0.6880800000000000    0.2491200000000000 H
   0.9012900000000000    0.2888200000000000    0.5959800000000000 H
   0.8836500000000000    0.1401000000000000    0.6002600000000000 H
   0.0940000000000000    0.1155200000000000    0.4346900000000000 H
   0.1011800000000000    0.2645800000000000    0.4378200000000000 H
   0.9253800000000000    0.0000000000000000    0.5589000000000000 H
   0.5528100000000000    0.2238300000000000    0.0620600000000000 H
   0.5079800000000000    0.3585900000000000    0.1113100000000000 H
   0.2270300000000000    0.3771100000000000    0.1476200000000000 H
   0.2726300000000000    0.2426200000000000    0.0987100000000000 H
   0.2521500000000000    0.6007700000000000    0.1926200000000000 H
   0.1506300000000000    0.6200000000000000    0.2963900000000000 H
   0.2116600000000000    0.3311200000000000    0.3511500000000000 H
   0.3138100000000000    0.3107600000000000    0.2488900000000000 H
   0.7124500000000000    0.0979100000000000    0.9034900000000000 H
   0.8611100000000000    0.1154900000000000    0.8995000000000000 H
   0.8837800000000000    0.9065500000000000    0.0650800000000000 H
   0.7348200000000000    0.8994100000000000    0.0616900000000000 H
   0.9913800000000000    0.0743900000000000    0.9411700000000000 H
   0.0575500000000000    0.7529500000000000    0.4382000000000000 C
   0.0666700000000000    0.8352400000000000    0.4364600000000000 C
   0.0124400000000000    0.8861200000000000    0.4821400000000000 C
   0.9502200000000000    0.8494500000000000    0.5280000000000000 C
   0.9450300000000000    0.7668700000000001    0.5269300000000000 C
   0.0233500000000000    0.9720700000000000    0.4797300000000000 C
   0.5574500000000000    0.8568100000000000    0.9498000000000000 C
   0.5845300000000000    0.7753000000000000    0.9218400000000000 C
   0.5182900000000000    0.7420300000000000    0.9188800000000000 C
   0.5427999999999999    0.6676500000000000    0.8916300000000000 C
   0.6344200000000000    0.6260200000000000    0.8673000000000000 C
   0.7018000000000000    0.6569500000000000    0.8709500000000000 C
   0.6764000000000000    0.7315800000000000    0.8980500000000000 C
   0.7128600000000000    0.5447300000000000    0.7853000000000000 C
   0.7578700000000000    0.4575500000000000    0.7720000000000000 C
   0.8137900000000000    0.4473000000000000    0.7145600000000000 C
   0.8263400000000000    0.5231500000000000    0.6698700000000000 C
   0.7797900000000000    0.6099200000000000    0.6838200000000000 C
   0.7227700000000000    0.6214600000000000    0.7408400000000001 C
   0.8886200000000000    0.5120100000000000    0.6086800000000000 C
   0.2462600000000000    0.9429400000000000    0.0621500000000000 C
   0.1639800000000000    0.9338600000000000    0.0637600000000000 C
   0.1136300000000000    0.9876800000000000    0.0180000000000000 C
   0.1507700000000000    0.0495500000000000    0.9720400000000000 C
   0.2333000000000000    0.0547200000000000    0.9734300000000000 C
   0.0277200000000000    0.9767500000000000    0.0202500000000000 C
   0.8584200000000000    0.5570900000000000    0.4485700000000000 C
   0.7775100000000000    0.5842000000000001    0.4201800000000000 C
   0.7443000000000000    0.5181500000000000    0.4168200000000000 C
   0.6700600000000000    0.5427800000000000    0.3895900000000000 C
   0.6285400000000000    0.6343200000000000    0.3656400000000000 C
   0.6596400000000000    0.7014800000000000    0.3694400000000000 C
   0.7341299999999999    0.6759600000000000    0.3965200000000000 C
   0.5461900000000000    0.7135899999999999    0.2845400000000000 C
   0.4585700000000000    0.7583600000000000    0.2721900000000000 C
   0.4474600000000000    0.8147500000000000    0.2151500000000000 C
   0.5228900000000000    0.8280600000000000    0.1700200000000000 C
   0.6100800000000000    0.7818800000000000    0.1831100000000000 C
   0.6225000000000001    0.7244000000000000    0.2396500000000000 C
   0.5109399999999999    0.8904000000000000    0.1091600000000000 C
   0.9424900000000000    0.2470400000000000    0.5617500000000000 C
   0.9333600000000000    0.1647400000000000    0.5635100000000000 C
   0.9875900000000000    0.1138500000000000    0.5178500000000000 C
   0.0498100000000000    0.1505000000000000    0.4717800000000000 C
   0.0550100000000000    0.2330700000000000    0.4730000000000000 C
   0.9766700000000000    0.0278900000000000    0.5202599999999999 C
   0.4425700000000000    0.1431300000000000    0.0501200000000000 C
   0.4155100000000000    0.2246600000000000    0.0780500000000000 C
   0.4817600000000000    0.2579100000000000    0.0810200000000000 C
   0.4572700000000000    0.3323000000000000    0.1082600000000000 C
   0.3656600000000000    0.3739100000000000    0.1325900000000000 C
   0.2982600000000000    0.3429700000000000    0.1290000000000000 C
   0.3236500000000000    0.2683300000000000    0.1019200000000000 C
   0.2872500000000000    0.4552000000000000    0.2146100000000000 C
   0.2422800000000000    0.5423900000000000    0.2278700000000000 C
   0.1864400000000000    0.5526500000000000    0.2853800000000000 C
   0.1737800000000000    0.4768100000000000    0.3300400000000000 C
   0.2202700000000000    0.3900500000000000    0.3160900000000000 C
   0.2772700000000000    0.3784900000000000    0.2590700000000000 C
   0.1115000000000000    0.4880200000000000    0.3912200000000000 C
   0.7537800000000000    0.0570100000000000    0.9378100000000000 C
   0.8360600000000000    0.0661000000000000    0.9362000000000000 C
   0.8864000000000000    0.0122900000000000    0.9819600000000001 C
   0.8492600000000000    0.9504200000000000    0.0279300000000000 C
   0.7667300000000000    0.9452400000000000    0.0265000000000000 C
   0.9723000000000001    0.0232300000000000    0.9797200000000000 C
   0.9975400000000000    0.7191100000000000    0.4826000000000000 N
   0.2805900000000000    0.0025700000000000    0.0177600000000000 N
   0.0025000000000000    0.2808600000000000    0.5173100000000000 N
   0.7194500000000000    0.9973800000000000    0.9821900000000000 N
   0.4728800000000000    0.8924600000000000    0.9709500000000000 O
   0.6209000000000000    0.8845600000000000    0.9499900000000000 O
   0.6561600000000000    0.5499200000000000    0.8426000000000000 O
   0.9187900000000000    0.4333100000000000    0.5953300000000000 O
   0.9074500000000000    0.5821300000000000    0.5744500000000000 O
   0.8936800000000000    0.4726600000000000    0.4697000000000000 O
   0.8859500000000000    0.6204300000000000    0.4492700000000000 O
   0.5522300000000000    0.6561000000000000    0.3412900000000000 O
   0.4320800000000000    0.9198300000000000    0.0963100000000000 O
   0.5807600000000001    0.9098200000000000    0.0746000000000000 O
   0.5271100000000000    0.1076300000000000    0.0288100000000000 O
   0.3791300000000000    0.1153000000000000    0.0500400000000000 O
   0.3439500000000000    0.4500000000000000    0.1573200000000000 O
   0.0821700000000000    0.5664800000000000    0.4048200000000000 O
   0.0919200000000000    0.4181500000000000    0.4252300000000000 O
