H4 O2
1.0
  14.9172629725060268    0.0000000000000000    2.2365870001188592
   6.4110686238940682   22.6341124195229710    8.1916575905073703
   0.0000000000000000    0.0000000000000000   25.5410000000000004
H O
4 2
direct
   0.7584806130230530    0.1439136289009676    0.4413356946763050 H
   0.7207335139342154    0.1011084988879928    0.5011581105461627 H
   0.2418131907974994    0.8567565181611718    0.5566331376356733 H
   0.2795948197743958    0.8996637377288516    0.4968954321243365 H
   0.7089800000000001    0.1377550000000000    0.4702400000000000 O
   0.2913400000000000    0.8629700000000000    0.5277600000000000 O
