Zn40 H55 C155 N62 O129
1.0
  14.1719995143332209    0.0000000000000000   -0.0037102208815060
  -0.0091696265892718   14.9999757011760249   -0.0253945284857782
   0.0000000000000000    0.0000000000000000   30.7360000000000007
Zn H C N O
40 55 155 62 129
direct
   0.3872800000000000    0.8043900000000000    0.4801650000000000 Zn
   0.0000600000000000    0.4999700000000000    0.2499950000000000 Zn
   0.6128000000000000    0.1956000000000000    0.0197300000000000 Zn
   0.5005200000000000    0.4999500000000000    0.9999899999999999 Zn
   0.8892400000000000    0.1955600000000000    0.7687900000000000 Zn
   0.1112500000000000    0.8046000000000000    0.2310950000000000 Zn
   0.0000700000000000    0.9999300000000000    0.9999950000000000 Zn
   0.3874200000000000    0.3044800000000000    0.7699050000000001 Zn
   0.6126000000000000    0.6955800000000000    0.2300350000000000 Zn
   0.6258600000000000    0.2929700000000000    0.2167150000000000 Zn
   0.5009900000000000    0.9998700000000000    0.2499100000000000 Zn
   0.8892200000000000    0.6956400000000000    0.4801750000000000 Zn
   0.1107600000000000    0.3044600000000000    0.0188750000000000 Zn
   0.0000700000000000    0.9999300000000000    0.4999950000000000 Zn
   0.3874200000000000    0.3044800000000000    0.2699050000000000 Zn
   0.6126000000000000    0.6955800000000000    0.7300350000000000 Zn
   0.5009900000000000    0.9998700000000000    0.7499100000000000 Zn
   0.8892200000000000    0.6956400000000000    0.9801750000000000 Zn
   0.1107600000000000    0.3044600000000000    0.5188750000000000 Zn
   0.0000600000000000    0.4999700000000000    0.7499950000000000 Zn
   0.3872800000000000    0.8043900000000000    0.9801650000000000 Zn
   0.6128000000000000    0.1956000000000000    0.5197300000000000 Zn
   0.5005200000000000    0.4999500000000000    0.4999900000000000 Zn
   0.8892400000000000    0.1955600000000000    0.2687900000000000 Zn
   0.1112500000000000    0.8046000000000000    0.7310950000000001 Zn
   0.6259000000000000    0.7929900000000000    0.0332700000000000 Zn
   0.6259000000000000    0.7929900000000000    0.5332700000000000 Zn
   0.3741800000000000    0.2070300000000000    0.9666800000000000 Zn
   0.3741800000000000    0.2070300000000000    0.4666800000000000 Zn
   0.6258600000000000    0.2929700000000000    0.7167150000000000 Zn
   0.8727000000000000    0.2929600000000000    0.4665050000000000 Zn
   0.8727000000000000    0.2929600000000000    0.9665049999999999 Zn
   0.3741900000000000    0.7070600000000000    0.2832300000000000 Zn
   0.3741900000000000    0.7070600000000000    0.7832300000000000 Zn
   0.1272900000000000    0.7070300000000000    0.0334000000000000 Zn
   0.1272900000000000    0.7070300000000000    0.5334000000000000 Zn
   0.8730300000000000    0.7931100000000000    0.7833550000000000 Zn
   0.8730300000000000    0.7931100000000000    0.2833550000000000 Zn
   0.1272500000000000    0.2069100000000000    0.2164650000000000 Zn
   0.1272500000000000    0.2069100000000000    0.7164650000000000 Zn
   0.7319687279239423    0.5496023796624278    0.2432625230325700 H
   0.6384932175931622    0.5162026425841869    0.2220877433519076 H
   0.7233561299149831    0.6881715516419490    0.2916064004903550 H
   0.7048200000000000    0.6856000000000000    0.3167900000000000 H
  -0.2427308627109990    0.6226644030202538    0.2866287742912533 H
   0.2838700000000000    0.7673200000000000    0.3822850000000000 H
   0.4440200000000000    0.5039200000000000    0.2960150000000000 H
   0.2952600000000000    0.3144000000000000    0.1831100000000000 H
   0.7162500000000001    0.2324300000000000    0.1177450000000000 H
  -0.1200740716150969    0.5376447532427959    0.2712354964802919 H
  -0.1289452862832514    0.4521465132081442    0.2790566765973724 H
   0.0554600000000000    0.5037500000000000    0.0456600000000000 H
   0.2037600000000000    0.3165800000000000    0.9331700000000001 H
   0.7836400000000000    0.2313700000000000    0.8670700000000000 H
   0.9445400000000000    0.4963600000000000    0.9537200000000000 H
   0.7965900000000000    0.6835500000000000    0.0667750000000000 H
   0.2168000000000000    0.7685400000000000    0.1327050000000000 H
   0.4439700000000000    0.0037900000000000    0.9539350000000000 H
   0.2953300000000000    0.8169500000000000    0.0669100000000000 H
   0.7160000000000000    0.7318900000000000    0.1319350000000000 H
   0.5563300000000000    0.9962299999999999    0.0459550000000000 H
   0.7049299999999999    0.1830200000000000    0.9329950000000000 H
   0.2842700000000000    0.2679800000000000    0.8679450000000000 H
   0.0560600000000000    0.0036400000000000    0.2039100000000000 H
   0.2054800000000000    0.8146800000000000    0.3167650000000000 H
   0.7848900000000000    0.7321400000000000    0.3822950000000000 H
   0.7463004855421794    0.2817276864088676    0.2433503011858432 H
   0.7588872030689913    0.3590161843175746    0.2588969523423691 H
   0.9450400000000000    0.9962299999999999    0.2955850000000000 H
   0.7962700000000000    0.1856800000000000    0.1832200000000000 H
   0.2162900000000000    0.2682700000000000    0.1167850000000000 H
   0.4439700000000000    0.0037900000000000    0.4539350000000000 H
   0.2953300000000000    0.8169500000000000    0.5669100000000000 H
   0.7160000000000000    0.7318900000000000    0.6319350000000000 H
   0.5563300000000000    0.9962299999999999    0.5459550000000000 H
   0.7049299999999999    0.1830200000000000    0.4329950000000000 H
   0.2842700000000000    0.2679800000000000    0.3679450000000000 H
   0.0560600000000000    0.0036400000000000    0.7039100000000000 H
   0.2054800000000000    0.8146800000000000    0.8167650000000000 H
   0.7848900000000000    0.7321400000000000    0.8822950000000001 H
   0.9450400000000000    0.9962299999999999    0.7955850000000000 H
   0.7962700000000000    0.1856800000000000    0.6832199999999999 H
   0.2162900000000000    0.2682700000000000    0.6167850000000000 H
   0.4440200000000000    0.5039200000000000    0.7960149999999999 H
   0.2952600000000000    0.3144000000000000    0.6831100000000000 H
   0.7162500000000001    0.2324300000000000    0.6177450000000000 H
   0.5561700000000001    0.4961900000000000    0.7039550000000000 H
   0.7048200000000000    0.6856000000000000    0.8167900000000000 H
   0.2838700000000000    0.7673200000000000    0.8822850000000000 H
   0.0554600000000000    0.5037500000000000    0.5456600000000000 H
   0.2037600000000000    0.3165800000000000    0.4331700000000000 H
   0.7836400000000000    0.2313700000000000    0.3670700000000000 H
   0.9445400000000000    0.4963600000000000    0.4537200000000000 H
   0.7965900000000000    0.6835500000000000    0.5667750000000000 H
   0.2168000000000000    0.7685400000000000    0.6327050000000000 H
   0.5785700000000000    0.7488700000000000    0.4412300000000000 C
   0.5733200000000001    0.6947900000000000    0.3313550000000000 C
   0.3594800000000000    0.7561000000000000    0.3822000000000000 C
   0.5042800000000000    0.7467500000000000    0.4067300000000000 C
   0.5025100000000000    0.7209200000000000    0.3628950000000000 C
   0.1661300000000000    0.6181500000000000    0.2457200000000000 C
   0.1760300000000000    0.3950200000000000    0.2323350000000000 C
   0.3739100000000000    0.5042100000000000    0.2817700000000000 C
   0.2386700000000000    0.5517200000000000    0.2577350000000000 C
   0.2427000000000000    0.4589400000000000    0.2522000000000000 C
   0.4216600000000000    0.2511700000000000    0.0586450000000000 C
   0.4267600000000000    0.3052800000000000    0.1685550000000000 C
   0.6406400000000000    0.2437400000000000    0.1177800000000000 C
   0.4958900000000000    0.2532600000000000    0.0931850000000000 C
   0.4976000000000000    0.2791100000000000    0.1370200000000000 C
   0.3336500000000000    0.6185400000000000    0.9962750000000000 C
   0.3235600000000000    0.3950400000000000    0.9822850000000001 C
   0.1256900000000000    0.5040400000000000    0.0315550000000000 C
   0.2614200000000000    0.5515500000000000    0.0080350000000000 C
   0.2569800000000000    0.4588500000000000    0.0000000000000000 C
   0.0782300000000000    0.2515800000000000    0.8083250000000000 C
   0.0720500000000000    0.3066500000000000    0.9183300000000000 C
   0.8591500000000000    0.2432700000000000    0.8672250000000000 C
   0.0039300000000000    0.2537700000000000    0.8428400000000000 C
   0.0017100000000000    0.2799800000000000    0.8866600000000000 C
   0.6669600000000000    0.3814900000000000    0.0037600000000000 C
   0.6769300000000000    0.6050800000000000    0.0176200000000000 C
   0.8744700000000000    0.4960800000000000    0.9679900000000000 C
   0.7390500000000000    0.4485300000000000    0.9918750000000001 C
   0.7434500000000001    0.5412700000000000    0.9976650000000000 C
   0.9226700000000000    0.7484300000000000    0.1917750000000000 C
   0.9282200000000000    0.6934100000000000    0.0815600000000000 C
   0.0000000000000000    0.7462299999999999    0.1571150000000000 C
   0.1412800000000000    0.7566900000000000    0.1326100000000000 C
   0.0000000000000000    0.7200600000000000    0.1132650000000000 C
   0.1661000000000000    0.1183600000000000    0.0041850000000000 C
   0.1761600000000000    0.8952599999999999    0.0176150000000000 C
   0.3738600000000000    0.0041800000000000    0.9681649999999999 C
   0.2385600000000000    0.0518300000000000    0.9921400000000000 C
   0.2427100000000000    0.9591200000000000    0.9977500000000000 C
   0.4217100000000000    0.7513300000000001    0.1912800000000000 C
   0.4268500000000000    0.8066900000000000    0.0814800000000000 C
   0.6404600000000000    0.7436000000000000    0.1320100000000000 C
   0.4958700000000000    0.7537000000000000    0.1567250000000000 C
   0.4975600000000000    0.7799500000000000    0.1129700000000000 C
   0.8341200000000000    0.8814900000000000    0.9956750000000000 C
   0.8241800000000000    0.1046600000000000    0.9822750000000000 C
   0.6264400000000000    0.9958200000000000    0.0317200000000000 C
   0.7617200000000000    0.9481000000000001    0.0077600000000000 C
   0.7576000000000001    0.0408200000000000    0.0000000000000000 C
   0.5783800000000000    0.2485100000000000    0.8084600000000000 C
   0.5733600000000000    0.1932600000000000    0.9184350000000000 C
   0.3598100000000000    0.2562500000000000    0.8678800000000000 C
   0.5044000000000000    0.2460800000000000    0.8431299999999999 C
   0.5027000000000000    0.2198900000000000    0.8869100000000000 C
   0.3340000000000000    0.1186700000000000    0.2536800000000000 C
   0.3240400000000000    0.8952100000000000    0.2674250000000000 C
   0.1262600000000000    0.0040000000000000    0.2180650000000000 C
   0.2618500000000000    0.0516900000000000    0.2417800000000000 C
   0.2575300000000000    0.9589900000000000    0.2475100000000000 C
   0.0798200000000000    0.7512200000000000    0.4411050000000000 C
   0.0740900000000000    0.8067400000000000    0.3316000000000000 C
   0.8604600000000000    0.7437100000000000    0.3822000000000000 C
   0.0053300000000000    0.7533200000000000    0.4066500000000000 C
   0.0032600000000000    0.7798300000000000    0.3629450000000000 C
   0.6670000000000000    0.8814600000000000    0.2457350000000000 C
   0.6770500000000000    0.1049900000000000    0.2321750000000000 C
   0.8748600000000000    0.9959600000000000    0.2814100000000000 C
   0.7392400000000000    0.9483800000000000    0.2576400000000000 C
   0.7437100000000000    0.0410600000000000    0.2518650000000000 C
   0.9206800000000001    0.2488600000000000    0.0586950000000000 C
   0.9278100000000000    0.1942500000000000    0.1682600000000000 C
   0.0000000000000000    0.2469400000000000    0.0929350000000000 C
   0.1407100000000000    0.2567100000000000    0.1170600000000000 C
   0.0000000000000000    0.2207100000000000    0.1366700000000000 C
   0.1661000000000000    0.1183600000000000    0.5041850000000000 C
   0.1761600000000000    0.8952599999999999    0.5176150000000000 C
   0.3738600000000000    0.0041800000000000    0.4681650000000000 C
   0.2385600000000000    0.0518300000000000    0.4921400000000000 C
   0.2427100000000000    0.9591200000000000    0.4977500000000000 C
   0.4217100000000000    0.7513300000000001    0.6912800000000000 C
   0.4268500000000000    0.8066900000000000    0.5814800000000000 C
   0.6404600000000000    0.7436000000000000    0.6320100000000000 C
   0.4958700000000000    0.7537000000000000    0.6567250000000000 C
   0.4975600000000000    0.7799500000000000    0.6129700000000000 C
   0.8341200000000000    0.8814900000000000    0.4956750000000000 C
   0.8241800000000000    0.1046600000000000    0.4822750000000000 C
   0.6264400000000000    0.9958200000000000    0.5317200000000000 C
   0.7617200000000000    0.9481000000000001    0.5077600000000000 C
   0.7576000000000001    0.0408200000000000    0.5000000000000000 C
   0.5783800000000000    0.2485100000000000    0.3084600000000000 C
   0.5733600000000000    0.1932600000000000    0.4184350000000000 C
   0.3598100000000000    0.2562500000000000    0.3678800000000000 C
   0.5044000000000000    0.2460800000000000    0.3431300000000000 C
   0.5027000000000000    0.2198900000000000    0.3869100000000000 C
   0.3340000000000000    0.1186700000000000    0.7536800000000000 C
   0.3240400000000000    0.8952100000000000    0.7674250000000000 C
   0.1262600000000000    0.0040000000000000    0.7180650000000000 C
   0.2618500000000000    0.0516900000000000    0.7417800000000000 C
   0.2575300000000000    0.9589900000000000    0.7475100000000000 C
   0.0798200000000000    0.7512200000000000    0.9411050000000001 C
   0.0740900000000000    0.8067400000000000    0.8316000000000000 C
   0.8604600000000000    0.7437100000000000    0.8822000000000000 C
   0.0053300000000000    0.7533200000000000    0.9066500000000000 C
   0.0032600000000000    0.7798300000000000    0.8629450000000001 C
   0.6670000000000000    0.8814600000000000    0.7457350000000000 C
   0.6770500000000000    0.1049900000000000    0.7321750000000000 C
   0.8748600000000000    0.9959600000000000    0.7814099999999999 C
   0.7392400000000000    0.9483800000000000    0.7576400000000000 C
   0.7437100000000000    0.0410600000000000    0.7518650000000000 C
   0.9206800000000001    0.2488600000000000    0.5586949999999999 C
   0.9278100000000000    0.1942500000000000    0.6682600000000000 C
   0.0000000000000000    0.2469400000000000    0.5929350000000000 C
   0.1407100000000000    0.2567100000000000    0.6170599999999999 C
   0.0000000000000000    0.2207100000000000    0.6366700000000001 C
   0.1661300000000000    0.6181500000000000    0.7457199999999999 C
   0.1760300000000000    0.3950200000000000    0.7323350000000000 C
   0.3739100000000000    0.5042100000000000    0.7817700000000001 C
   0.2386700000000000    0.5517200000000000    0.7577350000000000 C
   0.2427000000000000    0.4589400000000000    0.7522000000000000 C
   0.4216600000000000    0.2511700000000000    0.5586450000000001 C
   0.4267600000000000    0.3052800000000000    0.6685550000000000 C
   0.6406400000000000    0.2437400000000000    0.6177800000000000 C
   0.4958900000000000    0.2532600000000000    0.5931850000000000 C
   0.4976000000000000    0.2791100000000000    0.6370200000000000 C
   0.8339600000000000    0.3818600000000000    0.7542949999999999 C
   0.8241900000000000    0.6050100000000000    0.7676750000000000 C
   0.6262700000000000    0.4958800000000000    0.7182150000000000 C
   0.7614700000000000    0.4483300000000000    0.7422750000000000 C
   0.7574600000000000    0.5411200000000000    0.7478200000000000 C
   0.5785700000000000    0.7488700000000000    0.9412300000000000 C
   0.5733200000000001    0.6947900000000000    0.8313550000000001 C
   0.3594800000000000    0.7561000000000000    0.8822000000000000 C
   0.5042800000000000    0.7467500000000000    0.9067300000000000 C
   0.5025100000000000    0.7209200000000000    0.8628950000000000 C
   0.3336500000000000    0.6185400000000000    0.4962750000000000 C
   0.3235600000000000    0.3950400000000000    0.4822850000000000 C
   0.1256900000000000    0.5040400000000000    0.5315550000000000 C
   0.2614200000000000    0.5515500000000000    0.5080350000000000 C
   0.2569800000000000    0.4588500000000000    0.5000000000000000 C
   0.0782300000000000    0.2515800000000000    0.3083250000000000 C
   0.0720500000000000    0.3066500000000000    0.4183300000000000 C
   0.8591500000000000    0.2432700000000000    0.3672250000000000 C
   0.0039300000000000    0.2537700000000000    0.3428400000000000 C
   0.0017100000000000    0.2799800000000000    0.3866600000000000 C
   0.6669600000000000    0.3814900000000000    0.5037600000000000 C
   0.6769300000000000    0.6050800000000000    0.5176200000000000 C
   0.8744700000000000    0.4960800000000000    0.4679900000000000 C
   0.7390500000000000    0.4485300000000000    0.4918750000000000 C
   0.7434500000000001    0.5412700000000000    0.4976650000000000 C
   0.9226700000000000    0.7484300000000000    0.6917750000000000 C
   0.9282200000000000    0.6934100000000000    0.5815600000000000 C
   0.0000000000000000    0.7462299999999999    0.6571150000000000 C
   0.1412800000000000    0.7566900000000000    0.6326100000000000 C
   0.0000000000000000    0.7200600000000000    0.6132649999999999 C
   0.4102400000000000    0.7271800000000000    0.3480150000000000 N
   0.4135700000000000    0.7690000000000000    0.4178500000000000 N
   0.3228900000000000    0.5790700000000000    0.2761450000000000 N
   0.3293600000000000    0.4301400000000000    0.2676700000000000 N
   0.5898400000000000    0.2727600000000000    0.1519350000000000 N
   0.5866100000000000    0.2308900000000000    0.0821000000000000 N
   0.1771100000000000    0.5788000000000000    0.0263250000000000 N
   0.1700100000000000    0.4300800000000000    0.0172600000000000 N
   0.9094000000000000    0.2729300000000000    0.9014500000000000 N
   0.9135200000000000    0.2305700000000000    0.8316550000000000 N
   0.8231700000000000    0.4213100000000000    0.9734100000000000 N
   0.8302200000000000    0.5700700000000000    0.9823100000000000 N
   0.0870700000000000    0.7693800000000000    0.1682150000000000 N
   0.0908500000000000    0.7271000000000000    0.0984200000000000 N
   0.3227700000000000    0.0790500000000000    0.9737250000000000 N
   0.3293800000000000    0.9302300000000000    0.9823250000000000 N
   0.5897200000000000    0.7731400000000000    0.0979900000000000 N
   0.5864800000000000    0.7307399999999999    0.1676700000000000 N
   0.6775000000000000    0.9209200000000000    0.0261800000000000 N
   0.6709200000000000    0.0697500000000000    0.0175500000000000 N
   0.4105500000000000    0.2267500000000000    0.9019050000000000 N
   0.4137600000000000    0.2690600000000000    0.8322149999999999 N
   0.1775300000000000    0.0788700000000000    0.2234850000000000 N
   0.1706800000000000    0.9301400000000000    0.2322600000000000 N
   0.9109100000000000    0.7734100000000000    0.3481000000000000 N
   0.9147600000000000    0.7305400000000000    0.4177400000000000 N
   0.8234399999999999    0.9211900000000000    0.2760350000000000 N
   0.8305500000000000    0.0698600000000000    0.2671400000000000 N
   0.0860400000000000    0.2697200000000000    0.0816000000000000 N
   0.0906500000000000    0.2271900000000000    0.1513250000000000 N
   0.3227700000000000    0.0790500000000000    0.4737250000000000 N
   0.3293800000000000    0.9302300000000000    0.4823250000000000 N
   0.5897200000000000    0.7731400000000000    0.5979900000000000 N
   0.5864800000000000    0.7307399999999999    0.6676700000000000 N
   0.6775000000000000    0.9209200000000000    0.5261800000000000 N
   0.6709200000000000    0.0697500000000000    0.5175500000000000 N
   0.4105500000000000    0.2267500000000000    0.4019050000000000 N
   0.4137600000000000    0.2690600000000000    0.3322150000000000 N
   0.1775300000000000    0.0788700000000000    0.7234849999999999 N
   0.1706800000000000    0.9301400000000000    0.7322600000000000 N
   0.9109100000000000    0.7734100000000000    0.8481000000000001 N
   0.9147600000000000    0.7305400000000000    0.9177400000000000 N
   0.8234399999999999    0.9211900000000000    0.7760350000000000 N
   0.8305500000000000    0.0698600000000000    0.7671399999999999 N
   0.0860400000000000    0.2697200000000000    0.5816000000000000 N
   0.0906500000000000    0.2271900000000000    0.6513249999999999 N
   0.3228900000000000    0.5790700000000000    0.7761450000000000 N
   0.3293600000000000    0.4301400000000000    0.7676700000000001 N
   0.5898400000000000    0.2727600000000000    0.6519349999999999 N
   0.5866100000000000    0.2308900000000000    0.5821000000000001 N
   0.6772500000000000    0.4210000000000000    0.7238450000000000 N
   0.6708200000000000    0.5699500000000000    0.7323300000000000 N
   0.4102400000000000    0.7271800000000000    0.8480150000000000 N
   0.4135700000000000    0.7690000000000000    0.9178500000000001 N
   0.1771100000000000    0.5788000000000000    0.5263250000000000 N
   0.1700100000000000    0.4300800000000000    0.5172600000000001 N
   0.9094000000000000    0.2729300000000000    0.4014500000000000 N
   0.9135200000000000    0.2305700000000000    0.3316550000000000 N
   0.8231700000000000    0.4213100000000000    0.4734100000000000 N
   0.8302200000000000    0.5700700000000000    0.4823100000000000 N
   0.0870700000000000    0.7693800000000000    0.6682150000000000 N
   0.0908500000000000    0.7271000000000000    0.5984200000000000 N
   0.6708200000000000    0.5699500000000000    0.2323300000000000 O
   0.6586300000000000    0.7187200000000000    0.4357250000000000 O
   0.5471300000000000    0.7848200000000000    0.4778000000000000 O
   0.7885500000000000    0.6761800000000000    0.2839950000000000 O
   0.6625100000000000    0.7027400000000000    0.3423900000000000 O
   0.5474500000000000    0.6676600000000000    0.2945050000000000 O
   0.1891500000000000    0.6991900000000000    0.2519350000000000 O
   0.0866600000000000    0.5952600000000000    0.2297500000000000 O
   0.0873100000000000    0.4059100000000000    0.2315650000000000 O
   0.2117900000000000    0.3239200000000000    0.2160150000000000 O
   0.3416000000000000    0.2814000000000000    0.0640350000000000 O
   0.4531300000000000    0.2151400000000000    0.0221050000000000 O
   0.3375800000000000    0.2972100000000000    0.1575250000000000 O
   0.4525900000000000    0.3324900000000000    0.2053900000000000 O
  -0.0871100000000000    0.5940400000000000    0.2684600000000000 O
  -0.0865399999999999    0.4047000000000000    0.2702500000000000 O
   0.3090800000000000    0.6994500000000000    0.0017000000000000 O
   0.4143200000000000    0.5969400000000000    0.9813050000000000 O
   0.4122300000000000    0.4063200000000000    0.9814950000000000 O
   0.2879500000000000    0.3237900000000000    0.9659750000000000 O
   0.1584400000000000    0.2815600000000000    0.8136650000000001 O
   0.0467500000000000    0.2155200000000000    0.7717300000000000 O
   0.1613800000000000    0.3008300000000000    0.9073400000000000 O
   0.0455300000000000    0.3323200000000000    0.9553550000000000 O
   0.6912700000000001    0.3005600000000000    0.9982249999999999 O
   0.5864800000000000    0.4031600000000000    0.0189350000000000 O
   0.5882700000000000    0.5937200000000000    0.0184900000000000 O
   0.7124400000000000    0.6763400000000001    0.0338950000000000 O
   0.8423900000000000    0.7185100000000000    0.1866350000000000 O
   0.9543900000000000    0.7844600000000000    0.2283850000000000 O
   0.8389000000000000    0.6991900000000000    0.0926400000000000 O
   0.9545600000000000    0.6678200000000000    0.0445150000000000 O
   0.1892100000000000    0.1993600000000000    0.9980300000000000 O
   0.0865800000000000    0.0957400000000000    0.0201250000000000 O
   0.0874200000000000    0.9060300000000000    0.0184100000000000 O
   0.2120900000000000    0.8243000000000000    0.0339000000000000 O
   0.3415700000000000    0.7813099999999999    0.1859100000000000 O
   0.4532400000000000    0.7152300000000000    0.2277650000000000 O
   0.3376300000000000    0.8008200000000000    0.0926800000000000 O
   0.4528400000000000    0.8324700000000000    0.0444700000000000 O
   0.8109300000000000    0.8004800000000000    0.0017200000000000 O
   0.9137000000000000    0.9040800000000000    0.9797850000000000 O
   0.9129200000000000    0.0939100000000000    0.9815600000000000 O
   0.7883500000000000    0.1755900000000000    0.9659050000000000 O
   0.6585500000000000    0.2183500000000000    0.8135250000000001 O
   0.5466800000000001    0.2849300000000000    0.7721000000000000 O
   0.6625799999999999    0.1991700000000000    0.9072450000000001 O
   0.5473200000000000    0.1675500000000000    0.9554549999999999 O
   0.3092700000000000    0.1995600000000000    0.2484050000000000 O
   0.4147100000000000    0.0971100000000000    0.2686100000000000 O
   0.4127300000000000    0.9065100000000000    0.2684800000000000 O
   0.2883000000000000    0.8239400000000000    0.2834950000000000 O
   0.1599100000000000    0.7813800000000000    0.4355550000000000 O
   0.0485900000000000    0.7153000000000000    0.4776750000000000 O
   0.1632800000000000    0.7973100000000000    0.3423500000000000 O
   0.0484400000000000    0.8357599999999999    0.2951200000000000 O
   0.8109000000000000    0.3008200000000000    0.2480950000000000 O
   0.6909400000000000    0.8005400000000000    0.2516050000000000 O
   0.5869100000000000    0.9032900000000000    0.2301750000000000 O
   0.5883800000000000    0.0937200000000000    0.2314750000000000 O
   0.7124000000000000    0.1763200000000000    0.2160300000000000 O
   0.8406900000000000    0.2186000000000000    0.0644150000000000 O
   0.9514600000000000    0.2848000000000000    0.0220600000000000 O
   0.8385200000000000    0.2027200000000000    0.1575950000000000 O
   0.9541400000000000    0.1664500000000000    0.2048950000000000 O
   0.1892100000000000    0.1993600000000000    0.4980300000000000 O
   0.0865800000000000    0.0957400000000000    0.5201249999999999 O
   0.0874200000000000    0.9060300000000000    0.5184100000000000 O
   0.2120900000000000    0.8243000000000000    0.5339000000000000 O
   0.3415700000000000    0.7813099999999999    0.6859100000000000 O
   0.4532400000000000    0.7152300000000000    0.7277650000000000 O
   0.3376300000000000    0.8008200000000000    0.5926800000000000 O
   0.4528400000000000    0.8324700000000000    0.5444700000000000 O
   0.8109300000000000    0.8004800000000000    0.5017200000000001 O
   0.9137000000000000    0.9040800000000000    0.4797850000000000 O
   0.9129200000000000    0.0939100000000000    0.4815600000000000 O
   0.7883500000000000    0.1755900000000000    0.4659050000000000 O
   0.6585500000000000    0.2183500000000000    0.3135250000000000 O
   0.5466800000000001    0.2849300000000000    0.2721000000000000 O
   0.6625799999999999    0.1991700000000000    0.4072450000000000 O
   0.5473200000000000    0.1675500000000000    0.4554550000000000 O
   0.3092700000000000    0.1995600000000000    0.7484050000000000 O
   0.4147100000000000    0.0971100000000000    0.7686100000000000 O
   0.4127300000000000    0.9065100000000000    0.7684800000000001 O
   0.2883000000000000    0.8239400000000000    0.7834950000000001 O
   0.1599100000000000    0.7813800000000000    0.9355550000000000 O
   0.0485900000000000    0.7153000000000000    0.9776750000000001 O
   0.1632800000000000    0.7973100000000000    0.8423499999999999 O
   0.0484400000000000    0.8357599999999999    0.7951200000000000 O
   0.6909400000000000    0.8005400000000000    0.7516050000000001 O
   0.5869100000000000    0.9032900000000000    0.7301750000000000 O
   0.5883800000000000    0.0937200000000000    0.7314750000000000 O
   0.7124000000000000    0.1763200000000000    0.7160299999999999 O
   0.8406900000000000    0.2186000000000000    0.5644150000000000 O
   0.9514600000000000    0.2848000000000000    0.5220600000000000 O
   0.8385200000000000    0.2027200000000000    0.6575950000000000 O
   0.9541400000000000    0.1664500000000000    0.7048950000000000 O
   0.1891500000000000    0.6991900000000000    0.7519350000000000 O
   0.0866600000000000    0.5952600000000000    0.7297500000000000 O
   0.0873100000000000    0.4059100000000000    0.7315650000000000 O
   0.2117900000000000    0.3239200000000000    0.7160150000000001 O
   0.3416000000000000    0.2814000000000000    0.5640350000000000 O
   0.4531300000000000    0.2151400000000000    0.5221050000000000 O
   0.3375800000000000    0.2972100000000000    0.6575250000000000 O
   0.4525900000000000    0.3324900000000000    0.7053900000000000 O
   0.8109000000000000    0.3008200000000000    0.7480950000000000 O
   0.9134600000000000    0.4047000000000000    0.7702500000000000 O
   0.9128900000000000    0.5940400000000000    0.7684599999999999 O
   0.7885500000000000    0.6761800000000000    0.7839950000000000 O
   0.6586300000000000    0.7187200000000000    0.9357249999999999 O
   0.5471300000000000    0.7848200000000000    0.9778000000000000 O
   0.6625100000000000    0.7027400000000000    0.8423900000000000 O
   0.5474500000000000    0.6676600000000000    0.7945050000000000 O
   0.3090800000000000    0.6994500000000000    0.5017000000000000 O
   0.4143200000000000    0.5969400000000000    0.4813050000000000 O
   0.4122300000000000    0.4063200000000000    0.4814950000000000 O
   0.2879500000000000    0.3237900000000000    0.4659750000000000 O
   0.1584400000000000    0.2815600000000000    0.3136650000000000 O
   0.0467500000000000    0.2155200000000000    0.2717300000000000 O
   0.1613800000000000    0.3008300000000000    0.4073400000000000 O
   0.0455300000000000    0.3323200000000000    0.4553550000000000 O
   0.6912700000000001    0.3005600000000000    0.4982250000000000 O
   0.5864800000000000    0.4031600000000000    0.5189350000000000 O
   0.5882700000000000    0.5937200000000000    0.5184900000000000 O