H2 C5 N2 O4
1.0
  14.1719995143332209    0.0000000000000000   -0.0037102208815060
  -0.0091696265892718   14.9999757011760249   -0.0253945284857782
   0.0000000000000000    0.0000000000000000   30.7360000000000007
H C N O
2 5 2 4
direct
   0.7162500000000001    0.2324300000000000    0.6177450000000000 H
   0.2952600000000000    0.3144000000000000    0.6831100000000000 H
   0.4976000000000000    0.2791100000000000    0.6370200000000000 C
   0.4958900000000000    0.2532600000000000    0.5931850000000000 C
   0.6406400000000000    0.2437400000000000    0.6177800000000000 C
   0.4267600000000000    0.3052800000000000    0.6685550000000000 C
   0.4216600000000000    0.2511700000000000    0.5586450000000001 C
   0.5898400000000000    0.2727600000000000    0.6519349999999999 N
   0.5866100000000000    0.2308900000000000    0.5821000000000001 N
   0.4525900000000000    0.3324900000000000    0.7053900000000000 O
   0.3375800000000000    0.2972100000000000    0.6575250000000000 O
   0.3416000000000000    0.2814000000000000    0.5640350000000000 O
   0.4531300000000000    0.2151400000000000    0.5221050000000000 O
