H8 O5
1.0
  14.1719995143332209    0.0000000000000000   -0.0037102208815060
  -0.0091696265892718   14.9999757011760249   -0.0253945284857782
   0.0000000000000000    0.0000000000000000   30.7360000000000007
H O
8 5
direct
   0.7463004855421794    0.2817276864088676    0.2433503011858432 H
   0.7588872030689913    0.3590161843175746    0.2588969523423691 H
  -0.1200740716150969    0.5376447532427959    0.2712354964802919 H
  -0.1289452862832514    0.4521465132081442    0.2790566765973724 H
  -0.2427308627109990    0.6226644030202538    0.2866287742912533 H
   0.7233561299149831    0.6881715516419490    0.2916064004903550 H
   0.7319687279239423    0.5496023796624278    0.2432625230325700 H
   0.6384932175931622    0.5162026425841869    0.2220877433519076 H
   0.8109000000000000    0.3008200000000000    0.2480950000000000 O
  -0.0871100000000000    0.5940400000000000    0.2684600000000000 O
  -0.0865399999999999    0.4047000000000000    0.2702500000000000 O
   0.7885500000000000    0.6761800000000000    0.2839950000000000 O
   0.6708200000000000    0.5699500000000000    0.2323300000000000 O
