H4 O3
1.0
  14.1719995143332209    0.0000000000000000   -0.0037102208815060
  -0.0091696265892718   14.9999757011760249   -0.0253945284857782
   0.0000000000000000    0.0000000000000000   30.7360000000000007
H O
4 3
direct
   0.4298565141114162    0.2417858117752041    0.5491279798019972 H
   0.4324839508154759    0.3113097600344212    0.6767176685361229 H
   0.6267991501747583    0.2516467216915062    0.6270857918460853 H
   0.5248349140934883    0.2772350899339370    0.6414238241945401 H
   0.4531300000000000    0.2151400000000000    0.5221050000000000 O
   0.4525900000000000    0.3324900000000000    0.7053900000000000 O
   0.5898400000000000    0.2727600000000000    0.6519349999999999 O
