H1 C5 N2 O4
1.0
  14.1719995143332209    0.0000000000000000   -0.0037102208815060
  -0.0091696265892718   14.9999757011760249   -0.0253945284857782
   0.0000000000000000    0.0000000000000000   30.7360000000000007
H C N O
1 5 2 4
direct
   0.5561700000000001    0.4961900000000000    0.2039550000000000 H
   0.7574600000000000    0.5411200000000000    0.2478200000000000 C
   0.7614700000000000    0.4483300000000000    0.2422750000000000 C
   0.6262700000000000    0.4958800000000000    0.2182150000000000 C
   0.8241900000000000    0.6050100000000000    0.2676750000000000 C
   0.8339600000000000    0.3818600000000000    0.2542950000000000 C
   0.6708200000000000    0.5699500000000000    0.2323300000000000 N
   0.6772500000000000    0.4210000000000000    0.2238450000000000 N
   0.7885500000000000    0.6761800000000000    0.2839950000000000 O
  -0.0871100000000000    0.5940400000000000    0.2684600000000000 O
  -0.0865399999999999    0.4047000000000000    0.2702500000000000 O
   0.8109000000000000    0.3008200000000000    0.2480950000000000 O
