H4 O2
1.0
  18.6549997698531627    0.0000000000000000   -0.0029303205355849
  -5.2125202908380253   34.2921015373964977    0.0006053849043166
   0.0000000000000000    0.0000000000000000   20.2820000000000000
H O
4 2
direct
   0.9317490862243721    0.3861735241882238    0.0657766645916144 H
   0.8783681720893728    0.3435357887090044    0.0803448386676574 H
   0.4007070908685214    0.3831302477207685    0.7637975035408806 H
   0.3515387218696955    0.3385383034721670    0.7601118191654359 H
   0.9196900000000000    0.3628950000000000    0.0932100000000000 O
   0.3597900000000000    0.3656300000000000    0.7449700000000000 O
