Zn16 H416 C432 N60 O82
1.0
  18.6549997698531627    0.0000000000000000   -0.0029303205355849
  -5.2125202908380253   34.2921015373964977    0.0006053849043166
   0.0000000000000000    0.0000000000000000   20.2820000000000000
Zn H C N O
16 416 432 60 82
direct
   0.2814500000000000    0.8867050000000001    0.6836200000000000 Zn
   0.7185600000000000    0.1133050000000000    0.3163600000000000 Zn
   0.0314800000000000    0.6366849999999999    0.8163000000000000 Zn
   0.4685300000000000    0.8633200000000000    0.1836200000000000 Zn
   0.5314800000000000    0.1366900000000000    0.8163000000000000 Zn
   0.9685400000000000    0.3633200000000000    0.1836200000000000 Zn
   0.2185600000000000    0.6133000000000000    0.3163600000000000 Zn
   0.7814600000000000    0.3867050000000000    0.6836200000000000 Zn
   0.2814500000000000    0.3867050000000000    0.6836200000000000 Zn
   0.7185600000000000    0.6133050000000000    0.3163600000000000 Zn
   0.0314800000000000    0.1366850000000000    0.8163000000000000 Zn
   0.4685300000000000    0.3633200000000000    0.1836200000000000 Zn
   0.5314800000000000    0.6366900000000000    0.8163000000000000 Zn
   0.9685400000000000    0.8633200000000000    0.1836200000000000 Zn
   0.2185600000000000    0.1133000000000000    0.3163600000000000 Zn
   0.7814600000000000    0.8867050000000001    0.6836200000000000 Zn
   0.4007070908685214    0.3831302477207685    0.7637975035408806 H
   0.3515387218696955    0.3385383034721670    0.7601118191654359 H
   0.7258599999999999    0.1807350000000000    0.9923000000000000 H
   0.5895400000000000    0.0708400000000000    0.0268300000000000 H
   0.6482400000000000    0.1892400000000000    0.8922500000000000 H
   0.5170600000000000    0.0842650000000000    0.9290000000000000 H
   0.8072700000000000    0.1302600000000000    0.9786200000000000 H
   0.8372800000000000    0.0971500000000000    0.0357000000000000 H
   0.7784700000000000    0.1496400000000000    0.1800000000000000 H
   0.8188500000000000    0.1083350000000000    0.1577000000000000 H
   0.6804100000000000    0.1233700000000000    0.1208400000000000 H
   0.7126200000000000    0.0851800000000000    0.0780100000000000 H
   0.1205800000000000    0.2162500000000000    0.1710100000000000 H
   0.9943300000000000    0.1019350000000000    0.1599200000000000 H
   0.0761400000000000    0.0803600000000000    0.2476700000000000 H
   0.1976100000000000    0.1902850000000000    0.2564600000000000 H
   0.9116400000000000    0.1608300000000000    0.1955800000000000 H
   0.8822000000000000    0.1948900000000000    0.1398000000000000 H
   0.9391300000000000    0.1433800000000000    0.9932200000000000 H
   0.8973200000000000    0.1840800000000000    0.0181600000000000 H
   0.0378600000000000    0.1688950000000000    0.0548300000000000 H
   0.0079600000000000    0.2054100000000000    0.1044400000000000 H
   0.2258600000000000    0.6807350000000000    0.9923300000000000 H
   0.0895400000000000    0.5708450000000000    0.0268300000000000 H
   0.1482400000000000    0.6892350000000000    0.8922500000000000 H
   0.0170600000000000    0.5842700000000000    0.9290600000000000 H
   0.2784700000000000    0.6496400000000000    0.1803900000000000 H
   0.3188500000000000    0.6083400000000000    0.1577200000000000 H
   0.3072700000000000    0.6302550000000000    0.9786200000000000 H
   0.3372800000000000    0.5971450000000000    0.0357000000000000 H
   0.1804100000000000    0.6233700000000000    0.1208400000000000 H
   0.2126200000000000    0.5851800000000000    0.0780100000000000 H
   0.6205800000000000    0.7162500000000001    0.1710100000000000 H
   0.4943300000000000    0.6019350000000000    0.1599200000000000 H
   0.5761400000000000    0.5803600000000000    0.2476800000000000 H
   0.6976100000000000    0.6902850000000000    0.2564600000000000 H
   0.4116400000000000    0.6608300000000000    0.1955700000000000 H
   0.3822000000000000    0.6948900000000000    0.1398200000000000 H
   0.4391300000000000    0.6433750000000000    0.9932200000000000 H
   0.3973200000000000    0.6840800000000000    0.0181000000000000 H
   0.5378700000000000    0.6688950000000000    0.0548300000000000 H
   0.5079700000000000    0.7054100000000000    0.1044400000000000 H
   0.9317490862243721    0.3861735241882238    0.0657766645916144 H
   0.8783681720893728    0.3435357887090044    0.0803448386676574 H
   0.4104600000000000    0.9291600000000000    0.9731400000000000 H
   0.2741600000000000    0.8192650000000000    0.0076300000000000 H
   0.3517700000000000    0.8107650000000000    0.1077200000000000 H
   0.4829400000000000    0.9157400000000000    0.0709200000000000 H
   0.2215400000000000    0.8503600000000000    0.8195800000000000 H
   0.1811600000000000    0.8916649999999999    0.8422600000000000 H
   0.1927400000000000    0.8697450000000000    0.0213500000000000 H
   0.1627300000000000    0.9028550000000000    0.9642200000000000 H
   0.3195900000000000    0.8766300000000000    0.8791300000000000 H
   0.2873900000000000    0.9148250000000000    0.9219000000000001 H
   0.8794200000000000    0.7837499999999999    0.8289700000000000 H
   0.0000000000000000    0.8980699999999999    0.8400600000000000 H
   0.9238600000000000    0.9196450000000000    0.7523000000000000 H
   0.8023900000000000    0.8097200000000000    0.7435200000000000 H
   0.0883600000000000    0.8391750000000000    0.8044000000000000 H
   0.1178000000000000    0.8051100000000000    0.8601500000000000 H
   0.0608800000000000    0.8566250000000000    0.0067600000000000 H
   0.1026800000000000    0.8159250000000000    0.9818000000000000 H
   0.9621499999999999    0.8311100000000000    0.9451500000000000 H
   0.9920400000000000    0.7945949999999999    0.8955400000000000 H
   0.0243600000000000    0.5691550000000000    0.4924000000000000 H
   0.1604400000000000    0.6791400000000000    0.5267400000000000 H
   0.1019600000000000    0.5606650000000000    0.3923200000000000 H
   0.2329400000000000    0.6657200000000000    0.4200000000000000 H
   0.9717500000000000    0.6003499999999999    0.6804000000000000 H
   0.9313600000000000    0.6416400000000000    0.6576500000000000 H
   0.9427600000000000    0.6195750000000000    0.4786100000000000 H
   0.9128100000000000    0.6527350000000001    0.5356700000000000 H
   0.0697200000000000    0.6266050000000000    0.6208000000000000 H
   0.0374300000000000    0.6647550000000000    0.5779200000000000 H
   0.6295800000000000    0.5336950000000000    0.6711700000000000 H
   0.7557900000000000    0.6480150000000000    0.6600000000000000 H
   0.6739400000000000    0.6696200000000000    0.7476600000000000 H
   0.5525099999999999    0.5596900000000000    0.7565200000000000 H
   0.8386100000000000    0.5891850000000000    0.6956000000000000 H
   0.8679700000000000    0.5550750000000000    0.6399700000000000 H
   0.8109100000000000    0.6064750000000000    0.4930000000000000 H
   0.8527200000000000    0.5657850000000000    0.5183000000000000 H
   0.7122300000000000    0.5809800000000001    0.5549700000000000 H
   0.7422100000000000    0.5445200000000000    0.6046600000000000 H
   0.4756400000000000    0.9308550000000000    0.5075800000000000 H
   0.3395600000000000    0.8208700000000000    0.4732400000000000 H
   0.3980400000000000    0.9393450000000000    0.6076600000000000 H
   0.2670600000000000    0.8342900000000000    0.5709800000000000 H
   0.5282500000000000    0.8996649999999999    0.3195700000000000 H
   0.5686400000000000    0.8583750000000000    0.3423200000000000 H
   0.5572500000000000    0.8804350000000001    0.5213600000000000 H
   0.5872000000000001    0.8472750000000000    0.4643000000000000 H
   0.4302800000000000    0.8734050000000000    0.3791800000000000 H
   0.4625700000000000    0.8352550000000001    0.4220500000000000 H
   0.8704200000000000    0.9663100000000000    0.3287900000000000 H
   0.7442200000000000    0.8519900000000000    0.3399800000000000 H
   0.8260600000000000    0.8303849999999999    0.2523100000000000 H
   0.9474900000000001    0.9403200000000000    0.2434400000000000 H
   0.6614000000000000    0.9108250000000000    0.3043100000000000 H
   0.6320400000000000    0.9449350000000001    0.3600000000000000 H
   0.6891000000000000    0.8935299999999999    0.5066800000000000 H
   0.6472900000000000    0.9342200000000001    0.4816000000000000 H
   0.7877700000000000    0.9190250000000000    0.4450000000000000 H
   0.7578000000000000    0.9554900000000000    0.3953200000000000 H
   0.5243600000000000    0.0691550000000000    0.4924000000000000 H
   0.6604400000000000    0.1791400000000000    0.5266999999999999 H
   0.6019700000000000    0.0606600000000000    0.3923200000000000 H
   0.7329400000000000    0.1657200000000000    0.4289900000000000 H
   0.4717500000000000    0.1003500000000000    0.6804000000000000 H
   0.4313600000000000    0.1416350000000000    0.6576600000000000 H
   0.4427500000000000    0.1195700000000000    0.4786000000000000 H
   0.4128000000000000    0.1527300000000000    0.5356700000000000 H
   0.5697300000000000    0.1266050000000000    0.6208000000000000 H
   0.5374300000000000    0.1647550000000000    0.5779200000000000 H
   0.1295800000000000    0.0336950000000000    0.6711700000000000 H
   0.2557900000000000    0.1480150000000000    0.6600000000000000 H
   0.1739400000000000    0.1696200000000000    0.7476600000000000 H
   0.0525000000000000    0.0596850000000000    0.7565200000000000 H
   0.3386000000000000    0.0891800000000000    0.6956700000000000 H
   0.3679700000000000    0.0550700000000000    0.6399700000000000 H
   0.3109100000000000    0.1064700000000000    0.4933000000000000 H
   0.3527200000000000    0.0657850000000000    0.5183000000000000 H
   0.2122300000000000    0.0809800000000000    0.5549700000000000 H
   0.2422000000000000    0.0445150000000000    0.6046600000000000 H
   0.9756400000000000    0.4308550000000000    0.5075800000000000 H
   0.8395600000000000    0.3208700000000000    0.4732000000000000 H
   0.8980399999999999    0.4393450000000000    0.6076600000000000 H
   0.7670700000000000    0.3342900000000000    0.5709800000000000 H
   0.0282500000000000    0.3996650000000000    0.3195700000000000 H
   0.0686400000000000    0.3583750000000000    0.3423200000000000 H
   0.0572500000000000    0.3804350000000000    0.5213600000000000 H
   0.0871900000000000    0.3472750000000000    0.4643000000000000 H
   0.9302900000000000    0.3734100000000000    0.3791800000000000 H
   0.9625700000000000    0.3352550000000000    0.4220000000000000 H
   0.3704200000000000    0.4663100000000000    0.3287900000000000 H
   0.2442200000000000    0.3519900000000000    0.3399800000000000 H
   0.3260600000000000    0.3303850000000000    0.2523100000000000 H
   0.4474900000000000    0.4403200000000000    0.2434400000000000 H
   0.1614000000000000    0.4108250000000000    0.3043100000000000 H
   0.1320400000000000    0.4449350000000000    0.3600100000000000 H
   0.1891000000000000    0.3935300000000000    0.5066800000000000 H
   0.1472900000000000    0.4342200000000000    0.4816700000000000 H
   0.2877700000000000    0.4190200000000000    0.4450000000000000 H
   0.2578000000000000    0.4554900000000000    0.3953200000000000 H
   0.0831300000000000    0.9843700000000000    0.8514500000000000 H
   0.1319800000000000    0.9613800000000000    0.9121800000000000 H
   0.1906200000000000    0.9655250000000000    0.8125900000000000 H
   0.4001900000000000    0.0262200000000000    0.7600000000000000 H
   0.2711900000000000    0.0763400000000000    0.9045000000000000 H
   0.8829399999999999    0.0198600000000000    0.9655100000000000 H
   0.9733500000000000    0.0087550000000000    0.8813100000000000 H
   0.1170600000000000    0.9801500000000001    0.0344700000000000 H
   0.0266500000000000    0.9912550000000000    0.1186700000000000 H
   0.9168700000000000    0.0156400000000000    0.1485300000000000 H
   0.8680200000000000    0.0386250000000000    0.0878000000000000 H
   0.8093800000000000    0.0344800000000000    0.1873900000000000 H
   0.5998100000000000    0.9737850000000000    0.2391800000000000 H
   0.7288100000000000    0.9236650000000000    0.0954700000000000 H
   0.8331800000000000    0.7342950000000000    0.6484900000000000 H
   0.8820500000000000    0.7113600000000000    0.5877200000000000 H
   0.9406900000000000    0.7155050000000001    0.6873800000000000 H
   0.1502400000000000    0.7762400000000000    0.7391799999999999 H
   0.0211500000000000    0.8263350000000000    0.5954700000000001 H
   0.6329700000000000    0.7698900000000000    0.5345000000000000 H
   0.7234100000000000    0.7587400000000000    0.6186800000000000 H
   0.8670300000000000    0.7301200000000000    0.4654800000000000 H
   0.7765900000000000    0.7412700000000000    0.3813000000000000 H
   0.6668200000000000    0.7657149999999999    0.3514900000000000 H
   0.6179500000000000    0.7886500000000001    0.4122600000000000 H
   0.5593200000000000    0.7845000000000000    0.3126000000000000 H
   0.3497600000000000    0.7237600000000000    0.2607900000000000 H
   0.4788500000000000    0.6736700000000000    0.4045000000000000 H
   0.3331800000000000    0.2342900000000000    0.6484799999999999 H
   0.3820500000000000    0.2113600000000000    0.5877100000000000 H
   0.4406800000000000    0.2155050000000000    0.6873800000000000 H
   0.6502400000000000    0.2762450000000000    0.7391900000000000 H
   0.5211500000000000    0.3263350000000000    0.5954700000000001 H
   0.2765900000000000    0.2412700000000000    0.3813000000000000 H
   0.3670300000000000    0.2301200000000000    0.4654000000000000 H
   0.2234100000000000    0.2587400000000000    0.6186000000000000 H
   0.1329700000000000    0.2698900000000000    0.5345000000000000 H
   0.1668200000000000    0.2657150000000000    0.3514900000000000 H
   0.1179500000000000    0.2886500000000000    0.4122600000000000 H
   0.0593100000000000    0.2845000000000000    0.3125900000000000 H
   0.8497700000000000    0.2237600000000000    0.2607900000000000 H
   0.9788500000000000    0.1736700000000000    0.4045100000000000 H
   0.5831300000000000    0.4843700000000000    0.8514500000000000 H
   0.6319800000000000    0.4613800000000000    0.9121800000000000 H
   0.6906200000000000    0.4655300000000000    0.8125900000000000 H
   0.9001900000000000    0.5262200000000000    0.7607900000000000 H
   0.7711900000000000    0.5763400000000000    0.9045000000000000 H
   0.6170700000000000    0.4801450000000000    0.0344700000000000 H
   0.5266600000000000    0.4912550000000000    0.1186700000000000 H
   0.3829300000000000    0.5198600000000000    0.9655100000000000 H
   0.4733400000000000    0.5087550000000000    0.8813100000000000 H
   0.4168700000000000    0.5156350000000000    0.1485300000000000 H
   0.3680200000000000    0.5386250000000000    0.0878000000000000 H
   0.3093900000000000    0.5344750000000000    0.1873900000000000 H
   0.0998100000000000    0.4737850000000000    0.2391800000000000 H
   0.2288100000000000    0.4236650000000000    0.0954700000000000 H
   0.7258599999999999    0.6807350000000000    0.9923000000000000 H
   0.5895400000000000    0.5708400000000000    0.0268300000000000 H
   0.6482400000000000    0.6892400000000000    0.8922500000000000 H
   0.5170600000000000    0.5842650000000000    0.9290000000000000 H
   0.8072700000000000    0.6302600000000000    0.9786200000000000 H
   0.8372800000000000    0.5971500000000000    0.0357000000000000 H
   0.7784700000000000    0.6496400000000000    0.1800000000000000 H
   0.8188500000000000    0.6083350000000000    0.1577000000000000 H
   0.6804100000000000    0.6233700000000000    0.1208400000000000 H
   0.7126200000000000    0.5851800000000000    0.0780100000000000 H
   0.1205800000000000    0.7162500000000001    0.1710100000000000 H
   0.9943300000000000    0.6019350000000000    0.1599200000000000 H
   0.0761400000000000    0.5803600000000000    0.2476700000000000 H
   0.1976100000000000    0.6902850000000000    0.2564600000000000 H
   0.9116400000000000    0.6608300000000000    0.1955800000000000 H
   0.8822000000000000    0.6948900000000000    0.1398000000000000 H
   0.9391300000000000    0.6433800000000001    0.9932200000000000 H
   0.8973200000000000    0.6840800000000000    0.0181600000000000 H
   0.0378600000000000    0.6688950000000000    0.0548300000000000 H
   0.0079600000000000    0.7054100000000000    0.1044400000000000 H
   0.2258600000000000    0.1807350000000000    0.9923300000000000 H
   0.0895400000000000    0.0708450000000000    0.0268300000000000 H
   0.1482400000000000    0.1892350000000000    0.8922500000000000 H
   0.0170600000000000    0.0842700000000000    0.9290600000000000 H
   0.2784700000000000    0.1496400000000000    0.1803900000000000 H
   0.3188500000000000    0.1083400000000000    0.1577200000000000 H
   0.3072700000000000    0.1302550000000000    0.9786200000000000 H
   0.3372800000000000    0.0971450000000000    0.0357000000000000 H
   0.1804100000000000    0.1233700000000000    0.1208400000000000 H
   0.2126200000000000    0.0851800000000000    0.0780100000000000 H
   0.6205800000000000    0.2162500000000000    0.1710100000000000 H
   0.4943300000000000    0.1019350000000000    0.1599200000000000 H
   0.5761400000000000    0.0803600000000000    0.2476800000000000 H
   0.6976100000000000    0.1902850000000000    0.2564600000000000 H
   0.4116400000000000    0.1608300000000000    0.1955700000000000 H
   0.3822000000000000    0.1948900000000000    0.1398200000000000 H
   0.4391300000000000    0.1433750000000000    0.9932200000000000 H
   0.3973200000000000    0.1840800000000000    0.0181000000000000 H
   0.5378700000000000    0.1688950000000000    0.0548300000000000 H
   0.5079700000000000    0.2054100000000000    0.1044400000000000 H
   0.9104600000000000    0.9291650000000000    0.9731400000000000 H
   0.7741600000000000    0.8192650000000000    0.0076300000000000 H
   0.8517700000000000    0.8107650000000000    0.1077200000000000 H
   0.9829400000000000    0.9157400000000000    0.0709200000000000 H
   0.6927400000000000    0.8697450000000000    0.0213500000000000 H
   0.6627300000000000    0.9028550000000000    0.9642200000000000 H
   0.7215400000000000    0.8503650000000000    0.8195800000000000 H
   0.6811500000000000    0.8916649999999999    0.8422600000000000 H
   0.8195900000000000    0.8766350000000001    0.8791000000000000 H
   0.7873800000000000    0.9148250000000000    0.9219600000000000 H
   0.3794200000000000    0.7837499999999999    0.8289600000000000 H
   0.5056700000000000    0.8980650000000000    0.8400600000000000 H
   0.4238600000000000    0.9196450000000000    0.7523000000000000 H
   0.3023900000000000    0.8097150000000000    0.7435100000000000 H
   0.5883699999999999    0.8391750000000000    0.8044000000000000 H
   0.6178100000000000    0.8051100000000000    0.8601500000000000 H
   0.5608800000000000    0.8566250000000000    0.0067000000000000 H
   0.6026800000000000    0.8159200000000000    0.9818200000000000 H
   0.4621400000000000    0.8311050000000000    0.9451000000000001 H
   0.4920400000000000    0.7945900000000000    0.8955300000000000 H
   0.4104600000000000    0.4291600000000000    0.9731400000000000 H
   0.2741600000000000    0.3192650000000000    0.0076300000000000 H
   0.3517700000000000    0.3107650000000000    0.1077200000000000 H
   0.4829400000000000    0.4157400000000000    0.0709200000000000 H
   0.2215400000000000    0.3503600000000000    0.8195800000000000 H
   0.1811600000000000    0.3916650000000000    0.8422600000000000 H
   0.1927400000000000    0.3697450000000000    0.0213500000000000 H
   0.1627300000000000    0.4028550000000000    0.9642200000000000 H
   0.3195900000000000    0.3766300000000000    0.8791300000000000 H
   0.2873900000000000    0.4148250000000000    0.9219000000000001 H
   0.8794200000000000    0.2837500000000000    0.8289700000000000 H
   0.0000000000000000    0.3980700000000000    0.8400600000000000 H
   0.9238600000000000    0.4196450000000000    0.7523000000000000 H
   0.8023900000000000    0.3097200000000000    0.7435200000000000 H
   0.0883600000000000    0.3391750000000000    0.8044000000000000 H
   0.1178000000000000    0.3051100000000000    0.8601500000000000 H
   0.0608800000000000    0.3566250000000000    0.0067600000000000 H
   0.1026800000000000    0.3159250000000000    0.9818000000000000 H
   0.9621499999999999    0.3311100000000000    0.9451500000000000 H
   0.9920400000000000    0.2945950000000000    0.8955400000000000 H
   0.4756400000000000    0.4308550000000000    0.5075800000000000 H
   0.3395600000000000    0.3208700000000000    0.4732400000000000 H
   0.3980400000000000    0.4393450000000000    0.6076600000000000 H
   0.2670600000000000    0.3342900000000000    0.5709800000000000 H
   0.5282500000000000    0.3996650000000000    0.3195700000000000 H
   0.5686400000000000    0.3583750000000000    0.3423200000000000 H
   0.5572500000000000    0.3804350000000000    0.5213600000000000 H
   0.5872000000000001    0.3472750000000000    0.4643000000000000 H
   0.4302800000000000    0.3734050000000000    0.3791800000000000 H
   0.4625700000000000    0.3352550000000000    0.4220500000000000 H
   0.8704200000000000    0.4663100000000000    0.3287900000000000 H
   0.7442200000000000    0.3519900000000000    0.3399800000000000 H
   0.8260600000000000    0.3303850000000000    0.2523100000000000 H
   0.9474900000000001    0.4403200000000000    0.2434400000000000 H
   0.6614000000000000    0.4108250000000000    0.3043100000000000 H
   0.6320400000000000    0.4449350000000000    0.3600000000000000 H
   0.6891000000000000    0.3935300000000000    0.5066800000000000 H
   0.6472900000000000    0.4342200000000000    0.4816000000000000 H
   0.7877700000000000    0.4190250000000000    0.4450000000000000 H
   0.7578000000000000    0.4554900000000000    0.3953200000000000 H
   0.0243600000000000    0.0691550000000000    0.4924000000000000 H
   0.1604400000000000    0.1791400000000000    0.5267400000000000 H
   0.1019600000000000    0.0606650000000000    0.3923200000000000 H
   0.2329400000000000    0.1657200000000000    0.4200000000000000 H
   0.9717500000000000    0.1003500000000000    0.6804000000000000 H
   0.9313600000000000    0.1416400000000000    0.6576500000000000 H
   0.9427600000000000    0.1195750000000000    0.4786100000000000 H
   0.9128100000000000    0.1527350000000000    0.5356700000000000 H
   0.0697200000000000    0.1266050000000000    0.6208000000000000 H
   0.0374300000000000    0.1647550000000000    0.5779200000000000 H
   0.6295800000000000    0.0336950000000000    0.6711700000000000 H
   0.7557900000000000    0.1480150000000000    0.6600000000000000 H
   0.6739400000000000    0.1696200000000000    0.7476600000000000 H
   0.5525099999999999    0.0596900000000000    0.7565200000000000 H
   0.8386100000000000    0.0891850000000000    0.6956000000000000 H
   0.8679700000000000    0.0550750000000000    0.6399700000000000 H
   0.8109100000000000    0.1064750000000000    0.4930000000000000 H
   0.8527200000000000    0.0657850000000000    0.5183000000000000 H
   0.7122300000000000    0.0809800000000000    0.5549700000000000 H
   0.7422100000000000    0.0445200000000000    0.6046600000000000 H
   0.5243600000000000    0.5691550000000000    0.4924000000000000 H
   0.6604400000000000    0.6791400000000000    0.5266999999999999 H
   0.6019700000000000    0.5606600000000000    0.3923200000000000 H
   0.7329400000000000    0.6657200000000000    0.4289900000000000 H
   0.4717500000000000    0.6003499999999999    0.6804000000000000 H
   0.4313600000000000    0.6416350000000000    0.6576600000000000 H
   0.4427500000000000    0.6195700000000000    0.4786000000000000 H
   0.4128000000000000    0.6527300000000000    0.5356700000000000 H
   0.5697300000000000    0.6266050000000000    0.6208000000000000 H
   0.5374300000000000    0.6647550000000000    0.5779200000000000 H
   0.1295800000000000    0.5336950000000000    0.6711700000000000 H
   0.2557900000000000    0.6480150000000000    0.6600000000000000 H
   0.1739400000000000    0.6696200000000000    0.7476600000000000 H
   0.0525000000000000    0.5596850000000000    0.7565200000000000 H
   0.3386000000000000    0.5891800000000000    0.6956700000000000 H
   0.3679700000000000    0.5550700000000000    0.6399700000000000 H
   0.3109100000000000    0.6064700000000000    0.4933000000000000 H
   0.3527200000000000    0.5657850000000000    0.5183000000000000 H
   0.2122300000000000    0.5809800000000001    0.5549700000000000 H
   0.2422000000000000    0.5445150000000000    0.6046600000000000 H
   0.9756400000000000    0.9308550000000000    0.5075800000000000 H
   0.8395600000000000    0.8208700000000000    0.4732000000000000 H
   0.8980399999999999    0.9393450000000000    0.6076600000000000 H
   0.7670700000000000    0.8342900000000000    0.5709800000000000 H
   0.0282500000000000    0.8996649999999999    0.3195700000000000 H
   0.0686400000000000    0.8583750000000000    0.3423200000000000 H
   0.0572500000000000    0.8804350000000001    0.5213600000000000 H
   0.0871900000000000    0.8472750000000000    0.4643000000000000 H
   0.9302900000000000    0.8734100000000000    0.3791800000000000 H
   0.9625700000000000    0.8352550000000001    0.4220000000000000 H
   0.3704200000000000    0.9663100000000000    0.3287900000000000 H
   0.2442200000000000    0.8519900000000000    0.3399800000000000 H
   0.3260600000000000    0.8303849999999999    0.2523100000000000 H
   0.4474900000000000    0.9403200000000000    0.2434400000000000 H
   0.1614000000000000    0.9108250000000000    0.3043100000000000 H
   0.1320400000000000    0.9449350000000001    0.3600100000000000 H
   0.1891000000000000    0.8935299999999999    0.5066800000000000 H
   0.1472900000000000    0.9342200000000001    0.4816700000000000 H
   0.2877700000000000    0.9190199999999999    0.4450000000000000 H
   0.2578000000000000    0.9554900000000000    0.3953200000000000 H
   0.0831300000000000    0.4843700000000000    0.8514500000000000 H
   0.1319800000000000    0.4613800000000000    0.9121800000000000 H
   0.1906200000000000    0.4655250000000000    0.8125900000000000 H
   0.4001900000000000    0.5262200000000000    0.7600000000000000 H
   0.2711900000000000    0.5763400000000000    0.9045000000000000 H
   0.8829399999999999    0.5198600000000000    0.9655100000000000 H
   0.9733500000000000    0.5087550000000000    0.8813100000000000 H
   0.1170600000000000    0.4801500000000000    0.0344700000000000 H
   0.0266500000000000    0.4912550000000000    0.1186700000000000 H
   0.9168700000000000    0.5156400000000000    0.1485300000000000 H
   0.8680200000000000    0.5386250000000000    0.0878000000000000 H
   0.8093800000000000    0.5344800000000000    0.1873900000000000 H
   0.5998100000000000    0.4737850000000000    0.2391800000000000 H
   0.7288100000000000    0.4236650000000000    0.0954700000000000 H
   0.8331800000000000    0.2342950000000000    0.6484900000000000 H
   0.8820500000000000    0.2113600000000000    0.5877200000000000 H
   0.9406900000000000    0.2155050000000000    0.6873800000000000 H
   0.1502400000000000    0.2762400000000000    0.7391799999999999 H
   0.0211500000000000    0.3263350000000000    0.5954700000000001 H
   0.6329700000000000    0.2698900000000000    0.5345000000000000 H
   0.7234100000000000    0.2587400000000000    0.6186800000000000 H
   0.8670300000000000    0.2301200000000000    0.4654800000000000 H
   0.7765900000000000    0.2412700000000000    0.3813000000000000 H
   0.6668200000000000    0.2657150000000000    0.3514900000000000 H
   0.6179500000000000    0.2886500000000000    0.4122600000000000 H
   0.5593200000000000    0.2845000000000000    0.3126000000000000 H
   0.3497600000000000    0.2237600000000000    0.2607900000000000 H
   0.4788500000000000    0.1736700000000000    0.4045000000000000 H
   0.3331800000000000    0.7342900000000000    0.6484799999999999 H
   0.3820500000000000    0.7113600000000000    0.5877100000000000 H
   0.4406800000000000    0.7155050000000001    0.6873800000000000 H
   0.6502400000000000    0.7762450000000001    0.7391900000000000 H
   0.5211500000000000    0.8263350000000000    0.5954700000000001 H
   0.2765900000000000    0.7412700000000000    0.3813000000000000 H
   0.3670300000000000    0.7301200000000000    0.4654000000000000 H
   0.2234100000000000    0.7587400000000000    0.6186000000000000 H
   0.1329700000000000    0.7698900000000000    0.5345000000000000 H
   0.1668200000000000    0.7657149999999999    0.3514900000000000 H
   0.1179500000000000    0.7886500000000001    0.4122600000000000 H
   0.0593100000000000    0.7845000000000000    0.3125900000000000 H
   0.8497700000000000    0.7237600000000000    0.2607900000000000 H
   0.9788500000000000    0.6736700000000000    0.4045100000000000 H
   0.5831300000000000    0.9843700000000000    0.8514500000000000 H
   0.6319800000000000    0.9613800000000000    0.9121800000000000 H
   0.6906200000000000    0.9655300000000000    0.8125900000000000 H
   0.9001900000000000    0.0262200000000000    0.7607900000000000 H
   0.7711900000000000    0.0763400000000000    0.9045000000000000 H
   0.6170700000000000    0.9801450000000000    0.0344700000000000 H
   0.5266600000000000    0.9912550000000000    0.1186700000000000 H
   0.3829300000000000    0.0198600000000000    0.9655100000000000 H
   0.4733400000000000    0.0087550000000000    0.8813100000000000 H
   0.4168700000000000    0.0156350000000000    0.1485300000000000 H
   0.3680200000000000    0.0386250000000000    0.0878000000000000 H
   0.3093900000000000    0.0344750000000000    0.1873900000000000 H
   0.0998100000000000    0.9737850000000000    0.2391800000000000 H
   0.2288100000000000    0.9236650000000000    0.0954700000000000 H
   0.6798600000000000    0.1588300000000000    0.9793400000000000 C
   0.6042500000000000    0.0978750000000000    0.9993900000000000 C
   0.6374600000000000    0.1638800000000000    0.9245500000000000 C
   0.5636500000000000    0.1049500000000000    0.9446600000000001 C
   0.6646100000000000    0.1248700000000000    0.0173500000000000 C