H20 C16 N4
1.0
  18.6549997698531627    0.0000000000000000   -0.0029303205355849
  -5.2125202908380253   34.2921015373964977    0.0006053849043166
   0.0000000000000000    0.0000000000000000   20.2820000000000000
H C N
20 16 4
direct
   0.5608800000000000    0.3566250000000000    0.0067000000000000 H
   0.6627300000000000    0.4028550000000000    0.9642200000000000 H
   0.3023900000000000    0.3097150000000000    0.7435100000000000 H
   0.3794200000000000    0.2837500000000000    0.8289600000000000 H
   0.5056700000000000    0.3980650000000000    0.8400600000000000 H
   0.4238600000000000    0.4196450000000000    0.7523000000000000 H
   0.4621400000000000    0.3311050000000000    0.9451000000000001 H
   0.4920400000000000    0.2945900000000000    0.8955300000000000 H
   0.6026800000000000    0.3159200000000000    0.9818200000000000 H
   0.6927400000000000    0.3697450000000000    0.0213500000000000 H
   0.7215400000000000    0.3503650000000000    0.8195800000000000 H
   0.6811500000000000    0.3916650000000000    0.8422600000000000 H
   0.5883699999999999    0.3391750000000000    0.8044000000000000 H
   0.6178100000000000    0.3051100000000000    0.8601500000000000 H
   0.7873800000000000    0.4148250000000000    0.9219600000000000 H
   0.8195900000000000    0.3766350000000000    0.8791000000000000 H
   0.7741600000000000    0.3192650000000000    0.0076300000000000 H
   0.8517700000000000    0.3107650000000000    0.1077200000000000 H
   0.9829400000000000    0.4157400000000000    0.0709200000000000 H
   0.9104600000000000    0.4291650000000000    0.9731400000000000 H
   0.3483900000000000    0.3282000000000000    0.7658900000000000 C
   0.3910800000000000    0.3142250000000000    0.8138500000000000 C
   0.4479400000000000    0.3395100000000000    0.8428099999999999 C
   0.4608800000000000    0.3779000000000000    0.8194300000000000 C
   0.4163600000000000    0.3898250000000000    0.7710000000000000 C
   0.4914900000000000    0.3265500000000000    0.8992400000000000 C
   0.5960900000000000    0.3464150000000000    0.9692600000000000 C
   0.6698499999999999    0.3718550000000000    0.9718700000000000 C
   0.6861900000000000    0.3612200000000000    0.8562300000000000 C
   0.6120500000000000    0.3363100000000000    0.8534500000000000 C
   0.7900500000000000    0.3829650000000000    0.9239400000000000 C
   0.8354000000000000    0.3751350000000000    0.9826200000000000 C
   0.8201500000000000    0.3411750000000000    0.0206300000000000 C
   0.8625500000000000    0.3361250000000000    0.0754200000000000 C
   0.9363500000000000    0.3950550000000000    0.0553100000000000 C
   0.8957600000000000    0.4021300000000000    0.0000000000000000 C
   0.3597900000000000    0.3656300000000000    0.7449700000000000 N
   0.5638800000000000    0.3487850000000000    0.9037700000000000 N
   0.7185900000000000    0.3595350000000000    0.9219000000000001 N
   0.9196900000000000    0.3628950000000000    0.0932100000000000 N
