H1 O1
1.0
  10.9614963120041864    0.0000000000000000   -0.0089917694915692
  -0.0841880614716692   38.2739002681200091   -0.0233802546727053
   0.0000000000000000    0.0000000000000000   20.0659999999999989
H O
1 1
direct
   0.0814016465218778    0.4184140298563989    0.4092978638987288 H
   0.0892900000000000    0.4108266666666667    0.4556600000000000 O
