Cu24 H188 C319 O96
1.0
  36.5820000000000007    0.0000000000000000    0.0000000000000022
  -0.0004252320189347   24.3639999962891523    0.0000000000000015
   0.0000000000000000    0.0000000000000000   23.1690000000000005
Cu H C O
24 188 319 96
direct
   0.1332166666666666    0.9999950000000000    0.5000000000000000 Cu
   0.2001066666666667    0.0000000000000000    0.5000000000000000 Cu
   0.1332166666666666    0.4999950000000000    0.5000000000000000 Cu
   0.2001066666666667    0.5000000000000000    0.5000000000000000 Cu
   0.0000000000000000    0.8002150000000000    0.0000000000000000 Cu
   0.0000000000000000    0.3002150000000000    0.0000000000000000 Cu
   0.0000000000000000    0.1997950000000000    0.0000000000000000 Cu
   0.0000000000000000    0.6997949999999999    0.0000000000000000 Cu
   0.4665500000000000    0.9999950000000000    0.5000000000000000 Cu
   0.5334399999999999    0.0000000000000000    0.5000000000000000 Cu
   0.4665500000000000    0.4999950000000000    0.5000000000000000 Cu
   0.5334399999999999    0.5000000000000000    0.5000000000000000 Cu
   0.3333333333333333    0.3002150000000000    0.0000000000000000 Cu
   0.3333333333333333    0.8002150000000000    0.0000000000000000 Cu
   0.3333333333333333    0.1997950000000000    0.0000000000000000 Cu
   0.3333333333333333    0.6997949999999999    0.0000000000000000 Cu
   0.6666666666666666    0.8002150000000000    0.0000000000000000 Cu
   0.7998833333333333    0.9999950000000000    0.5000000000000000 Cu
   0.8667733333333333    0.0000000000000000    0.5000000000000000 Cu
   0.7998833333333333    0.4999950000000000    0.5000000000000000 Cu
   0.8667733333333333    0.5000000000000000    0.5000000000000000 Cu
   0.6666666666666666    0.3002150000000000    0.0000000000000000 Cu
   0.6666666666666666    0.6997949999999999    0.0000000000000000 Cu
   0.6666666666666666    0.1997950000000000    0.0000000000000000 Cu
   0.9356593494186939    0.6977622890184666   -0.0547206443446636 H
   0.9356628581902710    0.8022431970457266   -0.0547206010041070 H
   0.2510933333333333    0.1619100000000000    0.1268200000000000 H
   0.2025100000000000    0.1616000000000000    0.2012100000000000 H
   0.2510933333333333    0.3380950000000000    0.1268200000000000 H
   0.2025100000000000    0.3384000000000000    0.2012100000000000 H
   0.0822300000000000    0.3380900000000000    0.1268200000000000 H
   0.1308100000000000    0.3384000000000000    0.2012100000000000 H
   0.0822266666666667    0.1619100000000000    0.1268200000000000 H
   0.1308100000000000    0.1616000000000000    0.2012100000000000 H
   0.1079933333333333    0.1233550000000000    0.3731300000000000 H
   0.1077866666666667    0.1962200000000000    0.2986500000000000 H
   0.2253266666666667    0.1233550000000000    0.3731400000000000 H
   0.2255366666666667    0.1962250000000000    0.2986500000000000 H
   0.1079933333333333    0.3766400000000000    0.3731400000000000 H
   0.1077866666666667    0.3037750000000000    0.2986500000000000 H
   0.2253300000000000    0.3766450000000000    0.3731000000000000 H
   0.2255366666666667    0.3037800000000000    0.2986500000000000 H
   0.2510933333333333    0.6619100000000000    0.1268200000000000 H
   0.2025100000000000    0.6616000000000000    0.2012100000000000 H
   0.2510933333333333    0.8380950000000000    0.1268200000000000 H
   0.2025100000000000    0.8384000000000000    0.2012100000000000 H
   0.0822300000000000    0.8380900000000000    0.1268200000000000 H
   0.1308100000000000    0.8384000000000000    0.2012100000000000 H
   0.0822266666666667    0.6619100000000000    0.1268200000000000 H
   0.1308100000000000    0.6616000000000000    0.2012100000000000 H
   0.1079933333333333    0.6233550000000000    0.3731300000000000 H
   0.1077866666666667    0.6962200000000001    0.2986500000000000 H
   0.2253266666666667    0.6233550000000000    0.3731400000000000 H
   0.2255366666666667    0.6962250000000000    0.2986500000000000 H
   0.1079933333333333    0.8766400000000000    0.3731400000000000 H
   0.1077866666666667    0.8037750000000000    0.2986500000000000 H
   0.2253300000000000    0.8766450000000000    0.3731000000000000 H
   0.2255366666666667    0.8037799999999999    0.2986500000000000 H
   0.0822233333333333    0.6619050000000000    0.8731700000000000 H
   0.1308066666666667    0.6616000000000000    0.7987800000000000 H
   0.0822266666666667    0.8380900000000000    0.8731700000000000 H
   0.1308066666666667    0.8384000000000000    0.7987800000000000 H
   0.2510900000000000    0.8380950000000000    0.8731700000000000 H
   0.2025066666666666    0.8384000000000000    0.7987800000000000 H
   0.2510900000000000    0.6619100000000000    0.8731700000000000 H
   0.2025066666666666    0.6616050000000000    0.7987800000000000 H
   0.1079900000000000    0.6233550000000000    0.6268600000000000 H
   0.1077833333333333    0.6962200000000001    0.7013400000000000 H
   0.2253266666666667    0.6233600000000000    0.6268600000000000 H
   0.2255333333333333    0.6962250000000000    0.7013400000000000 H
   0.1079900000000000    0.8766450000000000    0.6268600000000000 H
   0.1077833333333333    0.8037750000000000    0.7013400000000000 H
   0.2253266666666667    0.8766450000000000    0.6268600000000000 H
   0.2255333333333333    0.8037799999999999    0.7013400000000000 H
   0.0822233333333333    0.1619050000000000    0.8731700000000000 H
   0.1308066666666667    0.1616000000000000    0.7987800000000000 H
   0.0822266666666667    0.3380900000000000    0.8731700000000000 H
   0.1308066666666667    0.3384000000000000    0.7987800000000000 H
   0.2510900000000000    0.3380950000000000    0.8731700000000000 H
   0.2025066666666666    0.3384000000000000    0.7987800000000000 H
   0.2510900000000000    0.1619100000000000    0.8731700000000000 H
   0.2025066666666666    0.1616050000000000    0.7987800000000000 H
   0.1079900000000000    0.1233550000000000    0.6268600000000000 H
   0.1077833333333333    0.1962200000000000    0.7013400000000000 H
   0.2253266666666667    0.1233600000000000    0.6268600000000000 H
   0.2255333333333333    0.1962250000000000    0.7013400000000000 H
   0.1079900000000000    0.3766450000000000    0.6268600000000000 H
   0.1077833333333333    0.3037750000000000    0.7013400000000000 H
   0.2253266666666667    0.3766450000000000    0.6268600000000000 H
   0.2255333333333333    0.3037800000000000    0.7013400000000000 H
   0.5844266666666666    0.1619100000000000    0.1268200000000000 H
   0.5358433333333333    0.1616000000000000    0.2012100000000000 H
   0.5844266666666666    0.3380950000000000    0.1268200000000000 H
   0.5358433333333333    0.3384000000000000    0.2012100000000000 H
   0.4155633333333333    0.3380900000000000    0.1268200000000000 H
   0.4641433333333333    0.3384000000000000    0.2012100000000000 H
   0.4155600000000000    0.1619100000000000    0.1268200000000000 H
   0.4641433333333333    0.1616000000000000    0.2012100000000000 H
   0.4413266666666666    0.1233550000000000    0.3731300000000000 H
   0.4411200000000000    0.1962200000000000    0.2986500000000000 H
   0.5586599999999999    0.1233550000000000    0.3731400000000000 H
   0.5588700000000000    0.1962250000000000    0.2986500000000000 H
   0.4413266666666666    0.3766400000000000    0.3731400000000000 H
   0.4411200000000000    0.3037750000000000    0.2986500000000000 H
   0.5586633333333333    0.3766450000000000    0.3731000000000000 H
   0.5588700000000000    0.3037800000000000    0.2986500000000000 H
   0.5844266666666666    0.6619100000000000    0.1268200000000000 H
   0.5358433333333333    0.6616000000000000    0.2012100000000000 H
   0.5844266666666666    0.8380950000000000    0.1268200000000000 H
   0.5358433333333333    0.8384000000000000    0.2012100000000000 H
   0.4155633333333333    0.8380900000000000    0.1268200000000000 H
   0.4641433333333333    0.8384000000000000    0.2012100000000000 H
   0.4155600000000000    0.6619100000000000    0.1268200000000000 H
   0.4641433333333333    0.6616000000000000    0.2012100000000000 H
   0.4413266666666666    0.6233550000000000    0.3731300000000000 H
   0.4411200000000000    0.6962200000000001    0.2986500000000000 H
   0.5586599999999999    0.6233550000000000    0.3731400000000000 H
   0.5588700000000000    0.6962250000000000    0.2986500000000000 H
   0.4413266666666666    0.8766400000000000    0.3731400000000000 H
   0.4411200000000000    0.8037750000000000    0.2986500000000000 H
   0.5586633333333333    0.8766450000000000    0.3731000000000000 H
   0.5588700000000000    0.8037799999999999    0.2986500000000000 H
   0.4155566666666666    0.6619050000000000    0.8731700000000000 H
   0.4641400000000000    0.6616000000000000    0.7987800000000000 H
   0.4155600000000000    0.8380900000000000    0.8731700000000000 H
   0.4641400000000000    0.8384000000000000    0.7987800000000000 H
   0.5844233333333333    0.8380950000000000    0.8731700000000000 H
   0.5358400000000000    0.8384000000000000    0.7987800000000000 H
   0.5844233333333333    0.6619100000000000    0.8731700000000000 H
   0.5358400000000000    0.6616050000000000    0.7987800000000000 H
   0.4413233333333333    0.6233550000000000    0.6268600000000000 H
   0.4411166666666667    0.6962200000000001    0.7013400000000000 H
   0.5586599999999999    0.6233600000000000    0.6268600000000000 H
   0.5588666666666666    0.6962250000000000    0.7013400000000000 H
   0.4413233333333333    0.8766450000000000    0.6268600000000000 H
   0.4411166666666667    0.8037750000000000    0.7013400000000000 H
   0.5586599999999999    0.8766450000000000    0.6268600000000000 H
   0.5588666666666666    0.8037799999999999    0.7013400000000000 H
   0.4155566666666666    0.1619050000000000    0.8731700000000000 H
   0.4641400000000000    0.1616000000000000    0.7987800000000000 H
   0.4155600000000000    0.3380900000000000    0.8731700000000000 H
   0.4641400000000000    0.3384000000000000    0.7987800000000000 H
   0.5844233333333333    0.3380950000000000    0.8731700000000000 H
   0.5358400000000000    0.3384000000000000    0.7987800000000000 H
   0.5844233333333333    0.1619100000000000    0.8731700000000000 H
   0.5358400000000000    0.1616050000000000    0.7987800000000000 H
   0.4413233333333333    0.1233550000000000    0.6268600000000000 H
   0.4411166666666667    0.1962200000000000    0.7013400000000000 H
   0.5586599999999999    0.1233600000000000    0.6268600000000000 H
   0.5588666666666666    0.1962250000000000    0.7013400000000000 H
   0.4413233333333333    0.3766450000000000    0.6268600000000000 H
   0.4411166666666667    0.3037750000000000    0.7013400000000000 H
   0.5586599999999999    0.3766450000000000    0.6268600000000000 H
   0.5588666666666666    0.3037800000000000    0.7013400000000000 H
   0.7144079867793239    0.8311918982864930   -0.0748546405932343 H
   0.7144024008907272    0.6688196837140943   -0.0749846909852146 H
   0.7178153481828855    0.7499949760880228   -0.0802714871142959 H
   0.7381923215361563    0.7500043939428319   -0.0145502204926935 H
   0.7902006483353428    0.5915109199531968    0.5493931767627460 H
   0.9177599999999999    0.6619100000000000    0.1268200000000000 H
   0.8691766666666666    0.6616000000000000    0.2012100000000000 H
   0.9177599999999999    0.8380950000000000    0.1268200000000000 H
   0.8691766666666666    0.8384000000000000    0.2012100000000000 H
   0.7488966666666667    0.8380900000000000    0.1268200000000000 H
   0.7974766666666666    0.8384000000000000    0.2012100000000000 H
   0.7488933333333333    0.6619100000000000    0.1268200000000000 H
   0.7974766666666666    0.6616000000000000    0.2012100000000000 H
   0.7746599999999999    0.6233550000000000    0.3731300000000000 H
   0.7744533333333333    0.6962200000000001    0.2986500000000000 H
   0.8919933333333333    0.6233550000000000    0.3731400000000000 H
   0.8922033333333332    0.6962250000000000    0.2986500000000000 H
   0.7746599999999999    0.8766400000000000    0.3731400000000000 H
   0.7744533333333333    0.8037750000000000    0.2986500000000000 H
   0.8919966666666665    0.8766450000000000    0.3731000000000000 H
   0.8922033333333332    0.8037799999999999    0.2986500000000000 H
   0.7902009806724626    0.9084881904208025    0.5493931751926171 H
   0.9177599999999999    0.1619100000000000    0.1268200000000000 H
   0.8691766666666666    0.1616000000000000    0.2012100000000000 H
   0.9177599999999999    0.3380950000000000    0.1268200000000000 H
   0.8691766666666666    0.3384000000000000    0.2012100000000000 H
   0.7488966666666667    0.3380900000000000    0.1268200000000000 H
   0.7974766666666666    0.3384000000000000    0.2012100000000000 H
   0.7488933333333333    0.1619100000000000    0.1268200000000000 H
   0.7974766666666666    0.1616000000000000    0.2012100000000000 H
   0.7746599999999999    0.1233550000000000    0.3731300000000000 H
   0.7744533333333333    0.1962200000000000    0.2986500000000000 H
   0.8919933333333333    0.1233550000000000    0.3731400000000000 H
   0.8922033333333332    0.1962250000000000    0.2986500000000000 H
   0.7746599999999999    0.3766400000000000    0.3731400000000000 H
   0.7744533333333333    0.3037750000000000    0.2986500000000000 H
   0.8919966666666665    0.3766450000000000    0.3731000000000000 H
   0.8922033333333332    0.3037800000000000    0.2986500000000000 H
   0.8764497974951150    0.9084893330961478    0.5493935313041550 H
   0.8764504522366001    0.5915106953544509    0.5493932467601272 H
   0.7488899999999999    0.1619050000000000    0.8731700000000000 H
   0.7974733333333333    0.1616000000000000    0.7987800000000000 H
   0.7488933333333333    0.3380900000000000    0.8731700000000000 H
   0.7974733333333333    0.3384000000000000    0.7987800000000000 H
   0.9177566666666666    0.3380950000000000    0.8731700000000000 H
   0.8691733333333332    0.3384000000000000    0.7987800000000000 H
   0.9177566666666666    0.1619100000000000    0.8731700000000000 H
   0.8691733333333332    0.1616050000000000    0.7987800000000000 H
   0.7746566666666667    0.1233550000000000    0.6268600000000000 H
   0.7744500000000000    0.1962200000000000    0.7013400000000000 H
   0.8919933333333333    0.1233600000000000    0.6268600000000000 H
   0.8921999999999999    0.1962250000000000    0.7013400000000000 H
   0.7746566666666667    0.3766450000000000    0.6268600000000000 H
   0.7744500000000000    0.3037750000000000    0.7013400000000000 H
   0.8919933333333333    0.3766450000000000    0.6268600000000000 H
   0.8921999999999999    0.3037800000000000    0.7013400000000000 H
   0.8333265361028924    0.6461791356639413    0.5323555396258521 H
   0.8333265361457934    0.8538160819116030    0.5323547672799829 H
   0.2836533333333333    0.2500050000000000    0.0775700000000000 C
   0.2404700000000000    0.2004250000000000    0.1437400000000000 C
   0.2132300000000000    0.2005950000000000    0.1856600000000000 C
   0.2404700000000000    0.2995800000000000    0.1437400000000000 C
   0.2132300000000000    0.2994100000000000    0.1856600000000000 C
   0.2544800000000000    0.2500050000000000    0.1225000000000000 C
   0.1994400000000000    0.2500000000000000    0.2079200000000000 C
   0.0496666666666667    0.2500000000000000    0.0775700000000000 C
   0.0928533333333333    0.2995750000000000    0.1437400000000000 C
   0.1200933333333333    0.2994050000000000    0.1856600000000000 C
   0.0928500000000000    0.2004250000000000    0.1437400000000000 C
   0.1200900000000000    0.2005950000000000    0.1856600000000000 C
   0.0788400000000000    0.2500000000000000    0.1225000000000000 C
   0.1338800000000000    0.2500000000000000    0.2079200000000000 C
   0.1666600000000000    0.0745350000000000    0.4224100000000000 C
   0.1336400000000000    0.1392850000000000    0.3561800000000000 C
   0.1337533333333333    0.1801300000000000    0.3142100000000000 C
   0.1996800000000000    0.1392850000000000    0.3561800000000000 C
   0.1995666666666667    0.1801350000000000    0.3142100000000000 C
   0.1666600000000000    0.1182800000000000    0.3774400000000000 C
   0.1666600000000000    0.2008000000000000    0.2919100000000000 C
   0.1666600000000000    0.4254650000000000    0.4224100000000000 C
   0.1336400000000000    0.3607100000000000    0.3561800000000000 C
   0.1337533333333333    0.3198650000000000    0.3142100000000000 C
   0.1996800000000000    0.3607150000000000    0.3561800000000000 C
   0.1995700000000000    0.3198700000000000    0.3142100000000000 C
   0.1666600000000000    0.3817200000000000    0.3774400000000000 C
   0.1666600000000000    0.2992000000000000    0.2919000000000000 C
   0.1666600000000000    0.2500000000000000    0.2499100000000000 C
   0.2836533333333333    0.7500050000000000    0.0775700000000000 C
   0.2404700000000000    0.7004250000000000    0.1437400000000000 C
   0.2132300000000000    0.7005950000000000    0.1856600000000000 C
   0.2404700000000000    0.7995800000000000    0.1437400000000000 C
   0.2132300000000000    0.7994100000000000    0.1856600000000000 C
   0.2544800000000000    0.7500050000000000    0.1225000000000000 C
   0.1994400000000000    0.7500000000000000    0.2079200000000000 C
   0.0496666666666667    0.7500000000000000    0.0775700000000000 C
   0.0928533333333333    0.7995749999999999    0.1437400000000000 C
   0.1200933333333333    0.7994049999999999    0.1856600000000000 C
   0.0928500000000000    0.7004250000000000    0.1437400000000000 C
   0.1200900000000000    0.7005950000000000    0.1856600000000000 C
   0.0788400000000000    0.7500000000000000    0.1225000000000000 C
   0.1338800000000000    0.7500000000000000    0.2079200000000000 C
   0.1666600000000000    0.5745350000000000    0.4224100000000000 C
   0.1336400000000000    0.6392850000000000    0.3561800000000000 C
   0.1337533333333333    0.6801300000000000    0.3142100000000000 C
   0.1996800000000000    0.6392850000000000    0.3561800000000000 C
   0.1995666666666667    0.6801349999999999    0.3142100000000000 C
   0.1666600000000000    0.6182799999999999    0.3774400000000000 C
   0.1666600000000000    0.7008000000000000    0.2919100000000000 C
   0.1666600000000000    0.9254650000000000    0.4224100000000000 C
   0.1336400000000000    0.8607100000000000    0.3561800000000000 C
   0.1337533333333333    0.8198650000000001    0.3142100000000000 C
   0.1996800000000000    0.8607150000000000    0.3561800000000000 C
   0.1995700000000000    0.8198700000000000    0.3142100000000000 C
   0.1666600000000000    0.8817200000000001    0.3774400000000000 C
   0.1666600000000000    0.7992000000000000    0.2919000000000000 C
   0.1666600000000000    0.7500000000000000    0.2499100000000000 C
   0.0496633333333333    0.7500000000000000    0.9224200000000000 C
   0.0928466666666667    0.7004250000000000    0.8562500000000000 C
   0.1200866666666667    0.7005900000000000    0.8143300000000000 C
   0.0928466666666667    0.7995749999999999    0.8562500000000000 C
   0.1200866666666667    0.7994049999999999    0.8143300000000000 C
   0.0788366666666667    0.7500000000000000    0.8774900000000000 C
   0.1338766666666666    0.7500000000000000    0.7920700000000001 C
   0.2836500000000000    0.7500000000000000    0.9224200000000000 C
   0.2404666666666667    0.7995800000000000    0.8562500000000000 C
   0.2132266666666667    0.7994100000000000    0.8143300000000000 C
   0.2404666666666667    0.7004250000000000    0.8562500000000000 C
   0.2132266666666667    0.7005950000000000    0.8143300000000000 C
   0.2544766666666667    0.7500000000000000    0.8774900000000000 C
   0.1994366666666667    0.7500000000000000    0.7920700000000001 C
   0.1666600000000000    0.5745350000000000    0.5775800000000000 C
   0.1336400000000000    0.6392850000000000    0.6438100000000000 C
   0.1337500000000000    0.6801300000000000    0.6857799999999999 C
   0.1996766666666666    0.6392900000000000    0.6438000000000000 C
   0.1995666666666667    0.6801349999999999    0.6857000000000000 C
   0.1666600000000000    0.6182799999999999    0.6225000000000001 C
   0.1666566666666667    0.7008000000000000    0.7080800000000000 C
   0.1666600000000000    0.9254650000000000    0.5775800000000000 C
   0.1336400000000000    0.8607150000000000    0.6438100000000000 C
   0.1337500000000000    0.8198700000000000    0.6857000000000000 C
   0.1996766666666666    0.8607150000000000    0.6438100000000000 C
   0.1995666666666667    0.8198700000000000    0.6857000000000000 C
   0.1666600000000000    0.8817200000000001    0.6225000000000001 C
   0.1666566666666667    0.7992000000000000    0.7080800000000000 C
   0.1666566666666667    0.7500000000000000    0.7500800000000000 C
   0.0496633333333333    0.2500000000000000    0.9224200000000000 C
   0.0928466666666667    0.2004250000000000    0.8562500000000000 C
   0.1200866666666667    0.2005900000000000    0.8143300000000000 C
   0.0928466666666667    0.2995750000000000    0.8562500000000000 C
   0.1200866666666667    0.2994050000000000    0.8143300000000000 C
   0.0788366666666667    0.2500000000000000    0.8774900000000000 C
   0.1338766666666666    0.2500000000000000    0.7920700000000001 C
   0.2836500000000000    0.2500000000000000    0.9224200000000000 C
   0.2404666666666667    0.2995800000000000    0.8562500000000000 C
   0.2132266666666667    0.2994100000000000    0.8143300000000000 C
   0.2404666666666667    0.2004250000000000    0.8562500000000000 C
   0.2132266666666667    0.2005950000000000    0.8143300000000000 C
   0.2544766666666667    0.2500000000000000    0.8774900000000000 C
   0.1994366666666667    0.2500000000000000    0.7920700000000001 C
   0.1666600000000000    0.0745350000000000    0.5775800000000000 C
   0.1336400000000000    0.1392850000000000    0.6438100000000000 C
   0.1337500000000000    0.1801300000000000    0.6857799999999999 C
   0.1996766666666666    0.1392900000000000    0.6438000000000000 C
   0.1995666666666667    0.1801350000000000    0.6857000000000000 C
   0.1666600000000000    0.1182800000000000    0.6225000000000001 C
   0.1666566666666667    0.2008000000000000    0.7080800000000000 C
   0.1666600000000000    0.4254650000000000    0.5775800000000000 C
   0.1336400000000000    0.3607150000000000    0.6438100000000000 C
   0.1337500000000000    0.3198700000000000    0.6857000000000000 C
   0.1996766666666666    0.3607150000000000    0.6438100000000000 C
   0.1995666666666667    0.3198700000000000    0.6857000000000000 C
   0.1666600000000000    0.3817200000000000    0.6225000000000001 C
   0.1666566666666667    0.2992000000000000    0.7080800000000000 C
   0.1666566666666667    0.2500000000000000    0.7500800000000000 C
   0.6169866666666666    0.2500050000000000    0.0775700000000000 C
   0.5738033333333333    0.2004250000000000    0.1437400000000000 C
   0.5465633333333333    0.2005950000000000    0.1856600000000000 C
   0.5738033333333333    0.2995800000000000    0.1437400000000000 C
   0.5465633333333333    0.2994100000000000    0.1856600000000000 C
   0.5878133333333333    0.2500050000000000    0.1225000000000000 C
   0.5327733333333333    0.2500000000000000    0.2079200000000000 C
   0.3830000000000000    0.2500000000000000    0.0775700000000000 C
   0.4261866666666666    0.2995750000000000    0.1437400000000000 C
   0.4534266666666666    0.2994050000000000    0.1856600000000000 C
   0.4261833333333333    0.2004250000000000    0.1437400000000000 C
   0.4534233333333333    0.2005950000000000    0.1856600000000000 C
   0.4121733333333333    0.2500000000000000    0.1225000000000000 C
   0.4672133333333333    0.2500000000000000    0.2079200000000000 C
   0.4999933333333333    0.0745350000000000    0.4224100000000000 C
   0.4669733333333333    0.1392850000000000    0.3561800000000000 C
   0.4670866666666667    0.1801300000000000    0.3142100000000000 C
   0.5330133333333333    0.1392850000000000    0.3561800000000000 C
   0.5328999999999999    0.1801350000000000    0.3142100000000000 C
   0.4999933333333333    0.1182800000000000    0.3774400000000000 C
   0.4999933333333333    0.2008000000000000    0.2919100000000000 C
   0.4999933333333333    0.4254650000000000    0.4224100000000000 C
   0.4669733333333333    0.3607100000000000    0.3561800000000000 C
   0.4670866666666667    0.3198650000000000    0.3142100000000000 C
   0.5330133333333333    0.3607150000000000    0.3561800000000000 C
   0.5329033333333333    0.3198700000000000    0.3142100000000000 C
   0.4999933333333333    0.3817200000000000    0.3774400000000000 C
   0.4999933333333333    0.2992000000000000    0.2919000000000000 C
   0.4999933333333333    0.2500000000000000    0.2499100000000000 C
   0.6169866666666666    0.7500050000000000    0.0775700000000000 C
   0.5738033333333333    0.7004250000000000    0.1437400000000000 C
   0.5465633333333333    0.7005950000000000    0.1856600000000000 C
   0.5738033333333333    0.7995800000000000    0.1437400000000000 C
   0.5465633333333333    0.7994100000000000    0.1856600000000000 C
   0.5878133333333333    0.7500050000000000    0.1225000000000000 C
   0.5327733333333333    0.7500000000000000    0.2079200000000000 C
   0.3830000000000000    0.7500000000000000    0.0775700000000000 C
   0.4261866666666666    0.7995749999999999    0.1437400000000000 C
   0.4534266666666666    0.7994049999999999    0.1856600000000000 C
   0.4261833333333333    0.7004250000000000    0.1437400000000000 C
   0.4534233333333333    0.7005950000000000    0.1856600000000000 C
   0.4121733333333333    0.7500000000000000    0.1225000000000000 C
   0.4672133333333333    0.7500000000000000    0.2079200000000000 C
   0.4999933333333333    0.5745350000000000    0.4224100000000000 C
   0.4669733333333333    0.6392850000000000    0.3561800000000000 C
   0.4670866666666667    0.6801300000000000    0.3142100000000000 C
   0.5330133333333333    0.6392850000000000    0.3561800000000000 C
   0.5328999999999999    0.6801349999999999    0.3142100000000000 C
   0.4999933333333333    0.6182799999999999    0.3774400000000000 C
   0.4999933333333333    0.7008000000000000    0.2919100000000000 C
   0.4999933333333333    0.9254650000000000    0.4224100000000000 C
   0.4669733333333333    0.8607100000000000    0.3561800000000000 C
   0.4670866666666667    0.8198650000000001    0.3142100000000000 C
   0.5330133333333333    0.8607150000000000    0.3561800000000000 C
   0.5329033333333333    0.8198700000000000    0.3142100000000000 C
   0.4999933333333333    0.8817200000000001    0.3774400000000000 C
   0.4999933333333333    0.7992000000000000    0.2919000000000000 C
   0.4999933333333333    0.7500000000000000    0.2499100000000000 C
   0.3829966666666667    0.7500000000000000    0.9224200000000000 C
   0.4261800000000000    0.7004250000000000    0.8562500000000000 C
   0.4534200000000000    0.7005900000000000    0.8143300000000000 C
   0.4261800000000000    0.7995749999999999    0.8562500000000000 C
   0.4534200000000000    0.7994049999999999    0.8143300000000000 C
   0.4121700000000000    0.7500000000000000    0.8774900000000000 C
   0.4672100000000000    0.7500000000000000    0.7920700000000001 C
   0.6169833333333332    0.7500000000000000    0.9224200000000000 C
   0.5738000000000000    0.7995800000000000    0.8562500000000000 C
   0.5465599999999999    0.7994100000000000    0.8143300000000000 C
   0.5738000000000000    0.7004250000000000    0.8562500000000000 C
   0.5465599999999999    0.7005950000000000    0.8143300000000000 C
   0.5878099999999999    0.7500000000000000    0.8774900000000000 C
   0.5327700000000000    0.7500000000000000    0.7920700000000001 C
   0.4999933333333333    0.5745350000000000    0.5775800000000000 C
   0.4669733333333333    0.6392850000000000    0.6438100000000000 C
   0.4670833333333333    0.6801300000000000    0.6857799999999999 C
   0.5330100000000000    0.6392900000000000    0.6438000000000000 C
   0.5328999999999999    0.6801349999999999    0.6857000000000000 C
   0.4999933333333333    0.6182799999999999    0.6225000000000001 C
   0.4999900000000000    0.7008000000000000    0.7080800000000000 C
   0.4999933333333333    0.9254650000000000    0.5775800000000000 C
   0.4669733333333333    0.8607150000000000    0.6438100000000000 C
   0.4670833333333333    0.8198700000000000    0.6857000000000000 C
   0.5330100000000000    0.8607150000000000    0.6438100000000000 C
   0.5328999999999999    0.8198700000000000    0.6857000000000000 C
   0.4999933333333333    0.8817200000000001    0.6225000000000001 C
   0.4999900000000000    0.7992000000000000    0.7080800000000000 C
   0.4999900000000000    0.7500000000000000    0.7500800000000000 C
   0.3829966666666667    0.2500000000000000    0.9224200000000000 C
   0.4261800000000000    0.2004250000000000    0.8562500000000000 C
   0.4534200000000000    0.2005900000000000    0.8143300000000000 C
   0.4261800000000000    0.2995750000000000    0.8562500000000000 C
   0.4534200000000000    0.2994050000000000    0.8143300000000000 C
   0.4121700000000000    0.2500000000000000    0.8774900000000000 C
   0.4672100000000000    0.2500000000000000    0.7920700000000001 C
   0.6169833333333332    0.2500000000000000    0.9224200000000000 C
   0.5738000000000000    0.2995800000000000    0.8562500000000000 C
   0.5465599999999999    0.2994100000000000    0.8143300000000000 C
   0.5738000000000000    0.2004250000000000    0.8562500000000000 C
   0.5465599999999999    0.2005950000000000    0.8143300000000000 C
   0.5878099999999999    0.2500000000000000    0.8774900000000000 C
   0.5327700000000000    0.2500000000000000    0.7920700000000001 C
   0.4999933333333333    0.0745350000000000    0.5775800000000000 C
   0.4669733333333333    0.1392850000000000    0.6438100000000000 C
   0.4670833333333333    0.1801300000000000    0.6857799999999999 C
   0.5330100000000000    0.1392900000000000    0.6438000000000000 C
   0.5328999999999999    0.1801350000000000    0.6857000000000000 C
   0.4999933333333333    0.1182800000000000    0.6225000000000001 C
   0.4999900000000000    0.2008000000000000    0.7080800000000000 C
   0.4999933333333333    0.4254650000000000    0.5775800000000000 C