Cd24 H86 C89 N75 O1
1.0
  15.7400000000000002    0.0000000000000000    0.0000000000000010
  -7.8441173763278504   21.7986171906132675   -0.0004043404277917
   0.0000000000000000    0.0000000000000000   13.5340000000000007
Cd H C N O
24 86 89 75 1
direct
   0.6425999999999999    0.1566800000000000    0.2500000000000000 Cd
   0.8574200000000000    0.8433400000000000    0.7500000000000000 Cd
   0.0140900000000000    0.1559800000000000    0.7500000000000000 Cd
   0.4859400000000000    0.8440400000000000    0.2499900000000000 Cd
   0.7500100000000000    0.0000000000000000    0.5000000000000000 Cd
   0.7500100000000000    0.0000000000000000    0.0000000000000000 Cd
   0.3574200000000000    0.3433300000000000    0.7500000000000000 Cd
   0.1426000000000000    0.6566900000000000    0.2500000000000000 Cd
   0.9859400000000000    0.3440300000000000    0.2000000000000000 Cd
   0.5140800000000000    0.6559900000000000    0.7500000000000000 Cd
   0.2500100000000000    0.5000100000000000    0.9999900000000000 Cd
   0.2500100000000000    0.5000100000000000    0.5000000000000000 Cd
   0.1426000000000000    0.1566800000000000    0.2500000000000000 Cd
   0.3574200000000000    0.8433400000000000    0.7500000000000000 Cd
   0.9859400000000000    0.8440400000000000    0.2499900000000000 Cd
   0.2500100000000000    0.0000000000000000    0.5000000000000000 Cd
   0.5140800000000000    0.1559800000000000    0.7500000000000000 Cd
   0.2500100000000000    0.0000000000000000    0.9999900000000000 Cd
   0.6425999999999999    0.6566900000000000    0.2500000000000000 Cd
   0.8574200000000000    0.3433300000000000    0.7500000000000000 Cd
   0.0140900000000000    0.6559900000000000    0.7500000000000000 Cd
   0.4859400000000000    0.3440300000000000    0.2499900000000000 Cd
   0.7500100000000000    0.5000100000000000    0.0000000000000000 Cd
   0.7500100000000000    0.5000100000000000    0.5000000000000000 Cd
   0.4592500000000000    0.0561800000000000    0.4047700000000000 H
   0.3991900000000000    0.0969600000000000    0.3391500000000000 H
   0.4592500000000000    0.0561800000000000    0.0952300000000000 H
   0.3991900000000000    0.0969600000000000    0.1608000000000000 H
   0.5392800000000000    0.0005800000000000    0.3159200000000000 H
   0.5392800000000000    0.0005800000000000    0.1840700000000000 H
   0.4040500000000000    0.9447000000000000    0.0952200000000000 H
   0.3034400000000000    0.9036400000000000    0.1607900000000000 H
   0.4040500000000000    0.9447000000000000    0.4047700000000000 H
   0.3034400000000000    0.9036500000000000    0.3392000000000000 H
   0.2221200000000000    0.9591700000000000    0.2500000000000000 H
   0.2626500000000000    0.0410600000000000    0.2500000000000000 H
   0.4040500000000000    0.4446900000000000    0.0952000000000000 H
   0.3034400000000000    0.4036400000000000    0.1607900000000000 H
   0.4040500000000000    0.4447000000000000    0.4047700000000000 H
   0.3034400000000000    0.4036400000000000    0.3392000000000000 H
   0.5392800000000000    0.5005800000000000    0.3159300000000000 H
   0.5392800000000000    0.5005800000000000    0.1840700000000000 H
   0.4592500000000000    0.5561900000000000    0.4047700000000000 H
   0.3991900000000000    0.5969700000000000    0.3391500000000000 H
   0.4592500000000000    0.5561900000000000    0.0952300000000000 H
   0.3991900000000000    0.5969700000000000    0.1608500000000000 H
   0.2221200000000000    0.4591600000000000    0.2500000000000000 H
   0.2626500000000000    0.5410600000000000    0.2500000000000000 H
   0.9592600000000000    0.5561900000000000    0.4047700000000000 H
   0.8992000000000000    0.5969700000000000    0.3391500000000000 H
   0.9592600000000000    0.5561900000000000    0.0952300000000000 H
   0.8991900000000000    0.5969700000000000    0.1608000000000000 H
   0.0392900000000000    0.5005800000000000    0.3159200000000000 H
   0.0392900000000000    0.5005800000000000    0.1840700000000000 H
   0.9040600000000000    0.4446900000000000    0.0952200000000000 H
   0.8034500000000000    0.4036400000000000    0.1607900000000000 H
   0.9040600000000000    0.4446900000000000    0.4047700000000000 H
   0.8034500000000000    0.4036400000000000    0.3392000000000000 H
   0.7221200000000000    0.4591600000000000    0.2500000000000000 H
   0.7626500000000001    0.5410600000000000    0.2500000000000000 H
   0.9592600000000000    0.0561800000000000    0.4047700000000000 H
   0.8991900000000000    0.0969600000000000    0.3391500000000000 H
   0.9592600000000000    0.0561800000000000    0.0952300000000000 H
   0.8991900000000000    0.0969600000000000    0.1608500000000000 H
   0.0392800000000000    0.0005800000000000    0.3159000000000000 H
   0.0392800000000000    0.0005800000000000    0.1840700000000000 H
   0.9040600000000000    0.9447000000000000    0.0952200000000000 H
   0.8034400000000000    0.9036400000000000    0.1607900000000000 H
   0.9040600000000000    0.9447000000000000    0.4047700000000000 H
   0.8034400000000000    0.9036500000000000    0.3392000000000000 H
   0.7221200000000000    0.9591600000000000    0.2500000000000000 H
   0.7626500000000001    0.0410600000000000    0.2500000000000000 H
   0.5959700000000000    0.5553300000000000    0.9047800000000000 H
   0.6965800000000000    0.5963800000000000    0.8392100000000000 H
   0.5959700000000000    0.5553300000000000    0.5952300000000000 H
   0.6965800000000000    0.5963800000000000    0.6608000000000001 H
   0.4607400000000000    0.4994400000000000    0.6840800000000000 H
   0.4607400000000000    0.4994400000000000    0.8159300000000000 H
   0.5407700000000000    0.4438300000000000    0.5952300000000000 H
   0.6008300000000000    0.4030500000000000    0.6608500000000000 H
   0.5407700000000000    0.4438300000000000    0.9047700000000000 H
   0.6008300000000000    0.4030500000000000    0.8391000000000000 H
   0.7373700000000000    0.4589600000000000    0.7500000000000000 H
   0.7779100000000000    0.5408600000000000    0.7500000000000000 H
   0.5959700000000000    0.0553200000000000    0.9046999999999999 H
   0.6965800000000000    0.0963800000000000    0.8392100000000000 H
   0.5959700000000000    0.0553200000000000    0.5952300000000000 H
   0.6965800000000000    0.0963800000000000    0.6608000000000001 H
   0.4607500000000000    0.9994300000000000    0.6840700000000000 H
   0.4607500000000000    0.9994300000000000    0.8159300000000000 H
   0.5407700000000000    0.9438400000000000    0.5952300000000000 H
   0.6008300000000000    0.9030600000000000    0.6608500000000000 H
   0.5407700000000000    0.9438400000000000    0.9047700000000000 H
   0.6008300000000000    0.9030600000000000    0.8391500000000000 H
   0.7373700000000000    0.9589600000000000    0.7500000000000000 H
   0.7779000000000000    0.0408500000000000    0.7500000000000000 H
   0.2373700000000000    0.4589600000000000    0.7500000000000000 H
   0.2779000000000000    0.5408600000000000    0.7500000000000000 H
   0.0959700000000000    0.5553300000000000    0.9046999999999999 H
   0.1965800000000000    0.5963800000000000    0.8392100000000000 H
   0.0959700000000000    0.5553200000000000    0.5952300000000000 H
   0.1965800000000000    0.5963800000000000    0.6608000000000001 H
   0.9607400000000000    0.4994400000000000    0.6840700000000000 H
   0.9607400000000000    0.4994400000000000    0.8159300000000000 H
   0.0407700000000000    0.4438300000000000    0.5952300000000000 H
   0.1008300000000000    0.4030500000000000    0.6608500000000000 H
   0.0407700000000000    0.4438300000000000    0.9047700000000000 H
   0.1008300000000000    0.4030500000000000    0.8391500000000000 H
   0.1989987885796904    0.9997991781185860    0.7811814700305161 H
   0.1456337200606810    1.0360312897603279    0.8393149843430476 H
   0.4191500000000000    0.0558900000000000    0.3383800000000000 C
   0.4191500000000000    0.0558900000000000    0.1616200000000000 C
   0.4986700000000000    0.0005100000000000    0.2500000000000000 C
   0.3641400000000000    0.9448500000000000    0.1616000000000000 C
   0.3641400000000000    0.9448500000000000    0.3384000000000000 C
   0.2828500000000000    0.0001800000000000    0.2500000000000000 C
   0.3641300000000000    0.4448400000000000    0.1616000000000000 C
   0.3641400000000000    0.4448400000000000    0.3384000000000000 C
   0.4986700000000000    0.5005200000000000    0.2500000000000000 C
   0.4191500000000000    0.5558999999999999    0.3383800000000000 C
   0.4191500000000000    0.5558999999999999    0.1616200000000000 C
   0.2828500000000000    0.5001800000000000    0.2500000000000000 C
   0.9191500000000000    0.5558900000000000    0.3383800000000000 C
   0.9191500000000000    0.5558900000000000    0.1616200000000000 C
   0.9986699999999999    0.5005200000000000    0.2500000000000000 C
   0.8641400000000000    0.4448400000000000    0.1616000000000000 C
   0.8641400000000000    0.4448400000000000    0.3384000000000000 C
   0.7828500000000000    0.5001800000000000    0.2500000000000000 C
   0.9191500000000000    0.0558900000000000    0.3383800000000000 C
   0.9191500000000000    0.0558900000000000    0.1616200000000000 C
   0.9986699999999999    0.0005200000000000    0.2500000000000000 C
   0.8641400000000000    0.9448500000000000    0.1616000000000000 C
   0.8641400000000000    0.9448500000000000    0.3384000000000000 C
   0.7828500000000000    0.0001800000000000    0.2500000000000000 C
   0.6358900000000000    0.5551800000000000    0.8384000000000000 C
   0.6358900000000000    0.5551800000000000    0.6616000000000000 C
   0.5013600000000000    0.4995000000000000    0.7500000000000000 C
   0.5808800000000000    0.4441200000000000    0.6616200000000000 C
   0.5808800000000000    0.4441300000000000    0.8383800000000000 C
   0.7171700000000000    0.4998300000000000    0.7500000000000000 C
   0.6358900000000000    0.0551700000000000    0.8384000000000000 C
   0.6358900000000000    0.0551700000000000    0.6616000000000000 C
   0.5013500000000000    0.9994900000000000    0.7500000000000000 C
   0.5808800000000000    0.9441300000000000    0.6616200000000000 C
   0.5808800000000000    0.9441300000000000    0.8383800000000000 C
   0.7171700000000000    0.9998300000000000    0.7500000000000000 C
   0.2171700000000000    0.4998300000000000    0.7500000000000000 C
   0.1358900000000000    0.5551800000000000    0.8384000000000000 C
   0.1358900000000000    0.5551800000000000    0.6616000000000000 C
   0.0000000000000000    0.4995000000000000    0.7500000000000000 C
   0.0808700000000000    0.4441200000000000    0.6616200000000000 C
   0.0808700000000000    0.4441200000000000    0.8383800000000000 C
   0.6750400000000000    0.1060000000000000    0.1224200000000000 C
   0.6750400000000000    0.1060100000000000    0.3775800000000000 C
   0.5624800000000000    0.2174200000000000    0.2500000000000000 C
   0.8249800000000000    0.8940100000000000    0.6224200000000000 C
   0.8249800000000000    0.8940100000000000    0.8775800000000000 C
   0.9375500000000000    0.7826000000000000    0.7500000000000000 C
   0.9308800000000000    0.1055100000000000    0.6224000000000000 C
   0.9308800000000000    0.1055100000000000    0.8775200000000000 C
   0.1547700000000000    0.2166900000000000    0.7500000000000000 C
   0.5691500000000000    0.8945100000000000    0.3775100000000000 C
   0.5691400000000000    0.8945100000000000    0.1224800000000000 C
   0.3452500000000000    0.7833300000000000    0.2500000000000000 C
   0.3249800000000000    0.3940100000000000    0.6224200000000000 C
   0.3249900000000000    0.3940100000000000    0.8775800000000000 C
   0.4375500000000000    0.2826000000000000    0.7500000000000000 C
   0.1750400000000000    0.6060100000000000    0.3775800000000000 C
   0.1750400000000000    0.6060100000000000    0.1224200000000000 C
   0.0624800000000000    0.7174199999999999    0.2500000000000000 C
   0.8452499999999999    0.2833200000000000    0.2500000000000000 C
   0.0691400000000000    0.3945000000000000    0.1224800000000000 C
   0.4308800000000000    0.6055199999999999    0.8775200000000000 C
   0.4308800000000000    0.6055100000000000    0.6224900000000000 C
   0.6547700000000000    0.7167000000000000    0.7500000000000000 C
   0.1750400000000000    0.1060100000000000    0.3775800000000000 C
   0.1750400000000000    0.1060100000000000    0.1224200000000000 C
   0.0624800000000000    0.2174200000000000    0.2500000000000000 C
   0.3249900000000000    0.8940200000000000    0.8775800000000000 C
   0.3249800000000000    0.8940100000000000    0.6224200000000000 C
   0.4375500000000000    0.7826000000000000    0.7500000000000000 C
   0.0691500000000000    0.8945100000000000    0.3775100000000000 C
   0.0691500000000000    0.8945100000000000    0.1224800000000000 C
   0.8452499999999999    0.7833300000000000    0.2500000000000000 C
   0.4308800000000000    0.1055100000000000    0.8775200000000000 C
   0.4308800000000000    0.1055100000000000    0.6224900000000000 C
   0.6547700000000000    0.2166900000000000    0.7500000000000000 C
   0.6750400000000000    0.6060100000000000    0.3775800000000000 C
   0.6750400000000000    0.6060100000000000    0.1224200000000000 C
   0.5624800000000000    0.7174199999999999    0.2500000000000000 C
   0.8249800000000000    0.3940100000000000    0.8775800000000000 C
   0.8249800000000000    0.3940000000000000    0.6224200000000000 C
   0.9375500000000000    0.2826000000000000    0.7500000000000000 C
   0.9308800000000000    0.6055199999999999    0.8775200000000000 C
   0.9308800000000000    0.6055199999999999    0.6224900000000000 C
   0.1547800000000000    0.7167000000000000    0.7500000000000000 C
   0.5691500000000000    0.3945100000000000    0.3775100000000000 C
   0.5691400000000000    0.3945000000000000    0.1224800000000000 C
   0.3452500000000000    0.2833200000000000    0.2500000000000000 C
   0.4737600000000000    0.0565100000000000    0.2500000000000000 N
   0.4181900000000000    0.9443800000000000    0.2500000000000000 N
   0.3359200000000000    0.0002600000000000    0.3410500000000000 N
   0.3359200000000000    0.0002600000000000    0.1589500000000000 N
   0.4181900000000000    0.4443700000000000    0.2500000000000000 N
   0.4737600000000000    0.5565099999999999    0.2500000000000000 N
   0.3359200000000000    0.5002700000000000    0.3410500000000000 N
   0.3359200000000000    0.5002700000000000    0.1589500000000000 N
   0.9737600000000000    0.5565200000000000    0.2500000000000000 N
   0.9181900000000000    0.4443700000000000    0.2500000000000000 N
   0.8359200000000000    0.5002700000000000    0.3410000000000000 N
   0.8359200000000000    0.5002700000000000    0.1589500000000000 N
   0.9737600000000000    0.0565100000000000    0.2500000000000000 N
   0.9181900000000000    0.9443800000000000    0.2500000000000000 N
   0.8359200000000000    0.0002600000000000    0.3410000000000000 N
   0.8359200000000000    0.0002600000000000    0.1589500000000000 N
   0.5818300000000000    0.5556500000000000    0.7500000000000000 N
   0.5262600000000000    0.4435100000000000    0.7500000000000000 N
   0.6641100000000000    0.4997500000000000    0.6589500000000000 N
   0.6641100000000000    0.4997500000000000    0.8410500000000000 N
   0.5818300000000000    0.0556400000000000    0.7500000000000000 N
   0.5262600000000000    0.9435100000000000    0.7500000000000000 N
   0.6641100000000000    0.9997400000000000    0.6589500000000000 N
   0.6641100000000000    0.9997400000000000    0.8410500000000000 N
   0.1641100000000000    0.4997500000000000    0.8410500000000000 N
   0.1641000000000000    0.4997500000000000    0.6589500000000000 N
   0.0818300000000000    0.5556500000000000    0.7500000000000000 N
   0.0262600000000000    0.4435100000000000    0.7500000000000000 N
   0.6971400000000000    0.0742400000000000    0.0682200000000000 N
   0.6971400000000000    0.0742400000000000    0.4317800000000000 N
   0.5342100000000000    0.2580500000000000    0.2000000000000000 N
   0.8028800000000000    0.9257800000000000    0.5682199999999999 N
   0.8028800000000000    0.9257800000000000    0.9317900000000000 N
   0.9658099999999999    0.7419700000000000    0.7500000000000000 N
   0.8768500000000000    0.0738300000000000    0.5684399999999999 N
   0.8768500000000000    0.0738300000000000    0.9315700000000000 N
   0.2233600000000000    0.2574900000000000    0.7500000000000000 N
   0.6231700000000000    0.9261900000000000    0.4315600000000000 N
   0.6231700000000000    0.9261800000000000    0.0684300000000000 N
   0.2766600000000000    0.7425300000000000    0.2500000000000000 N
   0.3028800000000000    0.4257700000000000    0.5682199999999999 N
   0.3028800000000000    0.4257800000000000    0.9317000000000000 N
   0.4658100000000000    0.2419600000000000    0.7500000000000000 N
   0.1971400000000000    0.5742500000000000    0.4317800000000000 N
   0.1971400000000000    0.5742500000000000    0.0682000000000000 N
   0.0342100000000000    0.7580600000000000    0.2000000000000000 N
   0.7766600000000000    0.2425200000000000    0.2500000000000000 N
   0.1231700000000000    0.4261800000000000    0.0684300000000000 N
   0.3768500000000000    0.5738400000000000    0.9315700000000000 N
   0.3768500000000000    0.5738400000000000    0.5684399999999999 N
   0.7233600000000000    0.7575000000000000    0.7500000000000000 N
   0.1971400000000000    0.0742400000000000    0.4317800000000000 N
   0.1971400000000000    0.0742400000000000    0.0682000000000000 N
   0.0342100000000000    0.2580500000000000    0.2000000000000000 N
   0.3028800000000000    0.9257800000000000    0.9317000000000000 N
   0.3028800000000000    0.9257800000000000    0.5682199999999999 N
   0.4658100000000000    0.7419700000000000    0.7500000000000000 N
   0.1231700000000000    0.9261900000000000    0.4315600000000000 N
   0.1231700000000000    0.9261800000000000    0.0684300000000000 N
   0.7766600000000000    0.7425300000000000    0.2500000000000000 N
   0.3768500000000000    0.0738300000000000    0.9315700000000000 N
   0.3768500000000000    0.0738300000000000    0.5684399999999999 N
   0.7233600000000000    0.2574900000000000    0.7500000000000000 N
   0.6971400000000000    0.5742500000000000    0.4317800000000000 N
   0.6971400000000000    0.5742500000000000    0.0682200000000000 N
   0.5342100000000000    0.7580600000000000    0.2000000000000000 N
   0.8028800000000000    0.4257800000000000    0.9317900000000000 N
   0.8028800000000000    0.4257700000000000    0.5682199999999999 N
   0.9658099999999999    0.2419600000000000    0.7500000000000000 N
   0.8768500000000000    0.5738400000000000    0.9315700000000000 N
   0.8768500000000000    0.5738400000000000    0.5684399999999999 N
   0.2233600000000000    0.7575000000000000    0.7500000000000000 N
   0.6231700000000000    0.4261800000000000    0.4315600000000000 N
   0.6231700000000000    0.4261800000000000    0.0684300000000000 N
   0.2766700000000000    0.2425200000000000    0.2500000000000000 N
   0.1641100000000000    0.9997400000000000    0.8410500000000000 O
