H1 O1
1.0
  15.7400000000000002    0.0000000000000000    0.0000000000000010
  -7.8441173763278504   21.7986171906132675   -0.0004043404277917
   0.0000000000000000    0.0000000000000000   13.5340000000000007
H O
1 1
direct
   0.1786915320838842    0.6007623683717574    0.1134613543172761 H
   0.1971400000000000    0.5742500000000000    0.0682000000000000 O
