H2 O1
1.0
  15.7400000000000002    0.0000000000000000    0.0000000000000010
  -7.8441173763278504   21.7986171906132675   -0.0004043404277917
   0.0000000000000000    0.0000000000000000   13.5340000000000007
H O
2 1
direct
   0.1989987885796904    0.9997991781185860    0.7811814700305161 H
   0.1456337200606810    1.0360312897603279    0.8393149843430476 H
   0.1641100000000000    0.9997400000000000    0.8410500000000000 O
