H8 O4
1.0
  29.0066256303507650    0.0000000000000000  -12.9594972719113635
   2.1293522205691171   18.1898831682102262   -0.9360841028559980
   0.0000000000000000    0.0000000000000000   39.2040000000000006
H O
8 4
direct
   0.3637464781251152    0.8682102983883485    0.1819394069323456 H
   0.3534433901883504    0.8850360804382446    0.1886618912005468 H
   0.3112315676283853    0.9008313815685157    0.1904936181075219 H
   0.3132506154668387    0.8410232340175384    0.1609796337870135 H
   0.0942981829575967    0.0981119891511306    0.2177487689655956 H
   0.1297114654310936    0.0989833033641601    0.1905601511803011 H
   0.0685758184992729    0.1317507863533765    0.1819514832412689 H
   0.0980049251149532    0.1588409132573770    0.1609963887183798 H
   0.3420200000000000    0.9172200000000000    0.2032850000000000 O
   0.3451500000000000    0.8353300000000000    0.1628150000000000 O
   0.1117750000000000    0.0826300000000000    0.2033450000000000 O
   0.0679400000000000    0.1646200000000000    0.1628100000000000 O
