H8 C6 N8
1.0
  29.0066256303507650    0.0000000000000000  -12.9594972719113635
   2.1293522205691171   18.1898831682102262   -0.9360841028559980
   0.0000000000000000    0.0000000000000000   39.2040000000000006
H C N
8 6 8
direct
   0.2361100000000000    0.8833299999999999    0.1899000000000000 H
   0.2676400000000000    0.9527000000000000    0.2186200000000000 H
   0.2222700000000000    0.9573300000000000    0.1329100000000000 H
   0.2492550000000000    0.0295400000000000    0.1619250000000000 H
   0.2043250000000000    0.1164100000000000    0.1901500000000000 H
   0.2015250000000000    0.0466800000000000    0.2186500000000000 H
   0.1608150000000000    0.0431100000000000    0.1329350000000000 H
   0.1628700000000000    0.9705500000000000    0.1617450000000000 H
   0.2995250000000000    0.8946000000000000    0.1856300000000000 C
   0.2571200000000000    0.9272700000000000    0.1907500000000000 C
   0.2285500000000000    0.9844100000000000    0.1599250000000000 C
   0.1365300000000000    0.1052000000000000    0.1857000000000000 C
   0.1841050000000000    0.0724500000000000    0.1908500000000000 C
   0.1816500000000000    0.0157000000000000    0.1599050000000000 C
   0.3451500000000000    0.8353300000000000    0.1628150000000000 N
   0.3701600000000000    0.8795500000000001    0.1885350000000000 N
   0.3420200000000000    0.9172200000000000    0.2032850000000000 N
   0.3008300000000000    0.8432400000000000    0.1602650000000000 N
   0.0679400000000000    0.1646200000000000    0.1628100000000000 N
   0.0687950000000000    0.1204200000000000    0.1885500000000000 N
   0.1117750000000000    0.0826300000000000    0.2033450000000000 N
   0.1097150000000000    0.1565900000000000    0.1602900000000000 N
