H5 O3
1.0
  13.8668667786342432    0.0000000000000000    3.2075371772763566
   3.4508664269026497   15.2963013719024357    0.7776150999124370
   0.0000000000000000    0.0000000000000000   15.6959999999999997
H O
5 3
direct
   0.0304258809705039    0.2528505919989655    0.9393289757847454 H
   0.1537102561245742    0.2574016615260248    0.9105693474208207 H
   1.0224332483718239    0.2235926466593146    0.2028620070368945 H
   0.8416625431658313    0.2498537072535981    0.0444648042119039 H
   0.9365136339464222    0.2372410161895012    0.1111592648897861 H
   0.0834800000000000    0.2569300000000000    0.8884200000000000 O
   0.9551800000000000    0.2296600000000000    0.1960400000000000 O
   0.8545000000000000    0.2446400000000000    0.1028400000000000 O
