H4 C6 N1 O2
1.0
  13.8668667786342432    0.0000000000000000    3.2075371772763566
   3.4508664269026497   15.2963013719024357    0.7776150999124370
   0.0000000000000000    0.0000000000000000   15.6959999999999997
H C N O
4 6 1 2
direct
   0.2314300000000000    0.2598700000000000    0.8429300000000000 H
   0.2669400000000000    0.2541500000000000    0.9944000000000000 H
   0.1302900000000000    0.2463200000000000    0.1233200000000000 H
   0.9386500000000000    0.2503000000000000    0.9458400000000000 H
   0.1742500000000000    0.2571100000000000    0.9016100000000000 C
   0.1936800000000000    0.2533300000000000    0.9848500000000000 C
   0.1175900000000000    0.2482700000000000    0.0572700000000000 C
   0.0240900000000000    0.2463500000000000    0.0441000000000000 C
   0.0105200000000000    0.2513200000000000    0.9584300000000000 C
   0.9384800000000000    0.2398600000000000    0.1181200000000000 C
   0.0834800000000000    0.2569300000000000    0.8884200000000000 N
   0.9551800000000000    0.2296600000000000    0.1960400000000000 O
   0.8545000000000000    0.2446400000000000    0.1028400000000000 O
