H3 O2
1.0
  39.2099999044476064    0.0000000000000000    0.0027373743966083
   0.0095803030817494   15.2479963958169655    0.0042580448141671
   0.0000000000000000    0.0000000000000000   38.2839999999999989
H O
3 2
direct
   0.2814854724671798    0.7409898354687220    0.0529503158644514 H
   0.3447661790642367    0.6672537420595878    0.9732765314334922 H
   0.3561914965405345    0.7705757707913375    0.9832650918503605 H
   0.2798733333333333    0.7926800000000001    0.0680050000000000 O
   0.3586700000000000    0.7190200000000000    0.9682600000000000 O
