H2 O2
1.0
  33.5122721133719210    0.0000000000000000   -9.6861279053765905
 -12.4178114001583708   36.7577930681744789   -4.0162973977734016
   0.0000000000000000    0.0000000000000000   39.0090000000000003
H O
2 2
direct
   0.4634001502010417    0.7025861900330428    0.9081989103104157 H
   0.2032384560535031    0.6307315483999314    0.7584652498496591 H
   0.4809033333333333    0.7057433333333333    0.8922899999999999 O
   0.1857466666666666    0.6275599999999999    0.7743833333333333 O
