H6 C12 O4
1.0
  33.5122721133719210    0.0000000000000000   -9.6861279053765905
 -12.4178114001583708   36.7577930681744789   -4.0162973977734016
   0.0000000000000000    0.0000000000000000   39.0090000000000003
H C O
6 12 4
direct
   0.5304100000000000    0.2775233333333333    0.5631633333333333 H
   0.4993900000000000    0.2102800000000000    0.5501066666666666 H
   0.5074266666666667    0.1497766666666667    0.5576066666666666 H
   0.6364966666666667    0.2010266666666666    0.6247266666666667 H
   0.6587200000000000    0.3288533333333333    0.6322666666666666 H
   0.6666666666666666    0.2685166666666666    0.6396966666666666 H
   0.5938800000000000    0.3068600000000000    0.5968966666666666 C
   0.5601933333333333    0.2754566666666667    0.5796000000000000 C
   0.5637633333333333    0.2406733333333333    0.5831000000000000 C
   0.5293933333333334    0.2081933333333333    0.5662800000000000 C
   0.5336966666666667    0.1747000000000000    0.5703233333333333 C
   0.5728966666666666    0.1718966666666666    0.5911000000000000 C
   0.6068233333333333    0.2031966666666666    0.6081000000000000 C
   0.6031599999999999    0.2379833333333333    0.6048199999999999 C
   0.6371899999999999    0.2705500000000000    0.6224300000000000 C
   0.6327666666666667    0.3040000000000000    0.6184333333333333 C
   0.5771400000000000    0.1353500000000000    0.5938900000000000 C
   0.5893966666666666    0.3432800000000000    0.5940566666666667 C
   0.6141766666666666    0.1331333333333333    0.6072333333333333 O
   0.5433500000000000    0.1080066666666667    0.5821900000000000 O
   0.6231066666666667    0.3708033333333333    0.6061733333333332 O
   0.5524400000000000    0.3454300000000000    0.5802400000000000 O
