H6 O4
1.0
  39.5919949285964918    0.0000000000000000    0.0200393111104097
  -0.9200412727411041   33.1032108839511849    0.0202294119700440
   0.0000000000000000    0.0000000000000000   36.5609999999999999
H O
6 4
direct
   0.7721539888133323    0.3333633094718270    0.2202942534016880 H
   0.7038948814677957    0.3118593709526760    0.1447296636869858 H
   0.7378859298039769    0.3372807301925268    0.1739307586833843 H
   0.7220727966902349    0.4410838873122332    0.1801897336321764 H
   0.7881012823336775    0.4227191499388749    0.1670302092681747 H
   0.7509454489855714    0.0796748423936503    0.1679399379672361 H
   0.7577300000000000    0.3098950000000000    0.2151666666666666 O
   0.7138325000000000    0.2981450000000000    0.1653800000000000 O
   0.7248350000000000    0.4702800000000000    0.1801900000000000 O
   0.7861550000000000    0.4518350000000000    0.1679433333333333 O
