Al384 P382 H770 C382 O1150 F384
1.0
  39.5919949285964918    0.0000000000000000    0.0200393111104097
  -0.9200412727411041   33.1032108839511849    0.0202294119700440
   0.0000000000000000    0.0000000000000000   36.5609999999999999
Al P H C O F
384 382 770 382 1150 384
direct
   0.2205700000000000    0.7154199999999999    0.7499933333333333 Al
   0.2794200000000000    0.5345750000000000    0.5833300000000000 Al
   0.2205700000000000    0.7154199999999999    0.0833266666666667 Al
   0.2794200000000000    0.5345750000000000    0.9166633333333333 Al
   0.2205700000000000    0.7154199999999999    0.4166600000000000 Al
   0.2794200000000000    0.5345750000000000    0.2499966666666667 Al
   0.3124975000000000    0.5000000000000000    0.6666666666666666 Al
   0.3124975000000000    0.5000000000000000    0.0000000000000000 Al
   0.3124975000000000    0.5000000000000000    0.3333333333333333 Al
   0.1874925000000000    0.7499899999999999    0.1666600000000000 Al
   0.1874925000000000    0.7499899999999999    0.4999933333333333 Al
   0.1874925000000000    0.7499899999999999    0.8333266666666665 Al
   0.0955725000000000    0.9654100000000000    0.0833266666666667 Al
   0.1544150000000000    0.7845650000000000    0.9166633333333333 Al
   0.0955725000000000    0.9654100000000000    0.4166600000000000 Al
   0.1544150000000000    0.7845650000000000    0.2499966666666667 Al
   0.0955725000000000    0.9654100000000000    0.7499933333333333 Al
   0.1544150000000000    0.7845650000000000    0.5833300000000000 Al
   0.1874925000000000    0.7499899999999999    0.6666566666666667 Al
   0.1874925000000000    0.7499899999999999    0.9999899999999999 Al
   0.1874925000000000    0.7499899999999999    0.3333233333333333 Al
   0.3124975000000000    0.5000000000000000    0.4999933333333333 Al
   0.3124975000000000    0.5000000000000000    0.8333266666666665 Al
   0.3124975000000000    0.5000000000000000    0.1666600000000000 Al
   0.9705699999999999    0.2154200000000000    0.7499933333333333 Al
   0.0294200000000000    0.0345750000000000    0.5833300000000000 Al
   0.9705699999999999    0.2154200000000000    0.4166600000000000 Al
   0.0294200000000000    0.0345750000000000    0.2499966666666667 Al
   0.9705699999999999    0.2154200000000000    0.0833266666666667 Al
   0.0294200000000000    0.0345750000000000    0.9166633333333333 Al
   0.0624975000000000    0.0000000000000000    0.6666666666666666 Al
   0.0624975000000000    0.0000000000000000    0.0000000000000000 Al
   0.0624975000000000    0.0000000000000000    0.3333333333333333 Al
   0.9374925000000001    0.2499900000000000    0.1666600000000000 Al
   0.9374925000000001    0.2499900000000000    0.4999933333333333 Al
   0.9374925000000001    0.2499900000000000    0.8333266666666665 Al
   0.9044150000000000    0.2845650000000000    0.5833300000000000 Al
   0.8455725000000001    0.4654100000000000    0.7499933333333333 Al
   0.9044150000000000    0.2845650000000000    0.2499966666666667 Al
   0.8455725000000001    0.4654100000000000    0.4166600000000000 Al
   0.9044150000000000    0.2845650000000000    0.9166633333333333 Al
   0.8455725000000001    0.4654100000000000    0.0833266666666667 Al
   0.9374925000000001    0.2499900000000000    0.6666566666666667 Al
   0.9374925000000001    0.2499900000000000    0.9999899999999999 Al
   0.9374925000000001    0.2499900000000000    0.3333233333333333 Al
   0.0624975000000000    0.0000000000000000    0.1666600000000000 Al
   0.0624975000000000    0.0000000000000000    0.4999933333333333 Al
   0.0624975000000000    0.0000000000000000    0.8333266666666665 Al
   0.7205699999999999    0.7154199999999999    0.7499933333333333 Al
   0.7794200000000000    0.5345750000000000    0.5833300000000000 Al
   0.7205699999999999    0.7154199999999999    0.4166600000000000 Al
   0.7794200000000000    0.5345750000000000    0.2499966666666667 Al
   0.7205699999999999    0.7154199999999999    0.0833266666666667 Al
   0.7794200000000000    0.5345750000000000    0.9166633333333333 Al
   0.8124975000000000    0.5000000000000000    0.6666666666666666 Al
   0.8124975000000000    0.5000000000000000    0.0000000000000000 Al
   0.8124975000000000    0.5000000000000000    0.3333333333333333 Al
   0.6874925000000001    0.7499899999999999    0.1666600000000000 Al
   0.6874925000000001    0.7499899999999999    0.4999933333333333 Al
   0.6874925000000001    0.7499899999999999    0.8333266666666665 Al
   0.5955725000000001    0.9654100000000000    0.7499933333333333 Al
   0.6544150000000000    0.7845650000000000    0.5833300000000000 Al
   0.5955725000000001    0.9654100000000000    0.4166600000000000 Al
   0.6544150000000000    0.7845650000000000    0.2499966666666667 Al
   0.5955725000000001    0.9654100000000000    0.0833266666666667 Al
   0.6544150000000000    0.7845650000000000    0.9166633333333333 Al
   0.6874925000000001    0.7499899999999999    0.6666566666666667 Al
   0.6874925000000001    0.7499899999999999    0.3333233333333333 Al
   0.6874925000000001    0.7499899999999999    0.9999899999999999 Al
   0.8124975000000000    0.5000000000000000    0.4999933333333333 Al
   0.8124975000000000    0.5000000000000000    0.8333266666666665 Al
   0.8124975000000000    0.5000000000000000    0.1666600000000000 Al
   0.4705700000000000    0.2154200000000000    0.4166600000000000 Al
   0.5294200000000000    0.0345750000000000    0.2499966666666667 Al
   0.4705700000000000    0.2154200000000000    0.0833266666666667 Al
   0.5294200000000000    0.0345750000000000    0.9166633333333333 Al
   0.4705700000000000    0.2154200000000000    0.7499933333333333 Al
   0.5294200000000000    0.0345750000000000    0.5833300000000000 Al
   0.5624975000000000    0.0000000000000000    0.6666666666666666 Al
   0.5624975000000000    0.0000000000000000    0.3333333333333333 Al
   0.5624975000000000    0.0000000000000000    0.0000000000000000 Al
   0.4374925000000000    0.2499900000000000    0.1666600000000000 Al
   0.4374925000000000    0.2499900000000000    0.4999933333333333 Al
   0.4374925000000000    0.2499900000000000    0.8333266666666665 Al
   0.4044150000000000    0.2845650000000000    0.5833300000000000 Al
   0.3455725000000000    0.4654100000000000    0.7499933333333333 Al
   0.4044150000000000    0.2845650000000000    0.2499966666666667 Al
   0.3455725000000000    0.4654100000000000    0.4166600000000000 Al
   0.4044150000000000    0.2845650000000000    0.9166633333333333 Al
   0.3455725000000000    0.4654100000000000    0.0833266666666667 Al
   0.4374925000000000    0.2499900000000000    0.6666566666666667 Al
   0.4374925000000000    0.2499900000000000    0.3333233333333333 Al
   0.4374925000000000    0.2499900000000000    0.9999899999999999 Al
   0.5624975000000000    0.0000000000000000    0.1666600000000000 Al
   0.5624975000000000    0.0000000000000000    0.4999933333333333 Al
   0.5624975000000000    0.0000000000000000    0.8333266666666665 Al
   0.2205675000000000    0.4654100000000000    0.7499933333333333 Al
   0.2794200000000000    0.2845650000000000    0.5833266666666667 Al
   0.2205675000000000    0.4654100000000000    0.4166600000000000 Al
   0.2794200000000000    0.2845650000000000    0.2499933333333333 Al
   0.2205675000000000    0.4654100000000000    0.0833266666666667 Al
   0.2794200000000000    0.2845650000000000    0.9166599999999999 Al
   0.3124975000000000    0.2499950000000000    0.6666666666666666 Al
   0.3124975000000000    0.2499950000000000    0.0000000000000000 Al
   0.3124975000000000    0.2499950000000000    0.3333333333333333 Al
   0.3455725000000000    0.2154200000000000    0.0833266666666667 Al
   0.4044175000000000    0.0345750000000000    0.9166599999999999 Al
   0.3455725000000000    0.2154200000000000    0.4166600000000000 Al
   0.4044175000000000    0.0345750000000000    0.2499933333333333 Al
   0.3455725000000000    0.2154200000000000    0.7499933333333333 Al
   0.4044175000000000    0.0345750000000000    0.5833266666666667 Al
   0.4374925000000000    0.0000000000000000    0.9999966666666666 Al
   0.4374925000000000    0.0000000000000000    0.6666633333333334 Al
   0.4374925000000000    0.0000000000000000    0.3333300000000000 Al
   0.3124975000000000    0.2499900000000000    0.4999933333333333 Al
   0.3124975000000000    0.2499900000000000    0.8333266666666665 Al
   0.3124975000000000    0.2499900000000000    0.1666600000000000 Al
   0.4374925000000000    0.0000000000000000    0.4999933333333333 Al
   0.4374925000000000    0.0000000000000000    0.8333266666666665 Al
   0.4374925000000000    0.0000000000000000    0.1666600000000000 Al
   0.9705675000000000    0.9654100000000000    0.7499933333333333 Al
   0.0294200000000000    0.7845650000000000    0.5833266666666667 Al
   0.9705675000000000    0.9654100000000000    0.4166600000000000 Al
   0.0294200000000000    0.7845650000000000    0.2499933333333333 Al
   0.9705675000000000    0.9654100000000000    0.0833266666666667 Al
   0.0294200000000000    0.7845650000000000    0.9166599999999999 Al
   0.0624975000000000    0.7499950000000000    0.0000000000000000 Al
   0.0624975000000000    0.7499950000000000    0.3333333333333333 Al
   0.0624975000000000    0.7499950000000000    0.6666666666666666 Al
   0.0955725000000000    0.7154199999999999    0.4166600000000000 Al
   0.1544175000000000    0.5345750000000000    0.2499933333333333 Al
   0.0955725000000000    0.7154199999999999    0.0833266666666667 Al
   0.1544175000000000    0.5345750000000000    0.9166599999999999 Al
   0.0955725000000000    0.7154199999999999    0.7499933333333333 Al
   0.1544175000000000    0.5345750000000000    0.5833266666666667 Al
   0.1874925000000000    0.5000000000000000    0.9999966666666666 Al
   0.1874925000000000    0.5000000000000000    0.3333300000000000 Al
   0.1874925000000000    0.5000000000000000    0.6666633333333334 Al
   0.0624975000000000    0.7499899999999999    0.4999933333333333 Al
   0.0624975000000000    0.7499899999999999    0.8333266666666665 Al
   0.0624975000000000    0.7499899999999999    0.1666600000000000 Al
   0.1874925000000000    0.5000000000000000    0.4999933333333333 Al
   0.1874925000000000    0.5000000000000000    0.8333266666666665 Al
   0.1874925000000000    0.5000000000000000    0.1666600000000000 Al
   0.7205675000000000    0.4654100000000000    0.0833266666666667 Al
   0.7794200000000000    0.2845650000000000    0.9166599999999999 Al
   0.7205675000000000    0.4654100000000000    0.4166600000000000 Al
   0.7794200000000000    0.2845650000000000    0.2499933333333333 Al
   0.7205675000000000    0.4654100000000000    0.7499933333333333 Al
   0.7794200000000000    0.2845650000000000    0.5833266666666667 Al
   0.8124975000000000    0.2499950000000000    0.6666666666666666 Al
   0.8124975000000000    0.2499950000000000    0.0000000000000000 Al
   0.8124975000000000    0.2499950000000000    0.3333333333333333 Al
   0.8455725000000001    0.2154200000000000    0.0833266666666667 Al
   0.9044175000000000    0.0345750000000000    0.9166599999999999 Al
   0.8455725000000001    0.2154200000000000    0.4166600000000000 Al
   0.9044175000000000    0.0345750000000000    0.2499933333333333 Al
   0.8455725000000001    0.2154200000000000    0.7499933333333333 Al
   0.9044175000000000    0.0345750000000000    0.5833266666666667 Al
   0.9374925000000001    0.0000000000000000    0.9999966666666666 Al
   0.9374925000000001    0.0000000000000000    0.6666633333333334 Al
   0.9374925000000001    0.0000000000000000    0.3333300000000000 Al
   0.8124975000000000    0.2499900000000000    0.4999933333333333 Al
   0.8124975000000000    0.2499900000000000    0.8333266666666665 Al
   0.8124975000000000    0.2499900000000000    0.1666600000000000 Al
   0.9374925000000001    0.0000000000000000    0.4999933333333333 Al
   0.9374925000000001    0.0000000000000000    0.8333266666666665 Al
   0.9374925000000001    0.0000000000000000    0.1666600000000000 Al
   0.4705675000000000    0.9654100000000000    0.0833266666666667 Al
   0.5294200000000000    0.7845650000000000    0.9166599999999999 Al
   0.4705675000000000    0.9654100000000000    0.4166600000000000 Al
   0.5294200000000000    0.7845650000000000    0.2499933333333333 Al
   0.4705675000000000    0.9654100000000000    0.7499933333333333 Al
   0.5294200000000000    0.7845650000000000    0.5833266666666667 Al
   0.5624975000000000    0.7499950000000000    0.3333333333333333 Al
   0.5624975000000000    0.7499950000000000    0.0000000000000000 Al
   0.5624975000000000    0.7499950000000000    0.6666666666666666 Al
   0.5955725000000001    0.7154199999999999    0.0833266666666667 Al
   0.6544175000000000    0.5345750000000000    0.9166599999999999 Al
   0.5955725000000001    0.7154199999999999    0.4166600000000000 Al
   0.6544175000000000    0.5345750000000000    0.2499933333333333 Al
   0.5955725000000001    0.7154199999999999    0.7499933333333333 Al
   0.6544175000000000    0.5345750000000000    0.5833266666666667 Al
   0.6874925000000001    0.5000000000000000    0.6666633333333334 Al
   0.6874925000000001    0.5000000000000000    0.3333300000000000 Al
   0.6874925000000001    0.5000000000000000    0.9999966666666666 Al
   0.5624975000000000    0.7499899999999999    0.1666600000000000 Al
   0.5624975000000000    0.7499899999999999    0.4999933333333333 Al
   0.5624975000000000    0.7499899999999999    0.8333266666666665 Al
   0.6874925000000001    0.5000000000000000    0.4999933333333333 Al
   0.6874925000000001    0.5000000000000000    0.8333266666666665 Al
   0.6874925000000001    0.5000000000000000    0.1666600000000000 Al
   0.9705699999999999    0.7154199999999999    0.7499933333333333 Al
   0.0294200000000000    0.5345750000000000    0.5833300000000000 Al
   0.9705699999999999    0.7154199999999999    0.0833266666666667 Al
   0.0294200000000000    0.5345750000000000    0.9166633333333333 Al
   0.9705699999999999    0.7154199999999999    0.4166600000000000 Al
   0.0294200000000000    0.5345750000000000    0.2499966666666667 Al
   0.0624975000000000    0.5000000000000000    0.6666666666666666 Al
   0.0624975000000000    0.5000000000000000    0.0000000000000000 Al
   0.0624975000000000    0.5000000000000000    0.3333333333333333 Al
   0.9374925000000001    0.7499899999999999    0.1666600000000000 Al
   0.9374925000000001    0.7499899999999999    0.4999933333333333 Al
   0.9374925000000001    0.7499899999999999    0.8333266666666665 Al
   0.8455725000000001    0.9654100000000000    0.7499933333333333 Al
   0.9044150000000000    0.7845650000000000    0.5833300000000000 Al
   0.8455725000000001    0.9654100000000000    0.4166600000000000 Al
   0.9044150000000000    0.7845650000000000    0.2499966666666667 Al
   0.8455725000000001    0.9654100000000000    0.0833266666666667 Al
   0.9044150000000000    0.7845650000000000    0.9166633333333333 Al
   0.9374925000000001    0.7499899999999999    0.6666566666666667 Al
   0.9374925000000001    0.7499899999999999    0.3333233333333333 Al
   0.9374925000000001    0.7499899999999999    0.9999899999999999 Al
   0.0624975000000000    0.5000000000000000    0.4999933333333333 Al
   0.0624975000000000    0.5000000000000000    0.8333266666666665 Al
   0.0624975000000000    0.5000000000000000    0.1666600000000000 Al
   0.7205699999999999    0.2154200000000000    0.4166600000000000 Al
   0.7794200000000000    0.0345750000000000    0.2499966666666667 Al
   0.7205699999999999    0.2154200000000000    0.0833266666666667 Al
   0.7794200000000000    0.0345750000000000    0.9166633333333333 Al
   0.7205699999999999    0.2154200000000000    0.7499933333333333 Al
   0.7794200000000000    0.0345750000000000    0.5833300000000000 Al
   0.8124975000000000    0.0000000000000000    0.6666666666666666 Al
   0.8124975000000000    0.0000000000000000    0.3333333333333333 Al
   0.8124975000000000    0.0000000000000000    0.0000000000000000 Al
   0.6874925000000001    0.2499900000000000    0.1666600000000000 Al
   0.6874925000000001    0.2499900000000000    0.4999933333333333 Al
   0.6874925000000001    0.2499900000000000    0.8333266666666665 Al
   0.6544150000000000    0.2845650000000000    0.5833300000000000 Al
   0.5955725000000001    0.4654100000000000    0.7499933333333333 Al
   0.6544150000000000    0.2845650000000000    0.2499966666666667 Al
   0.5955725000000001    0.4654100000000000    0.4166600000000000 Al
   0.5955725000000001    0.4654100000000000    0.0833266666666667 Al
   0.6544150000000000    0.2845650000000000    0.9166633333333333 Al
   0.6874925000000001    0.2499900000000000    0.6666566666666667 Al
   0.6874925000000001    0.2499900000000000    0.9999899999999999 Al
   0.6874925000000001    0.2499900000000000    0.3333233333333333 Al
   0.8124975000000000    0.0000000000000000    0.4999933333333333 Al
   0.8124975000000000    0.0000000000000000    0.8333266666666665 Al
   0.8124975000000000    0.0000000000000000    0.1666600000000000 Al
   0.4705700000000000    0.7154199999999999    0.4166600000000000 Al
   0.5294200000000000    0.5345750000000000    0.2499966666666667 Al
   0.4705700000000000    0.7154199999999999    0.0833266666666667 Al
   0.5294200000000000    0.5345750000000000    0.9166633333333333 Al
   0.4705700000000000    0.7154199999999999    0.7499933333333333 Al
   0.5294200000000000    0.5345750000000000    0.5833300000000000 Al
   0.5624975000000000    0.5000000000000000    0.6666666666666666 Al
   0.5624975000000000    0.5000000000000000    0.0000000000000000 Al
   0.5624975000000000    0.5000000000000000    0.3333333333333333 Al
   0.4374925000000000    0.7499899999999999    0.1666600000000000 Al
   0.4374925000000000    0.7499899999999999    0.4999933333333333 Al
   0.4374925000000000    0.7499899999999999    0.8333266666666665 Al
   0.3455725000000000    0.9654100000000000    0.7499933333333333 Al
   0.4044150000000000    0.7845650000000000    0.5833300000000000 Al
   0.3455725000000000    0.9654100000000000    0.4166600000000000 Al
   0.4044150000000000    0.7845650000000000    0.2499966666666667 Al
   0.3455725000000000    0.9654100000000000    0.0833266666666667 Al
   0.4044150000000000    0.7845650000000000    0.9166633333333333 Al
   0.4374925000000000    0.7499899999999999    0.6666566666666667 Al
   0.4374925000000000    0.7499899999999999    0.3333233333333333 Al
   0.4374925000000000    0.7499899999999999    0.9999899999999999 Al
   0.5624975000000000    0.5000000000000000    0.4999933333333333 Al
   0.5624975000000000    0.5000000000000000    0.8333266666666665 Al
   0.5624975000000000    0.5000000000000000    0.1666600000000000 Al
   0.2205700000000000    0.2154200000000000    0.4166600000000000 Al
   0.2794200000000000    0.0345750000000000    0.2499966666666667 Al
   0.2205700000000000    0.2154200000000000    0.0833266666666667 Al
   0.2794200000000000    0.0345750000000000    0.9166633333333333 Al
   0.2205700000000000    0.2154200000000000    0.7499933333333333 Al
   0.2794200000000000    0.0345750000000000    0.5833300000000000 Al
   0.3124975000000000    0.0000000000000000    0.6666666666666666 Al
   0.3124975000000000    0.0000000000000000    0.0000000000000000 Al
   0.3124975000000000    0.0000000000000000    0.3333333333333333 Al
   0.1874925000000000    0.2499900000000000    0.1666600000000000 Al
   0.1874925000000000    0.2499900000000000    0.4999933333333333 Al
   0.1874925000000000    0.2499900000000000    0.8333266666666665 Al
   0.1544150000000000    0.2845650000000000    0.5833300000000000 Al
   0.0955725000000000    0.4654100000000000    0.7499933333333333 Al
   0.1544150000000000    0.2845650000000000    0.2499966666666667 Al
   0.0955725000000000    0.4654100000000000    0.4166600000000000 Al
   0.0955725000000000    0.4654100000000000    0.0833266666666667 Al
   0.1544150000000000    0.2845650000000000    0.9166633333333333 Al
   0.1874925000000000    0.2499900000000000    0.6666566666666667 Al
   0.1874925000000000    0.2499900000000000    0.3333233333333333 Al
   0.1874925000000000    0.2499900000000000    0.9999899999999999 Al
   0.3124975000000000    0.0000000000000000    0.1666600000000000 Al
   0.3124975000000000    0.0000000000000000    0.4999933333333333 Al
   0.3124975000000000    0.0000000000000000    0.8333266666666665 Al
   0.4705675000000000    0.4654100000000000    0.4166600000000000 Al
   0.5294200000000000    0.2845650000000000    0.2499933333333333 Al
   0.4705675000000000    0.4654100000000000    0.7499933333333333 Al
   0.5294200000000000    0.2845650000000000    0.5833266666666667 Al
   0.4705675000000000    0.4654100000000000    0.0833266666666667 Al
   0.5294200000000000    0.2845650000000000    0.9166599999999999 Al
   0.5624975000000000    0.2499950000000000    0.6666666666666666 Al
   0.5624975000000000    0.2499950000000000    0.0000000000000000 Al
   0.5624975000000000    0.2499950000000000    0.3333333333333333 Al
   0.5955725000000001    0.2154200000000000    0.0833266666666667 Al
   0.6544175000000000    0.0345750000000000    0.9166599999999999 Al
   0.5955725000000001    0.2154200000000000    0.4166600000000000 Al
   0.6544175000000000    0.0345750000000000    0.2499933333333333 Al
   0.5955725000000001    0.2154200000000000    0.7499933333333333 Al
   0.6544175000000000    0.0345750000000000    0.5833266666666667 Al
   0.6874925000000001    0.0000000000000000    0.6666633333333334 Al
   0.6874925000000001    0.0000000000000000    0.3333300000000000 Al
   0.6874925000000001    0.0000000000000000    0.9999966666666666 Al
   0.5624975000000000    0.2499900000000000    0.4999933333333333 Al
   0.5624975000000000    0.2499900000000000    0.8333266666666665 Al
   0.5624975000000000    0.2499900000000000    0.1666600000000000 Al
   0.6874925000000001    0.0000000000000000    0.4999933333333333 Al
   0.6874925000000001    0.0000000000000000    0.8333266666666665 Al
   0.6874925000000001    0.0000000000000000    0.1666600000000000 Al
   0.7205675000000000    0.9654100000000000    0.7499933333333333 Al
   0.7794200000000000    0.7845650000000000    0.5833266666666667 Al
   0.7205675000000000    0.9654100000000000    0.4166600000000000 Al
   0.7794200000000000    0.7845650000000000    0.2499933333333333 Al
   0.7205675000000000    0.9654100000000000    0.0833266666666667 Al
   0.7794200000000000    0.7845650000000000    0.9166599999999999 Al
   0.8124975000000000    0.7499950000000000    0.3333333333333333 Al
   0.8124975000000000    0.7499950000000000    0.0000000000000000 Al
   0.8124975000000000    0.7499950000000000    0.6666666666666666 Al
   0.8455725000000001    0.7154199999999999    0.0833266666666667 Al
   0.9044175000000000    0.5345750000000000    0.9166599999999999 Al
   0.8455725000000001    0.7154199999999999    0.4166600000000000 Al
   0.9044175000000000    0.5345750000000000    0.2499933333333333 Al
   0.8455725000000001    0.7154199999999999    0.7499933333333333 Al
   0.9044175000000000    0.5345750000000000    0.5833266666666667 Al
   0.9374925000000001    0.5000000000000000    0.6666633333333334 Al
   0.9374925000000001    0.5000000000000000    0.3333300000000000 Al
   0.9374925000000001    0.5000000000000000    0.9999966666666666 Al
   0.8124975000000000    0.7499899999999999    0.1666600000000000 Al
   0.8124975000000000    0.7499899999999999    0.4999933333333333 Al
   0.8124975000000000    0.7499899999999999    0.8333266666666665 Al
   0.9374925000000001    0.5000000000000000    0.4999933333333333 Al
   0.9374925000000001    0.5000000000000000    0.8333266666666665 Al
   0.9374925000000001    0.5000000000000000    0.1666600000000000 Al
   0.9705675000000000    0.4654100000000000    0.7499933333333333 Al
   0.0294200000000000    0.2845650000000000    0.5833266666666667 Al
   0.9705675000000000    0.4654100000000000    0.4166600000000000 Al
   0.0294200000000000    0.2845650000000000    0.2499933333333333 Al
   0.9705675000000000    0.4654100000000000    0.0833266666666667 Al
   0.0294200000000000    0.2845650000000000    0.9166599999999999 Al
   0.0624975000000000    0.2499950000000000    0.6666666666666666 Al
   0.0624975000000000    0.2499950000000000    0.0000000000000000 Al
   0.0624975000000000    0.2499950000000000    0.3333333333333333 Al
   0.0955725000000000    0.2154200000000000    0.0833266666666667 Al
   0.1544175000000000    0.0345750000000000    0.9166599999999999 Al
   0.0955725000000000    0.2154200000000000    0.4166600000000000 Al
   0.1544175000000000    0.0345750000000000    0.2499933333333333 Al
   0.0955725000000000    0.2154200000000000    0.7499933333333333 Al
   0.1544175000000000    0.0345750000000000    0.5833266666666667 Al
   0.1874925000000000    0.0000000000000000    0.6666633333333334 Al
   0.1874925000000000    0.0000000000000000    0.3333300000000000 Al
   0.1874925000000000    0.0000000000000000    0.9999966666666666 Al
   0.0624975000000000    0.2499900000000000    0.4999933333333333 Al
   0.0624975000000000    0.2499900000000000    0.8333266666666665 Al
   0.0624975000000000    0.2499900000000000    0.1666600000000000 Al
   0.1874925000000000    0.0000000000000000    0.4999933333333333 Al
   0.1874925000000000    0.0000000000000000    0.8333266666666665 Al
   0.1874925000000000    0.0000000000000000    0.1666600000000000 Al
   0.2205675000000000    0.9654100000000000    0.0833266666666667 Al
   0.2794200000000000    0.7845650000000000    0.9166599999999999 Al
   0.2205675000000000    0.9654100000000000    0.4166600000000000 Al
   0.2794200000000000    0.7845650000000000    0.2499933333333333 Al
   0.2205675000000000    0.9654100000000000    0.7499933333333333 Al
   0.2794200000000000    0.7845650000000000    0.5833266666666667 Al
   0.3124975000000000    0.7499950000000000    0.0000000000000000 Al
   0.3124975000000000    0.7499950000000000    0.3333333333333333 Al
   0.3124975000000000    0.7499950000000000    0.6666666666666666 Al
   0.3455725000000000    0.7154199999999999    0.0833266666666667 Al
   0.4044175000000000    0.5345750000000000    0.9166599999999999 Al
   0.3455725000000000    0.7154199999999999    0.4166600000000000 Al
   0.4044175000000000    0.5345750000000000    0.2499933333333333 Al
   0.3455725000000000    0.7154199999999999    0.7499933333333333 Al
   0.4044175000000000    0.5345750000000000    0.5833266666666667 Al
   0.4374925000000000    0.5000000000000000    0.3333300000000000 Al
   0.4374925000000000    0.5000000000000000    0.6666633333333334 Al
   0.4374925000000000    0.5000000000000000    0.9999966666666666 Al
   0.3124975000000000    0.7499899999999999    0.1666600000000000 Al
   0.3124975000000000    0.7499899999999999    0.4999933333333333 Al
   0.3124975000000000    0.7499899999999999    0.8333266666666665 Al
   0.4374925000000000    0.5000000000000000    0.4999933333333333 Al
   0.4374925000000000    0.5000000000000000    0.8333266666666665 Al
   0.4374925000000000    0.5000000000000000    0.1666600000000000 Al
   0.2487450000000000    0.6918500000000000    0.6727566666666667 P
   0.2487750000000000    0.6918850000000000    0.8272433333333333 P
   0.2512475000000000    0.5581400000000000    0.6605666666666666 P
   0.2512150000000000    0.5581050000000000    0.5060766666666666 P
   0.2487450000000000    0.6918500000000000    0.0060900000000000 P
   0.2487750000000000    0.6918850000000000    0.1605766666666666 P
   0.2512475000000000    0.5581400000000000    0.9939000000000000 P
   0.2512150000000000    0.5581050000000000    0.8394100000000000 P
   0.2487450000000000    0.6918500000000000    0.3394233333333333 P
   0.2487750000000000    0.6918850000000000    0.4939100000000000 P
   0.2512475000000000    0.5581400000000000    0.3272333333333333 P
   0.2512150000000000    0.5581050000000000    0.1727433333333333 P
   0.1237475000000000    0.9418450000000000    0.0060900000000000 P
   0.1237775000000000    0.9418750000000000    0.1605766666666666 P
   0.1262400000000000    0.8081350000000000    0.9939000000000000 P
   0.1262100000000000    0.8081000000000000    0.8394100000000000 P
   0.1237475000000000    0.9418450000000000    0.3394233333333333 P
   0.1237775000000000    0.9418750000000000    0.4939100000000000 P
   0.1262400000000000    0.8081350000000000    0.3272333333333333 P
   0.1262100000000000    0.8081000000000000    0.1727433333333333 P
   0.1237475000000000    0.9418450000000000    0.6727566666666667 P
   0.1237775000000000    0.9418750000000000    0.8272433333333333 P
   0.1262400000000000    0.8081350000000000    0.6605666666666666 P
   0.1262100000000000    0.8081000000000000    0.5060766666666666 P
   0.9987450000000000    0.1918500000000000    0.6727566666666667 P
   0.9987750000000000    0.1918850000000000    0.8272433333333333 P
   0.0012475000000000    0.0581400000000000    0.6605666666666666 P
   0.0012150000000000    0.0581050000000000    0.5060766666666666 P
   0.9987450000000000    0.1918500000000000    0.3394233333333333 P
   0.9987750000000000    0.1918850000000000    0.4939100000000000 P
   0.0012475000000000    0.0581400000000000    0.3272333333333333 P
   0.0012150000000000    0.0581050000000000    0.1727433333333333 P
   0.9987450000000000    0.1918500000000000    0.0060900000000000 P
   0.9987750000000000    0.1918850000000000    0.1605766666666666 P
   0.0012475000000000    0.0581400000000000    0.9939000000000000 P
   0.0012150000000000    0.0581050000000000    0.8394100000000000 P
   0.8762400000000000    0.3081350000000000    0.6605666666666666 P
   0.8762099999999999    0.3081000000000000    0.5060766666666666 P
   0.8737475000000000    0.4418450000000000    0.6727566666666667 P
   0.8737775000000000    0.4418750000000000    0.8272433333333333 P
   0.8762400000000000    0.3081350000000000    0.3272333333333333 P
   0.8762099999999999    0.3081000000000000    0.1727433333333333 P
   0.8737475000000000    0.4418450000000000    0.3394233333333333 P
   0.8737775000000000    0.4418750000000000    0.4939100000000000 P
   0.8762400000000000    0.3081350000000000    0.9939000000000000 P
   0.8762099999999999    0.3081000000000000    0.8394100000000000 P
   0.8737475000000000    0.4418450000000000    0.0060900000000000 P