P2 H4 C2 O6
1.0
  39.5919949285964918    0.0000000000000000    0.0200393111104097
  -0.9200412727411041   33.1032108839511849    0.0202294119700440
   0.0000000000000000    0.0000000000000000   36.5609999999999999
P H C O
2 4 2 6
direct
   0.7487725000000001    0.4418800000000000    0.1605766666666666 P
   0.7512150000000000    0.3081000000000000    0.1727433333333333 P
   0.7128450000000000    0.3857750000000000    0.1747266666666666 H
   0.7465125000000000    0.3911000000000000    0.2061933333333333 H
   0.7871425000000000    0.3642000000000000    0.1585933333333333 H
   0.7534750000000000    0.3588750000000000    0.1271000000000000 H
   0.7402800000000000    0.3911850000000000    0.1768800000000000 C
   0.7597075000000000    0.3587950000000000    0.1564400000000000 C
   0.7248350000000000    0.4702800000000000    0.1801900000000000 O
   0.7422600000000000    0.4400850000000000    0.1181500000000000 O
   0.7138325000000000    0.2981450000000000    0.1653800000000000 O
   0.7861550000000000    0.4518350000000000    0.1679433333333333 O
   0.7751525000000000    0.2796950000000000    0.1531300000000000 O
   0.7577300000000000    0.3098950000000000    0.2151666666666666 O
