H2 C2 N3
1.0
  39.3676304957610768    0.0000000000000000    4.7570353319291803
   4.8677362273968052   12.1721850609601816    1.5437146310851855
   0.0000000000000000    0.0000000000000000   37.0339999999999989
H C N
2 2 3
direct
   0.7270033333333333    0.8083800000000000    0.5371250000000000 H
   0.7699499999999999    0.0604000000000000    0.5190650000000000 H
   0.7358333333333333    0.8745400000000000    0.5407800000000000 C
   0.7580133333333333    0.0000000000000000    0.5312000000000000 C
   0.7348166666666667    0.9103599999999999    0.5730750000000000 N
   0.7491200000000000    0.9915900000000000    0.5668800000000001 N
   0.7499899999999999    0.9296100000000000    0.5136350000000000 N
