H7 O5
1.0
  39.3676304957610768    0.0000000000000000    4.7570353319291803
   4.8677362273968052   12.1721850609601816    1.5437146310851855
   0.0000000000000000    0.0000000000000000   37.0339999999999989
H O
7 5
direct
   0.5542877177888141    0.7915056897995072    0.4129724908572748 H
   0.5043186719070839    0.8514485488965258    0.4309186016095333 H
   0.4544130052990091    0.6607285336745973    0.4518179545830314 H
   0.4859778333162994    0.7376639468273664    0.4388750611845419 H
   0.5864936455011319    0.2631816619521719    0.3974513999658504 H
   0.6139093691777019    0.4001562182824138    0.3716780096689791 H
   0.5400807936815254    0.2701749507037457    0.3758891559977015 H
   0.5553300000000000    0.8307000000000000    0.3890000000000000 O
   0.4804366666666666    0.8512700000000000    0.4403450000000000 O
   0.4506733333333333    0.7374000000000001    0.4528100000000000 O
   0.6058233333333334    0.2908700000000000    0.3980800000000000 O
   0.6355866666666666    0.4069800000000000    0.3789950000000000 O
