Zn60 H166 C310 N141 O144
1.0
  39.3676304957610768    0.0000000000000000    4.7570353319291803
   4.8677362273968052   12.1721850609601816    1.5437146310851855
   0.0000000000000000    0.0000000000000000   37.0339999999999989
Zn H C N O
60 166 310 141 144
direct
   0.0328366666666667    0.7161999999999999    0.2888200000000000 Zn
   0.0145200000000000    0.2934300000000000    0.3593350000000000 Zn
   0.0935300000000000    0.9016999999999999    0.4611700000000000 Zn
   0.0977933333333333    0.0436300000000000    0.1092500000000000 Zn
   0.3005033333333333    0.2837800000000000    0.2111850000000000 Zn
   0.3188233333333333    0.7065399999999999    0.1406650000000000 Zn
   0.2398166666666667    0.0982800000000000    0.0388350000000000 Zn
   0.2873400000000000    0.1378800000000000    0.3749300000000000 Zn
   0.0460000000000000    0.8621000000000000    0.1250750000000000 Zn
   0.2355466666666667    0.9563500000000000    0.3907400000000000 Zn
   0.3661700000000000    0.7161999999999999    0.2888200000000000 Zn
   0.3478533333333333    0.2934300000000000    0.3593350000000000 Zn
   0.4268633333333333    0.9016999999999999    0.4611700000000000 Zn
   0.4311266666666667    0.0436300000000000    0.1092500000000000 Zn
   0.6338366666666666    0.2837800000000000    0.2111850000000000 Zn
   0.6521566666666667    0.7065399999999999    0.1406650000000000 Zn
   0.5731500000000000    0.0982800000000000    0.0388350000000000 Zn
   0.6206733333333333    0.1378800000000000    0.3749300000000000 Zn
   0.3793333333333333    0.8621000000000000    0.1250750000000000 Zn
   0.5688800000000001    0.9563500000000000    0.3907400000000000 Zn
   0.6995033333333333    0.7161999999999999    0.2888200000000000 Zn
   0.6811866666666666    0.2934300000000000    0.3593350000000000 Zn
   0.7601966666666666    0.9016999999999999    0.4611700000000000 Zn
   0.7644599999999999    0.0436300000000000    0.1092500000000000 Zn
   0.9671700000000000    0.2837800000000000    0.2111850000000000 Zn
   0.9854900000000000    0.7065399999999999    0.1406650000000000 Zn
   0.9064833333333333    0.0982800000000000    0.0388350000000000 Zn
   0.9540066666666667    0.1378800000000000    0.3749300000000000 Zn
   0.7126666666666667    0.8621000000000000    0.1250750000000000 Zn
   0.9022133333333333    0.9563500000000000    0.3907400000000000 Zn
   0.0328366666666667    0.7161999999999999    0.7888200000000001 Zn
   0.0145200000000000    0.2934300000000000    0.8593350000000000 Zn
   0.0935300000000000    0.9016999999999999    0.9611700000000001 Zn
   0.0977933333333333    0.0436300000000000    0.6092500000000000 Zn
   0.3005033333333333    0.2837800000000000    0.7111850000000000 Zn
   0.3188233333333333    0.7065399999999999    0.6406650000000000 Zn
   0.2398166666666667    0.0982800000000000    0.5388350000000000 Zn
   0.2873400000000000    0.1378800000000000    0.8749300000000000 Zn
   0.0460000000000000    0.8621000000000000    0.6250750000000000 Zn
   0.2355466666666667    0.9563500000000000    0.8907400000000000 Zn
   0.3661700000000000    0.7161999999999999    0.7888200000000001 Zn
   0.3478533333333333    0.2934300000000000    0.8593350000000000 Zn
   0.4268633333333333    0.9016999999999999    0.9611700000000001 Zn
   0.4311266666666667    0.0436300000000000    0.6092500000000000 Zn
   0.6338366666666666    0.2837800000000000    0.7111850000000000 Zn
   0.6521566666666667    0.7065399999999999    0.6406650000000000 Zn
   0.5731500000000000    0.0982800000000000    0.5388350000000000 Zn
   0.6206733333333333    0.1378800000000000    0.8749300000000000 Zn
   0.3793333333333333    0.8621000000000000    0.6250750000000000 Zn
   0.5688800000000001    0.9563500000000000    0.8907400000000000 Zn
   0.6995033333333333    0.7161999999999999    0.7888200000000001 Zn
   0.6811866666666666    0.2934300000000000    0.8593350000000000 Zn
   0.7601966666666666    0.9016999999999999    0.9611700000000001 Zn
   0.7644599999999999    0.0436300000000000    0.6092500000000000 Zn
   0.9671700000000000    0.2837800000000000    0.7111850000000000 Zn
   0.9854900000000000    0.7065399999999999    0.6406650000000000 Zn
   0.9064833333333333    0.0982800000000000    0.5388350000000000 Zn
   0.9540066666666667    0.1378800000000000    0.8749300000000000 Zn
   0.7126666666666667    0.8621000000000000    0.6250750000000000 Zn
   0.9022133333333333    0.9563500000000000    0.8907400000000000 Zn
   0.2039233333333333    0.3804000000000000    0.3336500000000000 H
   0.1500900000000000    0.5437400000000000    0.3130450000000000 H
   0.1367066666666666    0.1869900000000000    0.3509500000000000 H
   0.2730066666666666    0.1916000000000000    0.4628750000000000 H
   0.2300666666666667    0.9395600000000000    0.4809400000000000 H
   0.0240233333333333    0.9450700000000000    0.3239800000000000 H
   0.2879933333333333    0.7655000000000000    0.3363150000000000 H
   0.2065133333333333    0.3882400000000000    0.4162850000000000 H
   0.1518133333333333    0.5497100000000000    0.4367700000000000 H
   0.2705100000000000    0.5912800000000000    0.3992600000000000 H
   0.2694000000000000    0.1826400000000000    0.2868950000000000 H
   0.0201366666666667    0.3110200000000000    0.2692650000000000 H
   0.0176700000000000    0.9280900000000000    0.4255950000000000 H
   0.0776733333333333    0.1357400000000000    0.4139100000000000 H
   0.1294166666666667    0.6195900000000000    0.1663550000000000 H
   0.1832500000000000    0.4562500000000000    0.1869600000000000 H
   0.1966333333333333    0.8129900000000000    0.1490150000000000 H
   0.0603366666666667    0.8083800000000000    0.0371250000000000 H
   0.1032833333333333    0.0604000000000000    0.0190650000000000 H
   0.3093200000000000    0.0549100000000000    0.1760000000000000 H
   0.0453433333333333    0.2344900000000000    0.1636850000000000 H
   0.1268266666666666    0.6117400000000000    0.0837100000000000 H
   0.1815266666666666    0.4502800000000000    0.0632300000000000 H
   0.0628366666666667    0.4086900000000000    0.1007350000000000 H
   0.0639366666666667    0.8173500000000000    0.2131100000000000 H
   0.3132100000000000    0.6889300000000000    0.2307350000000000 H
   0.3156833333333333    0.0718800000000000    0.0744100000000000 H
   0.2556700000000000    0.8642500000000000    0.0860900000000000 H
   0.5372566666666667    0.3804000000000000    0.3336500000000000 H
   0.4834233333333333    0.5437400000000000    0.3130450000000000 H
   0.4700400000000000    0.1869900000000000    0.3509500000000000 H
   0.6063399999999999    0.1916000000000000    0.4628750000000000 H
   0.5634000000000000    0.9395600000000000    0.4809400000000000 H
   0.3573566666666667    0.9450700000000000    0.3239800000000000 H
   0.6213266666666666    0.7655000000000000    0.3363150000000000 H
   0.5398466666666666    0.3882400000000000    0.4162850000000000 H
   0.4851466666666666    0.5497100000000000    0.4367700000000000 H
   0.6038433333333333    0.5912800000000000    0.3992600000000000 H
   0.6027333333333333    0.1826400000000000    0.2868950000000000 H
   0.3534700000000000    0.3110200000000000    0.2692650000000000 H
   0.3510033333333333    0.9280900000000000    0.4255950000000000 H
   0.4110066666666666    0.1357400000000000    0.4139100000000000 H
   0.4627500000000000    0.6195900000000000    0.1663550000000000 H
   0.5165833333333333    0.4562500000000000    0.1869600000000000 H
   0.5299666666666667    0.8129900000000000    0.1490150000000000 H
   0.3936700000000000    0.8083800000000000    0.0371250000000000 H
   0.4366166666666667    0.0604000000000000    0.0190650000000000 H
   0.6426533333333333    0.0549100000000000    0.1760000000000000 H
   0.3786766666666667    0.2344900000000000    0.1636850000000000 H
   0.4601600000000000    0.6117400000000000    0.0837100000000000 H
   0.5148600000000000    0.4502800000000000    0.0632300000000000 H
   0.3961700000000000    0.4086900000000000    0.1007350000000000 H
   0.3972700000000000    0.8173500000000000    0.2131100000000000 H
   0.6465433333333332    0.6889300000000000    0.2307350000000000 H
   0.6490166666666666    0.0718800000000000    0.0744100000000000 H
   0.5890033333333333    0.8642500000000000    0.0860900000000000 H
   0.8705900000000000    0.3804000000000000    0.3336500000000000 H
   0.8167566666666666    0.5437400000000000    0.3130450000000000 H
   0.8033733333333333    0.1869900000000000    0.3509500000000000 H
   0.9396733333333332    0.1916000000000000    0.4628750000000000 H
   0.8967333333333333    0.9395600000000000    0.4809400000000000 H
   0.6906899999999999    0.9450700000000000    0.3239800000000000 H
   0.9546600000000000    0.7655000000000000    0.3363150000000000 H
   0.8731800000000000    0.3882400000000000    0.4162850000000000 H
   0.8184800000000000    0.5497100000000000    0.4367700000000000 H
   0.9371766666666665    0.5912800000000000    0.3992600000000000 H
   0.9360666666666666    0.1826400000000000    0.2868950000000000 H
   0.6868033333333333    0.3110200000000000    0.2692650000000000 H
   0.6843366666666666    0.9280900000000000    0.4255950000000000 H
   0.7443400000000000    0.1357400000000000    0.4139100000000000 H
   0.7960833333333333    0.6195900000000000    0.1663550000000000 H
   0.8499166666666667    0.4562500000000000    0.1869600000000000 H
   0.8633000000000000    0.8129900000000000    0.1490150000000000 H
   0.7270033333333333    0.8083800000000000    0.0371250000000000 H
   0.7699499999999999    0.0604000000000000    0.0190650000000000 H
   0.9759866666666666    0.0549100000000000    0.1760000000000000 H
   0.7120099999999999    0.2344900000000000    0.1636850000000000 H
   0.7934933333333333    0.6117400000000000    0.0837100000000000 H
   0.8481933333333332    0.4502800000000000    0.0632300000000000 H
   0.7295033333333333    0.4086900000000000    0.1007350000000000 H
   0.7306033333333333    0.8173500000000000    0.2131100000000000 H
   0.9798766666666666    0.6889300000000000    0.2307350000000000 H
   0.9823499999999999    0.0718800000000000    0.0744100000000000 H
   0.9223366666666666    0.8642500000000000    0.0860900000000000 H
   0.2039233333333333    0.3804000000000000    0.8336500000000000 H
   0.1500900000000000    0.5437400000000000    0.8130450000000000 H
   0.1367066666666666    0.1869900000000000    0.8509500000000000 H
   0.2730066666666666    0.1916000000000000    0.9628749999999999 H
   0.2300666666666667    0.9395600000000000    0.9809399999999999 H
   0.0240233333333333    0.9450700000000000    0.8239799999999999 H
   0.2879933333333333    0.7655000000000000    0.8363149999999999 H
   0.2065133333333333    0.3882400000000000    0.9162850000000000 H
   0.1518133333333333    0.5497100000000000    0.9367700000000000 H
   0.2705100000000000    0.5912800000000000    0.8992599999999999 H
   0.2694000000000000    0.1826400000000000    0.7868950000000000 H
   0.0201366666666667    0.3110200000000000    0.7692650000000000 H
   0.0176700000000000    0.9280900000000000    0.9255949999999999 H
   0.0776733333333333    0.1357400000000000    0.9139100000000000 H
   0.1294166666666667    0.6195900000000000    0.6663550000000000 H
   0.1832500000000000    0.4562500000000000    0.6869600000000000 H
   0.1966333333333333    0.8129900000000000    0.6490150000000000 H
   0.0603366666666667    0.8083800000000000    0.5371250000000000 H
   0.1032833333333333    0.0604000000000000    0.5190650000000000 H
   0.3093200000000000    0.0549100000000000    0.6759999999999999 H
   0.0453433333333333    0.2344900000000000    0.6636850000000000 H
   0.1268266666666666    0.6117400000000000    0.5837100000000000 H
   0.1815266666666666    0.4502800000000000    0.5632300000000000 H
   0.0628366666666667    0.4086900000000000    0.6007350000000000 H
   0.0639366666666667    0.8173500000000000    0.7131100000000000 H
   0.3132100000000000    0.6889300000000000    0.7307350000000000 H
   0.3156833333333333    0.0718800000000000    0.5744100000000000 H
   0.2556700000000000    0.8642500000000000    0.5860900000000000 H
   0.5372566666666667    0.3804000000000000    0.8336500000000000 H
   0.4834233333333333    0.5437400000000000    0.8130450000000000 H
   0.4700400000000000    0.1869900000000000    0.8509500000000000 H
   0.6063399999999999    0.1916000000000000    0.9628749999999999 H
   0.5634000000000000    0.9395600000000000    0.9809399999999999 H
   0.3573566666666667    0.9450700000000000    0.8239799999999999 H
   0.6213266666666666    0.7655000000000000    0.8363149999999999 H
   0.5398466666666666    0.3882400000000000    0.9162850000000000 H
   0.4851466666666666    0.5497100000000000    0.9367700000000000 H
   0.6038433333333333    0.5912800000000000    0.8992599999999999 H
   0.6027333333333333    0.1826400000000000    0.7868950000000000 H
   0.3534700000000000    0.3110200000000000    0.7692650000000000 H
   0.3510033333333333    0.9280900000000000    0.9255949999999999 H
   0.4110066666666666    0.1357400000000000    0.9139100000000000 H
   0.4627500000000000    0.6195900000000000    0.6663550000000000 H
   0.5165833333333333    0.4562500000000000    0.6869600000000000 H
   0.5299666666666667    0.8129900000000000    0.6490150000000000 H
   0.3936700000000000    0.8083800000000000    0.5371250000000000 H
   0.4366166666666667    0.0604000000000000    0.5190650000000000 H
   0.6426533333333333    0.0549100000000000    0.6759999999999999 H
   0.3786766666666667    0.2344900000000000    0.6636850000000000 H
   0.4601600000000000    0.6117400000000000    0.5837100000000000 H
   0.5148600000000000    0.4502800000000000    0.5632300000000000 H
   0.3961700000000000    0.4086900000000000    0.6007350000000000 H
   0.3972700000000000    0.8173500000000000    0.7131100000000000 H
   0.6465433333333332    0.6889300000000000    0.7307350000000000 H
   0.6490166666666666    0.0718800000000000    0.5744100000000000 H
   0.5890033333333333    0.8642500000000000    0.5860900000000000 H
   0.8705900000000000    0.3804000000000000    0.8336500000000000 H
   0.8167566666666666    0.5437400000000000    0.8130450000000000 H
   0.8033733333333333    0.1869900000000000    0.8509500000000000 H
   0.9396733333333332    0.1916000000000000    0.9628749999999999 H
   0.8967333333333333    0.9395600000000000    0.9809399999999999 H
   0.6906899999999999    0.9450700000000000    0.8239799999999999 H
   0.9546600000000000    0.7655000000000000    0.8363149999999999 H
   0.8731800000000000    0.3882400000000000    0.9162850000000000 H
   0.8184800000000000    0.5497100000000000    0.9367700000000000 H
   0.9371766666666665    0.5912800000000000    0.8992599999999999 H
   0.9360666666666666    0.1826400000000000    0.7868950000000000 H
   0.6868033333333333    0.3110200000000000    0.7692650000000000 H
   0.6843366666666666    0.9280900000000000    0.9255949999999999 H
   0.7443400000000000    0.1357400000000000    0.9139100000000000 H
   0.7960833333333333    0.6195900000000000    0.6663550000000000 H
   0.8499166666666667    0.4562500000000000    0.6869600000000000 H
   0.8633000000000000    0.8129900000000000    0.6490150000000000 H
   0.9759866666666666    0.0549100000000000    0.6759999999999999 H
   0.7120099999999999    0.2344900000000000    0.6636850000000000 H
   0.7934933333333333    0.6117400000000000    0.5837100000000000 H
   0.8481933333333332    0.4502800000000000    0.5632300000000000 H
   0.7295033333333333    0.4086900000000000    0.6007350000000000 H
   0.7306033333333333    0.8173500000000000    0.7131100000000000 H
   0.9798766666666666    0.6889300000000000    0.7307350000000000 H
   0.9823499999999999    0.0718800000000000    0.5744100000000000 H
   0.9223366666666666    0.8642500000000000    0.5860900000000000 H
   0.2051266666666667    0.1763600000000000    0.3566500000000000 C
   0.1733366666666666    0.2739800000000000    0.3435200000000000 C
   0.1774300000000000    0.3743900000000000    0.3326100000000000 C
   0.1476200000000000    0.4647100000000000    0.3211850000000000 C
   0.1134033333333333    0.4566700000000000    0.3200500000000000 C
   0.1092733333333333    0.3555000000000000    0.3305000000000000 C
   0.1393666666666667    0.2655800000000000    0.3424300000000000 C
   0.0823833333333333    0.5564300000000000    0.3084300000000000 C
   0.0743700000000000    0.3358800000000000    0.3290500000000000 C
   0.2641766666666666    0.1254400000000000    0.4592000000000000 C
   0.2420033333333333    0.9984700000000000    0.4687800000000000 C
   0.0011400000000000    0.9190900000000000    0.3319500000000000 C
   0.2993966666666666    0.8275000000000000    0.3379800000000000 C
   0.2745033333333333    0.3851000000000000    0.3935600000000000 C
   0.2417966666666667    0.4806000000000000    0.4066250000000000 C
   0.2083666666666666    0.4680000000000000    0.4173850000000000 C
   0.1781100000000000    0.5574600000000000    0.4287400000000000 C
   0.1805633333333333    0.6605300000000000    0.4299550000000000 C
   0.2142366666666667    0.6732700000000000    0.4196000000000000 C
   0.2443666666666666    0.5829400000000000    0.4077550000000000 C
   0.1471266666666667    0.7535400000000000    0.4415050000000000 C
   0.2206066666666666    0.7784300000000000    0.4209700000000000 C
   0.2914400000000000    0.2089600000000000    0.2906500000000000 C
   0.0000000000000000    0.2753700000000000    0.2813200000000000 C
   0.0264333333333333    0.9966200000000000    0.4177500000000000 C
   0.0570233333333333    0.1016900000000000    0.4120550000000000 C
   0.1282133333333333    0.8236300000000000    0.1433250000000000 C
   0.1600033333333333    0.7260100000000000    0.1564900000000000 C
   0.1559100000000000    0.6255900000000000    0.1673950000000000 C
   0.1857200000000000    0.5352700000000000    0.1788200000000000 C
   0.2199366666666667    0.5433100000000000    0.1799550000000000 C
   0.2240666666666667    0.6444900000000000    0.1694900000000000 C
   0.1939733333333333    0.7344000000000001    0.1575750000000000 C
   0.2509566666666667    0.4435600000000000    0.1915750000000000 C
   0.2589700000000000    0.6641000000000000    0.1709350000000000 C
   0.0691666666666667    0.8745400000000000    0.0407800000000000 C
   0.0913466666666667    0.0000000000000000    0.0312000000000000 C
   0.3322000000000000    0.0808900000000000    0.1680550000000000 C
   0.0339433333333333    0.1724800000000000    0.1620200000000000 C
   0.0588366666666667    0.6148800000000000    0.1064250000000000 C
   0.0915433333333333    0.5193800000000000    0.0933700000000000 C
   0.1249766666666667    0.5319700000000001    0.0826100000000000 C
   0.1552333333333333    0.4425300000000000    0.0712550000000000 C
   0.1527800000000000    0.3394500000000000    0.0700400000000000 C
   0.1191100000000000    0.3267000000000000    0.0804000000000000 C
   0.0889766666666667    0.4170300000000000    0.0922400000000000 C
   0.1862200000000000    0.2464400000000000    0.0584900000000000 C
   0.1127400000000000    0.2215400000000000    0.0790300000000000 C
   0.0419000000000000    0.7910199999999999    0.2093550000000000 C
   0.3329100000000000    0.7245800000000000    0.2186850000000000 C
   0.3069166666666666    0.0033600000000000    0.0822550000000000 C
   0.2763200000000000    0.8983000000000000    0.0879500000000000 C
   0.5384599999999999    0.1763600000000000    0.3566500000000000 C
   0.5066700000000000    0.2739800000000000    0.3435200000000000 C
   0.5107633333333333    0.3743900000000000    0.3326100000000000 C
   0.4809533333333333    0.4647100000000000    0.3211850000000000 C
   0.4467366666666667    0.4566700000000000    0.3200500000000000 C
   0.4426066666666666    0.3555000000000000    0.3305000000000000 C
   0.4727000000000000    0.2655800000000000    0.3424300000000000 C
   0.4157166666666666    0.5564300000000000    0.3084300000000000 C
   0.4077033333333333    0.3358800000000000    0.3290500000000000 C
   0.5975100000000000    0.1254400000000000    0.4592000000000000 C
   0.5753366666666666    0.9984700000000000    0.4687800000000000 C
   0.3344733333333333    0.9190900000000000    0.3319500000000000 C
   0.6327300000000000    0.8275000000000000    0.3379800000000000 C
   0.6078366666666666    0.3851000000000000    0.3935600000000000 C
   0.5751299999999999    0.4806000000000000    0.4066250000000000 C
   0.5417000000000000    0.4680000000000000    0.4173850000000000 C
   0.5114433333333332    0.5574600000000000    0.4287400000000000 C
   0.5138966666666667    0.6605300000000000    0.4299550000000000 C
   0.5475700000000000    0.6732700000000000    0.4196000000000000 C
   0.5777000000000000    0.5829400000000000    0.4077550000000000 C
   0.4804600000000000    0.7535400000000000    0.4415050000000000 C
   0.5539400000000000    0.7784300000000000    0.4209700000000000 C
   0.6247733333333333    0.2089600000000000    0.2906500000000000 C
   0.3333333333333333    0.2753700000000000    0.2813200000000000 C
   0.3597666666666666    0.9966200000000000    0.4177500000000000 C
   0.3903566666666666    0.1016900000000000    0.4120550000000000 C
   0.4615466666666667    0.8236300000000000    0.1433250000000000 C
   0.4933366666666666    0.7260100000000000    0.1564900000000000 C
   0.4892433333333333    0.6255900000000000    0.1673950000000000 C
   0.5190533333333334    0.5352700000000000    0.1788200000000000 C
   0.5532699999999999    0.5433100000000000    0.1799550000000000 C
   0.5574000000000000    0.6444900000000000    0.1694900000000000 C
   0.5273066666666666    0.7344000000000001    0.1575750000000000 C
   0.5842900000000000    0.4435600000000000    0.1915750000000000 C
   0.5923033333333333    0.6641000000000000    0.1709350000000000 C
   0.4025000000000000    0.8745400000000000    0.0407800000000000 C
   0.4246799999999999    0.0000000000000000    0.0312000000000000 C
   0.6655333333333333    0.0808900000000000    0.1680550000000000 C
   0.3672766666666666    0.1724800000000000    0.1620200000000000 C
   0.3921700000000000    0.6148800000000000    0.1064250000000000 C
   0.4248766666666666    0.5193800000000000    0.0933700000000000 C
   0.4583100000000000    0.5319700000000001    0.0826100000000000 C
   0.4885666666666666    0.4425300000000000    0.0712550000000000 C
   0.4861133333333333    0.3394500000000000    0.0700400000000000 C
   0.4524433333333333    0.3267000000000000    0.0804000000000000 C
   0.4223100000000000    0.4170300000000000    0.0922400000000000 C
   0.5195533333333333    0.2464400000000000    0.0584900000000000 C
   0.4460733333333333    0.2215400000000000    0.0790300000000000 C
   0.3752333333333333    0.7910199999999999    0.2093550000000000 C
   0.6662433333333333    0.7245800000000000    0.2186850000000000 C
   0.6402500000000000    0.0033600000000000    0.0822550000000000 C
   0.6096533333333334    0.8983000000000000    0.0879500000000000 C
   0.8717933333333333    0.1763600000000000    0.3566500000000000 C
   0.8400033333333332    0.2739800000000000    0.3435200000000000 C
   0.8440966666666666    0.3743900000000000    0.3326100000000000 C
   0.8142866666666666    0.4647100000000000    0.3211850000000000 C
   0.7800699999999999    0.4566700000000000    0.3200500000000000 C
   0.7759400000000000    0.3555000000000000    0.3305000000000000 C
   0.8060333333333333    0.2655800000000000    0.3424300000000000 C
   0.7490500000000000    0.5564300000000000    0.3084300000000000 C
   0.7410366666666666    0.3358800000000000    0.3290500000000000 C
   0.9308433333333332    0.1254400000000000    0.4592000000000000 C
   0.9086700000000000    0.9984700000000000    0.4687800000000000 C
   0.6678066666666667    0.9190900000000000    0.3319500000000000 C
   0.9660633333333333    0.8275000000000000    0.3379800000000000 C
   0.9411700000000000    0.3851000000000000    0.3935600000000000 C
   0.9084633333333333    0.4806000000000000    0.4066250000000000 C
   0.8750333333333333    0.4680000000000000    0.4173850000000000 C
   0.8447766666666666    0.5574600000000000    0.4287400000000000 C
   0.8472299999999999    0.6605300000000000    0.4299550000000000 C
   0.8809033333333333    0.6732700000000000    0.4196000000000000 C
   0.9110333333333333    0.5829400000000000    0.4077550000000000 C
   0.8137933333333333    0.7535400000000000    0.4415050000000000 C
   0.8872733333333332    0.7784300000000000    0.4209700000000000 C
   0.9581066666666667    0.2089600000000000    0.2906500000000000 C
   0.6666666666666666    0.2753700000000000    0.2813200000000000 C
   0.6930999999999999    0.9966200000000000    0.4177500000000000 C
   0.7236899999999999    0.1016900000000000    0.4120550000000000 C
   0.7948799999999999    0.8236300000000000    0.1433250000000000 C
   0.8266700000000000    0.7260100000000000    0.1564900000000000 C
   0.8225766666666666    0.6255900000000000    0.1673950000000000 C
   0.8523866666666666    0.5352700000000000    0.1788200000000000 C
   0.8866033333333333    0.5433100000000000    0.1799550000000000 C
   0.8907333333333333    0.6444900000000000    0.1694900000000000 C
   0.8606400000000000    0.7344000000000001    0.1575750000000000 C
   0.9176233333333332    0.4435600000000000    0.1915750000000000 C
   0.9256366666666667    0.6641000000000000    0.1709350000000000 C
   0.7358333333333333    0.8745400000000000    0.0407800000000000 C
   0.7580133333333333    0.0000000000000000    0.0312000000000000 C
   0.9988666666666666    0.0808900000000000    0.1680550000000000 C
   0.7006100000000000    0.1724800000000000    0.1620200000000000 C
   0.7255033333333333    0.6148800000000000    0.1064250000000000 C
   0.7582099999999999    0.5193800000000000    0.0933700000000000 C
   0.7916433333333333    0.5319700000000001    0.0826100000000000 C
   0.8219000000000000    0.4425300000000000    0.0712550000000000 C
   0.8194466666666667    0.3394500000000000    0.0700400000000000 C
   0.7857766666666666    0.3267000000000000    0.0804000000000000 C
   0.7556433333333333    0.4170300000000000    0.0922400000000000 C
   0.8528866666666666    0.2464400000000000    0.0584900000000000 C
   0.7794066666666666    0.2215400000000000    0.0790300000000000 C
   0.7085666666666667    0.7910199999999999    0.2093550000000000 C
   0.9995766666666666    0.7245800000000000    0.2186850000000000 C
   0.9735833333333332    0.0033600000000000    0.0822550000000000 C
   0.9429866666666666    0.8983000000000000    0.0879500000000000 C
   0.2051266666666667    0.1763600000000000    0.8566500000000000 C
   0.1733366666666666    0.2739800000000000    0.8435200000000000 C
   0.1774300000000000    0.3743900000000000    0.8326100000000001 C
   0.1476200000000000    0.4647100000000000    0.8211850000000001 C
   0.1134033333333333    0.4566700000000000    0.8200499999999999 C
   0.1092733333333333    0.3555000000000000    0.8305000000000000 C
   0.1393666666666667    0.2655800000000000    0.8424300000000000 C
   0.0823833333333333    0.5564300000000000    0.8084300000000000 C
   0.0743700000000000    0.3358800000000000    0.8290500000000001 C
   0.2641766666666666    0.1254400000000000    0.9592000000000001 C
   0.2420033333333333    0.9984700000000000    0.9687800000000000 C
   0.0011400000000000    0.9190900000000000    0.8319500000000000 C
   0.2993966666666666    0.8275000000000000    0.8379799999999999 C
   0.2745033333333333    0.3851000000000000    0.8935600000000000 C
   0.2417966666666667    0.4806000000000000    0.9066250000000000 C
   0.2083666666666666    0.4680000000000000    0.9173850000000000 C
   0.1781100000000000    0.5574600000000000    0.9287400000000000 C
   0.1805633333333333    0.6605300000000000    0.9299550000000000 C
   0.2142366666666667    0.6732700000000000    0.9196000000000000 C
   0.2443666666666666    0.5829400000000000    0.9077550000000000 C
   0.1471266666666667    0.7535400000000000    0.9415050000000000 C
   0.2206066666666666    0.7784300000000000    0.9209700000000001 C
   0.2914400000000000    0.2089600000000000    0.7906500000000001 C
   0.0000000000000000    0.2753700000000000    0.7813200000000000 C
   0.0264333333333333    0.9966200000000000    0.9177500000000001 C
   0.0570233333333333    0.1016900000000000    0.9120550000000001 C
   0.1282133333333333    0.8236300000000000    0.6433250000000000 C
   0.1600033333333333    0.7260100000000000    0.6564900000000000 C
   0.1559100000000000    0.6255900000000000    0.6673950000000000 C
   0.1857200000000000    0.5352700000000000    0.6788200000000000 C
   0.2199366666666667    0.5433100000000000    0.6799550000000000 C
   0.2240666666666667    0.6444900000000000    0.6694900000000000 C
   0.1939733333333333    0.7344000000000001    0.6575750000000000 C
   0.2509566666666667    0.4435600000000000    0.6915750000000001 C
   0.2589700000000000    0.6641000000000000    0.6709350000000001 C
   0.0691666666666667    0.8745400000000000    0.5407800000000000 C
   0.0913466666666667    0.0000000000000000    0.5312000000000000 C
   0.3322000000000000    0.0808900000000000    0.6680550000000001 C
   0.0339433333333333    0.1724800000000000    0.6620200000000001 C
   0.0588366666666667    0.6148800000000000    0.6064250000000000 C
   0.0915433333333333    0.5193800000000000    0.5933700000000000 C
   0.1249766666666667    0.5319700000000001    0.5826100000000000 C
   0.1552333333333333    0.4425300000000000    0.5712550000000000 C
   0.1527800000000000    0.3394500000000000    0.5700400000000000 C
   0.1191100000000000    0.3267000000000000    0.5804000000000000 C
   0.0889766666666667    0.4170300000000000    0.5922400000000000 C
   0.1862200000000000    0.2464400000000000    0.5584900000000000 C
   0.1127400000000000    0.2215400000000000    0.5790300000000000 C
   0.0419000000000000    0.7910199999999999    0.7093550000000000 C
   0.3329100000000000    0.7245800000000000    0.7186850000000000 C
   0.3069166666666666    0.0033600000000000    0.5822550000000000 C
   0.2763200000000000    0.8983000000000000    0.5879500000000000 C
   0.5384599999999999    0.1763600000000000    0.8566500000000000 C
   0.5066700000000000    0.2739800000000000    0.8435200000000000 C