H6 O4
1.0
  17.2526627771001664    0.0000000000000000    1.1047945961410190
   0.9644035546708477   17.2033421128276025    1.2550386180315514
   0.0000000000000000    0.0000000000000000   17.3350000000000009
H O
6 4
direct
   0.2759232902456998    0.1257009698853633   -0.0283916461323378 H
   0.0822591100397941    0.2545299428098733   -0.0215026827415037 H
   0.1782982526345513    0.1909228921731800   -0.0369495333487475 H
   0.2514028210177614    0.2510465968675928    0.3826753512858981 H
   0.0919381906342845    0.0979584477855839    0.3952805679995765 H
   0.1701580253174740    0.1735577605501866    0.4007759046899385 H
   0.2357700000000000    0.1517000000000000    0.0036200000000000 O
   0.1229200000000000    0.2267800000000000    0.0072000000000000 O
   0.2196800000000000    0.2192800000000000    0.3549700000000000 O
   0.1268700000000000    0.1302100000000000    0.3629700000000000 O
