H12 C16 O6
1.0
  17.2526627771001664    0.0000000000000000    1.1047945961410190
   0.9644035546708477   17.2033421128276025    1.2550386180315514
   0.0000000000000000    0.0000000000000000   17.3350000000000009
H C O
12 16 6
direct
   0.0837800000000000    0.0885900000000000    0.4945400000000000 H
   0.2553900000000000    0.2527700000000000    0.6234499999999999 H
   0.2577500000000000    0.2567200000000000    0.4780000000000000 H
   0.9978100000000000    0.9903400000000000    0.6665800000000000 H
   0.0635300000000000    0.9838500000000000    0.5828300000000000 H
   0.9832000000000000    0.0550500000000000    0.5822200000000000 H
   0.2833100000000000    0.1191500000000000    0.8780100000000000 H
   0.0548500000000000    0.2291800000000000    0.7397100000000000 H
   0.0582300000000000    0.2388500000000000    0.8817199999999999 H
   0.3990800000000000    0.0512300000000000    0.7145800000000000 H
   0.3481000000000000    0.0312700000000000    0.8064000000000000 H
   0.3873700000000000    0.1246600000000000    0.7832000000000000 H
   0.1724500000000000    0.1742900000000000    0.3925600000000000 C
   0.1704400000000000    0.1729700000000000    0.4787700000000000 C
   0.1204500000000000    0.1244300000000000    0.5239800000000000 C
   0.1191000000000000    0.1224600000000000    0.6047700000000000 C
   0.1678000000000000    0.1695800000000000    0.6413500000000000 C
   0.2175100000000000    0.2170200000000000    0.5949600000000000 C
   0.2191500000000000    0.2194700000000000    0.5144000000000000 C
   0.0268000000000000    0.0236300000000000    0.6183000000000000 C
   0.1771000000000000    0.1865600000000000    0.9722499999999999 C
   0.1720200000000000    0.1803300000000000    0.8875600000000000 C
   0.2343000000000000    0.1432900000000000    0.8462400000000000 C
   0.2324300000000000    0.1381600000000000    0.7665000000000000 C
   0.1673900000000000    0.1698500000000000    0.7270100000000000 C
   0.1050700000000000    0.2047300000000000    0.7698400000000000 C
   0.1068000000000000    0.2108000000000000    0.8494100000000000 C
   0.3600400000000000    0.0762000000000000    0.7596500000000000 C
   0.1229200000000000    0.2267800000000000    0.0072000000000000 O
   0.2909100000000000    0.1029900000000000    0.7221900000000000 O
   0.2196800000000000    0.2192800000000000    0.3549700000000000 O
   0.1268700000000000    0.1302100000000000    0.3629700000000000 O
   0.0727800000000000    0.0762600000000000    0.6531600000000000 O
   0.2357700000000000    0.1517000000000000    0.0036200000000000 O
