H8 C10 N2
1.0
  14.1319911836612011    0.0000000000000000   -0.0157855922304280
  -0.0116273982173364   17.8787059629333207   -2.7763981873252788
   0.0000000000000000    0.0000000000000000   19.5530000000000008
H C N
8 10 2
direct
   0.0907500000000000    0.2927500000000000    0.3978200000000000 H
   0.0768500000000000    0.1720900000000000    0.4415100000000000 H
   0.3779200000000000    0.1412700000000000    0.4048100000000000 H
   0.3773700000000000    0.2602800000000000    0.3570600000000000 H
   0.1039300000000000    0.0990000000000000    0.5227600000000000 H
   0.1101800000000000    0.9763800000000000    0.5659200000000000 H
   0.3380200000000000    0.9040800000000000    0.4410000000000000 H
   0.3423500000000000    0.0230800000000000    0.3911400000000000 H
   0.1530100000000000    0.2575000000000000    0.3998300000000000 C
   0.1457100000000000    0.1896000000000000    0.4246600000000000 C
   0.2268100000000000    0.1449800000000000    0.4269900000000000 C
   0.3117900000000000    0.1717200000000000    0.4028200000000000 C
   0.3127600000000000    0.2392400000000000    0.3775100000000000 C
   0.1578400000000000    0.0581300000000000    0.5031099999999999 C
   0.1603600000000000    0.9898300000000000    0.5273600000000001 C
   0.2880200000000000    0.9492699999999999    0.4573600000000000 C
   0.2901400000000000    0.0160700000000000    0.4305700000000000 C
   0.2244400000000000    0.0726700000000000    0.4535000000000000 C
   0.2352000000000000    0.2824900000000000    0.3765700000000000 N
   0.2242000000000000    0.9361699999999999    0.5052200000000000 N
