H7 C12 N1 O8
1.0
  14.1319911836612011    0.0000000000000000   -0.0157855922304280
  -0.0116273982173364   17.8787059629333207   -2.7763981873252788
   0.0000000000000000    0.0000000000000000   19.5530000000000008
H C N O
7 12 1 8
direct
   0.6502200000000000    0.3606300000000000    0.0943200000000000 H
   0.5142300000000000    0.2720100000000000    0.0821800000000000 H
   0.4367100000000000    0.3445500000000000    0.8917900000000000 H
   0.5260000000000000    0.5579700000000000    0.9065500000000000 H
   0.6020600000000000    0.5359500000000000    0.9711900000000000 H
   0.4418300000000000    0.4254800000000000    0.8379900000000000 H
   0.5144800000000000    0.4911400000000000    0.8076500000000000 H
   0.7129500000000000    0.4452500000000000    0.0072000000000000 C
   0.6241300000000000    0.4013400000000000    0.9982799999999999 C
   0.6049000000000000    0.3556000000000000    0.0487600000000000 C
   0.5298000000000000    0.3055500000000000    0.0419000000000000 C
   0.4702200000000000    0.3020500000000000    0.9843000000000000 C
   0.3834000000000000    0.2530200000000000    0.9788800000000000 C
   0.4867900000000000    0.3482500000000000    0.9343700000000000 C
   0.5624300000000000    0.3990100000000000    0.9398000000000000 C
   0.5904800000000000    0.5266999999999999    0.9151300000000000 C
   0.6706700000000000    0.5641900000000000    0.8817000000000000 C
   0.5158800000000000    0.4367600000000000    0.8200000000000000 C
   0.5467500000000000    0.3797400000000000    0.7625999999999999 C
   0.5765600000000000    0.4466000000000000    0.8887000000000000 N
   0.7449800000000000    0.4722800000000000    0.0672900000000000 O
   0.7616600000000000    0.4554700000000000    0.9535900000000000 O
   0.3787500000000000    0.2001000000000000    1.0139100000000001 O
   0.3168200000000000    0.2691300000000000    0.9387700000000000 O
   0.7241200000000000    0.5288400000000000    0.8357000000000000 O
   0.6796000000000000    0.6339100000000000    0.9036500000000000 O
   0.6284100000000000    0.3470100000000000    0.7636500000000001 O
   0.4901400000000000    0.3716600000000000    0.7135300000000000 O
