H4 O2
1.0
  30.4600000000000009    0.0000000000000000    0.0000000000000019
   0.0006230127297644   35.6959999945631878    0.0000000000000022
   0.0000000000000000    0.0000000000000000   35.6959999999999980
H O
4 2
direct
   0.9597535748713051    0.8827303354153291    0.8002590688815582 H
   0.9130226275515309    0.8574706349661587    0.8016066830991524 H
   0.9130223850339122    0.8925380828152856    0.4483911135270521 H
   0.9597531525669576    0.8672764492487043    0.4497415189698079 H
   0.9361999999999999    0.8710950000000000    0.8148250000000000 O
   0.9361950000000000    0.8789050000000000    0.4351750000000000 O
