Zn32 H886 C1260 N126 O2
1.0
  30.4600000000000009    0.0000000000000000    0.0000000000000019
   0.0006230127297644   35.6959999945631878    0.0000000000000022
   0.0000000000000000    0.0000000000000000   35.6959999999999980
Zn H C N O
32 886 1260 126 2
direct
   0.5642000000000000    0.1250000000000000    0.6250000000000000 Zn
   0.5642000000000000    0.1250000000000000    0.1250000000000000 Zn
   0.5642000000000000    0.6250000000000000    0.1250000000000000 Zn
   0.5642000000000000    0.6250000000000000    0.6250000000000000 Zn
   0.4358050000000000    0.3750000000000000    0.3750000000000000 Zn
   0.4358050000000000    0.8750000000000000    0.3750000000000000 Zn
   0.4358050000000000    0.3750000000000000    0.8750000000000000 Zn
   0.4358050000000000    0.8750000000000000    0.8750000000000000 Zn
   0.1858000000000000    0.8750050000000000    0.8750000000000000 Zn
   0.1858000000000000    0.3750050000000000    0.8750000000000000 Zn
   0.1858000000000000    0.8750050000000000    0.3750000000000000 Zn
   0.1858000000000000    0.3750050000000000    0.3750000000000000 Zn
   0.3142050000000000    0.1250000000000000    0.6250000000000000 Zn
   0.3142050000000000    0.1250000000000000    0.1250000000000000 Zn
   0.3142050000000000    0.6250000000000000    0.1250000000000000 Zn
   0.3142050000000000    0.6250000000000000    0.6250000000000000 Zn
   0.0642000000000000    0.1250000000000000    0.1250000000000000 Zn
   0.0642000000000000    0.1250000000000000    0.6250000000000000 Zn
   0.0642000000000000    0.6250000000000000    0.1250000000000000 Zn
   0.0642000000000000    0.6250000000000000    0.6250000000000000 Zn
   0.9358050000000000    0.8750000000000000    0.3750000000000000 Zn
   0.9358050000000000    0.3750000000000000    0.3750000000000000 Zn
   0.9358050000000000    0.3750000000000000    0.8750000000000000 Zn
   0.9358050000000000    0.8750000000000000    0.8750000000000000 Zn
   0.6858000000000000    0.8750050000000000    0.8750000000000000 Zn
   0.6858000000000000    0.3750050000000000    0.8750000000000000 Zn
   0.6858000000000000    0.8750050000000000    0.3750000000000000 Zn
   0.6858000000000000    0.3750050000000000    0.3750000000000000 Zn
   0.8142050000000001    0.1250000000000000    0.1250000000000000 Zn
   0.8142050000000001    0.1250000000000000    0.6250000000000000 Zn
   0.8142050000000001    0.6250000000000000    0.1250000000000000 Zn
   0.8142050000000001    0.6250000000000000    0.6250000000000000 Zn
   0.6221600000000000    0.9941900000000000    0.6671050000000001 H
   0.5034850000000000    0.9905950000000000    0.6011350000000000 H
   0.6221449999999999    0.0638900000000000    0.6591250000000000 H
   0.5054800000000000    0.0607350000000000    0.5989949999999999 H
   0.6221600000000000    0.7558100000000000    0.5828900000000000 H
   0.5034850000000000    0.7594099999999999    0.6488650000000000 H
   0.6221449999999999    0.6861100000000000    0.5908700000000000 H
   0.5054750000000000    0.6892650000000000    0.6510000000000000 H
   0.5652350000000000    0.8053350000000000    0.5520750000000000 H
   0.5634650000000000    0.8746600000000000    0.5469950000000000 H
   0.5602350000000000    0.9369149999999999    0.5775700000000000 H
   0.5652350000000000    0.9446650000000000    0.6979200000000000 H
   0.5634650000000000    0.8753450000000000    0.7030000000000001 H
   0.5602300000000000    0.8130850000000001    0.6724000000000000 H
   0.6221650000000000    0.1671100000000000    0.7558100000000000 H
   0.5034900000000000    0.1011350000000000    0.7594099999999999 H
   0.6221449999999999    0.1591250000000000    0.6861100000000000 H
   0.5054800000000000    0.0989950000000000    0.6892650000000000 H
   0.6221650000000000    0.0828900000000000    0.9941900000000000 H
   0.5034850000000000    0.1488650000000000    0.9905900000000001 H
   0.6221449999999999    0.0908750000000000    0.0638850000000000 H
   0.5054750000000000    0.1510050000000000    0.0607000000000000 H
   0.5652400000000000    0.0520800000000000    0.9446650000000000 H
   0.5634650000000000    0.0469950000000000    0.8753000000000000 H
   0.5602350000000000    0.0775700000000000    0.8130850000000001 H
   0.5652350000000000    0.1979200000000000    0.8053350000000000 H
   0.5634650000000000    0.2030050000000000    0.8746550000000000 H
   0.5602350000000000    0.1724300000000000    0.9369149999999999 H
   0.6221600000000000    0.9941900000000000    0.1671050000000000 H
   0.5034850000000000    0.9905950000000000    0.1011350000000000 H
   0.6221449999999999    0.0638900000000000    0.1591250000000000 H
   0.5054800000000000    0.0607350000000000    0.0989950000000000 H
   0.6221600000000000    0.7558100000000000    0.0828900000000000 H
   0.5034850000000000    0.7594099999999999    0.1488650000000000 H
   0.6221449999999999    0.6861100000000000    0.0908700000000000 H
   0.5054750000000000    0.6892650000000000    0.1510000000000000 H
   0.5652350000000000    0.8053350000000000    0.0520750000000000 H
   0.5634650000000000    0.8746600000000000    0.0469950000000000 H
   0.5602350000000000    0.9369149999999999    0.0775700000000000 H
   0.5652350000000000    0.9446650000000000    0.1979200000000000 H
   0.5634650000000000    0.8753450000000000    0.2030000000000000 H
   0.5602300000000000    0.8130850000000001    0.1724000000000000 H
   0.6221650000000000    0.1671100000000000    0.2558100000000000 H
   0.5034900000000000    0.1011350000000000    0.2594100000000000 H
   0.6221449999999999    0.1591250000000000    0.1861100000000000 H
   0.5054800000000000    0.0989950000000000    0.1892650000000000 H
   0.6221650000000000    0.0828900000000000    0.4941900000000000 H
   0.5034850000000000    0.1488650000000000    0.4905900000000000 H
   0.6221449999999999    0.0908750000000000    0.5638850000000000 H
   0.5054750000000000    0.1510050000000000    0.5607000000000000 H
   0.5652400000000000    0.0520800000000000    0.4446650000000000 H
   0.5634650000000000    0.0469950000000000    0.3753000000000000 H
   0.5602350000000000    0.0775700000000000    0.3130850000000000 H
   0.5652350000000000    0.1979200000000000    0.3053350000000000 H
   0.5634650000000000    0.2030050000000000    0.3746550000000000 H
   0.5602350000000000    0.1724300000000000    0.4369150000000000 H
   0.6221600000000000    0.4941900000000000    0.1671050000000000 H
   0.5034850000000000    0.4905950000000000    0.1011350000000000 H
   0.6221449999999999    0.5638900000000000    0.1591250000000000 H
   0.5054800000000000    0.5607350000000000    0.0989950000000000 H
   0.6221600000000000    0.2558100000000000    0.0828900000000000 H
   0.5034850000000000    0.2594100000000000    0.1488650000000000 H
   0.6221449999999999    0.1861100000000000    0.0908700000000000 H
   0.5054750000000000    0.1892650000000000    0.1510000000000000 H
   0.5652350000000000    0.3053350000000000    0.0520750000000000 H
   0.5634650000000000    0.3746600000000000    0.0469950000000000 H
   0.5602350000000000    0.4369150000000000    0.0775700000000000 H
   0.5652350000000000    0.4446650000000000    0.1979200000000000 H
   0.5634650000000000    0.3753450000000000    0.2030000000000000 H
   0.5602300000000000    0.3130850000000000    0.1724000000000000 H
   0.6221650000000000    0.6671100000000000    0.2558100000000000 H
   0.5034900000000000    0.6011350000000000    0.2594100000000000 H
   0.6221449999999999    0.6591250000000000    0.1861100000000000 H
   0.5054800000000000    0.5989949999999999    0.1892650000000000 H
   0.6221650000000000    0.5828900000000000    0.4941900000000000 H
   0.5034850000000000    0.6488650000000000    0.4905900000000000 H
   0.6221449999999999    0.5908750000000000    0.5638850000000000 H
   0.5054750000000000    0.6510050000000001    0.5607000000000000 H
   0.5652400000000000    0.5520800000000000    0.4446650000000000 H
   0.5634650000000000    0.5469950000000000    0.3753000000000000 H
   0.5602350000000000    0.5775700000000000    0.3130850000000000 H
   0.5652350000000000    0.6979200000000000    0.3053350000000000 H
   0.5634650000000000    0.7030050000000000    0.3746550000000000 H
   0.5602350000000000    0.6724300000000000    0.4369150000000000 H
   0.6221600000000000    0.4941900000000000    0.6671050000000001 H
   0.5034850000000000    0.4905950000000000    0.6011350000000000 H
   0.6221449999999999    0.5638900000000000    0.6591250000000000 H
   0.5054800000000000    0.5607350000000000    0.5989949999999999 H
   0.6221600000000000    0.2558100000000000    0.5828900000000000 H
   0.5034850000000000    0.2594100000000000    0.6488650000000000 H
   0.6221449999999999    0.1861100000000000    0.5908700000000000 H
   0.5054750000000000    0.1892650000000000    0.6510000000000000 H
   0.5652350000000000    0.3053350000000000    0.5520750000000000 H
   0.5634650000000000    0.3746600000000000    0.5469950000000000 H
   0.5602350000000000    0.4369150000000000    0.5775700000000000 H
   0.5652350000000000    0.4446650000000000    0.6979200000000000 H
   0.5634650000000000    0.3753450000000000    0.7030000000000001 H
   0.5602300000000000    0.3130850000000000    0.6724000000000000 H
   0.6221650000000000    0.6671100000000000    0.7558100000000000 H
   0.5034900000000000    0.6011350000000000    0.7594099999999999 H
   0.6221449999999999    0.6591250000000000    0.6861100000000000 H
   0.5054800000000000    0.5989949999999999    0.6892650000000000 H
   0.6221650000000000    0.5828900000000000    0.9941900000000000 H
   0.5034850000000000    0.6488650000000000    0.9905900000000001 H
   0.6221449999999999    0.5908750000000000    0.0638850000000000 H
   0.5054750000000000    0.6510050000000001    0.0607000000000000 H
   0.5652400000000000    0.5520800000000000    0.9446650000000000 H
   0.5634650000000000    0.5469950000000000    0.8753000000000000 H
   0.5602350000000000    0.5775700000000000    0.8130850000000001 H
   0.5652350000000000    0.6979200000000000    0.8053350000000000 H
   0.5634650000000000    0.7030050000000000    0.8746550000000000 H
   0.5602350000000000    0.6724300000000000    0.9369149999999999 H
   0.3778400000000000    0.9171100000000000    0.5058049999999999 H
   0.4965150000000000    0.8511350000000000    0.5094050000000000 H
   0.3778600000000000    0.9091300000000000    0.4361100000000000 H
   0.4945300000000000    0.8490000000000000    0.4392650000000000 H
   0.3778400000000000    0.8328949999999999    0.7441900000000000 H
   0.4965150000000000    0.8988650000000000    0.7405900000000000 H
   0.3778600000000000    0.8408750000000000    0.8138900000000000 H
   0.4945250000000000    0.9010050000000001    0.8107350000000000 H
   0.4347650000000000    0.9479250000000000    0.5553350000000000 H
   0.4365350000000000    0.9530050000000000    0.6246550000000000 H
   0.4397650000000000    0.9224300000000001    0.6869149999999999 H
   0.4347700000000000    0.8020800000000000    0.6946600000000001 H
   0.4365450000000000    0.7969999999999999    0.6253400000000000 H
   0.4397750000000000    0.8275749999999999    0.5630500000000001 H
   0.3778400000000000    0.4171100000000000    0.5058049999999999 H
   0.4965150000000000    0.3511350000000000    0.5094050000000000 H
   0.3778600000000000    0.4091300000000000    0.4361100000000000 H
   0.4945300000000000    0.3490000000000000    0.4392650000000000 H
   0.3778400000000000    0.3328950000000000    0.7441900000000000 H
   0.4965150000000000    0.3988650000000000    0.7405900000000000 H
   0.3778600000000000    0.3408750000000000    0.8138900000000000 H
   0.4945250000000000    0.4010050000000000    0.8107350000000000 H
   0.4347650000000000    0.4479250000000000    0.5553350000000000 H
   0.4365350000000000    0.4530050000000000    0.6246550000000000 H
   0.4397650000000000    0.4224300000000000    0.6869149999999999 H
   0.4347700000000000    0.3020800000000000    0.6946600000000001 H
   0.4365450000000000    0.2970000000000000    0.6253400000000000 H
   0.4397750000000000    0.3275750000000000    0.5630500000000001 H
   0.3778450000000000    0.0058100000000000    0.3328900000000000 H
   0.4965200000000000    0.0094100000000000    0.3988650000000000 H
   0.3778600000000000    0.9361150000000000    0.3408750000000000 H
   0.4945250000000000    0.9392650000000000    0.4010050000000000 H
   0.3778400000000000    0.2441900000000000    0.4171100000000000 H
   0.4965200000000000    0.2405900000000000    0.3511350000000000 H
   0.3778600000000000    0.3138900000000000    0.4091250000000000 H
   0.4945300000000000    0.3107350000000000    0.3489950000000000 H
   0.4347700000000000    0.1946650000000000    0.4479200000000000 H
   0.4365450000000000    0.1253450000000000    0.4530050000000000 H
   0.4397750000000000    0.0630850000000000    0.4224300000000000 H
   0.4347700000000000    0.0553350000000000    0.3020800000000000 H
   0.4365400000000000    0.1246600000000000    0.2969950000000000 H
   0.4397700000000000    0.1869150000000000    0.3275700000000000 H
   0.3778450000000000    0.5058100000000000    0.3328900000000000 H
   0.4965200000000000    0.5094100000000000    0.3988650000000000 H
   0.3778600000000000    0.4361150000000000    0.3408750000000000 H
   0.4945250000000000    0.4392650000000000    0.4010050000000000 H
   0.3778400000000000    0.7441900000000000    0.4171100000000000 H
   0.4965200000000000    0.7405900000000000    0.3511350000000000 H
   0.3778600000000000    0.8138900000000000    0.4091250000000000 H
   0.4945300000000000    0.8107350000000000    0.3489950000000000 H
   0.4347700000000000    0.6946650000000000    0.4479200000000000 H
   0.4365450000000000    0.6253450000000000    0.4530050000000000 H
   0.4397750000000000    0.5630850000000001    0.4224300000000000 H
   0.4347700000000000    0.5553350000000000    0.3020800000000000 H
   0.4365400000000000    0.6246600000000000    0.2969950000000000 H
   0.4397700000000000    0.6869149999999999    0.3275700000000000 H
   0.3778400000000000    0.4171100000000000    0.0058050000000000 H
   0.4965150000000000    0.3511350000000000    0.0094050000000000 H
   0.3778600000000000    0.4091300000000000    0.9361100000000000 H
   0.4945300000000000    0.3490000000000000    0.9392650000000000 H
   0.3778400000000000    0.3328950000000000    0.2441900000000000 H
   0.4965150000000000    0.3988650000000000    0.2405900000000000 H
   0.3778600000000000    0.3408750000000000    0.3138900000000000 H
   0.4945250000000000    0.4010050000000000    0.3107350000000000 H
   0.4347650000000000    0.4479250000000000    0.0553350000000000 H
   0.4365350000000000    0.4530050000000000    0.1246550000000000 H
   0.4397650000000000    0.4224300000000000    0.1869150000000000 H
   0.4347700000000000    0.3020800000000000    0.1946600000000000 H
   0.4365450000000000    0.2970000000000000    0.1253400000000000 H
   0.4397750000000000    0.3275750000000000    0.0630500000000000 H
   0.3778400000000000    0.9171100000000000    0.0058050000000000 H
   0.4965150000000000    0.8511350000000000    0.0094050000000000 H
   0.3778600000000000    0.9091300000000000    0.9361100000000000 H
   0.4945300000000000    0.8490000000000000    0.9392650000000000 H
   0.3778400000000000    0.8328949999999999    0.2441900000000000 H
   0.4965150000000000    0.8988650000000000    0.2405900000000000 H
   0.3778600000000000    0.8408750000000000    0.3138900000000000 H
   0.4945250000000000    0.9010050000000001    0.3107350000000000 H
   0.4347650000000000    0.9479250000000000    0.0553350000000000 H
   0.4365350000000000    0.9530050000000000    0.1246550000000000 H
   0.4397650000000000    0.9224300000000001    0.1869150000000000 H
   0.4347700000000000    0.8020800000000000    0.1946600000000000 H
   0.4365450000000000    0.7969999999999999    0.1253400000000000 H
   0.4397750000000000    0.8275749999999999    0.0630500000000000 H
   0.3778450000000000    0.0058100000000000    0.8328900000000000 H
   0.4965200000000000    0.0094100000000000    0.8988650000000000 H
   0.3778600000000000    0.9361150000000000    0.8408750000000000 H
   0.4945250000000000    0.9392650000000000    0.9010050000000001 H
   0.3778400000000000    0.2441900000000000    0.9171100000000000 H
   0.4965200000000000    0.2405900000000000    0.8511350000000000 H
   0.3778600000000000    0.3138900000000000    0.9091250000000000 H
   0.4945300000000000    0.3107350000000000    0.8489949999999999 H
   0.4347700000000000    0.1946650000000000    0.9479200000000000 H
   0.4365450000000000    0.1253450000000000    0.9530050000000000 H
   0.4397750000000000    0.0630850000000000    0.9224300000000001 H
   0.4347700000000000    0.0553350000000000    0.8020800000000000 H
   0.4365400000000000    0.1246600000000000    0.7969950000000000 H
   0.4397700000000000    0.1869150000000000    0.8275699999999999 H
   0.3778450000000000    0.5058100000000000    0.8328900000000000 H
   0.4965200000000000    0.5094100000000000    0.8988650000000000 H
   0.3778600000000000    0.4361150000000000    0.8408750000000000 H
   0.4945250000000000    0.4392650000000000    0.9010050000000001 H
   0.3778400000000000    0.7441900000000000    0.9171100000000000 H
   0.4965200000000000    0.7405900000000000    0.8511350000000000 H
   0.3778600000000000    0.8138900000000000    0.9091250000000000 H
   0.4945300000000000    0.8107350000000000    0.8489949999999999 H
   0.4347700000000000    0.6946650000000000    0.9479200000000000 H
   0.4365450000000000    0.6253450000000000    0.9530050000000000 H
   0.4397750000000000    0.5630850000000001    0.9224300000000001 H
   0.4347700000000000    0.5553350000000000    0.8020800000000000 H
   0.4365400000000000    0.6246600000000000    0.7969950000000000 H
   0.4397700000000000    0.6869149999999999    0.8275699999999999 H
   0.1278350000000000    0.8328949999999999    0.5058000000000000 H
   0.2465150000000000    0.8988650000000000    0.5094050000000000 H
   0.1278550000000000    0.8408750000000000    0.4361100000000000 H
   0.2445250000000000    0.9010050000000001    0.4392650000000000 H
   0.1278350000000000    0.9171100000000000    0.7441900000000000 H
   0.2465150000000000    0.8511350000000000    0.7405900000000000 H
   0.1278550000000000    0.9091300000000000    0.8138900000000000 H
   0.2445250000000000    0.8490000000000000    0.8107350000000000 H
   0.1847650000000000    0.9479250000000000    0.6946650000000000 H
   0.1865350000000000    0.9530050000000000    0.6253400000000000 H
   0.1897650000000000    0.9224300000000001    0.5630850000000001 H
   0.1847650000000000    0.8020800000000000    0.5553350000000000 H
   0.1865350000000000    0.7969999999999999    0.6246550000000000 H
   0.1897650000000000    0.8275749999999999    0.6869149999999999 H
   0.1278350000000000    0.3328950000000000    0.5058000000000000 H
   0.2465150000000000    0.3988650000000000    0.5094050000000000 H
   0.1278550000000000    0.3408750000000000    0.4361100000000000 H
   0.2445250000000000    0.4010050000000000    0.4392650000000000 H
   0.1278350000000000    0.4171100000000000    0.7441900000000000 H
   0.2465150000000000    0.3511350000000000    0.7405900000000000 H
   0.1278550000000000    0.4091300000000000    0.8138900000000000 H
   0.2445250000000000    0.3490000000000000    0.8107350000000000 H
   0.1847650000000000    0.4479250000000000    0.6946650000000000 H
   0.1865350000000000    0.4530050000000000    0.6253400000000000 H
   0.1897650000000000    0.4224300000000000    0.5630850000000001 H
   0.1847650000000000    0.3020800000000000    0.5553350000000000 H
   0.1865350000000000    0.2970000000000000    0.6246550000000000 H
   0.1897650000000000    0.3275750000000000    0.6869149999999999 H
   0.1278350000000000    0.2441900000000000    0.8328900000000000 H
   0.2465150000000000    0.2405900000000000    0.8988650000000000 H
   0.1278550000000000    0.3138900000000000    0.8408750000000000 H
   0.2445250000000000    0.3107350000000000    0.9010050000000001 H
   0.1278400000000000    0.0058100000000000    0.9171100000000000 H
   0.2465150000000000    0.0094100000000000    0.8511350000000000 H
   0.2445250000000000    0.9392700000000000    0.8450000000000000 H
   0.1278550000000000    0.9361150000000000    0.9091000000000000 H
   0.1847700000000000    0.0553350000000000    0.9479000000000000 H
   0.1865350000000000    0.1246600000000000    0.9530050000000000 H
   0.1897650000000000    0.1869150000000000    0.9224300000000001 H
   0.1847650000000000    0.1946650000000000    0.8020800000000000 H
   0.1865400000000000    0.1253450000000000    0.7969950000000000 H
   0.1897700000000000    0.0630850000000000    0.8275699999999999 H
   0.1278350000000000    0.7441900000000000    0.8328900000000000 H
   0.2465150000000000    0.7405900000000000    0.8988650000000000 H
   0.1278550000000000    0.8138900000000000    0.8408750000000000 H
   0.2445250000000000    0.8107350000000000    0.9010050000000001 H
   0.1278400000000000    0.5058100000000000    0.9171100000000000 H
   0.2465150000000000    0.5094100000000000    0.8511350000000000 H
   0.2445250000000000    0.4392700000000000    0.8450000000000000 H
   0.1278550000000000    0.4361150000000000    0.9091000000000000 H
   0.1847700000000000    0.5553350000000000    0.9479000000000000 H
   0.1865350000000000    0.6246600000000000    0.9530050000000000 H
   0.1897650000000000    0.6869149999999999    0.9224300000000001 H
   0.1847650000000000    0.6946650000000000    0.8020800000000000 H
   0.1865400000000000    0.6253450000000000    0.7969950000000000 H
   0.1897700000000000    0.5630850000000001    0.8275699999999999 H
   0.1278350000000000    0.8328949999999999    0.0058000000000000 H
   0.2465150000000000    0.8988650000000000    0.0094050000000000 H
   0.1278550000000000    0.8408750000000000    0.9361100000000000 H
   0.2445250000000000    0.9010050000000001    0.9392650000000000 H
   0.1278350000000000    0.9171100000000000    0.2441900000000000 H
   0.2465150000000000    0.8511350000000000    0.2405900000000000 H
   0.1278550000000000    0.9091300000000000    0.3138900000000000 H
   0.2445250000000000    0.8490000000000000    0.3107350000000000 H
   0.1847650000000000    0.9479250000000000    0.1946650000000000 H
   0.1865350000000000    0.9530050000000000    0.1253400000000000 H
   0.1897650000000000    0.9224300000000001    0.0630850000000000 H
   0.1847650000000000    0.8020800000000000    0.0553350000000000 H
   0.1865350000000000    0.7969999999999999    0.1246550000000000 H
   0.1897650000000000    0.8275749999999999    0.1869150000000000 H
   0.1278350000000000    0.3328950000000000    0.0058000000000000 H
   0.2465150000000000    0.3988650000000000    0.0094050000000000 H
   0.1278550000000000    0.3408750000000000    0.9361100000000000 H
   0.2445250000000000    0.4010050000000000    0.9392650000000000 H
   0.1278350000000000    0.4171100000000000    0.2441900000000000 H
   0.2465150000000000    0.3511350000000000    0.2405900000000000 H
   0.1278550000000000    0.4091300000000000    0.3138900000000000 H
   0.2445250000000000    0.3490000000000000    0.3107350000000000 H
   0.1847650000000000    0.4479250000000000    0.1946650000000000 H
   0.1865350000000000    0.4530050000000000    0.1253400000000000 H
   0.1897650000000000    0.4224300000000000    0.0630850000000000 H
   0.1847650000000000    0.3020800000000000    0.0553350000000000 H
   0.1865350000000000    0.2970000000000000    0.1246550000000000 H
   0.1897650000000000    0.3275750000000000    0.1869150000000000 H
   0.1278350000000000    0.2441900000000000    0.3328900000000000 H
   0.2465150000000000    0.2405900000000000    0.3988650000000000 H
   0.1278550000000000    0.3138900000000000    0.3408750000000000 H
   0.2445250000000000    0.3107350000000000    0.4010050000000000 H
   0.1278400000000000    0.0058100000000000    0.4171100000000000 H
   0.2465150000000000    0.0094100000000000    0.3511350000000000 H
   0.2445250000000000    0.9392700000000000    0.3450000000000000 H
   0.1278550000000000    0.9361150000000000    0.4091000000000000 H
   0.1847700000000000    0.0553350000000000    0.4479000000000000 H
   0.1865350000000000    0.1246600000000000    0.4530050000000000 H
   0.1897650000000000    0.1869150000000000    0.4224300000000000 H
   0.1847650000000000    0.1946650000000000    0.3020800000000000 H
   0.1865400000000000    0.1253450000000000    0.2969950000000000 H
   0.1897700000000000    0.0630850000000000    0.3275700000000000 H
   0.1278350000000000    0.7441900000000000    0.3328900000000000 H
   0.2465150000000000    0.7405900000000000    0.3988650000000000 H
   0.1278550000000000    0.8138900000000000    0.3408750000000000 H
   0.2445250000000000    0.8107350000000000    0.4010050000000000 H
   0.1278400000000000    0.5058100000000000    0.4171100000000000 H
   0.2465150000000000    0.5094100000000000    0.3511350000000000 H
   0.2445250000000000    0.4392700000000000    0.3450000000000000 H
   0.1278550000000000    0.4361150000000000    0.4091000000000000 H
   0.1847700000000000    0.5553350000000000    0.4479000000000000 H
   0.1865350000000000    0.6246600000000000    0.4530050000000000 H
   0.1897650000000000    0.6869149999999999    0.4224300000000000 H
   0.1847650000000000    0.6946650000000000    0.3020800000000000 H
   0.1865400000000000    0.6253450000000000    0.2969950000000000 H
   0.1897700000000000    0.5630850000000001    0.3275700000000000 H
   0.3721650000000000    0.4941900000000000    0.5828900000000000 H
   0.2534900000000000    0.4905950000000000    0.6488650000000000 H
   0.3721500000000000    0.5638900000000000    0.5908700000000000 H
   0.2554800000000000    0.5607350000000000    0.6510000000000000 H
   0.3721650000000000    0.2558100000000000    0.6671050000000001 H
   0.2534900000000000    0.2594100000000000    0.6011350000000000 H
   0.3721500000000000    0.1861100000000000    0.6591250000000000 H
   0.2554800000000000    0.1892650000000000    0.5989949999999999 H
   0.3152400000000000    0.3053350000000000    0.6979200000000000 H
   0.3134700000000000    0.3746600000000000    0.7030000000000001 H
   0.3102400000000000    0.4369200000000000    0.6724000000000000 H
   0.3152350000000000    0.4446650000000000    0.5520750000000000 H
   0.3134650000000000    0.3753450000000000    0.5469950000000000 H
   0.3102350000000000    0.3130850000000000    0.5775700000000000 H
   0.3721700000000000    0.0828900000000000    0.7558100000000000 H
   0.2534900000000000    0.1488650000000000    0.7594099999999999 H
   0.3721500000000000    0.0908750000000000    0.6861100000000000 H
   0.2554800000000000    0.1510050000000000    0.6892650000000000 H
   0.3721650000000000    0.1671100000000000    0.9941900000000000 H
   0.2534900000000000    0.1011350000000000    0.9905900000000001 H
   0.3721500000000000    0.1591250000000000    0.0638850000000000 H
   0.2554800000000000    0.0989950000000000    0.0607000000000000 H
   0.3152400000000000    0.0520800000000000    0.8053350000000000 H
   0.3134700000000000    0.0469950000000000    0.8746550000000000 H
   0.3102400000000000    0.0775700000000000    0.9369149999999999 H
   0.3152400000000000    0.1979250000000000    0.9446650000000000 H
   0.3134700000000000    0.2030050000000000    0.8753000000000000 H
   0.3102400000000000    0.1724300000000000    0.8130850000000001 H
   0.3721650000000000    0.4941900000000000    0.0828900000000000 H
   0.2534900000000000    0.4905950000000000    0.1488650000000000 H
   0.3721500000000000    0.5638900000000000    0.0908700000000000 H
   0.2554800000000000    0.5607350000000000    0.1510000000000000 H
   0.3721650000000000    0.2558100000000000    0.1671050000000000 H
   0.2534900000000000    0.2594100000000000    0.1011350000000000 H
   0.3721500000000000    0.1861100000000000    0.1591250000000000 H
   0.2554800000000000    0.1892650000000000    0.0989950000000000 H
   0.3152400000000000    0.3053350000000000    0.1979200000000000 H
   0.3134700000000000    0.3746600000000000    0.2030000000000000 H
   0.3102400000000000    0.4369200000000000    0.1724000000000000 H
   0.3152350000000000    0.4446650000000000    0.0520750000000000 H
   0.3134650000000000    0.3753450000000000    0.0469950000000000 H
   0.3102350000000000    0.3130850000000000    0.0775700000000000 H
   0.3721700000000000    0.0828900000000000    0.2558100000000000 H
   0.2534900000000000    0.1488650000000000    0.2594100000000000 H
   0.3721500000000000    0.0908750000000000    0.1861100000000000 H
   0.2554800000000000    0.1510050000000000    0.1892650000000000 H
   0.3721650000000000    0.1671100000000000    0.4941900000000000 H
   0.2534900000000000    0.1011350000000000    0.4905900000000000 H
   0.3721500000000000    0.1591250000000000    0.5638850000000000 H
   0.2554800000000000    0.0989950000000000    0.5607000000000000 H
   0.3152400000000000    0.0520800000000000    0.3053350000000000 H
   0.3134700000000000    0.0469950000000000    0.3746550000000000 H
   0.3102400000000000    0.0775700000000000    0.4369150000000000 H
   0.3152400000000000    0.1979250000000000    0.4446650000000000 H
   0.3134700000000000    0.2030050000000000    0.3753000000000000 H
   0.3102400000000000    0.1724300000000000    0.3130850000000000 H
   0.3721650000000000    0.9941900000000000    0.0828900000000000 H
   0.2534900000000000    0.9905950000000000    0.1488650000000000 H
   0.3721500000000000    0.0638900000000000    0.0908700000000000 H
   0.2554800000000000    0.0607350000000000    0.1510000000000000 H
   0.3721650000000000    0.7558100000000000    0.1671050000000000 H
   0.2534900000000000    0.7594099999999999    0.1011350000000000 H
   0.3721500000000000    0.6861100000000000    0.1591250000000000 H
   0.2554800000000000    0.6892650000000000    0.0989950000000000 H
   0.3152400000000000    0.8053350000000000    0.1979200000000000 H
   0.3134700000000000    0.8746600000000000    0.2030000000000000 H
   0.3102400000000000    0.9369200000000000    0.1724000000000000 H
   0.3152350000000000    0.9446650000000000    0.0520750000000000 H