H2 C7 O6
1.0
  32.5335725865392860    0.0000000000000000  -11.5111578373498080
 -12.1494269300167019   37.4704025865375954   -2.6515571415644672
   0.0000000000000000    0.0000000000000000   30.2789999999999999
H C O
2 7 6
direct
   0.9882720000000000    0.4986200000000000    0.0000000000000000 H
   0.0890340000000000    0.5204040000000001    0.9327233333333333 H
   0.0463480000000000    0.4679060000000000    0.9182500000000000 C
   0.0665600000000000    0.4510900000000000    0.8891199999999999 C
   0.0614140000000000    0.5030740000000000    0.9384966666666666 C
   0.0413740000000000    0.5165120000000001    0.9675233333333333 C
   0.0053140000000000    0.4906020000000000    0.9721299999999999 C
   0.9924740000000001    0.4560600000000000    0.9506766666666666 C
   0.9550280000000001    0.4277540000000000    0.9546033333333332 C
   0.0532440000000000    0.5483160000000000    0.0000000000000000 O
   0.0122380000000000    0.4443000000000000    0.9238066666666667 O
   0.0465820000000000    0.4182960000000000    0.8694200000000000 O
   0.1013280000000000    0.4696900000000001    0.8870866666666666 O
   0.9345700000000000    0.4003000000000000    0.9231199999999999 O
   0.9475480000000001    0.4356280000000000    0.9918699999999999 O
