Cd150 H298 C1043 O894
1.0
  32.5335725865392860    0.0000000000000000  -11.5111578373498080
 -12.1494269300167019   37.4704025865375954   -2.6515571415644672
   0.0000000000000000    0.0000000000000000   30.2789999999999999
Cd H C O
150 298 1043 894
direct
   0.0961000000000000    0.0040140000000000    0.1786466666666666 Cd
   0.0961000000000000    0.0040120000000000    0.0119866666666667 Cd
   0.2961000000000000    0.0040140000000000    0.1786466666666666 Cd
   0.2961000000000000    0.0040120000000000    0.0119866666666667 Cd
   0.4961000000000000    0.0040140000000000    0.1786466666666666 Cd
   0.4961000000000000    0.0040120000000000    0.0119866666666667 Cd
   0.6961000000000001    0.0040140000000000    0.1786466666666666 Cd
   0.6961000000000001    0.0040120000000000    0.0119866666666667 Cd
   0.8961000000000000    0.0040140000000000    0.1786466666666666 Cd
   0.8961000000000000    0.0040120000000000    0.0119866666666667 Cd
   0.0961000000000000    0.2040140000000000    0.1786466666666666 Cd
   0.0961000000000000    0.2040120000000000    0.0119866666666667 Cd
   0.2961000000000000    0.2040140000000000    0.1786466666666666 Cd
   0.2961000000000000    0.2040120000000000    0.0119866666666667 Cd
   0.4961000000000000    0.2040140000000000    0.1786466666666666 Cd
   0.4961000000000000    0.2040120000000000    0.0119866666666667 Cd
   0.6961000000000001    0.2040140000000000    0.1786466666666666 Cd
   0.6961000000000001    0.2040120000000000    0.0119866666666667 Cd
   0.8961000000000000    0.2040140000000000    0.1786466666666666 Cd
   0.8961000000000000    0.2040120000000000    0.0119866666666667 Cd
   0.0961000000000000    0.4040140000000000    0.1786466666666666 Cd
   0.0961000000000000    0.4040120000000000    0.0119866666666667 Cd
   0.2961000000000000    0.4040140000000000    0.1786466666666666 Cd
   0.2961000000000000    0.4040120000000000    0.0119866666666667 Cd
   0.4961000000000000    0.4040140000000000    0.1786466666666666 Cd
   0.4961000000000000    0.4040120000000000    0.0119866666666667 Cd
   0.6961000000000001    0.4040140000000000    0.1786466666666666 Cd
   0.6961000000000001    0.4040120000000000    0.0119866666666667 Cd
   0.8961000000000000    0.4040140000000000    0.1786466666666666 Cd
   0.8961000000000000    0.4040120000000000    0.0119866666666667 Cd
   0.0961000000000000    0.6040140000000001    0.1786466666666666 Cd
   0.0961000000000000    0.6040120000000001    0.0119866666666667 Cd
   0.2961000000000000    0.6040140000000001    0.1786466666666666 Cd
   0.2961000000000000    0.6040120000000001    0.0119866666666667 Cd
   0.4961000000000000    0.6040140000000001    0.1786466666666666 Cd
   0.4961000000000000    0.6040120000000001    0.0119866666666667 Cd
   0.6961000000000001    0.6040140000000001    0.1786466666666666 Cd
   0.6961000000000001    0.6040120000000001    0.0119866666666667 Cd
   0.8961000000000000    0.6040140000000001    0.1786466666666666 Cd
   0.8961000000000000    0.6040120000000001    0.0119866666666667 Cd
   0.0961000000000000    0.8040140000000000    0.1786466666666666 Cd
   0.0961000000000000    0.8040120000000001    0.0119866666666667 Cd
   0.2961000000000000    0.8040140000000000    0.1786466666666666 Cd
   0.2961000000000000    0.8040120000000001    0.0119866666666667 Cd
   0.4961000000000000    0.8040140000000000    0.1786466666666666 Cd
   0.4961000000000000    0.8040120000000001    0.0119866666666667 Cd
   0.6961000000000001    0.8040140000000000    0.1786466666666666 Cd
   0.6961000000000001    0.8040120000000001    0.0119866666666667 Cd
   0.8961000000000000    0.8040140000000000    0.1786466666666666 Cd
   0.8961000000000000    0.8040120000000001    0.0119866666666667 Cd
   0.0961000000000000    0.0040140000000000    0.5119800000000000 Cd
   0.0961000000000000    0.0040120000000000    0.3453200000000000 Cd
   0.2961000000000000    0.0040140000000000    0.5119800000000000 Cd
   0.2961000000000000    0.0040120000000000    0.3453200000000000 Cd
   0.4961000000000000    0.0040140000000000    0.5119800000000000 Cd
   0.4961000000000000    0.0040120000000000    0.3453200000000000 Cd
   0.6961000000000001    0.0040140000000000    0.5119800000000000 Cd
   0.6961000000000001    0.0040120000000000    0.3453200000000000 Cd
   0.8961000000000000    0.0040140000000000    0.5119800000000000 Cd
   0.8961000000000000    0.0040120000000000    0.3453200000000000 Cd
   0.0961000000000000    0.2040140000000000    0.5119800000000000 Cd
   0.0961000000000000    0.2040120000000000    0.3453200000000000 Cd
   0.2961000000000000    0.2040140000000000    0.5119800000000000 Cd
   0.2961000000000000    0.2040120000000000    0.3453200000000000 Cd
   0.4961000000000000    0.2040140000000000    0.5119800000000000 Cd
   0.4961000000000000    0.2040120000000000    0.3453200000000000 Cd
   0.6961000000000001    0.2040140000000000    0.5119800000000000 Cd
   0.6961000000000001    0.2040120000000000    0.3453200000000000 Cd
   0.8961000000000000    0.2040140000000000    0.5119800000000000 Cd
   0.8961000000000000    0.2040120000000000    0.3453200000000000 Cd
   0.0961000000000000    0.4040140000000000    0.5119800000000000 Cd
   0.0961000000000000    0.4040120000000000    0.3453200000000000 Cd
   0.2961000000000000    0.4040140000000000    0.5119800000000000 Cd
   0.2961000000000000    0.4040120000000000    0.3453200000000000 Cd
   0.4961000000000000    0.4040140000000000    0.5119800000000000 Cd
   0.4961000000000000    0.4040120000000000    0.3453200000000000 Cd
   0.6961000000000001    0.4040140000000000    0.5119800000000000 Cd
   0.6961000000000001    0.4040120000000000    0.3453200000000000 Cd
   0.8961000000000000    0.4040140000000000    0.5119800000000000 Cd
   0.8961000000000000    0.4040120000000000    0.3453200000000000 Cd
   0.0961000000000000    0.6040140000000001    0.5119800000000000 Cd
   0.0961000000000000    0.6040120000000001    0.3453200000000000 Cd
   0.2961000000000000    0.6040140000000001    0.5119800000000000 Cd
   0.2961000000000000    0.6040120000000001    0.3453200000000000 Cd
   0.4961000000000000    0.6040140000000001    0.5119800000000000 Cd
   0.4961000000000000    0.6040120000000001    0.3453200000000000 Cd
   0.6961000000000001    0.6040140000000001    0.5119800000000000 Cd
   0.6961000000000001    0.6040120000000001    0.3453200000000000 Cd
   0.8961000000000000    0.6040140000000001    0.5119800000000000 Cd
   0.8961000000000000    0.6040120000000001    0.3453200000000000 Cd
   0.0961000000000000    0.8040140000000000    0.5119800000000000 Cd
   0.0961000000000000    0.8040120000000001    0.3453200000000000 Cd
   0.2961000000000000    0.8040140000000000    0.5119800000000000 Cd
   0.2961000000000000    0.8040120000000001    0.3453200000000000 Cd
   0.4961000000000000    0.8040140000000000    0.5119800000000000 Cd
   0.4961000000000000    0.8040120000000001    0.3453200000000000 Cd
   0.6961000000000001    0.8040140000000000    0.5119800000000000 Cd
   0.6961000000000001    0.8040120000000001    0.3453200000000000 Cd
   0.8961000000000000    0.8040140000000000    0.5119800000000000 Cd
   0.8961000000000000    0.8040120000000001    0.3453200000000000 Cd
   0.0961000000000000    0.0040140000000000    0.8453133333333332 Cd
   0.0961000000000000    0.0040120000000000    0.6786533333333333 Cd
   0.2961000000000000    0.0040140000000000    0.8453133333333332 Cd
   0.2961000000000000    0.0040120000000000    0.6786533333333333 Cd
   0.4961000000000000    0.0040140000000000    0.8453133333333332 Cd
   0.4961000000000000    0.0040120000000000    0.6786533333333333 Cd
   0.6961000000000001    0.0040140000000000    0.8453133333333332 Cd
   0.6961000000000001    0.0040120000000000    0.6786533333333333 Cd
   0.8961000000000000    0.0040140000000000    0.8453133333333332 Cd
   0.8961000000000000    0.0040120000000000    0.6786533333333333 Cd
   0.0961000000000000    0.2040140000000000    0.8453133333333332 Cd
   0.0961000000000000    0.2040120000000000    0.6786533333333333 Cd
   0.2961000000000000    0.2040140000000000    0.8453133333333332 Cd
   0.2961000000000000    0.2040120000000000    0.6786533333333333 Cd
   0.4961000000000000    0.2040140000000000    0.8453133333333332 Cd
   0.4961000000000000    0.2040120000000000    0.6786533333333333 Cd
   0.6961000000000001    0.2040140000000000    0.8453133333333332 Cd
   0.6961000000000001    0.2040120000000000    0.6786533333333333 Cd
   0.8961000000000000    0.2040140000000000    0.8453133333333332 Cd
   0.8961000000000000    0.2040120000000000    0.6786533333333333 Cd
   0.0961000000000000    0.4040140000000000    0.8453133333333332 Cd
   0.0961000000000000    0.4040120000000000    0.6786533333333333 Cd
   0.2961000000000000    0.4040140000000000    0.8453133333333332 Cd
   0.2961000000000000    0.4040120000000000    0.6786533333333333 Cd
   0.4961000000000000    0.4040140000000000    0.8453133333333332 Cd
   0.4961000000000000    0.4040120000000000    0.6786533333333333 Cd
   0.6961000000000001    0.4040140000000000    0.8453133333333332 Cd
   0.6961000000000001    0.4040120000000000    0.6786533333333333 Cd
   0.8961000000000000    0.4040140000000000    0.8453133333333332 Cd
   0.8961000000000000    0.4040120000000000    0.6786533333333333 Cd
   0.0961000000000000    0.6040140000000001    0.8453133333333332 Cd
   0.0961000000000000    0.6040120000000001    0.6786533333333333 Cd
   0.2961000000000000    0.6040140000000001    0.8453133333333332 Cd
   0.2961000000000000    0.6040120000000001    0.6786533333333333 Cd
   0.4961000000000000    0.6040140000000001    0.8453133333333332 Cd
   0.4961000000000000    0.6040120000000001    0.6786533333333333 Cd
   0.6961000000000001    0.6040140000000001    0.8453133333333332 Cd
   0.6961000000000001    0.6040120000000001    0.6786533333333333 Cd
   0.8961000000000000    0.6040140000000001    0.8453133333333332 Cd
   0.8961000000000000    0.6040120000000001    0.6786533333333333 Cd
   0.0961000000000000    0.8040140000000000    0.8453133333333332 Cd
   0.0961000000000000    0.8040120000000001    0.6786533333333333 Cd
   0.2961000000000000    0.8040140000000000    0.8453133333333332 Cd
   0.2961000000000000    0.8040120000000001    0.6786533333333333 Cd
   0.4961000000000000    0.8040140000000000    0.8453133333333332 Cd
   0.4961000000000000    0.8040120000000001    0.6786533333333333 Cd
   0.6961000000000001    0.8040140000000000    0.8453133333333332 Cd
   0.6961000000000001    0.8040120000000001    0.6786533333333333 Cd
   0.8961000000000000    0.8040140000000000    0.8453133333333332 Cd
   0.8961000000000000    0.8040120000000001    0.6786533333333333 Cd
   0.0890340000000000    0.1204040000000000    0.2660566666666667 H
   0.0890360000000000    0.1204040000000000    0.0993966666666667 H
   0.1882720000000000    0.0986200000000000    0.1599633333333333 H
   0.1882720000000000    0.0986200000000000    0.0000000000000000 H
   0.2890340000000000    0.1204040000000000    0.2660566666666667 H
   0.2890360000000000    0.1204040000000000    0.0993966666666667 H
   0.3882720000000000    0.0986200000000000    0.1599633333333333 H
   0.3882720000000000    0.0986200000000000    0.0000000000000000 H
   0.4890340000000000    0.1204040000000000    0.2660566666666667 H
   0.4890360000000000    0.1204040000000000    0.0993966666666667 H
   0.5882720000000000    0.0986200000000000    0.1599633333333333 H
   0.5882720000000000    0.0986200000000000    0.0000000000000000 H
   0.6890340000000001    0.1204040000000000    0.2660566666666667 H
   0.6890360000000001    0.1204040000000000    0.0993966666666667 H
   0.7882720000000001    0.0986200000000000    0.1599633333333333 H
   0.7882720000000001    0.0986200000000000    0.0000000000000000 H
   0.8890340000000001    0.1204040000000000    0.2660566666666667 H
   0.8890360000000000    0.1204040000000000    0.0993966666666667 H
   0.9882720000000000    0.0986200000000000    0.1599633333333333 H
   0.9882720000000000    0.0986200000000000    0.0000000000000000 H
   0.0890340000000000    0.3204040000000000    0.2660566666666667 H
   0.0890360000000000    0.3204040000000000    0.0993966666666667 H
   0.1882720000000000    0.2986200000000000    0.1599633333333333 H
   0.1882720000000000    0.2986200000000000    0.0000000000000000 H
   0.2890340000000000    0.3204040000000000    0.2660566666666667 H
   0.2890360000000000    0.3204040000000000    0.0993966666666667 H
   0.3882720000000000    0.2986200000000000    0.1599633333333333 H
   0.3882720000000000    0.2986200000000000    0.0000000000000000 H
   0.4890340000000000    0.3204040000000000    0.2660566666666667 H
   0.4890360000000000    0.3204040000000000    0.0993966666666667 H
   0.5882720000000000    0.2986200000000000    0.1599633333333333 H
   0.5882720000000000    0.2986200000000000    0.0000000000000000 H
   0.6890340000000001    0.3204040000000000    0.2660566666666667 H
   0.6890360000000001    0.3204040000000000    0.0993966666666667 H
   0.7882720000000001    0.2986200000000000    0.1599633333333333 H
   0.7882720000000001    0.2986200000000000    0.0000000000000000 H
   0.8890340000000001    0.3204040000000000    0.2660566666666667 H
   0.8890360000000000    0.3204040000000000    0.0993966666666667 H
   0.9882720000000000    0.2986200000000000    0.1599633333333333 H
   0.9882720000000000    0.2986200000000000    0.0000000000000000 H
   0.0890340000000000    0.5204040000000001    0.2660566666666667 H
   0.0890360000000000    0.5204040000000001    0.0993966666666667 H
   0.1882720000000000    0.4986200000000000    0.1599633333333333 H
   0.1882720000000000    0.4986200000000000    0.0000000000000000 H
   0.2890340000000000    0.5204040000000001    0.2660566666666667 H
   0.2890360000000000    0.5204040000000001    0.0993966666666667 H
   0.3882720000000000    0.4986200000000000    0.1599633333333333 H
   0.3882720000000000    0.4986200000000000    0.0000000000000000 H
   0.4890340000000000    0.5204040000000001    0.2660566666666667 H
   0.4890360000000000    0.5204040000000001    0.0993966666666667 H
   0.5882720000000000    0.4986200000000000    0.1599633333333333 H
   0.5882720000000000    0.4986200000000000    0.0000000000000000 H
   0.6890340000000001    0.5204040000000001    0.2660566666666667 H
   0.6890360000000001    0.5204040000000001    0.0993966666666667 H
   0.7882720000000001    0.4986200000000000    0.1599633333333333 H
   0.7882720000000001    0.4986200000000000    0.0000000000000000 H
   0.8890340000000001    0.5204040000000001    0.2660566666666667 H
   0.8890360000000000    0.5204040000000001    0.0993966666666667 H
   0.9882720000000000    0.4986200000000000    0.1599633333333333 H
   0.0890340000000000    0.7204040000000000    0.2660566666666667 H
   0.0890360000000000    0.7204040000000000    0.0993966666666667 H
   0.1882720000000000    0.6986200000000001    0.1599633333333333 H
   0.1882720000000000    0.6986200000000001    0.0000000000000000 H
   0.2890340000000000    0.7204040000000000    0.2660566666666667 H
   0.2890360000000000    0.7204040000000000    0.0993966666666667 H
   0.3882720000000000    0.6986200000000001    0.1599633333333333 H
   0.3882720000000000    0.6986200000000001    0.0000000000000000 H
   0.4890340000000000    0.7204040000000000    0.2660566666666667 H
   0.4890360000000000    0.7204040000000000    0.0993966666666667 H
   0.5882720000000000    0.6986200000000001    0.1599633333333333 H
   0.5882720000000000    0.6986200000000001    0.0000000000000000 H
   0.6890340000000001    0.7204040000000000    0.2660566666666667 H
   0.6890360000000001    0.7204040000000000    0.0993966666666667 H
   0.7882720000000001    0.6986200000000001    0.1599633333333333 H
   0.7882720000000001    0.6986200000000001    0.0000000000000000 H
   0.8890340000000001    0.7204040000000000    0.2660566666666667 H
   0.8890360000000000    0.7204040000000000    0.0993966666666667 H
   0.9882720000000000    0.6986200000000001    0.1599633333333333 H
   0.9882720000000000    0.6986200000000001    0.0000000000000000 H
   0.0890340000000000    0.9204040000000000    0.2660566666666667 H
   0.0890360000000000    0.9204040000000000    0.0993966666666667 H
   0.1882720000000000    0.8986200000000001    0.1599633333333333 H
   0.1882720000000000    0.8986200000000001    0.0000000000000000 H
   0.2890340000000000    0.9204040000000000    0.2660566666666667 H
   0.2890360000000000    0.9204040000000000    0.0993966666666667 H
   0.3882720000000000    0.8986200000000001    0.1599633333333333 H
   0.3882720000000000    0.8986200000000001    0.0000000000000000 H
   0.4890340000000000    0.9204040000000000    0.2660566666666667 H
   0.4890360000000000    0.9204040000000000    0.0993966666666667 H
   0.5882720000000000    0.8986200000000001    0.1599633333333333 H
   0.5882720000000000    0.8986200000000001    0.0000000000000000 H
   0.6890340000000001    0.9204040000000000    0.2660566666666667 H
   0.6890360000000001    0.9204040000000000    0.0993966666666667 H
   0.7882720000000001    0.8986200000000001    0.1599633333333333 H
   0.7882720000000001    0.8986200000000001    0.0000000000000000 H
   0.8890340000000001    0.9204040000000000    0.2660566666666667 H
   0.8890360000000000    0.9204040000000000    0.0993966666666667 H
   0.9882720000000000    0.8986200000000001    0.1599633333333333 H
   0.9882720000000000    0.8986200000000001    0.0000000000000000 H
   0.0890340000000000    0.1204040000000000    0.5993900000000000 H
   0.0890360000000000    0.1204040000000000    0.4327299999999999 H
   0.1882720000000000    0.0986200000000000    0.4932966666666666 H
   0.1882720000000000    0.0986200000000000    0.3333333333333333 H
   0.2890340000000000    0.1204040000000000    0.5993900000000000 H
   0.2890360000000000    0.1204040000000000    0.4327299999999999 H
   0.3882720000000000    0.0986200000000000    0.4932966666666666 H
   0.3882720000000000    0.0986200000000000    0.3333333333333333 H
   0.4890340000000000    0.1204040000000000    0.5993900000000000 H
   0.4890360000000000    0.1204040000000000    0.4327299999999999 H
   0.5882720000000000    0.0986200000000000    0.4932966666666666 H
   0.5882720000000000    0.0986200000000000    0.3333333333333333 H
   0.6890340000000001    0.1204040000000000    0.5993900000000000 H
   0.6890360000000001    0.1204040000000000    0.4327299999999999 H
   0.7882720000000001    0.0986200000000000    0.4932966666666666 H
   0.7882720000000001    0.0986200000000000    0.3333333333333333 H
   0.8890340000000001    0.1204040000000000    0.5993900000000000 H
   0.8890360000000000    0.1204040000000000    0.4327299999999999 H
   0.9882720000000000    0.0986200000000000    0.4932966666666666 H
   0.9882720000000000    0.0986200000000000    0.3333333333333333 H
   0.0890340000000000    0.3204040000000000    0.5993900000000000 H
   0.0890360000000000    0.3204040000000000    0.4327299999999999 H
   0.1882720000000000    0.2986200000000000    0.4932966666666666 H
   0.1882720000000000    0.2986200000000000    0.3333333333333333 H
   0.2890340000000000    0.3204040000000000    0.5993900000000000 H
   0.2890360000000000    0.3204040000000000    0.4327299999999999 H
   0.3882720000000000    0.2986200000000000    0.4932966666666666 H
   0.3882720000000000    0.2986200000000000    0.3333333333333333 H
   0.4890340000000000    0.3204040000000000    0.5993900000000000 H
   0.4890360000000000    0.3204040000000000    0.4327299999999999 H
   0.5882720000000000    0.2986200000000000    0.4932966666666666 H
   0.5882720000000000    0.2986200000000000    0.3333333333333333 H
   0.6890340000000001    0.3204040000000000    0.5993900000000000 H
   0.6890360000000001    0.3204040000000000    0.4327299999999999 H
   0.7882720000000001    0.2986200000000000    0.4932966666666666 H
   0.7882720000000001    0.2986200000000000    0.3333333333333333 H
   0.8890340000000001    0.3204040000000000    0.5993900000000000 H
   0.8890360000000000    0.3204040000000000    0.4327299999999999 H
   0.9882720000000000    0.2986200000000000    0.4932966666666666 H
   0.9882720000000000    0.2986200000000000    0.3333333333333333 H
   0.0890340000000000    0.5204040000000001    0.5993900000000000 H
   0.0890360000000000    0.5204040000000001    0.4327299999999999 H
   0.1882720000000000    0.4986200000000000    0.4932966666666666 H
   0.1882720000000000    0.4986200000000000    0.3333333333333333 H
   0.2890340000000000    0.5204040000000001    0.5993900000000000 H
   0.2890360000000000    0.5204040000000001    0.4327299999999999 H
   0.3882720000000000    0.4986200000000000    0.4932966666666666 H
   0.3882720000000000    0.4986200000000000    0.3333333333333333 H
   0.4890340000000000    0.5204040000000001    0.5993900000000000 H
   0.4890360000000000    0.5204040000000001    0.4327299999999999 H
   0.5882720000000000    0.4986200000000000    0.4932966666666666 H
   0.5882720000000000    0.4986200000000000    0.3333333333333333 H
   0.6890340000000001    0.5204040000000001    0.5993900000000000 H
   0.6890360000000001    0.5204040000000001    0.4327299999999999 H
   0.7882720000000001    0.4986200000000000    0.4932966666666666 H
   0.7882720000000001    0.4986200000000000    0.3333333333333333 H
   0.8890340000000001    0.5204040000000001    0.5993900000000000 H
   0.8890360000000000    0.5204040000000001    0.4327299999999999 H
   0.9882720000000000    0.4986200000000000    0.4932966666666666 H
   0.9882720000000000    0.4986200000000000    0.3333333333333333 H
   0.0890340000000000    0.7204040000000000    0.5993900000000000 H
   0.0890360000000000    0.7204040000000000    0.4327299999999999 H
   0.1882720000000000    0.6986200000000001    0.4932966666666666 H
   0.1882720000000000    0.6986200000000001    0.3333333333333333 H
   0.2890340000000000    0.7204040000000000    0.5993900000000000 H
   0.2890360000000000    0.7204040000000000    0.4327299999999999 H
   0.3882720000000000    0.6986200000000001    0.4932966666666666 H
   0.3882720000000000    0.6986200000000001    0.3333333333333333 H
   0.4890340000000000    0.7204040000000000    0.5993900000000000 H
   0.4890360000000000    0.7204040000000000    0.4327299999999999 H
   0.5882720000000000    0.6986200000000001    0.4932966666666666 H
   0.5882720000000000    0.6986200000000001    0.3333333333333333 H
   0.6890340000000001    0.7204040000000000    0.5993900000000000 H
   0.6890360000000001    0.7204040000000000    0.4327299999999999 H
   0.7882720000000001    0.6986200000000001    0.4932966666666666 H
   0.7882720000000001    0.6986200000000001    0.3333333333333333 H
   0.8890340000000001    0.7204040000000000    0.5993900000000000 H
   0.8890360000000000    0.7204040000000000    0.4327299999999999 H
   0.9882720000000000    0.6986200000000001    0.4932966666666666 H
   0.9882720000000000    0.6986200000000001    0.3333333333333333 H
   0.0890340000000000    0.9204040000000000    0.5993900000000000 H
   0.0890360000000000    0.9204040000000000    0.4327299999999999 H
   0.1882720000000000    0.8986200000000001    0.4932966666666666 H
   0.1882720000000000    0.8986200000000001    0.3333333333333333 H
   0.2890340000000000    0.9204040000000000    0.5993900000000000 H
   0.2890360000000000    0.9204040000000000    0.4327299999999999 H
   0.3882720000000000    0.8986200000000001    0.4932966666666666 H
   0.3882720000000000    0.8986200000000001    0.3333333333333333 H
   0.4890340000000000    0.9204040000000000    0.5993900000000000 H
   0.4890360000000000    0.9204040000000000    0.4327299999999999 H
   0.5882720000000000    0.8986200000000001    0.4932966666666666 H
   0.5882720000000000    0.8986200000000001    0.3333333333333333 H
   0.6890340000000001    0.9204040000000000    0.5993900000000000 H
   0.6890360000000001    0.9204040000000000    0.4327299999999999 H
   0.7882720000000001    0.8986200000000001    0.4932966666666666 H
   0.7882720000000001    0.8986200000000001    0.3333333333333333 H
   0.8890340000000001    0.9204040000000000    0.5993900000000000 H
   0.8890360000000000    0.9204040000000000    0.4327299999999999 H
   0.9882720000000000    0.8986200000000001    0.4932966666666666 H
   0.9882720000000000    0.8986200000000001    0.3333333333333333 H
   0.0890340000000000    0.1204040000000000    0.9327233333333333 H
   0.0890360000000000    0.1204040000000000    0.7660633333333333 H
   0.1882720000000000    0.0986200000000000    0.8266300000000000 H
   0.1882720000000000    0.0986200000000000    0.6666666666666666 H
   0.2890340000000000    0.1204040000000000    0.9327233333333333 H
   0.2890360000000000    0.1204040000000000    0.7660633333333333 H
   0.3882720000000000    0.0986200000000000    0.8266300000000000 H
   0.3882720000000000    0.0986200000000000    0.6666666666666666 H
   0.4890340000000000    0.1204040000000000    0.9327233333333333 H
   0.4890360000000000    0.1204040000000000    0.7660633333333333 H
   0.5882720000000000    0.0986200000000000    0.8266300000000000 H
   0.5882720000000000    0.0986200000000000    0.6666666666666666 H
   0.6890340000000001    0.1204040000000000    0.9327233333333333 H
   0.6890360000000001    0.1204040000000000    0.7660633333333333 H
   0.7882720000000001    0.0986200000000000    0.8266300000000000 H
   0.7882720000000001    0.0986200000000000    0.6666666666666666 H
   0.8890340000000001    0.1204040000000000    0.9327233333333333 H
   0.8890360000000000    0.1204040000000000    0.7660633333333333 H
   0.9882720000000000    0.0986200000000000    0.8266300000000000 H
   0.9882720000000000    0.0986200000000000    0.6666666666666666 H
   0.0890340000000000    0.3204040000000000    0.9327233333333333 H
   0.0890360000000000    0.3204040000000000    0.7660633333333333 H
   0.1882720000000000    0.2986200000000000    0.8266300000000000 H
   0.1882720000000000    0.2986200000000000    0.6666666666666666 H
   0.2890340000000000    0.3204040000000000    0.9327233333333333 H
   0.2890360000000000    0.3204040000000000    0.7660633333333333 H
   0.3882720000000000    0.2986200000000000    0.8266300000000000 H
   0.3882720000000000    0.2986200000000000    0.6666666666666666 H
   0.4890340000000000    0.3204040000000000    0.9327233333333333 H
   0.4890360000000000    0.3204040000000000    0.7660633333333333 H
   0.5882720000000000    0.2986200000000000    0.8266300000000000 H
   0.5882720000000000    0.2986200000000000    0.6666666666666666 H
   0.6890340000000001    0.3204040000000000    0.9327233333333333 H
   0.6890360000000001    0.3204040000000000    0.7660633333333333 H
   0.7882720000000001    0.2986200000000000    0.8266300000000000 H
   0.7882720000000001    0.2986200000000000    0.6666666666666666 H
   0.8890340000000001    0.3204040000000000    0.9327233333333333 H
   0.8890360000000000    0.3204040000000000    0.7660633333333333 H
   0.9882720000000000    0.2986200000000000    0.8266300000000000 H
   0.9882720000000000    0.2986200000000000    0.6666666666666666 H
   0.0890360000000000    0.5204040000000001    0.7660633333333333 H
   0.1882720000000000    0.4986200000000000    0.8266300000000000 H
   0.1882720000000000    0.4986200000000000    0.6666666666666666 H
   0.2890340000000000    0.5204040000000001    0.9327233333333333 H
   0.2890360000000000    0.5204040000000001    0.7660633333333333 H
   0.3882720000000000    0.4986200000000000    0.8266300000000000 H
   0.3882720000000000    0.4986200000000000    0.6666666666666666 H
   0.4890340000000000    0.5204040000000001    0.9327233333333333 H
   0.4890360000000000    0.5204040000000001    0.7660633333333333 H
   0.5882720000000000    0.4986200000000000    0.8266300000000000 H
   0.5882720000000000    0.4986200000000000    0.6666666666666666 H
   0.6890340000000001    0.5204040000000001    0.9327233333333333 H
   0.6890360000000001    0.5204040000000001    0.7660633333333333 H
   0.7882720000000001    0.4986200000000000    0.8266300000000000 H
   0.7882720000000001    0.4986200000000000    0.6666666666666666 H
   0.8890340000000001    0.5204040000000001    0.9327233333333333 H
   0.8890360000000000    0.5204040000000001    0.7660633333333333 H
   0.9882720000000000    0.4986200000000000    0.8266300000000000 H
   0.9882720000000000    0.4986200000000000    0.6666666666666666 H
   0.0890340000000000    0.7204040000000000    0.9327233333333333 H
   0.0890360000000000    0.7204040000000000    0.7660633333333333 H
   0.1882720000000000    0.6986200000000001    0.8266300000000000 H
   0.1882720000000000    0.6986200000000001    0.6666666666666666 H
   0.2890340000000000    0.7204040000000000    0.9327233333333333 H
   0.2890360000000000    0.7204040000000000    0.7660633333333333 H
   0.3882720000000000    0.6986200000000001    0.8266300000000000 H
   0.3882720000000000    0.6986200000000001    0.6666666666666666 H
   0.4890340000000000    0.7204040000000000    0.9327233333333333 H
   0.4890360000000000    0.7204040000000000    0.7660633333333333 H
   0.5882720000000000    0.6986200000000001    0.8266300000000000 H
   0.5882720000000000    0.6986200000000001    0.6666666666666666 H
   0.6890340000000001    0.7204040000000000    0.9327233333333333 H
   0.6890360000000001    0.7204040000000000    0.7660633333333333 H
   0.7882720000000001    0.6986200000000001    0.8266300000000000 H
   0.7882720000000001    0.6986200000000001    0.6666666666666666 H
   0.8890340000000001    0.7204040000000000    0.9327233333333333 H
   0.8890360000000000    0.7204040000000000    0.7660633333333333 H
   0.9882720000000000    0.6986200000000001    0.8266300000000000 H
   0.9882720000000000    0.6986200000000001    0.6666666666666666 H
   0.0890340000000000    0.9204040000000000    0.9327233333333333 H
   0.0890360000000000    0.9204040000000000    0.7660633333333333 H
   0.1882720000000000    0.8986200000000001    0.8266300000000000 H
   0.1882720000000000    0.8986200000000001    0.6666666666666666 H
   0.2890340000000000    0.9204040000000000    0.9327233333333333 H
   0.2890360000000000    0.9204040000000000    0.7660633333333333 H
   0.3882720000000000    0.8986200000000001    0.8266300000000000 H