C2 O4
1.0
  39.5699989814613957    0.0000000000000000    0.0089781481281564
  -0.0613449339569831   27.8939296725428392    0.0126578952459116
   0.0000000000000000    0.0000000000000000   33.9759999999999991
C O
2 4
direct
   0.3595200000000000    0.0081600000000000    0.3599300000000000 C
   0.3455266666666666    0.9583650000000000    0.3718450000000000 C
   0.3688433333333333    0.0350600000000000    0.3877500000000000 O
   0.3600133333333333    0.0166800000000000    0.3232650000000000 O
   0.3435833333333333    0.9478200000000000    0.4081200000000000 O
   0.3333333333333333    0.9299500000000001    0.3447600000000000 O
