H2 O2
1.0
  39.5699989814613957    0.0000000000000000    0.0089781481281564
  -0.0613449339569831   27.8939296725428392    0.0126578952459116
   0.0000000000000000    0.0000000000000000   33.9759999999999991
H O
2 2
direct
   0.8421315576017165    0.1659739235872929    0.9582693549837603 H
   0.8237912772993171    0.1534350880815722    0.0104429329387797 H
   0.8385266666666666    0.1972450000000000    0.9706000000000000 O
   0.8253066666666666    0.1883300000000000    0.0080000000000000 O
