H3 C2 N4
1.0
  39.5699989814613957    0.0000000000000000    0.0089781481281564
  -0.0613449339569831   27.8939296725428392    0.0126578952459116
   0.0000000000000000    0.0000000000000000   33.9759999999999991
H C N
3 2 4
direct
   0.8123400000000000    0.1356200000000000    0.0690450000000000 H
   0.8110733333333333    0.0808650000000000    0.0456150000000000 H
   0.8530966666666666    0.1506100000000000    0.9243150000000000 H
   0.8232100000000000    0.1400500000000000    0.0113800000000000 C
   0.8434133333333333    0.1548550000000000    0.9538850000000000 C
   0.8253066666666666    0.1883300000000000    0.0080000000000000 N
   0.8096599999999999    0.1174150000000000    0.0430550000000000 N
   0.8385266666666666    0.1972450000000000    0.9706000000000000 N
   0.8344433333333333    0.1180350000000000    0.9778400000000000 N
