La32 H384 C470 O287
1.0
  34.8679999787571973    0.0000000000000000    0.0012171228069226
  -5.0049975720595636   11.8254505243040455   -0.0004482354584042
   0.0000000000000000    0.0000000000000000   35.7500000000000000
La H C O
32 384 470 287
direct
   0.3584800000000000    0.9540500000000000    0.9444900000000001 La
   0.4834750000000000    0.9540600000000000    0.8055150000000000 La
   0.4834750000000000    0.9540600000000000    0.3055150000000000 La
   0.9834750000000000    0.9540600000000000    0.8055150000000000 La
   0.9834750000000000    0.9540600000000000    0.3055150000000000 La
   0.7334750000000000    0.9540600000000000    0.8055150000000000 La
   0.7334750000000000    0.9540600000000000    0.3055150000000000 La
   0.2334750000000000    0.9540600000000000    0.3055150000000000 La
   0.2334750000000000    0.9540600000000000    0.8055150000000000 La
   0.8915250000000000    0.0459100000000000    0.0555100000000000 La
   0.8915250000000000    0.0459100000000000    0.5555099999999999 La
   0.3915250000000000    0.0459100000000000    0.0555100000000000 La
   0.3915250000000000    0.0459100000000000    0.5555099999999999 La
   0.8584800000000000    0.9540500000000000    0.9444900000000001 La
   0.8584800000000000    0.9540500000000000    0.4444900000000000 La
   0.1084800000000000    0.9540500000000000    0.4444900000000000 La
   0.3584800000000000    0.9540500000000000    0.4444900000000000 La
   0.6084800000000000    0.9540500000000000    0.4444900000000000 La
   0.1084800000000000    0.9540500000000000    0.9444900000000001 La
   0.6084800000000000    0.9540500000000000    0.9444900000000001 La
   0.6415250000000000    0.0459100000000000    0.0555000000000000 La
   0.1415250000000000    0.0459100000000000    0.0555000000000000 La
   0.6415250000000000    0.0459100000000000    0.5555000000000000 La
   0.1415250000000000    0.0459100000000000    0.5555000000000000 La
   0.2665200000000000    0.0459100000000000    0.1944850000000000 La
   0.2665200000000000    0.0459100000000000    0.6944850000000000 La
   0.7665200000000000    0.0459100000000000    0.1944850000000000 La
   0.7665200000000000    0.0459100000000000    0.6944850000000000 La
   0.0165250000000000    0.0459100000000000    0.6944850000000000 La
   0.5165250000000000    0.0459100000000000    0.6944850000000000 La
   0.0165250000000000    0.0459100000000000    0.1944850000000000 La
   0.5165250000000000    0.0459100000000000    0.1944850000000000 La
   0.3720090687113457    1.0045722010237674    0.8787671207522509 H
   0.4091841683357109    0.9423267979267004    0.8027511130751052 H
   0.3760331263127599    0.9811148822835827    0.8193484897447161 H
   0.3476927786330642    0.8001419229774314    0.8660004927075754 H
   0.3249424794024459    0.7857698332568092    0.9216496132768225 H
   0.6134750000000000    0.7400800000000000    0.8452900000000000 H
   0.5815100000000000    0.8154800000000000    0.8333950000000000 H
   0.4714600000000000    0.3831000000000000    0.9859800000000001 H
   0.4986350000000000    0.3011400000000000    0.9691950000000000 H
   0.5391150000000000    0.4798500000000000    0.9673000000000000 H
   0.5897850000000000    0.6665200000000000    0.9482150000000000 H
   0.5196250000000000    0.6517300000000000    0.8478550000000000 H
   0.4678950000000000    0.4630300000000000    0.8669450000000001 H
   0.6365250000000000    0.2598800000000000    0.1547100000000000 H
   0.6684900000000000    0.1844800000000000    0.1666050000000000 H
   0.7785400000000000    0.6168600000000000    0.0140000000000000 H
   0.7513650000000001    0.6988200000000000    0.0308100000000000 H
   0.7108900000000000    0.5201100000000000    0.0326750000000000 H
   0.6602200000000000    0.3334400000000000    0.0517900000000000 H
   0.7303750000000000    0.3482300000000000    0.1520000000000000 H
   0.7821100000000001    0.5369200000000000    0.1330550000000000 H
   0.7227300000000000    0.8696800000000000    0.0092200000000000 H
   0.6786700000000000    0.7968600000000000    0.0373250000000000 H
   0.5272800000000000    0.1303100000000000    0.9907500000000000 H
   0.5713400000000000    0.2031300000000000    0.9626749999999999 H
   0.6210050000000000    0.6592600000000000    0.0372950000000000 H
   0.5660200000000000    0.4688100000000000    0.0433300000000000 H
   0.6290000000000000    0.3407200000000000    0.9627049999999999 H
   0.6839850000000001    0.5311700000000000    0.9566700000000000 H
   0.7384850000000001    0.7400900000000000    0.9047050000000000 H
   0.7065150000000000    0.8154900000000000    0.9166099999999999 H
   0.5964600000000000    0.3831000000000000    0.7640250000000000 H
   0.6236349999999999    0.3011500000000000    0.7808100000000000 H
   0.6641150000000000    0.4798500000000000    0.7826750000000000 H
   0.7147850000000000    0.6665300000000000    0.8017900000000000 H
   0.6446250000000000    0.6517500000000001    0.9021500000000000 H
   0.5928949999999999    0.4630500000000000    0.8830600000000000 H
   0.7615149999999999    0.2598700000000000    0.5952950000000000 H
   0.7934850000000000    0.1844700000000000    0.5833900000000000 H
   0.9035450000000000    0.6168600000000000    0.7359800000000000 H
   0.8763700000000000    0.6988100000000000    0.7191900000000000 H
   0.8553750000000000    0.3482000000000000    0.5978500000000000 H
   0.9071100000000001    0.5369000000000000    0.6169400000000000 H
   0.8358900000000000    0.5201100000000000    0.7173250000000000 H
   0.7852150000000000    0.3334400000000000    0.6982100000000000 H
   0.8477300000000000    0.8696700000000001    0.7407500000000000 H
   0.8036749999999999    0.7968400000000000    0.7126700000000000 H
   0.6522749999999999    0.1303100000000000    0.7592250000000000 H
   0.6963350000000000    0.2031400000000000    0.7873000000000000 H
   0.7540000000000000    0.3407300000000000    0.7873000000000000 H
   0.8089850000000001    0.5311800000000000    0.7933350000000000 H
   0.7460100000000001    0.6592500000000000    0.7127000000000000 H
   0.6910250000000000    0.4688100000000000    0.7066500000000000 H
   0.3865250000000000    0.2598800000000000    0.1547100000000000 H
   0.4184900000000000    0.1844800000000000    0.1666050000000000 H
   0.5285400000000000    0.6168600000000000    0.0140200000000000 H
   0.5013700000000000    0.6988200000000000    0.0308100000000000 H
   0.4608900000000000    0.5201100000000000    0.0326750000000000 H
   0.4102200000000000    0.3334400000000000    0.0517900000000000 H
   0.4803750000000000    0.3482300000000000    0.1520000000000000 H
   0.5321100000000000    0.5369200000000000    0.1330550000000000 H
   0.4727300000000000    0.8696800000000000    0.0092000000000000 H
   0.4286700000000000    0.7968600000000000    0.0373250000000000 H
   0.2772800000000000    0.1303100000000000    0.9907800000000000 H
   0.3213400000000000    0.2031300000000000    0.9626749999999999 H
   0.3710050000000000    0.6592600000000000    0.0372950000000000 H
   0.3160200000000000    0.4688100000000000    0.0433300000000000 H
   0.3790000000000000    0.3407300000000000    0.9627049999999999 H
   0.4339850000000000    0.5311700000000000    0.9566700000000000 H
   0.4884850000000000    0.7400900000000000    0.9047050000000000 H
   0.4565150000000000    0.8154900000000000    0.9166099999999999 H
   0.3464600000000000    0.3831000000000000    0.7640250000000000 H
   0.3736350000000000    0.3011500000000000    0.7808100000000000 H
   0.4141150000000000    0.4798500000000000    0.7826750000000000 H
   0.4647850000000000    0.6665300000000000    0.8017900000000000 H
   0.3946250000000000    0.6517500000000001    0.9021500000000000 H
   0.3428950000000000    0.4630500000000000    0.8830600000000000 H
   0.5115150000000001    0.2598700000000000    0.5952950000000000 H
   0.5434850000000000    0.1844700000000000    0.5833900000000000 H
   0.6535450000000000    0.6168600000000000    0.7359800000000000 H
   0.6263700000000000    0.6988100000000000    0.7191900000000000 H
   0.6053750000000000    0.3482000000000000    0.5978500000000000 H
   0.6571100000000000    0.5369000000000000    0.6169400000000000 H
   0.5858900000000000    0.5201100000000000    0.7173250000000000 H
   0.5352150000000000    0.3334400000000000    0.6982100000000000 H
   0.5977300000000000    0.8696700000000001    0.7407750000000000 H
   0.5536750000000000    0.7968400000000000    0.7126700000000000 H
   0.4022750000000000    0.1303100000000000    0.7592250000000000 H
   0.4463350000000000    0.2031400000000000    0.7873000000000000 H
   0.5589850000000000    0.5311800000000000    0.7933350000000000 H
   0.5000000000000000    0.3407300000000000    0.7873000000000000 H
   0.4960100000000000    0.6592500000000000    0.7127000000000000 H
   0.4410250000000000    0.4688100000000000    0.7066500000000000 H
   0.1134750000000000    0.7400800000000000    0.8452900000000000 H
   0.0815100000000000    0.8154800000000000    0.8333950000000000 H
   0.9714600000000000    0.3831000000000000    0.9859800000000001 H
   0.9986349999999999    0.3011400000000000    0.9691950000000000 H
   0.0391150000000000    0.4798500000000000    0.9673000000000000 H
   0.0897850000000000    0.6665200000000000    0.9482150000000000 H
   0.0196250000000000    0.6517300000000000    0.8478550000000000 H
   0.9678949999999999    0.4630300000000000    0.8669450000000001 H
   0.2227300000000000    0.8696800000000000    0.0092200000000000 H
   0.1786700000000000    0.7968600000000000    0.0373250000000000 H
   0.0272800000000000    0.1303100000000000    0.9907500000000000 H
   0.0713400000000000    0.2031300000000000    0.9626749999999999 H
   0.1210050000000000    0.6592600000000000    0.0372950000000000 H
   0.0660200000000000    0.4688100000000000    0.0433300000000000 H
   0.1290000000000000    0.3407200000000000    0.9627049999999999 H
   0.1839850000000000    0.5311700000000000    0.9566700000000000 H
   0.1947877728579740    0.2270738231294404    0.0315778207463900 H
   0.1582185532075939    1.1587675004988309    0.9220437058255331 H
   0.1777578970482328    1.1979573182772292    0.9756297291453682 H
   0.1365250000000000    0.2598800000000000    0.1547100000000000 H
   0.1684900000000000    0.1844800000000000    0.1666050000000000 H
   0.2785400000000000    0.6168600000000000    0.0140000000000000 H
   0.2513650000000000    0.6988200000000000    0.0308100000000000 H
   0.2108900000000000    0.5201100000000000    0.0326750000000000 H
   0.1602200000000000    0.3334400000000000    0.0517900000000000 H
   0.2303750000000000    0.3482300000000000    0.1520000000000000 H
   0.2821100000000000    0.5369200000000000    0.1330550000000000 H
   0.2384850000000000    0.7400900000000000    0.9047050000000000 H
   0.2065150000000000    0.8154900000000000    0.9166099999999999 H
   0.0964600000000000    0.3831000000000000    0.7640250000000000 H
   0.1236350000000000    0.3011500000000000    0.7808100000000000 H
   0.1641150000000000    0.4798500000000000    0.7826750000000000 H
   0.2147850000000000    0.6665300000000000    0.8017900000000000 H
   0.1446250000000000    0.6517500000000001    0.9021500000000000 H
   0.0928950000000000    0.4630500000000000    0.8830600000000000 H
   0.2615150000000000    0.2598700000000000    0.5952950000000000 H
   0.2934850000000000    0.1844700000000000    0.5833900000000000 H
   0.4035450000000000    0.6168600000000000    0.7359800000000000 H
   0.3763700000000000    0.6988100000000000    0.7191900000000000 H
   0.3553750000000000    0.3482000000000000    0.5978500000000000 H
   0.4071100000000000    0.5369000000000000    0.6169400000000000 H
   0.3358900000000000    0.5201100000000000    0.7173250000000000 H
   0.2852150000000000    0.3334400000000000    0.6982100000000000 H
   0.3477300000000000    0.8696700000000001    0.7407500000000000 H
   0.3036750000000000    0.7968400000000000    0.7126700000000000 H
   0.1522750000000000    0.1303100000000000    0.7592250000000000 H
   0.1963350000000000    0.2031400000000000    0.7873000000000000 H
   0.2540000000000000    0.3407300000000000    0.7873000000000000 H
   0.3089850000000000    0.5311800000000000    0.7933350000000000 H
   0.2460100000000000    0.6592500000000000    0.7127000000000000 H
   0.1910250000000000    0.4688100000000000    0.7066500000000000 H
   0.8634750000000000    0.7400800000000000    0.8452900000000000 H
   0.8315100000000000    0.8154800000000000    0.8333950000000000 H
   0.7214600000000000    0.3831000000000000    0.9859800000000001 H
   0.7486349999999999    0.3011400000000000    0.9691950000000000 H
   0.7891150000000000    0.4798500000000000    0.9673000000000000 H
   0.8397850000000000    0.6665200000000000    0.9482150000000000 H
   0.7696250000000000    0.6517300000000000    0.8478550000000000 H
   0.7178949999999999    0.4630300000000000    0.8669450000000001 H
   0.8865250000000000    0.2598800000000000    0.1547100000000000 H
   0.9184900000000000    0.1844800000000000    0.1666050000000000 H
   0.0285400000000000    0.6168600000000000    0.0140200000000000 H
   0.0013700000000000    0.6988200000000000    0.0308100000000000 H
   0.9608900000000000    0.5201100000000000    0.0326750000000000 H
   0.9102200000000000    0.3334400000000000    0.0517900000000000 H
   0.9803750000000000    0.3482300000000000    0.1520000000000000 H
   0.0321100000000000    0.5369200000000000    0.1330550000000000 H
   0.9727300000000000    0.8696800000000000    0.0092000000000000 H
   0.9286700000000000    0.7968600000000000    0.0373250000000000 H
   0.7772800000000000    0.1303100000000000    0.9907800000000000 H
   0.8213400000000000    0.2031300000000000    0.9626749999999999 H
   0.8710050000000000    0.6592600000000000    0.0372950000000000 H
   0.8160200000000000    0.4688100000000000    0.0433300000000000 H
   0.8790000000000000    0.3407300000000000    0.9627049999999999 H
   0.9339850000000001    0.5311700000000000    0.9566700000000000 H
   0.9884850000000001    0.7400900000000000    0.9047050000000000 H
   0.9565150000000000    0.8154900000000000    0.9166099999999999 H
   0.8464600000000000    0.3831000000000000    0.7640250000000000 H
   0.8736349999999999    0.3011500000000000    0.7808100000000000 H
   0.9141150000000000    0.4798500000000000    0.7826750000000000 H
   0.9647850000000000    0.6665300000000000    0.8017900000000000 H
   0.8946250000000000    0.6517500000000001    0.9021500000000000 H
   0.8428949999999999    0.4630500000000000    0.8830600000000000 H
   0.0115150000000000    0.2598700000000000    0.5952950000000000 H
   0.0434850000000000    0.1844700000000000    0.5833900000000000 H
   0.1535450000000000    0.6168600000000000    0.7359800000000000 H
   0.1263700000000000    0.6988100000000000    0.7191900000000000 H
   0.1053750000000000    0.3482000000000000    0.5978500000000000 H
   0.1571100000000000    0.5369000000000000    0.6169400000000000 H
   0.0858900000000000    0.5201100000000000    0.7173250000000000 H
   0.0352150000000000    0.3334400000000000    0.6982100000000000 H
   0.0977300000000000    0.8696700000000001    0.7407750000000000 H
   0.0536750000000000    0.7968400000000000    0.7126700000000000 H
   0.9022749999999999    0.1303100000000000    0.7592250000000000 H
   0.9463349999999999    0.2031400000000000    0.7873000000000000 H
   0.0589850000000000    0.5311800000000000    0.7933350000000000 H
   0.0000000000000000    0.3407300000000000    0.7873000000000000 H
   0.9960100000000001    0.6592500000000000    0.7127000000000000 H
   0.9410250000000000    0.4688100000000000    0.7066500000000000 H
   0.1134750000000000    0.7400800000000000    0.3452900000000000 H
   0.0815100000000000    0.8154800000000000    0.3333950000000000 H
   0.9714600000000000    0.3831000000000000    0.4859800000000000 H
   0.9986349999999999    0.3011400000000000    0.4691950000000000 H
   0.0391150000000000    0.4798500000000000    0.4673000000000000 H
   0.0897850000000000    0.6665200000000000    0.4482150000000000 H
   0.0196250000000000    0.6517300000000000    0.3478550000000000 H
   0.9678949999999999    0.4630300000000000    0.3669450000000000 H
   0.1365250000000000    0.2598800000000000    0.6547100000000000 H
   0.1684900000000000    0.1844800000000000    0.6666050000000000 H
   0.2785400000000000    0.6168600000000000    0.5140000000000000 H
   0.2513650000000000    0.6988200000000000    0.5308100000000000 H
   0.2108900000000000    0.5201100000000000    0.5326750000000000 H
   0.1602200000000000    0.3334400000000000    0.5517900000000000 H
   0.2303750000000000    0.3482300000000000    0.6520000000000000 H
   0.2821100000000000    0.5369200000000000    0.6330550000000000 H
   0.2227300000000000    0.8696800000000000    0.5092200000000000 H
   0.1786700000000000    0.7968600000000000    0.5373250000000001 H
   0.0272800000000000    0.1303100000000000    0.4907500000000000 H
   0.0713400000000000    0.2031300000000000    0.4626750000000000 H
   0.1210050000000000    0.6592600000000000    0.5372950000000000 H
   0.0660200000000000    0.4688100000000000    0.5433300000000000 H
   0.1290000000000000    0.3407200000000000    0.4627050000000000 H
   0.1839850000000000    0.5311700000000000    0.4566700000000000 H
   0.2384850000000000    0.7400900000000000    0.4047050000000000 H
   0.2065150000000000    0.8154900000000000    0.4166100000000000 H
   0.0964600000000000    0.3831000000000000    0.2640250000000000 H
   0.1236350000000000    0.3011500000000000    0.2808100000000000 H
   0.1641150000000000    0.4798500000000000    0.2826750000000000 H
   0.2147850000000000    0.6665300000000000    0.3017900000000000 H
   0.1446250000000000    0.6517500000000001    0.4021500000000000 H
   0.0928950000000000    0.4630500000000000    0.3830600000000000 H
   0.2615150000000000    0.2598700000000000    0.0952950000000000 H
   0.2934850000000000    0.1844700000000000    0.0833900000000000 H
   0.4035450000000000    0.6168600000000000    0.2359800000000000 H
   0.3763700000000000    0.6988100000000000    0.2191900000000000 H
   0.3553750000000000    0.3482000000000000    0.0978500000000000 H
   0.4071100000000000    0.5369000000000000    0.1169400000000000 H
   0.3358900000000000    0.5201100000000000    0.2173250000000000 H
   0.2852150000000000    0.3334400000000000    0.1982100000000000 H
   0.3477300000000000    0.8696700000000001    0.2407500000000000 H
   0.3036750000000000    0.7968400000000000    0.2126700000000000 H
   0.1522750000000000    0.1303100000000000    0.2592250000000000 H
   0.1963350000000000    0.2031400000000000    0.2873000000000000 H
   0.2540000000000000    0.3407300000000000    0.2873000000000000 H
   0.3089850000000000    0.5311800000000000    0.2933350000000000 H
   0.2460100000000000    0.6592500000000000    0.2127000000000000 H
   0.1910250000000000    0.4688100000000000    0.2066500000000000 H
   0.8634750000000000    0.7400800000000000    0.3452900000000000 H
   0.8315100000000000    0.8154800000000000    0.3333950000000000 H
   0.7214600000000000    0.3831000000000000    0.4859800000000000 H
   0.7486349999999999    0.3011400000000000    0.4691950000000000 H
   0.7891150000000000    0.4798500000000000    0.4673000000000000 H
   0.8397850000000000    0.6665200000000000    0.4482150000000000 H
   0.7696250000000000    0.6517300000000000    0.3478550000000000 H
   0.7178949999999999    0.4630300000000000    0.3669450000000000 H
   0.8865250000000000    0.2598800000000000    0.6547100000000000 H
   0.9184900000000000    0.1844800000000000    0.6666050000000000 H
   0.0285400000000000    0.6168600000000000    0.5140200000000000 H
   0.0013700000000000    0.6988200000000000    0.5308100000000000 H
   0.9608900000000000    0.5201100000000000    0.5326750000000000 H
   0.9102200000000000    0.3334400000000000    0.5517900000000000 H
   0.9803750000000000    0.3482300000000000    0.6520000000000000 H
   0.0321100000000000    0.5369200000000000    0.6330550000000000 H
   0.9727300000000000    0.8696800000000000    0.5092000000000000 H
   0.9286700000000000    0.7968600000000000    0.5373250000000001 H
   0.7772800000000000    0.1303100000000000    0.4907800000000000 H
   0.8213400000000000    0.2031300000000000    0.4626750000000000 H
   0.8710050000000000    0.6592600000000000    0.5372950000000000 H
   0.8160200000000000    0.4688100000000000    0.5433300000000000 H
   0.8790000000000000    0.3407300000000000    0.4627050000000000 H
   0.9339850000000001    0.5311700000000000    0.4566700000000000 H
   0.9884850000000001    0.7400900000000000    0.4047050000000000 H
   0.9565150000000000    0.8154900000000000    0.4166100000000000 H
   0.8464600000000000    0.3831000000000000    0.2640250000000000 H
   0.8736349999999999    0.3011500000000000    0.2808100000000000 H
   0.9141150000000000    0.4798500000000000    0.2826750000000000 H
   0.9647850000000000    0.6665300000000000    0.3017900000000000 H
   0.8946250000000000    0.6517500000000001    0.4021500000000000 H
   0.8428949999999999    0.4630500000000000    0.3830600000000000 H
   0.0115150000000000    0.2598700000000000    0.0952950000000000 H
   0.0434850000000000    0.1844700000000000    0.0833900000000000 H
   0.1535450000000000    0.6168600000000000    0.2359800000000000 H
   0.1263700000000000    0.6988100000000000    0.2191900000000000 H
   0.1053750000000000    0.3482000000000000    0.0978500000000000 H
   0.1571100000000000    0.5369000000000000    0.1169400000000000 H
   0.0858900000000000    0.5201100000000000    0.2173250000000000 H
   0.0352150000000000    0.3334400000000000    0.1982100000000000 H
   0.0977300000000000    0.8696700000000001    0.2407750000000000 H
   0.0536750000000000    0.7968400000000000    0.2126700000000000 H
   0.9022749999999999    0.1303100000000000    0.2592250000000000 H
   0.9463349999999999    0.2031400000000000    0.2873000000000000 H
   0.0589850000000000    0.5311800000000000    0.2933350000000000 H
   0.0000000000000000    0.3407300000000000    0.2873000000000000 H
   0.9960100000000001    0.6592500000000000    0.2127000000000000 H
   0.9410250000000000    0.4688100000000000    0.2066500000000000 H
   0.6134750000000000    0.7400800000000000    0.3452900000000000 H
   0.5815100000000000    0.8154800000000000    0.3333950000000000 H
   0.4714600000000000    0.3831000000000000    0.4859800000000000 H
   0.4986350000000000    0.3011400000000000    0.4691950000000000 H
   0.5391150000000000    0.4798500000000000    0.4673000000000000 H
   0.5897850000000000    0.6665200000000000    0.4482150000000000 H
   0.5196250000000000    0.6517300000000000    0.3478550000000000 H
   0.4678950000000000    0.4630300000000000    0.3669450000000000 H
   0.6365250000000000    0.2598800000000000    0.6547100000000000 H
   0.6684900000000000    0.1844800000000000    0.6666050000000000 H
   0.7785400000000000    0.6168600000000000    0.5140000000000000 H
   0.7513650000000001    0.6988200000000000    0.5308100000000000 H
   0.7108900000000000    0.5201100000000000    0.5326750000000000 H
   0.6602200000000000    0.3334400000000000    0.5517900000000000 H
   0.7303750000000000    0.3482300000000000    0.6520000000000000 H
   0.7821100000000001    0.5369200000000000    0.6330550000000000 H
   0.7227300000000000    0.8696800000000000    0.5092200000000000 H
   0.6786700000000000    0.7968600000000000    0.5373250000000001 H
   0.5272800000000000    0.1303100000000000    0.4907500000000000 H
   0.5713400000000000    0.2031300000000000    0.4626750000000000 H
   0.6210050000000000    0.6592600000000000    0.5372950000000000 H
   0.5660200000000000    0.4688100000000000    0.5433300000000000 H
   0.6290000000000000    0.3407200000000000    0.4627050000000000 H
   0.6839850000000001    0.5311700000000000    0.4566700000000000 H
   0.7384850000000001    0.7400900000000000    0.4047050000000000 H
   0.7065150000000000    0.8154900000000000    0.4166100000000000 H
   0.5964600000000000    0.3831000000000000    0.2640250000000000 H
   0.6236349999999999    0.3011500000000000    0.2808100000000000 H
   0.6641150000000000    0.4798500000000000    0.2826750000000000 H
   0.7147850000000000    0.6665300000000000    0.3017900000000000 H
   0.6446250000000000    0.6517500000000001    0.4021500000000000 H
   0.5928949999999999    0.4630500000000000    0.3830600000000000 H
   0.7615149999999999    0.2598700000000000    0.0952950000000000 H
   0.7934850000000000    0.1844700000000000    0.0833900000000000 H
   0.9035450000000000    0.6168600000000000    0.2359800000000000 H
   0.8763700000000000    0.6988100000000000    0.2191900000000000 H
   0.8553750000000000    0.3482000000000000    0.0978500000000000 H
   0.9071100000000001    0.5369000000000000    0.1169400000000000 H
   0.8358900000000000    0.5201100000000000    0.2173250000000000 H
   0.7852150000000000    0.3334400000000000    0.1982100000000000 H
   0.8477300000000000    0.8696700000000001    0.2407500000000000 H
   0.8036749999999999    0.7968400000000000    0.2126700000000000 H
   0.6522749999999999    0.1303100000000000    0.2592250000000000 H
   0.6963350000000000    0.2031400000000000    0.2873000000000000 H
   0.7540000000000000    0.3407300000000000    0.2873000000000000 H
   0.8089850000000001    0.5311800000000000    0.2933350000000000 H
   0.7460100000000001    0.6592500000000000    0.2127000000000000 H
   0.6910250000000000    0.4688100000000000    0.2066500000000000 H
   0.3634750000000000    0.7400800000000000    0.3452900000000000 H
   0.3315100000000000    0.8154800000000000    0.3333950000000000 H
   0.2214600000000000    0.3831000000000000    0.4859800000000000 H
   0.2486350000000000    0.3011400000000000    0.4691950000000000 H
   0.2891150000000000    0.4798500000000000    0.4673000000000000 H
   0.3397850000000000    0.6665200000000000    0.4482150000000000 H
   0.2696250000000000    0.6517300000000000    0.3478550000000000 H
   0.2178950000000000    0.4630300000000000    0.3669450000000000 H
   0.3865250000000000    0.2598800000000000    0.6547100000000000 H
   0.4184900000000000    0.1844800000000000    0.6666050000000000 H
   0.5285400000000000    0.6168600000000000    0.5140200000000000 H
   0.5013700000000000    0.6988200000000000    0.5308100000000000 H
   0.4608900000000000    0.5201100000000000    0.5326750000000000 H
   0.4102200000000000    0.3334400000000000    0.5517900000000000 H
   0.4803750000000000    0.3482300000000000    0.6520000000000000 H
   0.5321100000000000    0.5369200000000000    0.6330550000000000 H
   0.4727300000000000    0.8696800000000000    0.5092000000000000 H
   0.4286700000000000    0.7968600000000000    0.5373250000000001 H
   0.2772800000000000    0.1303100000000000    0.4907800000000000 H
   0.3213400000000000    0.2031300000000000    0.4626750000000000 H
   0.3710050000000000    0.6592600000000000    0.5372950000000000 H
   0.3160200000000000    0.4688100000000000    0.5433300000000000 H
   0.3790000000000000    0.3407300000000000    0.4627050000000000 H
   0.4339850000000000    0.5311700000000000    0.4566700000000000 H
   0.4884850000000000    0.7400900000000000    0.4047050000000000 H
   0.4565150000000000    0.8154900000000000    0.4166100000000000 H
   0.3464600000000000    0.3831000000000000    0.2640250000000000 H
   0.3736350000000000    0.3011500000000000    0.2808100000000000 H
   0.4141150000000000    0.4798500000000000    0.2826750000000000 H
   0.4647850000000000    0.6665300000000000    0.3017900000000000 H
   0.3946250000000000    0.6517500000000001    0.4021500000000000 H
   0.3428950000000000    0.4630500000000000    0.3830600000000000 H
   0.5115150000000001    0.2598700000000000    0.0952950000000000 H
   0.5434850000000000    0.1844700000000000    0.0833900000000000 H
   0.6535450000000000    0.6168600000000000    0.2359800000000000 H
   0.6263700000000000    0.6988100000000000    0.2191900000000000 H
   0.6053750000000000    0.3482000000000000    0.0978500000000000 H
   0.6571100000000000    0.5369000000000000    0.1169400000000000 H
   0.5858900000000000    0.5201100000000000    0.2173250000000000 H
   0.5352150000000000    0.3334400000000000    0.1982100000000000 H
   0.5977300000000000    0.8696700000000001    0.2407750000000000 H
   0.5536750000000000    0.7968400000000000    0.2126700000000000 H
   0.4022750000000000    0.1303100000000000    0.2592250000000000 H
   0.4463350000000000    0.2031400000000000    0.2873000000000000 H
   0.5589850000000000    0.5311800000000000    0.2933350000000000 H
   0.5000000000000000    0.3407300000000000    0.2873000000000000 H
   0.4960100000000000    0.6592500000000000    0.2127000000000000 H
   0.4410250000000000    0.4688100000000000    0.2066500000000000 H
   0.6414299999999999    0.9196200000000000    0.8561799999999999 C
   0.4334800000000000    0.2104000000000000    0.9745600000000000 C
   0.6037800000000000    0.8081100000000000    0.8540500000000000 C
   0.4703400000000000    0.3187900000000000    0.9651000000000001 C
   0.4990950000000000    0.4595700000000000    0.9187950000000000 C
   0.5338050000000000    0.5164800000000001    0.9414350000000000 C
   0.5628250000000000    0.6222700000000000    0.9306950000000001 C
   0.5572700000000000    0.6719000000000001    0.8976649999999999 C
   0.5237400000000000    0.6138800000000000    0.8740300000000000 C
   0.4947200000000000    0.5079000000000000    0.8846450000000000 C
   0.6085750000000000    0.0803400000000000    0.1438000000000000 C
   0.8165200000000000    0.7895500000000000    0.0254400000000000 C
   0.6462250000000000    0.1918500000000000    0.1459450000000000 C
   0.7796600000000000    0.6811700000000001    0.0348800000000000 C
   0.7509100000000000    0.5403900000000000    0.0812050000000000 C
   0.7161999999999999    0.4834800000000000    0.0585650000000000 C
   0.6871750000000000    0.3776900000000000    0.0693050000000000 C
   0.6927300000000001    0.3280600000000000    0.1023350000000000 C
   0.7262649999999999    0.3860800000000000    0.1259700000000000 C
   0.7552800000000000    0.4920500000000000    0.1153500000000000 C