H9 C17 N2 O2
1.0
  31.4999999952022769    0.0000000000000000    0.0005497787143508
 -15.7318111365213031   27.2856763534027920    0.0005497089011807
   0.0000000000000000    0.0000000000000000   32.8280000000000030
H C N O
9 17 2 2
direct
   0.6845749999999999    0.7628800000000000    0.0176200000000000 H
   0.6773300000000000    0.7036000000000000    0.0717400000000000 H
   0.7242100000000000    0.7327049999999999    0.8925750000000000 H
   0.6928500000000000    0.6693150000000000    0.9262049999999999 H
   0.6860300000000000    0.6108100000000000    0.9790950000000000 H
   0.7416100000000000    0.8527100000000001    0.8043050000000000 H
   0.7727700000000000    0.7430900000000000    0.8507650000000000 H
   0.7874650000000001    0.8588000000000000    0.7411200000000000 H
   0.8164300000000000    0.7473100000000000    0.7877650000000000 H
   0.6849550000000000    0.7294400000000000    0.0099350000000000 C
   0.6808100000000000    0.6965800000000000    0.0397700000000000 C
   0.6811100000000000    0.6532450000000000    0.0289250000000000 C
   0.6760200000000001    0.6197100000000000    0.0595350000000000 C
   0.7280850000000000    0.7985150000000000    0.8701250000000000 C
   0.7121649999999999    0.7590200000000000    0.8984950000000000 C
   0.6943400000000000    0.7586050000000000    0.9387350000000000 C
   0.6902750000000000    0.7211600000000000    0.9684500000000000 C
   0.6903750000000000    0.6777150000000001    0.9580100000000000 C
   0.6859900000000000    0.6442500000000000    0.9874550000000000 C
   0.7539250000000000    0.7980750000000000    0.8325899999999999 C
   0.7587050000000000    0.8302849999999999    0.8005450000000001 C
   0.7752450000000000    0.7682700000000000    0.8269150000000001 C
   0.7839900000000000    0.8334699999999999    0.7652200000000000 C
   0.8003600000000000    0.7706850000000001    0.7915950000000000 C
   0.8055000000000000    0.8036500000000000    0.7600700000000000 C
   0.8312450000000000    0.8060900000000000    0.7243100000000000 C
   0.6700150000000000    0.5918500000000000    0.0857350000000000 N
   0.8539050000000000    0.8084249999999999    0.6951250000000000 N
   0.7214250000000000    0.8355049999999999    0.8749450000000000 O
   0.6823950000000000    0.7894300000000001    0.9516500000000000 O
