H8 O5
1.0
  18.2798941307748706    0.0000000000000000   -0.0622138864117165
  -4.2588008424730992   13.6399199859895486    0.1389178172636606
   0.0000000000000000    0.0000000000000000   15.3239999999999998
H O
8 5
direct
   0.4614470673172877    0.1127105377978836    0.2911221655668019 H
   0.5253822130257014    0.3904413339008341    0.3226577572078251 H
   0.4806397793077772    0.2581521303876411    0.3100692375843923 H
   0.3726391924888633    0.4631843923272624    0.2536692532347351 H
   0.4094536800473924    0.5141283502683549    0.2477632072526296 H
   0.2539920096552977    0.3909736091143368    0.2875836499125258 H
   0.1326008176066110    0.2178666079250150    0.2597686618667935 H
   0.2352407524117377    0.2424217063193767    0.2769756043615894 H
   0.5072100000000000    0.1686800000000000    0.2918800000000000 O
   0.5422800000000000    0.3335400000000000    0.3110900000000000 O
   0.3575200000000000    0.5073800000000001    0.2666300000000000 O
   0.2353900000000000    0.4453500000000000    0.3035300000000000 O
   0.1809400000000000    0.2385900000000000    0.2741000000000000 O
