H3 O2
1.0
  18.2798941307748706    0.0000000000000000   -0.0622138864117165
  -4.2588008424730992   13.6399199859895486    0.1389178172636606
   0.0000000000000000    0.0000000000000000   15.3239999999999998
H O
3 2
direct
   0.1835129295734888    0.2598898897832125    0.4345600903637605 H
   0.1966665909830443    0.2766474645478993    0.6405770743638549 H
   0.2165400042392327    0.2073112203661677    0.5410554178290443 H
   0.1653800000000000    0.3088800000000000    0.4634200000000000 O
   0.1748300000000000    0.3200000000000000    0.6074400000000000 O
