H5 O3
1.0
  37.3299899704536244    0.0000000000000000    0.0273643167596433
  -0.0325794021461510   16.5179556268652874  -10.4087778577249512
   0.0000000000000000    0.0000000000000000   38.9519999999999982
H O
5 3
direct
   0.4088388254758112    0.5484598361811884    0.2847146999527115 H
   0.3917551427380712    0.5613182505516799    0.2461463082463590 H
   0.3557731541502911    0.2559667536276633    0.2780459654828453 H
   0.3662566981794659    0.1958618345885554    0.1310378027510365 H
   0.3363983822932182    0.2351465411528902    0.1192412268685119 H
   0.3988650000000000    0.5811200000000000    0.2748100000000000 O
   0.3801750000000000    0.2495500000000000    0.2850650000000000 O
   0.3601100000000000    0.2101900000000000    0.1112200000000000 O
