Zn64 H756 C567 N252 O189
1.0
  37.3299899704536244    0.0000000000000000    0.0273643167596433
  -0.0325794021461510   16.5179556268652874  -10.4087778577249512
   0.0000000000000000    0.0000000000000000   38.9519999999999982
Zn H C N O
64 756 567 252 189
direct
   0.1421700000000000    0.2038600000000000    0.3187000000000000 Zn
   0.1421700000000000    0.7038500000000000    0.0686950000000000 Zn
   0.1421700000000000    0.7038500000000000    0.3186950000000000 Zn
   0.3921700000000000    0.2038600000000000    0.0687000000000000 Zn
   0.3921650000000000    0.2038600000000000    0.3187000000000000 Zn
   0.3921650000000000    0.7038500000000000    0.0686950000000000 Zn
   0.3921650000000000    0.7038500000000000    0.3186950000000000 Zn
   0.0172000000000000    0.2960900000000000    0.1812650000000000 Zn
   0.0172000000000000    0.2960900000000000    0.4312650000000000 Zn
   0.0172000000000000    0.7960800000000000    0.1812650000000000 Zn
   0.0172000000000000    0.7960800000000000    0.4312650000000000 Zn
   0.2671950000000000    0.2960900000000000    0.1812650000000000 Zn
   0.2671950000000000    0.2960900000000000    0.4312650000000000 Zn
   0.2671950000000000    0.7960800000000000    0.1812650000000000 Zn
   0.2671950000000000    0.7960800000000000    0.4312650000000000 Zn
   0.1421750000000000    0.2038600000000000    0.0687000000000000 Zn
   0.6421700000000000    0.2038600000000000    0.3187000000000000 Zn
   0.6421700000000000    0.7038500000000000    0.0686950000000000 Zn
   0.6421700000000000    0.7038500000000000    0.3186950000000000 Zn
   0.8921700000000000    0.2038600000000000    0.0687000000000000 Zn
   0.8921650000000000    0.2038600000000000    0.3187000000000000 Zn
   0.8921650000000000    0.7038500000000000    0.0686950000000000 Zn
   0.8921650000000000    0.7038500000000000    0.3186950000000000 Zn
   0.5172000000000000    0.2960900000000000    0.1812650000000000 Zn
   0.5172000000000000    0.2960900000000000    0.4312650000000000 Zn
   0.5172000000000000    0.7960800000000000    0.1812650000000000 Zn
   0.5172000000000000    0.7960800000000000    0.4312650000000000 Zn
   0.7671950000000001    0.2960900000000000    0.1812650000000000 Zn
   0.7671950000000001    0.2960900000000000    0.4312650000000000 Zn
   0.7671950000000001    0.7960800000000000    0.1812650000000000 Zn
   0.7671950000000001    0.7960800000000000    0.4312650000000000 Zn
   0.6421749999999999    0.2038600000000000    0.0687000000000000 Zn
   0.1421700000000000    0.2038600000000000    0.8187000000000000 Zn
   0.1421700000000000    0.7038500000000000    0.5686950000000000 Zn
   0.1421700000000000    0.7038500000000000    0.8186950000000000 Zn
   0.3921700000000000    0.2038600000000000    0.5687000000000000 Zn
   0.3921650000000000    0.2038600000000000    0.8187000000000000 Zn
   0.3921650000000000    0.7038500000000000    0.5686950000000000 Zn
   0.3921650000000000    0.7038500000000000    0.8186950000000000 Zn
   0.0172000000000000    0.2960900000000000    0.6812650000000000 Zn
   0.0172000000000000    0.2960900000000000    0.9312650000000000 Zn
   0.0172000000000000    0.7960800000000000    0.6812650000000000 Zn
   0.0172000000000000    0.7960800000000000    0.9312650000000000 Zn
   0.2671950000000000    0.2960900000000000    0.6812650000000000 Zn
   0.2671950000000000    0.2960900000000000    0.9312650000000000 Zn
   0.2671950000000000    0.7960800000000000    0.6812650000000000 Zn
   0.2671950000000000    0.7960800000000000    0.9312650000000000 Zn
   0.1421750000000000    0.2038600000000000    0.5687000000000000 Zn
   0.6421700000000000    0.2038600000000000    0.8187000000000000 Zn
   0.6421700000000000    0.7038500000000000    0.5686950000000000 Zn
   0.6421700000000000    0.7038500000000000    0.8186950000000000 Zn
   0.8921700000000000    0.2038600000000000    0.5687000000000000 Zn
   0.8921650000000000    0.2038600000000000    0.8187000000000000 Zn
   0.8921650000000000    0.7038500000000000    0.5686950000000000 Zn
   0.8921650000000000    0.7038500000000000    0.8186950000000000 Zn
   0.5172000000000000    0.2960900000000000    0.6812650000000000 Zn
   0.5172000000000000    0.2960900000000000    0.9312650000000000 Zn
   0.5172000000000000    0.7960800000000000    0.6812650000000000 Zn
   0.5172000000000000    0.7960800000000000    0.9312650000000000 Zn
   0.7671950000000001    0.2960900000000000    0.6812650000000000 Zn
   0.7671950000000001    0.2960900000000000    0.9312650000000000 Zn
   0.7671950000000001    0.7960800000000000    0.6812650000000000 Zn
   0.7671950000000001    0.7960800000000000    0.9312650000000000 Zn
   0.6421749999999999    0.2038600000000000    0.5687000000000000 Zn
   0.0630850000000000    0.2642900000000000    0.1048950000000000 H
   0.0630800000000000    0.2642900000000000    0.3548500000000000 H
   0.0630800000000000    0.7642800000000000    0.1048900000000000 H
   0.0630800000000000    0.7642800000000000    0.3548900000000000 H
   0.3130750000000000    0.2642900000000000    0.3548500000000000 H
   0.3130750000000000    0.7642800000000000    0.1048900000000000 H
   0.3130750000000000    0.7642800000000000    0.3548900000000000 H
   0.1097700000000000    0.1589100000000000    0.1978850000000000 H
   0.1097700000000000    0.1589100000000000    0.4478850000000000 H
   0.1097700000000000    0.6589000000000000    0.1978850000000000 H
   0.1097650000000000    0.6589000000000000    0.4478500000000000 H
   0.3597650000000000    0.1589100000000000    0.4478850000000000 H
   0.3597600000000000    0.6589000000000000    0.1978850000000000 H
   0.3597600000000000    0.6589000000000000    0.4478500000000000 H
   0.0628800000000000    0.1785000000000000    0.2031500000000000 H
   0.0628800000000000    0.1785000000000000    0.4531550000000000 H
   0.0628800000000000    0.6784900000000000    0.2031550000000000 H
   0.0628800000000000    0.6784900000000000    0.4531550000000000 H
   0.3128750000000000    0.1785000000000000    0.4531550000000000 H
   0.3128750000000000    0.6784900000000000    0.2031550000000000 H
   0.3128700000000000    0.6784900000000000    0.4531550000000000 H
   0.1510200000000000    0.2962200000000000    0.2367100000000000 H
   0.1510150000000000    0.2962200000000000    0.4867100000000000 H
   0.1510150000000000    0.7962100000000000    0.2367100000000000 H
   0.1510150000000000    0.7962100000000000    0.4867100000000000 H
   0.4010100000000000    0.2962200000000000    0.4867100000000000 H
   0.4010100000000000    0.7962100000000000    0.2367100000000000 H
   0.4010100000000000    0.7962100000000000    0.4867100000000000 H
   0.1437550000000000    0.1605300000000000    0.1382100000000000 H
   0.1437550000000000    0.1605200000000000    0.3882000000000000 H
   0.1437550000000000    0.6605200000000000    0.1382050000000000 H
   0.1437500000000000    0.6605200000000000    0.3882050000000000 H
   0.3937500000000000    0.1605200000000000    0.3882000000000000 H
   0.3937500000000000    0.6605200000000000    0.1382050000000000 H
   0.3937450000000000    0.6605200000000000    0.3882050000000000 H
   0.1487050000000000    0.0445900000000000    0.0667750000000000 H
   0.1487050000000000    0.0445800000000000    0.3167700000000000 H
   0.1487000000000000    0.5445800000000000    0.0667700000000000 H
   0.1487000000000000    0.5445800000000000    0.3167750000000000 H
   0.3987000000000000    0.0445900000000000    0.0667500000000000 H
   0.3986950000000000    0.0445900000000000    0.3167700000000000 H
   0.3986950000000000    0.5445800000000000    0.0667700000000000 H
   0.1917000000000000    0.0520300000000000    0.0491550000000000 H
   0.1917000000000000    0.0520300000000000    0.2991500000000000 H
   0.1916950000000000    0.5520200000000000    0.0491500000000000 H
   0.1916950000000000    0.5520200000000000    0.2991550000000000 H
   0.4416950000000000    0.0520300000000000    0.0491550000000000 H
   0.4416900000000000    0.0520300000000000    0.2991550000000000 H
   0.4416900000000000    0.5520200000000000    0.0491500000000000 H
   0.0720050000000000    0.3218400000000000    0.0015850000000000 H
   0.0720050000000000    0.3218400000000000    0.2515850000000000 H
   0.0720000000000000    0.8218299999999999    0.2515800000000000 H
   0.0720000000000000    0.8218299999999999    0.0000000000000000 H
   0.3220000000000000    0.3218400000000000    0.0015850000000000 H
   0.3219950000000000    0.8218299999999999    0.2515800000000000 H
   0.3219950000000000    0.8218299999999999    0.0000000000000000 H
   0.1714400000000000    0.4294400000000000    0.2283050000000000 H
   0.1714350000000000    0.4294400000000000    0.4783000000000000 H
   0.1714350000000000    0.9294300000000000    0.2283050000000000 H
   0.1714350000000000    0.9294300000000000    0.4783050000000000 H
   0.4214300000000000    0.4294400000000000    0.4783000000000000 H
   0.4214300000000000    0.9294300000000000    0.2283050000000000 H
   0.4214300000000000    0.9294300000000000    0.4783000000000000 H
   0.1831000000000000    0.4092100000000000    0.0156600000000000 H
   0.1830950000000000    0.4092100000000000    0.2656600000000000 H
   0.1830950000000000    0.9092100000000000    0.0156600000000000 H
   0.1830950000000000    0.9092000000000000    0.2656600000000000 H
   0.4330950000000000    0.4092100000000000    0.0156600000000000 H
   0.4330900000000000    0.9092100000000000    0.0156600000000000 H
   0.4330900000000000    0.9092000000000000    0.2656600000000000 H
   0.1660200000000000    0.0747700000000000    0.0024900000000000 H
   0.1660150000000000    0.0747600000000000    0.2524900000000000 H
   0.1660150000000000    0.5747600000000000    0.0024900000000000 H
   0.1660150000000000    0.5747600000000000    0.2524900000000000 H
   0.2911500000000000    0.9252300000000000    0.4974000000000000 H
   0.2495550000000000    0.4436200000000000    0.2381950000000000 H
   0.2495500000000000    0.4436200000000000    0.4881500000000000 H
   0.2495500000000000    0.9436099999999999    0.2381900000000000 H
   0.4160100000000000    0.0747700000000000    0.0024900000000000 H
   0.4160100000000000    0.0747600000000000    0.2524900000000000 H
   0.4160100000000000    0.5747600000000000    0.0024900000000000 H
   0.1244850000000000    0.0560500000000000    0.0118750000000000 H
   0.1244800000000000    0.0560500000000000    0.2618750000000000 H
   0.1244800000000000    0.5560400000000000    0.0118750000000000 H
   0.1244800000000000    0.5560400000000000    0.2618750000000000 H
   0.3744750000000000    0.0560500000000000    0.0118750000000000 H
   0.3744750000000000    0.0560500000000000    0.2618750000000000 H
   0.3744750000000000    0.5560400000000000    0.0118750000000000 H
   0.1879500000000000    0.2358900000000000    0.1451500000000000 H
   0.1879450000000000    0.2358900000000000    0.3951800000000000 H
   0.1879450000000000    0.7358800000000000    0.1451800000000000 H
   0.1879450000000000    0.7358800000000000    0.3951800000000000 H
   0.4379450000000000    0.2358900000000000    0.1451500000000000 H
   0.4379400000000000    0.2358900000000000    0.3951800000000000 H
   0.4379400000000000    0.7358800000000000    0.1451800000000000 H
   0.4379400000000000    0.7358800000000000    0.3951800000000000 H
   0.2350150000000000    0.3409200000000000    0.0520550000000000 H
   0.2350150000000000    0.3409200000000000    0.3020500000000000 H
   0.2350150000000000    0.8409100000000000    0.0520500000000000 H
   0.2350150000000000    0.8409100000000000    0.3020500000000000 H
   0.4850100000000000    0.3409200000000000    0.0520550000000000 H
   0.4850100000000000    0.3409200000000000    0.3020500000000000 H
   0.4850100000000000    0.8409100000000000    0.0520500000000000 H
   0.4850050000000000    0.8409100000000000    0.3020500000000000 H
   0.1880950000000000    0.3213900000000000    0.0468400000000000 H
   0.1880900000000000    0.3213900000000000    0.2968000000000000 H
   0.1880900000000000    0.8213800000000000    0.0468350000000000 H
   0.1880900000000000    0.8213800000000000    0.2968350000000000 H
   0.4380900000000000    0.3213900000000000    0.0468400000000000 H
   0.4380850000000000    0.3213900000000000    0.2968350000000000 H
   0.4380850000000000    0.8213800000000000    0.0468350000000000 H
   0.4380850000000000    0.8213800000000000    0.2968350000000000 H
   0.0260050000000000    0.2039400000000000    0.0134100000000000 H
   0.0260000000000000    0.2039300000000000    0.2634100000000000 H
   0.0260000000000000    0.7039299999999999    0.0134100000000000 H
   0.0260000000000000    0.7039299999999999    0.2634000000000000 H
   0.2760000000000000    0.2039400000000000    0.0134100000000000 H
   0.2759950000000000    0.2039300000000000    0.2634100000000000 H
   0.2759950000000000    0.7039299999999999    0.0134100000000000 H
   0.2759950000000000    0.7039299999999999    0.2634000000000000 H
   0.0190050000000000    0.3390900000000000    0.1116650000000000 H
   0.0190050000000000    0.3390900000000000    0.3616650000000000 H
   0.0190050000000000    0.8390800000000000    0.1116600000000000 H
   0.0190050000000000    0.8390800000000000    0.3616500000000000 H
   0.2690000000000000    0.3390900000000000    0.1116650000000000 H
   0.2690000000000000    0.3390900000000000    0.3616650000000000 H
   0.2690000000000000    0.8390800000000000    0.1116600000000000 H
   0.2690000000000000    0.8390800000000000    0.3616600000000000 H
   0.0236050000000000    0.4554800000000000    0.1832650000000000 H
   0.0236050000000000    0.4554800000000000    0.4332650000000000 H
   0.0236000000000000    0.9554700000000000    0.1832650000000000 H
   0.0236000000000000    0.9554700000000000    0.4332650000000000 H
   0.2736000000000000    0.4554800000000000    0.1832650000000000 H
   0.2736000000000000    0.4554800000000000    0.4332650000000000 H
   0.2736000000000000    0.9554700000000000    0.1832650000000000 H
   0.2735950000000000    0.9554700000000000    0.4332650000000000 H
   0.0666500000000000    0.4485300000000000    0.2008600000000000 H
   0.0666500000000000    0.4485300000000000    0.4508600000000000 H
   0.0666500000000000    0.9485200000000000    0.2008600000000000 H
   0.0666500000000000    0.9485300000000000    0.4508600000000000 H
   0.3166450000000000    0.4485300000000000    0.2008600000000000 H
   0.3166450000000000    0.4485300000000000    0.4508600000000000 H
   0.3166450000000000    0.9485200000000000    0.2008600000000000 H
   0.3166450000000000    0.9485200000000000    0.4508600000000000 H
   0.1969700000000000    0.1779600000000000    0.2484400000000000 H
   0.1969700000000000    0.1779600000000000    0.4984400000000000 H
   0.1969650000000000    0.6779500000000001    0.4984400000000000 H
   0.1969650000000000    0.6779500000000001    0.2484400000000000 H
   0.4469650000000000    0.1779600000000000    0.4984400000000000 H
   0.4469650000000000    0.1779600000000000    0.2484400000000000 H
   0.4469600000000000    0.6779500000000001    0.4984400000000000 H
   0.4469600000000000    0.6779500000000001    0.2484400000000000 H
   0.0462850000000000    0.0709000000000000    0.0217650000000000 H
   0.0462850000000000    0.0709000000000000    0.2717600000000000 H
   0.0462850000000000    0.5709000000000000    0.0217600000000000 H
   0.0462800000000000    0.5708900000000000    0.2717600000000000 H
   0.2962800000000000    0.0709000000000000    0.0217650000000000 H
   0.2962800000000000    0.0709000000000000    0.2717600000000000 H
   0.2962800000000000    0.5709000000000000    0.0217500000000000 H
   0.2962750000000000    0.5708900000000000    0.2717600000000000 H
   0.0580650000000000    0.0911900000000000    0.2344350000000000 H
   0.0580650000000000    0.0911900000000000    0.4844400000000000 H
   0.0580650000000000    0.5911800000000000    0.2344350000000000 H
   0.0580600000000000    0.5911800000000000    0.4844350000000000 H
   0.3080600000000000    0.0911900000000000    0.2344350000000000 H
   0.3080600000000000    0.0911900000000000    0.4844400000000000 H
   0.3080550000000000    0.5911800000000000    0.2344000000000000 H
   0.3080550000000000    0.5911800000000000    0.4844350000000000 H
   0.0411600000000000    0.4252400000000000    0.2474450000000000 H
   0.0411600000000000    0.4252400000000000    0.4974000000000000 H
   0.0411600000000000    0.9252300000000000    0.2474400000000000 H
   0.0411550000000000    0.9252300000000000    0.4974450000000000 H
   0.2911550000000000    0.4252400000000000    0.2474450000000000 H
   0.2911550000000000    0.4252400000000000    0.4974000000000000 H
   0.2911550000000000    0.9252300000000000    0.2474000000000000 H
   0.2495500000000000    0.9436099999999999    0.4881900000000000 H
   0.4995500000000000    0.4436200000000000    0.2381950000000000 H
   0.4995450000000000    0.4436200000000000    0.4881500000000000 H
   0.4995450000000000    0.9436099999999999    0.2381900000000000 H
   0.4995450000000000    0.9436099999999999    0.4881900000000000 H
   0.5630850000000001    0.2642900000000000    0.1048950000000000 H
   0.5630800000000000    0.2642900000000000    0.3548500000000000 H
   0.5630800000000000    0.7642800000000000    0.1048900000000000 H
   0.5630800000000000    0.7642800000000000    0.3548900000000000 H
   0.8130800000000000    0.2642900000000000    0.1048950000000000 H
   0.8130750000000000    0.2642900000000000    0.3548500000000000 H
   0.8130750000000000    0.7642800000000000    0.1048900000000000 H
   0.8130750000000000    0.7642800000000000    0.3548900000000000 H
   0.6097700000000000    0.1589100000000000    0.1978850000000000 H
   0.6097700000000000    0.1589100000000000    0.4478850000000000 H
   0.6097700000000000    0.6589000000000000    0.1978850000000000 H
   0.6097650000000000    0.6589000000000000    0.4478500000000000 H
   0.8597650000000000    0.1589100000000000    0.1978850000000000 H
   0.8597650000000000    0.1589100000000000    0.4478850000000000 H
   0.8597600000000001    0.6589000000000000    0.1978850000000000 H
   0.8597600000000001    0.6589000000000000    0.4478500000000000 H
   0.5628800000000000    0.1785000000000000    0.2031500000000000 H
   0.5628800000000000    0.1785000000000000    0.4531550000000000 H
   0.5628800000000000    0.6784900000000000    0.2031550000000000 H
   0.5628800000000000    0.6784900000000000    0.4531550000000000 H
   0.8128750000000000    0.1785000000000000    0.2031500000000000 H
   0.8128750000000000    0.1785000000000000    0.4531550000000000 H
   0.8128750000000000    0.6784900000000000    0.2031550000000000 H
   0.8128700000000000    0.6784900000000000    0.4531550000000000 H
   0.6510199999999999    0.2962200000000000    0.2367100000000000 H
   0.6510150000000000    0.2962200000000000    0.4867100000000000 H
   0.6510150000000000    0.7962100000000000    0.2367100000000000 H
   0.6510150000000000    0.7962100000000000    0.4867100000000000 H
   0.9010150000000000    0.2962200000000000    0.2367100000000000 H
   0.9010100000000000    0.2962200000000000    0.4867100000000000 H
   0.9010100000000000    0.7962100000000000    0.2367100000000000 H
   0.9010100000000000    0.7962100000000000    0.4867100000000000 H
   0.6437550000000000    0.1605300000000000    0.1382100000000000 H
   0.6437550000000000    0.1605200000000000    0.3882000000000000 H
   0.6437550000000000    0.6605200000000000    0.1382050000000000 H
   0.6437500000000000    0.6605200000000000    0.3882050000000000 H
   0.8937500000000000    0.1605200000000000    0.1382100000000000 H
   0.8937500000000000    0.1605200000000000    0.3882000000000000 H
   0.8937500000000000    0.6605200000000000    0.1382050000000000 H
   0.8937450000000000    0.6605200000000000    0.3882050000000000 H
   0.6487050000000000    0.0445900000000000    0.0667750000000000 H
   0.6487050000000000    0.0445800000000000    0.3167700000000000 H
   0.6487000000000001    0.5445800000000000    0.0667700000000000 H
   0.6487000000000001    0.5445800000000000    0.3167750000000000 H
   0.8987000000000001    0.0445900000000000    0.0667500000000000 H
   0.8986950000000000    0.0445900000000000    0.3167700000000000 H
   0.8986950000000000    0.5445800000000000    0.0667700000000000 H
   0.8986950000000000    0.5445800000000000    0.3167500000000000 H
   0.6917000000000000    0.0520300000000000    0.0491550000000000 H
   0.6917000000000000    0.0520300000000000    0.2991500000000000 H
   0.6916949999999999    0.5520200000000000    0.0491500000000000 H
   0.6916949999999999    0.5520200000000000    0.2991550000000000 H
   0.9416949999999999    0.0520300000000000    0.0491550000000000 H
   0.9416900000000000    0.0520300000000000    0.2991550000000000 H
   0.9416900000000000    0.5520200000000000    0.0491500000000000 H
   0.9416900000000000    0.5520200000000000    0.2991550000000000 H
   0.5720050000000000    0.3218400000000000    0.0015850000000000 H
   0.5720050000000000    0.3218400000000000    0.2515850000000000 H
   0.5720000000000000    0.8218299999999999    0.2515800000000000 H
   0.5720000000000000    0.8218299999999999    0.0000000000000000 H
   0.8220000000000001    0.3218400000000000    0.0015850000000000 H
   0.8220000000000001    0.3218400000000000    0.2515850000000000 H
   0.8219950000000000    0.8218299999999999    0.2515800000000000 H
   0.8219950000000000    0.8218299999999999    0.0000000000000000 H
   0.6714400000000000    0.4294400000000000    0.2283050000000000 H
   0.6714350000000000    0.4294400000000000    0.4783000000000000 H
   0.6714350000000000    0.9294300000000000    0.2283050000000000 H
   0.6714350000000000    0.9294300000000000    0.4783050000000000 H
   0.9214300000000000    0.4294400000000000    0.2283050000000000 H
   0.9214300000000000    0.4294400000000000    0.4783000000000000 H
   0.9214300000000000    0.9294300000000000    0.2283050000000000 H
   0.9214300000000000    0.9294300000000000    0.4783000000000000 H
   0.6831000000000000    0.4092100000000000    0.0156600000000000 H
   0.6830950000000000    0.4092100000000000    0.2656600000000000 H
   0.6830950000000000    0.9092100000000000    0.0156600000000000 H
   0.6830950000000000    0.9092000000000000    0.2656600000000000 H
   0.9330950000000000    0.4092100000000000    0.0156600000000000 H
   0.9330900000000000    0.4092100000000000    0.2656600000000000 H
   0.9330900000000000    0.9092100000000000    0.0156600000000000 H
   0.9330900000000000    0.9092000000000000    0.2656600000000000 H
   0.6660200000000001    0.0747700000000000    0.0024900000000000 H
   0.6660150000000000    0.0747600000000000    0.2524900000000000 H
   0.6660150000000000    0.5747600000000000    0.0024900000000000 H
   0.6660150000000000    0.5747600000000000    0.2524900000000000 H
   0.7911500000000000    0.9252300000000000    0.4974000000000000 H
   0.7495550000000000    0.4436200000000000    0.2381950000000000 H
   0.7495499999999999    0.4436200000000000    0.4881500000000000 H
   0.7495499999999999    0.9436099999999999    0.2381900000000000 H
   0.9160100000000000    0.0747700000000000    0.0024900000000000 H
   0.9160100000000000    0.0747600000000000    0.2524900000000000 H
   0.9160100000000000    0.5747600000000000    0.0024900000000000 H
   0.9160100000000000    0.5747600000000000    0.2524900000000000 H
   0.6244850000000000    0.0560500000000000    0.0118750000000000 H
   0.6244800000000000    0.0560500000000000    0.2618750000000000 H
   0.6244800000000000    0.5560400000000000    0.0118750000000000 H
   0.6244800000000000    0.5560400000000000    0.2618750000000000 H
   0.8744750000000000    0.0560500000000000    0.0118750000000000 H
   0.8744750000000000    0.0560500000000000    0.2618750000000000 H
   0.8744750000000000    0.5560400000000000    0.0118750000000000 H
   0.8744750000000000    0.5560400000000000    0.2618750000000000 H
   0.6879500000000001    0.2358900000000000    0.1451500000000000 H
   0.6879450000000000    0.2358900000000000    0.3951800000000000 H
   0.6879450000000000    0.7358800000000000    0.1451800000000000 H
   0.6879450000000000    0.7358800000000000    0.3951800000000000 H
   0.9379450000000000    0.2358900000000000    0.1451500000000000 H
   0.9379400000000000    0.2358900000000000    0.3951800000000000 H
   0.9379400000000000    0.7358800000000000    0.1451800000000000 H
   0.9379400000000000    0.7358800000000000    0.3951800000000000 H
   0.7350150000000000    0.3409200000000000    0.0520550000000000 H
   0.7350150000000000    0.3409200000000000    0.3020500000000000 H
   0.7350150000000000    0.8409100000000000    0.0520500000000000 H
   0.7350150000000000    0.8409100000000000    0.3020500000000000 H
   0.9850099999999999    0.3409200000000000    0.0520550000000000 H
   0.9850099999999999    0.3409200000000000    0.3020500000000000 H
   0.9850099999999999    0.8409100000000000    0.0520500000000000 H
   0.9850050000000000    0.8409100000000000    0.3020500000000000 H
   0.6880950000000000    0.3213900000000000    0.0468400000000000 H
   0.6880900000000000    0.3213900000000000    0.2968000000000000 H
   0.6880900000000000    0.8213800000000000    0.0468350000000000 H
   0.6880900000000000    0.8213800000000000    0.2968350000000000 H
   0.9380900000000000    0.3213900000000000    0.0468400000000000 H
   0.9380850000000001    0.3213900000000000    0.2968350000000000 H
   0.9380850000000001    0.8213800000000000    0.0468350000000000 H
   0.9380850000000001    0.8213800000000000    0.2968350000000000 H
   0.5260050000000001    0.2039400000000000    0.0134100000000000 H
   0.5260000000000000    0.2039300000000000    0.2634100000000000 H
   0.5260000000000000    0.7039299999999999    0.0134100000000000 H
   0.5260000000000000    0.7039299999999999    0.2634000000000000 H
   0.7760000000000000    0.2039400000000000    0.0134100000000000 H
   0.7759950000000000    0.2039300000000000    0.2634100000000000 H
   0.7759950000000000    0.7039299999999999    0.0134100000000000 H
   0.7759950000000000    0.7039299999999999    0.2634000000000000 H
   0.5190050000000000    0.3390900000000000    0.1116650000000000 H
   0.5190050000000000    0.3390900000000000    0.3616650000000000 H
   0.5190050000000000    0.8390800000000000    0.1116600000000000 H
   0.5190050000000000    0.8390800000000000    0.3616500000000000 H
   0.7690000000000000    0.3390900000000000    0.1116650000000000 H
   0.7690000000000000    0.3390900000000000    0.3616650000000000 H
   0.7690000000000000    0.8390800000000000    0.1116600000000000 H
   0.7690000000000000    0.8390800000000000    0.3616600000000000 H
   0.5236050000000000    0.4554800000000000    0.1832650000000000 H
   0.5236050000000000    0.4554800000000000    0.4332650000000000 H
   0.5236000000000000    0.9554700000000000    0.1832650000000000 H
   0.5236000000000000    0.9554700000000000    0.4332650000000000 H
   0.7736000000000001    0.4554800000000000    0.1832650000000000 H
   0.7736000000000001    0.4554800000000000    0.4332650000000000 H
   0.7736000000000001    0.9554700000000000    0.1832650000000000 H
   0.7735950000000000    0.9554700000000000    0.4332650000000000 H
   0.5666500000000000    0.4485300000000000    0.2008600000000000 H
   0.5666500000000000    0.4485300000000000    0.4508600000000000 H
   0.5666500000000000    0.9485200000000000    0.2008600000000000 H
   0.5666500000000000    0.9485300000000000    0.4508600000000000 H
   0.8166450000000001    0.4485300000000000    0.2008600000000000 H
   0.8166450000000001    0.4485300000000000    0.4508600000000000 H
   0.8166450000000001    0.9485200000000000    0.2008600000000000 H
   0.8166450000000001    0.9485200000000000    0.4508600000000000 H
   0.6969700000000000    0.1779600000000000    0.2484400000000000 H
   0.6969700000000000    0.1779600000000000    0.4984400000000000 H
   0.6969650000000001    0.6779500000000001    0.4984400000000000 H
   0.6969650000000001    0.6779500000000001    0.2484400000000000 H
   0.9469650000000001    0.1779600000000000    0.4984400000000000 H
   0.9469650000000001    0.1779600000000000    0.2484400000000000 H
   0.9469600000000000    0.6779500000000001    0.4984400000000000 H
   0.9469600000000000    0.6779500000000001    0.2484400000000000 H
   0.5462850000000000    0.0709000000000000    0.0217650000000000 H
   0.5462850000000000    0.0709000000000000    0.2717600000000000 H
   0.5462850000000000    0.5709000000000000    0.0217600000000000 H
   0.5462800000000000    0.5708900000000000    0.2717600000000000 H
   0.7962800000000000    0.0709000000000000    0.0217650000000000 H
   0.7962800000000000    0.0709000000000000    0.2717600000000000 H
   0.7962800000000000    0.5709000000000000    0.0217500000000000 H
   0.7962750000000001    0.5708900000000000    0.2717600000000000 H
   0.5580650000000000    0.0911900000000000    0.2344350000000000 H
   0.5580650000000000    0.0911900000000000    0.4844400000000000 H
   0.5580650000000000    0.5911800000000000    0.2344350000000000 H
   0.5580600000000000    0.5911800000000000    0.4844350000000000 H
   0.8080600000000000    0.0911900000000000    0.2344350000000000 H
   0.8080600000000000    0.0911900000000000    0.4844400000000000 H
   0.8080550000000000    0.5911800000000000    0.2344000000000000 H
   0.8080550000000000    0.5911800000000000    0.4844350000000000 H
   0.5411600000000000    0.4252400000000000    0.2474450000000000 H
   0.5411600000000000    0.4252400000000000    0.4974000000000000 H
   0.5411600000000000    0.9252300000000000    0.2474400000000000 H
   0.5411550000000001    0.9252300000000000    0.4974450000000000 H
   0.7911550000000001    0.4252400000000000    0.2474450000000000 H
   0.7911550000000001    0.4252400000000000    0.4974000000000000 H
   0.7911550000000001    0.9252300000000000    0.2474000000000000 H
   0.7495499999999999    0.9436099999999999    0.4881900000000000 H
   0.9995499999999999    0.4436200000000000    0.2381950000000000 H
   0.9995450000000000    0.4436200000000000    0.4881500000000000 H
   0.9995450000000000    0.9436099999999999    0.2381900000000000 H
   0.9995450000000000    0.9436099999999999    0.4881900000000000 H