H6 O4
1.0
  23.7219999674823967    0.0000000000000000    0.0012420810149050
  -0.0007244962392077   13.8259957167320984    0.0108589138907459
   0.0000000000000000    0.0000000000000000   21.3919999999999995
H O
6 4
direct
   0.9999064736769346    0.4497044545171289    0.7950287303609571 H
   1.0000675146031730    0.1802876553399895    0.8651169894066809 H
   0.9999885090060481    0.3104869032989255    0.8259758091622941 H
   0.9999888160067637    1.0155466890967639    0.5869175301896558 H
   1.0000204215783077    1.1755611813610676    0.5481838643551533 H
   0.0000432239013762    0.2901413338642833    0.5168106600344904 H
   0.9999400000000001    0.4011600000000000    0.8277900000000000 O
   1.0000300000000000    0.2504100000000000    0.8665200000000000 O
   1.0000000000000000    1.0680300000000000    0.5568000000000000 O
   0.0000300000000000    0.2205100000000000    0.5223900000000000 O
