H14 C13 N2
1.0
   6.7644995878830967    0.0000000000000000   -0.0023612558970706
  -0.7132831185990526    6.7296934082114408   -0.0388596731470583
   0.0000000000000000    0.0000000000000000   27.8730000000000011
H C N
14 13 2
direct
   0.8297500000000000    0.9208200000000000    0.8838900000000000 H
   0.0882300000000000    0.9678700000000000    0.8203200000000000 H
   0.4234500000000000    0.5609400000000000    0.8819800000000000 H
   0.1816800000000000    0.4987900000000000    0.9500900000000000 H
   0.8457900000000000    0.5371800000000000    0.9814500000000000 H
   0.6839499999999999    0.6673800000000000    0.9464000000000000 H
   0.9925400000000000    0.8525100000000000    0.0190300000000000 H
   0.9170000000000000    0.8258100000000000    0.1162100000000000 H
   0.9639600000000000    0.0843100000000000    0.1801800000000000 H
   0.5608700000000000    0.4218200000000000    0.1176200000000000 H
   0.4988600000000000    0.1799100000000000    0.0491000000000000 H
   0.5368500000000000    0.8434100000000000    0.0173800000000000 H
   0.6672800000000000    0.6815600000000001    0.0523400000000000 H
   0.8524700000000000    0.9924700000000000    0.9810100000000000 H
   0.9618400000000000    0.8420900000000000    0.8864800000000000 C
   0.1037000000000000    0.8686700000000001    0.8504300000000000 C
   0.2917400000000000    0.6403600000000000    0.8850600000000000 C
   0.1563100000000000    0.6070900000000000    0.9224900000000000 C
   0.9861799999999999    0.7088000000000000    0.9237100000000000 C
   0.8328400000000000    0.6785200000000000    0.9628900000000000 C
   0.8390100000000000    0.9583000000000000    0.1135300000000000 C
   0.8656000000000000    0.1002100000000000    0.1498000000000000 C
   0.6394400000000000    0.2895300000000000    0.1146700000000000 C
   0.6062300000000000    0.1540200000000000    0.0770100000000000 C
   0.7071200000000000    0.9833700000000000    0.0758900000000000 C
   0.6780100000000000    0.8307300000000000    0.0362700000000000 C
   0.8498200000000000    0.8494699999999999    0.9998200000000000 C
   0.2669400000000000    0.7700399999999999    0.8495400000000000 N
   0.7681800000000000    0.2642200000000000    0.1505100000000000 N
