H2 C3 O4
1.0
   6.7644995878830967    0.0000000000000000   -0.0023612558970706
  -0.7132831185990526    6.7296934082114408   -0.0388596731470583
   0.0000000000000000    0.0000000000000000   27.8730000000000011
H C O
2 3 4
direct
   0.8624600000000000    0.3288800000000000    0.3546300000000000 H
   0.8656900000000000    0.5206300000000000    0.3099000000000000 H
   0.6542500000000000    0.2651700000000000    0.2960300000000000 C
   0.8513100000000000    0.3594500000000000    0.3163100000000000 C
   0.0156700000000000    0.2693900000000000    0.2885300000000000 C
   0.6077100000000000    0.3080300000000000    0.2534500000000000 O
   0.5496000000000000    1.1430300000000000    0.3227400000000000 O
   1.0339499999999999    0.3081100000000000    0.2441800000000000 O
   0.1186100000000000    1.1575100000000000    0.3124200000000000 O
