H6 O4
1.0
   7.8986548637352740    0.0000000000000000   -0.4417831409086255
  -0.0005786167372762   16.2329999884762657   -0.0001983235082258
   0.0000000000000000    0.0000000000000000   26.6392999999999986
H O
6 4
direct
   0.1871630500525258    0.5762962458329925    0.6995992077940444 H
   0.0208323693705639    0.8210653962391431    0.7035345628263807 H
   0.1045069018622478    0.6991995300887672    0.7017051948052186 H
   0.3077584342359818    0.9228854826062716    0.2999911728299927 H
   0.4842008968170722    0.6797245712811661    0.2965223601001193 H
   0.3953982357692464    0.8007963152871429    0.2981073455006862 H
   0.1438250000000000    0.6321900000000000    0.6996900000000000 O
   0.0544800000000000    0.7637200000000000    0.7018100000000000 O
   0.3538200000000000    0.8675050000000000    0.3000800000000000 O
   0.4486300000000000    0.7367950000000000    0.2982100000000000 O
