K16 H80 C84 N14 O48
1.0
   7.8986548637352740    0.0000000000000000   -0.4417831409086255
  -0.0005786167372762   16.2329999884762657   -0.0001983235082258
   0.0000000000000000    0.0000000000000000   26.6392999999999986
K H C N O
16 80 84 14 48
direct
   0.4167200000000000    0.1367200000000000    0.7755300000000001 K
   0.4167200000000000    0.6367200000000000    0.7755300000000001 K
   0.6667300000000000    0.6132800000000000    0.2755200000000000 K
   0.8330600000000000    0.8873700000000000    0.7243500000000000 K
   0.5830600000000000    0.8626250000000000    0.2243500000000000 K
   0.3330600000000000    0.8873700000000000    0.7243500000000000 K
   0.9167200000000000    0.6367200000000000    0.7755300000000001 K
   0.9167200000000000    0.1367200000000000    0.7755300000000001 K
   0.6667300000000000    0.1132800000000000    0.2755200000000000 K
   0.8330600000000000    0.3873700000000000    0.7243500000000000 K
   0.1667300000000000    0.6132800000000000    0.2755200000000000 K
   0.1667300000000000    0.1132800000000000    0.2755200000000000 K
   0.3330600000000000    0.3873700000000000    0.7243500000000000 K
   0.0830600000000000    0.8626250000000000    0.2243500000000000 K
   0.0830600000000000    0.3626250000000000    0.2243500000000000 K
   0.5830600000000000    0.3626250000000000    0.2243500000000000 K
   0.1800000000000000    0.2287650000000000    0.8676199999999999 H
   0.1480300000000000    0.2881600000000000    0.8218600000000000 H
   0.8163050000000001    0.7713400000000000    0.1321700000000000 H
   0.8490800000000001    0.7117450000000000    0.1778100000000000 H
   0.7913049999999999    0.4174250000000000    0.1176300000000000 H
   0.0409500000000000    0.6518550000000000    0.1192600000000000 H
   0.1055400000000000    0.6266900000000000    0.0284500000000000 H
   0.2109800000000000    0.5823100000000000    0.8824100000000000 H
   0.9573350000000000    0.3489000000000000    0.8802800000000000 H
   0.8963550000000000    0.3729450000000000    0.9716100000000000 H
   0.1800000000000000    0.7287650000000000    0.8676199999999999 H
   0.1480300000000000    0.7881600000000000    0.8218600000000000 H
   0.8163050000000001    0.2713400000000000    0.1321700000000000 H
   0.8490800000000001    0.2117450000000000    0.1778100000000000 H
   0.7913049999999999    0.9174249999999999    0.1176300000000000 H
   0.0409500000000000    0.1518550000000000    0.1192600000000000 H
   0.1055400000000000    0.1266900000000000    0.0284500000000000 H
   0.2109800000000000    0.0823100000000000    0.8824100000000000 H
   0.9573350000000000    0.8489000000000000    0.8802800000000000 H
   0.8963550000000000    0.8729450000000001    0.9716100000000000 H
   0.6799999999999999    0.2287650000000000    0.8676199999999999 H
   0.6480300000000000    0.2881600000000000    0.8218600000000000 H
   0.3163050000000000    0.7713400000000000    0.1321700000000000 H
   0.3490800000000000    0.7117450000000000    0.1778100000000000 H
   0.2913050000000000    0.4174250000000000    0.1176300000000000 H
   0.5409500000000000    0.6518550000000000    0.1192600000000000 H
   0.6055400000000000    0.6266900000000000    0.0284500000000000 H
   0.7109799999999999    0.5823100000000000    0.8824100000000000 H
   0.4573350000000000    0.3489000000000000    0.8802800000000000 H
   0.3963550000000000    0.3729450000000000    0.9716100000000000 H
   0.6799999999999999    0.7287650000000000    0.8676199999999999 H
   0.6480300000000000    0.7881600000000000    0.8218600000000000 H
   0.3163050000000000    0.2713400000000000    0.1321700000000000 H
   0.3490800000000000    0.2117450000000000    0.1778100000000000 H
   0.2913050000000000    0.9174249999999999    0.1176300000000000 H
   0.5409500000000000    0.1518550000000000    0.1192600000000000 H
   0.6055400000000000    0.1266900000000000    0.0284500000000000 H
   0.7109799999999999    0.0823100000000000    0.8824100000000000 H
   0.4573350000000000    0.8489000000000000    0.8802800000000000 H
   0.3963550000000000    0.8729450000000001    0.9716100000000000 H
   0.3077584342359818    0.9228854826062716    0.2999911728299927 H
   0.4300500000000000    0.0212500000000000    0.3676100000000000 H
   0.3980400000000000    0.9618599999999999    0.3218600000000000 H
   0.4842008968170722    0.6797245712811661    0.2965223601001193 H
   0.3953982357692464    0.8007963152871429    0.2981073455006862 H
   0.4300500000000000    0.5212500000000000    0.3676100000000000 H
   0.3980400000000000    0.4618600000000000    0.3218600000000000 H
   0.0663000000000000    0.9786750000000000    0.6321800000000000 H
   0.0990700000000000    0.0382500000000000    0.6778200000000000 H
   0.4609850000000000    0.1676650000000000    0.3823900000000000 H
   0.2073950000000000    0.4011050000000000    0.3803000000000000 H
   0.1464350000000000    0.3770750000000000    0.4716100000000000 H
   0.0413250000000000    0.3325900000000000    0.6176400000000000 H
   0.2908950000000000    0.0981300000000000    0.6192600000000000 H
   0.3555050000000000    0.1232450000000000    0.5284600000000000 H
   0.1871630500525258    0.5762962458329925    0.6995992077940444 H
   0.0663000000000000    0.4786750000000000    0.6321800000000000 H
   0.0990700000000000    0.5382500000000000    0.6778200000000000 H
   0.0208323693705639    0.8210653962391431    0.7035345628263807 H
   0.1045069018622478    0.6991995300887672    0.7017051948052186 H
   0.9300500000000000    0.5212500000000000    0.3676100000000000 H
   0.8980399999999999    0.4618600000000000    0.3218600000000000 H
   0.5663000000000000    0.9786750000000000    0.6321800000000000 H
   0.5990700000000000    0.0382500000000000    0.6778200000000000 H
   0.9609850000000000    0.1676650000000000    0.3823900000000000 H
   0.7073950000000000    0.4011050000000000    0.3803000000000000 H
   0.6464350000000000    0.3770750000000000    0.4716100000000000 H
   0.5413250000000001    0.3325900000000000    0.6176400000000000 H
   0.7908950000000000    0.0981300000000000    0.6192600000000000 H
   0.8555050000000000    0.1232450000000000    0.5284600000000000 H
   0.9300500000000000    0.0212500000000000    0.3676100000000000 H
   0.8980399999999999    0.9618599999999999    0.3218600000000000 H
   0.5663000000000000    0.4786750000000000    0.6321800000000000 H
   0.5990700000000000    0.5382500000000000    0.6778200000000000 H
   0.9609850000000000    0.6676650000000000    0.3823900000000000 H
   0.7073950000000000    0.9011050000000000    0.3803000000000000 H
   0.6464350000000000    0.8770750000000000    0.4716100000000000 H
   0.5413250000000001    0.8325899999999999    0.6176400000000000 H
   0.7908950000000000    0.5981300000000001    0.6192600000000000 H
   0.8555050000000000    0.6232450000000000    0.5284600000000000 H
   0.8656200000000001    0.5471850000000000    0.1792400000000000 C
   0.1347900000000000    0.4528300000000000    0.8206100000000000 C
   0.8622000000000001    0.4647100000000000    0.0986600000000000 C
   0.9811700000000000    0.5085950000000000    0.0263900000000000 C
   0.9985450000000000    0.5960200000000000    0.0995700000000000 C
   0.0338850000000000    0.5825650000000000    0.0497200000000000 C
   0.9101800000000000    0.5361750000000000    0.1253400000000000 C
   0.1391000000000000    0.5352550000000000    0.9012700000000000 C
   0.0189050000000000    0.4916100000000000    0.9733800000000000 C
   0.0005500000000000    0.4044750000000000    0.9000899999999999 C
   0.9651500000000000    0.4179000000000000    0.9499400000000000 C
   0.0901200000000000    0.4640500000000000    0.8744700000000000 C
   0.8656200000000001    0.0471850000000000    0.1792400000000000 C
   0.1347900000000000    0.9528300000000001    0.8206100000000000 C
   0.8622000000000001    0.9647100000000000    0.0986600000000000 C
   0.9811700000000000    0.0085950000000000    0.0263900000000000 C
   0.9985450000000000    0.0960200000000000    0.0995700000000000 C
   0.0338850000000000    0.0825650000000000    0.0497200000000000 C
   0.9101800000000000    0.0361750000000000    0.1253400000000000 C
   0.1391000000000000    0.0352550000000000    0.9012700000000000 C
   0.0189050000000000    0.9916100000000000    0.9733800000000000 C
   0.0005500000000000    0.9044749999999999    0.9000899999999999 C
   0.9651500000000000    0.9178999999999999    0.9499400000000000 C
   0.0901200000000000    0.9640500000000001    0.8744700000000000 C
   0.3656200000000000    0.5471850000000000    0.1792400000000000 C
   0.6347900000000000    0.4528300000000000    0.8206100000000000 C
   0.3622000000000000    0.4647100000000000    0.0986600000000000 C
   0.4811700000000000    0.5085950000000000    0.0263900000000000 C
   0.4985450000000000    0.5960200000000000    0.0995700000000000 C
   0.5338849999999999    0.5825650000000000    0.0497200000000000 C
   0.4101800000000000    0.5361750000000000    0.1253400000000000 C
   0.6391000000000000    0.5352550000000000    0.9012700000000000 C
   0.5189049999999999    0.4916100000000000    0.9733800000000000 C
   0.5005500000000001    0.4044750000000000    0.9000899999999999 C
   0.4651500000000000    0.4179000000000000    0.9499400000000000 C
   0.5901200000000000    0.4640500000000000    0.8744700000000000 C
   0.3656200000000000    0.0471850000000000    0.1792400000000000 C
   0.6347900000000000    0.9528300000000001    0.8206100000000000 C
   0.3622000000000000    0.9647100000000000    0.0986600000000000 C
   0.4811700000000000    0.0085950000000000    0.0263900000000000 C
   0.4985450000000000    0.0960200000000000    0.0995700000000000 C
   0.5338849999999999    0.0825650000000000    0.0497200000000000 C
   0.4101800000000000    0.0361750000000000    0.1253400000000000 C
   0.6391000000000000    0.0352550000000000    0.9012700000000000 C
   0.5189049999999999    0.9916100000000000    0.9733800000000000 C
   0.5005500000000001    0.9044749999999999    0.9000899999999999 C
   0.4651500000000000    0.9178999999999999    0.9499400000000000 C
   0.5901200000000000    0.9640500000000001    0.8744700000000000 C
   0.1156150000000000    0.2028150000000000    0.6792500000000000 C
   0.3848000000000000    0.2971800000000000    0.3206100000000000 C
   0.3891200000000000    0.2147200000000000    0.4012600000000000 C
   0.2689350000000000    0.2583750000000000    0.4733800000000000 C
   0.2505950000000000    0.3455200000000000    0.4001100000000000 C
   0.2151950000000000    0.3320900000000000    0.4499500000000000 C
   0.3401450000000000    0.2859500000000000    0.3744800000000000 C
   0.1122050000000000    0.2853000000000000    0.5986600000000000 C
   0.2311600000000000    0.2414000000000000    0.5264000000000000 C
   0.2485050000000000    0.1539700000000000    0.5995700000000000 C
   0.2838500000000000    0.1674250000000000    0.5497200000000000 C
   0.1601700000000000    0.2138200000000000    0.6253500000000000 C
   0.6156150000000000    0.2028150000000000    0.6792500000000000 C
   0.8848000000000000    0.2971800000000000    0.3206100000000000 C
   0.8891200000000000    0.2147200000000000    0.4012600000000000 C
   0.7689349999999999    0.2583750000000000    0.4733800000000000 C
   0.7505950000000000    0.3455200000000000    0.4001100000000000 C
   0.7151950000000000    0.3320900000000000    0.4499500000000000 C
   0.8401449999999999    0.2859500000000000    0.3744800000000000 C
   0.6122050000000000    0.2853000000000000    0.5986600000000000 C
   0.7311600000000000    0.2414000000000000    0.5264000000000000 C
   0.7485050000000000    0.1539700000000000    0.5995700000000000 C
   0.7838499999999999    0.1674250000000000    0.5497200000000000 C
   0.6601700000000000    0.2138200000000000    0.6253500000000000 C
   0.6156150000000000    0.7028150000000000    0.6792500000000000 C
   0.8848000000000000    0.7971800000000000    0.3206100000000000 C
   0.8891200000000000    0.7147200000000000    0.4012600000000000 C
   0.7689349999999999    0.7583750000000000    0.4733800000000000 C
   0.7505950000000000    0.8455200000000000    0.4001100000000000 C
   0.7151950000000000    0.8320900000000000    0.4499500000000000 C
   0.8401449999999999    0.7859499999999999    0.3744800000000000 C
   0.6122050000000000    0.7853000000000000    0.5986600000000000 C
   0.7311600000000000    0.7414000000000001    0.5264000000000000 C
   0.7485050000000000    0.6539699999999999    0.5995700000000000 C
   0.7838499999999999    0.6674249999999999    0.5497200000000000 C
   0.6601700000000000    0.7138200000000000    0.6253500000000000 C
   0.8960600000000001    0.4500050000000000    0.0508000000000000 N
   0.1050600000000000    0.5499550000000000    0.9491100000000000 N
   0.8960600000000001    0.9500050000000000    0.0508000000000000 N
   0.1050600000000000    0.0499550000000000    0.9491100000000000 N
   0.3960600000000000    0.4500050000000000    0.0508000000000000 N
   0.6050600000000000    0.5499550000000000    0.9491100000000000 N
   0.3960600000000000    0.9500050000000000    0.0508000000000000 N
   0.6050600000000000    0.0499550000000000    0.9491100000000000 N
   0.3550850000000000    0.2000050000000000    0.4491000000000000 N
   0.1460700000000000    0.3000050000000000    0.5508100000000000 N
   0.8550850000000000    0.2000050000000000    0.4491000000000000 N
   0.6460700000000000    0.3000050000000000    0.5508100000000000 N
   0.8550850000000000    0.7000050000000000    0.4491000000000000 N
   0.6460700000000000    0.8000050000000001    0.5508100000000000 N
   0.1780750000000000    0.2295850000000000    0.8311100000000000 O
   0.8187400000000000    0.7703650000000000    0.1686800000000000 O
   0.8044899999999999    0.4862950000000000    0.2018100000000000 O
   0.8938450000000000    0.6178150000000000    0.1996800000000000 O
   0.1986100000000000    0.5132000000000000    0.7982100000000000 O
   0.1038100000000000    0.3825000000000000    0.8000699999999999 O
   0.1780750000000000    0.7295850000000000    0.8311100000000000 O
   0.8187400000000000    0.2703650000000000    0.1686800000000000 O
   0.8044899999999999    0.9862949999999999    0.2018100000000000 O
   0.8938450000000000    0.1178150000000000    0.1996800000000000 O
   0.1986100000000000    0.0132000000000000    0.7982100000000000 O
   0.1038100000000000    0.8825000000000001    0.8000699999999999 O
   0.6780750000000000    0.2295850000000000    0.8311100000000000 O
   0.3187400000000000    0.7703650000000000    0.1686800000000000 O
   0.3044900000000000    0.4862950000000000    0.2018100000000000 O
   0.3938450000000000    0.6178150000000000    0.1996800000000000 O
   0.6986100000000000    0.5132000000000000    0.7982100000000000 O
   0.6038100000000000    0.3825000000000000    0.8000699999999999 O
   0.6780750000000000    0.7295850000000000    0.8311100000000000 O
   0.3187400000000000    0.2703650000000000    0.1686800000000000 O
   0.3044900000000000    0.9862949999999999    0.2018100000000000 O
   0.3938450000000000    0.1178150000000000    0.1996800000000000 O
   0.6986100000000000    0.0132000000000000    0.7982100000000000 O
   0.6038100000000000    0.8825000000000001    0.8000699999999999 O
   0.3538200000000000    0.8675050000000000    0.3000800000000000 O
   0.4280800000000000    0.0204250000000000    0.3311000000000000 O
   0.4486300000000000    0.7367950000000000    0.2982100000000000 O
   0.4280800000000000    0.5204250000000000    0.3311000000000000 O
   0.0687300000000000    0.9796450000000000    0.6686900000000000 O
   0.0544800000000000    0.2637200000000000    0.7018100000000000 O
   0.1438250000000000    0.1321900000000000    0.6996900000000000 O
   0.4486300000000000    0.2367950000000000    0.2982100000000000 O
   0.3538200000000000    0.3675050000000000    0.3000800000000000 O
   0.1438250000000000    0.6321900000000000    0.6996900000000000 O
   0.0687300000000000    0.4796450000000000    0.6686900000000000 O
   0.0544800000000000    0.7637200000000000    0.7018100000000000 O
   0.9280800000000000    0.5204250000000000    0.3311000000000000 O
   0.5687300000000000    0.9796450000000000    0.6686900000000000 O
   0.5544800000000000    0.2637200000000000    0.7018100000000000 O
   0.6438250000000000    0.1321900000000000    0.6996900000000000 O
   0.9486300000000000    0.2367950000000000    0.2982100000000000 O
   0.8538200000000000    0.3675050000000000    0.3000800000000000 O
   0.9280800000000000    0.0204250000000000    0.3311000000000000 O
   0.5687300000000000    0.4796450000000000    0.6686900000000000 O
   0.5544800000000000    0.7637200000000000    0.7018100000000000 O
   0.6438250000000000    0.6321900000000000    0.6996900000000000 O
   0.9486300000000000    0.7367950000000000    0.2982100000000000 O
   0.8538200000000000    0.8675050000000000    0.3000800000000000 O
