H6 O4
1.0
  27.2839999958444075    0.0000000000000000   -0.0004761956330931
   0.0000000000000048   29.5760000000000005    0.0000000000000018
   0.0000000000000000    0.0000000000000000   30.2740000000000009
H O
6 4
direct
   0.6021669684540782    0.5308590863019678    0.7874952917797861 H
   0.6938038921907156    0.6191967371308047    0.8510675800650999 H
   0.6481273133313281    0.5737396803188368    0.8213450101017082 H
   0.7141029711464318    0.4239926814029913    0.9383689733437648 H
   0.6154808420526323    0.4522380855159954    0.9793940606871560 H
   0.6646245208150910    0.4788411016486323    0.9342531763904214 H
   0.6227900000000000    0.5569050000000000    0.7933000000000000 O
   0.6733700000000000    0.6056200000000000    0.8284500000000000 O
   0.7003950000000000    0.4027050000000000    0.9593800000000000 O
   0.6289850000000000    0.4234950000000000    0.9888800000000000 O
