Sr64 H378 C756 O252
1.0
  27.2839999958444075    0.0000000000000000   -0.0004761956330931
   0.0000000000000048   29.5760000000000005    0.0000000000000018
   0.0000000000000000    0.0000000000000000   30.2740000000000009
Sr H C O
64 378 756 252
direct
   0.4603000000000000    0.1530600000000000    0.2697900000000000 Sr
   0.1647050000000000    0.3469200000000000    0.0198000000000000 Sr
   0.4147000000000000    0.3468850000000000    0.0197550000000000 Sr
   0.0397000000000000    0.4030600000000000    0.4802300000000000 Sr
   0.2897000000000000    0.4030600000000000    0.4802100000000000 Sr
   0.0853050000000000    0.0968950000000000    0.2302450000000000 Sr
   0.3353000000000000    0.0969150000000000    0.2302050000000000 Sr
   0.2103050000000000    0.1530800000000000    0.2697950000000000 Sr
   0.9602999999999999    0.1530600000000000    0.2697900000000000 Sr
   0.6647050000000000    0.3469200000000000    0.0198000000000000 Sr
   0.9147000000000001    0.3468850000000000    0.0197550000000000 Sr
   0.5397000000000000    0.4030600000000000    0.4802300000000000 Sr
   0.7897000000000001    0.4030600000000000    0.4802100000000000 Sr
   0.5853050000000000    0.0968950000000000    0.2302450000000000 Sr
   0.8352999999999999    0.0969150000000000    0.2302050000000000 Sr
   0.7103050000000000    0.1530800000000000    0.2697950000000000 Sr
   0.4603000000000000    0.6530600000000000    0.2697900000000000 Sr
   0.1647050000000000    0.8469200000000000    0.0198000000000000 Sr
   0.4147000000000000    0.8468850000000000    0.0197550000000000 Sr
   0.0397000000000000    0.9030600000000000    0.4802300000000000 Sr
   0.2897000000000000    0.9030600000000000    0.4802100000000000 Sr
   0.0853050000000000    0.5968950000000000    0.2302450000000000 Sr
   0.3353000000000000    0.5969150000000000    0.2302050000000000 Sr
   0.2103050000000000    0.6530800000000000    0.2697950000000000 Sr
   0.9602999999999999    0.6530600000000000    0.2697900000000000 Sr
   0.6647050000000000    0.8469200000000000    0.0198000000000000 Sr
   0.9147000000000001    0.8468850000000000    0.0197550000000000 Sr
   0.5397000000000000    0.9030600000000000    0.4802300000000000 Sr
   0.7897000000000001    0.9030600000000000    0.4802100000000000 Sr
   0.5853050000000000    0.5968950000000000    0.2302450000000000 Sr
   0.8352999999999999    0.5969150000000000    0.2302050000000000 Sr
   0.7103050000000000    0.6530800000000000    0.2697950000000000 Sr
   0.4603000000000000    0.1530600000000000    0.7697900000000000 Sr
   0.1647050000000000    0.3469200000000000    0.5198000000000000 Sr
   0.4147000000000000    0.3468850000000000    0.5197550000000000 Sr
   0.0397000000000000    0.4030600000000000    0.9802299999999999 Sr
   0.2897000000000000    0.4030600000000000    0.9802100000000000 Sr
   0.0853050000000000    0.0968950000000000    0.7302450000000000 Sr
   0.3353000000000000    0.0969150000000000    0.7302050000000000 Sr
   0.2103050000000000    0.1530800000000000    0.7697950000000000 Sr
   0.9602999999999999    0.1530600000000000    0.7697900000000000 Sr
   0.6647050000000000    0.3469200000000000    0.5198000000000000 Sr
   0.9147000000000001    0.3468850000000000    0.5197550000000000 Sr
   0.5397000000000000    0.4030600000000000    0.9802299999999999 Sr
   0.7897000000000001    0.4030600000000000    0.9802100000000000 Sr
   0.5853050000000000    0.0968950000000000    0.7302450000000000 Sr
   0.8352999999999999    0.0969150000000000    0.7302050000000000 Sr
   0.7103050000000000    0.1530800000000000    0.7697950000000000 Sr
   0.4603000000000000    0.6530600000000000    0.7697900000000000 Sr
   0.1647050000000000    0.8469200000000000    0.5198000000000000 Sr
   0.4147000000000000    0.8468850000000000    0.5197550000000000 Sr
   0.0397000000000000    0.9030600000000000    0.9802299999999999 Sr
   0.2897000000000000    0.9030600000000000    0.9802100000000000 Sr
   0.0853050000000000    0.5968950000000000    0.7302450000000000 Sr
   0.3353000000000000    0.5969150000000000    0.7302050000000000 Sr
   0.2103050000000000    0.6530800000000000    0.7697950000000000 Sr
   0.9602999999999999    0.6530600000000000    0.7697900000000000 Sr
   0.6647050000000000    0.8469200000000000    0.5198000000000000 Sr
   0.9147000000000001    0.8468850000000000    0.5197550000000000 Sr
   0.5397000000000000    0.9030600000000000    0.9802299999999999 Sr
   0.7897000000000001    0.9030600000000000    0.9802100000000000 Sr
   0.5853050000000000    0.5968950000000000    0.7302450000000000 Sr
   0.8352999999999999    0.5969150000000000    0.7302050000000000 Sr
   0.7103050000000000    0.6530800000000000    0.7697950000000000 Sr
   0.1866200000000000    0.0743550000000000    0.1278700000000000 H
   0.4365550000000000    0.0743300000000000    0.1278500000000000 H
   0.1977100000000000    0.0165400000000000    0.0687350000000000 H
   0.4476600000000000    0.0165350000000000    0.0687250000000000 H
   0.2428000000000000    0.0000000000000000    0.2609950000000000 H
   0.4927750000000000    0.0000000000000000    0.2609700000000000 H
   0.2722800000000000    0.3644400000000000    0.2217500000000000 H
   0.0000000000000000    0.3644050000000000    0.2217550000000000 H
   0.2485900000000000    0.3825850000000000    0.1447250000000000 H
   0.4985450000000000    0.3825550000000000    0.1446900000000000 H
   0.2691450000000000    0.4241650000000000    0.2797900000000000 H
   0.0000000000000000    0.4241300000000000    0.2797600000000000 H
   0.1884050000000000    0.4256300000000000    0.3778850000000000 H
   0.4384000000000000    0.4256300000000000    0.3778800000000000 H
   0.1773050000000000    0.4834450000000000    0.3187450000000000 H
   0.4273150000000000    0.4834400000000000    0.3187400000000000 H
   0.1321900000000000    0.4983500000000000    0.0109800000000000 H
   0.3821950000000000    0.4983600000000000    0.0109750000000000 H
   0.1027450000000000    0.1355550000000000    0.4717900000000000 H
   0.3527300000000000    0.1355550000000000    0.4717700000000000 H
   0.1264550000000000    0.1174150000000000    0.3947300000000000 H
   0.3764250000000000    0.1174050000000000    0.3947050000000000 H
   0.1058450000000000    0.0758200000000000    0.0297750000000000 H
   0.3558450000000000    0.0758300000000000    0.0297650000000000 H
   0.0634700000000000    0.3243250000000000    0.1221250000000000 H
   0.3133900000000000    0.3243500000000000    0.1221300000000000 H
   0.0523700000000000    0.2665350000000000    0.1812800000000000 H
   0.3022950000000000    0.2665400000000000    0.1812700000000000 H
   0.0072200000000000    0.2516000000000000    0.4890500000000000 H
   0.2571800000000000    0.2516400000000000    0.4890300000000000 H
   0.4777750000000000    0.1144050000000000    0.0282700000000000 H
   0.2277100000000000    0.1144450000000000    0.0282300000000000 H
   0.0014700000000000    0.1325700000000000    0.1053300000000000 H
   0.2514200000000000    0.1325900000000000    0.1052900000000000 H
   0.4808800000000000    0.1741250000000000    0.4702700000000000 H
   0.2308250000000000    0.1741700000000000    0.4702350000000000 H
   0.0615750000000000    0.1756450000000000    0.3721000000000000 H
   0.3116100000000000    0.1756400000000000    0.3721150000000000 H
   0.0726700000000000    0.2334450000000000    0.4312800000000000 H
   0.3227000000000000    0.2334600000000000    0.4312500000000000 H
   0.1178150000000000    0.2483550000000000    0.2390350000000000 H
   0.3678200000000000    0.2483400000000000    0.2390000000000000 H
   0.1472650000000000    0.3855550000000000    0.2782550000000000 H
   0.3972950000000000    0.3855350000000000    0.2782050000000000 H
   0.1235600000000000    0.3674050000000000    0.3553150000000000 H
   0.3735750000000000    0.3674000000000000    0.3552650000000000 H
   0.1441600000000000    0.3258250000000000    0.2202500000000000 H
   0.3941700000000000    0.3258050000000000    0.2202050000000000 H
   0.6866200000000000    0.0743550000000000    0.1278700000000000 H
   0.9365550000000000    0.0743300000000000    0.1278500000000000 H
   0.6977100000000001    0.0165400000000000    0.0687350000000000 H
   0.9476599999999999    0.0165350000000000    0.0687250000000000 H
   0.7428000000000000    0.0000000000000000    0.2609950000000000 H
   0.9927750000000000    0.0000000000000000    0.2609700000000000 H
   0.7722800000000001    0.3644400000000000    0.2217500000000000 H
   0.5000000000000000    0.3644050000000000    0.2217550000000000 H
   0.7485900000000000    0.3825850000000000    0.1447250000000000 H
   0.9985450000000000    0.3825550000000000    0.1446900000000000 H
   0.7691450000000000    0.4241650000000000    0.2797900000000000 H
   0.5000000000000000    0.4241300000000000    0.2797600000000000 H
   0.6884049999999999    0.4256300000000000    0.3778850000000000 H
   0.9384000000000000    0.4256300000000000    0.3778800000000000 H
   0.6773050000000000    0.4834450000000000    0.3187450000000000 H
   0.9273150000000000    0.4834400000000000    0.3187400000000000 H
   0.8821950000000001    0.4983600000000000    0.0109750000000000 H
   0.6027450000000000    0.1355550000000000    0.4717900000000000 H
   0.8527300000000000    0.1355550000000000    0.4717700000000000 H
   0.6264550000000000    0.1174150000000000    0.3947300000000000 H
   0.8764250000000000    0.1174050000000000    0.3947050000000000 H
   0.6058450000000000    0.0758200000000000    0.0297750000000000 H
   0.8558450000000000    0.0758300000000000    0.0297650000000000 H
   0.5634700000000000    0.3243250000000000    0.1221250000000000 H
   0.8133900000000001    0.3243500000000000    0.1221300000000000 H
   0.5523700000000000    0.2665350000000000    0.1812800000000000 H
   0.8022950000000000    0.2665400000000000    0.1812700000000000 H
   0.5072200000000000    0.2516000000000000    0.4890500000000000 H
   0.7571800000000000    0.2516400000000000    0.4890300000000000 H
   0.9777750000000001    0.1144050000000000    0.0282700000000000 H
   0.7277100000000000    0.1144450000000000    0.0282300000000000 H
   0.5014700000000000    0.1325700000000000    0.1053300000000000 H
   0.7514200000000000    0.1325900000000000    0.1052900000000000 H
   0.9808800000000000    0.1741250000000000    0.4702700000000000 H
   0.7308250000000001    0.1741700000000000    0.4702350000000000 H
   0.5615750000000000    0.1756450000000000    0.3721000000000000 H
   0.8116099999999999    0.1756400000000000    0.3721150000000000 H
   0.5726700000000000    0.2334450000000000    0.4312800000000000 H
   0.8227000000000000    0.2334600000000000    0.4312500000000000 H
   0.6178150000000000    0.2483550000000000    0.2390350000000000 H
   0.8678200000000000    0.2483400000000000    0.2390000000000000 H
   0.6472650000000000    0.3855550000000000    0.2782550000000000 H
   0.8972950000000000    0.3855350000000000    0.2782050000000000 H
   0.6235600000000000    0.3674050000000000    0.3553150000000000 H
   0.8735750000000000    0.3674000000000000    0.3552650000000000 H
   0.6441600000000001    0.3258250000000000    0.2202500000000000 H
   0.8941700000000000    0.3258050000000000    0.2202050000000000 H
   0.1866200000000000    0.5743549999999999    0.1278700000000000 H
   0.4365550000000000    0.5743300000000000    0.1278500000000000 H
   0.1977100000000000    0.5165400000000000    0.0687350000000000 H
   0.4476600000000000    0.5165350000000000    0.0687250000000000 H
   0.2428000000000000    0.5000000000000000    0.2609950000000000 H
   0.4927750000000000    0.5000000000000000    0.2609700000000000 H
   0.2722800000000000    0.8644400000000000    0.2217500000000000 H
   0.0000000000000000    0.8644050000000000    0.2217550000000000 H
   0.2485900000000000    0.8825850000000000    0.1447250000000000 H
   0.4985450000000000    0.8825550000000000    0.1446900000000000 H
   0.2691450000000000    0.9241650000000000    0.2797900000000000 H
   0.0000000000000000    0.9241300000000000    0.2797600000000000 H
   0.1884050000000000    0.9256300000000000    0.3778850000000000 H
   0.4384000000000000    0.9256300000000000    0.3778800000000000 H
   0.1773050000000000    0.9834450000000000    0.3187450000000000 H
   0.4273150000000000    0.9834400000000000    0.3187400000000000 H
   0.1321900000000000    0.9983500000000001    0.0109800000000000 H
   0.3821950000000000    0.9983600000000000    0.0109750000000000 H
   0.1027450000000000    0.6355550000000000    0.4717900000000000 H
   0.3527300000000000    0.6355550000000000    0.4717700000000000 H
   0.1264550000000000    0.6174150000000000    0.3947300000000000 H
   0.3764250000000000    0.6174050000000000    0.3947050000000000 H
   0.1058450000000000    0.5758200000000000    0.0297750000000000 H
   0.3558450000000000    0.5758300000000000    0.0297650000000000 H
   0.0634700000000000    0.8243250000000000    0.1221250000000000 H
   0.3133900000000000    0.8243500000000000    0.1221300000000000 H
   0.0523700000000000    0.7665350000000000    0.1812800000000000 H
   0.3022950000000000    0.7665400000000000    0.1812700000000000 H
   0.0072200000000000    0.7516000000000000    0.4890500000000000 H
   0.2571800000000000    0.7516400000000000    0.4890300000000000 H
   0.4777750000000000    0.6144050000000000    0.0282700000000000 H
   0.2277100000000000    0.6144450000000000    0.0282300000000000 H
   0.0014700000000000    0.6325700000000000    0.1053300000000000 H
   0.2514200000000000    0.6325900000000000    0.1052900000000000 H
   0.4808800000000000    0.6741250000000000    0.4702700000000000 H
   0.2308250000000000    0.6741699999999999    0.4702350000000000 H
   0.0615750000000000    0.6756450000000001    0.3721000000000000 H
   0.3116100000000000    0.6756400000000000    0.3721150000000000 H
   0.0726700000000000    0.7334450000000000    0.4312800000000000 H
   0.3227000000000000    0.7334600000000000    0.4312500000000000 H
   0.1178150000000000    0.7483550000000000    0.2390350000000000 H
   0.3678200000000000    0.7483400000000000    0.2390000000000000 H
   0.1472650000000000    0.8855550000000000    0.2782550000000000 H
   0.3972950000000000    0.8855350000000000    0.2782050000000000 H
   0.1235600000000000    0.8674050000000000    0.3553150000000000 H
   0.3735750000000000    0.8673999999999999    0.3552650000000000 H
   0.1441600000000000    0.8258250000000000    0.2202500000000000 H
   0.3941700000000000    0.8258050000000000    0.2202050000000000 H
   0.6866200000000000    0.5743549999999999    0.1278700000000000 H
   0.9365550000000000    0.5743300000000000    0.1278500000000000 H
   0.6977100000000001    0.5165400000000000    0.0687350000000000 H
   0.9476599999999999    0.5165350000000000    0.0687250000000000 H
   0.7428000000000000    0.5000000000000000    0.2609950000000000 H
   0.9927750000000000    0.5000000000000000    0.2609700000000000 H
   0.7722800000000001    0.8644400000000000    0.2217500000000000 H
   0.5000000000000000    0.8644050000000000    0.2217550000000000 H
   0.7485900000000000    0.8825850000000000    0.1447250000000000 H
   0.9985450000000000    0.8825550000000000    0.1446900000000000 H
   0.7691450000000000    0.9241650000000000    0.2797900000000000 H
   0.5000000000000000    0.9241300000000000    0.2797600000000000 H
   0.6884049999999999    0.9256300000000000    0.3778850000000000 H
   0.9384000000000000    0.9256300000000000    0.3778800000000000 H
   0.6773050000000000    0.9834450000000000    0.3187450000000000 H
   0.9273150000000000    0.9834400000000000    0.3187400000000000 H
   0.6321900000000000    0.9983500000000001    0.0109800000000000 H
   0.8821950000000001    0.9983600000000000    0.0109750000000000 H
   0.6027450000000000    0.6355550000000000    0.4717900000000000 H
   0.8527300000000000    0.6355550000000000    0.4717700000000000 H
   0.6264550000000000    0.6174150000000000    0.3947300000000000 H
   0.8764250000000000    0.6174050000000000    0.3947050000000000 H
   0.8558450000000000    0.5758300000000000    0.0297650000000000 H
   0.5634700000000000    0.8243250000000000    0.1221250000000000 H
   0.8133900000000001    0.8243500000000000    0.1221300000000000 H
   0.5523700000000000    0.7665350000000000    0.1812800000000000 H
   0.8022950000000000    0.7665400000000000    0.1812700000000000 H
   0.5072200000000000    0.7516000000000000    0.4890500000000000 H
   0.7571800000000000    0.7516400000000000    0.4890300000000000 H
   0.9777750000000001    0.6144050000000000    0.0282700000000000 H
   0.7277100000000000    0.6144450000000000    0.0282300000000000 H
   0.5014700000000000    0.6325700000000000    0.1053300000000000 H
   0.7514200000000000    0.6325900000000000    0.1052900000000000 H
   0.9808800000000000    0.6741250000000000    0.4702700000000000 H
   0.7308250000000001    0.6741699999999999    0.4702350000000000 H
   0.5615750000000000    0.6756450000000001    0.3721000000000000 H
   0.8116099999999999    0.6756400000000000    0.3721150000000000 H
   0.5726700000000000    0.7334450000000000    0.4312800000000000 H
   0.8227000000000000    0.7334600000000000    0.4312500000000000 H
   0.6178150000000000    0.7483550000000000    0.2390350000000000 H
   0.8678200000000000    0.7483400000000000    0.2390000000000000 H
   0.6472650000000000    0.8855550000000000    0.2782550000000000 H
   0.8972950000000000    0.8855350000000000    0.2782050000000000 H
   0.6235600000000000    0.8674050000000000    0.3553150000000000 H
   0.8735750000000000    0.8673999999999999    0.3552650000000000 H
   0.6441600000000001    0.8258250000000000    0.2202500000000000 H
   0.8941700000000000    0.8258050000000000    0.2202050000000000 H
   0.1866200000000000    0.0743550000000000    0.6278700000000000 H
   0.4365550000000000    0.0743300000000000    0.6278500000000000 H
   0.1977100000000000    0.0165400000000000    0.5687350000000000 H
   0.4476600000000000    0.0165350000000000    0.5687250000000000 H
   0.2428000000000000    0.0000000000000000    0.7609950000000000 H
   0.4927750000000000    0.0000000000000000    0.7609699999999999 H
   0.2722800000000000    0.3644400000000000    0.7217500000000000 H
   0.0000000000000000    0.3644050000000000    0.7217550000000000 H
   0.2485900000000000    0.3825850000000000    0.6447250000000000 H
   0.4985450000000000    0.3825550000000000    0.6446900000000000 H
   0.2691450000000000    0.4241650000000000    0.7797900000000000 H
   0.0000000000000000    0.4241300000000000    0.7797600000000000 H
   0.1884050000000000    0.4256300000000000    0.8778850000000000 H
   0.4384000000000000    0.4256300000000000    0.8778800000000000 H
   0.1773050000000000    0.4834450000000000    0.8187450000000001 H
   0.4273150000000000    0.4834400000000000    0.8187400000000000 H
   0.1321900000000000    0.4983500000000000    0.5109800000000000 H
   0.3821950000000000    0.4983600000000000    0.5109750000000000 H
   0.1027450000000000    0.1355550000000000    0.9717899999999999 H
   0.3527300000000000    0.1355550000000000    0.9717700000000000 H
   0.1264550000000000    0.1174150000000000    0.8947300000000000 H
   0.3764250000000000    0.1174050000000000    0.8947050000000000 H
   0.1058450000000000    0.0758200000000000    0.5297750000000000 H
   0.3558450000000000    0.0758300000000000    0.5297650000000000 H
   0.0634700000000000    0.3243250000000000    0.6221250000000000 H
   0.3133900000000000    0.3243500000000000    0.6221300000000000 H
   0.0523700000000000    0.2665350000000000    0.6812800000000000 H
   0.3022950000000000    0.2665400000000000    0.6812700000000000 H
   0.0072200000000000    0.2516000000000000    0.9890500000000000 H
   0.2571800000000000    0.2516400000000000    0.9890300000000001 H
   0.4777750000000000    0.1144050000000000    0.5282700000000000 H
   0.2277100000000000    0.1144450000000000    0.5282300000000000 H
   0.0014700000000000    0.1325700000000000    0.6053300000000000 H
   0.2514200000000000    0.1325900000000000    0.6052900000000000 H
   0.4808800000000000    0.1741250000000000    0.9702700000000000 H
   0.2308250000000000    0.1741700000000000    0.9702350000000000 H
   0.0615750000000000    0.1756450000000000    0.8721000000000000 H
   0.3116100000000000    0.1756400000000000    0.8721150000000000 H
   0.0726700000000000    0.2334450000000000    0.9312800000000000 H
   0.3227000000000000    0.2334600000000000    0.9312500000000000 H
   0.1178150000000000    0.2483550000000000    0.7390350000000000 H
   0.3678200000000000    0.2483400000000000    0.7390000000000000 H
   0.1472650000000000    0.3855550000000000    0.7782549999999999 H
   0.3972950000000000    0.3855350000000000    0.7782050000000000 H
   0.1235600000000000    0.3674050000000000    0.8553150000000000 H
   0.3735750000000000    0.3674000000000000    0.8552649999999999 H
   0.1441600000000000    0.3258250000000000    0.7202500000000001 H
   0.3941700000000000    0.3258050000000000    0.7202050000000000 H
   0.6866200000000000    0.0743550000000000    0.6278700000000000 H
   0.9365550000000000    0.0743300000000000    0.6278500000000000 H
   0.6977100000000001    0.0165400000000000    0.5687350000000000 H
   0.9476599999999999    0.0165350000000000    0.5687250000000000 H
   0.7428000000000000    0.0000000000000000    0.7609950000000000 H
   0.9927750000000000    0.0000000000000000    0.7609699999999999 H
   0.7722800000000001    0.3644400000000000    0.7217500000000000 H
   0.5000000000000000    0.3644050000000000    0.7217550000000000 H
   0.7485900000000000    0.3825850000000000    0.6447250000000000 H
   0.9985450000000000    0.3825550000000000    0.6446900000000000 H
   0.7691450000000000    0.4241650000000000    0.7797900000000000 H
   0.5000000000000000    0.4241300000000000    0.7797600000000000 H
   0.9384000000000000    0.4256300000000000    0.8778800000000000 H
   0.9273150000000000    0.4834400000000000    0.8187400000000000 H
   0.6321900000000000    0.4983500000000000    0.5109800000000000 H
   0.8821950000000001    0.4983600000000000    0.5109750000000000 H
   0.6027450000000000    0.1355550000000000    0.9717899999999999 H
   0.8527300000000000    0.1355550000000000    0.9717700000000000 H
   0.6264550000000000    0.1174150000000000    0.8947300000000000 H
   0.8764250000000000    0.1174050000000000    0.8947050000000000 H
   0.6058450000000000    0.0758200000000000    0.5297750000000000 H
   0.8558450000000000    0.0758300000000000    0.5297650000000000 H
   0.5634700000000000    0.3243250000000000    0.6221250000000000 H
   0.8133900000000001    0.3243500000000000    0.6221300000000000 H
   0.5523700000000000    0.2665350000000000    0.6812800000000000 H
   0.8022950000000000    0.2665400000000000    0.6812700000000000 H
   0.5072200000000000    0.2516000000000000    0.9890500000000000 H
   0.7571800000000000    0.2516400000000000    0.9890300000000001 H
   0.9777750000000001    0.1144050000000000    0.5282700000000000 H
   0.7277100000000000    0.1144450000000000    0.5282300000000000 H
   0.5014700000000000    0.1325700000000000    0.6053300000000000 H
   0.7514200000000000    0.1325900000000000    0.6052900000000000 H
   0.9808800000000000    0.1741250000000000    0.9702700000000000 H
   0.7308250000000001    0.1741700000000000    0.9702350000000000 H
   0.5615750000000000    0.1756450000000000    0.8721000000000000 H
   0.8116099999999999    0.1756400000000000    0.8721150000000000 H
   0.5726700000000000    0.2334450000000000    0.9312800000000000 H
   0.8227000000000000    0.2334600000000000    0.9312500000000000 H
   0.6178150000000000    0.2483550000000000    0.7390350000000000 H
   0.8678200000000000    0.2483400000000000    0.7390000000000000 H
   0.6472650000000000    0.3855550000000000    0.7782549999999999 H
   0.8972950000000000    0.3855350000000000    0.7782050000000000 H
   0.6235600000000000    0.3674050000000000    0.8553150000000000 H
   0.8735750000000000    0.3674000000000000    0.8552649999999999 H
   0.6441600000000001    0.3258250000000000    0.7202500000000001 H
   0.8941700000000000    0.3258050000000000    0.7202050000000000 H
   0.1866200000000000    0.5743549999999999    0.6278700000000000 H
   0.4365550000000000    0.5743300000000000    0.6278500000000000 H
   0.1977100000000000    0.5165400000000000    0.5687350000000000 H
   0.4476600000000000    0.5165350000000000    0.5687250000000000 H
   0.2428000000000000    0.5000000000000000    0.7609950000000000 H
   0.4927750000000000    0.5000000000000000    0.7609699999999999 H
   0.2722800000000000    0.8644400000000000    0.7217500000000000 H
   0.0000000000000000    0.8644050000000000    0.7217550000000000 H
   0.2485900000000000    0.8825850000000000    0.6447250000000000 H
   0.4985450000000000    0.8825550000000000    0.6446900000000000 H
   0.2691450000000000    0.9241650000000000    0.7797900000000000 H
   0.0000000000000000    0.9241300000000000    0.7797600000000000 H
   0.1884050000000000    0.9256300000000000    0.8778850000000000 H
   0.4384000000000000    0.9256300000000000    0.8778800000000000 H
   0.1773050000000000    0.9834450000000000    0.8187450000000001 H
   0.4273150000000000    0.9834400000000000    0.8187400000000000 H
   0.1321900000000000    0.9983500000000001    0.5109800000000000 H
   0.3821950000000000    0.9983600000000000    0.5109750000000000 H
   0.1027450000000000    0.6355550000000000    0.9717899999999999 H
   0.3527300000000000    0.6355550000000000    0.9717700000000000 H
   0.1264550000000000    0.6174150000000000    0.8947300000000000 H
   0.3764250000000000    0.6174050000000000    0.8947050000000000 H
   0.1058450000000000    0.5758200000000000    0.5297750000000000 H
   0.3558450000000000    0.5758300000000000    0.5297650000000000 H
   0.0634700000000000    0.8243250000000000    0.6221250000000000 H
   0.3133900000000000    0.8243500000000000    0.6221300000000000 H
   0.0523700000000000    0.7665350000000000    0.6812800000000000 H
   0.3022950000000000    0.7665400000000000    0.6812700000000000 H
   0.0072200000000000    0.7516000000000000    0.9890500000000000 H
   0.2571800000000000    0.7516400000000000    0.9890300000000001 H
   0.4777750000000000    0.6144050000000000    0.5282700000000000 H
   0.2277100000000000    0.6144450000000000    0.5282300000000000 H
   0.0014700000000000    0.6325700000000000    0.6053300000000000 H
   0.2514200000000000    0.6325900000000000    0.6052900000000000 H
   0.4808800000000000    0.6741250000000000    0.9702700000000000 H
   0.2308250000000000    0.6741699999999999    0.9702350000000000 H
   0.0615750000000000    0.6756450000000001    0.8721000000000000 H
   0.3116100000000000    0.6756400000000000    0.8721150000000000 H
   0.0726700000000000    0.7334450000000000    0.9312800000000000 H
   0.3227000000000000    0.7334600000000000    0.9312500000000000 H
   0.1178150000000000    0.7483550000000000    0.7390350000000000 H
   0.3678200000000000    0.7483400000000000    0.7390000000000000 H
   0.1472650000000000    0.8855550000000000    0.7782549999999999 H
   0.3972950000000000    0.8855350000000000    0.7782050000000000 H
   0.1235600000000000    0.8674050000000000    0.8553150000000000 H
   0.3735750000000000    0.8673999999999999    0.8552649999999999 H
   0.1441600000000000    0.8258250000000000    0.7202500000000001 H
   0.3941700000000000    0.8258050000000000    0.7202050000000000 H
   0.6866200000000000    0.5743549999999999    0.6278700000000000 H
   0.9365550000000000    0.5743300000000000    0.6278500000000000 H
   0.6977100000000001    0.5165400000000000    0.5687350000000000 H
   0.9476599999999999    0.5165350000000000    0.5687250000000000 H
   0.7428000000000000    0.5000000000000000    0.7609950000000000 H
   0.9927750000000000    0.5000000000000000    0.7609699999999999 H
   0.7722800000000001    0.8644400000000000    0.7217500000000000 H
   0.5000000000000000    0.8644050000000000    0.7217550000000000 H
   0.7485900000000000    0.8825850000000000    0.6447250000000000 H
   0.9985450000000000    0.8825550000000000    0.6446900000000000 H
   0.7691450000000000    0.9241650000000000    0.7797900000000000 H
   0.5000000000000000    0.9241300000000000    0.7797600000000000 H
   0.6884049999999999    0.9256300000000000    0.8778850000000000 H
   0.9384000000000000    0.9256300000000000    0.8778800000000000 H
   0.6773050000000000    0.9834450000000000    0.8187450000000001 H
   0.9273150000000000    0.9834400000000000    0.8187400000000000 H
   0.6321900000000000    0.9983500000000001    0.5109800000000000 H
   0.8821950000000001    0.9983600000000000    0.5109750000000000 H
   0.8527300000000000    0.6355550000000000    0.9717700000000000 H
   0.8764250000000000    0.6174050000000000    0.8947050000000000 H
   0.6058450000000000    0.5758200000000000    0.5297750000000000 H
   0.8558450000000000    0.5758300000000000    0.5297650000000000 H
   0.5634700000000000    0.8243250000000000    0.6221250000000000 H
   0.8133900000000001    0.8243500000000000    0.6221300000000000 H
   0.5523700000000000    0.7665350000000000    0.6812800000000000 H
   0.8022950000000000    0.7665400000000000    0.6812700000000000 H
   0.5072200000000000    0.7516000000000000    0.9890500000000000 H
   0.7571800000000000    0.7516400000000000    0.9890300000000001 H
   0.9777750000000001    0.6144050000000000    0.5282700000000000 H
   0.7277100000000000    0.6144450000000000    0.5282300000000000 H
   0.5014700000000000    0.6325700000000000    0.6053300000000000 H
   0.7514200000000000    0.6325900000000000    0.6052900000000000 H
   0.9808800000000000    0.6741250000000000    0.9702700000000000 H
   0.7308250000000001    0.6741699999999999    0.9702350000000000 H
   0.5615750000000000    0.6756450000000001    0.8721000000000000 H
   0.8116099999999999    0.6756400000000000    0.8721150000000000 H
   0.5726700000000000    0.7334450000000000    0.9312800000000000 H
   0.8227000000000000    0.7334600000000000    0.9312500000000000 H
   0.6178150000000000    0.7483550000000000    0.7390350000000000 H
   0.8678200000000000    0.7483400000000000    0.7390000000000000 H