H2 O2
1.0
  30.7399992087471148    0.0000000000000000    0.0069746846969807
   0.0003508810018361   20.1039999969379863    0.0000000000000012
   0.0000000000000000    0.0000000000000000   35.3939999999999984
H O
2 2
direct
   0.0298760057565955    0.1250000000000000    0.6977557411102241 H
   0.0919055241989442    0.1250000000000000    0.7072719923697787 H
   0.0440450000000000    0.1250000000000000    0.6729950000000000 O
   0.0882300000000000    0.1250000000000000    0.6798100000000000 O
