Zn128 H382 C382 N573 Cl64
1.0
  30.7399992087471148    0.0000000000000000    0.0069746846969807
   0.0003508810018361   20.1039999969379863    0.0000000000000012
   0.0000000000000000    0.0000000000000000   35.3939999999999984
Zn H C N Cl
128 382 382 573 64
direct
   0.1188750000000000    0.8750100000000000    0.3686000000000000 Zn
   0.3688750000000000    0.3750000000000000    0.3686000000000000 Zn
   0.3688750000000000    0.8750100000000000    0.3686000000000000 Zn
   0.0057350000000000    0.1250000000000000    0.1186250000000000 Zn
   0.0057350000000000    0.6250100000000000    0.1186250000000000 Zn
   0.2557350000000000    0.1250000000000000    0.1186250000000000 Zn
   0.2557350000000000    0.6250100000000000    0.1186250000000000 Zn
   0.1311200000000000    0.1250000000000000    0.1313950000000000 Zn
   0.1311200000000000    0.6250100000000000    0.1313950000000000 Zn
   0.3811200000000000    0.1250000000000000    0.1313950000000000 Zn
   0.3811200000000000    0.6250100000000000    0.1313950000000000 Zn
   0.2442650000000000    0.3750000000000000    0.3813650000000000 Zn
   0.2442650000000000    0.8750100000000000    0.3813650000000000 Zn
   0.4942650000000000    0.3750000000000000    0.3813650000000000 Zn
   0.4942650000000000    0.8750100000000000    0.3813650000000000 Zn
   0.1574700000000000    0.1250000000000000    0.4607950000000000 Zn
   0.1574700000000000    0.6250100000000000    0.4607950000000000 Zn
   0.4074700000000000    0.1250000000000000    0.4607950000000000 Zn
   0.4074700000000000    0.6250100000000000    0.4607950000000000 Zn
   0.2180950000000000    0.3750000000000000    0.2108450000000000 Zn
   0.2180950000000000    0.8750100000000000    0.2108450000000000 Zn
   0.4680950000000000    0.3750000000000000    0.2108450000000000 Zn
   0.4680950000000000    0.8750100000000000    0.2108450000000000 Zn
   0.0925300000000000    0.3750000000000000    0.0392000000000000 Zn
   0.0925300000000000    0.8750100000000000    0.0392000000000000 Zn
   0.3425300000000000    0.3750000000000000    0.0392000000000000 Zn
   0.3425300000000000    0.8750100000000000    0.0392000000000000 Zn
   0.0319000000000000    0.1250000000000000    0.2891500000000000 Zn
   0.0319050000000000    0.6250100000000000    0.2891500000000000 Zn
   0.2819000000000000    0.1250000000000000    0.2891500000000000 Zn
   0.2819050000000000    0.6250100000000000    0.2891500000000000 Zn
   0.1188750000000000    0.3750000000000000    0.3686000000000000 Zn
   0.6188750000000000    0.8750100000000000    0.3686000000000000 Zn
   0.8688750000000001    0.3750000000000000    0.3686000000000000 Zn
   0.8688750000000001    0.8750100000000000    0.3686000000000000 Zn
   0.5057350000000000    0.1250000000000000    0.1186250000000000 Zn
   0.5057350000000000    0.6250100000000000    0.1186250000000000 Zn
   0.7557350000000000    0.1250000000000000    0.1186250000000000 Zn
   0.7557350000000000    0.6250100000000000    0.1186250000000000 Zn
   0.6311200000000000    0.1250000000000000    0.1313950000000000 Zn
   0.6311200000000000    0.6250100000000000    0.1313950000000000 Zn
   0.8811200000000000    0.1250000000000000    0.1313950000000000 Zn
   0.8811200000000000    0.6250100000000000    0.1313950000000000 Zn
   0.7442650000000000    0.3750000000000000    0.3813650000000000 Zn
   0.7442650000000000    0.8750100000000000    0.3813650000000000 Zn
   0.9942650000000000    0.3750000000000000    0.3813650000000000 Zn
   0.9942650000000000    0.8750100000000000    0.3813650000000000 Zn
   0.6574700000000000    0.1250000000000000    0.4607950000000000 Zn
   0.6574700000000000    0.6250100000000000    0.4607950000000000 Zn
   0.9074700000000000    0.1250000000000000    0.4607950000000000 Zn
   0.9074700000000000    0.6250100000000000    0.4607950000000000 Zn
   0.7180950000000000    0.3750000000000000    0.2108450000000000 Zn
   0.7180950000000000    0.8750100000000000    0.2108450000000000 Zn
   0.9680949999999999    0.3750000000000000    0.2108450000000000 Zn
   0.9680949999999999    0.8750100000000000    0.2108450000000000 Zn
   0.5925300000000000    0.3750000000000000    0.0392000000000000 Zn
   0.5925300000000000    0.8750100000000000    0.0392000000000000 Zn
   0.8425300000000000    0.3750000000000000    0.0392000000000000 Zn
   0.8425300000000000    0.8750100000000000    0.0392000000000000 Zn
   0.5319000000000000    0.1250000000000000    0.2891500000000000 Zn
   0.5319050000000000    0.6250100000000000    0.2891500000000000 Zn
   0.7819000000000000    0.1250000000000000    0.2891500000000000 Zn
   0.7819050000000001    0.6250100000000000    0.2891500000000000 Zn
   0.6188750000000000    0.3750000000000000    0.3686000000000000 Zn
   0.1188750000000000    0.8750100000000000    0.8686000000000000 Zn
   0.3688750000000000    0.3750000000000000    0.8686000000000000 Zn
   0.3688750000000000    0.8750100000000000    0.8686000000000000 Zn
   0.0057350000000000    0.1250000000000000    0.6186250000000000 Zn
   0.0057350000000000    0.6250100000000000    0.6186250000000000 Zn
   0.2557350000000000    0.1250000000000000    0.6186250000000000 Zn
   0.2557350000000000    0.6250100000000000    0.6186250000000000 Zn
   0.1311200000000000    0.1250000000000000    0.6313950000000000 Zn
   0.1311200000000000    0.6250100000000000    0.6313950000000000 Zn
   0.3811200000000000    0.1250000000000000    0.6313950000000000 Zn
   0.3811200000000000    0.6250100000000000    0.6313950000000000 Zn
   0.2442650000000000    0.3750000000000000    0.8813650000000000 Zn
   0.2442650000000000    0.8750100000000000    0.8813650000000000 Zn
   0.4942650000000000    0.3750000000000000    0.8813650000000000 Zn
   0.4942650000000000    0.8750100000000000    0.8813650000000000 Zn
   0.1574700000000000    0.1250000000000000    0.9607950000000001 Zn
   0.1574700000000000    0.6250100000000000    0.9607950000000001 Zn
   0.4074700000000000    0.1250000000000000    0.9607950000000001 Zn
   0.4074700000000000    0.6250100000000000    0.9607950000000001 Zn
   0.2180950000000000    0.3750000000000000    0.7108449999999999 Zn
   0.2180950000000000    0.8750100000000000    0.7108449999999999 Zn
   0.4680950000000000    0.3750000000000000    0.7108449999999999 Zn
   0.4680950000000000    0.8750100000000000    0.7108449999999999 Zn
   0.0925300000000000    0.3750000000000000    0.5392000000000000 Zn
   0.0925300000000000    0.8750100000000000    0.5392000000000000 Zn
   0.3425300000000000    0.3750000000000000    0.5392000000000000 Zn
   0.3425300000000000    0.8750100000000000    0.5392000000000000 Zn
   0.0319000000000000    0.1250000000000000    0.7891500000000000 Zn
   0.0319050000000000    0.6250100000000000    0.7891500000000000 Zn
   0.2819000000000000    0.1250000000000000    0.7891500000000000 Zn
   0.2819050000000000    0.6250100000000000    0.7891500000000000 Zn
   0.1188750000000000    0.3750000000000000    0.8686000000000000 Zn
   0.6188750000000000    0.8750100000000000    0.8686000000000000 Zn
   0.8688750000000001    0.3750000000000000    0.8686000000000000 Zn
   0.8688750000000001    0.8750100000000000    0.8686000000000000 Zn
   0.5057350000000000    0.1250000000000000    0.6186250000000000 Zn
   0.5057350000000000    0.6250100000000000    0.6186250000000000 Zn
   0.7557350000000000    0.1250000000000000    0.6186250000000000 Zn
   0.7557350000000000    0.6250100000000000    0.6186250000000000 Zn
   0.6311200000000000    0.1250000000000000    0.6313950000000000 Zn
   0.6311200000000000    0.6250100000000000    0.6313950000000000 Zn
   0.8811200000000000    0.1250000000000000    0.6313950000000000 Zn
   0.8811200000000000    0.6250100000000000    0.6313950000000000 Zn
   0.7442650000000000    0.3750000000000000    0.8813650000000000 Zn
   0.7442650000000000    0.8750100000000000    0.8813650000000000 Zn
   0.9942650000000000    0.3750000000000000    0.8813650000000000 Zn
   0.9942650000000000    0.8750100000000000    0.8813650000000000 Zn
   0.6574700000000000    0.1250000000000000    0.9607950000000001 Zn
   0.6574700000000000    0.6250100000000000    0.9607950000000001 Zn
   0.9074700000000000    0.1250000000000000    0.9607950000000001 Zn
   0.9074700000000000    0.6250100000000000    0.9607950000000001 Zn
   0.7180950000000000    0.3750000000000000    0.7108449999999999 Zn
   0.7180950000000000    0.8750100000000000    0.7108449999999999 Zn
   0.9680949999999999    0.3750000000000000    0.7108449999999999 Zn
   0.9680949999999999    0.8750100000000000    0.7108449999999999 Zn
   0.5925300000000000    0.3750000000000000    0.5392000000000000 Zn
   0.5925300000000000    0.8750100000000000    0.5392000000000000 Zn
   0.8425300000000000    0.3750000000000000    0.5392000000000000 Zn
   0.8425300000000000    0.8750100000000000    0.5392000000000000 Zn
   0.5319000000000000    0.1250000000000000    0.7891500000000000 Zn
   0.5319050000000000    0.6250100000000000    0.7891500000000000 Zn
   0.7819000000000000    0.1250000000000000    0.7891500000000000 Zn
   0.7819050000000001    0.6250100000000000    0.7891500000000000 Zn
   0.6188750000000000    0.3750000000000000    0.8686000000000000 Zn
   0.2420900000000000    0.0185900000000000    0.4358900000000000 H
   0.2420900000000000    0.5185900000000000    0.4358900000000000 H
   0.4920900000000000    0.0185900000000000    0.4358900000000000 H
   0.4920900000000000    0.5185900000000000    0.4358900000000000 H
   0.1082450000000000    0.0214900000000000    0.4117600000000000 H
   0.1082450000000000    0.5215000000000000    0.4117600000000000 H
   0.3582450000000000    0.0214900000000000    0.4117600000000000 H
   0.3582450000000000    0.5215000000000000    0.4117600000000000 H
   0.1331400000000000    0.4811400000000000    0.1860400000000000 H
   0.1331400000000000    0.9811500000000000    0.1860400000000000 H
   0.3831400000000000    0.4811400000000000    0.1860400000000000 H
   0.3831450000000000    0.9811500000000000    0.1860400000000000 H
   0.0169750000000000    0.4787500000000000    0.1617550000000000 H
   0.0169750000000000    0.9787500000000000    0.1617550000000000 H
   0.2669750000000000    0.4787500000000000    0.1617550000000000 H
   0.2669800000000000    0.9787500000000000    0.1617550000000000 H
   0.0079050000000000    0.2685900000000000    0.0641050000000000 H
   0.0079050000000000    0.7685999999999999    0.0641050000000000 H
   0.2579050000000000    0.2685900000000000    0.0641050000000000 H
   0.2579050000000000    0.7685999999999999    0.0641050000000000 H
   0.1417500000000000    0.2715000000000000    0.0882350000000000 H
   0.1417500000000000    0.7715000000000000    0.0882350000000000 H
   0.3917500000000000    0.2715000000000000    0.0882350000000000 H
   0.3917500000000000    0.7715000000000000    0.0882350000000000 H
   0.1168550000000000    0.2311400000000000    0.3139550000000000 H
   0.1168550000000000    0.7311400000000000    0.3139550000000000 H
   0.3668550000000000    0.2311400000000000    0.3139550000000000 H
   0.3668550000000000    0.7311400000000000    0.3139550000000000 H
   0.2330200000000000    0.2287400000000000    0.3382450000000000 H
   0.2330250000000000    0.7287500000000000    0.3382450000000000 H
   0.4830250000000000    0.2287400000000000    0.3382450000000000 H
   0.4830250000000000    0.7287500000000000    0.3382450000000000 H
   0.0079100000000000    0.4814200000000000    0.0641050000000000 H
   0.0079100000000000    0.9814300000000000    0.0641050000000000 H
   0.2579100000000000    0.4814200000000000    0.0641050000000000 H
   0.2579100000000000    0.9814300000000000    0.0641050000000000 H
   0.1417550000000000    0.4785100000000000    0.0882000000000000 H
   0.1417550000000000    0.9785199999999999    0.0882000000000000 H
   0.3917550000000000    0.4785100000000000    0.0882000000000000 H
   0.3917550000000000    0.9785199999999999    0.0882000000000000 H
   0.1168550000000000    0.0188600000000000    0.3139550000000000 H
   0.1168550000000000    0.5188700000000001    0.3139550000000000 H
   0.3668550000000000    0.0188600000000000    0.3139550000000000 H
   0.3668550000000000    0.5188700000000001    0.3139550000000000 H
   0.2330200000000000    0.0212600000000000    0.3382400000000000 H
   0.2330200000000000    0.5212700000000000    0.3382400000000000 H
   0.4830200000000000    0.0212600000000000    0.3382400000000000 H
   0.4830200000000000    0.5212700000000000    0.3382400000000000 H
   0.2420900000000000    0.2314200000000000    0.4358900000000000 H
   0.2420900000000000    0.7314200000000000    0.4358900000000000 H
   0.4920900000000000    0.2314200000000000    0.4358900000000000 H
   0.4920900000000000    0.7314200000000000    0.4358900000000000 H
   0.1082450000000000    0.2285100000000000    0.4117600000000000 H
   0.1082450000000000    0.7285199999999999    0.4117600000000000 H
   0.3582450000000000    0.2285100000000000    0.4117600000000000 H
   0.3582450000000000    0.7285199999999999    0.4117600000000000 H
   0.1331400000000000    0.2688700000000000    0.1860400000000000 H
   0.1331400000000000    0.7688800000000000    0.1860400000000000 H
   0.3831400000000000    0.2688700000000000    0.1860400000000000 H
   0.3831400000000000    0.7688800000000000    0.1860400000000000 H
   0.0169750000000000    0.2712600000000000    0.1617500000000000 H
   0.0169750000000000    0.7712700000000000    0.1617500000000000 H
   0.2669750000000000    0.2712600000000000    0.1617500000000000 H
   0.2669750000000000    0.7712700000000000    0.1617500000000000 H
   0.1350250000000000    0.3750100000000000    0.4611850000000000 H
   0.1350250000000000    0.8750100000000000    0.4611850000000000 H
   0.3850250000000000    0.3750100000000000    0.4611850000000000 H
   0.3850250000000000    0.8750100000000000    0.4611850000000000 H
   0.0001900000000000    0.3750000000000000    0.4811500000000000 H
   0.0001900000000000    0.8750100000000000    0.4811500000000000 H
   0.2501900000000000    0.3750000000000000    0.4811500000000000 H
   0.2501900000000000    0.8750100000000000    0.4811500000000000 H
   0.2399200000000000    0.1250000000000000    0.2110550000000000 H
   0.2399200000000000    0.6250100000000000    0.2110550000000000 H
   0.4899200000000000    0.1250000000000000    0.2110550000000000 H
   0.4899250000000000    0.6250100000000000    0.2110550000000000 H
   0.1246750000000000    0.1250000000000000    0.2313300000000000 H
   0.1246750000000000    0.6250100000000000    0.2313300000000000 H
   0.3746750000000000    0.1250000000000000    0.2313300000000000 H
   0.3746750000000000    0.6250100000000000    0.2313300000000000 H
   0.1149750000000000    0.1250000000000000    0.0388100000000000 H
   0.1149750000000000    0.6250100000000000    0.0388100000000000 H
   0.3649750000000000    0.1250000000000000    0.0388100000000000 H
   0.3649750000000000    0.6250100000000000    0.0388100000000000 H
   0.2498100000000000    0.1250000000000000    0.0188450000000000 H
   0.2498100000000000    0.6250100000000000    0.0188450000000000 H
   0.4998100000000000    0.1250000000000000    0.0188450000000000 H
   0.4998100000000000    0.6250100000000000    0.0188450000000000 H
   0.0100750000000000    0.3750000000000000    0.2889400000000000 H
   0.0100750000000000    0.8750100000000000    0.2889400000000000 H
   0.2600750000000000    0.3750000000000000    0.2889400000000000 H
   0.2600750000000000    0.8750100000000000    0.2889400000000000 H
   0.1253200000000000    0.3750000000000000    0.2686650000000000 H
   0.1253200000000000    0.8750100000000000    0.2686650000000000 H
   0.3753200000000000    0.3750000000000000    0.2686650000000000 H
   0.3753200000000000    0.8750100000000000    0.2686650000000000 H
   0.7420900000000000    0.0185900000000000    0.4358900000000000 H
   0.7420900000000000    0.5185900000000000    0.4358900000000000 H
   0.9920900000000000    0.0185900000000000    0.4358900000000000 H
   0.9920900000000000    0.5185900000000000    0.4358900000000000 H
   0.6082450000000000    0.0214900000000000    0.4117600000000000 H
   0.6082450000000000    0.5215000000000000    0.4117600000000000 H
   0.8582449999999999    0.0214900000000000    0.4117600000000000 H
   0.8582449999999999    0.5215000000000000    0.4117600000000000 H
   0.6331400000000000    0.4811400000000000    0.1860400000000000 H
   0.6331400000000000    0.9811500000000000    0.1860400000000000 H
   0.8831400000000000    0.4811400000000000    0.1860400000000000 H
   0.8831450000000001    0.9811500000000000    0.1860400000000000 H
   0.5169750000000000    0.4787500000000000    0.1617550000000000 H
   0.5169750000000000    0.9787500000000000    0.1617550000000000 H
   0.7669750000000000    0.4787500000000000    0.1617550000000000 H
   0.7669800000000000    0.9787500000000000    0.1617550000000000 H
   0.5079050000000001    0.2685900000000000    0.0641050000000000 H
   0.5079050000000001    0.7685999999999999    0.0641050000000000 H
   0.7579050000000001    0.2685900000000000    0.0641050000000000 H
   0.7579050000000001    0.7685999999999999    0.0641050000000000 H
   0.6417500000000000    0.2715000000000000    0.0882350000000000 H
   0.6417500000000000    0.7715000000000000    0.0882350000000000 H
   0.8917500000000000    0.2715000000000000    0.0882350000000000 H
   0.8917500000000000    0.7715000000000000    0.0882350000000000 H
   0.6168550000000000    0.2311400000000000    0.3139550000000000 H
   0.6168550000000000    0.7311400000000000    0.3139550000000000 H
   0.8668549999999999    0.2311400000000000    0.3139550000000000 H
   0.8668549999999999    0.7311400000000000    0.3139550000000000 H
   0.7330200000000000    0.2287400000000000    0.3382450000000000 H
   0.7330250000000000    0.7287500000000000    0.3382450000000000 H
   0.9830250000000000    0.2287400000000000    0.3382450000000000 H
   0.9830250000000000    0.7287500000000000    0.3382450000000000 H
   0.5079100000000000    0.4814200000000000    0.0641050000000000 H
   0.5079100000000000    0.9814300000000000    0.0641050000000000 H
   0.7579100000000000    0.4814200000000000    0.0641050000000000 H
   0.7579100000000000    0.9814300000000000    0.0641050000000000 H
   0.6417550000000000    0.4785100000000000    0.0882000000000000 H
   0.6417550000000000    0.9785199999999999    0.0882000000000000 H
   0.8917550000000001    0.4785100000000000    0.0882000000000000 H
   0.8917550000000001    0.9785199999999999    0.0882000000000000 H
   0.6168550000000000    0.0188600000000000    0.3139550000000000 H
   0.6168550000000000    0.5188700000000001    0.3139550000000000 H
   0.8668549999999999    0.0188600000000000    0.3139550000000000 H
   0.8668549999999999    0.5188700000000001    0.3139550000000000 H
   0.7330200000000000    0.0212600000000000    0.3382400000000000 H
   0.7330200000000000    0.5212700000000000    0.3382400000000000 H
   0.9830200000000000    0.0212600000000000    0.3382400000000000 H
   0.9830200000000000    0.5212700000000000    0.3382400000000000 H
   0.7420900000000000    0.2314200000000000    0.4358900000000000 H
   0.7420900000000000    0.7314200000000000    0.4358900000000000 H
   0.9920900000000000    0.2314200000000000    0.4358900000000000 H
   0.9920900000000000    0.7314200000000000    0.4358900000000000 H
   0.6082450000000000    0.2285100000000000    0.4117600000000000 H
   0.6082450000000000    0.7285199999999999    0.4117600000000000 H
   0.8582449999999999    0.2285100000000000    0.4117600000000000 H
   0.8582449999999999    0.7285199999999999    0.4117600000000000 H
   0.6331400000000000    0.2688700000000000    0.1860400000000000 H
   0.6331400000000000    0.7688800000000000    0.1860400000000000 H
   0.8831400000000000    0.2688700000000000    0.1860400000000000 H
   0.8831400000000000    0.7688800000000000    0.1860400000000000 H
   0.5169750000000000    0.2712600000000000    0.1617500000000000 H
   0.5169750000000000    0.7712700000000000    0.1617500000000000 H
   0.7669750000000000    0.2712600000000000    0.1617500000000000 H
   0.7669750000000000    0.7712700000000000    0.1617500000000000 H
   0.6350250000000000    0.3750100000000000    0.4611850000000000 H
   0.6350250000000000    0.8750100000000000    0.4611850000000000 H
   0.8850250000000000    0.3750100000000000    0.4611850000000000 H
   0.8850250000000000    0.8750100000000000    0.4611850000000000 H
   0.5001900000000000    0.3750000000000000    0.4811500000000000 H
   0.5001900000000000    0.8750100000000000    0.4811500000000000 H
   0.7501900000000000    0.3750000000000000    0.4811500000000000 H
   0.7501900000000000    0.8750100000000000    0.4811500000000000 H
   0.7399200000000000    0.1250000000000000    0.2110550000000000 H
   0.7399200000000000    0.6250100000000000    0.2110550000000000 H
   0.9899200000000000    0.1250000000000000    0.2110550000000000 H
   0.9899249999999999    0.6250100000000000    0.2110550000000000 H
   0.6246750000000000    0.1250000000000000    0.2313300000000000 H
   0.6246750000000000    0.6250100000000000    0.2313300000000000 H
   0.8746750000000000    0.1250000000000000    0.2313300000000000 H
   0.8746750000000000    0.6250100000000000    0.2313300000000000 H
   0.6149750000000000    0.1250000000000000    0.0388100000000000 H
   0.6149750000000000    0.6250100000000000    0.0388100000000000 H
   0.8649750000000000    0.1250000000000000    0.0388100000000000 H
   0.8649750000000000    0.6250100000000000    0.0388100000000000 H
   0.7498100000000000    0.1250000000000000    0.0188450000000000 H
   0.7498100000000000    0.6250100000000000    0.0188450000000000 H
   0.9998100000000000    0.1250000000000000    0.0188450000000000 H
   0.9998100000000000    0.6250100000000000    0.0188450000000000 H
   0.5100750000000001    0.3750000000000000    0.2889400000000000 H
   0.5100750000000001    0.8750100000000000    0.2889400000000000 H
   0.7600750000000001    0.3750000000000000    0.2889400000000000 H
   0.7600750000000001    0.8750100000000000    0.2889400000000000 H
   0.6253200000000000    0.3750000000000000    0.2686650000000000 H
   0.6253200000000000    0.8750100000000000    0.2686650000000000 H
   0.8753200000000000    0.3750000000000000    0.2686650000000000 H
   0.8753200000000000    0.8750100000000000    0.2686650000000000 H
   0.2420900000000000    0.0185900000000000    0.9358900000000000 H
   0.2420900000000000    0.5185900000000000    0.9358900000000000 H
   0.4920900000000000    0.0185900000000000    0.9358900000000000 H
   0.4920900000000000    0.5185900000000000    0.9358900000000000 H
   0.1082450000000000    0.0214900000000000    0.9117600000000000 H
   0.1082450000000000    0.5215000000000000    0.9117600000000000 H
   0.3582450000000000    0.0214900000000000    0.9117600000000000 H
   0.3582450000000000    0.5215000000000000    0.9117600000000000 H
   0.1331400000000000    0.4811400000000000    0.6860400000000000 H
   0.1331400000000000    0.9811500000000000    0.6860400000000000 H
   0.3831400000000000    0.4811400000000000    0.6860400000000000 H
   0.3831450000000000    0.9811500000000000    0.6860400000000000 H
   0.0169750000000000    0.4787500000000000    0.6617550000000000 H
   0.0169750000000000    0.9787500000000000    0.6617550000000000 H
   0.2669750000000000    0.4787500000000000    0.6617550000000000 H
   0.2669800000000000    0.9787500000000000    0.6617550000000000 H
   0.0079050000000000    0.2685900000000000    0.5641050000000000 H
   0.0079050000000000    0.7685999999999999    0.5641050000000000 H
   0.2579050000000000    0.2685900000000000    0.5641050000000000 H
   0.2579050000000000    0.7685999999999999    0.5641050000000000 H
   0.1417500000000000    0.2715000000000000    0.5882350000000000 H
   0.1417500000000000    0.7715000000000000    0.5882350000000000 H
   0.3917500000000000    0.2715000000000000    0.5882350000000000 H
   0.3917500000000000    0.7715000000000000    0.5882350000000000 H
   0.1168550000000000    0.2311400000000000    0.8139550000000000 H
   0.1168550000000000    0.7311400000000000    0.8139550000000000 H
   0.3668550000000000    0.2311400000000000    0.8139550000000000 H
   0.3668550000000000    0.7311400000000000    0.8139550000000000 H
   0.2330200000000000    0.2287400000000000    0.8382450000000000 H
   0.2330250000000000    0.7287500000000000    0.8382450000000000 H
   0.4830250000000000    0.2287400000000000    0.8382450000000000 H
   0.4830250000000000    0.7287500000000000    0.8382450000000000 H
   0.0079100000000000    0.4814200000000000    0.5641050000000000 H
   0.0079100000000000    0.9814300000000000    0.5641050000000000 H
   0.2579100000000000    0.4814200000000000    0.5641050000000000 H
   0.2579100000000000    0.9814300000000000    0.5641050000000000 H
   0.1417550000000000    0.4785100000000000    0.5882000000000001 H
   0.1417550000000000    0.9785199999999999    0.5882000000000001 H
   0.3917550000000000    0.4785100000000000    0.5882000000000001 H
   0.3917550000000000    0.9785199999999999    0.5882000000000001 H
   0.1168550000000000    0.0188600000000000    0.8139550000000000 H
   0.1168550000000000    0.5188700000000001    0.8139550000000000 H
   0.3668550000000000    0.0188600000000000    0.8139550000000000 H
   0.3668550000000000    0.5188700000000001    0.8139550000000000 H
   0.2330200000000000    0.0212600000000000    0.8382400000000000 H
   0.2330200000000000    0.5212700000000000    0.8382400000000000 H
   0.4830200000000000    0.0212600000000000    0.8382400000000000 H
   0.4830200000000000    0.5212700000000000    0.8382400000000000 H
   0.2420900000000000    0.2314200000000000    0.9358900000000000 H
   0.2420900000000000    0.7314200000000000    0.9358900000000000 H
   0.4920900000000000    0.2314200000000000    0.9358900000000000 H
   0.4920900000000000    0.7314200000000000    0.9358900000000000 H
   0.1082450000000000    0.2285100000000000    0.9117600000000000 H
   0.1082450000000000    0.7285199999999999    0.9117600000000000 H
   0.3582450000000000    0.2285100000000000    0.9117600000000000 H
   0.3582450000000000    0.7285199999999999    0.9117600000000000 H
   0.1331400000000000    0.2688700000000000    0.6860400000000000 H
   0.1331400000000000    0.7688800000000000    0.6860400000000000 H
   0.3831400000000000    0.2688700000000000    0.6860400000000000 H
   0.3831400000000000    0.7688800000000000    0.6860400000000000 H
   0.0169750000000000    0.2712600000000000    0.6617500000000001 H
   0.0169750000000000    0.7712700000000000    0.6617500000000001 H
   0.2669750000000000    0.2712600000000000    0.6617500000000001 H
   0.2669750000000000    0.7712700000000000    0.6617500000000001 H
   0.1350250000000000    0.3750100000000000    0.9611850000000000 H
   0.1350250000000000    0.8750100000000000    0.9611850000000000 H
   0.3850250000000000    0.3750100000000000    0.9611850000000000 H
   0.3850250000000000    0.8750100000000000    0.9611850000000000 H
   0.0001900000000000    0.3750000000000000    0.9811500000000000 H
   0.0001900000000000    0.8750100000000000    0.9811500000000000 H
   0.2501900000000000    0.3750000000000000    0.9811500000000000 H
   0.2501900000000000    0.8750100000000000    0.9811500000000000 H
   0.2399200000000000    0.1250000000000000    0.7110550000000000 H
   0.2399200000000000    0.6250100000000000    0.7110550000000000 H
   0.4899200000000000    0.1250000000000000    0.7110550000000000 H
   0.4899250000000000    0.6250100000000000    0.7110550000000000 H
   0.1246750000000000    0.6250100000000000    0.7313300000000000 H
   0.3746750000000000    0.1250000000000000    0.7313300000000000 H
   0.3746750000000000    0.6250100000000000    0.7313300000000000 H
   0.1149750000000000    0.1250000000000000    0.5388100000000000 H
   0.1149750000000000    0.6250100000000000    0.5388100000000000 H
   0.3649750000000000    0.1250000000000000    0.5388100000000000 H
   0.3649750000000000    0.6250100000000000    0.5388100000000000 H
   0.2498100000000000    0.1250000000000000    0.5188450000000000 H
   0.2498100000000000    0.6250100000000000    0.5188450000000000 H
   0.4998100000000000    0.1250000000000000    0.5188450000000000 H
   0.4998100000000000    0.6250100000000000    0.5188450000000000 H
   0.0100750000000000    0.3750000000000000    0.7889400000000000 H
   0.0100750000000000    0.8750100000000000    0.7889400000000000 H
   0.2600750000000000    0.3750000000000000    0.7889400000000000 H
   0.2600750000000000    0.8750100000000000    0.7889400000000000 H
   0.1253200000000000    0.3750000000000000    0.7686649999999999 H
   0.1253200000000000    0.8750100000000000    0.7686649999999999 H
   0.3753200000000000    0.3750000000000000    0.7686649999999999 H
   0.3753200000000000    0.8750100000000000    0.7686649999999999 H
   0.7420900000000000    0.0185900000000000    0.9358900000000000 H
   0.7420900000000000    0.5185900000000000    0.9358900000000000 H
   0.9920900000000000    0.0185900000000000    0.9358900000000000 H
   0.9920900000000000    0.5185900000000000    0.9358900000000000 H
   0.6082450000000000    0.0214900000000000    0.9117600000000000 H
   0.6082450000000000    0.5215000000000000    0.9117600000000000 H
   0.8582449999999999    0.0214900000000000    0.9117600000000000 H
   0.8582449999999999    0.5215000000000000    0.9117600000000000 H
   0.6331400000000000    0.4811400000000000    0.6860400000000000 H
   0.6331400000000000    0.9811500000000000    0.6860400000000000 H
   0.8831400000000000    0.4811400000000000    0.6860400000000000 H
   0.8831450000000001    0.9811500000000000    0.6860400000000000 H
   0.5169750000000000    0.4787500000000000    0.6617550000000000 H
   0.5169750000000000    0.9787500000000000    0.6617550000000000 H
   0.7669750000000000    0.4787500000000000    0.6617550000000000 H
   0.7669800000000000    0.9787500000000000    0.6617550000000000 H
   0.5079050000000001    0.2685900000000000    0.5641050000000000 H
   0.5079050000000001    0.7685999999999999    0.5641050000000000 H
   0.7579050000000001    0.2685900000000000    0.5641050000000000 H
   0.7579050000000001    0.7685999999999999    0.5641050000000000 H