H6 C12 O4
1.0
  12.1189977388592318    0.0000000000000000   -0.0074030753613031
  -0.1502506863484353   14.5412237612101372   -0.0005076115595447
   0.0000000000000000    0.0000000000000000   15.2289999999999992
H C O
6 12 4
direct
   0.7875100000000000    0.7472600000000000    0.2657300000000000 H
   0.7296200000000000    0.7943500000000000    0.4147600000000000 H
   0.7086400000000000    0.6772600000000000    0.5329900000000000 H
   0.7443600000000000    0.5133400000000000    0.5022700000000000 H
   0.8753200000000000    0.3465900000000000    0.2501800000000000 H
   0.8751500000000000    0.4608500000000000    0.1282700000000000 H
   0.8302400000000000    0.6384200000000000    0.1335200000000000 C
   0.8281500000000001    0.5732800000000000    0.2105500000000000 C
   0.7988499999999999    0.6025400000000000    0.2970800000000000 C
   0.7769600000000000    0.6960800000000000    0.3171700000000000 C
   0.7455100000000000    0.7222200000000000    0.4003800000000000 C
   0.7340800000000000    0.6558100000000000    0.4675100000000000 C
   0.7546200000000000    0.5643600000000000    0.4506500000000000 C
   0.7880100000000000    0.5346800000000000    0.3658400000000000 C
   0.8158100000000000    0.4411400000000000    0.3464300000000000 C
   0.8046300000000000    0.3648900000000000    0.4110000000000000 C
   0.8518600000000000    0.4174400000000000    0.2629200000000000 C
   0.8536800000000000    0.4821800000000000    0.1946200000000000 C
   0.8886600000000000    0.7114900000000000    0.1409100000000000 O
   0.7738500000000000    0.6128800000000000    1.0670899999999999 O
   0.7265400000000000    0.3632500000000000    0.4672700000000000 O
   0.8739300000000000    0.2981300000000000    0.4071800000000000 O
