Cd8 H48 C84 O32
1.0
  12.1189977388592318    0.0000000000000000   -0.0074030753613031
  -0.1502506863484353   14.5412237612101372   -0.0005076115595447
   0.0000000000000000    0.0000000000000000   15.2289999999999992
Cd H C O
8 48 84 32
direct
   0.8008100000000000    0.2075100000000000    0.5269900000000000 Cd
   0.3007900000000000    0.2075100000000000    0.5270000000000000 Cd
   0.0517200000000000    0.2919900000000000    0.4659900000000000 Cd
   0.5517400000000000    0.2919700000000000    0.4659800000000000 Cd
   0.9538900000000000    0.7925500000000000    0.0270000000000000 Cd
   0.2029000000000000    0.7080600000000000    0.9659799999999999 Cd
   0.4538800000000000    0.7925500000000000    0.0270100000000000 Cd
   0.7029100000000000    0.7080400000000000    0.9659799999999999 Cd
   0.8797500000000000    0.5391000000000000    0.6281700000000000 H
   0.8794300000000000    0.6534400000000000    0.7500200000000000 H
   0.9676399999999999    0.2528100000000000    0.7658900000000000 H
   0.0253800000000000    0.2058600000000000    0.9150600000000000 H
   0.0100100000000000    0.4868900000000000    0.0024500000000000 H
   0.0459000000000000    0.3230300000000000    0.0333200000000000 H
   0.3797800000000000    0.5391500000000000    0.6281400000000000 H
   0.3794600000000000    0.6534900000000000    0.7500000000000000 H
   0.4677700000000000    0.2528700000000000    0.7658300000000000 H
   0.5256200000000000    0.2059300000000000    0.9149800000000000 H
   0.5101800000000000    0.4869300000000000    0.0024000000000000 H
   0.5461300000000000    0.3230900000000000    0.0332400000000000 H
   0.1293600000000000    0.9604800000000000    0.3638100000000000 H
   0.1313100000000000    0.8463000000000001    0.2418100000000000 H
   0.2133100000000000    0.2493400000000000    0.2265200000000000 H
   0.2721800000000000    0.2977700000000000    0.0778600000000000 H
   0.2628600000000000    0.0162500000000000    0.9906800000000000 H
   0.2966500000000000    0.1811000000000000    0.9599700000000000 H
   0.6293700000000000    0.9604700000000000    0.3638100000000000 H
   0.6313200000000000    0.8462700000000000    0.2418200000000000 H
   0.7134400000000000    0.2493000000000000    0.2265100000000000 H
   0.7723800000000000    0.2977000000000000    0.0778500000000000 H
   0.7629600000000000    0.0161800000000000    0.9906900000000000 H
   0.7968300000000000    0.1810100000000000    0.9599800000000001 H
   0.9364248095049720    0.2883408154615261    0.3686527436210921 H
   0.6675425817270227    0.4060964772243102    0.4790373897330690 H
   0.8001368242988361    0.3517217962945446    0.4218984924956991 H
   0.7303766975486394    0.5568682019126371    1.0609263561984570 H
   0.9328094860839957    0.7309467542986541    0.1908411023212104 H
   0.8320219238743140    0.6385164667019947    1.1328798548957955 H
   0.1251000000000000    0.0395100000000000    0.8639100000000000 H
   0.1233100000000000    0.1537500000000000    0.7419400000000000 H
   0.0000000000000000    0.8191300000000000    0.4597200000000000 H
   0.0000000000000000    0.9839400000000000    0.4905500000000000 H
   0.0000000000000000    0.7024100000000000    0.5776100000000000 H
   0.0409800000000000    0.7507400000000000    0.7263800000000000 H
   0.3752200000000000    0.4608500000000000    0.1282600000000000 H
   0.3753900000000000    0.3465700000000000    0.2501500000000000 H
   0.2874000000000000    0.7472200000000000    0.2657400000000000 H
   0.2294500000000000    0.7942700000000000    0.4147700000000000 H
   0.2442800000000000    0.5132500000000000    0.5022400000000000 H
   0.2084900000000000    0.6771500000000000    0.5329800000000000 H
   0.6250500000000000    0.0395000000000000    0.8639400000000000 H
   0.6232799999999999    0.1537600000000000    0.7419900000000000 H
   0.5411500000000000    0.7507300000000000    0.7263300000000000 H
   0.4824300000000000    0.7024100000000000    0.5775200000000000 H
   0.4921300000000000    0.9839700000000000    0.4905400000000000 H
   0.4583000000000000    0.8191600000000000    0.4596600000000000 H
   0.9245800000000000    0.3615600000000000    0.6335700000000000 C
   0.9499700000000000    0.6352000000000000    0.9110000000000000 C
   0.9011700000000000    0.5178199999999999    0.6945700000000000 C
   0.9267200000000000    0.4267300000000000    0.7105800000000000 C
   0.9029000000000000    0.5826000000000000    0.7628300000000000 C
   0.9388500000000000    0.5589499999999999    0.8464200000000000 C
   0.9779900000000000    0.3040200000000000    0.8173400000000000 C
   0.0093900000000000    0.2779700000000000    0.9006200000000000 C
   0.9999400000000001    0.4358400000000000    0.9508100000000000 C
   0.0205600000000000    0.3444100000000000    0.9677500000000000 C
   0.9560100000000000    0.3975300000000000    0.7971600000000000 C
   0.9666600000000000    0.4654300000000000    0.8659200000000000 C
   0.4245800000000000    0.3615900000000000    0.6335400000000000 C
   0.4499800000000000    0.6352300000000000    0.9109800000000000 C
   0.4012100000000000    0.5178700000000001    0.6945400000000000 C
   0.4267800000000000    0.4267800000000000    0.7105399999999999 C
   0.4029600000000000    0.5826500000000000    0.7628000000000000 C
   0.4388800000000000    0.5589900000000000    0.8463900000000000 C
   0.4781500000000000    0.3040800000000000    0.8172800000000000 C
   0.5095700000000000    0.2780300000000000    0.9005500000000000 C
   0.5000700000000000    0.4358900000000000    0.9507600000000000 C
   0.5207700000000000    0.3444700000000000    0.9676800000000000 C
   0.4560900000000000    0.3975800000000000    0.7971200000000001 C
   0.4667900000000000    0.4654800000000000    0.8658700000000000 C
   0.1723800000000000    0.1387800000000000    0.3590600000000000 C
   0.2033300000000000    0.8665800000000000    0.0813900000000000 C
   0.1508500000000000    0.9823800000000000    0.2975300000000000 C
   0.1752300000000000    0.0741500000000000    0.2817500000000000 C
   0.1540400000000000    0.9177500000000000    0.2292400000000000 C
   0.1905800000000000    0.9424700000000000    0.1459700000000000 C
   0.2252800000000000    0.1983800000000000    0.1752500000000000 C
   0.2572800000000000    0.2252300000000000    0.0922200000000000 C
   0.2512000000000000    0.0671000000000000    0.0421200000000000 C
   0.2706100000000000    0.1590600000000000    0.0252800000000000 C
   0.2046900000000000    0.1042800000000000    0.1953600000000000 C
   0.2172600000000000    0.0366800000000000    0.1267300000000000 C
   0.6724100000000000    0.1387700000000000    0.3590500000000000 C
   0.7033400000000000    0.8665400000000000    0.0814000000000000 C
   0.6508800000000000    0.9823600000000000    0.2975300000000000 C
   0.6752700000000000    0.0741200000000000    0.2817400000000000 C
   0.6540600000000000    0.9177200000000000    0.2292400000000000 C
   0.6906200000000000    0.9424300000000000    0.1459800000000000 C
   0.7254100000000000    0.1983400000000000    0.1752400000000000 C
   0.7574500000000000    0.2251700000000000    0.0922200000000000 C
   0.7513200000000000    0.0670300000000000    0.0421300000000000 C
   0.7707600000000000    0.1589900000000000    0.0252800000000000 C
   0.7047800000000000    0.1042400000000000    0.1953600000000000 C
   0.7173200000000000    0.0366300000000000    0.1267300000000000 C
   0.0821400000000000    0.8612400000000000    0.8590300000000000 C
   0.0513700000000000    0.1335200000000000    0.5814000000000000 C
   0.1036600000000000    0.0176500000000000    0.7975800000000000 C
   0.0792500000000000    0.9258900000000000    0.7817300000000000 C
   0.1005500000000000    0.0823100000000000    0.7293100000000000 C
   0.0641000000000000    0.0576300000000000    0.6459800000000000 C
   0.0000000000000000    0.8411300000000000    0.5250700000000000 C
   0.0035300000000000    0.9330700000000000    0.5419700000000000 C
   0.0000000000000000    0.7749300000000000    0.5920200000000000 C
   0.0291200000000000    0.8017200000000000    0.6751100000000000 C
   0.0498300000000000    0.8958000000000000    0.6952900000000000 C
   0.0373800000000000    0.9634400000000000    0.6266600000000000 C
   0.3302200000000000    0.6384200000000000    0.1335300000000000 C
   0.3046300000000000    0.3648500000000000    0.4109800000000000 C
   0.3537200000000000    0.4821700000000000    0.1946100000000000 C
   0.3281300000000000    0.5732600000000000    0.2105500000000000 C
   0.3518900000000000    0.4174200000000000    0.2629000000000000 C
   0.3158100000000000    0.4410900000000000    0.3464100000000000 C
   0.2768600000000000    0.6960300000000000    0.3171700000000000 C
   0.2453700000000000    0.7221400000000000    0.4003800000000000 C
   0.2545400000000000    0.5642800000000000    0.4506300000000000 C
   0.2339500000000000    0.6557200000000000    0.4674900000000000 C
   0.2987900000000000    0.6025000000000000    0.2970700000000000 C
   0.2879500000000000    0.5346300000000000    0.3658200000000000 C
   0.5821499999999999    0.8612200000000000    0.8590200000000000 C
   0.5513900000000000    0.1335300000000000    0.5814200000000000 C
   0.6036400000000000    0.0176400000000000    0.7976000000000000 C
   0.5792800000000000    0.9258800000000000    0.7817300000000000 C
   0.6005500000000000    0.0823200000000000    0.7293400000000000 C
   0.5641200000000000    0.0576400000000000    0.6460000000000000 C
   0.5292800000000000    0.8017200000000000    0.6750699999999999 C
   0.4973900000000000    0.7749400000000000    0.5919600000000000 C
   0.5036600000000000    0.9330900000000000    0.5419500000000000 C
   0.4842300000000000    0.8411400000000000    0.5250200000000000 C
   0.5499100000000000    0.8958000000000000    0.6952700000000001 C
   0.5374600000000000    0.9634400000000000    0.6266600000000000 C
   0.9808700000000000    0.3870800000000000    0.5671400000000000 O
   0.8661400000000000    0.2885100000000000    0.6409500000000000 O
   0.0280700000000000    0.6368400000000000    0.9673200000000000 O
   0.8806400000000000    0.7019300000000001    0.9071500000000000 O
   0.4808800000000000    0.3870900000000000    0.5671000000000000 O
   0.3661300000000000    0.2885500000000000    0.6409400000000000 O
   0.5280700000000000    0.6368600000000000    0.9673300000000000 O
   0.3806300000000000    0.7019400000000000    0.9071399999999999 O
   0.2269900000000000    0.1129700000000000    0.4260300000000000 O
   0.1154300000000000    0.2116300000000000    0.3516200000000000 O
   0.2823900000000000    0.8666000000000000    0.0261100000000000 O
   0.1338100000000000    0.7986500000000000    0.0845500000000000 O
   0.7270100000000000    0.1129600000000000    0.4260200000000000 O
   0.6154600000000000    0.2116200000000000    0.3516100000000000 O
   0.7823900000000000    0.8665600000000000    0.0261000000000000 O
   0.6338300000000000    0.7986100000000000    0.0845600000000000 O
   0.8739300000000000    0.2981300000000000    0.4071800000000000 O
   0.7265400000000000    0.3632500000000000    0.4672700000000000 O
   0.7738500000000000    0.6128800000000000    1.0670899999999999 O
   0.8886600000000000    0.7114900000000000    0.1409100000000000 O
   0.0275900000000000    0.8870300000000000    0.9259800000000000 O
   0.1390800000000000    0.7883800000000000    0.8515900000000000 O
   0.9723000000000001    0.1335000000000000    0.5260600000000000 O
   0.1209100000000000    0.2014400000000000    0.5845900000000001 O
   0.2738200000000000    0.6128800000000000    0.0670900000000000 O
   0.3886300000000000    0.7114900000000000    0.1409200000000000 O
   0.2265500000000000    0.3632300000000000    0.4672500000000000 O
   0.3739300000000000    0.2980900000000000    0.4071600000000000 O
   0.5276100000000000    0.8870200000000000    0.9259800000000000 O
   0.6390900000000000    0.7883700000000000    0.8515900000000000 O
   0.4723000000000000    0.1335100000000000    0.5260800000000000 O
   0.6209300000000000    0.2014500000000000    0.5846000000000000 O
