H6 O4
1.0
  12.5092543814603427    0.0000000000000000    1.7852313071182770
   4.9859240409027512   11.4753992696428320    1.7818016333556073
   0.0000000000000000    0.0000000000000000   23.8099999999999987
H O
6 4
direct
   1.0213472871873837    0.4352555881069121    0.6613678370920706 H
   0.9468928497014010    0.7058114717475162    0.5373369811521360 H
   0.9894031728018530    0.5711837965882276    0.5967143899520210 H
   0.5007967921524237    0.1868226497213228    0.7358594156850378 H
   0.3030300467446321    0.5078862910934596    0.7907216658302196 H
   0.4003818891452338    0.3552021136134683    0.7615391603846773 H
   0.9771400000000000    0.5066500000000000    0.6391600000000000 O
   0.9373000000000000    0.6553300000000000    0.5705400000000000 O
   0.4490200000000000    0.2463000000000000    0.7602000000000000 O
   0.3405000000000000    0.4239900000000000    0.7896900000000000 O
