H4 O2
1.0
  12.5092543814603427    0.0000000000000000    1.7852313071182770
   4.9859240409027512   11.4753992696428320    1.7818016333556073
   0.0000000000000000    0.0000000000000000   23.8099999999999987
H O
4 2
direct
   0.5016992510269138    0.3304566859437021    0.9039685222225530 H
   0.5897281537838449    0.1893782044841502    0.9011760752805542 H
   0.7616666139852633    0.6751614573227075    0.0395547625992113 H
   0.7992596052760735    0.5629510216118239    0.0902521189088881 H
   0.5149500000000000    0.2533700000000000    0.8937600000000000 O
   0.7606000000000001    0.6468200000000000    0.0799700000000000 O
