Zn24 H428 C614 N46 O98
1.0
  37.5239063616773620    0.0000000000000000   -0.0838293508803264
  -3.1016186779435784   15.0335346461682668   -3.9289722089994372
   0.0000000000000000    0.0000000000000000   33.2879999999999967
Zn H C N O
24 428 614 46 98
direct
   0.7315400000000000    0.9998600000000000    0.6248300000000000 Zn
   0.6017866666666667    0.0001500000000000    0.8751599999999999 Zn
   0.3982066666666667    0.9998600000000000    0.6248300000000000 Zn
   0.2684533333333333    0.0001500000000000    0.8751599999999999 Zn
   0.5648733333333333    0.9998600000000000    0.1248300000000000 Zn
   0.4351200000000000    0.0001500000000000    0.3751600000000000 Zn
   0.8982066666666666    0.9998600000000000    0.1248300000000000 Zn
   0.7684533333333333    0.0001500000000000    0.3751600000000000 Zn
   0.2315400000000000    0.9998600000000000    0.1248300000000000 Zn
   0.1017866666666667    0.0001500000000000    0.3751600000000000 Zn
   0.0648733333333333    0.9998600000000000    0.6248300000000000 Zn
   0.9351200000000000    0.0001500000000000    0.8751599999999999 Zn
   0.7315400000000000    0.9998600000000000    0.1248300000000000 Zn
   0.6017866666666667    0.0001500000000000    0.3751600000000000 Zn
   0.5648733333333333    0.9998600000000000    0.6248300000000000 Zn
   0.4351200000000000    0.0001500000000000    0.8751599999999999 Zn
   0.3982066666666667    0.9998600000000000    0.1248300000000000 Zn
   0.2684533333333333    0.0001500000000000    0.3751600000000000 Zn
   0.8982066666666666    0.9998600000000000    0.6248300000000000 Zn
   0.7684533333333333    0.0001500000000000    0.8751599999999999 Zn
   0.2315400000000000    0.9998600000000000    0.6248300000000000 Zn
   0.1017866666666667    0.0001500000000000    0.8751599999999999 Zn
   0.0648733333333333    0.9998600000000000    0.1248300000000000 Zn
   0.9351200000000000    0.0001500000000000    0.3751600000000000 Zn
   0.8754430809253254    0.9551368227932781    0.9172808640417500 H
   0.9038052525996115    1.0395106071845457    0.9497977521573150 H
   0.1852883333333333    0.1081200000000000    0.0643150000000000 H
   0.1116116666666667    0.8915100000000000    0.9796050000000001 H
   0.0680983333333333    0.8983200000000000    0.0350200000000000 H
   0.1378833333333333    0.1077500000000000    0.1150600000000000 H
   0.1480383333333333    0.8918700000000001    0.9356700000000000 H
   0.2217150000000000    0.1084700000000000    0.0203850000000000 H
   0.2652266666666667    0.1016700000000000    0.9649650000000001 H
   0.1954416666666667    0.8922500000000000    0.8849300000000000 H
   0.5186216666666666    0.1081200000000000    0.0643150000000000 H
   0.4449450000000000    0.8915100000000000    0.9796050000000001 H
   0.4014316666666666    0.8983200000000000    0.0350200000000000 H
   0.4712166666666666    0.1077500000000000    0.1150600000000000 H
   0.4813716666666666    0.8918700000000001    0.9356700000000000 H
   0.5550483333333334    0.1084700000000000    0.0203850000000000 H
   0.5985600000000000    0.1016700000000000    0.9649650000000001 H
   0.5287750000000000    0.8922500000000000    0.8849300000000000 H
   0.6852883333333333    0.1081200000000000    0.5643150000000000 H
   0.6116116666666667    0.8915100000000000    0.4796050000000000 H
   0.5680983333333334    0.8983200000000000    0.5350200000000001 H
   0.6378833333333334    0.1077500000000000    0.6150599999999999 H
   0.6480383333333333    0.8918700000000001    0.4356700000000000 H
   0.7217150000000000    0.1084700000000000    0.5203850000000000 H
   0.7652266666666666    0.1016700000000000    0.4649650000000000 H
   0.6954416666666666    0.8922500000000000    0.3849300000000000 H
   0.0186216666666667    0.1081200000000000    0.5643150000000000 H
   0.9449449999999999    0.8915100000000000    0.4796050000000000 H
   0.9014316666666666    0.8983200000000000    0.5350200000000001 H
   0.9712166666666666    0.1077500000000000    0.6150599999999999 H
   0.9813716666666665    0.8918700000000001    0.4356700000000000 H
   0.0550483333333333    0.1084700000000000    0.5203850000000000 H
   0.0985600000000000    0.1016700000000000    0.4649650000000000 H
   0.0287750000000000    0.8922500000000000    0.3849300000000000 H
   0.3519550000000000    0.1081200000000000    0.5643150000000000 H
   0.2782783333333333    0.8915100000000000    0.4796050000000000 H
   0.2347650000000000    0.8983200000000000    0.5350200000000001 H
   0.3045500000000000    0.1077500000000000    0.6150599999999999 H
   0.3147050000000000    0.8918700000000001    0.4356700000000000 H
   0.3883816666666666    0.1084700000000000    0.5203850000000000 H
   0.4318933333333333    0.1016700000000000    0.4649650000000000 H
   0.3621083333333333    0.8922500000000000    0.3849300000000000 H
   0.6659066666666666    0.1083900000000000    0.3141800000000000 H
   0.7038483333333333    0.8917000000000000    0.2298900000000000 H
   0.7485816666666666    0.8989400000000000    0.2855450000000000 H
   0.7133033333333333    0.1083200000000000    0.3652000000000000 H
   0.6674283333333333    0.8916300000000000    0.1858050000000000 H
   0.6294649999999999    0.1082700000000000    0.2701050000000000 H
   0.5847350000000000    0.1010300000000000    0.2144450000000000 H
   0.6200333333333333    0.8916900000000000    0.1347800000000000 H
   0.1659066666666666    0.1083900000000000    0.8141800000000000 H
   0.2038483333333333    0.8917000000000000    0.7298900000000000 H
   0.2485816666666666    0.8989400000000000    0.7855449999999999 H
   0.2133033333333333    0.1083200000000000    0.8652000000000000 H
   0.1674283333333333    0.8916300000000000    0.6858050000000000 H
   0.1294650000000000    0.1082700000000000    0.7701050000000000 H
   0.0847350000000000    0.1010300000000000    0.7144450000000000 H
   0.1200333333333333    0.8916900000000000    0.6347800000000000 H
   0.3325733333333333    0.1083900000000000    0.3141800000000000 H
   0.3705150000000000    0.8917000000000000    0.2298900000000000 H
   0.4152483333333333    0.8989400000000000    0.2855450000000000 H
   0.3799700000000000    0.1083200000000000    0.3652000000000000 H
   0.3340950000000000    0.8916300000000000    0.1858050000000000 H
   0.2961316666666667    0.1082700000000000    0.2701050000000000 H
   0.2514016666666666    0.1010300000000000    0.2144450000000000 H
   0.2867000000000000    0.8916900000000000    0.1347800000000000 H
   0.9992399999999999    0.1083900000000000    0.3141800000000000 H
   0.0371816666666667    0.8917000000000000    0.2298900000000000 H
   0.0819150000000000    0.8989400000000000    0.2855450000000000 H
   0.0466366666666667    0.1083200000000000    0.3652000000000000 H
   0.0007616666666667    0.8916300000000000    0.1858050000000000 H
   0.9627983333333332    0.1082700000000000    0.2701050000000000 H
   0.9180683333333333    0.1010300000000000    0.2144450000000000 H
   0.9533666666666666    0.8916900000000000    0.1347800000000000 H
   0.8325733333333333    0.1083900000000000    0.8141800000000000 H
   0.8705149999999999    0.8917000000000000    0.7298900000000000 H
   0.9152483333333332    0.8989400000000000    0.7855449999999999 H
   0.8799699999999999    0.1083200000000000    0.8652000000000000 H
   0.8340949999999999    0.8916300000000000    0.6858050000000000 H
   0.7961316666666667    0.1082700000000000    0.7701050000000000 H
   0.7514016666666666    0.1010300000000000    0.7144450000000000 H
   0.7867000000000000    0.8916900000000000    0.6347800000000000 H
   0.4992400000000000    0.1083900000000000    0.8141800000000000 H
   0.5371816666666667    0.8917000000000000    0.7298900000000000 H
   0.5819150000000000    0.8989400000000000    0.7855449999999999 H
   0.5466366666666667    0.1083200000000000    0.8652000000000000 H
   0.5007616666666667    0.8916300000000000    0.6858050000000000 H
   0.4627983333333333    0.1082700000000000    0.7701050000000000 H
   0.4180683333333333    0.1010300000000000    0.7144450000000000 H
   0.4533666666666666    0.8916900000000000    0.6347800000000000 H
   0.7988249999999999    0.8129300000000000    0.0618500000000000 H
   0.7553133333333333    0.6778700000000000    0.0257550000000000 H
   0.8757716666666666    0.6559900000000000    0.0800650000000000 H
   0.8319250000000000    0.5179800000000000    0.0441450000000000 H
   0.7233583333333333    0.5558200000000000    0.9903900000000000 H
   0.7766383333333333    0.4441700000000000    0.0095950000000000 H
   0.7011683333333333    0.1870600000000000    0.9381349999999999 H
   0.7446816666666667    0.3221200000000000    0.9742350000000000 H
   0.6242233333333334    0.3440000000000000    0.9199250000000000 H
   0.6680699999999999    0.4820100000000000    0.9558450000000001 H
   0.6634833333333333    0.1870100000000000    0.6880350000000000 H
   0.6425033333333333    0.3221900000000000    0.7243450000000000 H
   0.7662000000000000    0.3437200000000000    0.6696150000000000 H
   0.7454266666666667    0.4818200000000000    0.7058450000000001 H
   0.6307716666666667    0.4442700000000000    0.7594500000000000 H
   0.7025549999999999    0.5557200000000000    0.7405450000000000 H
   0.6698433333333333    0.8129800000000000    0.8119550000000000 H
   0.6908216666666667    0.6778000000000000    0.7756449999999999 H
   0.5671266666666667    0.6562700000000000    0.8303750000000000 H
   0.5879016666666667    0.5181700000000000    0.7941500000000000 H
   0.4654916666666666    0.8129300000000000    0.0618500000000000 H
   0.4219800000000000    0.6778700000000000    0.0257550000000000 H
   0.5424383333333334    0.6559900000000000    0.0800650000000000 H
   0.4985916666666667    0.5179800000000000    0.0441450000000000 H
   0.3900250000000000    0.5558200000000000    0.9903900000000000 H
   0.4433049999999999    0.4441700000000000    0.0095950000000000 H
   0.3678350000000000    0.1870600000000000    0.9381349999999999 H
   0.4113483333333333    0.3221200000000000    0.9742350000000000 H
   0.2908900000000000    0.3440000000000000    0.9199250000000000 H
   0.3347366666666666    0.4820100000000000    0.9558450000000001 H
   0.3301499999999999    0.1870100000000000    0.6880350000000000 H
   0.3091699999999999    0.3221900000000000    0.7243450000000000 H
   0.4328666666666666    0.3437200000000000    0.6696150000000000 H
   0.4120933333333333    0.4818200000000000    0.7058450000000001 H
   0.2974383333333334    0.4442700000000000    0.7594500000000000 H
   0.3692216666666667    0.5557200000000000    0.7405450000000000 H
   0.3365100000000000    0.8129800000000000    0.8119550000000000 H
   0.3574883333333333    0.6778000000000000    0.7756449999999999 H
   0.2337933333333333    0.6562700000000000    0.8303750000000000 H
   0.2545683333333333    0.5181700000000000    0.7941500000000000 H
   0.6321583333333334    0.8129300000000000    0.5618500000000000 H
   0.5886466666666667    0.6778700000000000    0.5257550000000000 H
   0.7091050000000000    0.6559900000000000    0.5800650000000001 H
   0.6652583333333333    0.5179800000000000    0.5441450000000000 H
   0.5566916666666667    0.5558200000000000    0.4903900000000000 H
   0.6099716666666667    0.4441700000000000    0.5095950000000000 H
   0.5345016666666667    0.1870600000000000    0.4381350000000000 H
   0.5780149999999999    0.3221200000000000    0.4742350000000000 H
   0.4575566666666666    0.3440000000000000    0.4199250000000000 H
   0.5014033333333333    0.4820100000000000    0.4558450000000000 H
   0.4968166666666666    0.1870100000000000    0.1880350000000000 H
   0.4758366666666666    0.3221900000000000    0.2243450000000000 H
   0.5995333333333334    0.3437200000000000    0.1696150000000000 H
   0.5787599999999999    0.4818200000000000    0.2058450000000000 H
   0.4641050000000000    0.4442700000000000    0.2594500000000000 H
   0.5358883333333333    0.5557200000000000    0.2405450000000000 H
   0.5031766666666667    0.8129800000000000    0.3119550000000000 H
   0.5241550000000000    0.6778000000000000    0.2756450000000000 H
   0.4004600000000000    0.6562700000000000    0.3303750000000000 H
   0.4212350000000000    0.5181700000000000    0.2941500000000000 H
   0.9654916666666666    0.8129300000000000    0.5618500000000000 H
   0.9219799999999999    0.6778700000000000    0.5257550000000000 H
   0.0424383333333333    0.6559900000000000    0.5800650000000001 H
   0.9985916666666665    0.5179800000000000    0.5441450000000000 H
   0.8900250000000000    0.5558200000000000    0.4903900000000000 H
   0.9433049999999999    0.4441700000000000    0.5095950000000000 H
   0.8678349999999999    0.1870600000000000    0.4381350000000000 H
   0.9113483333333332    0.3221200000000000    0.4742350000000000 H
   0.7908900000000000    0.3440000000000000    0.4199250000000000 H
   0.8347366666666666    0.4820100000000000    0.4558450000000000 H
   0.8301499999999999    0.1870100000000000    0.1880350000000000 H
   0.8091699999999999    0.3221900000000000    0.2243450000000000 H
   0.9328666666666666    0.3437200000000000    0.1696150000000000 H
   0.9120933333333332    0.4818200000000000    0.2058450000000000 H
   0.7974383333333332    0.4442700000000000    0.2594500000000000 H
   0.8692216666666666    0.5557200000000000    0.2405450000000000 H
   0.8365100000000000    0.8129800000000000    0.3119550000000000 H
   0.8574883333333333    0.6778000000000000    0.2756450000000000 H
   0.7337933333333333    0.6562700000000000    0.3303750000000000 H
   0.7545683333333333    0.5181700000000000    0.2941500000000000 H
   0.2988250000000000    0.8129300000000000    0.5618500000000000 H
   0.2553133333333333    0.6778700000000000    0.5257550000000000 H
   0.3757716666666667    0.6559900000000000    0.5800650000000001 H
   0.3319250000000000    0.5179800000000000    0.5441450000000000 H
   0.2233583333333333    0.5558200000000000    0.4903900000000000 H
   0.2766383333333333    0.4441700000000000    0.5095950000000000 H
   0.2011683333333333    0.1870600000000000    0.4381350000000000 H
   0.2446816666666667    0.3221200000000000    0.4742350000000000 H
   0.1242233333333333    0.3440000000000000    0.4199250000000000 H
   0.1680700000000000    0.4820100000000000    0.4558450000000000 H
   0.1634833333333333    0.1870100000000000    0.1880350000000000 H
   0.1425033333333333    0.3221900000000000    0.2243450000000000 H
   0.2662000000000000    0.3437200000000000    0.1696150000000000 H
   0.2454266666666667    0.4818200000000000    0.2058450000000000 H
   0.1307716666666667    0.4442700000000000    0.2594500000000000 H
   0.2025550000000000    0.5557200000000000    0.2405450000000000 H
   0.1698433333333333    0.8129800000000000    0.3119550000000000 H
   0.1908216666666667    0.6778000000000000    0.2756450000000000 H
   0.0671266666666667    0.6562700000000000    0.3303750000000000 H
   0.0879016666666667    0.5181700000000000    0.2941500000000000 H
   0.1321583333333333    0.8129300000000000    0.0618500000000000 H
   0.0886466666666667    0.6778700000000000    0.0257550000000000 H
   0.2091050000000000    0.6559900000000000    0.0800650000000000 H
   0.1652583333333333    0.5179800000000000    0.0441450000000000 H
   0.0566916666666667    0.5558200000000000    0.9903900000000000 H
   0.1099716666666667    0.4441700000000000    0.0095950000000000 H
   0.0345016666666667    0.1870600000000000    0.9381349999999999 H
   0.0780150000000000    0.3221200000000000    0.9742350000000000 H
   0.9575566666666666    0.3440000000000000    0.9199250000000000 H
   0.0014033333333333    0.4820100000000000    0.9558450000000001 H
   0.9968166666666666    0.1870100000000000    0.6880350000000000 H
   0.9758366666666666    0.3221900000000000    0.7243450000000000 H
   0.0995333333333333    0.3437200000000000    0.6696150000000000 H
   0.0787600000000000    0.4818200000000000    0.7058450000000001 H
   0.9641050000000000    0.4442700000000000    0.7594500000000000 H
   0.0358883333333333    0.5557200000000000    0.7405450000000000 H
   0.0031766666666667    0.8129800000000000    0.8119550000000000 H
   0.0241550000000000    0.6778000000000000    0.7756449999999999 H
   0.9004599999999999    0.6562700000000000    0.8303750000000000 H
   0.9212349999999999    0.5181700000000000    0.7941500000000000 H
   0.7628536361825270   -0.0395237038542261    0.0501908133862295 H
   0.7912184066480085    0.0448499711031288    0.0827079305695227 H
   0.6852883333333333    0.1081200000000000    0.0643150000000000 H
   0.6116116666666667    0.8915100000000000    0.9796050000000001 H
   0.5680983333333334    0.8983200000000000    0.0350200000000000 H
   0.6378833333333334    0.1077500000000000    0.1150600000000000 H
   0.6480383333333333    0.8918700000000001    0.9356700000000000 H
   0.7217150000000000    0.1084700000000000    0.0203850000000000 H
   0.7652266666666666    0.1016700000000000    0.9649650000000001 H
   0.6954416666666666    0.8922500000000000    0.8849300000000000 H
   0.3519550000000000    0.1081200000000000    0.0643150000000000 H
   0.2782783333333333    0.8915100000000000    0.9796050000000001 H
   0.2347650000000000    0.8983200000000000    0.0350200000000000 H
   0.3045500000000000    0.1077500000000000    0.1150600000000000 H
   0.3147050000000000    0.8918700000000001    0.9356700000000000 H
   0.3883816666666666    0.1084700000000000    0.0203850000000000 H
   0.4318933333333333    0.1016700000000000    0.9649650000000001 H
   0.3621083333333333    0.8922500000000000    0.8849300000000000 H
   0.0186216666666667    0.1081200000000000    0.0643150000000000 H
   0.9449449999999999    0.8915100000000000    0.9796050000000001 H
   0.9014316666666666    0.8983200000000000    0.0350200000000000 H
   0.9712166666666666    0.1077500000000000    0.1150600000000000 H
   0.9813716666666665    0.8918700000000001    0.9356700000000000 H
   0.0550483333333333    0.1084700000000000    0.0203850000000000 H
   0.0985600000000000    0.1016700000000000    0.9649650000000001 H
   0.0287750000000000    0.8922500000000000    0.8849300000000000 H
   0.8519549999999999    0.1081200000000000    0.5643150000000000 H
   0.7782783333333333    0.8915100000000000    0.4796050000000000 H
   0.7347650000000000    0.8983200000000000    0.5350200000000001 H
   0.8045500000000000    0.1077500000000000    0.6150599999999999 H
   0.8147050000000000    0.8918700000000001    0.4356700000000000 H
   0.8883816666666666    0.1084700000000000    0.5203850000000000 H
   0.9318933333333332    0.1016700000000000    0.4649650000000000 H
   0.8621083333333333    0.8922500000000000    0.3849300000000000 H
   0.5186216666666666    0.1081200000000000    0.5643150000000000 H
   0.4449450000000000    0.8915100000000000    0.4796050000000000 H
   0.4014316666666666    0.8983200000000000    0.5350200000000001 H
   0.4712166666666666    0.1077500000000000    0.6150599999999999 H
   0.4813716666666666    0.8918700000000001    0.4356700000000000 H
   0.5550483333333334    0.1084700000000000    0.5203850000000000 H
   0.5985600000000000    0.1016700000000000    0.4649650000000000 H
   0.5287750000000000    0.8922500000000000    0.3849300000000000 H
   0.1852883333333333    0.1081200000000000    0.5643150000000000 H
   0.1116116666666667    0.8915100000000000    0.4796050000000000 H
   0.0680983333333333    0.8983200000000000    0.5350200000000001 H
   0.1378833333333333    0.1077500000000000    0.6150599999999999 H
   0.1480383333333333    0.8918700000000001    0.4356700000000000 H
   0.2217150000000000    0.1084700000000000    0.5203850000000000 H
   0.2652266666666667    0.1016700000000000    0.4649650000000000 H
   0.1954416666666667    0.8922500000000000    0.3849300000000000 H
   0.4992400000000000    0.1083900000000000    0.3141800000000000 H
   0.5371816666666667    0.8917000000000000    0.2298900000000000 H
   0.5819150000000000    0.8989400000000000    0.2855450000000000 H
   0.5466366666666667    0.1083200000000000    0.3652000000000000 H
   0.5007616666666667    0.8916300000000000    0.1858050000000000 H
   0.4627983333333333    0.1082700000000000    0.2701050000000000 H
   0.4180683333333333    0.1010300000000000    0.2144450000000000 H
   0.4533666666666666    0.8916900000000000    0.1347800000000000 H
   0.3325733333333333    0.1083900000000000    0.8141800000000000 H
   0.3705150000000000    0.8917000000000000    0.7298900000000000 H
   0.4152483333333333    0.8989400000000000    0.7855449999999999 H
   0.3799700000000000    0.1083200000000000    0.8652000000000000 H
   0.3340950000000000    0.8916300000000000    0.6858050000000000 H
   0.2961316666666667    0.1082700000000000    0.7701050000000000 H
   0.2514016666666666    0.1010300000000000    0.7144450000000000 H
   0.2867000000000000    0.8916900000000000    0.6347800000000000 H
   0.9992399999999999    0.1083900000000000    0.8141800000000000 H
   0.0371816666666667    0.8917000000000000    0.7298900000000000 H
   0.0819150000000000    0.8989400000000000    0.7855449999999999 H
   0.0466366666666667    0.1083200000000000    0.8652000000000000 H
   0.0007616666666667    0.8916300000000000    0.6858050000000000 H
   0.9627983333333332    0.1082700000000000    0.7701050000000000 H
   0.9180683333333333    0.1010300000000000    0.7144450000000000 H
   0.9533666666666666    0.8916900000000000    0.6347800000000000 H
   0.6659066666666666    0.1083900000000000    0.8141800000000000 H
   0.7038483333333333    0.8917000000000000    0.7298900000000000 H
   0.7485816666666666    0.8989400000000000    0.7855449999999999 H
   0.7133033333333333    0.1083200000000000    0.8652000000000000 H
   0.6674283333333333    0.8916300000000000    0.6858050000000000 H
   0.6294649999999999    0.1082700000000000    0.7701050000000000 H
   0.5847350000000000    0.1010300000000000    0.7144450000000000 H
   0.6200333333333333    0.8916900000000000    0.6347800000000000 H
   0.8325733333333333    0.1083900000000000    0.3141800000000000 H
   0.8705149999999999    0.8917000000000000    0.2298900000000000 H
   0.9152483333333332    0.8989400000000000    0.2855450000000000 H
   0.8799699999999999    0.1083200000000000    0.3652000000000000 H
   0.8340949999999999    0.8916300000000000    0.1858050000000000 H
   0.7961316666666667    0.1082700000000000    0.2701050000000000 H
   0.7514016666666666    0.1010300000000000    0.2144450000000000 H
   0.7867000000000000    0.8916900000000000    0.1347800000000000 H
   0.1659066666666666    0.1083900000000000    0.3141800000000000 H
   0.2038483333333333    0.8917000000000000    0.2298900000000000 H
   0.2485816666666666    0.8989400000000000    0.2855450000000000 H
   0.2133033333333333    0.1083200000000000    0.3652000000000000 H
   0.1674283333333333    0.8916300000000000    0.1858050000000000 H
   0.1294650000000000    0.1082700000000000    0.2701050000000000 H
   0.0847350000000000    0.1010300000000000    0.2144450000000000 H
   0.1200333333333333    0.8916900000000000    0.1347800000000000 H
   0.7988249999999999    0.8129300000000000    0.5618500000000000 H
   0.7553133333333333    0.6778700000000000    0.5257550000000000 H
   0.8757716666666666    0.6559900000000000    0.5800650000000001 H
   0.8319250000000000    0.5179800000000000    0.5441450000000000 H
   0.7233583333333333    0.5558200000000000    0.4903900000000000 H
   0.7766383333333333    0.4441700000000000    0.5095950000000000 H
   0.7011683333333333    0.1870600000000000    0.4381350000000000 H
   0.7446816666666667    0.3221200000000000    0.4742350000000000 H
   0.6242233333333334    0.3440000000000000    0.4199250000000000 H
   0.6680699999999999    0.4820100000000000    0.4558450000000000 H
   0.6634833333333333    0.1870100000000000    0.1880350000000000 H
   0.6425033333333333    0.3221900000000000    0.2243450000000000 H
   0.7662000000000000    0.3437200000000000    0.1696150000000000 H
   0.7454266666666667    0.4818200000000000    0.2058450000000000 H
   0.6307716666666667    0.4442700000000000    0.2594500000000000 H
   0.7025549999999999    0.5557200000000000    0.2405450000000000 H
   0.6698433333333333    0.8129800000000000    0.3119550000000000 H
   0.6908216666666667    0.6778000000000000    0.2756450000000000 H
   0.5671266666666667    0.6562700000000000    0.3303750000000000 H
   0.5879016666666667    0.5181700000000000    0.2941500000000000 H
   0.6321583333333334    0.8129300000000000    0.0618500000000000 H
   0.5886466666666667    0.6778700000000000    0.0257550000000000 H
   0.7091050000000000    0.6559900000000000    0.0800650000000000 H
   0.6652583333333333    0.5179800000000000    0.0441450000000000 H
   0.5566916666666667    0.5558200000000000    0.9903900000000000 H
   0.6099716666666667    0.4441700000000000    0.0095950000000000 H
   0.5345016666666667    0.1870600000000000    0.9381349999999999 H
   0.5780149999999999    0.3221200000000000    0.9742350000000000 H
   0.4575566666666666    0.3440000000000000    0.9199250000000000 H
   0.5014033333333333    0.4820100000000000    0.9558450000000001 H
   0.4968166666666666    0.1870100000000000    0.6880350000000000 H
   0.4758366666666666    0.3221900000000000    0.7243450000000000 H
   0.5995333333333334    0.3437200000000000    0.6696150000000000 H
   0.5787599999999999    0.4818200000000000    0.7058450000000001 H
   0.4641050000000000    0.4442700000000000    0.7594500000000000 H
   0.5358883333333333    0.5557200000000000    0.7405450000000000 H
   0.5031766666666667    0.8129800000000000    0.8119550000000000 H
   0.5241550000000000    0.6778000000000000    0.7756449999999999 H
   0.4004600000000000    0.6562700000000000    0.8303750000000000 H
   0.4212350000000000    0.5181700000000000    0.7941500000000000 H
   0.4654916666666666    0.8129300000000000    0.5618500000000000 H
   0.4219800000000000    0.6778700000000000    0.5257550000000000 H
   0.5424383333333334    0.6559900000000000    0.5800650000000001 H
   0.4985916666666667    0.5179800000000000    0.5441450000000000 H
   0.3900250000000000    0.5558200000000000    0.4903900000000000 H
   0.4433049999999999    0.4441700000000000    0.5095950000000000 H
   0.3678350000000000    0.1870600000000000    0.4381350000000000 H
   0.4113483333333333    0.3221200000000000    0.4742350000000000 H
   0.2908900000000000    0.3440000000000000    0.4199250000000000 H
   0.3347366666666666    0.4820100000000000    0.4558450000000000 H
   0.3301499999999999    0.1870100000000000    0.1880350000000000 H
   0.3091699999999999    0.3221900000000000    0.2243450000000000 H
   0.4328666666666666    0.3437200000000000    0.1696150000000000 H
   0.4120933333333333    0.4818200000000000    0.2058450000000000 H
   0.2974383333333334    0.4442700000000000    0.2594500000000000 H
   0.3692216666666667    0.5557200000000000    0.2405450000000000 H
   0.3365100000000000    0.8129800000000000    0.3119550000000000 H
   0.3574883333333333    0.6778000000000000    0.2756450000000000 H
   0.2337933333333333    0.6562700000000000    0.3303750000000000 H
   0.2545683333333333    0.5181700000000000    0.2941500000000000 H
   0.9654916666666666    0.8129300000000000    0.0618500000000000 H
   0.9219799999999999    0.6778700000000000    0.0257550000000000 H
   0.0424383333333333    0.6559900000000000    0.0800650000000000 H
   0.9985916666666665    0.5179800000000000    0.0441450000000000 H
   0.8900250000000000    0.5558200000000000    0.9903900000000000 H
   0.9433049999999999    0.4441700000000000    0.0095950000000000 H
   0.8678349999999999    0.1870600000000000    0.9381349999999999 H
   0.9113483333333332    0.3221200000000000    0.9742350000000000 H
   0.7908900000000000    0.3440000000000000    0.9199250000000000 H
   0.8347366666666666    0.4820100000000000    0.9558450000000001 H
   0.8301499999999999    0.1870100000000000    0.6880350000000000 H
   0.8091699999999999    0.3221900000000000    0.7243450000000000 H
   0.9328666666666666    0.3437200000000000    0.6696150000000000 H
   0.9120933333333332    0.4818200000000000    0.7058450000000001 H
   0.7974383333333332    0.4442700000000000    0.7594500000000000 H
   0.8692216666666666    0.5557200000000000    0.7405450000000000 H
   0.8365100000000000    0.8129800000000000    0.8119550000000000 H
   0.8574883333333333    0.6778000000000000    0.7756449999999999 H
   0.7337933333333333    0.6562700000000000    0.8303750000000000 H
   0.7545683333333333    0.5181700000000000    0.7941500000000000 H
   0.2988250000000000    0.8129300000000000    0.0618500000000000 H
   0.2553133333333333    0.6778700000000000    0.0257550000000000 H
   0.3757716666666667    0.6559900000000000    0.0800650000000000 H
   0.3319250000000000    0.5179800000000000    0.0441450000000000 H
   0.2233583333333333    0.5558200000000000    0.9903900000000000 H
   0.2766383333333333    0.4441700000000000    0.0095950000000000 H
   0.2011683333333333    0.1870600000000000    0.9381349999999999 H
   0.2446816666666667    0.3221200000000000    0.9742350000000000 H
   0.1242233333333333    0.3440000000000000    0.9199250000000000 H
   0.1680700000000000    0.4820100000000000    0.9558450000000001 H
   0.1634833333333333    0.1870100000000000    0.6880350000000000 H
   0.1425033333333333    0.3221900000000000    0.7243450000000000 H
   0.2662000000000000    0.3437200000000000    0.6696150000000000 H
   0.2454266666666667    0.4818200000000000    0.7058450000000001 H
   0.1307716666666667    0.4442700000000000    0.7594500000000000 H
   0.2025550000000000    0.5557200000000000    0.7405450000000000 H
   0.1698433333333333    0.8129800000000000    0.8119550000000000 H
   0.1908216666666667    0.6778000000000000    0.7756449999999999 H
   0.0671266666666667    0.6562700000000000    0.8303750000000000 H
   0.0879016666666667    0.5181700000000000    0.7941500000000000 H
   0.1321583333333333    0.8129300000000000    0.5618500000000000 H
   0.0886466666666667    0.6778700000000000    0.5257550000000000 H
   0.2091050000000000    0.6559900000000000    0.5800650000000001 H
   0.1652583333333333    0.5179800000000000    0.5441450000000000 H
   0.0566916666666667    0.5558200000000000    0.4903900000000000 H