H4 O2
1.0
  37.5239063616773620    0.0000000000000000   -0.0838293508803264
  -3.1016186779435784   15.0335346461682668   -3.9289722089994372
   0.0000000000000000    0.0000000000000000   33.2879999999999967
H O
4 2
direct
   0.8754430809253254    0.9551368227932781    0.9172808640417500 H
   0.9038052525996115    1.0395106071845457    0.9497977521573150 H
   0.7628536361825270   -0.0395237038542261    0.0501908133862295 H
   0.7912184066480085    0.0448499711031288    0.0827079305695227 H
   0.8990033333333333    0.9964600000000000    0.9227000000000001 O
   0.7676550000000000    0.0035400000000000    0.0772850000000000 O
