H6 O4
1.0
  37.5239063616773620    0.0000000000000000   -0.0838293508803264
  -3.1016186779435784   15.0335346461682668   -3.9289722089994372
   0.0000000000000000    0.0000000000000000   33.2879999999999967
H O
6 4
direct
   0.4853540652806906   -0.0913582445238177    0.3440657685780357 H
   0.3843512645565860   -0.2316251553930611    0.3512414032835386 H
   0.4313318559408725   -0.1724883245379570    0.3468613624338745 H
   0.5146423956359230    1.0913656486681531    0.1559298693111419 H
   0.6156381228219412    1.2316150895094371    0.1487521962635177 H
   0.5686633016741776    1.1724976798380620    0.1531345928284507 H
   0.4599250000000000   -0.0991200000000000    0.3505750000000000 O
   0.4041666666666667   -0.1807800000000000    0.3538150000000000 O
   0.5400700000000001    1.0991000000000000    0.1494150000000000 O
   0.5958266666666667    1.1807600000000000    0.1461750000000000 O
