H2 C3 O4
1.0
   6.9294366483186387    0.0000000000000000    0.0296308443781373
   0.0432901071446398   13.7929285341612751    0.0098700629704831
   0.0000000000000000    0.0000000000000000   21.9909999999999997
H C O
2 3 4
direct
   0.7459100000000000    0.0410000000000000    0.7827100000000000 H
   0.7393200000000000    0.1439600000000000    0.8328500000000000 H
   0.9156100000000000    0.0263300000000000    0.8649300000000000 C
   0.7395600000000000    0.0642300000000000    0.8302000000000000 C
   0.5572800000000000    0.0260300000000000    0.8608900000000000 C
   0.9330500000000000    0.0495100000000000    0.9204500000000000 O
   0.0330300000000000    0.9731400000000000    0.8352100000000000 O
   0.5166900000000000    0.0543800000000000    0.9144200000000000 O
   0.4582200000000000    0.9652100000000000    0.8307400000000000 O
