H8 C10 N2
1.0
   6.9294366483186387    0.0000000000000000    0.0296308443781373
   0.0432901071446398   13.7929285341612751    0.0098700629704831
   0.0000000000000000    0.0000000000000000   21.9909999999999997
H C N
8 10 2
direct
   0.3941800000000000    0.3935300000000000    0.7348700000000000 H
   0.4106400000000000    0.2855000000000000    0.6433600000000000 H
   0.2049400000000000    0.0533900000000000    0.7593900000000000 H
   0.1902200000000000    0.1712000000000000    0.8438300000000000 H
   0.4435000000000000    0.9724400000000000    0.6890100000000000 H
   0.4350600000000000    0.8633200000000000    0.5978900000000000 H
   0.1718600000000000    0.0739400000000000    0.4926200000000000 H
   0.1776800000000000    0.1933000000000000    0.5767400000000000 H
   0.3498800000000000    0.3179500000000000    0.7373400000000000 C
   0.3600800000000000    0.2573900000000000    0.6869499999999999 C
   0.3069300000000000    0.1597300000000000    0.6932500000000000 C
   0.2479100000000000    0.1278900000000000    0.7508600000000000 C
   0.2384400000000000    0.1934200000000000    0.7987300000000001 C
   0.3089800000000000    0.0924900000000000    0.6409200000000000 C
   0.3813700000000000    0.9977300000000000    0.6463400000000000 C
   0.3755700000000000    0.9364300000000000    0.5962800000000000 C
   0.2310400000000000    0.0546900000000000    0.5368600000000000 C
   0.2350800000000000    0.1209100000000000    0.5844600000000000 C
   0.2869700000000000    0.2874100000000000    0.7922400000000001 N
   0.2989600000000000    0.9634400000000000    0.5424700000000000 N
