H5 C4 N2
1.0
  10.9614963120041864    0.0000000000000000   -0.0089917694915692
  -0.0561253743144462   25.5159335120800073   -0.0155868364484702
   0.0000000000000000    0.0000000000000000   20.0659999999999989
H C N
5 4 2
direct
   0.0108500000000000    0.9902050000000000    0.8734300000000000 H
   0.0684800000000000    0.9595850000000000    0.0024100000000000 H
   0.0656800000000000    0.8084150000000000    0.8172500000000000 H
   0.0557700000000000    0.7846900000000000    0.9000899999999999 H
   0.1993900000000000    0.8051550000000001    0.8679600000000000 H
   0.0777500000000000    0.8679900000000000    0.8916300000000000 C
   0.0375400000000000    0.9522950000000000    0.8927300000000000 C
   0.0645200000000000    0.9369650000000000    0.9567400000000000 C
   0.1009600000000000    0.8136900000000000    0.8679900000000000 C
   0.0891000000000000    0.8836750000000000    0.9558500000000000 N
   0.0459600000000000    0.9086400000000000    0.8517600000000000 N
