Ag32 H156 C124 N62 O1
1.0
  10.9614963120041864    0.0000000000000000   -0.0089917694915692
  -0.0561253743144462   25.5159335120800073   -0.0155868364484702
   0.0000000000000000    0.0000000000000000   20.0659999999999989
Ag H C N O
32 156 124 62 1
direct
   0.6457900000000000    0.9143049999999999    0.4651100000000000 Ag
   0.3545400000000000    0.9144900000000000    0.0349800000000000 Ag
   0.4994000000000000    0.8440500000000000    0.7499800000000000 Ag
   0.8543300000000000    0.3356750000000000    0.4648900000000000 Ag
   0.1458700000000000    0.3356100000000000    0.0349200000000000 Ag
   0.9996100000000000    0.4060500000000000    0.7501400000000000 Ag
   0.2502700000000000    0.1250950000000000    0.1748500000000000 Ag
   0.7501800000000000    0.1248750000000000    0.3248800000000000 Ag
   0.1454500000000000    0.6643050000000000    0.5350700000000000 Ag
   0.8540100000000000    0.6644250000000000    0.9650000000000000 Ag
   0.0003800000000000    0.5939650000000000    0.2497900000000000 Ag
   0.6452800000000000    0.0855600000000000    0.9650400000000000 Ag
   0.3539800000000000    0.0856650000000000    0.5349000000000000 Ag
   0.5004000000000000    0.1559700000000000    0.2500500000000000 Ag
   0.7494700000000000    0.8749450000000000    0.8251200000000000 Ag
   0.2495300000000000    0.8750950000000000    0.6751200000000001 Ag
   0.1454500000000000    0.1643050000000000    0.5350700000000000 Ag
   0.8540100000000000    0.1644250000000000    0.9650000000000000 Ag
   0.0003800000000000    0.0939650000000000    0.2497900000000000 Ag
   0.6452800000000000    0.5855600000000000    0.9650400000000000 Ag
   0.3539800000000000    0.5856650000000000    0.5349000000000000 Ag
   0.5004000000000000    0.6559699999999999    0.2500500000000000 Ag
   0.7494700000000000    0.3749450000000000    0.8251200000000000 Ag
   0.2495300000000000    0.3750950000000000    0.6751200000000001 Ag
   0.8543300000000000    0.8356749999999999    0.4648900000000000 Ag
   0.9996100000000000    0.9060500000000000    0.7501400000000000 Ag
   0.6457900000000000    0.4143050000000000    0.4651100000000000 Ag
   0.3545400000000000    0.4144900000000000    0.0349800000000000 Ag
   0.4994000000000000    0.3440500000000000    0.7499800000000000 Ag
   0.1458700000000000    0.8356100000000000    0.0349200000000000 Ag
   0.2502700000000000    0.6250950000000000    0.1748500000000000 Ag
   0.7501800000000000    0.6248750000000000    0.3248800000000000 Ag
   0.5654000000000000    0.9417800000000001    0.6825700000000000 H
   0.5560500000000000    0.9652900000000000    0.5996100000000000 H
   0.6994100000000000    0.9450650000000000    0.6321900000000000 H
   0.5684900000000001    0.7902150000000000    0.4979200000000000 H
   0.5105200000000000    0.7596900000000000    0.6269300000000000 H
   0.6787400000000000    0.0215300000000000    0.5014000000000000 H
   0.6401000000000000    0.0811550000000000    0.4605300000000000 H
   0.7959400000000000    0.0641750000000000    0.4726400000000000 H
   0.7362800000000000    0.0114500000000000    0.2367400000000000 H
   0.6896099999999999    0.9177900000000000    0.3018100000000000 H
   0.4326800000000000    0.9416400000000000    0.8171500000000000 H
   0.4436900000000000    0.9654100000000000    0.8999800000000000 H
   0.2996300000000000    0.9449600000000000    0.8682500000000000 H
   0.4317200000000000    0.7905300000000000    0.0021800000000000 H
   0.4887700000000000    0.7598800000000000    0.8731100000000001 H
   0.3192500000000000    0.0212600000000000    0.0000000000000000 H
   0.3601000000000000    0.0809200000000000    0.0387800000000000 H
   0.2036200000000000    0.0642700000000000    0.0276800000000000 H
   0.2649600000000000    0.0119750000000000    0.2632700000000000 H
   0.3122300000000000    0.9182900000000001    0.1984800000000000 H
   0.9323399999999999    0.3084100000000000    0.6827900000000000 H
   0.9439100000000000    0.2847100000000000    0.5999800000000000 H
   0.7996200000000000    0.3048550000000000    0.6313100000000000 H
   0.9318300000000000    0.4597200000000000    0.4979900000000000 H
   0.9892500000000000    0.4903200000000000    0.6271500000000000 H
   0.8203000000000000    0.2287350000000000    0.5013200000000000 H
   0.8599700000000000    0.1690700000000000    0.4607900000000000 H
   0.7038300000000000    0.1858000000000000    0.4722100000000000 H
   0.7646700000000000    0.2380700000000000    0.2364600000000000 H
   0.8114900000000000    0.3318700000000000    0.3013500000000000 H
   0.0656800000000000    0.3084150000000000    0.8172500000000000 H
   0.0557700000000000    0.2846900000000000    0.9000899999999999 H
   0.1993900000000000    0.3051550000000000    0.8679600000000000 H
   0.0108500000000000    0.4902050000000000    0.8734300000000000 H
   0.0684800000000000    0.4595850000000000    0.0024100000000000 H
   0.1793800000000000    0.2285750000000000    0.0000000000000000 H
   0.1399600000000000    0.1689050000000000    0.0390800000000000 H
   0.2960200000000000    0.1858850000000000    0.0273200000000000 H
   0.2367400000000000    0.2383850000000000    0.2631600000000000 H
   0.1899400000000000    0.3320450000000000    0.1982500000000000 H
   0.0677100000000000    0.6915400000000000    0.3171300000000000 H
   0.0561500000000000    0.7152600000000000    0.3999400000000000 H
   0.2004200000000000    0.6950800000000000    0.3686200000000000 H
   0.0108000000000000    0.5097400000000000    0.3727700000000000 H
   0.0680200000000000    0.5402600000000000    0.5019600000000000 H
   0.1792300000000000    0.7712800000000000    0.4986900000000000 H
   0.1398000000000000    0.8309599999999999    0.5392400000000001 H
   0.2958700000000000    0.8141350000000001    0.5277900000000000 H
   0.2349600000000000    0.7618849999999999    0.7635300000000000 H
   0.1881500000000000    0.6680950000000000    0.6986200000000000 H
   0.9343600000000000    0.6916550000000000    0.1826600000000000 H
   0.9444100000000000    0.7153650000000000    0.0998100000000000 H
   0.8007200000000000    0.6949600000000000    0.1319100000000000 H
   0.9312100000000000    0.5404400000000000    0.9975500000000000 H
   0.9892900000000000    0.5097750000000000    0.1264800000000000 H
   0.8202500000000000    0.7714200000000000    0.0015400000000000 H
   0.8599300000000000    0.8310800000000000    0.9609200000000000 H
   0.7038000000000000    0.8141800000000000    0.9725700000000000 H
   0.7630600000000000    0.7616650000000000    0.7367700000000000 H
   0.8100600000000000    0.6680100000000000    0.8016600000000000 H
   0.5673899999999999    0.0584350000000000    0.1829000000000000 H
   0.5562000000000000    0.0346350000000000    0.1000900000000000 H
   0.7003200000000001    0.0551200000000000    0.1317100000000000 H
   0.5680100000000000    0.2095250000000000    0.9978399999999999 H
   0.5109100000000000    0.2401550000000000    0.1269000000000000 H
   0.6802500000000000    0.9787399999999999    0.0016200000000000 H
   0.6396200000000000    0.9190700000000001    0.9611700000000000 H
   0.7960400000000000    0.9357800000000001    0.9723700000000000 H
   0.7348700000000000    0.9880750000000000    0.7367500000000000 H
   0.6876800000000000    0.0817600000000000    0.8015600000000001 H
   0.4346000000000000    0.0581950000000000    0.3174700000000000 H
   0.4437200000000000    0.0346950000000000    0.4004500000000000 H
   0.3004600000000000    0.0549250000000000    0.3677500000000000 H
   0.4313000000000000    0.2097500000000000    0.5021200000000000 H
   0.4893300000000000    0.2402900000000000    0.3731300000000000 H
   0.3205400000000000    0.9784950000000000    0.4985700000000000 H
   0.3595700000000000    0.9188900000000000    0.5393700000000000 H
   0.2036200000000000    0.9357650000000000    0.5274500000000000 H
   0.2636200000000000    0.9884999999999999    0.7632800000000000 H
   0.3103100000000000    0.0821650000000000    0.6982300000000000 H
   0.0677100000000000    0.1915400000000000    0.3171300000000000 H
   0.0561500000000000    0.2152600000000000    0.3999400000000000 H
   0.2004200000000000    0.1950800000000000    0.3686200000000000 H
   0.0108000000000000    0.0097400000000000    0.3727700000000000 H
   0.0680200000000000    0.0402600000000000    0.5019600000000000 H
   0.1792300000000000    0.2712800000000000    0.4986900000000000 H
   0.1398000000000000    0.3309600000000000    0.5392400000000001 H
   0.2958700000000000    0.3141350000000000    0.5277900000000000 H
   0.2349600000000000    0.2618850000000000    0.7635300000000000 H
   0.1881500000000000    0.1680950000000000    0.6986200000000000 H
   0.9343600000000000    0.1916550000000000    0.1826600000000000 H
   0.9444100000000000    0.2153650000000000    0.0998100000000000 H
   0.8007200000000000    0.1949600000000000    0.1319100000000000 H
   0.9312100000000000    0.0404400000000000    0.9975500000000000 H
   0.9892900000000000    0.0097750000000000    0.1264800000000000 H
   0.8202500000000000    0.2714200000000000    0.0015400000000000 H
   0.8599300000000000    0.3310800000000000    0.9609200000000000 H
   0.7038000000000000    0.3141800000000000    0.9725700000000000 H
   0.7630600000000000    0.2616650000000000    0.7367700000000000 H
   0.8100600000000000    0.1680100000000000    0.8016600000000000 H
   0.5673899999999999    0.5584350000000000    0.1829000000000000 H
   0.5562000000000000    0.5346350000000000    0.1000900000000000 H
   0.7003200000000001    0.5551200000000001    0.1317100000000000 H
   0.5680100000000000    0.7095250000000000    0.9978399999999999 H
   0.5109100000000000    0.7401550000000000    0.1269000000000000 H
   0.6802500000000000    0.4787400000000000    0.0016200000000000 H
   0.6396200000000000    0.4190700000000000    0.9611700000000000 H
   0.7960400000000000    0.4357800000000000    0.9723700000000000 H
   0.7348700000000000    0.4880750000000000    0.7367500000000000 H
   0.6876800000000000    0.5817600000000001    0.8015600000000001 H
   0.4346000000000000    0.5581950000000000    0.3174700000000000 H
   0.4437200000000000    0.5346950000000000    0.4004500000000000 H
   0.3004600000000000    0.5549250000000000    0.3677500000000000 H
   0.4313000000000000    0.7097500000000000    0.5021200000000000 H
   0.4893300000000000    0.7402900000000000    0.3731300000000000 H
   0.3205400000000000    0.4784950000000000    0.4985700000000000 H
   0.3595700000000000    0.4188900000000000    0.5393700000000000 H
   0.2036200000000000    0.4357650000000000    0.5274500000000000 H
   0.2636200000000000    0.4885000000000000    0.7632800000000000 H
   0.3103100000000000    0.5821650000000000    0.6982300000000000 H
   0.9323399999999999    0.8084100000000001    0.6827900000000000 H
   0.9439100000000000    0.7847100000000000    0.5999800000000000 H
   0.7996200000000000    0.8048550000000000    0.6313100000000000 H
   0.9318300000000000    0.9597200000000000    0.4979900000000000 H
   0.9892500000000000    0.9903200000000000    0.6271500000000000 H
   0.8203000000000000    0.7287350000000000    0.5013200000000000 H
   0.8599700000000000    0.6690700000000001    0.4607900000000000 H
   0.7038300000000000    0.6858000000000000    0.4722100000000000 H
   0.7646700000000000    0.7380700000000000    0.2364600000000000 H
   0.8114900000000000    0.8318700000000000    0.3013500000000000 H
   0.5654000000000000    0.4417800000000000    0.6825700000000000 H
   0.5560500000000000    0.4652900000000000    0.5996100000000000 H
   0.6994100000000000    0.4450650000000000    0.6321900000000000 H
   0.5684900000000001    0.2902150000000000    0.4979200000000000 H
   0.5105200000000000    0.2596900000000000    0.6269300000000000 H
   0.6787400000000000    0.5215300000000000    0.5014000000000000 H
   0.6401000000000000    0.5811550000000000    0.4605300000000000 H
   0.7959400000000000    0.5641750000000000    0.4726400000000000 H
   0.7362800000000000    0.5114500000000000    0.2367400000000000 H
   0.6896099999999999    0.4177900000000000    0.3018100000000000 H
   0.4326800000000000    0.4416400000000000    0.8171500000000000 H
   0.4436900000000000    0.4654100000000000    0.8999800000000000 H
   0.2996300000000000    0.4449600000000000    0.8682500000000000 H
   0.4317200000000000    0.2905300000000000    0.0021800000000000 H
   0.4887700000000000    0.2598800000000000    0.8731100000000001 H
   0.3192500000000000    0.5212600000000001    0.0000000000000000 H
   0.3601000000000000    0.5809200000000000    0.0387800000000000 H
   0.2036200000000000    0.5642700000000000    0.0276800000000000 H
   0.2649600000000000    0.5119750000000000    0.2632700000000000 H
   0.3122300000000000    0.4182900000000000    0.1984800000000000 H
   0.0809012085364486    0.8723447758497089    0.9094600098864077 H
   0.1793800000000000    0.7285750000000000    0.0000000000000000 H
   0.1399600000000000    0.6689050000000000    0.0390800000000000 H
   0.2960200000000000    0.6858850000000000    0.0273200000000000 H
   0.2367400000000000    0.7383850000000001    0.2631600000000000 H
   0.1899400000000000    0.8320449999999999    0.1982500000000000 H
   0.6009400000000000    0.9364200000000000    0.6319500000000000 C
   0.5776900000000000    0.8820350000000000    0.6084600000000000 C
   0.5644900000000000    0.8129150000000001    0.5435400000000000 C
   0.5374300000000000    0.7976500000000000    0.6075700000000001 C
   0.7048800000000000    0.0483200000000000    0.4610300000000000 C
   0.7058200000000000    0.0200100000000000    0.3961300000000000 C
   0.7224200000000000    0.0036100000000000    0.2892300000000000 C
   0.7000400000000000    0.9570950000000000    0.3215400000000000 C
   0.3980500000000000    0.9364000000000000    0.8679900000000000 C
   0.4215600000000000    0.8821150000000000    0.8915300000000000 C
   0.4353400000000000    0.8131450000000000    0.9565300000000000 C
   0.4619500000000000    0.7978200000000000    0.8924800000000001 C
   0.2945300000000000    0.0482450000000000    0.0387900000000000 C
   0.2942400000000000    0.0201350000000000    0.1038000000000000 C
   0.2786000000000000    0.0040150000000000    0.2107900000000000 C
   0.3012300000000000    0.9574849999999999    0.1786100000000000 C
   0.8980399999999999    0.3136100000000000    0.6318700000000000 C
   0.9216299999999999    0.3679650000000000    0.6084600000000000 C
   0.9355100000000000    0.4370450000000000    0.5436100000000000 C
   0.9622400000000000    0.4523250000000000    0.6077100000000000 C
   0.7948499999999999    0.2017850000000000    0.4609200000000000 C
   0.7943400000000000    0.2299150000000000    0.3959300000000000 C
   0.7783400000000000    0.2460450000000000    0.2889600000000000 C
   0.8007500000000000    0.2926350000000000    0.3211900000000000 C
   0.1009600000000000    0.3136900000000000    0.8679900000000000 C
   0.0777500000000000    0.3679900000000000    0.8916300000000000 C
   0.0375400000000000    0.4522950000000000    0.8927300000000000 C
   0.0645200000000000    0.4369650000000000    0.9567400000000000 C
   0.2051000000000000    0.2017350000000000    0.0387800000000000 C
   0.2060800000000000    0.2299650000000000    0.1037400000000000 C
   0.2227800000000000    0.2462700000000000    0.2106800000000000 C
   0.2003900000000000    0.2927850000000000    0.1784400000000000 C
   0.1019900000000000    0.6863450000000000    0.3680600000000000 C
   0.0783700000000000    0.6319950000000000    0.3914800000000000 C
   0.0376900000000000    0.5476400000000000    0.3922300000000000 C
   0.0643900000000000    0.5629250000000000    0.4563400000000000 C
   0.2048000000000000    0.7982050000000001    0.5390800000000000 C
   0.2052700000000000    0.7700650000000000    0.6040700000000000 C
   0.2212700000000000    0.7539199999999999    0.7110400000000000 C
   0.1988700000000000    0.7073350000000000    0.6788000000000000 C
   0.8991300000000000    0.6863850000000000    0.1319100000000000 C
   0.9222000000000000    0.6320700000000000    0.1083000000000000 C
   0.9352600000000000    0.5630700000000000    0.0432100000000000 C
   0.9623100000000000    0.5477550000000000    0.1072200000000000 C
   0.7946900000000000    0.7982850000000000    0.9611600000000000 C
   0.7937400000000000    0.7700700000000000    0.8961900000000000 C
   0.7770700000000000    0.7537750000000000    0.7892500000000000 C
   0.7995700000000000    0.7072650000000000    0.8214700000000000 C
   0.6018900000000000    0.0636650000000000    0.1320400000000000 C
   0.5783000000000000    0.1179450000000000    0.1084900000000000 C
   0.5644300000000000    0.1869100000000000    0.0434800000000000 C
   0.5377999999999999    0.2022250000000000    0.1075400000000000 C
   0.7051100000000000    0.9517750000000000    0.9612100000000000 C
   0.7054700000000000    0.9798950000000000    0.8962100000000000 C
   0.7211900000000000    0.9960249999999999    0.7892200000000000 C
   0.6986100000000000    0.0425600000000000    0.8214200000000000 C
   0.3989300000000000    0.0635600000000000    0.3680600000000000 C
   0.4221300000000000    0.1179450000000000    0.3915600000000000 C
   0.4353300000000000    0.1870550000000000    0.4565000000000000 C
   0.4624200000000000    0.2023300000000000    0.3924800000000000 C
   0.2946500000000000    0.9516800000000001    0.5389600000000000 C
   0.2938600000000000    0.9799700000000000    0.6038800000000000 C
   0.2774300000000000    0.9963500000000001    0.7107900000000000 C
   0.2997900000000000    0.0428650000000000    0.6784800000000000 C
   0.1019900000000000    0.1863450000000000    0.3680600000000000 C
   0.0783700000000000    0.1319950000000000    0.3914800000000000 C
   0.0376900000000000    0.0476400000000000    0.3922300000000000 C
   0.0643900000000000    0.0629250000000000    0.4563400000000000 C
   0.2048000000000000    0.2982050000000000    0.5390800000000000 C
   0.2052700000000000    0.2700650000000000    0.6040700000000000 C
   0.2212700000000000    0.2539200000000000    0.7110400000000000 C
   0.1988700000000000    0.2073350000000000    0.6788000000000000 C
   0.8991300000000000    0.1863850000000000    0.1319100000000000 C
   0.9222000000000000    0.1320700000000000    0.1083000000000000 C
   0.9352600000000000    0.0630700000000000    0.0432100000000000 C
   0.9623100000000000    0.0477550000000000    0.1072200000000000 C
   0.7946900000000000    0.2982850000000000    0.9611600000000000 C
   0.7937400000000000    0.2700700000000000    0.8961900000000000 C
   0.7770700000000000    0.2537750000000000    0.7892500000000000 C
   0.7995700000000000    0.2072650000000000    0.8214700000000000 C
   0.6018900000000000    0.5636650000000000    0.1320400000000000 C
   0.5783000000000000    0.6179450000000000    0.1084900000000000 C
   0.5644300000000000    0.6869100000000000    0.0434800000000000 C
   0.5377999999999999    0.7022250000000000    0.1075400000000000 C
   0.7051100000000000    0.4517750000000000    0.9612100000000000 C
   0.7054700000000000    0.4798950000000000    0.8962100000000000 C
   0.7211900000000000    0.4960250000000000    0.7892200000000000 C
   0.6986100000000000    0.5425600000000000    0.8214200000000000 C
   0.3989300000000000    0.5635600000000001    0.3680600000000000 C
   0.4221300000000000    0.6179450000000000    0.3915600000000000 C
   0.4353300000000000    0.6870550000000000    0.4565000000000000 C
   0.4624200000000000    0.7023300000000000    0.3924800000000000 C
   0.2946500000000000    0.4516800000000000    0.5389600000000000 C
   0.2938600000000000    0.4799700000000000    0.6038800000000000 C
   0.2774300000000000    0.4963500000000000    0.7107900000000000 C
   0.2997900000000000    0.5428650000000000    0.6784800000000000 C
   0.8980399999999999    0.8136099999999999    0.6318700000000000 C
   0.9216299999999999    0.8679650000000000    0.6084600000000000 C
   0.9355100000000000    0.9370450000000000    0.5436100000000000 C
   0.9622400000000000    0.9523250000000000    0.6077100000000000 C
   0.7948499999999999    0.7017850000000000    0.4609200000000000 C
   0.7943400000000000    0.7299150000000000    0.3959300000000000 C
   0.7783400000000000    0.7460450000000001    0.2889600000000000 C
   0.8007500000000000    0.7926350000000000    0.3211900000000000 C
   0.6009400000000000    0.4364200000000000    0.6319500000000000 C
   0.5776900000000000    0.3820350000000000    0.6084600000000000 C
   0.5644900000000000    0.3129150000000000    0.5435400000000000 C
   0.5374300000000000    0.2976500000000000    0.6075700000000001 C
   0.7048800000000000    0.5483200000000000    0.4610300000000000 C
   0.7058200000000000    0.5200100000000000    0.3961300000000000 C
   0.7224200000000000    0.5036100000000000    0.2892300000000000 C
   0.7000400000000000    0.4570950000000000    0.3215400000000000 C
   0.3980500000000000    0.4364000000000000    0.8679900000000000 C
   0.4215600000000000    0.3821150000000000    0.8915300000000000 C
   0.4353400000000000    0.3131450000000000    0.9565300000000000 C
   0.4619500000000000    0.2978200000000000    0.8924800000000001 C
   0.2945300000000000    0.5482450000000000    0.0387900000000000 C
   0.2942400000000000    0.5201350000000000    0.1038000000000000 C
   0.2786000000000000    0.5040150000000000    0.2107900000000000 C
   0.3012300000000000    0.4574850000000000    0.1786100000000000 C
   0.2051000000000000    0.7017350000000000    0.0387800000000000 C
   0.2060800000000000    0.7299650000000000    0.1037400000000000 C
   0.2227800000000000    0.7462700000000000    0.2106800000000000 C
   0.2003900000000000    0.7927850000000001    0.1784400000000000 C
   0.5890800000000000    0.8662500000000000    0.5442900000000001 N
   0.5458499999999999    0.8413999999999999    0.6484000000000000 N
   0.7254600000000000    0.0432350000000000    0.3363800000000000 N
   0.6895700000000000    0.9675300000000000    0.3891300000000000 N
   0.4106400000000000    0.8664250000000000    0.9557400000000000 N
   0.4531200000000000    0.8414650000000000    0.8515700000000000 N
   0.2747800000000000    0.0434700000000000    0.1635000000000000 N
   0.3111100000000000    0.9677400000000000    0.1109600000000000 N
   0.9106300000000001    0.3837300000000000    0.5442800000000000 N
   0.9533500000000000    0.4086100000000000    0.6485100000000000 N
   0.7748600000000000    0.2065500000000000    0.3362000000000000 N
   0.8108200000000000    0.2823750000000000    0.3888300000000000 N
   0.0891000000000000    0.3836750000000000    0.9558500000000000 N
   0.0459600000000000    0.4086400000000000    0.8517600000000000 N
   0.2258300000000000    0.2067100000000000    0.1634600000000000 N
   0.1898400000000000    0.2824100000000000    0.1108300000000000 N
   0.0892900000000000    0.6162400000000000    0.4556600000000000 N
   0.0466100000000000    0.5913500000000000    0.3514300000000000 N
   0.2247300000000000    0.7934250000000000    0.6637999999999999 N
   0.1887900000000000    0.7176050000000000    0.6111600000000000 N
   0.9107499999999999    0.6163650000000001    0.0440800000000000 N
   0.9540200000000000    0.5914250000000000    0.1481600000000000 N
   0.7739300000000000    0.7933250000000001    0.8364800000000000 N
   0.8101200000000000    0.7176350000000000    0.8890800000000000 N
   0.5891900000000000    0.1336300000000000    0.0442800000000000 N
   0.5466700000000000    0.1585850000000000    0.1484400000000000 N
   0.7249500000000000    0.9565650000000000    0.8365000000000000 N
   0.6886900000000000    0.0322950000000000    0.8890600000000000 N
   0.4107300000000000    0.1337200000000000    0.4557300000000000 N
   0.4540200000000000    0.1585850000000000    0.3516300000000000 N
   0.2742900000000000    0.9567350000000000    0.6636300000000001 N
   0.3101700000000000    0.0324500000000000    0.6108900000000000 N
   0.0892900000000000    0.1162400000000000    0.4556600000000000 N
   0.0466100000000000    0.0913500000000000    0.3514300000000000 N
   0.2247300000000000    0.2934250000000000    0.6637999999999999 N
   0.1887900000000000    0.2176050000000000    0.6111600000000000 N
   0.9107499999999999    0.1163650000000000    0.0440800000000000 N
   0.9540200000000000    0.0914250000000000    0.1481600000000000 N
   0.7739300000000000    0.2933250000000000    0.8364800000000000 N
   0.8101200000000000    0.2176350000000000    0.8890800000000000 N
   0.5891900000000000    0.6336300000000000    0.0442800000000000 N
   0.5466700000000000    0.6585850000000000    0.1484400000000000 N
   0.7249500000000000    0.4565650000000000    0.8365000000000000 N
   0.6886900000000000    0.5322950000000000    0.8890600000000000 N
   0.4107300000000000    0.6337200000000001    0.4557300000000000 N
   0.4540200000000000    0.6585850000000000    0.3516300000000000 N
   0.2742900000000000    0.4567350000000000    0.6636300000000001 N
   0.3101700000000000    0.5324500000000000    0.6108900000000000 N
   0.9106300000000001    0.8837300000000000    0.5442800000000000 N
   0.9533500000000000    0.9086099999999999    0.6485100000000000 N
   0.7748600000000000    0.7065500000000000    0.3362000000000000 N
   0.8108200000000000    0.7823750000000000    0.3888300000000000 N
   0.5890800000000000    0.3662500000000000    0.5442900000000001 N
   0.5458499999999999    0.3414000000000000    0.6484000000000000 N
   0.7254600000000000    0.5432350000000000    0.3363800000000000 N
   0.6895700000000000    0.4675300000000000    0.3891300000000000 N
   0.4106400000000000    0.3664250000000000    0.9557400000000000 N
   0.4531200000000000    0.3414650000000000    0.8515700000000000 N
   0.2747800000000000    0.5434700000000000    0.1635000000000000 N
   0.3111100000000000    0.4677400000000000    0.1109600000000000 N
   0.2258300000000000    0.7067099999999999    0.1634600000000000 N
   0.1898400000000000    0.7824100000000000    0.1108300000000000 N
   0.0891000000000000    0.8836750000000000    0.9558500000000000 O
