H12 C8 O4
1.0
  13.2169972441151824    0.0000000000000000   -0.0085351655945115
  -0.0082695421395517   14.8289849896572115    0.0194111100649644
   0.0000000000000000    0.0000000000000000   21.9420000000000002
H C O
12 8 4
direct
   0.4638100000000000    0.9810100000000000    0.3576600000000000 H
   0.5288700000000000    0.0716000000000000    0.3913000000000000 H
   0.5795700000000000    0.8722600000000000    0.4147800000000000 H
   0.6440500000000000    0.9652200000000000    0.4459900000000000 H
   0.4815700000000000    0.0000000000000000    0.4988200000000000 H
   0.5278700000000000    0.9062100000000000    0.5216600000000000 H
   0.3501000000000000    0.9393100000000000    0.4338600000000000 H
   0.4073000000000000    0.8329900000000000    0.4446700000000000 H
   0.3623400000000000    0.8350800000000000    0.5550900000000000 H
   0.2559500000000000    0.8426100000000000    0.5074000000000000 H
   0.3547900000000000    0.0000000000000000    0.5762000000000000 H
   0.2539300000000000    0.0000000000000000    0.5248800000000000 H
   0.6142300000000001    0.0000000000000000    0.3232500000000000 C
   0.5379600000000000    0.0000000000000000    0.3757000000000000 C
   0.5694100000000000    0.9425100000000000    0.4300700000000000 C
   0.4934900000000000    0.9424000000000000    0.4828900000000000 C
   0.3917800000000000    0.8980000000000000    0.4673500000000000 C
   0.3235900000000000    0.8798800000000000    0.5225500000000000 C
   0.2894600000000000    0.9647900000000000    0.5562700000000000 C
   0.2163800000000000    0.9466800000000000    0.6085199999999999 C
   0.5732500000000000    0.0000000000000000    0.2691000000000000 O
   0.7072700000000000    0.0000000000000000    0.3332200000000000 O
   0.1640400000000000    0.0163600000000000    0.6266000000000000 O
   0.2089400000000000    0.8702400000000000    0.6320600000000000 O
