H10 C8 N4
1.0
  13.2169972441151824    0.0000000000000000   -0.0085351655945115
  -0.0082695421395517   14.8289849896572115    0.0194111100649644
   0.0000000000000000    0.0000000000000000   21.9420000000000002
H C N
10 8 4
direct
   0.5899900000000000    0.3964600000000000    0.7139000000000000 H
   0.4545900000000000    0.3013600000000000    0.8756400000000000 H
   0.5909500000000000    0.1721700000000000    0.8342000000000001 H
   0.6799600000000000    0.2458000000000000    0.6790800000000000 H
   0.6804200000000000    0.1541500000000000    0.7308200000000000 H
   0.8124600000000000    0.3249800000000000    0.7420000000000000 H
   0.8066800000000000    0.2396400000000000    0.7973900000000000 H
   0.9020300000000000    0.0905900000000000    0.7777400000000000 H
   0.8939100000000000    0.2830600000000000    0.6347600000000000 H
   0.0307200000000000    0.1453700000000000    0.6060500000000000 H
   0.9821500000000000    0.1546100000000000    0.6453200000000000 C
   0.5730300000000000    0.3544200000000000    0.7530500000000000 C
   0.5056800000000000    0.3022600000000000    0.8371000000000000 C
   0.5725300000000000    0.2385200000000000    0.8170300000000000 C
   0.6915300000000000    0.2272500000000000    0.7270200000000000 C
   0.7981400000000000    0.2527400000000000    0.7485100000000000 C
   0.9175100000000000    0.1226700000000000    0.7343700000000000 C
   0.9148700000000000    0.2220200000000000    0.6588000000000001 C
   0.5062600000000000    0.3741700000000000    0.7966600000000000 N
   0.6142900000000000    0.2719800000000000    0.7636400000000000 N
   0.8745900000000000    0.2011000000000000    0.7154800000000000 N
   0.9835000000000000    0.0931700000000000    0.6930300000000000 N
