H6 O4
1.0
  15.9986401661151749    0.0000000000000000    9.2655089895356610
   5.3178670128141423   15.0710329908752971    9.2687582783224869
   0.0000000000000000    0.0000000000000000   36.9020000000000010
H O
6 4
direct
  -0.0873783913165510    0.2914776374311777    0.1461475729664224 H
   0.1245938878137558    0.2918691619583274    0.1459392260051638 H
   0.0109455553641964    0.2994146224929798    0.1499252432442802 H
   0.6866818120270441    0.5183555998843521    0.2588493180131389 H
   0.8984026166368677    0.5182107595685894    0.2590863736070388 H
   0.8005235288257833    0.5105081875493700    0.2550752308552671 H
  -0.0231700000000001    0.2717100000000000    0.1361500000000000 O
   0.1000900000000000    0.2719700000000000    0.1360450000000000 O
   0.7109600000000000    0.5382400000000001    0.2688700000000000 O
   0.8342000000000001    0.5380900000000000    0.2689750000000000 O
