Zn32 H92 C184 O100
1.0
  15.9986401661151749    0.0000000000000000    9.2655089895356610
   5.3178670128141423   15.0710329908752971    9.2687582783224869
   0.0000000000000000    0.0000000000000000   36.9020000000000010
Zn H C O
32 92 184 100
direct
   0.1985700000000000    0.0243700000000000    0.0993650000000000 Zn
   0.6114800000000000    0.6113100000000000    0.3928200000000000 Zn
   0.1987300000000000    0.1987100000000000    0.0119950000000000 Zn
   0.7852800000000000    0.6115500000000000    0.3057050000000000 Zn
   0.0247000000000000    0.1985300000000000    0.0993650000000000 Zn
   0.6117400000000000    0.6114000000000001    0.3055500000000000 Zn
   0.1985300000000000    0.1985200000000000    0.0993000000000000 Zn
   0.2147400000000000    0.3884100000000000    0.1942800000000000 Zn
   0.9753200000000000    0.8014300000000000    0.4006150000000000 Zn
   0.3885400000000000    0.3886500000000000    0.1071500000000000 Zn
   0.8012899999999999    0.8012500000000000    0.4879900000000000 Zn
   0.3883600000000000    0.2146400000000000    0.1943300000000000 Zn
   0.8014500000000000    0.9755900000000000    0.4006200000000000 Zn
   0.3882800000000000    0.3885600000000000    0.1943950000000000 Zn
   0.8014900000000000    0.8014400000000000    0.4006750000000000 Zn
   0.6116600000000000    0.7853300000000000    0.3056550000000000 Zn
   0.1985700000000000    0.0243700000000000    0.5993650000000000 Zn
   0.6114800000000000    0.6113100000000000    0.8928199999999999 Zn
   0.1987300000000000    0.1987100000000000    0.5119950000000000 Zn
   0.7852800000000000    0.6115500000000000    0.8057050000000000 Zn
   0.0247000000000000    0.1985300000000000    0.5993650000000000 Zn
   0.6117400000000000    0.6114000000000001    0.8055500000000000 Zn
   0.1985300000000000    0.1985200000000000    0.5992999999999999 Zn
   0.2147400000000000    0.3884100000000000    0.6942800000000000 Zn
   0.9753200000000000    0.8014300000000000    0.9006149999999999 Zn
   0.3885400000000000    0.3886500000000000    0.6071500000000000 Zn
   0.8012899999999999    0.8012500000000000    0.9879899999999999 Zn
   0.3883600000000000    0.2146400000000000    0.6943300000000000 Zn
   0.8014500000000000    0.9755900000000000    0.9006200000000000 Zn
   0.3882800000000000    0.3885600000000000    0.6943950000000000 Zn
   0.8014900000000000    0.8014400000000000    0.9006750000000000 Zn
   0.6116600000000000    0.7853300000000000    0.8056550000000000 Zn
   0.8368300000000000    0.0694300000000000    0.1799400000000000 H
   0.7409400000000000    0.9737100000000000    0.2275400000000000 H
   0.3595200000000000    0.8366600000000000    0.0348550000000000 H
   0.4549400000000000    0.7406500000000000    0.4870700000000000 H
   0.0691900000000000    0.3596300000000000    0.4180500000000000 H
   0.9732400000000000    0.4550600000000000    0.3702350000000000 H
   0.0692600000000000    0.8365400000000000    0.1798150000000000 H
   0.9734900000000000    0.7407200000000000    0.2274200000000000 H
   0.8369799999999999    0.3596000000000000    0.0349050000000000 H
   0.7409000000000000    0.4550200000000000    0.4871400000000000 H
   0.3598400000000000    0.0693400000000000    0.4180150000000000 H
   0.4552400000000000    0.9734300000000000    0.3701850000000000 H
   0.3565900000000000    0.0695000000000000    0.1787000000000000 H
   0.4523900000000000    0.9742800000000000    0.2263900000000000 H
   0.3573200000000000    0.8366700000000000    0.1785500000000000 H
   0.4537200000000000    0.7408200000000000    0.2264750000000000 H
   0.3565400000000000    0.3569800000000000    0.0348500000000000 H
   0.4521900000000000    0.4524900000000000    0.4873350000000000 H
   0.3576400000000000    0.3573100000000000    0.4180300000000000 H
   0.4538700000000000    0.4533300000000000    0.3700000000000000 H
   0.9307700000000000    0.1634200000000000    0.3201700000000000 H
   0.0265300000000000    0.2592400000000000    0.2725650000000000 H
   0.1630400000000000    0.6403600000000000    0.4650500000000000 H
   0.2591200000000000    0.5449400000000000    0.0128450000000000 H
   0.6401900000000000    0.9306200000000000    0.0819500000000000 H
   0.5447800000000000    0.0265300000000000    0.1298000000000000 H
   0.1631900000000000    0.9305300000000000    0.3200450000000000 H
   0.2590800000000000    0.0262500000000000    0.2720000000000000 H
   0.6405100000000000    0.1633000000000000    0.4651000000000000 H
   0.5450900000000000    0.2593200000000000    0.0129100000000000 H
   0.9308300000000000    0.6403200000000000    0.0819350000000000 H
   0.0267800000000000    0.5448900000000000    0.1297500000000000 H
   0.9304500000000000    0.6430100000000000    0.3213600000000000 H
   0.0257300000000000    0.5473100000000000    0.2736350000000000 H
   0.1628000000000000    0.6430000000000000    0.3214000000000000 H
   0.2587300000000000    0.5467000000000000    0.2734500000000000 H
   0.6434900000000000    0.6429800000000000    0.4651350000000000 H
   0.5478400000000000    0.5474700000000000    0.0126450000000000 H
   0.6423900000000000    0.6426400000000000    0.0819500000000000 H
   0.5461600000000000    0.5466200000000000    0.1297850000000000 H
   0.6434299999999999    0.9304600000000000    0.3212850000000000 H
   0.5476400000000000    0.0256900000000000    0.2735950000000000 H
   0.6426900000000000    0.1632900000000000    0.3214400000000000 H
   0.5462900000000001    0.2591500000000000    0.2735150000000000 H
   0.8368300000000000    0.0694300000000000    0.6799400000000000 H
   0.7409400000000000    0.9737100000000000    0.7275400000000000 H
   0.3595200000000000    0.8366600000000000    0.5348550000000000 H
   0.4549400000000000    0.7406500000000000    0.9870700000000000 H
   0.0691900000000000    0.3596300000000000    0.9180500000000000 H
   0.9732400000000000    0.4550600000000000    0.8702350000000000 H
   0.0692600000000000    0.8365400000000000    0.6798150000000001 H
   0.9734900000000000    0.7407200000000000    0.7274200000000000 H
   0.8369799999999999    0.3596000000000000    0.5349050000000000 H
   0.7409000000000000    0.4550200000000000    0.9871400000000000 H
   0.3598400000000000    0.0693400000000000    0.9180150000000000 H
   0.4552400000000000    0.9734300000000000    0.8701850000000000 H
   0.3565900000000000    0.0695000000000000    0.6787000000000000 H
   0.4523900000000000    0.9742800000000000    0.7263900000000000 H
   0.3573200000000000    0.8366700000000000    0.6785500000000000 H
   0.4537200000000000    0.7408200000000000    0.7264750000000000 H
   0.3565400000000000    0.3569800000000000    0.5348500000000000 H
   0.4521900000000000    0.4524900000000000    0.9873350000000001 H
   0.3576400000000000    0.3573100000000000    0.9180300000000000 H
   0.4538700000000000    0.4533300000000000    0.8700000000000000 H
   0.0695700000000000    0.3569400000000000    0.6786250000000000 H
   0.9743000000000001    0.4526500000000000    0.7263500000000001 H
   0.8372200000000000    0.3569500000000000    0.6785550000000000 H
   0.7412900000000000    0.4532500000000000    0.7265200000000001 H
   0.9307700000000000    0.1634200000000000    0.8201700000000001 H
   0.0265300000000000    0.2592400000000000    0.7725649999999999 H
   0.1630400000000000    0.6403600000000000    0.9650500000000000 H
   0.2591200000000000    0.5449400000000000    0.5128450000000000 H
   0.6401900000000000    0.9306200000000000    0.5819500000000000 H
   0.5447800000000000    0.0265300000000000    0.6298000000000000 H
   0.1631900000000000    0.9305300000000000    0.8200450000000000 H
   0.2590800000000000    0.0262500000000000    0.7720000000000000 H
   0.6405100000000000    0.1633000000000000    0.9651000000000001 H
   0.5450900000000000    0.2593200000000000    0.5129100000000000 H
   0.9308300000000000    0.6403200000000000    0.5819350000000000 H
   0.0267800000000000    0.5448900000000000    0.6297500000000000 H
   0.9304500000000000    0.6430100000000000    0.8213600000000000 H
   0.0257300000000000    0.5473100000000000    0.7736350000000001 H
   0.1628000000000000    0.6430000000000000    0.8214000000000000 H
   0.2587300000000000    0.5467000000000000    0.7734500000000000 H
   0.6434900000000000    0.6429800000000000    0.9651350000000001 H
   0.5478400000000000    0.5474700000000000    0.5126450000000000 H
   0.6423900000000000    0.6426400000000000    0.5819500000000000 H
   0.5461600000000000    0.5466200000000000    0.6297850000000000 H
   0.6434299999999999    0.9304600000000000    0.8212850000000000 H
   0.5476400000000000    0.0256900000000000    0.7735950000000000 H
   0.6426900000000000    0.1632900000000000    0.8214399999999999 H
   0.5462900000000001    0.2591500000000000    0.7735150000000000 H
   0.8660700000000000    0.9974000000000000    0.1905250000000000 C
   0.8127799999999999    0.9441700000000000    0.2169700000000000 C
   0.3808600000000000    0.8659300000000000    0.4987500000000000 C
   0.4338500000000000    0.8125599999999999    0.4722050000000000 C
   0.9972800000000001    0.3809000000000000    0.4328300000000000 C
   0.9439000000000000    0.4339100000000000    0.4062650000000000 C
   0.9973400000000000    0.8658900000000000    0.1904550000000000 C
   0.9440700000000000    0.8126400000000000    0.2169000000000000 C
   0.8661300000000000    0.3808800000000000    0.4988200000000000 C
   0.8127300000000000    0.4338800000000000    0.4722600000000000 C
   0.3810400000000000    0.9973200000000000    0.4327900000000000 C
   0.4340300000000000    0.9439700000000000    0.4062150000000000 C
   0.2938900000000000    0.0161100000000000    0.1471500000000000 C
   0.3512900000000000    0.9587200000000000    0.1757850000000000 C
   0.3780000000000000    0.9976100000000000    0.1892000000000000 C
   0.4314000000000000    0.9445300000000000    0.2158100000000000 C
   0.3785900000000000    0.8659600000000000    0.1892350000000000 C
   0.4319900000000000    0.8128500000000000    0.2157900000000000 C
   0.4587900000000000    0.8517700000000000    0.2292700000000000 C
   0.5162400000000000    0.7945000000000000    0.2578350000000000 C
   0.2940500000000000    0.2941600000000000    0.0079350000000000 C
   0.3514100000000000    0.3514600000000000    0.4792550000000000 C
   0.3779900000000000    0.3782100000000000    0.4988350000000000 C
   0.4313100000000000    0.4314500000000000    0.4723500000000000 C
   0.3787900000000000    0.3785800000000000    0.4327850000000000 C
   0.4321100000000000    0.4317800000000000    0.4062850000000000 C
   0.4587600000000000    0.4586000000000000    0.4258800000000000 C
   0.5161300000000000    0.5158199999999999    0.3972750000000000 C
   0.0160600000000000    0.0159800000000000    0.1479100000000000 C
   0.9587200000000000    0.9586400000000000    0.1769700000000000 C
   0.8514000000000000    0.8514000000000000    0.2303100000000000 C
   0.7941600000000000    0.7941700000000000    0.2585100000000000 C
   0.2956700000000000    0.0160900000000000    0.0079050000000000 C
   0.3538500000000000    0.9586800000000000    0.4792600000000000 C
   0.4607600000000000    0.8512000000000000    0.4257250000000000 C
   0.5172700000000000    0.7939300000000000    0.3971300000000000 C
   0.0161900000000000    0.2956000000000000    0.0079350000000000 C
   0.9587800000000000    0.3537900000000000    0.4793000000000000 C
   0.8512400000000000    0.4607100000000000    0.4257850000000000 C
   0.7939500000000000    0.5172000000000000    0.3971850000000000 C
   0.0026900000000000    0.1340700000000000    0.3095300000000000 C
   0.0559600000000000    0.1873200000000000    0.2830850000000000 C
   0.1338900000000000    0.6190800000000000    0.0011600000000000 C
   0.1872900000000000    0.5660700000000000    0.0277200000000000 C
   0.6189800000000000    0.0026400000000000    0.0671900000000000 C
   0.5659900000000000    0.0559900000000000    0.0937500000000000 C
   0.1339600000000000    0.0025500000000000    0.3094600000000000 C
   0.1872400000000000    0.0557900000000000    0.2830200000000000 C
   0.6191700000000000    0.1340300000000000    0.0012100000000000 C
   0.5661800000000000    0.1874000000000000    0.0277800000000000 C
   0.0027400000000000    0.6190600000000001    0.0671500000000000 C
   0.0561300000000000    0.5660400000000000    0.0937200000000000 C
   0.9836300000000000    0.7060500000000000    0.3528550000000000 C
   0.0409700000000000    0.6486800000000000    0.3242300000000000 C
   0.0022200000000000    0.6217900000000000    0.3108000000000000 C
   0.0553500000000000    0.5684399999999999    0.2842050000000000 C
   0.1336300000000000    0.6216000000000000    0.3107550000000000 C
   0.1867800000000000    0.5682500000000000    0.2841800000000000 C
   0.1480000000000000    0.5413000000000000    0.2707100000000000 C
   0.2053000000000000    0.4839500000000000    0.2421100000000000 C
   0.7059800000000001    0.7058000000000000    0.4920500000000000 C
   0.6486100000000000    0.6485000000000000    0.0207250000000000 C
   0.6220400000000000    0.6217400000000000    0.0011450000000000 C
   0.5687200000000000    0.5685100000000000    0.0276300000000000 C
   0.6212400000000000    0.6213700000000000    0.0672000000000000 C
   0.5679300000000000    0.5681700000000000    0.0936950000000000 C
   0.5412700000000000    0.5413500000000000    0.0741000000000000 C
   0.4839000000000000    0.4841400000000000    0.1027050000000000 C
   0.7061300000000000    0.9838600000000000    0.3528350000000000 C
   0.6487300000000000    0.0412400000000000    0.3242000000000000 C
   0.6220200000000000    0.0023500000000000    0.3107550000000000 C
   0.5686300000000000    0.0554400000000000    0.2841700000000000 C
   0.6214200000000000    0.1340000000000000    0.3107550000000000 C
   0.5680300000000000    0.1871100000000000    0.2841950000000000 C
   0.5412300000000000    0.1481900000000000    0.2707150000000000 C
   0.4837800000000000    0.2054600000000000    0.2421450000000000 C
   0.9839700000000000    0.9839800000000000    0.3520750000000000 C
   0.0413100000000000    0.0413200000000000    0.3230150000000000 C
   0.1486200000000000    0.1485600000000000    0.2696750000000000 C
   0.2058600000000000    0.2057900000000000    0.2414750000000000 C
   0.9838300000000000    0.7043600000000000    0.4920500000000000 C
   0.0412500000000000    0.6461600000000000    0.0206850000000000 C
   0.1487900000000000    0.5392400000000001    0.0742000000000000 C
   0.2060700000000000    0.4827500000000000    0.1027950000000000 C
   0.7043600000000000    0.9838800000000000    0.4920800000000000 C
   0.6461800000000000    0.0412800000000000    0.0207200000000000 C
   0.5392600000000000    0.1487600000000000    0.0742550000000000 C
   0.4827600000000000    0.2060300000000000    0.1028550000000000 C
   0.8660700000000000    0.9974000000000000    0.6905250000000001 C
   0.8127799999999999    0.9441700000000000    0.7169700000000000 C
   0.3808600000000000    0.8659300000000000    0.9987500000000000 C
   0.4338500000000000    0.8125599999999999    0.9722050000000000 C
   0.9972800000000001    0.3809000000000000    0.9328300000000000 C
   0.9439000000000000    0.4339100000000000    0.9062650000000000 C
   0.9973400000000000    0.8658900000000000    0.6904550000000000 C
   0.9440700000000000    0.8126400000000000    0.7169000000000000 C
   0.8661300000000000    0.3808800000000000    0.9988200000000000 C
   0.8127300000000000    0.4338800000000000    0.9722600000000000 C
   0.3810400000000000    0.9973200000000000    0.9327900000000000 C
   0.4340300000000000    0.9439700000000000    0.9062150000000000 C
   0.2938900000000000    0.0161100000000000    0.6471500000000000 C
   0.3512900000000000    0.9587200000000000    0.6757850000000000 C
   0.3780000000000000    0.9976100000000000    0.6892000000000000 C
   0.4314000000000000    0.9445300000000000    0.7158100000000001 C
   0.3785900000000000    0.8659600000000000    0.6892350000000000 C
   0.4319900000000000    0.8128500000000000    0.7157900000000000 C
   0.4587900000000000    0.8517700000000000    0.7292700000000000 C
   0.5162400000000000    0.7945000000000000    0.7578350000000000 C
   0.2940500000000000    0.2941600000000000    0.5079350000000000 C
   0.3514100000000000    0.3514600000000000    0.9792550000000000 C
   0.3779900000000000    0.3782100000000000    0.9988349999999999 C
   0.4313100000000000    0.4314500000000000    0.9723500000000000 C
   0.3787900000000000    0.3785800000000000    0.9327850000000000 C
   0.4321100000000000    0.4317800000000000    0.9062850000000000 C
   0.4587600000000000    0.4586000000000000    0.9258800000000000 C
   0.5161300000000000    0.5158199999999999    0.8972750000000000 C
   0.0163900000000000    0.2939000000000000    0.6471300000000000 C
   0.9590500000000000    0.3512700000000000    0.6757600000000000 C
   0.9978000000000000    0.3781600000000000    0.6891900000000000 C
   0.9446700000000000    0.4315100000000000    0.7157850000000000 C
   0.8663900000000000    0.3783500000000000    0.6892350000000000 C
   0.8132500000000000    0.4316900000000000    0.7158100000000001 C
   0.8520300000000000    0.4586500000000000    0.7292800000000000 C
   0.7947200000000000    0.5160100000000000    0.7578750000000001 C
   0.0160600000000000    0.0159800000000000    0.6479100000000000 C
   0.9587200000000000    0.9586400000000000    0.6769700000000000 C
   0.8514000000000000    0.8514000000000000    0.7303100000000000 C
   0.7941600000000000    0.7941700000000000    0.7585100000000000 C
   0.2956700000000000    0.0160900000000000    0.5079050000000001 C
   0.3538500000000000    0.9586800000000000    0.9792600000000000 C
   0.4607600000000000    0.8512000000000000    0.9257250000000000 C
   0.5172700000000000    0.7939300000000000    0.8971300000000000 C
   0.0161900000000000    0.2956000000000000    0.5079350000000000 C
   0.9587800000000000    0.3537900000000000    0.9793000000000001 C
   0.8512400000000000    0.4607100000000000    0.9257850000000001 C
   0.7939500000000000    0.5172000000000000    0.8971850000000000 C
   0.0026900000000000    0.1340700000000000    0.8095300000000001 C
   0.0559600000000000    0.1873200000000000    0.7830850000000000 C
   0.1338900000000000    0.6190800000000000    0.5011600000000000 C
   0.1872900000000000    0.5660700000000000    0.5277200000000000 C
   0.6189800000000000    0.0026400000000000    0.5671900000000000 C
   0.5659900000000000    0.0559900000000000    0.5937500000000000 C
   0.1339600000000000    0.0025500000000000    0.8094600000000001 C
   0.1872400000000000    0.0557900000000000    0.7830200000000000 C
   0.6191700000000000    0.1340300000000000    0.5012100000000000 C
   0.5661800000000000    0.1874000000000000    0.5277800000000000 C
   0.0027400000000000    0.6190600000000001    0.5671500000000000 C
   0.0561300000000000    0.5660400000000000    0.5937200000000000 C
   0.9836300000000000    0.7060500000000000    0.8528549999999999 C
   0.0409700000000000    0.6486800000000000    0.8242300000000000 C
   0.0022200000000000    0.6217900000000000    0.8108000000000000 C
   0.0553500000000000    0.5684399999999999    0.7842050000000000 C
   0.1336300000000000    0.6216000000000000    0.8107550000000000 C
   0.1867800000000000    0.5682500000000000    0.7841800000000000 C
   0.1480000000000000    0.5413000000000000    0.7707100000000000 C
   0.2053000000000000    0.4839500000000000    0.7421100000000000 C
   0.7059800000000001    0.7058000000000000    0.9920500000000000 C
   0.6486100000000000    0.6485000000000000    0.5207250000000000 C
   0.6220400000000000    0.6217400000000000    0.5011450000000000 C
   0.5687200000000000    0.5685100000000000    0.5276300000000000 C
   0.6212400000000000    0.6213700000000000    0.5672000000000000 C
   0.5679300000000000    0.5681700000000000    0.5936950000000000 C
   0.5412700000000000    0.5413500000000000    0.5741000000000001 C
   0.4839000000000000    0.4841400000000000    0.6027050000000000 C
   0.7061300000000000    0.9838600000000000    0.8528350000000000 C
   0.6487300000000000    0.0412400000000000    0.8242000000000000 C
   0.6220200000000000    0.0023500000000000    0.8107550000000000 C
   0.5686300000000000    0.0554400000000000    0.7841700000000000 C
   0.6214200000000000    0.1340000000000000    0.8107550000000000 C
   0.5680300000000000    0.1871100000000000    0.7841950000000000 C
   0.5412300000000000    0.1481900000000000    0.7707150000000000 C
   0.4837800000000000    0.2054600000000000    0.7421450000000001 C
   0.9839700000000000    0.9839800000000000    0.8520750000000000 C
   0.0413100000000000    0.0413200000000000    0.8230150000000001 C
   0.1486200000000000    0.1485600000000000    0.7696750000000000 C
   0.2058600000000000    0.2057900000000000    0.7414750000000000 C
   0.9838300000000000    0.7043600000000000    0.9920500000000000 C
   0.0412500000000000    0.6461600000000000    0.5206850000000000 C
   0.1487900000000000    0.5392400000000001    0.5742000000000000 C
   0.2060700000000000    0.4827500000000000    0.6027950000000000 C
   0.7043600000000000    0.9838800000000000    0.9920800000000001 C
   0.6461800000000000    0.0412800000000000    0.5207200000000000 C
   0.5392600000000000    0.1487600000000000    0.5742550000000000 C
   0.4827600000000000    0.2060300000000000    0.6028550000000000 C
   0.2890700000000000    0.4617300000000000    0.2311100000000000 O
   0.8999300000000000    0.7280000000000000    0.3639350000000000 O
   0.0232000000000000    0.7282500000000000    0.3638050000000000 O
   0.4619800000000000    0.4620900000000000    0.0828100000000000 O
   0.7103000000000000    0.8335900000000001    0.2694550000000000 O
   0.9765400000000000    0.0998100000000000    0.1366850000000000 O
   0.5390500000000000    0.7099800000000001    0.4169000000000000 O
   0.2729700000000000    0.9764500000000000    0.0499050000000000 O
   0.8333300000000000    0.5391800000000000    0.3551350000000000 O
   0.0999300000000000    0.2729600000000000    0.4880050000000000 O
   0.8335300000000000    0.7102300000000000    0.2694300000000000 O
   0.0998000000000000    0.9763200000000000    0.1366000000000000 O
   0.7100800000000000    0.5390200000000001    0.4169750000000000 O
   0.9767000000000000    0.2731300000000000    0.0499350000000000 O
   0.5393200000000000    0.8333800000000000    0.3550500000000000 O
   0.2732400000000000    0.0999300000000000    0.4879800000000000 O
   0.5382100000000000    0.8341100000000000    0.2689300000000000 O
   0.5386500000000000    0.7106400000000000    0.2688050000000000 O
   0.2718700000000000    0.0998900000000000    0.1360900000000000 O
   0.2718000000000000    0.9764400000000000    0.1361800000000000 O
   0.5380400000000000    0.5378700000000000    0.4171700000000000 O
   0.5385300000000000    0.5379400000000000    0.3552500000000000 O
   0.2719600000000000    0.2719900000000000    0.0499050000000000 O
   0.2720400000000000    0.2722800000000000    0.4880300000000000 O
   0.1664900000000000    0.2897300000000000    0.2305550000000000 O
   0.9002200000000000    0.0236400000000000    0.3633500000000000 O
   0.2899400000000000    0.4609400000000000    0.0830100000000000 O
   0.0233200000000000    0.7268300000000000    0.4500000000000000 O
   0.4607000000000000    0.1665800000000000    0.1449100000000000 O
   0.7267900000000000    0.9000300000000000    0.0120000000000000 O
   0.2897300000000000    0.1663700000000000    0.2305300000000000 O
   0.0234900000000000    0.9001400000000001    0.3632950000000000 O
   0.4609700000000000    0.2899900000000000    0.0830500000000000 O
   0.7270500000000000    0.0235100000000000    0.4500750000000000 O
   0.1666900000000000    0.4607800000000000    0.1448500000000000 O
   0.9001000000000000    0.7269900000000000    0.0119500000000000 O
   0.1658200000000000    0.4618700000000000    0.2310100000000000 O
   0.4615100000000000    0.4620000000000000    0.1447200000000000 O
   0.7280600000000000    0.7279900000000000    0.4500750000000000 O
   0.7279800000000000    0.7276899999999999    0.0119550000000000 O
   0.4618200000000000    0.1658500000000000    0.2310500000000000 O
   0.4613700000000000    0.2893200000000000    0.2311800000000000 O
   0.7281500000000000    0.9000700000000000    0.3638950000000000 O
   0.7282300000000000    0.0235200000000000    0.3638000000000000 O
   0.6549400000000000    0.6548300000000000    0.3274500000000000 O
   0.1552100000000000    0.1550400000000000    0.0774550000000000 O
   0.3450800000000000    0.3451300000000000    0.1725300000000000 O
   0.8448200000000000    0.8449200000000000    0.4225300000000000 O
   0.2890700000000000    0.4617300000000000    0.7311100000000000 O
   0.8999300000000000    0.7280000000000000    0.8639350000000000 O
   0.0232000000000000    0.7282500000000000    0.8638049999999999 O
   0.4619800000000000    0.4620900000000000    0.5828100000000001 O
   0.7103000000000000    0.8335900000000001    0.7694550000000000 O
   0.9765400000000000    0.0998100000000000    0.6366849999999999 O
   0.5390500000000000    0.7099800000000001    0.9169000000000000 O
   0.2729700000000000    0.9764500000000000    0.5499050000000000 O
   0.8333300000000000    0.5391800000000000    0.8551350000000000 O
   0.0999300000000000    0.2729600000000000    0.9880050000000000 O
   0.8335300000000000    0.7102300000000000    0.7694300000000001 O
   0.0998000000000000    0.9763200000000000    0.6366000000000001 O
   0.7100800000000000    0.5390200000000001    0.9169750000000000 O
   0.9767000000000000    0.2731300000000000    0.5499350000000000 O
   0.5393200000000000    0.8333800000000000    0.8550500000000000 O
   0.2732400000000000    0.0999300000000000    0.9879800000000001 O
   0.5382100000000000    0.8341100000000000    0.7689300000000000 O
   0.5386500000000000    0.7106400000000000    0.7688050000000000 O
   0.2718700000000000    0.0998900000000000    0.6360900000000000 O
   0.2718000000000000    0.9764400000000000    0.6361800000000000 O
   0.5380400000000000    0.5378700000000000    0.9171700000000000 O
   0.5385300000000000    0.5379400000000000    0.8552500000000001 O
   0.2719600000000000    0.2719900000000000    0.5499050000000000 O
   0.2720400000000000    0.2722800000000000    0.9880300000000000 O
   0.8342000000000001    0.5380900000000000    0.7689750000000000 O
   0.7109600000000000    0.5382400000000001    0.7688699999999999 O
   0.1000900000000000    0.2719700000000000    0.6360450000000000 O
   0.9768300000000000    0.2717100000000000    0.6361500000000000 O
   0.1664900000000000    0.2897300000000000    0.7305550000000001 O
   0.9002200000000000    0.0236400000000000    0.8633500000000001 O
   0.2899400000000000    0.4609400000000000    0.5830100000000000 O
   0.0233200000000000    0.7268300000000000    0.9500000000000000 O
   0.4607000000000000    0.1665800000000000    0.6449100000000000 O
   0.7267900000000000    0.9000300000000000    0.5120000000000000 O
   0.2897300000000000    0.1663700000000000    0.7305300000000000 O
   0.0234900000000000    0.9001400000000001    0.8632949999999999 O
   0.4609700000000000    0.2899900000000000    0.5830500000000000 O
   0.7270500000000000    0.0235100000000000    0.9500750000000000 O
   0.1666900000000000    0.4607800000000000    0.6448500000000000 O
   0.9001000000000000    0.7269900000000000    0.5119500000000000 O
   0.1658200000000000    0.4618700000000000    0.7310099999999999 O
   0.4615100000000000    0.4620000000000000    0.6447200000000000 O
   0.7280600000000000    0.7279900000000000    0.9500750000000000 O
   0.7279800000000000    0.7276899999999999    0.5119550000000000 O
   0.4618200000000000    0.1658500000000000    0.7310500000000000 O
   0.4613700000000000    0.2893200000000000    0.7311799999999999 O
   0.7281500000000000    0.9000700000000000    0.8638950000000001 O
   0.7282300000000000    0.0235200000000000    0.8638000000000000 O
   0.6549400000000000    0.6548300000000000    0.8274500000000000 O
   0.1552100000000000    0.1550400000000000    0.5774550000000001 O
   0.3450800000000000    0.3451300000000000    0.6725300000000000 O
   0.8448200000000000    0.8449200000000000    0.9225300000000001 O
