H3 O2
1.0
  20.6490000000000009    0.0000000000000000    0.0000000000000013
  -0.0789577352177449   13.7087720139752260    0.0040675421219691
   0.0000000000000000    0.0000000000000000   14.9120000000000008
H O
3 2
direct
   0.1854054189773466    0.0681888745674796    0.3310428388286649 H
   0.0291562129687244    0.0800352695914997    0.4069057051699003 H
   0.0825643914676360    0.0069147967252209    0.4075449052256573 H
   0.1722800000000000    0.1330700000000000    0.3128400000000000 O
   0.0592200000000000    0.1223100000000000    0.3751700000000000 O
