H6 C12 N2 O4
1.0
  28.1477458543570762    0.0000000000000000   -7.8727623689861295
  -7.0099171690729367   15.3676560418971828   -7.0026733509908583
   0.0000000000000000    0.0000000000000000   36.7220000000000013
H C N O
6 12 2 4
direct
   0.3579150000000000    0.5236200000000000    0.2417600000000000 H
   0.3671850000000000    0.3977600000000000    0.2390850000000000 H
   0.3733050000000000    0.3236400000000000    0.2825300000000000 H
   0.5234300000000000    0.6074900000000000    0.2737000000000000 H
   0.5145500000000000    0.6962000000000000    0.2371600000000000 H
   0.5216350000000000    0.5975700000000000    0.3356450000000000 H
   0.3926400000000000    0.6138900000000000    0.2231050000000000 C
   0.3938050000000000    0.5600700000000000    0.2414900000000000 C
   0.4412000000000000    0.5573900000000001    0.2610700000000000 C
   0.4855800000000000    0.6075600000000000    0.2596200000000000 C
   0.4809850000000000    0.6575700000000000    0.2394150000000000 C
   0.3426200000000000    0.6234300000000000    0.2051250000000000 C
   0.4869150000000000    0.4925500000000000    0.3455850000000000 C
   0.4874600000000000    0.5373800000000000    0.3222300000000000 C
   0.4438750000000000    0.5062500000000000    0.2838650000000000 C
   0.4021750000000000    0.4270800000000000    0.2688850000000000 C
   0.4051300000000000    0.3848900000000000    0.2933200000000000 C
   0.5329600000000000    0.5280700000000000    0.3887850000000000 C
   0.4357200000000000    0.6620700000000000    0.2220650000000000 N
   0.4458700000000000    0.4180100000000000    0.3313550000000000 N
   0.3448150000000000    0.6826100000000001    0.1950550000000000 O
   0.3013800000000000    0.5706500000000000    0.2020900000000000 O
   0.5753100000000000    0.5815700000000000    0.3957650000000000 O
   0.5237000000000001    0.4993200000000000    0.4143250000000000 O
