H14 C10 N4
1.0
  17.2359999973748081    0.0000000000000000   -0.0003008249498605
   0.2419266558071727   16.9442620939089146    0.0192246230540824
   0.0000000000000000    0.0000000000000000   17.8530000000000015
H C N
14 10 4
direct
   0.2317400000000000    0.5730700000000000    0.6001600000000000 H
   0.3622900000000000    0.5310700000000000    0.1953300000000000 H
   0.2914900000000000    0.3361000000000000    0.4550700000000000 H
   0.1889600000000000    0.3345800000000000    0.4628000000000000 H
   0.2329600000000000    0.3690900000000000    0.3786400000000000 H
   0.2373100000000000    0.6992300000000000    0.5255800000000000 H
   0.2913700000000000    0.6855300000000000    0.4413800000000000 H
   0.1886200000000000    0.6888200000000000    0.4383200000000000 H
   0.4109200000000000    0.4091600000000000    0.3117000000000000 H
   0.4517400000000000    0.5013300000000001    0.3363100000000000 H
   0.3923200000000000    0.4509600000000000    0.4011800000000000 H
   0.1037200000000000    0.6023200000000000    0.2479000000000000 H
   0.1024200000000000    0.5763800000000000    0.3450000000000000 H
   0.1402500000000000    0.6682200000000000    0.3154000000000000 H
   0.2377500000000000    0.3678600000000000    0.4399000000000000 C
   0.2372400000000000    0.4498800000000000    0.4697300000000000 C
   0.2439400000000000    0.5209700000000000    0.4288300000000000 C
   0.2374100000000000    0.5816100000000000    0.4816500000000000 C
   0.2386800000000000    0.6685200000000000    0.4716500000000000 C
   0.3997500000000000    0.4648200000000000    0.3416700000000000 C
   0.3292000000000000    0.5060800000000000    0.3123600000000000 C
   0.2605100000000000    0.5301500000000000    0.3489000000000000 C
   0.2142800000000000    0.5677100000000000    0.2936000000000000 C
   0.1359300000000000    0.6053400000000000    0.3008300000000000 C
   0.2285400000000000    0.4655700000000000    0.5434200000000000 N
   0.2281600000000000    0.5460700000000001    0.5491600000000000 N
   0.2526100000000000    0.5661800000000000    0.2277000000000000 N
   0.3218500000000000    0.5282900000000000    0.2400200000000000 N
