Zn160 H202 C630 O576
1.0
  28.7139999300257216    0.0000000000000000   -0.0020046153640416
  -3.9523158399093798   30.2287180170381831    0.0015962432265573
   0.0000000000000000    0.0000000000000000   32.8100000000000023
Zn H C O
160 202 630 576
direct
   0.3262250000000000    0.9188149999999999    0.4966600000000000 Zn
   0.1716600000000000    0.9889399999999999    0.5624800000000000 Zn
   0.4511000000000000    0.1687900000000000    0.7533200000000000 Zn
   0.6716600000000000    0.9889399999999999    0.5624800000000000 Zn
   0.5467450000000000    0.7389800000000000    0.6875000000000000 Zn
   0.8262250000000000    0.9188149999999999    0.4966600000000000 Zn
   0.9511000000000001    0.1687900000000000    0.7533200000000000 Zn
   0.4216850000000000    0.4889200000000000    0.5624750000000001 Zn
   0.2967750000000000    0.2389700000000000    0.6874950000000000 Zn
   0.5762250000000000    0.4188450000000000    0.4966400000000000 Zn
   0.7011450000000000    0.6687950000000000    0.7532950000000000 Zn
   0.0467450000000000    0.7389800000000000    0.6875000000000000 Zn
   0.9216850000000000    0.4889200000000000    0.5624750000000001 Zn
   0.7967750000000000    0.2389700000000000    0.6874950000000000 Zn
   0.0762250000000000    0.4188450000000000    0.4966400000000000 Zn
   0.2011450000000000    0.6687950000000000    0.7532950000000000 Zn
   0.9532600000000000    0.7610200000000000    0.8124950000000000 Zn
   0.6737800000000000    0.5811900000000000    0.0033300000000000 Zn
   0.8283450000000000    0.5110600000000000    0.9375100000000001 Zn
   0.5489050000000000    0.3312100000000000    0.7466750000000000 Zn
   0.0783200000000000    0.0110750000000000    0.9375150000000000 Zn
   0.2032250000000000    0.2610250000000000    0.8125000000000000 Zn
   0.9237800000000000    0.0811550000000000    0.0033550000000000 Zn
   0.4532600000000000    0.7610200000000000    0.8124950000000000 Zn
   0.1737800000000000    0.5811900000000000    0.0033300000000000 Zn
   0.3283450000000000    0.5110600000000000    0.9375100000000001 Zn
   0.0489050000000000    0.3312100000000000    0.7466750000000000 Zn
   0.5783199999999999    0.0110750000000000    0.9375150000000000 Zn
   0.7032250000000000    0.2610250000000000    0.8125000000000000 Zn
   0.4237800000000000    0.0811550000000000    0.0033550000000000 Zn
   0.2988600000000000    0.8312050000000000    0.7464999999999999 Zn
   0.7988600000000000    0.8312050000000000    0.7464999999999999 Zn
   0.6716600000000000    0.9889399999999999    0.0624800000000000 Zn
   0.5467450000000000    0.7389800000000000    0.1875000000000000 Zn
   0.8262250000000000    0.9188149999999999    0.9966600000000000 Zn
   0.9511000000000001    0.1687900000000000    0.2533200000000000 Zn
   0.4216850000000000    0.4889200000000000    0.0624750000000000 Zn
   0.2967750000000000    0.2389700000000000    0.1874950000000000 Zn
   0.5762250000000000    0.4188450000000000    0.9966400000000000 Zn
   0.7011450000000000    0.6687950000000000    0.2532950000000000 Zn
   0.1716600000000000    0.9889399999999999    0.0624800000000000 Zn
   0.0467450000000000    0.7389800000000000    0.1875000000000000 Zn
   0.3262250000000000    0.9188149999999999    0.9966600000000000 Zn
   0.4511000000000000    0.1687900000000000    0.2533200000000000 Zn
   0.9216850000000000    0.4889200000000000    0.0624750000000000 Zn
   0.7967750000000000    0.2389700000000000    0.1874950000000000 Zn
   0.0762250000000000    0.4188450000000000    0.9966400000000000 Zn
   0.2011450000000000    0.6687950000000000    0.2532950000000000 Zn
   0.9532600000000000    0.7610200000000000    0.3124950000000000 Zn
   0.6737800000000000    0.5811900000000000    0.5033300000000001 Zn
   0.8283450000000000    0.5110600000000000    0.4375100000000000 Zn
   0.5489050000000000    0.3312100000000000    0.2466750000000000 Zn
   0.0783200000000000    0.0110750000000000    0.4375150000000000 Zn
   0.2032250000000000    0.2610250000000000    0.3125000000000000 Zn
   0.9237800000000000    0.0811550000000000    0.5033550000000000 Zn
   0.4532600000000000    0.7610200000000000    0.3124950000000000 Zn
   0.1737800000000000    0.5811900000000000    0.5033300000000001 Zn
   0.3283450000000000    0.5110600000000000    0.4375100000000000 Zn
   0.0489050000000000    0.3312100000000000    0.2466750000000000 Zn
   0.5783199999999999    0.0110750000000000    0.4375150000000000 Zn
   0.7032250000000000    0.2610250000000000    0.3125000000000000 Zn
   0.4237800000000000    0.0811550000000000    0.5033550000000000 Zn
   0.7988600000000000    0.8312050000000000    0.2465000000000000 Zn
   0.2988600000000000    0.8312050000000000    0.2465000000000000 Zn
   0.1716600000000000    0.4889400000000000    0.5624800000000000 Zn
   0.0467450000000000    0.2389800000000000    0.6875000000000000 Zn
   0.3262250000000000    0.4188150000000000    0.4966600000000000 Zn
   0.4511000000000000    0.6687900000000000    0.7533200000000000 Zn
   0.9216850000000000    0.9889200000000000    0.5624750000000001 Zn
   0.7967750000000000    0.7389700000000000    0.6874950000000000 Zn
   0.0762250000000000    0.9188450000000000    0.4966400000000000 Zn
   0.2011450000000000    0.1687950000000000    0.7532950000000000 Zn
   0.6716600000000000    0.4889400000000000    0.5624800000000000 Zn
   0.5467450000000000    0.2389800000000000    0.6875000000000000 Zn
   0.8262250000000000    0.4188150000000000    0.4966600000000000 Zn
   0.9511000000000001    0.6687900000000000    0.7533200000000000 Zn
   0.4216850000000000    0.9889200000000000    0.5624750000000001 Zn
   0.2967750000000000    0.7389700000000000    0.6874950000000000 Zn
   0.5762250000000000    0.9188450000000000    0.4966400000000000 Zn
   0.7011450000000000    0.1687950000000000    0.7532950000000000 Zn
   0.9532600000000000    0.2610200000000000    0.8124950000000000 Zn
   0.6737800000000000    0.0811900000000000    0.0033300000000000 Zn
   0.8283450000000000    0.0110600000000000    0.9375100000000001 Zn
   0.5489050000000000    0.8312100000000000    0.7466750000000000 Zn
   0.0783200000000000    0.5110749999999999    0.9375150000000000 Zn
   0.2032250000000000    0.7610250000000001    0.8125000000000000 Zn
   0.9237800000000000    0.5811550000000000    0.0033550000000000 Zn
   0.4532600000000000    0.2610200000000000    0.8124950000000000 Zn
   0.1737800000000000    0.0811900000000000    0.0033300000000000 Zn
   0.3283450000000000    0.0110600000000000    0.9375100000000001 Zn
   0.0489050000000000    0.8312100000000000    0.7466750000000000 Zn
   0.5783199999999999    0.5110749999999999    0.9375150000000000 Zn
   0.7032250000000000    0.7610250000000001    0.8125000000000000 Zn
   0.4237800000000000    0.5811550000000000    0.0033550000000000 Zn
   0.7988600000000000    0.3312050000000000    0.7464999999999999 Zn
   0.2988600000000000    0.3312050000000000    0.7464999999999999 Zn
   0.1716600000000000    0.4889400000000000    0.0624800000000000 Zn
   0.0467450000000000    0.2389800000000000    0.1875000000000000 Zn
   0.3262250000000000    0.4188150000000000    0.9966600000000000 Zn
   0.4511000000000000    0.6687900000000000    0.2533200000000000 Zn
   0.9216850000000000    0.9889200000000000    0.0624750000000000 Zn
   0.7967750000000000    0.7389700000000000    0.1874950000000000 Zn
   0.0762250000000000    0.9188450000000000    0.9966400000000000 Zn
   0.2011450000000000    0.1687950000000000    0.2532950000000000 Zn
   0.6716600000000000    0.4889400000000000    0.0624800000000000 Zn
   0.5467450000000000    0.2389800000000000    0.1875000000000000 Zn
   0.8262250000000000    0.4188150000000000    0.9966600000000000 Zn
   0.9511000000000001    0.6687900000000000    0.2533200000000000 Zn
   0.4216850000000000    0.9889200000000000    0.0624750000000000 Zn
   0.2967750000000000    0.7389700000000000    0.1874950000000000 Zn
   0.5762250000000000    0.9188450000000000    0.9966400000000000 Zn
   0.7011450000000000    0.1687950000000000    0.2532950000000000 Zn
   0.9532600000000000    0.2610200000000000    0.3124950000000000 Zn
   0.6737800000000000    0.0811900000000000    0.5033300000000001 Zn
   0.8283450000000000    0.0110600000000000    0.4375100000000000 Zn
   0.5489050000000000    0.8312100000000000    0.2466750000000000 Zn
   0.0783200000000000    0.5110749999999999    0.4375150000000000 Zn
   0.2032250000000000    0.7610250000000001    0.3125000000000000 Zn
   0.9237800000000000    0.5811550000000000    0.5033550000000000 Zn
   0.4532600000000000    0.2610200000000000    0.3124950000000000 Zn
   0.1737800000000000    0.0811900000000000    0.5033300000000001 Zn
   0.3283450000000000    0.0110600000000000    0.4375100000000000 Zn
   0.0489050000000000    0.8312100000000000    0.2466750000000000 Zn
   0.5783199999999999    0.5110749999999999    0.4375150000000000 Zn
   0.7032250000000000    0.7610250000000001    0.3125000000000000 Zn
   0.4237800000000000    0.5811550000000000    0.5033550000000000 Zn
   0.7988600000000000    0.3312050000000000    0.2465000000000000 Zn
   0.2988600000000000    0.3312050000000000    0.2465000000000000 Zn
   0.7500000000000000    0.0000000000000000    0.4999950000000000 Zn
   0.2500000000000000    0.0000000000000000    0.4999950000000000 Zn
   0.7500000000000000    0.5000000000000000    0.4999950000000000 Zn
   0.2500000000000000    0.5000000000000000    0.4999950000000000 Zn
   0.2500000000000000    0.0000000000000000    0.9999950000000000 Zn
   0.7500000000000000    0.0000000000000000    0.9999950000000000 Zn
   0.2500000000000000    0.5000000000000000    0.9999950000000000 Zn
   0.7500000000000000    0.5000000000000000    0.9999950000000000 Zn
   0.0000000000000000    0.0000000000000000    0.9999950000000000 Zn
   0.5000000000000000    0.5000000000000000    0.9999950000000000 Zn
   0.5000000000000000    0.0000000000000000    0.9999950000000000 Zn
   0.0000000000000000    0.5000000000000000    0.9999950000000000 Zn
   0.5000000000000000    0.0000000000000000    0.4999950000000000 Zn
   0.0000000000000000    0.0000000000000000    0.4999950000000000 Zn
   0.5000000000000000    0.5000000000000000    0.4999950000000000 Zn
   0.0000000000000000    0.5000000000000000    0.4999950000000000 Zn
   0.3750150000000000    0.2500000000000000    0.7499950000000000 Zn
   0.8750150000000000    0.2500000000000000    0.7499950000000000 Zn
   0.3750150000000000    0.7500000000000000    0.7499950000000000 Zn
   0.8750150000000000    0.7500000000000000    0.7499950000000000 Zn
   0.3750150000000000    0.2500000000000000    0.2499950000000000 Zn
   0.8750150000000000    0.2500000000000000    0.2499950000000000 Zn
   0.3750150000000000    0.7500000000000000    0.2499950000000000 Zn
   0.8750150000000000    0.7500000000000000    0.2499950000000000 Zn
   0.1249900000000000    0.2500000000000000    0.2500000000000000 Zn
   0.6249900000000000    0.2500000000000000    0.2500000000000000 Zn
   0.1249900000000000    0.2500000000000000    0.7500000000000000 Zn
   0.1249900000000000    0.7500000000000000    0.2500000000000000 Zn
   0.6249900000000000    0.7500000000000000    0.2500000000000000 Zn
   0.1249900000000000    0.7500000000000000    0.7500000000000000 Zn
   0.6249900000000000    0.2500000000000000    0.7500000000000000 Zn
   0.6249900000000000    0.7500000000000000    0.7500000000000000 Zn
   0.2285377627336405    0.9373420402075369    0.5705748783592788 H
   0.1651500000000000    0.5006500000000000    0.4819750000000000 H
   0.1651500000000000    0.5006500000000000    0.9819750000000000 H
   0.6651500000000000    0.5006500000000000    0.4819750000000000 H
   0.6651500000000000    0.5006500000000000    0.9819750000000000 H
   0.3348600000000000    0.9993550000000000    0.0180200000000000 H
   0.3348600000000000    0.9993550000000000    0.5180200000000000 H
   0.8348599999999999    0.9993550000000000    0.0180200000000000 H
   0.8348599999999999    0.9993550000000000    0.5180200000000000 H
   0.0848450000000000    0.4993800000000000    0.5180300000000000 H
   0.0848450000000000    0.4993800000000000    0.0180300000000000 H
   0.5848450000000001    0.4993800000000000    0.5180300000000000 H
   0.5848450000000001    0.4993800000000000    0.0180300000000000 H
   0.4151600000000000    0.0006200000000000    0.4819600000000000 H
   0.4151600000000000    0.0006200000000000    0.9819599999999999 H
   0.9151600000000000    0.0006200000000000    0.4819600000000000 H
   0.9151600000000000    0.0006200000000000    0.9819599999999999 H
   0.7097900000000000    0.7493400000000000    0.7319599999999999 H
   0.7097900000000000    0.7493400000000000    0.2319600000000000 H
   0.2097900000000000    0.7493400000000000    0.7319599999999999 H
   0.2097900000000000    0.7493400000000000    0.2319600000000000 H
   0.7902150000000000    0.7506550000000001    0.7680350000000000 H
   0.2902150000000000    0.7506550000000001    0.7680350000000000 H
   0.7902150000000000    0.7506550000000001    0.2680350000000000 H
   0.2902150000000000    0.7506550000000001    0.2680350000000000 H
   0.0402050000000000    0.2506700000000000    0.7680000000000000 H
   0.0402050000000000    0.2506700000000000    0.2680000000000000 H
   0.5402050000000000    0.2506700000000000    0.7680000000000000 H
   0.5402050000000000    0.2506700000000000    0.2680000000000000 H
   0.4598000000000000    0.2493250000000000    0.7319500000000000 H
   0.4598000000000000    0.2493250000000000    0.2319500000000000 H
   0.9598000000000000    0.2493250000000000    0.7319500000000000 H
   0.9598000000000000    0.2493250000000000    0.2319500000000000 H
   0.2757975634019968    0.8787634026428297    0.5570939435751636 H
   0.2705417728233415    0.8711704521871023    0.6860848051139458 H
   0.2156627044914163    0.7532514415666157    0.6573463621424297 H
   0.2370448071179167    0.8143945697736481    0.6667966480310753 H
   0.2273100000000000    0.0823550000000000    0.6465150000000000 H
   0.4000200000000000    0.1180400000000000    0.6373200000000000 H
   0.1132737461757172    0.8699753946522294    0.5500640002514890 H
   0.1290635544476685    0.9440435056446613    0.5801929431252478 H
   0.7273100000000000    0.0823550000000000    0.6465150000000000 H
   0.9000200000000000    0.1180400000000000    0.6373200000000000 H
   0.6023849999999999    0.8328450000000001    0.6036500000000000 H
   0.7751850000000000    0.8679100000000000    0.6125000000000000 H
   0.4772450000000000    0.5826600000000000    0.6463600000000000 H
   0.6500049999999999    0.6180400000000000    0.6373400000000000 H
   0.3525050000000000    0.3327500000000000    0.6036650000000000 H
   0.5252550000000000    0.3681200000000000    0.6125950000000000 H
   0.1780840735188889    0.8096523244955438    0.7118848115194509 H
   0.0845687460097078    0.7756913611428581    0.6251443827012917 H
   0.1340440501952681    0.7958612375053087    0.6646100334926561 H
   0.9772449999999999    0.5826600000000000    0.6463600000000000 H
   0.1500050000000000    0.6180400000000000    0.6373400000000000 H
   0.8525050000000001    0.3327500000000000    0.6036650000000000 H
   0.0252550000000000    0.3681200000000000    0.6125950000000000 H
   0.8976200000000000    0.6671650000000000    0.8963500000000000 H
   0.7248250000000001    0.6320900000000000    0.8874000000000000 H
   0.7726950000000000    0.4176400000000000    0.8534800000000000 H
   0.5999800000000000    0.3819600000000000    0.8626750000000001 H
   0.0227600000000000    0.9173300000000000    0.8536349999999999 H
   0.8500000000000000    0.8819650000000000    0.8626499999999999 H
   0.1475000000000000    0.1672500000000000    0.8963000000000000 H
   0.9747500000000000    0.1318750000000000    0.8874000000000000 H
   0.3976200000000000    0.6671650000000000    0.8963500000000000 H
   0.2248250000000000    0.6320900000000000    0.8874000000000000 H
   0.2726950000000000    0.4176400000000000    0.8534800000000000 H
   0.0999800000000000    0.3819600000000000    0.8626750000000001 H
   0.5227600000000000    0.9173300000000000    0.8536349999999999 H
   0.3500000000000000    0.8819650000000000    0.8626499999999999 H
   0.6475000000000000    0.1672500000000000    0.8963000000000000 H
   0.4747500000000000    0.1318750000000000    0.8874000000000000 H
   0.7273100000000000    0.0823550000000000    0.1465150000000000 H
   0.9000200000000000    0.1180400000000000    0.1373200000000000 H
   0.6023849999999999    0.8328450000000001    0.1036500000000000 H
   0.7751850000000000    0.8679100000000000    0.1125000000000000 H
   0.4772450000000000    0.5826600000000000    0.1463600000000000 H
   0.6500049999999999    0.6180400000000000    0.1373400000000000 H
   0.3525050000000000    0.3327500000000000    0.1036650000000000 H
   0.5252550000000000    0.3681200000000000    0.1125950000000000 H
   0.2273100000000000    0.0823550000000000    0.1465150000000000 H
   0.4000200000000000    0.1180400000000000    0.1373200000000000 H
   0.1023850000000000    0.8328450000000001    0.1036500000000000 H
   0.2751850000000000    0.8679100000000000    0.1125000000000000 H
   0.9772449999999999    0.5826600000000000    0.1463600000000000 H
   0.1500050000000000    0.6180400000000000    0.1373400000000000 H
   0.8525050000000001    0.3327500000000000    0.1036650000000000 H
   0.0252550000000000    0.3681200000000000    0.1125950000000000 H
   0.8976200000000000    0.6671650000000000    0.3963500000000000 H
   0.7248250000000001    0.6320900000000000    0.3874000000000000 H
   0.7726950000000000    0.4176400000000000    0.3534800000000000 H
   0.5999800000000000    0.3819600000000000    0.3626750000000000 H
   0.0227600000000000    0.9173300000000000    0.3536350000000000 H
   0.8500000000000000    0.8819650000000000    0.3626500000000000 H
   0.1475000000000000    0.1672500000000000    0.3963000000000000 H
   0.9747500000000000    0.1318750000000000    0.3874000000000000 H
   0.3976200000000000    0.6671650000000000    0.3963500000000000 H
   0.2248250000000000    0.6320900000000000    0.3874000000000000 H
   0.2726950000000000    0.4176400000000000    0.3534800000000000 H
   0.0999800000000000    0.3819600000000000    0.3626750000000000 H
   0.5227600000000000    0.9173300000000000    0.3536350000000000 H
   0.3500000000000000    0.8819650000000000    0.3626500000000000 H
   0.6475000000000000    0.1672500000000000    0.3963000000000000 H
   0.4747500000000000    0.1318750000000000    0.3874000000000000 H
   0.1651500000000000    0.0006500000000000    0.4819750000000000 H
   0.1651500000000000    0.0006500000000000    0.9819750000000000 H
   0.6651500000000000    0.0006500000000000    0.4819750000000000 H
   0.6651500000000000    0.0006500000000000    0.9819750000000000 H
   0.3348600000000000    0.4993550000000000    0.0180200000000000 H
   0.3348600000000000    0.4993550000000000    0.5180200000000000 H
   0.8348599999999999    0.4993550000000000    0.0180200000000000 H
   0.8348599999999999    0.4993550000000000    0.5180200000000000 H
   0.5848450000000001    0.9993799999999999    0.5180300000000000 H
   0.0848450000000000    0.9993799999999999    0.5180300000000000 H
   0.5848450000000001    0.9993799999999999    0.0180300000000000 H
   0.0848450000000000    0.9993799999999999    0.0180300000000000 H
   0.9151600000000000    0.5006200000000000    0.4819600000000000 H
   0.9151600000000000    0.5006200000000000    0.9819599999999999 H
   0.4151600000000000    0.5006200000000000    0.4819600000000000 H
   0.4151600000000000    0.5006200000000000    0.9819599999999999 H
   0.7097900000000000    0.2493400000000000    0.7319599999999999 H
   0.7097900000000000    0.2493400000000000    0.2319600000000000 H
   0.2097900000000000    0.2493400000000000    0.7319599999999999 H
   0.2097900000000000    0.2493400000000000    0.2319600000000000 H
   0.7902150000000000    0.2506550000000000    0.7680350000000000 H
   0.2902150000000000    0.2506550000000000    0.7680350000000000 H
   0.7902150000000000    0.2506550000000000    0.2680350000000000 H
   0.2902150000000000    0.2506550000000000    0.2680350000000000 H
   0.5402050000000000    0.7506699999999999    0.7680000000000000 H
   0.0402050000000000    0.7506699999999999    0.7680000000000000 H
   0.5402050000000000    0.7506699999999999    0.2680000000000000 H
   0.0402050000000000    0.7506699999999999    0.2680000000000000 H
   0.9598000000000000    0.7493250000000000    0.7319500000000000 H
   0.4598000000000000    0.7493250000000000    0.7319500000000000 H
   0.9598000000000000    0.7493250000000000    0.2319500000000000 H
   0.4598000000000000    0.7493250000000000    0.2319500000000000 H
   0.2273100000000000    0.5823550000000000    0.6465150000000000 H
   0.4000200000000000    0.6180400000000000    0.6373200000000000 H
   0.1023850000000000    0.3328450000000000    0.6036500000000000 H
   0.2751850000000000    0.3679100000000000    0.6125000000000000 H
   0.9772449999999999    0.0826600000000000    0.6463600000000000 H
   0.1500050000000000    0.1180400000000000    0.6373400000000000 H
   0.8525050000000001    0.8327500000000000    0.6036650000000000 H
   0.0252550000000000    0.8681200000000000    0.6125950000000000 H
   0.7273100000000000    0.5823550000000000    0.6465150000000000 H
   0.9000200000000000    0.6180400000000000    0.6373200000000000 H
   0.6023849999999999    0.3328450000000000    0.6036500000000000 H
   0.7751850000000000    0.3679100000000000    0.6125000000000000 H
   0.4772450000000000    0.0826600000000000    0.6463600000000000 H
   0.6500049999999999    0.1180400000000000    0.6373400000000000 H
   0.3525050000000000    0.8327500000000000    0.6036650000000000 H
   0.5252550000000000    0.8681200000000000    0.6125950000000000 H
   0.8976200000000000    0.1671650000000000    0.8963500000000000 H
   0.7248250000000001    0.1320900000000000    0.8874000000000000 H
   0.7726950000000000    0.9176400000000000    0.8534800000000000 H
   0.5999800000000000    0.8819600000000001    0.8626750000000001 H
   0.0227600000000000    0.4173300000000000    0.8536349999999999 H
   0.8500000000000000    0.3819650000000000    0.8626499999999999 H
   0.1475000000000000    0.6672500000000000    0.8963000000000000 H
   0.9747500000000000    0.6318750000000000    0.8874000000000000 H
   0.3976200000000000    0.1671650000000000    0.8963500000000000 H
   0.2248250000000000    0.1320900000000000    0.8874000000000000 H
   0.2726950000000000    0.9176400000000000    0.8534800000000000 H
   0.0999800000000000    0.8819600000000001    0.8626750000000001 H
   0.5227600000000000    0.4173300000000000    0.8536349999999999 H
   0.3500000000000000    0.3819650000000000    0.8626499999999999 H
   0.6475000000000000    0.6672500000000000    0.8963000000000000 H
   0.4747500000000000    0.6318750000000000    0.8874000000000000 H
   0.2273100000000000    0.5823550000000000    0.1465150000000000 H
   0.4000200000000000    0.6180400000000000    0.1373200000000000 H
   0.1023850000000000    0.3328450000000000    0.1036500000000000 H
   0.2751850000000000    0.3679100000000000    0.1125000000000000 H
   0.9772449999999999    0.0826600000000000    0.1463600000000000 H
   0.1500050000000000    0.1180400000000000    0.1373400000000000 H
   0.8525050000000001    0.8327500000000000    0.1036650000000000 H
   0.0252550000000000    0.8681200000000000    0.1125950000000000 H
   0.7273100000000000    0.5823550000000000    0.1465150000000000 H
   0.9000200000000000    0.6180400000000000    0.1373200000000000 H
   0.6023849999999999    0.3328450000000000    0.1036500000000000 H
   0.7751850000000000    0.3679100000000000    0.1125000000000000 H
   0.4772450000000000    0.0826600000000000    0.1463600000000000 H
   0.6500049999999999    0.1180400000000000    0.1373400000000000 H
   0.3525050000000000    0.8327500000000000    0.1036650000000000 H
   0.5252550000000000    0.8681200000000000    0.1125950000000000 H
   0.8976200000000000    0.1671650000000000    0.3963500000000000 H
   0.7248250000000001    0.1320900000000000    0.3874000000000000 H
   0.7726950000000000    0.9176400000000000    0.3534800000000000 H
   0.5999800000000000    0.8819600000000001    0.3626750000000000 H
   0.0227600000000000    0.4173300000000000    0.3536350000000000 H
   0.8500000000000000    0.3819650000000000    0.3626500000000000 H
   0.1475000000000000    0.6672500000000000    0.3963000000000000 H
   0.9747500000000000    0.6318750000000000    0.3874000000000000 H
   0.3976200000000000    0.1671650000000000    0.3963500000000000 H
   0.2248250000000000    0.1320900000000000    0.3874000000000000 H
   0.2726950000000000    0.9176400000000000    0.3534800000000000 H
   0.0999800000000000    0.8819600000000001    0.3626750000000000 H
   0.5227600000000000    0.4173300000000000    0.3536350000000000 H
   0.3500000000000000    0.3819650000000000    0.3626500000000000 H
   0.6475000000000000    0.6672500000000000    0.3963000000000000 H
   0.4747500000000000    0.6318750000000000    0.3874000000000000 H
   0.2820280929252327    0.7430507624221359    0.9247273063464924 H
   0.1229753450076474    0.9368833810607298    0.7007040351163996 H
   0.3683050000000000    0.0625250000000000    0.5789050000000000 C
   0.2592650000000000    0.0429400000000000    0.5833500000000000 C
   0.3646300000000000    0.1597000000000000    0.7006500000000000 C
   0.2594800000000000    0.1423050000000000    0.7015650000000000 C
   0.2651650000000000    0.0911850000000000    0.6440600000000000 C
   0.2886500000000000    0.1218200000000000    0.6710500000000000 C
   0.2889700000000000    0.0716450000000000    0.6132200000000000 C
   0.3619050000000000    0.1109300000000000    0.6387250000000000 C
   0.3382700000000000    0.0823050000000000    0.6099750000000000 C
   0.3377850000000000    0.1309400000000000    0.6691650000000000 C
   0.8683050000000000    0.0625250000000000    0.5789050000000000 C
   0.7592650000000001    0.0429400000000000    0.5833500000000000 C
   0.8646300000000000    0.1597000000000000    0.7006500000000000 C
   0.7594799999999999    0.1423050000000000    0.7015650000000000 C
   0.7651650000000000    0.0911850000000000    0.6440600000000000 C
   0.7886500000000001    0.1218200000000000    0.6710500000000000 C
   0.7889699999999999    0.0716450000000000    0.6132200000000000 C
   0.8619049999999999    0.1109300000000000    0.6387250000000000 C
   0.8382700000000001    0.0823050000000000    0.6099750000000000 C
   0.8377850000000000    0.1309400000000000    0.6691650000000000 C
   0.7433600000000000    0.8126700000000000    0.6711500000000000 C
   0.6343050000000000    0.7932750000000000    0.6667350000000000 C
   0.7397400000000001    0.9096200000000000    0.5491650000000000 C
   0.6347100000000000    0.8925050000000000    0.5483650000000000 C
   0.6402650000000000    0.8415450000000000    0.6060300000000000 C
   0.6638150000000000    0.8720150000000000    0.5789450000000000 C
   0.6640450000000000    0.8219550000000000    0.6368700000000000 C
   0.7370550000000000    0.8609249999999999    0.6112000000000000 C
   0.7129650000000000    0.8809400000000001    0.5807450000000000 C
   0.7133650000000000    0.8324350000000000    0.6400300000000000 C
   0.6182550000000000    0.5626000000000000    0.5788750000000000 C
   0.5092350000000000    0.5430300000000000    0.5833000000000000 C
   0.6146000000000000    0.6597200000000000    0.7006900000000000 C
   0.5094750000000000    0.6424650000000001    0.7015250000000000 C
   0.5151150000000000    0.5914000000000000    0.6439550000000001 C
   0.5386200000000000    0.6219800000000000    0.6709849999999999 C
   0.5389250000000000    0.5717950000000001    0.6131600000000000 C
   0.6118800000000000    0.6109850000000000    0.6387200000000000 C
   0.5882300000000000    0.5823950000000000    0.6099500000000000 C
   0.5877650000000000    0.6309950000000000    0.6691600000000000 C
   0.4935750000000000    0.3128200000000000    0.6711400000000000 C
   0.3844150000000000    0.2933300000000000    0.6667850000000000 C
   0.4897800000000000    0.4096400000000000    0.5491450000000000 C
   0.3846900000000000    0.3924100000000000    0.5483700000000000 C
   0.3903700000000000    0.3415050000000000    0.6060500000000000 C
   0.4138600000000000    0.3719850000000000    0.5789000000000000 C
   0.4141800000000000    0.3220050000000000    0.6369250000000000 C
   0.4871350000000000    0.3610750000000000    0.6112350000000000 C
   0.4635000000000000    0.3325700000000000    0.6400800000000000 C
   0.4630050000000000    0.3809900000000000    0.5807400000000000 C
   0.1182550000000000    0.5626000000000000    0.5788750000000000 C
   0.0092350000000000    0.5430300000000000    0.5833000000000000 C
   0.1146000000000000    0.6597200000000000    0.7006900000000000 C
   0.0094750000000000    0.6424650000000001    0.7015250000000000 C
   0.0151150000000000    0.5914000000000000    0.6439550000000001 C
   0.0386200000000000    0.6219800000000000    0.6709849999999999 C
   0.0389250000000000    0.5717950000000001    0.6131600000000000 C
   0.1118800000000000    0.6109850000000000    0.6387200000000000 C
   0.0882300000000000    0.5823950000000000    0.6099500000000000 C
   0.0877650000000000    0.6309950000000000    0.6691600000000000 C
   0.9935750000000000    0.3128200000000000    0.6711400000000000 C
   0.8844150000000000    0.2933300000000000    0.6667850000000000 C
   0.9897800000000000    0.4096400000000000    0.5491450000000000 C
   0.8846900000000000    0.3924100000000000    0.5483700000000000 C
   0.8903700000000000    0.3415050000000000    0.6060500000000000 C
   0.9138600000000000    0.3719850000000000    0.5789000000000000 C
   0.9141800000000000    0.3220050000000000    0.6369250000000000 C
   0.9871350000000000    0.3610750000000000    0.6112350000000000 C
   0.9635000000000000    0.3325700000000000    0.6400800000000000 C
   0.9630050000000000    0.3809900000000000    0.5807400000000000 C
   0.7566450000000000    0.6873350000000000    0.8288450000000001 C
   0.8657000000000000    0.7067300000000000    0.8332649999999999 C
   0.7602650000000000    0.5903750000000000    0.9508200000000000 C