H2 C10 O8
1.0
  28.7139999300257216    0.0000000000000000   -0.0020046153640416
  -3.9523158399093798   30.2287180170381831    0.0015962432265573
   0.0000000000000000    0.0000000000000000   32.8100000000000023
H C O
2 10 8
direct
   0.1023850000000000    0.8328450000000001    0.6036500000000000 H
   0.2751850000000000    0.8679100000000000    0.6125000000000000 H
   0.2133650000000000    0.8324350000000000    0.6400300000000000 C
   0.1640450000000000    0.8219550000000000    0.6368700000000000 C
   0.1402650000000000    0.8415450000000000    0.6060300000000000 C
   0.1638150000000000    0.8720150000000000    0.5789450000000000 C
   0.2129650000000000    0.8809400000000001    0.5807450000000000 C
   0.2370550000000000    0.8609249999999999    0.6112000000000000 C
   0.2433600000000000    0.8126700000000000    0.6711500000000000 C
   0.1343050000000000    0.7932750000000000    0.6667350000000000 C
   0.1347100000000000    0.8925050000000000    0.5483650000000000 C
   0.2397400000000000    0.9096200000000000    0.5491650000000000 C
   0.2394700000000000    0.7705900000000000    0.6737000000000000 O
   0.2722650000000000    0.8400449999999999    0.6909900000000000 O
   0.0952750000000000    0.7734300000000001    0.6530150000000000 O
   0.1488450000000000    0.7927350000000000    0.7031400000000000 O
   0.1277050000000000    0.9335650000000000    0.5522500000000000 O
   0.1142150000000000    0.8693150000000001    0.5205200000000000 O
   0.2720900000000000    0.8927800000000000    0.5309600000000000 O
   0.2278350000000000    0.9479299999999999    0.5427300000000000 O
