H8 C10 N2
1.0
  19.0675238598367542    0.0000000000000000   -4.5245931148066978
  -4.0937048844298971   13.2905001675936383   -3.1319659344233415
   0.0000000000000000    0.0000000000000000   28.5219999999999985
H C N
8 10 2
direct
   0.0370000000000000    0.9143200000000000    0.2451950000000000 H
   0.1652700000000000    0.9835199999999999    0.2980850000000000 H
   0.2285300000000000    0.9629200000000000    0.1608750000000000 H
   0.0967100000000000    0.8982400000000000    0.1141650000000000 H
   0.4629400000000000    0.0868500000000000    0.2548400000000000 H
   0.3346500000000000    0.0178300000000000    0.2019400000000000 H
   0.2715000000000000    0.0353500000000000    0.3390700000000000 H
   0.4033100000000000    0.1004200000000000    0.3857900000000000 H
   0.0813900000000000    0.9269100000000000    0.2282000000000000 C
   0.1542200000000000    0.9650600000000000    0.2575150000000000 C
   0.2107400000000000    0.9797900000000000    0.2348300000000000 C
   0.1889500000000000    0.9547500000000000    0.1819700000000000 C
   0.1149600000000000    0.9175800000000000    0.1550950000000000 C
   0.4185700000000000    0.0736900000000000    0.2718050000000000 C
   0.3457300000000000    0.0355600000000000    0.2425000000000000 C
   0.2892400000000000    0.0200300000000000    0.2651600000000000 C
   0.3110600000000000    0.0443200000000000    0.3180000000000000 C
   0.3850500000000000    0.0816100000000000    0.3448750000000000 C
   0.0613300000000000    0.9030500000000000    0.1774750000000000 N
   0.4386500000000000    0.0968900000000000    0.3225150000000000 N
