Zn16 H130 C230 S30 N16 O64
1.0
  19.0675238598367542    0.0000000000000000   -4.5245931148066978
  -4.0937048844298971   13.2905001675936383   -3.1319659344233415
   0.0000000000000000    0.0000000000000000   28.5219999999999985
Zn H C S N O
16 130 230 30 16 64
direct
   0.7025300000000000    0.2712800000000000    0.4175000000000000 Zn
   0.2974400000000000    0.7287200000000000    0.5824900000000000 Zn
   0.7025300000000000    0.2712800000000000    0.9175000000000000 Zn
   0.2974400000000000    0.7287200000000000    0.0824900000000000 Zn
   0.4524800000000000    0.8349400000000000    0.1356650000000000 Zn
   0.0474900000000000    0.1650500000000000    0.3643350000000000 Zn
   0.0474900000000000    0.1650500000000000    0.8643350000000001 Zn
   0.4524800000000000    0.8349400000000000    0.6356650000000000 Zn
   0.2025300000000000    0.2712700000000000    0.9175100000000000 Zn
   0.7974400000000000    0.7287200000000000    0.0824900000000000 Zn
   0.2025300000000000    0.2712700000000000    0.4175100000000000 Zn
   0.7974400000000000    0.7287200000000000    0.5824900000000000 Zn
   0.5475000000000000    0.1650500000000000    0.8643350000000001 Zn
   0.9524899999999999    0.8349500000000000    0.6356650000000000 Zn
   0.5475000000000000    0.1650500000000000    0.3643350000000000 Zn
   0.9524899999999999    0.8349500000000000    0.1356650000000000 Zn
   0.7673000000000000    0.9995200000000000    0.4616000000000000 H
   0.7397100000000000    0.8132700000000000    0.4675500000000000 H
   0.4667900000000000    0.4542700000000000    0.3644950000000000 H
   0.4875200000000000    0.6476499999999999    0.3712750000000000 H
   0.0212800000000000    0.6781100000000000    0.5176250000000000 H
   0.0848500000000000    0.4038500000000000    0.5088600000000000 H
   0.2130800000000000    0.5096100000000000    0.5432650000000000 H
   0.1530400000000000    0.7715000000000000    0.5500800000000000 H
   0.9787500000000000    0.3217500000000000    0.4813550000000000 H
   0.9150700000000001    0.5962000000000000    0.4919350000000000 H
   0.7868600000000000    0.4904700000000000    0.4574150000000000 H
   0.8469900000000000    0.2283900000000000    0.4491350000000000 H
   0.2326900000000000    0.0005100000000000    0.5383650000000000 H
   0.2603100000000000    0.1867600000000000    0.5324500000000000 H
   0.5332000000000000    0.5457600000000000    0.6355200000000000 H
   0.5125000000000000    0.3523800000000000    0.6287199999999999 H
   0.7673000000000000    0.9995200000000000    0.9616000000000000 H
   0.7397100000000000    0.8132700000000000    0.9675500000000000 H
   0.4667900000000000    0.4542700000000000    0.8644950000000000 H
   0.4875200000000000    0.6476499999999999    0.8712750000000000 H
   0.0212800000000000    0.6781100000000000    0.0176250000000000 H
   0.0848500000000000    0.4038500000000000    0.0088600000000000 H
   0.2130800000000000    0.5096100000000000    0.0432650000000000 H
   0.1530400000000000    0.7715000000000000    0.0500800000000000 H
   0.9787500000000000    0.3217500000000000    0.9813550000000000 H
   0.9150700000000001    0.5962000000000000    0.9919350000000000 H
   0.7868600000000000    0.4904700000000000    0.9574150000000000 H
   0.8469900000000000    0.2283900000000000    0.9491350000000001 H
   0.2326900000000000    0.0005100000000000    0.0383650000000000 H
   0.2603100000000000    0.1867600000000000    0.0324500000000000 H
   0.5332000000000000    0.5457600000000000    0.1355200000000000 H
   0.5125000000000000    0.3523800000000000    0.1287200000000000 H
   0.5172900000000000    0.9231400000000000    0.4999400000000000 H
   0.4898900000000000    0.9349499999999999    0.4068000000000000 H
   0.2169800000000000    0.7292400000000000    0.2269500000000000 H
   0.2376500000000000    0.7429100000000000    0.3236300000000000 H
   0.0434851753522138    0.1631553657043222    0.2748647877714245 H
   0.2592712209889271    0.2572917304689264    0.3433621507915540 H
   0.1535187819562832    0.2099886930698552    0.3043714981827672 H
   0.7715100000000000    0.0349900000000000    0.3390550000000000 H
   0.8346400000000000    0.0181000000000000    0.2019450000000000 H
   0.9629400000000000    0.0870700000000000    0.2548450000000000 H
   0.9033200000000000    0.1001500000000000    0.3857750000000000 H
   0.7285400000000000    0.9625899999999999    0.1608650000000000 H
   0.6652700000000000    0.9837700000000000    0.2980900000000000 H
   0.5967300000000000    0.8980000000000000    0.1141550000000000 H
   0.5370000000000000    0.9145300000000000    0.2452000000000000 H
   0.9827000000000000    0.0768500000000000    0.5000800000000000 H
   0.0101200000000000    0.0650400000000000    0.5931999999999999 H
   0.2830100000000000    0.2707900000000000    0.7730650000000000 H
   0.2623600000000000    0.2570700000000000    0.6763850000000000 H
   0.1953330465768293    0.3092909926574242    1.0077529835386174 H
  -0.0071213347987799    0.1222911278408488    0.9341507021746729 H
   0.0913793166779729    0.2147297342986477    0.9750408066764460 H
   0.7715100000000000    0.0349900000000000    0.8390550000000000 H
   0.8346400000000000    0.0181000000000000    0.7019450000000000 H
   0.9629400000000000    0.0870700000000000    0.7548450000000000 H
   0.9033200000000000    0.1001500000000000    0.8857750000000000 H
   0.7285400000000000    0.9625899999999999    0.6608650000000000 H
   0.6652700000000000    0.9837700000000000    0.7980900000000000 H
   0.5967300000000000    0.8980000000000000    0.6141550000000000 H
   0.5370000000000000    0.9145300000000000    0.7452000000000000 H
   0.5172900000000000    0.9231400000000000    0.9999400000000001 H
   0.4898900000000000    0.9349499999999999    0.9068000000000001 H
   0.2169800000000000    0.7292400000000000    0.7269500000000000 H
   0.2376500000000000    0.7429100000000000    0.8236300000000000 H
   0.2673000000000000    0.9995100000000000    0.9616300000000000 H
   0.2397200000000000    0.8132600000000000    0.9675450000000000 H
   0.9668000000000000    0.4542700000000000    0.8644950000000000 H
   0.9875300000000000    0.6476400000000000    0.8712750000000000 H
   0.4787400000000000    0.3217600000000000    0.9814300000000000 H
   0.4150700000000000    0.5962000000000000    0.9918750000000001 H
   0.2868600000000000    0.4904600000000000    0.9573650000000000 H
   0.3469800000000000    0.2284000000000000    0.9490000000000001 H
   0.5212800000000000    0.6781199999999999    0.0176700000000000 H
   0.5848600000000000    0.4038500000000000    0.0088250000000000 H
   0.7130900000000000    0.5096100000000000    0.0432400000000000 H
   0.6530400000000000    0.7715100000000000    0.0501050000000000 H
   0.7326900000000000    0.0005200000000000    0.0383700000000000 H
   0.7603100000000000    0.1867600000000000    0.0324500000000000 H
   0.0331900000000000    0.5457700000000000    0.1355200000000000 H
   0.0124900000000000    0.3523900000000000    0.1287150000000000 H
   0.2673000000000000    0.9995100000000000    0.4616300000000000 H
   0.2397200000000000    0.8132600000000000    0.4675450000000000 H
   0.9668000000000000    0.4542700000000000    0.3644950000000000 H
   0.9875300000000000    0.6476400000000000    0.3712750000000000 H
   0.4787400000000000    0.3217600000000000    0.4814300000000000 H
   0.4150700000000000    0.5962000000000000    0.4918750000000000 H
   0.2868600000000000    0.4904600000000000    0.4573650000000000 H
   0.3469800000000000    0.2284000000000000    0.4490000000000000 H
   0.5212800000000000    0.6781199999999999    0.5176700000000000 H
   0.5848600000000000    0.4038500000000000    0.5088250000000000 H
   0.7130900000000000    0.5096100000000000    0.5432399999999999 H
   0.6530400000000000    0.7715100000000000    0.5501050000000000 H
   0.7326900000000000    0.0005200000000000    0.5383700000000000 H
   0.7603100000000000    0.1867600000000000    0.5324500000000000 H
   0.0331900000000000    0.5457700000000000    0.6355200000000000 H
   0.0124900000000000    0.3523900000000000    0.6287150000000000 H
   0.4827100000000000    0.0768400000000000    0.5000750000000000 H
   0.5101300000000000    0.0650400000000000    0.5931950000000000 H
   0.7830200000000000    0.2707800000000000    0.7730650000000000 H
   0.7623700000000000    0.2570600000000000    0.6763850000000000 H
   0.2715000000000000    0.0353500000000000    0.8390700000000000 H
   0.3346500000000000    0.0178300000000000    0.7019400000000000 H
   0.4629400000000000    0.0868500000000000    0.7548400000000000 H
   0.4033100000000000    0.1004200000000000    0.8857900000000001 H
   0.2285300000000000    0.9629200000000000    0.6608750000000000 H
   0.1652700000000000    0.9835199999999999    0.7980849999999999 H
   0.0370000000000000    0.9143200000000000    0.7451950000000001 H
   0.0967100000000000    0.8982400000000000    0.6141650000000000 H
   0.0172900000000000    0.9231500000000000    0.9999350000000000 H
   0.9899000000000000    0.9349400000000000    0.9068149999999999 H
   0.7169800000000000    0.7292400000000000    0.7269500000000000 H
   0.7376500000000000    0.7429000000000000    0.8236250000000001 H
   0.4827100000000000    0.0768400000000000    0.0000750000000000 H
   0.5101300000000000    0.0650400000000000    0.0931950000000000 H
   0.7830200000000000    0.2707800000000000    0.2730650000000000 H
   0.7623700000000000    0.2570600000000000    0.1763850000000000 H
   0.2715000000000000    0.0353500000000000    0.3390700000000000 H
   0.3346500000000000    0.0178300000000000    0.2019400000000000 H
   0.4629400000000000    0.0868500000000000    0.2548400000000000 H
   0.4033100000000000    0.1004200000000000    0.3857900000000000 H
   0.2285300000000000    0.9629200000000000    0.1608750000000000 H
   0.1652700000000000    0.9835199999999999    0.2980850000000000 H
   0.0370000000000000    0.9143200000000000    0.2451950000000000 H
   0.0967100000000000    0.8982400000000000    0.1141650000000000 H
   0.0172900000000000    0.9231500000000000    0.4999350000000000 H
   0.9899000000000000    0.9349400000000000    0.4068150000000000 H
   0.7169800000000000    0.7292400000000000    0.2269500000000000 H
   0.7376500000000000    0.7429000000000000    0.3236250000000000 H
   0.6550600000000000    0.0490900000000000    0.3948150000000000 C
   0.5971800000000000    0.3893000000000000    0.3935700000000000 C
   0.7192499999999999    0.9382000000000000    0.4377300000000000 C
   0.6639000000000000    0.9529500000000000    0.4025600000000000 C
   0.7046000000000000    0.8383900000000000    0.4405300000000000 C
   0.6381500000000000    0.7753900000000000    0.4064950000000000 C
   0.5201200000000000    0.5107300000000000    0.3772400000000000 C
   0.5850300000000000    0.4873400000000000    0.3924000000000000 C
   0.5314200000000000    0.6136800000000000    0.3806200000000000 C
   0.6053800000000000    0.6692600000000000    0.3985000000000000 C
   0.0609300000000000    0.6359500000000000    0.5220800000000000 C
   0.0958300000000000    0.4849600000000000    0.5176900000000000 C
   0.1686300000000000    0.5435700000000000    0.5367250000000000 C
   0.1348900000000000    0.6896900000000000    0.5406900000000000 C
   0.0392300000000000    0.5303000000000000    0.5099850000000000 C
   0.9390900000000000    0.3639600000000000    0.4773700000000000 C
   0.9041300000000000    0.5150600000000000    0.4826700000000000 C
   0.8313199999999999    0.4564600000000000    0.4636250000000000 C
   0.8651200000000000    0.3102400000000000    0.4588300000000000 C
   0.9607599999999999    0.4696700000000000    0.4899100000000000 C
   0.3449200000000000    0.9509200000000000    0.6051500000000000 C
   0.4028000000000000    0.6107100000000000    0.6064500000000000 C
   0.2807500000000000    0.0618200000000000    0.5622650000000000 C
   0.3360900000000000    0.0470600000000000    0.5974300000000000 C
   0.2954100000000000    0.1616300000000000    0.5594700000000000 C
   0.3618700000000000    0.2246200000000000    0.5935049999999999 C
   0.4798700000000000    0.4893000000000000    0.6227750000000000 C
   0.4149600000000000    0.5126800000000000    0.6076350000000000 C
   0.4685900000000000    0.3863500000000000    0.6193850000000000 C
   0.3946300000000000    0.3307600000000000    0.6014500000000000 C
   0.6550600000000000    0.0490900000000000    0.8948150000000000 C
   0.5971800000000000    0.3893000000000000    0.8935700000000000 C
   0.7192499999999999    0.9382000000000000    0.9377300000000000 C
   0.6639000000000000    0.9529500000000000    0.9025600000000000 C
   0.7046000000000000    0.8383900000000000    0.9405300000000000 C
   0.6381500000000000    0.7753900000000000    0.9064950000000001 C
   0.5201200000000000    0.5107300000000000    0.8772400000000000 C
   0.5850300000000000    0.4873400000000000    0.8924000000000001 C
   0.5314200000000000    0.6136800000000000    0.8806200000000000 C
   0.6053800000000000    0.6692600000000000    0.8985000000000001 C
   0.0609300000000000    0.6359500000000000    0.0220800000000000 C
   0.0958300000000000    0.4849600000000000    0.0176900000000000 C
   0.1686300000000000    0.5435700000000000    0.0367250000000000 C
   0.1348900000000000    0.6896900000000000    0.0406900000000000 C
   0.0392300000000000    0.5303000000000000    0.0099850000000000 C
   0.9390900000000000    0.3639600000000000    0.9773700000000001 C
   0.9041300000000000    0.5150600000000000    0.9826699999999999 C
   0.8313199999999999    0.4564600000000000    0.9636250000000000 C
   0.8651200000000000    0.3102400000000000    0.9588300000000001 C
   0.9607599999999999    0.4696700000000000    0.9899100000000001 C
   0.3449200000000000    0.9509200000000000    0.1051500000000000 C
   0.4028000000000000    0.6107100000000000    0.1064500000000000 C
   0.2807500000000000    0.0618200000000000    0.0622650000000000 C
   0.3360900000000000    0.0470600000000000    0.0974300000000000 C
   0.2954100000000000    0.1616300000000000    0.0594700000000000 C
   0.3618700000000000    0.2246200000000000    0.0935050000000000 C
   0.4798700000000000    0.4893000000000000    0.1227750000000000 C
   0.4149600000000000    0.5126800000000000    0.1076350000000000 C
   0.4685900000000000    0.3863500000000000    0.1193850000000000 C
   0.3946300000000000    0.3307600000000000    0.1014500000000000 C
   0.4049500000000000    0.7899400000000000    0.5245649999999999 C
   0.3473100000000000    0.7870900000000000    0.1946450000000000 C
   0.4692600000000000    0.8754400000000000    0.4692200000000000 C
   0.4138200000000000    0.8053500000000000    0.4765250000000000 C
   0.4547100000000000    0.8810300000000000    0.4193150000000000 C
   0.3882300000000000    0.8131600000000000    0.3877300000000000 C
   0.2702900000000000    0.7547199999999999    0.2552600000000000 C
   0.3351900000000000    0.7848900000000000    0.2436500000000000 C
   0.2815700000000000    0.7615100000000000    0.3067300000000000 C
   0.3555200000000000    0.7972800000000000    0.3346300000000000 C
   0.8110700000000000    0.0441100000000000    0.3179900000000000 C
   0.8457300000000000    0.0356700000000000    0.2425000000000000 C
   0.9185700000000000    0.0738100000000000    0.2718050000000000 C
   0.8850600000000000    0.0814400000000000    0.3448700000000000 C
   0.7892500000000000    0.0200000000000000    0.2651600000000000 C
   0.6889600000000000    0.9545700000000000    0.1819600000000000 C
   0.6542200000000000    0.9651800000000000    0.2575150000000000 C
   0.6149700000000000    0.9174300000000000    0.1550500000000000 C
   0.5813900000000000    0.9270200000000000    0.2282000000000000 C
   0.7107400000000000    0.9797500000000000    0.2348250000000000 C
   0.0950200000000000    0.2100500000000000    0.4754400000000000 C
   0.1526700000000000    0.2129400000000000    0.8053600000000001 C
   0.0307400000000000    0.1245400000000000    0.5307900000000000 C
   0.0861700000000000    0.1946200000000000    0.5234799999999999 C
   0.0453000000000000    0.1189600000000000    0.5805000000000000 C
   0.1117800000000000    0.1868300000000000    0.6122750000000000 C
   0.2297000000000000    0.2453100000000000    0.7447550000000001 C
   0.1647900000000000    0.2151700000000000    0.7563599999999999 C
   0.2184300000000000    0.2384900000000000    0.6932850000000000 C
   0.1444900000000000    0.2027300000000000    0.6653800000000000 C
   0.8110700000000000    0.0441100000000000    0.8179900000000000 C
   0.8457300000000000    0.0356700000000000    0.7424999999999999 C
   0.9185700000000000    0.0738100000000000    0.7718050000000001 C
   0.8850600000000000    0.0814400000000000    0.8448700000000000 C
   0.7892500000000000    0.0200000000000000    0.7651600000000001 C
   0.6889600000000000    0.9545700000000000    0.6819600000000000 C
   0.6542200000000000    0.9651800000000000    0.7575149999999999 C
   0.6149700000000000    0.9174300000000000    0.6550500000000000 C
   0.5813900000000000    0.9270200000000000    0.7282000000000000 C
   0.7107400000000000    0.9797500000000000    0.7348250000000001 C
   0.4049500000000000    0.7899400000000000    0.0245650000000000 C
   0.3473100000000000    0.7870900000000000    0.6946450000000000 C
   0.4692600000000000    0.8754400000000000    0.9692200000000000 C
   0.4138200000000000    0.8053500000000000    0.9765250000000000 C
   0.4547100000000000    0.8810300000000000    0.9193150000000000 C
   0.3882300000000000    0.8131600000000000    0.8877300000000000 C
   0.2702900000000000    0.7547199999999999    0.7552600000000000 C
   0.3351900000000000    0.7848900000000000    0.7436500000000000 C
   0.2815700000000000    0.7615100000000000    0.8067299999999999 C
   0.3555200000000000    0.7972800000000000    0.8346300000000000 C
   0.1550700000000000    0.0490800000000000    0.8948100000000000 C
   0.0971800000000000    0.3893000000000000    0.8935750000000000 C
   0.2192500000000000    0.9381900000000000    0.9377249999999999 C
   0.1639000000000000    0.9529400000000000    0.9025600000000000 C
   0.2046000000000000    0.8383800000000000    0.9405250000000001 C
   0.1381400000000000    0.7753800000000000    0.9064950000000001 C
   0.0201200000000000    0.5107200000000000    0.8772400000000000 C
   0.0850300000000000    0.4873300000000000    0.8924000000000001 C
   0.0314200000000000    0.6136700000000000    0.8806200000000000 C
   0.1053800000000000    0.6692500000000000    0.8985449999999999 C
   0.4390800000000000    0.3639700000000000    0.9774050000000001 C
   0.4041200000000000    0.5150500000000000    0.9826400000000000 C
   0.3313200000000000    0.4564500000000000    0.9636050000000000 C
   0.3651200000000000    0.3102400000000000    0.9588700000000000 C
   0.4607500000000000    0.4696800000000000    0.9899249999999999 C
   0.5609300000000000    0.6359600000000000    0.0221050000000000 C
   0.5958400000000000    0.4849700000000000    0.0176800000000000 C
   0.6686400000000000    0.5435700000000000    0.0367100000000000 C
   0.6348900000000000    0.6896900000000000    0.0407050000000000 C
   0.5392300000000000    0.5303000000000000    0.0099850000000000 C
   0.8449200000000000    0.9509300000000001    0.1051900000000000 C
   0.9028000000000000    0.6107100000000000    0.1064450000000000 C
   0.7807600000000000    0.0618200000000000    0.0622700000000000 C
   0.8361000000000000    0.0470600000000000    0.0974350000000000 C
   0.7954100000000000    0.1616300000000000    0.0594750000000000 C
   0.8618700000000000    0.2246300000000000    0.0935050000000000 C
   0.9798700000000000    0.4893100000000000    0.1227800000000000 C
   0.9149600000000000    0.5126800000000000    0.1076400000000000 C
   0.9685900000000000    0.3863500000000000    0.1193850000000000 C
   0.8946300000000000    0.3307600000000000    0.1014650000000000 C
   0.1550700000000000    0.0490800000000000    0.3948100000000000 C
   0.0971800000000000    0.3893000000000000    0.3935750000000000 C
   0.2192500000000000    0.9381900000000000    0.4377250000000000 C
   0.1639000000000000    0.9529400000000000    0.4025600000000000 C
   0.2046000000000000    0.8383800000000000    0.4405250000000000 C
   0.1381400000000000    0.7753800000000000    0.4064950000000000 C
   0.0201200000000000    0.5107200000000000    0.3772400000000000 C
   0.0850300000000000    0.4873300000000000    0.3924000000000000 C
   0.0314200000000000    0.6136700000000000    0.3806200000000000 C
   0.1053800000000000    0.6692500000000000    0.3985450000000000 C
   0.4390800000000000    0.3639700000000000    0.4774050000000000 C
   0.4041200000000000    0.5150500000000000    0.4826400000000000 C
   0.3313200000000000    0.4564500000000000    0.4636050000000000 C
   0.3651200000000000    0.3102400000000000    0.4588700000000000 C
   0.4607500000000000    0.4696800000000000    0.4899250000000000 C
   0.5609300000000000    0.6359600000000000    0.5221050000000000 C
   0.5958400000000000    0.4849700000000000    0.5176800000000000 C
   0.6686400000000000    0.5435700000000000    0.5367100000000000 C
   0.6348900000000000    0.6896900000000000    0.5407050000000000 C
   0.5392300000000000    0.5303000000000000    0.5099850000000000 C
   0.8449200000000000    0.9509300000000001    0.6051900000000000 C
   0.9028000000000000    0.6107100000000000    0.6064450000000000 C
   0.7807600000000000    0.0618200000000000    0.5622700000000000 C
   0.8361000000000000    0.0470600000000000    0.5974349999999999 C
   0.7954100000000000    0.1616300000000000    0.5594749999999999 C
   0.8618700000000000    0.2246300000000000    0.5935049999999999 C
   0.9798700000000000    0.4893100000000000    0.6227800000000000 C
   0.9149600000000000    0.5126800000000000    0.6076400000000000 C
   0.9685900000000000    0.3863500000000000    0.6193850000000000 C
   0.8946300000000000    0.3307600000000000    0.6014650000000000 C
   0.5950400000000000    0.2100600000000000    0.4754400000000000 C
   0.6526700000000000    0.2129500000000000    0.8053600000000001 C
   0.5307500000000001    0.1245500000000000    0.5307850000000000 C
   0.5861800000000000    0.1946300000000000    0.5234799999999999 C
   0.5453100000000000    0.1189600000000000    0.5806950000000000 C
   0.6117800000000000    0.1868400000000000    0.6122750000000000 C
   0.7297100000000000    0.2453200000000000    0.7447550000000001 C
   0.6647999999999999    0.2151900000000000    0.7563599999999999 C
   0.7184400000000000    0.2384900000000000    0.6932800000000000 C
   0.6444900000000000    0.2027400000000000    0.6653500000000000 C
   0.3110600000000000    0.0443200000000000    0.8180000000000001 C
   0.3457300000000000    0.0355600000000000    0.7424999999999999 C
   0.4185700000000000    0.0736900000000000    0.7718050000000001 C
   0.3850500000000000    0.0816100000000000    0.8448750000000000 C
   0.2892400000000000    0.0200300000000000    0.7651600000000001 C
   0.1889500000000000    0.9547500000000000    0.6819700000000000 C
   0.1542200000000000    0.9650600000000000    0.7575149999999999 C
   0.0813900000000000    0.9269100000000000    0.7282000000000000 C
   0.1149600000000000    0.9175800000000000    0.6550950000000000 C
   0.2107400000000000    0.9797900000000000    0.7348300000000000 C
   0.9049600000000000    0.7899500000000000    0.0245650000000000 C
   0.8473100000000000    0.7871100000000000    0.6946450000000000 C
   0.9692700000000000    0.8754400000000000    0.9692200000000000 C
   0.9138300000000000    0.8053600000000000    0.9765250000000000 C
   0.9547099999999999    0.8810400000000000    0.9193150000000000 C
   0.8882400000000000    0.8131699999999999    0.8877300000000000 C
   0.7702900000000000    0.7547100000000000    0.7552550000000000 C
   0.8351900000000000    0.7849100000000000    0.7436500000000000 C
   0.7815800000000001    0.7615200000000000    0.8067299999999999 C
   0.8555300000000000    0.7972900000000001    0.8346300000000000 C
   0.5950400000000000    0.2100600000000000    0.9754400000000000 C
   0.6526700000000000    0.2129500000000000    0.3053600000000000 C
   0.5307500000000001    0.1245500000000000    0.0307850000000000 C
   0.5861800000000000    0.1946300000000000    0.0234800000000000 C
   0.5453100000000000    0.1189600000000000    0.0806950000000000 C
   0.6117800000000000    0.1868400000000000    0.1122750000000000 C
   0.7297100000000000    0.2453200000000000    0.2447550000000000 C
   0.6647999999999999    0.2151900000000000    0.2563600000000000 C
   0.7184400000000000    0.2384900000000000    0.1932800000000000 C
   0.6444900000000000    0.2027400000000000    0.1653500000000000 C
   0.3110600000000000    0.0443200000000000    0.3180000000000000 C
   0.3457300000000000    0.0355600000000000    0.2425000000000000 C
   0.4185700000000000    0.0736900000000000    0.2718050000000000 C
   0.3850500000000000    0.0816100000000000    0.3448750000000000 C
   0.2892400000000000    0.0200300000000000    0.2651600000000000 C
   0.1889500000000000    0.9547500000000000    0.1819700000000000 C
   0.1542200000000000    0.9650600000000000    0.2575150000000000 C
   0.0813900000000000    0.9269100000000000    0.2282000000000000 C
   0.1149600000000000    0.9175800000000000    0.1550950000000000 C
   0.2107400000000000    0.9797900000000000    0.2348300000000000 C
   0.9049600000000000    0.7899500000000000    0.5245649999999999 C
   0.8473100000000000    0.7871100000000000    0.1946450000000000 C
   0.9692700000000000    0.8754400000000000    0.4692200000000000 C
   0.9138300000000000    0.8053600000000000    0.4765250000000000 C
   0.9547099999999999    0.8810400000000000    0.4193150000000000 C
   0.8882400000000000    0.8131699999999999    0.3877300000000000 C
   0.7702900000000000    0.7547100000000000    0.2552550000000000 C
   0.8351900000000000    0.7849100000000000    0.2436500000000000 C
   0.7815800000000001    0.7615200000000000    0.3067300000000000 C
   0.8555300000000000    0.7972900000000001    0.3346300000000000 C
   0.6603700000000000    0.5925200000000000    0.4107000000000000 S
   0.5946600000000000    0.8412200000000000    0.3710250000000000 S
   0.3396300000000000    0.4074900000000000    0.5892950000000000 S
   0.4053500000000000    0.1587700000000000    0.6289650000000000 S
   0.6603700000000000    0.5925200000000000    0.9107000000000001 S
   0.5946600000000000    0.8412200000000000    0.8710249999999999 S
   0.3396300000000000    0.4074900000000000    0.0892950000000000 S
   0.4053500000000000    0.1587700000000000    0.1289650000000000 S
   0.4105100000000000    0.8215500000000000    0.2963400000000000 S
   0.3446200000000000    0.7424100000000000    0.4205750000000000 S
   0.0894900000000000    0.1785000000000000    0.7036600000000000 S
   0.1553900000000000    0.2575500000000000    0.5794250000000000 S
   0.4105100000000000    0.8215500000000000    0.7963400000000000 S
   0.3446200000000000    0.7424100000000000    0.9205749999999999 S
   0.1603700000000000    0.5925100000000000    0.9107350000000001 S
   0.0946500000000000    0.8412200000000000    0.8710300000000000 S
   0.8396300000000000    0.4074900000000000    0.0893000000000000 S
   0.9053600000000001    0.1587700000000000    0.1289500000000000 S
   0.1603700000000000    0.5925100000000000    0.4107350000000000 S
   0.0946500000000000    0.8412200000000000    0.3710300000000000 S
   0.8396300000000000    0.4074900000000000    0.5893000000000000 S
   0.9053600000000001    0.1587700000000000    0.6289500000000000 S
   0.5894900000000000    0.1785200000000000    0.7036600000000000 S
   0.6553900000000000    0.2575700000000000    0.5794250000000000 S
   0.9105100000000000    0.8215600000000000    0.7963000000000000 S
   0.8446200000000000    0.7424200000000000    0.9205749999999999 S
   0.5894900000000000    0.1785200000000000    0.2036600000000000 S
   0.6553900000000000    0.2575700000000000    0.0794250000000000 S
   0.9105100000000000    0.8215600000000000    0.2963000000000000 S
   0.8446200000000000    0.7424200000000000    0.4205750000000000 S
   0.1886100000000000    0.6449900000000000    0.5483100000000000 N
   0.8113700000000000    0.3550000000000000    0.4516550000000000 N
   0.1886100000000000    0.6449900000000000    0.0483100000000000 N
   0.8113700000000000    0.3550000000000000    0.9516549999999999 N
   0.9386500000000000    0.0968700000000000    0.3225150000000000 N
   0.5613300000000000    0.9030400000000000    0.1774750000000000 N
   0.9386500000000000    0.0968700000000000    0.8225150000000000 N
   0.5613300000000000    0.9030400000000000    0.6774750000000000 N
   0.3113700000000000    0.3549900000000000    0.9516600000000000 N
   0.6886100000000001    0.6449900000000000    0.0483100000000000 N
   0.3113700000000000    0.3549900000000000    0.4516600000000000 N
   0.6886100000000001    0.6449900000000000    0.5483100000000000 N
   0.4386500000000000    0.0968900000000000    0.8225150000000000 N
   0.0613300000000000    0.9030500000000000    0.6774750000000000 N
   0.4386500000000000    0.0968900000000000    0.3225150000000000 N
   0.0613300000000000    0.9030500000000000    0.1774750000000000 N
   0.7089500000000000    0.1280900000000000    0.4187300000000000 O
   0.5937400000000000    0.0452700000000000    0.3654150000000000 O
   0.5413200000000000    0.3127800000000000    0.3806500000000000 O
   0.6644900000000000    0.3904600000000000    0.4075950000000000 O
   0.2910200000000000    0.8719200000000000    0.5812850000000001 O
   0.4062600000000000    0.9547200000000000    0.6345600000000000 O
   0.4586600000000000    0.6872200000000001    0.6193400000000000 O
   0.3354900000000000    0.6095400000000000    0.5924150000000000 O
   0.7089500000000000    0.1280900000000000    0.9187300000000000 O
   0.5937400000000000    0.0452700000000000    0.8654150000000000 O
   0.5413200000000000    0.3127800000000000    0.8806499999999999 O
   0.6644900000000000    0.3904600000000000    0.9075949999999999 O
   0.2910200000000000    0.8719200000000000    0.0812850000000000 O
   0.4062600000000000    0.9547200000000000    0.1345600000000000 O