H3 O2
1.0
  12.1239999926136370    0.0000000000000000    0.0004232074369373
   0.0037293453878232   15.2639961873485248    0.0101234674247618
   0.0000000000000000    0.0000000000000000   15.9160000000000004
H O
3 2
direct
  -0.0310052916338545    0.6477912436026697    0.9109059456048737 H
   0.1769663624845781    0.7997032193256973    0.6175838015016936 H
   0.2480967988503306    0.7050047414876962    0.6151094058654194 H
   0.0126100000000000    0.5938600000000001    0.9095299999999999 O
   0.2341300000000000    0.7633000000000000    0.5918000000000000 O
