H12 O8
1.0
   7.6141150615294855    0.0000000000000000    0.6160948220768011
   0.8393796667693515   12.6254618327635608    2.0852173230732545
   0.0000000000000000    0.0000000000000000   25.8580000000000005
H O
12 8
direct
   0.6686299196080339    0.1940127619359170    0.0759500010440481 H
   0.6971136082245507    0.3539033359689795    0.0342121672911745 H
   1.1872195895573454    0.2824633028209555    0.0242936091748947 H
   0.5877350719232517    0.2456541918559295    0.6979911051467202 H
   0.6363751770881344    0.2057571953320882    0.7163357005743087 H
   0.0804720105184430    0.2172813571123943    0.7286712013818215 H
   0.6606512825312773    0.5342445555918447    0.9035363696134608 H
   0.1486308239006192    0.5889274488382721    0.8767193419824529 H
  -0.0836516355125078    0.5411932373867897    0.8920260365881644 H
   0.6359225535534032    0.8759181367717396    0.9143953216017287 H
  -0.0285355851234032    0.9640267311994909    0.8137089326969702 H
   0.8182193136798012    0.9533233681466986    0.8575929555784322 H
   0.7853300000000000    0.2089400000000000    0.0837850000000000 O
   0.5841100000000000    0.3332300000000000    0.0509400000000000 O
   0.7582800000000000    0.2143500000000000    0.7037400000000000 O
   0.4674700000000000    0.2445600000000000    0.6886850000000000 O
   0.7400000000000000    0.5907100000000000    0.8936050000000000 O
   0.0301700000000000    0.6221900000000000    0.8777800000000000 O
   0.7179200000000000    0.8336800000000000    0.8943250000000000 O
  -0.0810200000000000    0.9014200000000000    0.8329299999999999 O
