H14 C24 O10
1.0
   7.6141150615294855    0.0000000000000000    0.6160948220768011
   0.8393796667693515   12.6254618327635608    2.0852173230732545
   0.0000000000000000    0.0000000000000000   25.8580000000000005
H C O
14 24 10
direct
   0.0663500000000000    0.2024300000000000    0.0253750000000000 H
   0.7520500000000000    0.9865200000000000    0.0057750000000000 H
   0.6954700000000000    0.4641300000000000    0.9757400000000001 H
   0.2143300000000000    0.4482700000000000    0.8981150000000000 H
   0.4904200000000000    0.3694700000000000    0.9295150000000000 H
   0.4102600000000000    0.3042000000000000    0.8809300000000000 H
   0.4969500000000000    0.1196000000000000    0.9982249999999999 H
   0.8048700000000000    0.0506800000000000    0.7671399999999999 H
   0.2848300000000000    0.2046400000000000    0.7754099999999999 H
   0.4367000000000000    0.9512900000000000    0.8981850000000000 H
   0.0097700000000000    0.1406500000000000    0.8155749999999999 H
   0.0896900000000000    0.2398800000000000    0.8471850000000001 H
   0.0060300000000000    0.0029500000000000    0.9391950000000000 H
   0.7502400000000000    0.2860700000000000    0.8575699999999999 H
   0.8666300000000000    0.3287400000000000    0.0054200000000000 C
   0.0315800000000000    0.2755000000000000    0.0000000000000000 C
   0.7391799999999999    0.2874700000000000    0.0491500000000000 C
   0.8238799999999999    0.4224200000000000    0.9713300000000000 C
   0.9494500000000000    0.4640100000000000    0.9328650000000001 C
   0.1178500000000000    0.4123000000000000    0.9275350000000000 C
   0.1568300000000000    0.3164800000000000    0.9602450000000000 C
   0.4526800000000000    0.2925600000000000    0.9214450000000001 C
   0.6061400000000000    0.2107700000000000    0.9271550000000000 C
   0.6080500000000000    0.1266200000000000    0.9691000000000001 C
   0.9027700000000000    0.5671700000000000    0.8988800000000000 C
   0.6352000000000000    0.9912700000000000    0.8349450000000000 C
   0.6767300000000001    0.0593100000000000    0.7880950000000000 C
   0.5501700000000000    0.1357600000000000    0.7673850000000000 C
   0.3820600000000000    0.1461800000000000    0.7933250000000001 C
   0.3443200000000000    0.0809100000000000    0.8411900000000000 C
   0.4705600000000000    0.0000000000000000    0.8616250000000000 C
   0.7634800000000000    0.9041000000000000    0.8554700000000000 C
   0.0480300000000000    0.1579100000000000    0.8534500000000000 C
   0.8954299999999999    0.1460800000000000    0.8944150000000000 C
   0.8946300000000000    0.0613300000000000    0.9360750000000000 C
   0.5957200000000000    0.2033500000000000    0.7158150000000000 C
   0.7516200000000000    0.0523000000000000    0.9732149999999999 C
   0.7506200000000000    0.2201300000000000    0.8902050000000000 C
   0.5841100000000000    0.3332300000000000    0.0509400000000000 O
   0.7853300000000000    0.2089400000000000    0.0837850000000000 O
   0.7400000000000000    0.5907100000000000    0.8936050000000000 O
   0.0301700000000000    0.6221900000000000    0.8777800000000000 O
   0.3112600000000000    0.2559200000000000    0.9579700000000000 O
  -0.0810200000000000    0.9014200000000000    0.8329299999999999 O
   0.7179200000000000    0.8336800000000000    0.8943250000000000 O
   0.7582800000000000    0.2143500000000000    0.7037400000000000 O
   0.4674700000000000    0.2445600000000000    0.6886850000000000 O
   0.1903300000000000    0.0851900000000000    0.8715150000000000 O
