H4 O2
1.0
  31.2123074030390697    0.0000000000000000   10.2427714305354076
  -6.0393603942086465   34.3134394455630627   18.6956037464570883
   0.0000000000000000    0.0000000000000000   13.8209999999999997
H O
4 2
direct
   0.0980643448578542    0.7822707536867494    0.8461340446747335 H
   0.0507372443055278    0.7662058287591537    0.8457270406149962 H
   0.9490963410647728    0.9003628226369075    0.1542696730835385 H
   0.9018707994659273    0.8843798553840042    0.1532004389655999 H
   0.0754100000000000    0.7605766666666667    0.8729100000000000 O
   0.9245066666666666    0.9060433333333333    0.1267500000000000 O
