H1 O1
1.0
  31.2123074030390697    0.0000000000000000   10.2427714305354076
  -6.0393603942086465   34.3134394455630627   18.6956037464570883
   0.0000000000000000    0.0000000000000000   13.8209999999999997
H O
1 1
direct
   0.1905800273439341    0.7129246776409727    0.8830938831591351 H
   0.1593400000000000    0.7134666666666666    0.9049000000000000 O
