H10 C18 O10
1.0
  14.5255859280855084    0.0000000000000000   -1.4114494131226505
  -0.0083437479900245   16.8769979272028365   -0.0005891184355960
   0.0000000000000000    0.0000000000000000   17.4589999999999996
H C O
10 18 10
direct
   0.4516000000000000    0.4313300000000000    0.0771100000000000 H
   0.2833100000000000    0.4338100000000000    0.0567600000000000 H
   0.3448800000000000    0.5232700000000000    0.0396000000000000 H
   0.6420700000000000    0.2919100000000000    0.9612900000000000 H
   0.3840700000000000    0.3619200000000000    0.8401000000000000 H
   0.0483900000000000    0.5686200000000000    0.9229100000000000 H
   0.2166800000000000    0.5661400000000000    0.9432600000000000 H
   0.1551100000000000    0.4766800000000000    0.9603600000000000 H
   0.8579000000000000    0.7080500000000000    0.0387200000000000 H
   0.1159200000000000    0.6380300000000000    0.1598800000000000 H
   0.4091400000000000    0.4035900000000000    0.9567600000000001 C
   0.2949100000000000    0.4796500000000000    0.0139600000000000 C
   0.4680600000000000    0.4016200000000000    0.0249000000000000 C
   0.5763400000000000    0.3222000000000000    0.9606600000000000 C
   0.4323600000000000    0.3625100000000000    0.8916500000000001 C
   0.5515500000000000    0.3600600000000000    0.0267800000000000 C
   0.6139200000000000    0.3561400000000000    0.1007000000000000 C
   0.5163400000000000    0.3227500000000000    0.8929700000000000 C
   0.5432300000000000    0.2802900000000000    0.8229000000000000 C
   0.0319300000000000    0.5983300000000000    0.9751100000000000 C
   0.0908500000000000    0.5963600000000000    0.0432600000000000 C
   0.2050800000000000    0.5203000000000000    0.9860600000000000 C
   0.9236300000000000    0.6777600000000000    0.0393600000000000 C
   0.0676200000000000    0.6374500000000000    0.1083700000000000 C
   0.9484100000000000    0.6399000000000000    0.9732400000000000 C
   0.8860500000000000    0.6438199999999999    0.8992300000000000 C
   0.9836300000000000    0.6772100000000000    0.1070400000000000 C
   0.9567400000000000    0.7196800000000000    0.1771100000000000 C
   0.6872400000000000    0.3127100000000000    0.0965700000000000 O
   0.3273500000000000    0.4436700000000000    0.9472400000000000 O
   0.6243100000000000    0.2570000000000000    0.8199700000000000 O
   0.5941700000000000    0.3917600000000000    0.1596300000000000 O
   0.4779300000000000    0.2705400000000000    0.7669800000000000 O
   0.8127400000000000    0.6872500000000000    0.9034400000000000 O
   0.1726400000000000    0.5562800000000000    0.0527800000000000 O
   0.8756600000000000    0.7429700000000000    0.1800400000000000 O
   0.9058000000000000    0.6082100000000000    0.8403800000000000 O
   1.0220600000000000    0.7294300000000000    0.2330300000000000 O
