H4 O2
1.0
  14.5255859280855084    0.0000000000000000   -1.4114494131226505
  -0.0083437479900245   16.8769979272028365   -0.0005891184355960
   0.0000000000000000    0.0000000000000000   17.4589999999999996
H O
4 2
direct
   0.3657672693251051    0.2211990172064343    0.0768862104146409 H
   0.4319683253441844    0.2173428732421275    0.1531941140480311 H
   0.9449499780044489    0.9558621909755327    0.2843348744889314 H
   0.8538223868619225    0.9102938164303828    0.2562952764107765 H
   0.3712100000000000    0.2353600000000000    0.1314900000000000 O
   0.9182500000000000    0.9029700000000001    0.2762600000000000 O
