H4 O4
1.0
  18.6549997698531627    0.0000000000000000   -0.0029303205355849
  -2.6062601454190126   17.1460507686982488    0.0003026924521583
   0.0000000000000000    0.0000000000000000   20.2820000000000000
H O
4 4
direct
   0.5840243172683111    0.8215874899496253    0.1660025576451148 H
   0.7052380388736784    0.0929534513911098    0.2649985625412401 H
   0.2947719611263216    0.9070565486088902    0.7349814374587599 H
   0.4159766225265248    0.1784299486913822    0.8339768899576143 H
   0.5400500000000000    0.8235700000000000    0.1918500000000000 O
   0.7443500000000000    0.1373500000000000    0.2667200000000000 O
   0.2556600000000000    0.8626600000000000    0.7332600000000000 O
   0.4599500000000000    0.1764400000000000    0.8081300000000000 O
