H2 O2
1.0
  38.7518387585759072    0.0000000000000000   -4.3926066098996639
  -0.0460895389794587   18.3428535775433588   -0.0569858508888306
   0.0000000000000000    0.0000000000000000   18.7510000000000012
H O
2 2
direct
   0.8181387355006824    0.8598844002361826    0.7923668300772099 H
   0.7703547032207028    0.6178516831116864    0.7444381111581319 H
   0.8191700000000000    0.9031900000000000    0.7623300000000000 O
   0.7687366666666666    0.5826200000000000    0.7049000000000000 O
