H8 C10 O4
1.0
  38.7518387585759072    0.0000000000000000   -4.3926066098996639
  -0.0460895389794587   18.3428535775433588   -0.0569858508888306
   0.0000000000000000    0.0000000000000000   18.7510000000000012
H C O
8 10 4
direct
   0.8591933333333333    0.7814400000000000    0.7705300000000000 H
   0.8257466666666666    0.7296300000000000    0.8029600000000000 H
   0.8594033333333333    0.8116700000000000    0.6482200000000000 H
   0.8348566666666666    0.7978800000000000    0.5209500000000000 H
   0.7757999999999999    0.7438399999999999    0.4917400000000000 H
   0.7429766666666666    0.7038300000000000    0.5906900000000000 H
   0.7339866666666666    0.7072800000000000    0.7126300000000000 H
   0.7647866666666666    0.7431300000000000    0.7811600000000000 H
   0.8177966666666666    0.8455200000000000    0.8023300000000000 C
   0.8309933333333333    0.7758100000000000    0.7687400000000000 C
   0.8155866666666667    0.7647200000000000    0.6917700000000000 C
   0.8339000000000000    0.7872300000000000    0.6354000000000000 C
   0.8200733333333333    0.7798800000000000    0.5637400000000000 C
   0.7871566666666666    0.7497500000000000    0.5473700000000000 C
   0.7686566666666667    0.7274600000000000    0.6030400000000000 C
   0.7822700000000000    0.7344800000000000    0.6752500000000000 C
   0.7615233333333333    0.7078800000000000    0.7335300000000000 C
   0.7708933333333333    0.6295800000000000    0.7576000000000001 C
   0.8073266666666666    0.8440700000000000    0.8626400000000000 O
   0.8191700000000000    0.9031900000000000    0.7623300000000000 O
   0.7792666666666667    0.6154300000000000    0.8220499999999999 O
   0.7687366666666666    0.5826200000000000    0.7049000000000000 O
