H2 O2
1.0
  38.7518387585759072    0.0000000000000000   -4.3926066098996639
  -0.0460895389794587   18.3428535775433588   -0.0569858508888306
   0.0000000000000000    0.0000000000000000   18.7510000000000012
H O
2 2
direct
   0.5656352462257398    1.0041722832001050    0.6923711167798329 H
   0.4344499257327640   -0.0046805476118491    0.3070887214290629 H
   0.5874466666666667    0.9777700000000000    0.6930800000000000 O
   0.4126900000000000    0.0218900000000000    0.3065100000000000 O
