H9 O6
1.0
   8.9189493994647506    0.0000000000000000   -0.0300434649694337
  -0.0873257702704029   30.3103721693014201   -0.0111093782327113
   0.0000000000000000    0.0000000000000000   15.0510000000000002
H O
9 6
direct
   0.0413561288863892    0.9130545270124820    0.6859879163240110 H
   0.6875873986044285    0.9117057262905659    0.7572670954407256 H
   0.8646368433490881    0.9241491847773320    0.7483266353836899 H
   0.2987003822980111    0.8722408599788051    0.7915222180489121 H
   0.3597021839757121    0.8815080836828021    0.6707381936793706 H
   0.5631958131217105    0.8586728878715616    0.5978077262271951 H
   0.6562521201355572    0.9524706983599530    0.5081474215560797 H
   0.7247423832905244    0.8564492019357537    0.5130642174834806 H
   0.7516882112275374    0.8820527732553003    0.5311088189178955 H
   0.0260300000000000    0.8924900000000000    0.6366300000000000 O
   0.7689400000000000    0.9202399999999999    0.7172800000000000 O
   0.3936700000000000    0.8570533333333332    0.7853000000000000 O
   0.5805300000000000    0.8461933333333332    0.6562700000000000 O
   0.6625900000000000    0.9839800000000000    0.5188700000000001 O
   0.7362600000000000    0.9137099999999999    0.5325500000000000 O
