P1 H7 C5 N1 O7
1.0
   8.9189493994647506    0.0000000000000000   -0.0300434649694337
  -0.0873257702704029   30.3103721693014201   -0.0111093782327113
   0.0000000000000000    0.0000000000000000   15.0510000000000002
P H C N O
1 7 5 1 7
direct
   0.4966200000000000    0.8784933333333333    0.7168000000000000 P
   0.6897500000000000    0.8830966666666666    0.8255900000000000 H
   0.6010000000000000    0.9354399999999999    0.8160400000000000 H
   0.6314600000000000    0.9766333333333332    0.6895100000000000 H
   0.8224100000000000    0.9843200000000000    0.6684000000000000 H
   0.9221500000000000    0.9582633333333332    0.7982900000000001 H
   0.9251400000000000    0.9001999999999999    0.8150100000000000 H
   0.3037300000000000    0.9233600000000000    0.6814100000000000 H
   0.6455900000000000    0.9073000000000000    0.7779100000000000 C
   0.7312100000000000    0.9599033333333333    0.6635700000000000 C
   0.7074100000000000    0.9511266666666667    0.5648500000000000 C
   0.9137800000000000    0.9261566666666666    0.7642700000000000 C
   0.0461200000000000    0.9194466666666666    0.7013300000000000 C
   0.7689400000000000    0.9202399999999999    0.7172800000000000 N
   0.7362600000000000    0.9137099999999999    0.5325500000000000 O
   0.6625900000000000    0.9839800000000000    0.5188700000000001 O
   0.1662300000000000    0.9395633333333333    0.7190000000000000 O
   0.0260300000000000    0.8924900000000000    0.6366300000000000 O
   0.4113100000000000    0.9131433333333333    0.6589200000000000 O
   0.3936700000000000    0.8570533333333332    0.7853000000000000 O
   0.5805300000000000    0.8461933333333332    0.6562700000000000 O
