H5 O3
1.0
  12.7719984748951454    0.0000000000000000   -0.0062415764093764
   0.0018345098579820   15.0999851694505978   -0.0210835705135033
   0.0000000000000000    0.0000000000000000   19.4450000000000003
H O
5 3
direct
   0.1106070867824270    0.9189373224802829    0.6936643681773991 H
   0.0328705328220418    0.8515402665849074    0.7399723697004975 H
   0.9624866031012991    0.1705798750603826    0.7023753700619700 H
   0.8205043686320618    0.0154924241372189    0.8424355485463626 H
   0.8938282257881733    0.0872812596550069    0.7706338996557446 H
   0.0938700000000000    0.8594100000000000    0.7101700000000000 O
   0.9199400000000000    0.1568100000000000    0.7422600000000000 O
   0.8410500000000000    0.0702000000000000    0.8201100000000000 O
