H6 C12 O4
1.0
  32.3160000000000025    0.0000000000000000    0.0000000000000020
  -0.8259862459067813   18.0851475725682924    0.0000000000000011
   0.0000000000000000    0.0000000000000000   37.6139999999999972
H C O
6 12 4
direct
   0.7183950000000000    0.5118600000000000    0.8311999999999999 H
   0.7267600000000000    0.4168700000000000    0.8782000000000000 H
   0.6947000000000000    0.3223400000000000    0.9196200000000000 H
   0.5642950000000000    0.2682000000000000    0.9142399999999999 H
   0.5562600000000000    0.3603400000000000    0.8656550000000001 H
   0.5879100000000000    0.4583400000000000    0.8258150000000000 H
   0.6483600000000000    0.5485300000000000    0.7977000000000001 C
   0.6523800000000000    0.4905600000000000    0.8259099999999999 C
   0.6918900000000000    0.4783600000000000    0.8408150000000000 C
   0.6963350000000000    0.4259100000000000    0.8668199999999999 C
   0.6614750000000000    0.3831100000000000    0.8796349999999999 C
   0.6647250000000000    0.3307900000000000    0.9073400000000000 C
   0.6302099999999999    0.2905600000000000    0.9197250000000000 C
   0.5908650000000000    0.3008300000000000    0.9040500000000000 C
   0.5866550000000000    0.3516100000000000    0.8772100000000000 C
   0.6214600000000000    0.3946300000000000    0.8644000000000001 C
   0.6180450000000000    0.4488300000000000    0.8375600000000001 C
   0.6341700000000000    0.2373700000000000    0.9500999999999999 C
   0.6130550000000000    0.5537800000000000    0.7828850000000001 O
   0.6809300000000000    0.5880600000000000    0.7906550000000000 O
   0.6694300000000000    0.2357600000000000    0.9651449999999999 O
   0.6018350000000000    0.1984000000000000    0.9585699999999999 O
