H6 C12 O4
1.0
  24.6391762226465403    0.0000000000000000   -2.1175209725925752
  -2.0260132167910565   19.5955621828726798   -4.2960193415018679
   0.0000000000000000    0.0000000000000000   20.1799999999999997
H C O
6 12 4
direct
   0.3123000000000000    0.6233800000000000    0.3373400000000000 H
   0.2415100000000000    0.8023600000000000    0.5096900000000000 H
   0.3408750000000000    0.7972100000000000    0.5063000000000000 H
   0.2168850000000000    0.5731600000000000    0.2938000000000000 H
   0.1175250000000000    0.5780100000000000    0.2973900000000000 H
   0.1460000000000000    0.7570100000000000    0.4607500000000000 H
   0.3920400000000000    0.7095100000000000    0.4171200000000000 C
   0.3321800000000000    0.7105800000000000    0.4201700000000000 C
   0.2962950000000000    0.6624800000000000    0.3743800000000000 C
   0.2393000000000000    0.6628200000000000    0.3759400000000000 C
   0.2190200000000000    0.7153100000000000    0.4247400000000000 C
   0.2568200000000000    0.7632200000000000    0.4718600000000000 C
   0.3120500000000000    0.7606000000000001    0.4701700000000000 C
   0.2015450000000000    0.6134800000000000    0.3303700000000000 C
   0.1463150000000000    0.6160300000000000    0.3320800000000000 C
   0.1261250000000000    0.6689700000000000    0.3788300000000000 C
   0.1620150000000000    0.7174900000000000    0.4241900000000000 C
   0.0662350000000000    0.6716200000000000    0.3799900000000000 C
   0.4226950000000000    0.7378100000000000    0.4710000000000000 O
   0.4091850000000000    0.6826300000000000    0.3606300000000000 O
   0.0358600000000000    0.6163900000000000    0.3528400000000000 O
   0.0486300000000000    0.7281300000000001    0.4060200000000000 O
