Zn16 H240 C303 N28 O96
1.0
  19.1743007718531402    0.0000000000000000    3.3223169491353701
   9.3930694318407166   24.7360605730011933    1.6999264623610313
   0.0000000000000000    0.0000000000000000   20.9349999999999987
Zn H C N O
16 240 303 28 96
direct
   0.5725300000000000    0.8737200000000001    0.4974100000000000 Zn
   0.3019800000000000    0.8754400000000000    0.0020300000000000 Zn
   0.4274150000000000    0.1263100000000000    0.5026000000000000 Zn
   0.6979950000000000    0.1245850000000000    0.9979900000000000 Zn
   0.0725300000000000    0.8737200000000001    0.4974100000000000 Zn
   0.8019800000000000    0.8754400000000000    0.0020300000000000 Zn
   0.9274150000000000    0.1263100000000000    0.5026000000000000 Zn
   0.1979950000000000    0.1245850000000000    0.9979900000000000 Zn
   0.5725300000000000    0.3737200000000000    0.4974100000000000 Zn
   0.3019800000000000    0.3754400000000000    0.0020300000000000 Zn
   0.4274150000000000    0.6263100000000000    0.5026000000000000 Zn
   0.6979950000000000    0.6245849999999999    0.9979900000000000 Zn
   0.0725300000000000    0.3737200000000000    0.4974100000000000 Zn
   0.8019800000000000    0.3754400000000000    0.0020300000000000 Zn
   0.9274150000000000    0.6263100000000000    0.5026000000000000 Zn
   0.1979950000000000    0.6245849999999999    0.9979900000000000 Zn
   0.4568452053210137    0.9157391270299138    0.4231528937479282 H
   0.5040535674986317    0.9570363590968201    0.4249836838154977 H
   0.3765473009844762    0.9164670121260813    0.0765611176097923 H
   0.2885797253575557    0.9576001136583203    0.0752931790802866 H
   0.6070100000000000    0.3796650000000000    0.8372900000000000 H
   0.6186650000000000    0.3344950000000000    0.7720100000000000 H
   0.5776400000000000    0.2985000000000000    0.8746100000000000 H
   0.8148900000000000    0.2520350000000000    0.8768800000000000 H
   0.8050550000000001    0.1773350000000000    0.9532700000000000 H
   0.5775350000000000    0.2244500000000000    0.9510900000000000 H
   0.7620250000000000    0.3801700000000000    0.6628400000000000 H
   0.7945200000000000    0.3352900000000000    0.7287000000000000 H
   0.8730800000000001    0.2983500000000000    0.6300800000000000 H
   0.6826650000000000    0.2525000000000000    0.6197900000000000 H
   0.7681000000000000    0.1783400000000000    0.5443200000000000 H
   0.9482800000000000    0.2250550000000000    0.5539500000000001 H
   0.7335849999999999    0.4007900000000000    0.8269900000000000 H
   0.7431200000000000    0.4424700000000000    0.7572000000000000 H
   0.5398150000000000    0.5610750000000000    0.8618900000000000 H
   0.7679500000000000    0.4550750000000000    0.8682500000000000 H
   0.5599800000000000    0.6236550000000000    0.9346700000000000 H
   0.7785650000000000    0.5222700000000000    0.9378300000000001 H
   0.6144200000000000    0.3997950000000000    0.6725500000000000 H
   0.5637750000000000    0.4419300000000000    0.7416300000000000 H
   0.6495250000000000    0.5610600000000000    0.6377699999999999 H
   0.5263850000000000    0.4546450000000000    0.6301099999999999 H
   0.5667200000000000    0.6247199999999999    0.5663800000000000 H
   0.4486300000000000    0.5228550000000000    0.5616600000000000 H
   0.1070100000000000    0.3796650000000000    0.8372900000000000 H
   0.1186650000000000    0.3344950000000000    0.7720100000000000 H
   0.0776400000000000    0.2985000000000000    0.8746100000000000 H
   0.3148900000000000    0.2520350000000000    0.8768800000000000 H
   0.3050550000000000    0.1773350000000000    0.9532700000000000 H
   0.0775350000000000    0.2244500000000000    0.9510900000000000 H
   0.2620250000000000    0.3801700000000000    0.6628400000000000 H
   0.2945200000000000    0.3352900000000000    0.7287000000000000 H
   0.3730800000000000    0.2983500000000000    0.6300800000000000 H
   0.1826650000000000    0.2525000000000000    0.6197900000000000 H
   0.2681000000000000    0.1783400000000000    0.5443200000000000 H
   0.4482800000000000    0.2250550000000000    0.5539500000000001 H
   0.2335850000000000    0.4007900000000000    0.8269900000000000 H
   0.2431200000000000    0.4424700000000000    0.7572000000000000 H
   0.0398150000000000    0.5610750000000000    0.8618900000000000 H
   0.2679500000000000    0.4550750000000000    0.8682500000000000 H
   0.0599800000000000    0.6236550000000000    0.9346700000000000 H
   0.2785650000000000    0.5222700000000000    0.9378300000000001 H
   0.1144200000000000    0.3997950000000000    0.6725500000000000 H
   0.0637750000000000    0.4419300000000000    0.7416300000000000 H
   0.1495250000000000    0.5610600000000000    0.6377699999999999 H
   0.0263850000000000    0.4546450000000000    0.6301099999999999 H
   0.0667200000000000    0.6247199999999999    0.5663800000000000 H
   0.9486300000000000    0.5228550000000000    0.5616600000000000 H
   0.8929500000000000    0.6203700000000000    0.1627200000000000 H
   0.8812850000000000    0.6655450000000001    0.2280000000000000 H
   0.9223200000000000    0.7015250000000000    0.1254100000000000 H
   0.6850700000000001    0.7480000000000000    0.1231200000000000 H
   0.6949149999999999    0.8227000000000000    0.0467300000000000 H
   0.9224350000000000    0.7755799999999999    0.0489200000000000 H
   0.7379300000000000    0.6198700000000000    0.3371700000000000 H
   0.7054300000000000    0.6647400000000000    0.2713000000000000 H
   0.6268700000000000    0.7016800000000000    0.3699300000000000 H
   0.8172800000000000    0.7475400000000000    0.3802200000000000 H
   0.7318450000000000    0.8216900000000000    0.4556900000000000 H
   0.5516700000000000    0.7749750000000000    0.4460600000000000 H
   0.7663700000000000    0.5992450000000000    0.1730300000000000 H
   0.7568400000000000    0.5575650000000000    0.2428100000000000 H
   0.9601500000000001    0.4389650000000000    0.1381200000000000 H
   0.7320100000000000    0.5449550000000000    0.1317600000000000 H
   0.9399850000000001    0.3763800000000000    0.0653400000000000 H
   0.7214000000000000    0.4777600000000000    0.0621900000000000 H
   0.8855299999999999    0.6002450000000000    0.3274600000000000 H
   0.9361800000000000    0.5581150000000000    0.2583800000000000 H
   0.8504300000000000    0.4389800000000000    0.3622400000000000 H
   0.9735750000000001    0.5453950000000000    0.3699000000000000 H
   0.9332300000000000    0.3753200000000000    0.4336200000000000 H
   0.0513300000000000    0.4771750000000000    0.4383500000000000 H
   0.3929500000000000    0.6203700000000000    0.1627200000000000 H
   0.3812850000000000    0.6655450000000001    0.2280000000000000 H
   0.4223200000000000    0.7015250000000000    0.1254100000000000 H
   0.1850700000000000    0.7480000000000000    0.1231200000000000 H
   0.1949150000000000    0.8227000000000000    0.0467300000000000 H
   0.4224350000000000    0.7755799999999999    0.0489200000000000 H
   0.2379300000000000    0.6198700000000000    0.3371700000000000 H
   0.2054300000000000    0.6647400000000000    0.2713000000000000 H
   0.1268700000000000    0.7016800000000000    0.3699300000000000 H
   0.3172800000000000    0.7475400000000000    0.3802200000000000 H
   0.2318450000000000    0.8216900000000000    0.4556900000000000 H
   0.0516700000000000    0.7749750000000000    0.4460600000000000 H
   0.2663700000000000    0.5992450000000000    0.1730300000000000 H
   0.2568400000000000    0.5575650000000000    0.2428100000000000 H
   0.4601500000000000    0.4389650000000000    0.1381200000000000 H
   0.2320100000000000    0.5449550000000000    0.1317600000000000 H
   0.4399850000000000    0.3763800000000000    0.0653400000000000 H
   0.2214000000000000    0.4777600000000000    0.0621900000000000 H
   0.3855300000000000    0.6002450000000000    0.3274600000000000 H
   0.4361800000000000    0.5581150000000000    0.2583800000000000 H
   0.3504300000000000    0.4389800000000000    0.3622400000000000 H
   0.4735750000000000    0.5453950000000000    0.3699000000000000 H
   0.4332300000000000    0.3753200000000000    0.4336200000000000 H
   0.5513300000000000    0.4771750000000000    0.4383500000000000 H
   0.2016700000000000    0.0780500000000000    0.4274100000000000 H
   0.1483350000000000    0.0000000000000000    0.4400800000000000 H
   0.3516200000000000    0.9956050000000001    0.5599300000000000 H
   0.2982900000000000    0.9219800000000000    0.5725900000000000 H
   0.4323450000000000    0.9268449999999999    0.6887400000000000 H
   0.3873850000000000    0.9282750000000000    0.8077900000000000 H
   0.4829400000000000    0.7549900000000000    0.8136400000000000 H
   0.5206750000000000    0.7533650000000001    0.6925800000000000 H
   0.9710050000000000    0.0774200000000000    0.0732800000000000 H
   0.0968350000000000    0.0000000000000000    0.0606500000000000 H
   0.9031300000000000    0.9958350000000000    0.9393600000000000 H
   0.0289650000000000    0.9226150000000000    0.9267300000000001 H
   0.5676099999999999    0.0731850000000000    0.3112800000000000 H
   0.6125750000000000    0.0717500000000000    0.1922300000000000 H
   0.4792900000000000    0.2466650000000000    0.3074200000000000 H
   0.5170399999999999    0.2450350000000000    0.1863700000000000 H
   0.7016700000000000    0.0780500000000000    0.4274100000000000 H
   0.6483350000000000    0.0000000000000000    0.4400800000000000 H
   0.8516200000000000    0.9956050000000001    0.5599300000000000 H
   0.7982899999999999    0.9219800000000000    0.5725900000000000 H
   0.9323450000000000    0.9268449999999999    0.6887400000000000 H
   0.8873850000000000    0.9282750000000000    0.8077900000000000 H
   0.9829399999999999    0.7549900000000000    0.8136400000000000 H
   0.0206750000000000    0.7533650000000001    0.6925800000000000 H
   0.4710050000000000    0.0774200000000000    0.0732800000000000 H
   0.5968350000000000    0.0000000000000000    0.0606500000000000 H
   0.4031300000000000    0.9958350000000000    0.9393600000000000 H
   0.5289650000000000    0.9226150000000000    0.9267300000000001 H
   0.0676100000000000    0.0731850000000000    0.3112800000000000 H
   0.1125750000000000    0.0717500000000000    0.1922300000000000 H
   0.9792900000000000    0.2466650000000000    0.3074200000000000 H
   0.0170400000000000    0.2450350000000000    0.1863700000000000 H
   0.3530791268232089    0.2790900061947489    0.0621576444860044 H
   0.2613129157554294    0.2978448237233471    0.0611595068151973 H
   0.1070100000000000    0.8796649999999999    0.8372900000000000 H
   0.1186650000000000    0.8344950000000000    0.7720100000000000 H
   0.0776400000000000    0.7985000000000000    0.8746100000000000 H
   0.3148900000000000    0.7520350000000000    0.8768800000000000 H
   0.3050550000000000    0.6773350000000000    0.9532700000000000 H
   0.0775350000000000    0.7244500000000000    0.9510900000000000 H
   0.2620250000000000    0.8801700000000000    0.6628400000000000 H
   0.2945200000000000    0.8352900000000000    0.7287000000000000 H
   0.3730800000000000    0.7983500000000000    0.6300800000000000 H
   0.1826650000000000    0.7524999999999999    0.6197900000000000 H
   0.2681000000000000    0.6783399999999999    0.5443200000000000 H
   0.4482800000000000    0.7250550000000000    0.5539500000000001 H
   0.2335850000000000    0.9007900000000000    0.8269900000000000 H
   0.2431200000000000    0.9424699999999999    0.7572000000000000 H
   0.0398150000000000    0.0610750000000000    0.8618900000000000 H
   0.2679500000000000    0.9550750000000000    0.8682500000000000 H
   0.0599800000000000    0.1236550000000000    0.9346700000000000 H
   0.2785650000000000    0.0222700000000000    0.9378300000000001 H
   0.1144200000000000    0.8997950000000000    0.6725500000000000 H
   0.0637750000000000    0.9419299999999999    0.7416300000000000 H
   0.1495250000000000    0.0610600000000000    0.6377699999999999 H
   0.0263850000000000    0.9546450000000000    0.6301099999999999 H
   0.0667200000000000    0.1247200000000000    0.5663800000000000 H
   0.9486300000000000    0.0228550000000000    0.5616600000000000 H
   0.6070100000000000    0.8796649999999999    0.8372900000000000 H
   0.6186650000000000    0.8344950000000000    0.7720100000000000 H
   0.5776400000000000    0.7985000000000000    0.8746100000000000 H
   0.8148900000000000    0.7520350000000000    0.8768800000000000 H
   0.8050550000000001    0.6773350000000000    0.9532700000000000 H
   0.5775350000000000    0.7244500000000000    0.9510900000000000 H
   0.7620250000000000    0.8801700000000000    0.6628400000000000 H
   0.7945200000000000    0.8352900000000000    0.7287000000000000 H
   0.8730800000000001    0.7983500000000000    0.6300800000000000 H
   0.6826650000000000    0.7524999999999999    0.6197900000000000 H
   0.7681000000000000    0.6783399999999999    0.5443200000000000 H
   0.9482800000000000    0.7250550000000000    0.5539500000000001 H
   0.7335849999999999    0.9007900000000000    0.8269900000000000 H
   0.7431200000000000    0.9424699999999999    0.7572000000000000 H
   0.5398150000000000    0.0610750000000000    0.8618900000000000 H
   0.7679500000000000    0.9550750000000000    0.8682500000000000 H
   0.5599800000000000    0.1236550000000000    0.9346700000000000 H
   0.7785650000000000    0.0222700000000000    0.9378300000000001 H
   0.6144200000000000    0.8997950000000000    0.6725500000000000 H
   0.5637750000000000    0.9419299999999999    0.7416300000000000 H
   0.6495250000000000    0.0610600000000000    0.6377699999999999 H
   0.5263850000000000    0.9546450000000000    0.6301099999999999 H
   0.5667200000000000    0.1247200000000000    0.5663800000000000 H
   0.4486300000000000    0.0228550000000000    0.5616600000000000 H
   0.8929500000000000    0.1203700000000000    0.1627200000000000 H
   0.8812850000000000    0.1655450000000000    0.2280000000000000 H
   0.9223200000000000    0.2015250000000000    0.1254100000000000 H
   0.6850700000000001    0.2480000000000000    0.1231200000000000 H
   0.6949149999999999    0.3227000000000000    0.0467300000000000 H
   0.9224350000000000    0.2755800000000000    0.0489200000000000 H
   0.7379300000000000    0.1198700000000000    0.3371700000000000 H
   0.7054300000000000    0.1647400000000000    0.2713000000000000 H
   0.6268700000000000    0.2016800000000000    0.3699300000000000 H
   0.8172800000000000    0.2475400000000000    0.3802200000000000 H
   0.7318450000000000    0.3216900000000000    0.4556900000000000 H
   0.5516700000000000    0.2749750000000000    0.4460600000000000 H
   0.7663700000000000    0.0992450000000000    0.1730300000000000 H
   0.7568400000000000    0.0575650000000000    0.2428100000000000 H
   0.9601500000000001    0.9389650000000000    0.1381200000000000 H
   0.7320100000000000    0.0449550000000000    0.1317600000000000 H
   0.9399850000000001    0.8763799999999999    0.0653400000000000 H
   0.7214000000000000    0.9777600000000000    0.0621900000000000 H
   0.8855299999999999    0.1002450000000000    0.3274600000000000 H
   0.9361800000000000    0.0581150000000000    0.2583800000000000 H
   0.8504300000000000    0.9389799999999999    0.3622400000000000 H
   0.9735750000000001    0.0453950000000000    0.3699000000000000 H
   0.9332300000000000    0.8753200000000000    0.4336200000000000 H
   0.0513300000000000    0.9771750000000000    0.4383500000000000 H
   0.1176653970834532    0.2785482035160010    0.4352568976491121 H
   0.1905687920047722    0.2971414895970543    0.4391121420578960 H
   0.2016700000000000    0.5780500000000000    0.4274100000000000 H
   0.1483350000000000    0.5000000000000000    0.4400800000000000 H
   0.3516200000000000    0.4956050000000000    0.5599300000000000 H
   0.2982900000000000    0.4219800000000000    0.5725900000000000 H
   0.4323450000000000    0.4268450000000000    0.6887400000000000 H
   0.3873850000000000    0.4282750000000000    0.8077900000000000 H
   0.4829400000000000    0.2549900000000000    0.8136400000000000 H
   0.5206750000000000    0.2533650000000000    0.6925800000000000 H
   0.9710050000000000    0.5774200000000000    0.0732800000000000 H
   0.0968350000000000    0.5000000000000000    0.0606500000000000 H
   0.9031300000000000    0.4958350000000000    0.9393600000000000 H
   0.0289650000000000    0.4226150000000000    0.9267300000000001 H
   0.5676099999999999    0.5731850000000001    0.3112800000000000 H
   0.6125750000000000    0.5717500000000000    0.1922300000000000 H
   0.4792900000000000    0.7466650000000000    0.3074200000000000 H
   0.5170399999999999    0.7450350000000000    0.1863700000000000 H
   0.7016700000000000    0.5780500000000000    0.4274100000000000 H
   0.6483350000000000    0.5000000000000000    0.4400800000000000 H
   0.8516200000000000    0.4956050000000000    0.5599300000000000 H
   0.7982899999999999    0.4219800000000000    0.5725900000000000 H
   0.9323450000000000    0.4268450000000000    0.6887400000000000 H
   0.8873850000000000    0.4282750000000000    0.8077900000000000 H
   0.9829399999999999    0.2549900000000000    0.8136400000000000 H
   0.0206750000000000    0.2533650000000000    0.6925800000000000 H
   0.4710050000000000    0.5774200000000000    0.0732800000000000 H
   0.5968350000000000    0.5000000000000000    0.0606500000000000 H
   0.4031300000000000    0.4958350000000000    0.9393600000000000 H
   0.5289650000000000    0.4226150000000000    0.9267300000000001 H
   0.0676100000000000    0.5731850000000001    0.3112800000000000 H
   0.1125750000000000    0.5717500000000000    0.1922300000000000 H
   0.9792900000000000    0.7466650000000000    0.3074200000000000 H
   0.0170400000000000    0.7450350000000000    0.1863700000000000 H
   0.6462749999999999    0.3552050000000000    0.7970200000000000 C
   0.6982200000000001    0.2796650000000000    0.8666100000000000 C
   0.6301350000000000    0.2726000000000000    0.8891200000000000 C
   0.7621400000000000    0.2456700000000000    0.8911600000000000 C
   0.7568300000000000    0.2046350000000000    0.9333300000000000 C
   0.6296900000000000    0.2305250000000000    0.9320300000000000 C
   0.7468399999999999    0.3555350000000000    0.7031300000000000 C
   0.7713650000000001    0.2797850000000000    0.6339200000000000 C
   0.8467700000000000    0.2727350000000000    0.6137000000000000 C
   0.7418650000000000    0.2460750000000000    0.6075300000000000 C
   0.7887200000000000    0.2053300000000000    0.5658200000000000 C
   0.8898150000000000    0.2309900000000000    0.5710600000000000 C
   0.7050600000000000    0.4257900000000000    0.7887200000000000 C
   0.6530000000000000    0.5036300000000000    0.8565800000000000 C
   0.5939150000000000    0.5517900000000000    0.8769200000000000 C
   0.7208700000000000    0.4926350000000000    0.8787900000000000 C
   0.6050700000000000    0.5863950000000000    0.9175300000000000 C
   0.7268600000000001    0.5295050000000000    0.9193500000000000 C
   0.6182400000000000    0.4251600000000000    0.7103400000000000 C
   0.5932800000000000    0.5033100000000000    0.6422800000000000 C
   0.6045300000000000    0.5518700000000000    0.6226400000000000 C
   0.5361600000000000    0.4924650000000000    0.6200400000000000 C
   0.5587100000000000    0.5870700000000000    0.5827700000000000 C
   0.4932900000000000    0.5299400000000000    0.5801900000000000 C
   0.6786950000000000    0.3910600000000000    0.7497900000000000 C
   0.1462750000000000    0.3552050000000000    0.7970200000000000 C
   0.1982200000000000    0.2796650000000000    0.8666100000000000 C
   0.1301350000000000    0.2726000000000000    0.8891200000000000 C
   0.2621400000000000    0.2456700000000000    0.8911600000000000 C
   0.2568300000000000    0.2046350000000000    0.9333300000000000 C
   0.1296900000000000    0.2305250000000000    0.9320300000000000 C
   0.2468400000000000    0.3555350000000000    0.7031300000000000 C
   0.2713650000000000    0.2797850000000000    0.6339200000000000 C
   0.3467700000000000    0.2727350000000000    0.6137000000000000 C
   0.2418650000000000    0.2460750000000000    0.6075300000000000 C
   0.2887200000000000    0.2053300000000000    0.5658200000000000 C
   0.3898150000000000    0.2309900000000000    0.5710600000000000 C
   0.2050600000000000    0.4257900000000000    0.7887200000000000 C
   0.1530000000000000    0.5036300000000000    0.8565800000000000 C
   0.0939150000000000    0.5517900000000000    0.8769200000000000 C
   0.2208700000000000    0.4926350000000000    0.8787900000000000 C
   0.1050700000000000    0.5863950000000000    0.9175300000000000 C
   0.2268600000000000    0.5295050000000000    0.9193500000000000 C
   0.1182400000000000    0.4251600000000000    0.7103400000000000 C
   0.0932800000000000    0.5033100000000000    0.6422800000000000 C
   0.1045300000000000    0.5518700000000000    0.6226400000000000 C
   0.0361600000000000    0.4924650000000000    0.6200400000000000 C
   0.0587100000000000    0.5870700000000000    0.5827700000000000 C
   0.9932900000000000    0.5299400000000000    0.5801900000000000 C
   0.1786950000000000    0.3910600000000000    0.7497900000000000 C
   0.8536800000000000    0.6448300000000000    0.2029900000000000 C
   0.8017400000000000    0.7203650000000000    0.1334000000000000 C
   0.8698300000000000    0.7274300000000000    0.1108900000000000 C
   0.7378250000000000    0.7543599999999999    0.1088500000000000 C
   0.7431350000000000    0.7953950000000001    0.0666800000000000 C
   0.8702750000000000    0.7695000000000001    0.0679800000000000 C
   0.7531099999999999    0.6445000000000000    0.2968700000000000 C
   0.7285850000000000    0.7202550000000000    0.3660800000000000 C
   0.6531800000000000    0.7273000000000001    0.3863100000000000 C
   0.7580850000000000    0.7539650000000000    0.3924800000000000 C
   0.7112300000000000    0.7947050000000000    0.4342000000000000 C
   0.6101350000000000    0.7690450000000000    0.4289500000000000 C
   0.7948999999999999    0.5742450000000000    0.2112900000000000 C
   0.8469599999999999    0.4964050000000000    0.1434300000000000 C
   0.9060450000000000    0.4482450000000000    0.1230900000000000 C
   0.7790900000000001    0.5073950000000000    0.1212200000000000 C
   0.8948950000000000    0.4136400000000000    0.0824800000000000 C
   0.7731000000000000    0.4705250000000000    0.0806600000000000 C
   0.8817150000000000    0.5748800000000001    0.2896700000000000 C
   0.9066750000000000    0.4967250000000000    0.3577300000000000 C
   0.8954250000000000    0.4481700000000000    0.3773700000000000 C
   0.9638000000000000    0.5075700000000000    0.3799600000000000 C
   0.9412450000000000    0.4129700000000000    0.4172300000000000 C
   0.0066700000000000    0.4700950000000000    0.4198200000000000 C
   0.8212600000000000    0.6089800000000000    0.2502200000000000 C
   0.3536800000000000    0.6448300000000000    0.2029900000000000 C
   0.3017400000000000    0.7203650000000000    0.1334000000000000 C
   0.3698300000000000    0.7274300000000000    0.1108900000000000 C
   0.2378250000000000    0.7543599999999999    0.1088500000000000 C
   0.2431350000000000    0.7953950000000001    0.0666800000000000 C
   0.3702750000000000    0.7695000000000001    0.0679800000000000 C
   0.2531100000000000    0.6445000000000000    0.2968700000000000 C
   0.2285850000000000    0.7202550000000000    0.3660800000000000 C
   0.1531800000000000    0.7273000000000001    0.3863100000000000 C
   0.2580850000000000    0.7539650000000000    0.3924800000000000 C
   0.2112300000000000    0.7947050000000000    0.4342000000000000 C
   0.1101350000000000    0.7690450000000000    0.4289500000000000 C
   0.2949000000000000    0.5742450000000000    0.2112900000000000 C
   0.3469600000000000    0.4964050000000000    0.1434300000000000 C
   0.4060450000000000    0.4482450000000000    0.1230900000000000 C
   0.2790900000000000    0.5073950000000000    0.1212200000000000 C
   0.3948950000000000    0.4136400000000000    0.0824800000000000 C
   0.2731000000000000    0.4705250000000000    0.0806600000000000 C
   0.3817150000000000    0.5748800000000001    0.2896700000000000 C
   0.4066750000000000    0.4967250000000000    0.3577300000000000 C
   0.3954250000000000    0.4481700000000000    0.3773700000000000 C
   0.4638000000000000    0.5075700000000000    0.3799600000000000 C
   0.4412450000000000    0.4129700000000000    0.4172300000000000 C
   0.5066700000000000    0.4700950000000000    0.4198200000000000 C
   0.3212600000000000    0.6089800000000000    0.2502200000000000 C
   0.3131100000000000    0.0852900000000000    0.4821000000000000 C
   0.1868550000000000    0.9147350000000001    0.5179000000000000 C
   0.2226150000000000    0.0435450000000000    0.4589800000000000 C
   0.2798950000000000    0.0415300000000000    0.4927100000000000 C
   0.1931800000000000    0.0000000000000000    0.4659800000000000 C
   0.2200600000000000    0.9585000000000000    0.5072900000000000 C
   0.3067750000000000    0.9975300000000000    0.5340200000000001 C
   0.2773400000000000    0.9564850000000000    0.5410300000000000 C
   0.5061300000000000    0.8379000000000000    0.6110000000000000 C
   0.4067100000000000    0.8415150000000000    0.8904500000000000 C
   0.4423700000000000    0.8891750000000000    0.7160500000000000 C
   0.4176150000000000    0.8899750000000000    0.7826300000000000 C
   0.4708900000000000    0.7923950000000000    0.7855900000000000 C
   0.4926550000000000    0.7915050000000000    0.7185800000000000 C
   0.4795500000000000    0.8398950000000001    0.6831199999999999 C
   0.4322000000000000    0.8416100000000000    0.8183000000000000 C
   0.1472050000000000    0.9152450000000000    0.9820500000000000 C
   0.8527600000000000    0.0847850000000000    0.0179600000000000 C
   0.9842100000000000    0.0432050000000000    0.0413900000000000 C
   0.9291450000000000    0.0413300000000000    0.0072600000000000 C
   0.0540850000000000    0.0000000000000000    0.0344200000000000 C
   0.0708200000000000    0.9587049999999999    0.9927600000000000 C
   0.9458800000000001    0.9976600000000000    0.9655899999999999 C
   0.0157600000000000    0.9568250000000000    0.9586200000000000 C
   0.4938250000000000    0.1621350000000000    0.3890100000000000 C
   0.5932700000000000    0.1585050000000000    0.1095600000000000 C
   0.5575900000000000    0.1108550000000000    0.2839600000000000 C
   0.5823500000000000    0.1100500000000000    0.2173900000000000 C
   0.5073150000000000    0.2085250000000000    0.2814300000000000 C
   0.5290800000000000    0.2076300000000000    0.2144200000000000 C
   0.5677700000000000    0.1584150000000000    0.1817200000000000 C
   0.5204150000000000    0.1601350000000000    0.3169000000000000 C
   0.8131100000000000    0.0852900000000000    0.4821000000000000 C
   0.6868550000000000    0.9147350000000001    0.5179000000000000 C
   0.7226150000000000    0.0435450000000000    0.4589800000000000 C
   0.7798950000000000    0.0415300000000000    0.4927100000000000 C
   0.6931800000000000    0.0000000000000000    0.4659800000000000 C
   0.7200600000000000    0.9585000000000000    0.5072900000000000 C
   0.8067750000000000    0.9975300000000000    0.5340200000000001 C
   0.7773399999999999    0.9564850000000000    0.5410300000000000 C
   0.0061300000000000    0.8379000000000000    0.6110000000000000 C
   0.9067100000000000    0.8415150000000000    0.8904500000000000 C
   0.9423699999999999    0.8891750000000000    0.7160500000000000 C
   0.9176150000000001    0.8899750000000000    0.7826300000000000 C
   0.9708900000000000    0.7923950000000000    0.7855900000000000 C
   0.9926550000000001    0.7915050000000000    0.7185800000000000 C
   0.9795499999999999    0.8398950000000001    0.6831199999999999 C
   0.9321999999999999    0.8416100000000000    0.8183000000000000 C
   0.6472050000000000    0.9152450000000000    0.9820500000000000 C
   0.3527600000000000    0.0847850000000000    0.0179600000000000 C
   0.4842100000000000    0.0432050000000000    0.0413900000000000 C
   0.4291450000000000    0.0413300000000000    0.0072600000000000 C
   0.5540850000000000    0.0000000000000000    0.0344200000000000 C
   0.5708200000000000    0.9587049999999999    0.9927600000000000 C
   0.4458800000000000    0.9976600000000000    0.9655899999999999 C
   0.5157600000000000    0.9568250000000000    0.9586200000000000 C
   0.9938250000000000    0.1621350000000000    0.3890100000000000 C
   0.0932700000000000    0.1585050000000000    0.1095600000000000 C
   0.0575900000000000    0.1108550000000000    0.2839600000000000 C
   0.0823500000000000    0.1100500000000000    0.2173900000000000 C
   0.0073150000000000    0.2085250000000000    0.2814300000000000 C
   0.0290800000000000    0.2076300000000000    0.2144200000000000 C
   0.0677700000000000    0.1584150000000000    0.1817200000000000 C
   0.0204150000000000    0.1601350000000000    0.3169000000000000 C
   0.1462750000000000    0.8552050000000000    0.7970200000000000 C
   0.1982200000000000    0.7796650000000001    0.8666100000000000 C
   0.1301350000000000    0.7726000000000000    0.8891200000000000 C
   0.2621400000000000    0.7456700000000001    0.8911600000000000 C
   0.2568300000000000    0.7046350000000000    0.9333300000000000 C
   0.1296900000000000    0.7305250000000000    0.9320300000000000 C
   0.2468400000000000    0.8555349999999999    0.7031300000000000 C
   0.2713650000000000    0.7797850000000000    0.6339200000000000 C
   0.3467700000000000    0.7727349999999999    0.6137000000000000 C
   0.2418650000000000    0.7460750000000000    0.6075300000000000 C
   0.2887200000000000    0.7053300000000000    0.5658200000000000 C
   0.3898150000000000    0.7309900000000000    0.5710600000000000 C
   0.2050600000000000    0.9257900000000000    0.7887200000000000 C
   0.1530000000000000    0.0036300000000000    0.8565800000000000 C
   0.0939150000000000    0.0517900000000000    0.8769200000000000 C
   0.2208700000000000    0.9926349999999999    0.8787900000000000 C
   0.1050700000000000    0.0863950000000000    0.9175300000000000 C