H3 C4 N2 O1
1.0
  16.0859998015469259    0.0000000000000000    0.0025267829608928
   0.0755838559512563   16.0967028008016158   -0.0620888346242592
   0.0000000000000000    0.0000000000000000   32.1899999999999977
H C N O
3 4 2 1
direct
   0.4211500000000000    0.7325400000000000    0.9618550000000000 H
   0.4214000000000000    0.9228700000000000    0.8668899999999999 H
   0.5003700000000000    0.8083700000000000    0.9049050000000001 H
   0.3945300000000000    0.7849200000000000    0.9448900000000000 C
   0.3946500000000000    0.8889899999999999    0.8929650000000000 C
   0.2776600000000000    0.8739300000000000    0.9371149999999999 C
   0.4374600000000000    0.8260900000000000    0.9136000000000000 C
   0.3173700000000000    0.8068600000000000    0.9559100000000000 N
   0.3174800000000000    0.9114200000000000    0.9037299999999999 N
   0.2088000000000000    0.8992599999999999    0.9496300000000000 O
