Cu24 H141 C188 N94 O47
1.0
  16.0859998015469259    0.0000000000000000    0.0025267829608928
   0.0755838559512563   16.0967028008016158   -0.0620888346242592
   0.0000000000000000    0.0000000000000000   32.1899999999999977
Cu H C N O
24 141 188 94 47
direct
   0.9999700000000000    0.2502000000000000    0.3749750000000000 Cu
   0.7503300000000001    0.5002600000000000    0.1251300000000000 Cu
   0.7499500000000000    0.0000900000000000    0.1249600000000000 Cu
   0.2499000000000000    0.7497900000000000    0.2500350000000000 Cu
   0.2500000000000000    0.7501000000000000    0.0000800000000000 Cu
   0.5000900000000000    0.7502100000000000    0.1250150000000000 Cu
   0.0000900000000000    0.7495500000000000    0.1249400000000000 Cu
   0.2496700000000000    0.5000599999999999    0.3748500000000000 Cu
   0.2501100000000000    0.9998400000000000    0.3750050000000000 Cu
   0.7501000000000000    0.2501200000000000    0.2499450000000000 Cu
   0.7500200000000000    0.2497300000000000    0.0000900000000000 Cu
   0.4999600000000000    0.2497200000000000    0.3749800000000000 Cu
   0.9999700000000000    0.2502000000000000    0.8749750000000001 Cu
   0.7503300000000001    0.5002600000000000    0.6251300000000000 Cu
   0.7499500000000000    0.0000900000000000    0.6249600000000000 Cu
   0.2499000000000000    0.7497900000000000    0.7500350000000000 Cu
   0.2500000000000000    0.7501000000000000    0.5000800000000000 Cu
   0.5000900000000000    0.7502100000000000    0.6250150000000000 Cu
   0.0000900000000000    0.7495500000000000    0.6249400000000001 Cu
   0.2496700000000000    0.5000599999999999    0.8748500000000000 Cu
   0.2501100000000000    0.9998400000000000    0.8750050000000000 Cu
   0.7501000000000000    0.2501200000000000    0.7499450000000000 Cu
   0.7500200000000000    0.2497300000000000    0.5000900000000000 Cu
   0.4999600000000000    0.2497200000000000    0.8749800000000000 Cu
   0.5767200000000000    0.0782200000000000    0.3665100000000000 H
   0.9228900000000000    0.4216100000000000    0.3672050000000000 H
   0.9237600000000000    0.0791800000000000    0.3834650000000000 H
   0.5759200000000000    0.4207900000000000    0.3840400000000000 H
   0.7333900000000000    0.5756800000000000    0.0393050000000000 H
   0.7327100000000000    0.9243300000000000    0.2107150000000000 H
   0.7666200000000000    0.9231400000000000    0.0394450000000000 H
   0.7675700000000000    0.5774600000000000    0.2110000000000000 H
   0.0781900000000000    0.7333300000000000    0.2883450000000000 H
   0.4211500000000000    0.7325400000000000    0.4618550000000000 H
   0.0783900000000000    0.7680600000000000    0.4620250000000000 H
   0.4213200000000000    0.7655800000000000    0.2882000000000000 H
   0.5784300000000000    0.0769800000000000    0.1332150000000000 H
   0.9218300000000000    0.4231800000000000    0.1335000000000000 H
   0.5792300000000000    0.4247300000000000    0.1166550000000000 H
   0.9216700000000000    0.0758700000000000    0.1161400000000000 H
   0.0765900000000000    0.2342300000000000    0.4604700000000000 H
   0.4235500000000000    0.2317400000000000    0.2892400000000000 H
   0.4234900000000000    0.2669400000000000    0.4605600000000000 H
   0.0763800000000000    0.2666000000000000    0.2892000000000000 H
   0.2342100000000000    0.5784500000000000    0.2115700000000000 H
   0.2328100000000000    0.9219800000000000    0.0382900000000000 H
   0.2685200000000000    0.5784200000000000    0.0379700000000000 H
   0.2666800000000000    0.9207500000000000    0.2118000000000000 H
   0.4234300000000000    0.9219400000000000    0.1335500000000000 H
   0.0775100000000000    0.5778100000000000    0.1330500000000000 H
   0.0762600000000000    0.9205400000000000    0.1164800000000000 H
   0.4244400000000000    0.5788900000000000    0.1160900000000000 H
   0.2667400000000000    0.4243100000000000    0.4603750000000000 H
   0.2675300000000000    0.0756800000000000    0.2892350000000000 H
   0.2336700000000000    0.0765400000000000    0.4605550000000000 H
   0.2326400000000000    0.4228800000000000    0.2891150000000000 H
   0.9217800000000000    0.2667100000000000    0.2116250000000000 H
   0.5785700000000000    0.2674500000000000    0.0383050000000000 H
   0.9216600000000000    0.2319900000000000    0.0382100000000000 H
   0.5788800000000000    0.2346200000000000    0.2117450000000000 H
   0.4214000000000000    0.9228700000000000    0.3668900000000000 H
   0.0780100000000000    0.5769800000000000    0.3666800000000000 H
   0.4210000000000000    0.5756300000000000    0.3834000000000000 H
   0.0784800000000000    0.9239400000000000    0.3839000000000000 H
   0.9236799999999999    0.7656300000000000    0.0391800000000000 H
   0.5766300000000000    0.7685800000000000    0.2108750000000000 H
   0.5767000000000000    0.7328600000000000    0.0394250000000000 H
   0.9238400000000000    0.7334100000000000    0.2106850000000000 H
   0.7659899999999999    0.4212500000000000    0.2884850000000000 H
   0.7672900000000000    0.0782600000000000    0.4617850000000000 H
   0.7319900000000000    0.4209900000000000    0.4623500000000000 H
   0.7333800000000000    0.0790000000000000    0.2880850000000000 H
   0.6911200000000000    0.9990900000000000    0.4046450000000000 H
   0.8081199999999999    0.5003900000000000    0.4055500000000000 H
   0.8097200000000000    0.0001800000000000    0.3452400000000000 H
   0.6896600000000001    0.5000000000000000    0.3459650000000000 H
   0.8097400000000000    0.6890700000000000    0.4996950000000000 H
   0.8094300000000000    0.8103100000000000    0.2502450000000000 H
   0.6907100000000000    0.8087500000000000    0.4999150000000000 H
   0.6909999999999999    0.6922900000000000    0.2504200000000000 H
   0.9993700000000000    0.8099800000000000    0.3456950000000000 H
   0.5003700000000000    0.8083700000000000    0.4049050000000000 H
   0.9990700000000000    0.6917800000000000    0.4049650000000000 H
   0.5002300000000000    0.6891000000000000    0.3452800000000000 H
   0.4994400000000000    0.1914800000000000    0.0952300000000000 H
   0.0000000000000000    0.3083400000000000    0.0952850000000000 H
   0.4999400000000000    0.3111500000000000    0.1547000000000000 H
   0.0000000000000000    0.1899000000000000    0.1543500000000000 H
   0.1907200000000000    0.3105900000000000    0.4999400000000000 H
   0.3091500000000000    0.3080000000000000    0.2496700000000000 H
   0.3096000000000000    0.1909000000000000    0.0000000000000000 H
   0.1909000000000000    0.1897400000000000    0.2496900000000000 H
   0.3108500000000000    0.4995900000000000    0.1542300000000000 H
   0.3091800000000000    0.0000000000000000    0.0953600000000000 H
   0.1923300000000000    0.4991000000000000    0.0947550000000000 H
   0.1903400000000000    0.9995400000000000    0.1546650000000000 H
   0.5767200000000000    0.0782200000000000    0.8665100000000000 H
   0.9228900000000000    0.4216100000000000    0.8672050000000000 H
   0.9237600000000000    0.0791800000000000    0.8834649999999999 H
   0.5759200000000000    0.4207900000000000    0.8840399999999999 H
   0.7333900000000000    0.5756800000000000    0.5393050000000000 H
   0.7327100000000000    0.9243300000000000    0.7107150000000000 H
   0.7666200000000000    0.9231400000000000    0.5394450000000000 H
   0.7675700000000000    0.5774600000000000    0.7110000000000000 H
   0.0781900000000000    0.7333300000000000    0.7883450000000001 H
   0.0783900000000000    0.7680600000000000    0.9620250000000000 H
   0.4213200000000000    0.7655800000000000    0.7882000000000000 H
   0.5784300000000000    0.0769800000000000    0.6332150000000000 H
   0.9218300000000000    0.4231800000000000    0.6335000000000000 H
   0.5792300000000000    0.4247300000000000    0.6166550000000000 H
   0.9216700000000000    0.0758700000000000    0.6161400000000000 H
   0.0765900000000000    0.2342300000000000    0.9604699999999999 H
   0.4235500000000000    0.2317400000000000    0.7892399999999999 H
   0.4234900000000000    0.2669400000000000    0.9605600000000001 H
   0.0763800000000000    0.2666000000000000    0.7892000000000000 H
   0.2342100000000000    0.5784500000000000    0.7115700000000000 H
   0.2328100000000000    0.9219800000000000    0.5382900000000000 H
   0.2685200000000000    0.5784200000000000    0.5379699999999999 H
   0.2666800000000000    0.9207500000000000    0.7118000000000000 H
   0.4234300000000000    0.9219400000000000    0.6335500000000001 H
   0.0775100000000000    0.5778100000000000    0.6330500000000000 H
   0.0762600000000000    0.9205400000000000    0.6164800000000000 H
   0.4244400000000000    0.5788900000000000    0.6160900000000000 H
   0.2667400000000000    0.4243100000000000    0.9603750000000000 H
   0.2675300000000000    0.0756800000000000    0.7892350000000000 H
   0.2336700000000000    0.0765400000000000    0.9605550000000000 H
   0.2326400000000000    0.4228800000000000    0.7891150000000000 H
   0.9217800000000000    0.2667100000000000    0.7116250000000000 H
   0.5785700000000000    0.2674500000000000    0.5383050000000000 H
   0.9216600000000000    0.2319900000000000    0.5382100000000000 H
   0.5788800000000000    0.2346200000000000    0.7117450000000000 H
   0.0780100000000000    0.5769800000000000    0.8666800000000000 H
   0.4210000000000000    0.5756300000000000    0.8834000000000000 H
   0.0784800000000000    0.9239400000000000    0.8839000000000000 H
   0.9236799999999999    0.7656300000000000    0.5391800000000000 H
   0.5766300000000000    0.7685800000000000    0.7108750000000000 H
   0.5767000000000000    0.7328600000000000    0.5394250000000000 H
   0.9238400000000000    0.7334100000000000    0.7106850000000000 H
   0.7659899999999999    0.4212500000000000    0.7884850000000000 H
   0.7672900000000000    0.0782600000000000    0.9617850000000000 H
   0.7319900000000000    0.4209900000000000    0.9623500000000000 H
   0.7333800000000000    0.0790000000000000    0.7880849999999999 H
   0.6911200000000000    0.9990900000000000    0.9046449999999999 H
   0.8081199999999999    0.5003900000000000    0.9055500000000001 H
   0.8097200000000000    0.0001800000000000    0.8452400000000000 H
   0.6896600000000001    0.5000000000000000    0.8459650000000001 H
   0.8097400000000000    0.6890700000000000    0.9996950000000000 H
   0.8094300000000000    0.8103100000000000    0.7502450000000001 H
   0.6907100000000000    0.8087500000000000    0.9999150000000000 H
   0.6909999999999999    0.6922900000000000    0.7504200000000000 H
   0.9993700000000000    0.8099800000000000    0.8456950000000000 H
   0.9990700000000000    0.6917800000000000    0.9049650000000000 H
   0.5002300000000000    0.6891000000000000    0.8452800000000000 H
   0.4994400000000000    0.1914800000000000    0.5952300000000000 H
   0.0000000000000000    0.3083400000000000    0.5952850000000000 H
   0.4999400000000000    0.3111500000000000    0.6547000000000001 H
   0.0000000000000000    0.1899000000000000    0.6543500000000000 H
   0.1907200000000000    0.3105900000000000    0.9999400000000001 H
   0.3091500000000000    0.3080000000000000    0.7496700000000001 H
   0.3096000000000000    0.1909000000000000    0.5000000000000000 H
   0.1909000000000000    0.1897400000000000    0.7496900000000000 H
   0.3108500000000000    0.4995900000000000    0.6542300000000000 H
   0.3091800000000000    0.0000000000000000    0.5953600000000000 H
   0.1923300000000000    0.4991000000000000    0.5947550000000000 H
   0.1903400000000000    0.9995400000000000    0.6546650000000001 H
   0.6107100000000000    0.1049100000000000    0.3926800000000000 C
   0.8889200000000000    0.3948200000000000    0.3932600000000000 C
   0.8897500000000000    0.1056700000000000    0.3572750000000000 C
   0.6099500000000000    0.3943200000000000    0.3577450000000000 C
   0.7856100000000000    0.6097300000000000    0.0526250000000000 C
   0.7851700000000000    0.8901100000000000    0.1974150000000000 C
   0.7144300000000000    0.8892400000000000    0.0527700000000000 C
   0.7150800000000000    0.6113800000000000    0.1976850000000000 C
   0.1048300000000000    0.7856300000000001    0.3053650000000000 C
   0.3945300000000000    0.7849200000000000    0.4448900000000000 C
   0.1049200000000000    0.7155000000000000    0.4449650000000000 C
   0.3945600000000000    0.7135400000000000    0.3052100000000000 C
   0.6051700000000000    0.1108800000000000    0.1071450000000000 C
   0.8951700000000000    0.3891300000000000    0.1073300000000000 C
   0.6057900000000001    0.3906100000000000    0.1427500000000000 C
   0.8951200000000000    0.1100100000000000    0.1423900000000000 C
   0.1105100000000000    0.2863300000000000    0.4471250000000000 C
   0.3895000000000000    0.2843700000000000    0.3024850000000000 C
   0.3895900000000000    0.2146300000000000    0.4472150000000000 C
   0.1105100000000000    0.2142700000000000    0.3024950000000000 C
   0.2863200000000000    0.6051800000000001    0.1945600000000000 C
   0.2851700000000000    0.8952400000000000    0.0552950000000000 C
   0.2158800000000000    0.6048800000000000    0.0549500000000000 C
   0.2144000000000000    0.8941800000000000    0.1948050000000000 C
   0.3894400000000000    0.8952200000000000    0.1073900000000000 C
   0.1113800000000000    0.6045700000000001    0.1069800000000000 C
   0.1102800000000000    0.8940500000000000    0.1426650000000000 C
   0.3903200000000000    0.6054000000000000    0.1423500000000000 C
   0.2145000000000000    0.3902500000000000    0.4470800000000000 C
   0.2150400000000000    0.1098800000000000    0.3025100000000000 C
   0.2858000000000000    0.1105100000000000    0.4472100000000000 C
   0.2851000000000000    0.3888900000000000    0.3024000000000000 C
   0.8951700000000000    0.2143700000000000    0.1946200000000000 C
   0.6052300000000000    0.2150500000000000    0.0552400000000000 C
   0.8950900000000001    0.2845800000000000    0.0552300000000000 C
   0.6056300000000000    0.2866800000000000    0.1947700000000000 C
   0.3946500000000000    0.8889899999999999    0.3929650000000000 C
   0.1047300000000000    0.6110000000000000    0.3928350000000000 C
   0.3944000000000000    0.6096700000000000    0.3572650000000000 C
   0.1049800000000000    0.8898700000000000    0.3576550000000000 C
   0.8897000000000000    0.7136100000000000    0.0525600000000000 C
   0.6106300000000000    0.7159200000000000    0.1976250000000000 C
   0.6105900000000000    0.7851900000000001    0.0527600000000000 C
   0.8896800000000000    0.7857200000000000    0.1973900000000000 C
   0.7138700000000000    0.3945400000000000    0.3054950000000000 C
   0.7149100000000000    0.1049300000000000    0.4447750000000000 C
   0.7845200000000000    0.3945100000000000    0.4452750000000000 C
   0.7856400000000000    0.1055800000000000    0.3051250000000000 C
   0.6260900000000000    0.2218700000000000    0.4370100000000000 C
   0.6735500000000000    0.0620300000000000    0.4133850000000000 C
   0.8737800000000000    0.2778500000000000    0.4371500000000000 C
   0.8258600000000000    0.4375100000000000    0.4140700000000000 C
   0.8740300000000000    0.2221200000000000    0.3129850000000000 C
   0.8270900000000000    0.0628900000000000    0.3365250000000000 C
   0.6258400000000000    0.2777700000000000    0.3130800000000000 C
   0.6724300000000000    0.4372200000000000    0.3370700000000000 C
   0.8740500000000000    0.6258500000000000    0.1110100000000000 C
   0.8270800000000000    0.6720400000000000    0.0311600000000000 C
   0.8739100000000000    0.8739600000000000    0.1390600000000000 C
   0.8268200000000000    0.8274700000000000    0.2188200000000000 C
   0.6259500000000000    0.8740500000000000    0.1111850000000000 C
   0.6732100000000000    0.8264000000000000    0.0313450000000000 C
   0.6262100000000000    0.6264700000000000    0.1394300000000000 C
   0.6735000000000000    0.6745000000000000    0.2190400000000000 C
   0.2214100000000000    0.8739200000000000    0.3131050000000000 C
   0.0621400000000000    0.8272300000000000    0.3368900000000000 C
   0.2776600000000000    0.8739300000000000    0.4371150000000000 C
   0.4374600000000000    0.8260900000000000    0.4136000000000000 C
   0.2216600000000000    0.6262799999999999    0.4370300000000000 C
   0.0619700000000000    0.6740800000000000    0.4136150000000000 C
   0.2776500000000000    0.6257500000000000    0.3129800000000000 C
   0.4373200000000000    0.6720300000000000    0.3365700000000000 C
   0.7220800000000001    0.1260700000000000    0.0629850000000000 C
   0.5623600000000000    0.1738000000000000    0.0865200000000000 C
   0.7783500000000000    0.3738100000000000    0.0630700000000000 C
   0.9379800000000000    0.3260300000000000    0.0865900000000000 C
   0.7225900000000000    0.3744600000000000    0.1870500000000000 C
   0.5628500000000000    0.3282100000000000    0.1634250000000000 C
   0.7786000000000000    0.1260600000000000    0.1868750000000000 C
   0.9379200000000000    0.1726900000000000    0.1631450000000000 C
   0.1258900000000000    0.3743200000000000    0.3887200000000000 C
   0.1732200000000000    0.3277800000000000    0.4685150000000000 C
   0.3738500000000000    0.3737100000000000    0.3607500000000000 C
   0.3266300000000000    0.3257700000000000    0.2810550000000000 C
   0.3741300000000000    0.1258700000000000    0.3887550000000000 C
   0.3270200000000000    0.1733400000000000    0.4686000000000000 C
   0.1261900000000000    0.1260000000000000    0.3608150000000000 C
   0.1734400000000000    0.1725500000000000    0.2810950000000000 C
   0.3741700000000000    0.7220700000000000    0.1869100000000000 C
   0.3279300000000000    0.5624400000000001    0.1630600000000000 C
   0.3739200000000000    0.7782900000000000    0.0630500000000000 C
   0.3266400000000000    0.9381200000000000    0.0866550000000000 C
   0.1263700000000000    0.7212900000000000    0.0629650000000000 C
   0.1745100000000000    0.5619300000000000    0.0861850000000000 C
   0.1259600000000000    0.7776500000000000    0.1869900000000000 C
   0.1729500000000000    0.9368500000000000    0.1634000000000000 C
   0.6107100000000000    0.1049100000000000    0.8926799999999999 C
   0.8889200000000000    0.3948200000000000    0.8932599999999999 C
   0.8897500000000000    0.1056700000000000    0.8572750000000000 C
   0.6099500000000000    0.3943200000000000    0.8577450000000000 C
   0.7856100000000000    0.6097300000000000    0.5526250000000000 C
   0.7851700000000000    0.8901100000000000    0.6974150000000000 C
   0.7144300000000000    0.8892400000000000    0.5527700000000000 C
   0.7150800000000000    0.6113800000000000    0.6976850000000000 C
   0.1048300000000000    0.7856300000000001    0.8053650000000000 C
   0.1049200000000000    0.7155000000000000    0.9449650000000001 C
   0.3945600000000000    0.7135400000000000    0.8052100000000000 C
   0.6051700000000000    0.1108800000000000    0.6071450000000000 C
   0.8951700000000000    0.3891300000000000    0.6073300000000000 C
   0.6057900000000001    0.3906100000000000    0.6427499999999999 C
   0.8951200000000000    0.1100100000000000    0.6423900000000000 C
   0.1105100000000000    0.2863300000000000    0.9471250000000000 C
   0.3895000000000000    0.2843700000000000    0.8024850000000000 C
   0.3895900000000000    0.2146300000000000    0.9472149999999999 C
   0.1105100000000000    0.2142700000000000    0.8024950000000000 C
   0.2863200000000000    0.6051800000000001    0.6945600000000001 C
   0.2851700000000000    0.8952400000000000    0.5552950000000000 C
   0.2158800000000000    0.6048800000000000    0.5549500000000001 C
   0.2144000000000000    0.8941800000000000    0.6948050000000000 C
   0.3894400000000000    0.8952200000000000    0.6073900000000000 C
   0.1113800000000000    0.6045700000000001    0.6069800000000000 C
   0.1102800000000000    0.8940500000000000    0.6426650000000000 C
   0.3903200000000000    0.6054000000000000    0.6423500000000000 C
   0.2145000000000000    0.3902500000000000    0.9470799999999999 C
   0.2150400000000000    0.1098800000000000    0.8025100000000001 C
   0.2858000000000000    0.1105100000000000    0.9472100000000000 C
   0.2851000000000000    0.3888900000000000    0.8024000000000000 C
   0.8951700000000000    0.2143700000000000    0.6946200000000000 C
   0.6052300000000000    0.2150500000000000    0.5552400000000000 C
   0.8950900000000001    0.2845800000000000    0.5552300000000000 C
   0.6056300000000000    0.2866800000000000    0.6947700000000000 C
   0.1047300000000000    0.6110000000000000    0.8928350000000000 C
   0.3944000000000000    0.6096700000000000    0.8572649999999999 C
   0.1049800000000000    0.8898700000000000    0.8576550000000001 C
   0.8897000000000000    0.7136100000000000    0.5525600000000001 C
   0.6106300000000000    0.7159200000000000    0.6976249999999999 C
   0.6105900000000000    0.7851900000000001    0.5527600000000000 C
   0.8896800000000000    0.7857200000000000    0.6973900000000000 C
   0.7138700000000000    0.3945400000000000    0.8054950000000001 C
   0.7149100000000000    0.1049300000000000    0.9447749999999999 C
   0.7845200000000000    0.3945100000000000    0.9452750000000000 C
   0.7856400000000000    0.1055800000000000    0.8051250000000000 C
   0.6260900000000000    0.2218700000000000    0.9370100000000000 C
   0.6735500000000000    0.0620300000000000    0.9133850000000000 C
   0.8737800000000000    0.2778500000000000    0.9371499999999999 C
   0.8258600000000000    0.4375100000000000    0.9140699999999999 C
   0.8740300000000000    0.2221200000000000    0.8129850000000001 C
   0.8270900000000000    0.0628900000000000    0.8365250000000000 C
   0.6258400000000000    0.2777700000000000    0.8130800000000000 C
   0.6724300000000000    0.4372200000000000    0.8370700000000000 C
   0.8740500000000000    0.6258500000000000    0.6110100000000001 C
   0.8270800000000000    0.6720400000000000    0.5311600000000000 C
   0.8739100000000000    0.8739600000000000    0.6390600000000000 C
   0.8268200000000000    0.8274700000000000    0.7188200000000000 C
   0.6259500000000000    0.8740500000000000    0.6111850000000000 C
   0.6732100000000000    0.8264000000000000    0.5313450000000000 C
   0.6262100000000000    0.6264700000000000    0.6394299999999999 C
   0.6735000000000000    0.6745000000000000    0.7190400000000000 C
   0.2214100000000000    0.8739200000000000    0.8131050000000000 C
   0.0621400000000000    0.8272300000000000    0.8368900000000000 C
   0.2216600000000000    0.6262799999999999    0.9370300000000000 C
   0.0619700000000000    0.6740800000000000    0.9136150000000001 C
   0.2776500000000000    0.6257500000000000    0.8129800000000000 C
   0.4373200000000000    0.6720300000000000    0.8365700000000000 C
   0.7220800000000001    0.1260700000000000    0.5629850000000000 C
   0.5623600000000000    0.1738000000000000    0.5865200000000000 C
   0.7783500000000000    0.3738100000000000    0.5630700000000000 C
   0.9379800000000000    0.3260300000000000    0.5865899999999999 C
   0.7225900000000000    0.3744600000000000    0.6870499999999999 C
   0.5628500000000000    0.3282100000000000    0.6634249999999999 C
   0.7786000000000000    0.1260600000000000    0.6868750000000000 C
   0.9379200000000000    0.1726900000000000    0.6631450000000000 C
   0.1258900000000000    0.3743200000000000    0.8887200000000000 C
   0.1732200000000000    0.3277800000000000    0.9685150000000000 C
   0.3738500000000000    0.3737100000000000    0.8607500000000000 C
   0.3266300000000000    0.3257700000000000    0.7810550000000001 C
   0.3741300000000000    0.1258700000000000    0.8887550000000000 C
   0.3270200000000000    0.1733400000000000    0.9686000000000000 C
   0.1261900000000000    0.1260000000000000    0.8608150000000000 C
   0.1734400000000000    0.1725500000000000    0.7810950000000000 C
   0.3741700000000000    0.7220700000000000    0.6869100000000000 C
   0.3279300000000000    0.5624400000000001    0.6630600000000000 C
   0.3739200000000000    0.7782900000000000    0.5630500000000001 C
   0.3266400000000000    0.9381200000000000    0.5866550000000000 C
   0.1263700000000000    0.7212900000000000    0.5629649999999999 C
   0.1745100000000000    0.5619300000000000    0.5861850000000000 C
   0.1259600000000000    0.7776500000000000    0.6869900000000000 C
   0.1729500000000000    0.9368500000000000    0.6634000000000000 C
   0.0883900000000000    0.1929500000000000    0.3410150000000000 N
   0.3074800000000000    0.6822900000000000    0.2057400000000000 N
   0.3068100000000000    0.8179999999999999    0.0440000000000000 N
   0.1938100000000000    0.6819300000000000    0.0441050000000000 N
   0.5884600000000000    0.1821000000000000    0.4035150000000000 N
   0.9113800000000000    0.3176900000000000    0.4038000000000000 N
   0.9117400000000000    0.1825800000000000    0.3464800000000000 N
   0.5881400000000000    0.3173300000000000    0.3467200000000000 N
   0.8070900000000000    0.5881200000000000    0.0912150000000000 N
   0.8067600000000000    0.9118500000000000    0.1588850000000000 N
   0.6927600000000000    0.9115900000000000    0.0913000000000000 N
   0.6934200000000000    0.5888700000000000    0.1591950000000000 N
   0.1818300000000000    0.8069900000000000    0.2942200000000000 N
   0.3173700000000000    0.8068600000000000    0.4559100000000000 N
   0.1820600000000000    0.6935600000000000    0.4559200000000000 N
   0.3173900000000000    0.6924100000000000    0.2941600000000000 N
   0.6823399999999999    0.0884800000000000    0.0963750000000000 N
   0.8180500000000001    0.4115100000000000    0.0965550000000000 N
   0.6829300000000000    0.4122400000000000    0.1535950000000000 N
   0.8181000000000000    0.0881900000000000    0.1532600000000000 N
   0.0883300000000000    0.3076200000000000    0.4085500000000000 N
   0.4116000000000000    0.3063800000000000    0.3409850000000000 N
   0.4116500000000000    0.1928700000000000    0.4086000000000000 N
   0.1928400000000000    0.8172900000000000    0.2058600000000000 N
   0.4116000000000000    0.8179800000000000    0.0965950000000000 N
   0.0888100000000000    0.6816200000000000    0.0963700000000000 N
   0.0882700000000000    0.8171600000000000    0.1534800000000000 N
   0.4119600000000000    0.6824800000000000    0.1532950000000000 N
   0.1928000000000000    0.4120300000000000    0.4085000000000000 N
   0.1933700000000000    0.0881000000000000    0.3410250000000000 N
   0.3073800000000000    0.0882600000000000    0.4086350000000000 N
   0.3067500000000000    0.4113600000000000    0.3409250000000000 N
   0.8181500000000000    0.1930500000000000    0.2057350000000000 N
   0.6824000000000000    0.1931800000000000    0.0442050000000000 N
   0.8179700000000000    0.3065000000000000    0.0442250000000000 N
   0.6827900000000000    0.3078100000000000    0.2058000000000000 N
   0.3174800000000000    0.9114200000000000    0.4037300000000000 N
   0.1818900000000000    0.5886100000000000    0.4035550000000000 N
   0.3172500000000000    0.5880100000000000    0.3464700000000000 N
   0.1819700000000000    0.9117200000000000    0.3467600000000000 N
   0.9117200000000000    0.6925100000000000    0.0911450000000000 N
   0.5884900000000000    0.6939000000000000    0.1591350000000000 N
   0.5884400000000000    0.8070300000000000    0.0913100000000000 N
   0.9117200000000000    0.8070000000000001    0.1588550000000000 N
   0.6925300000000000    0.3175300000000000    0.2942400000000000 N
   0.6931400000000000    0.1821200000000000    0.4558500000000000 N
   0.8065300000000000    0.3174100000000000    0.4560700000000000 N
   0.8071700000000001    0.1824900000000000    0.2940950000000000 N
   0.0883900000000000    0.1929500000000000    0.8410150000000001 N
   0.3074800000000000    0.6822900000000000    0.7057400000000000 N
   0.3068100000000000    0.8179999999999999    0.5440000000000000 N
   0.1938100000000000    0.6819300000000000    0.5441049999999999 N
   0.5884600000000000    0.1821000000000000    0.9035150000000001 N
   0.9113800000000000    0.3176900000000000    0.9037999999999999 N
   0.9117400000000000    0.1825800000000000    0.8464800000000000 N
   0.5881400000000000    0.3173300000000000    0.8467199999999999 N
   0.8070900000000000    0.5881200000000000    0.5912150000000000 N
   0.8067600000000000    0.9118500000000000    0.6588849999999999 N
   0.6927600000000000    0.9115900000000000    0.5913000000000000 N
   0.6934200000000000    0.5888700000000000    0.6591950000000000 N
   0.1818300000000000    0.8069900000000000    0.7942199999999999 N
   0.1820600000000000    0.6935600000000000    0.9559200000000000 N
   0.3173900000000000    0.6924100000000000    0.7941600000000000 N
   0.6823399999999999    0.0884800000000000    0.5963750000000000 N
   0.8180500000000001    0.4115100000000000    0.5965549999999999 N
   0.6829300000000000    0.4122400000000000    0.6535950000000000 N
   0.8181000000000000    0.0881900000000000    0.6532600000000000 N
   0.0883300000000000    0.3076200000000000    0.9085500000000000 N
   0.4116000000000000    0.3063800000000000    0.8409850000000000 N
   0.4116500000000000    0.1928700000000000    0.9086000000000001 N
   0.1928400000000000    0.8172900000000000    0.7058599999999999 N
   0.4116000000000000    0.8179800000000000    0.5965950000000000 N
   0.0888100000000000    0.6816200000000000    0.5963700000000000 N
   0.0882700000000000    0.8171600000000000    0.6534800000000001 N
   0.4119600000000000    0.6824800000000000    0.6532950000000000 N
   0.1928000000000000    0.4120300000000000    0.9085000000000000 N
   0.1933700000000000    0.0881000000000000    0.8410250000000000 N
   0.3073800000000000    0.0882600000000000    0.9086350000000001 N
   0.3067500000000000    0.4113600000000000    0.8409249999999999 N
   0.8181500000000000    0.1930500000000000    0.7057350000000000 N
   0.6824000000000000    0.1931800000000000    0.5442050000000000 N
   0.8179700000000000    0.3065000000000000    0.5442250000000000 N
   0.6827900000000000    0.3078100000000000    0.7058000000000000 N
   0.1818900000000000    0.5886100000000000    0.9035550000000000 N