H6 C16 N2 O8
1.0
  19.8752471172397414    0.0000000000000000   -3.8410416593228121
   0.0012418795921011   22.8959998791387065   -0.0019980529251456
   0.0000000000000000    0.0000000000000000   27.9800000000000004
H C N O
6 16 2 8
direct
   0.4559800000000000    0.9999900000000000    0.2950000000000000 H
   0.5790300000000000    0.9999800000000000    0.4385150000000000 H
   0.3627000000000000    0.9999800000000000    0.4216500000000000 H
   0.5440400000000000    0.9999900000000000    0.7049550000000000 H
   0.4209800000000000    0.9999900000000000    0.5614500000000000 H
   0.6373100000000000    0.9999900000000000    0.5783350000000000 H
   0.4712100000000000    0.9999800000000000    0.4358500000000000 C
   0.3332200000000000    0.0000000000000000    0.3224300000000000 C
   0.4016400000000000    0.9999900000000000    0.3548000000000000 C
   0.4598000000000000    0.9999900000000000    0.3344500000000000 C
   0.5236700000000000    0.9999900000000000    0.3647600000000000 C
   0.5861000000000000    0.9999900000000000    0.3429900000000000 C
   0.5294100000000000    0.9999900000000000    0.4152600000000000 C
   0.4076100000000000    0.9999800000000000    0.4055050000000000 C
   0.6667999999999999    0.9999900000000000    0.6775550000000000 C
   0.5983700000000000    0.0000000000000000    0.6451850000000000 C
   0.5402100000000000    0.9999900000000000    0.6655400000000000 C
   0.4763500000000000    0.9999900000000000    0.6352250000000000 C
   0.4139100000000000    0.9999900000000000    0.6569950000000000 C
   0.4706000000000000    0.0000000000000000    0.5847300000000000 C
   0.5288000000000000    0.9999900000000000    0.5641350000000001 C
   0.5924000000000000    0.9999900000000000    0.5944850000000000 C
   0.4707900000000000    0.9999800000000000    0.4864800000000000 N
   0.5292200000000000    0.9999900000000000    0.5135050000000000 N
   0.2822800000000000   -0.0000100000000000    0.3433850000000000 O
   0.3301000000000000    0.0000000000000000    0.2765000000000000 O
   0.5794000000000000    0.0000000000000000    0.2964800000000000 O
   0.6435500000000000    0.0000000000000000    0.3707000000000000 O
   0.7177300000000000   -0.0000100000000000    0.6566000000000000 O
   0.6699100000000000   -0.0000100000000000    0.7230900000000000 O
   0.4206100000000000    0.0000000000000000    0.7035100000000000 O
   0.3564600000000000    0.0000000000000000    0.6292700000000000 O
