H4 O2
1.0
  19.8752471172397414    0.0000000000000000   -3.8410416593228121
   0.0012418795921011   22.8959998791387065   -0.0019980529251456
   0.0000000000000000    0.0000000000000000   27.9800000000000004
H O
4 2
direct
   0.7846705171433621    0.6162181324957231    0.6749543653590974 H
   0.8362350406192750    0.6163055063741255    0.7295003368257226 H
   0.7848332593427547    0.8837924422811855    0.6749237065449797 H
   0.8361189400827795    0.8836915581324427    0.7295759615876082 H
   0.8103399999999999    0.5942499999999999    0.7023000000000000 O
   0.8103700000000000    0.9057600000000000    0.7023250000000000 O
