Zn16 H170 C272 N46 O56
1.0
  19.8752471172397414    0.0000000000000000   -3.8410416593228121
   0.0012418795921011   22.8959998791387065   -0.0019980529251456
   0.0000000000000000    0.0000000000000000   27.9800000000000004
Zn H C N O
16 170 272 46 56
direct
   0.1863700000000000    0.5000000000000000    0.3002900000000000 Zn
   0.6863700000000000    0.0000000000000000    0.3002900000000000 Zn
   0.6863700000000000    0.5000000000000000    0.3002900000000000 Zn
   0.3136400000000000    0.0000000000000000    0.1996950000000000 Zn
   0.3136300000000000    0.5000000000000000    0.1996950000000000 Zn
   0.8136400000000000    0.0000000000000000    0.1997000000000000 Zn
   0.8136400000000000    0.5000000000000000    0.1996900000000000 Zn
   0.1863700000000000    0.0000000000000000    0.3002900000000000 Zn
   0.1863700000000000    0.5000000000000000    0.8002899999999999 Zn
   0.6863700000000000    0.0000000000000000    0.8002899999999999 Zn
   0.6863700000000000    0.5000000000000000    0.8002899999999999 Zn
   0.3136400000000000    0.0000000000000000    0.6996950000000000 Zn
   0.3136300000000000    0.5000000000000000    0.6996950000000000 Zn
   0.8136400000000000    0.0000000000000000    0.6997000000000000 Zn
   0.8136400000000000    0.5000000000000000    0.6996900000000000 Zn
   0.1863700000000000    0.0000000000000000    0.8002899999999999 Zn
   0.2524400000000000    0.4018600000000000    0.3649900000000000 H
   0.2524300000000000    0.9018600000000000    0.3650000000000000 H
   0.7525100000000000    0.4018600000000000    0.3649700000000000 H
   0.7524300000000000    0.9018600000000000    0.3650000000000000 H
   0.2560300000000000    0.2937000000000000    0.3683650000000000 H
   0.2560200000000000    0.7937100000000000    0.3683500000000000 H
   0.7561200000000000    0.2937000000000000    0.3683350000000000 H
   0.7560100000000000    0.7937100000000000    0.3683750000000000 H
   0.1236000000000000    0.2935300000000000    0.2271100000000000 H
   0.1236100000000000    0.7935300000000000    0.2271000000000000 H
   0.6235200000000000    0.2935300000000000    0.2270000000000000 H
   0.6236300000000000    0.7935300000000000    0.2271000000000000 H
   0.1257100000000000    0.4015100000000000    0.2308100000000000 H
   0.1257300000000000    0.9015100000000000    0.2308050000000000 H
   0.6256500000000000    0.4015100000000000    0.2308400000000000 H
   0.6257400000000000    0.9015100000000000    0.2308000000000000 H
   0.2475800000000000    0.4018500000000000    0.1349500000000000 H
   0.2476300000000000    0.9018600000000000    0.1349750000000000 H
   0.7475600000000000    0.4018500000000000    0.1349950000000000 H
   0.7477300000000000    0.9018600000000000    0.1349400000000000 H
   0.2439800000000000    0.2936900000000000    0.1316150000000000 H
   0.2440400000000000    0.7937000000000000    0.1315950000000000 H
   0.7439500000000000    0.2937000000000000    0.1316300000000000 H
   0.7441700000000000    0.7937000000000000    0.1315500000000000 H
   0.3764000000000000    0.2935400000000000    0.2728500000000000 H
   0.3763600000000000    0.7935400000000000    0.2725000000000000 H
   0.8764400000000000    0.2935400000000000    0.2728650000000000 H
   0.8762400000000000    0.7935300000000000    0.2729500000000000 H
   0.3742900000000000    0.4015200000000000    0.2691750000000000 H
   0.3742600000000000    0.9015200000000000    0.2691950000000000 H
   0.8743300000000001    0.4015200000000000    0.2691600000000000 H
   0.8741600000000000    0.9015100000000000    0.2692400000000000 H
   0.2475300000000000    0.0981400000000000    0.1350100000000000 H
   0.2474900000000000    0.5981400000000000    0.1350250000000000 H
   0.7475600000000000    0.0981400000000000    0.1350000000000000 H
   0.7473800000000000    0.5981500000000000    0.1350600000000000 H
   0.2439200000000000    0.2063000000000000    0.1316000000000000 H
   0.2438700000000000    0.7063000000000000    0.1316600000000000 H
   0.7439700000000000    0.2063000000000000    0.1316250000000000 H
   0.7437400000000000    0.7063000000000000    0.1317150000000000 H
   0.3764600000000000    0.2064700000000000    0.2728550000000000 H
   0.3765100000000000    0.7064700000000000    0.2728350000000000 H
   0.8764200000000000    0.2064700000000000    0.2728700000000000 H
   0.8766500000000000    0.7064700000000000    0.2727500000000000 H
   0.3743400000000000    0.0984900000000000    0.2691600000000000 H
   0.3743800000000000    0.5984900000000000    0.2691400000000000 H
   0.8743000000000000    0.0984900000000000    0.2691750000000000 H
   0.8744900000000000    0.5984800000000000    0.2690900000000000 H
   0.2524700000000000    0.0981500000000000    0.3649850000000000 H
   0.2524700000000000    0.5981500000000000    0.3649500000000000 H
   0.7524000000000000    0.0981400000000000    0.3650100000000000 H
   0.7524800000000000    0.5981500000000000    0.3649800000000000 H
   0.2560800000000000    0.2063000000000000    0.3680000000000000 H
   0.2560800000000000    0.7063100000000000    0.3683500000000000 H
   0.7559900000000001    0.2063000000000000    0.3683500000000000 H
   0.7561000000000000    0.7063100000000000    0.3683400000000000 H
   0.1235400000000000    0.2064600000000000    0.2271350000000000 H
   0.1235500000000000    0.7064700000000000    0.2271000000000000 H
   0.6236400000000000    0.2064700000000000    0.2270000000000000 H
   0.6235300000000000    0.7064600000000000    0.2271400000000000 H
   0.1256600000000000    0.0984800000000000    0.2308350000000000 H
   0.1256700000000000    0.5984900000000000    0.2308300000000000 H
   0.6257300000000000    0.0984900000000000    0.2308000000000000 H
   0.6256500000000000    0.5984800000000000    0.2308400000000000 H
   0.4559800000000000    0.5000100000000000    0.2950300000000000 H
   0.9559800000000001    0.9999900000000000    0.2950350000000000 H
   0.9559900000000000    0.4999900000000000    0.2950300000000000 H
   0.0790200000000000    0.9999900000000000    0.4385150000000000 H
   0.0790300000000000    0.5000100000000000    0.4385150000000000 H
   0.5790300000000000    0.5000100000000000    0.4385150000000000 H
   0.3627000000000000    0.5000100000000000    0.4216500000000000 H
   0.8627000000000000    0.9999900000000000    0.4216550000000000 H
   0.8627000000000000    0.5000200000000000    0.4216450000000000 H
   0.0440300000000000    0.9999900000000000    0.2049550000000000 H
   0.0440300000000000    0.4999900000000000    0.2049500000000000 H
   0.5440400000000000    0.9999900000000000    0.2049550000000000 H
   0.5440199999999999    0.5000100000000000    0.2049550000000000 H
   0.4209800000000000    0.9999900000000000    0.0614500000000000 H
   0.4209800000000000    0.5000000000000000    0.0614700000000000 H
   0.9209800000000000    0.9999900000000000    0.0614750000000000 H
   0.9209800000000000    0.5000100000000000    0.0614500000000000 H
   0.1373100000000000    0.9999900000000000    0.0783400000000000 H
   0.1373100000000000    0.5000000000000000    0.0783350000000000 H
   0.6373100000000000    0.9999900000000000    0.0783350000000000 H
   0.6373100000000000    0.5000000000000000    0.0783000000000000 H
   0.2524400000000000    0.4018600000000000    0.8649899999999999 H
   0.2524300000000000    0.9018600000000000    0.8650000000000000 H
   0.7525100000000000    0.4018600000000000    0.8649700000000000 H
   0.7524300000000000    0.9018600000000000    0.8650000000000000 H
   0.2560300000000000    0.2937000000000000    0.8683650000000001 H
   0.2560200000000000    0.7937100000000000    0.8683500000000000 H
   0.7561200000000000    0.2937000000000000    0.8683350000000001 H
   0.7560100000000000    0.7937100000000000    0.8683750000000000 H
   0.1236000000000000    0.2935300000000000    0.7271100000000000 H
   0.1236100000000000    0.7935300000000000    0.7271000000000000 H
   0.6235200000000000    0.2935300000000000    0.7270000000000000 H
   0.6236300000000000    0.7935300000000000    0.7271000000000000 H
   0.1257100000000000    0.4015100000000000    0.7308100000000000 H
   0.1257300000000000    0.9015100000000000    0.7308050000000000 H
   0.6256500000000000    0.4015100000000000    0.7308399999999999 H
   0.6257400000000000    0.9015100000000000    0.7308000000000000 H
   0.2475800000000000    0.4018500000000000    0.6349500000000000 H
   0.2476300000000000    0.9018600000000000    0.6349750000000001 H
   0.7475600000000000    0.4018500000000000    0.6349950000000000 H
   0.7477300000000000    0.9018600000000000    0.6349400000000001 H
   0.2439800000000000    0.2936900000000000    0.6316150000000000 H
   0.2440400000000000    0.7937000000000000    0.6315950000000000 H
   0.7439500000000000    0.2937000000000000    0.6316300000000000 H
   0.7441700000000000    0.7937000000000000    0.6315500000000001 H
   0.3764000000000000    0.2935400000000000    0.7728500000000000 H
   0.3763600000000000    0.7935400000000000    0.7725000000000000 H
   0.8764400000000000    0.2935400000000000    0.7728650000000000 H
   0.8762400000000000    0.7935300000000000    0.7729500000000000 H
   0.3742900000000000    0.4015200000000000    0.7691749999999999 H
   0.3742600000000000    0.9015200000000000    0.7691950000000001 H
   0.8743300000000001    0.4015200000000000    0.7691600000000001 H
   0.8741600000000000    0.9015100000000000    0.7692399999999999 H
   0.2475300000000000    0.0981400000000000    0.6350100000000000 H
   0.2474900000000000    0.5981400000000000    0.6350250000000000 H
   0.7475600000000000    0.0981400000000000    0.6350000000000000 H
   0.7473800000000000    0.5981500000000000    0.6350600000000000 H
   0.2439200000000000    0.2063000000000000    0.6315999999999999 H
   0.2438700000000000    0.7063000000000000    0.6316600000000000 H
   0.7439700000000000    0.2063000000000000    0.6316250000000000 H
   0.7437400000000000    0.7063000000000000    0.6317150000000000 H
   0.3764600000000000    0.2064700000000000    0.7728550000000001 H
   0.3765100000000000    0.7064700000000000    0.7728349999999999 H
   0.8764200000000000    0.2064700000000000    0.7728699999999999 H
   0.8766500000000000    0.7064700000000000    0.7727500000000000 H
   0.3743400000000000    0.0984900000000000    0.7691600000000001 H
   0.3743800000000000    0.5984900000000000    0.7691399999999999 H
   0.8743000000000000    0.0984900000000000    0.7691749999999999 H
   0.8744900000000000    0.5984800000000000    0.7690900000000001 H
   0.2524700000000000    0.0981500000000000    0.8649850000000000 H
   0.2524700000000000    0.5981500000000000    0.8649500000000000 H
   0.7524000000000000    0.0981400000000000    0.8650100000000001 H
   0.7524800000000000    0.5981500000000000    0.8649800000000001 H
   0.2560800000000000    0.2063000000000000    0.8680000000000000 H
   0.2560800000000000    0.7063100000000000    0.8683500000000000 H
   0.7559900000000001    0.2063000000000000    0.8683500000000000 H
   0.7561000000000000    0.7063100000000000    0.8683400000000000 H
   0.1235400000000000    0.2064600000000000    0.7271350000000000 H
   0.1235500000000000    0.7064700000000000    0.7271000000000000 H
   0.6236400000000000    0.2064700000000000    0.7270000000000000 H
   0.6235300000000000    0.7064600000000000    0.7271400000000000 H
   0.1256600000000000    0.0984800000000000    0.7308350000000000 H
   0.1256700000000000    0.5984900000000000    0.7308300000000000 H
   0.6257300000000000    0.0984900000000000    0.7308000000000000 H
   0.6256500000000000    0.5984800000000000    0.7308399999999999 H
   0.4559800000000000    0.9999900000000000    0.7949999999999999 H
   0.4559800000000000    0.5000100000000000    0.7950300000000000 H
   0.9559800000000001    0.9999900000000000    0.7950349999999999 H
   0.9559900000000000    0.4999900000000000    0.7950300000000000 H
   0.0790200000000000    0.9999900000000000    0.9385150000000000 H
   0.0790300000000000    0.5000100000000000    0.9385150000000000 H
   0.5790300000000000    0.9999800000000000    0.9385150000000000 H
   0.5790300000000000    0.5000100000000000    0.9385150000000000 H
   0.3627000000000000    0.9999800000000000    0.9216500000000001 H
   0.3627000000000000    0.5000100000000000    0.9216500000000001 H
   0.8627000000000000    0.9999900000000000    0.9216550000000000 H
   0.8627000000000000    0.5000200000000000    0.9216450000000000 H
   0.0440300000000000    0.9999900000000000    0.7049550000000000 H
   0.0440300000000000    0.4999900000000000    0.7049500000000000 H
   0.5440199999999999    0.5000100000000000    0.7049550000000000 H
   0.4209800000000000    0.5000000000000000    0.5614700000000000 H
   0.9209800000000000    0.9999900000000000    0.5614749999999999 H
   0.9209800000000000    0.5000100000000000    0.5614500000000000 H
   0.1373100000000000    0.9999900000000000    0.5783400000000000 H
   0.1373100000000000    0.5000000000000000    0.5783350000000000 H
   0.6373100000000000    0.5000000000000000    0.5783000000000000 H
   0.2248700000000000    0.3755400000000000    0.3353250000000000 C
   0.2248600000000000    0.8755500000000001    0.3353300000000000 C
   0.7249100000000001    0.3755400000000000    0.3353150000000000 C
   0.7248599999999999    0.8755500000000001    0.3353300000000000 C
   0.5294100000000000    0.5000000000000000    0.4152600000000000 C
   0.4712100000000000    0.5000100000000000    0.4358500000000000 C
   0.9712100000000000    0.9999900000000000    0.4358550000000000 C
   0.2264200000000000    0.3148800000000000    0.3365700000000000 C
   0.2264100000000000    0.8148900000000000    0.3365750000000000 C
   0.7264699999999999    0.3148800000000000    0.3365550000000000 C
   0.7264100000000000    0.8148800000000000    0.3365750000000000 C
   0.1901900000000000    0.2824200000000000    0.2975950000000000 C
   0.1901900000000000    0.7824200000000000    0.2975950000000000 C
   0.6902000000000000    0.2824200000000000    0.2975950000000000 C
   0.6902000000000000    0.7824200000000000    0.2975950000000000 C
   0.1534100000000000    0.3147800000000000    0.2587850000000000 C
   0.1534200000000000    0.8147799999999999    0.2587800000000000 C
   0.6533700000000000    0.3147800000000000    0.2588050000000000 C
   0.6534300000000000    0.8147799999999999    0.2587800000000000 C
   0.1541700000000000    0.3754200000000000    0.2602300000000000 C
   0.1541800000000000    0.8754200000000000    0.2602300000000000 C
   0.6541400000000001    0.3754200000000000    0.2602500000000000 C
   0.6541900000000000    0.8754200000000000    0.2602250000000000 C
   0.2751500000000000    0.3755400000000000    0.1646550000000000 C
   0.2751800000000000    0.8755400000000000    0.1646450000000000 C
   0.7751400000000001    0.3755400000000000    0.1646600000000000 C
   0.7752400000000000    0.8755400000000000    0.1646300000000000 C
   0.2735900000000000    0.3148800000000000    0.1634150000000000 C
   0.2736200000000000    0.8148800000000000    0.1634050000000000 C
   0.7735800000000000    0.3148800000000000    0.1634200000000000 C
   0.7736900000000000    0.8148800000000000    0.1633800000000000 C
   0.3098100000000000    0.2824200000000000    0.2023900000000000 C
   0.3098200000000000    0.7824300000000000    0.2023900000000000 C
   0.8098200000000000    0.2824200000000000    0.2023900000000000 C
   0.8098200000000000    0.7824200000000000    0.2023900000000000 C
   0.3465900000000000    0.3147900000000000    0.2412050000000000 C
   0.3465700000000000    0.8147900000000000    0.2412150000000000 C
   0.8466200000000000    0.3147900000000000    0.2411950000000000 C
   0.8465100000000000    0.8147799999999999    0.2412450000000000 C
   0.3458400000000000    0.3754200000000000    0.2397550000000000 C
   0.3458200000000000    0.8754200000000000    0.2397650000000000 C
   0.8458599999999999    0.3754200000000000    0.2397450000000000 C
   0.8457700000000000    0.8754200000000000    0.2397900000000000 C
   0.2751200000000000    0.1244600000000000    0.1646700000000000 C
   0.2750900000000000    0.6244600000000000    0.1646500000000000 C
   0.7751400000000001    0.1244600000000000    0.1646650000000000 C
   0.7750400000000000    0.6244600000000000    0.1646950000000000 C
   0.2735600000000000    0.1851200000000000    0.1634250000000000 C
   0.2735400000000000    0.6851200000000000    0.1634350000000000 C
   0.7735900000000000    0.1851200000000000    0.1634200000000000 C
   0.7734799999999999    0.6851200000000000    0.1634600000000000 C
   0.3098100000000000    0.2175800000000000    0.2023900000000000 C
   0.3098100000000000    0.7175800000000000    0.2023900000000000 C
   0.8098200000000000    0.2175800000000000    0.2023900000000000 C
   0.8098200000000000    0.7175800000000000    0.2023900000000000 C
   0.3466200000000000    0.1852200000000000    0.2411900000000000 C
   0.3466500000000000    0.6852200000000001    0.2411800000000000 C
   0.8466000000000000    0.1852200000000000    0.2412050000000000 C
   0.8467300000000000    0.6852200000000001    0.2411500000000000 C
   0.3458600000000000    0.1245800000000000    0.2397450000000000 C
   0.3458800000000000    0.6245800000000000    0.2397350000000000 C
   0.8458400000000000    0.1245800000000000    0.2397550000000000 C
   0.8459500000000000    0.6245800000000000    0.2397050000000000 C
   0.2248800000000000    0.1244600000000000    0.3353250000000000 C
   0.2248800000000000    0.6244600000000000    0.3353200000000000 C
   0.7248400000000000    0.1244600000000000    0.3353350000000000 C
   0.7248900000000000    0.6244600000000000    0.3353200000000000 C
   0.2264400000000000    0.1851200000000000    0.3365650000000000 C
   0.2264400000000000    0.6851200000000000    0.3365650000000000 C
   0.7264000000000000    0.1851200000000000    0.3365800000000000 C
   0.7264500000000000    0.6851200000000000    0.3365600000000000 C
   0.1901900000000000    0.2175800000000000    0.2976000000000000 C
   0.1901900000000000    0.7175800000000000    0.2975000000000000 C
   0.6901900000000000    0.2175800000000000    0.2975950000000000 C
   0.6902000000000000    0.7175800000000000    0.2975000000000000 C
   0.1533800000000000    0.1852100000000000    0.2588000000000000 C
   0.1533800000000000    0.6852200000000001    0.2587950000000000 C
   0.6534300000000000    0.1852200000000000    0.2587800000000000 C
   0.6533700000000000    0.6852200000000001    0.2588000000000000 C
   0.1541400000000000    0.1245800000000000    0.2602500000000000 C
   0.1541400000000000    0.6245800000000000    0.2602450000000000 C
   0.6541800000000000    0.1245800000000000    0.2602250000000000 C
   0.6541400000000001    0.6245800000000000    0.2602500000000000 C
   0.3332200000000000    0.5000100000000000    0.3224000000000000 C
   0.8332200000000000    0.0000000000000000    0.3224300000000000 C
   0.8332300000000000    0.5000000000000000    0.3224250000000000 C
   0.4016400000000000    0.5000100000000000    0.3548000000000000 C
   0.9016400000000000    0.0000000000000000    0.3548050000000000 C
   0.9016500000000000    0.5000100000000000    0.3548000000000000 C
   0.4598000000000000    0.5000100000000000    0.3340000000000000 C
   0.9598000000000000    0.9999900000000000    0.3344500000000000 C
   0.9598100000000001    0.5000000000000000    0.3344450000000000 C
   0.0236600000000000    0.9999900000000000    0.3647500000000000 C
   0.0236700000000000    0.5000000000000000    0.3647600000000000 C
   0.5236700000000000    0.5000100000000000    0.3647600000000000 C
   0.0860900000000000    0.9999800000000000    0.3429900000000000 C
   0.0861100000000000    0.5000000000000000    0.3429900000000000 C
   0.5861000000000000    0.5000100000000000    0.3429900000000000 C
   0.0294000000000000    0.9999900000000000    0.4152600000000000 C
   0.0294100000000000    0.5000100000000000    0.4152500000000000 C
   0.9712200000000000    0.5000200000000000    0.4358500000000000 C
   0.4076100000000000    0.5000100000000000    0.4055000000000000 C
   0.9076100000000000    0.9999900000000000    0.4055050000000000 C
   0.9076200000000000    0.5000200000000000    0.4055000000000000 C
   0.1667900000000000    0.9999900000000000    0.1775600000000000 C
   0.1667900000000000    0.4999900000000000    0.1775550000000000 C
   0.6667999999999999    0.9999900000000000    0.1775550000000000 C
   0.6667900000000000    0.5000000000000000    0.1775600000000000 C
   0.0983600000000000    0.9999900000000000    0.1451500000000000 C
   0.0983600000000000    0.5000000000000000    0.1451850000000000 C
   0.5983700000000000    0.0000000000000000    0.1451850000000000 C
   0.5983600000000000    0.5000000000000000    0.1451850000000000 C
   0.0402000000000000    0.9999900000000000    0.1655400000000000 C
   0.0402000000000000    0.4999900000000000    0.1655350000000000 C
   0.5402100000000000    0.9999900000000000    0.1655400000000000 C
   0.5402000000000000    0.5000000000000000    0.1655400000000000 C
   0.4763500000000000    0.9999900000000000    0.1352250000000000 C
   0.4763400000000000    0.5000100000000000    0.1352250000000000 C
   0.9763400000000000    0.9999900000000000    0.1352250000000000 C
   0.9763400000000000    0.5000000000000000    0.1352000000000000 C
   0.4139100000000000    0.9999900000000000    0.1569950000000000 C
   0.4139000000000000    0.5000100000000000    0.1569900000000000 C
   0.9139100000000000    0.9999900000000000    0.1569950000000000 C
   0.9139100000000000    0.4999900000000000    0.1569950000000000 C
   0.4706000000000000    0.0000000000000000    0.0847300000000000 C
   0.4705900000000000    0.5000000000000000    0.0847250000000000 C
   0.9706000000000000    0.9999900000000000    0.0847300000000000 C
   0.9706000000000000    0.5000000000000000    0.0847250000000000 C
   0.0288000000000000    0.9999900000000000    0.0641350000000000 C
   0.0288000000000000    0.5000100000000000    0.0641350000000000 C
   0.5288000000000000    0.9999900000000000    0.0641350000000000 C
   0.5288000000000000    0.5000000000000000    0.0641350000000000 C
   0.0923900000000000    0.9999900000000000    0.0944850000000000 C
   0.0923900000000000    0.5000000000000000    0.0944800000000000 C
   0.5924000000000000    0.9999900000000000    0.0944850000000000 C
   0.5923900000000000    0.5000000000000000    0.0944850000000000 C
   0.2248700000000000    0.3755400000000000    0.8353250000000000 C
   0.2248600000000000    0.8755500000000001    0.8353300000000000 C
   0.7249100000000001    0.3755400000000000    0.8353150000000000 C
   0.7248599999999999    0.8755500000000001    0.8353300000000000 C
   0.5294100000000000    0.5000000000000000    0.9152600000000000 C
   0.4712100000000000    0.9999800000000000    0.9358500000000001 C
   0.4712100000000000    0.5000100000000000    0.9358500000000001 C
   0.9712100000000000    0.9999900000000000    0.9358550000000000 C
   0.2264200000000000    0.3148800000000000    0.8365700000000000 C
   0.2264100000000000    0.8148900000000000    0.8365750000000001 C
   0.7264699999999999    0.3148800000000000    0.8365549999999999 C
   0.7264100000000000    0.8148800000000000    0.8365750000000001 C
   0.1901900000000000    0.2824200000000000    0.7975950000000001 C
   0.1901900000000000    0.7824200000000000    0.7975950000000001 C
   0.6902000000000000    0.2824200000000000    0.7975950000000001 C
   0.6902000000000000    0.7824200000000000    0.7975950000000001 C
   0.1534100000000000    0.3147800000000000    0.7587850000000000 C
   0.1534200000000000    0.8147799999999999    0.7587800000000000 C
   0.6533700000000000    0.3147800000000000    0.7588050000000000 C
   0.6534300000000000    0.8147799999999999    0.7587800000000000 C
   0.1541700000000000    0.3754200000000000    0.7602300000000000 C
   0.1541800000000000    0.8754200000000000    0.7602300000000000 C
   0.6541400000000001    0.3754200000000000    0.7602500000000000 C
   0.6541900000000000    0.8754200000000000    0.7602249999999999 C
   0.2751500000000000    0.3755400000000000    0.6646550000000000 C
   0.2751800000000000    0.8755400000000000    0.6646450000000000 C
   0.7751400000000001    0.3755400000000000    0.6646600000000000 C
   0.7752400000000000    0.8755400000000000    0.6646300000000001 C
   0.2735900000000000    0.3148800000000000    0.6634150000000000 C
   0.2736200000000000    0.8148800000000000    0.6634050000000000 C
   0.7735800000000000    0.3148800000000000    0.6634200000000000 C
   0.7736900000000000    0.8148800000000000    0.6633800000000000 C
   0.3098100000000000    0.2824200000000000    0.7023900000000000 C
   0.3098200000000000    0.7824300000000000    0.7023900000000000 C
   0.8098200000000000    0.2824200000000000    0.7023900000000000 C
   0.8098200000000000    0.7824200000000000    0.7023900000000000 C
   0.3465900000000000    0.3147900000000000    0.7412050000000000 C
   0.3465700000000000    0.8147900000000000    0.7412150000000000 C
   0.8466200000000000    0.3147900000000000    0.7411950000000000 C
   0.8465100000000000    0.8147799999999999    0.7412449999999999 C
   0.3458400000000000    0.3754200000000000    0.7397549999999999 C
   0.3458200000000000    0.8754200000000000    0.7397650000000000 C
   0.8458599999999999    0.3754200000000000    0.7397450000000000 C
   0.8457700000000000    0.8754200000000000    0.7397899999999999 C
   0.2751200000000000    0.1244600000000000    0.6646700000000000 C
   0.2750900000000000    0.6244600000000000    0.6646500000000000 C
   0.7751400000000001    0.1244600000000000    0.6646650000000001 C
   0.7750400000000000    0.6244600000000000    0.6646950000000000 C
   0.2735600000000000    0.1851200000000000    0.6634249999999999 C
   0.2735400000000000    0.6851200000000000    0.6634350000000000 C
   0.7735900000000000    0.1851200000000000    0.6634200000000000 C
   0.7734799999999999    0.6851200000000000    0.6634599999999999 C
   0.3098100000000000    0.2175800000000000    0.7023900000000000 C
   0.3098100000000000    0.7175800000000000    0.7023900000000000 C
   0.8098200000000000    0.2175800000000000    0.7023900000000000 C
   0.8098200000000000    0.7175800000000000    0.7023900000000000 C
   0.3466200000000000    0.1852200000000000    0.7411900000000000 C
   0.3466500000000000    0.6852200000000001    0.7411799999999999 C
   0.8466000000000000    0.1852200000000000    0.7412050000000000 C
   0.8467300000000000    0.6852200000000001    0.7411500000000000 C
   0.3458600000000000    0.1245800000000000    0.7397450000000000 C
   0.3458800000000000    0.6245800000000000    0.7397350000000000 C
   0.8458400000000000    0.1245800000000000    0.7397549999999999 C
   0.8459500000000000    0.6245800000000000    0.7397050000000001 C
   0.2248800000000000    0.1244600000000000    0.8353250000000000 C
   0.2248800000000000    0.6244600000000000    0.8353200000000001 C
   0.7248400000000000    0.1244600000000000    0.8353349999999999 C
   0.7248900000000000    0.6244600000000000    0.8353200000000001 C
   0.2264400000000000    0.1851200000000000    0.8365650000000000 C
   0.2264400000000000    0.6851200000000000    0.8365650000000000 C
   0.7264000000000000    0.1851200000000000    0.8365800000000000 C
   0.7264500000000000    0.6851200000000000    0.8365600000000000 C
   0.1901900000000000    0.2175800000000000    0.7976000000000000 C
   0.1901900000000000    0.7175800000000000    0.7975000000000000 C
   0.6901900000000000    0.2175800000000000    0.7975950000000001 C
   0.6902000000000000    0.7175800000000000    0.7975000000000000 C
   0.1533800000000000    0.1852100000000000    0.7587999999999999 C
   0.1533800000000000    0.6852200000000001    0.7587950000000000 C
   0.6534300000000000    0.1852200000000000    0.7587800000000000 C
   0.6533700000000000    0.6852200000000001    0.7587999999999999 C
   0.1541400000000000    0.1245800000000000    0.7602500000000000 C
   0.1541400000000000    0.6245800000000000    0.7602450000000001 C
   0.6541800000000000    0.1245800000000000    0.7602249999999999 C
   0.6541400000000001    0.6245800000000000    0.7602500000000000 C
   0.3332200000000000    0.0000000000000000    0.8224300000000000 C
   0.3332200000000000    0.5000100000000000    0.8224000000000000 C
   0.8332200000000000    0.0000000000000000    0.8224300000000000 C
   0.8332300000000000    0.5000000000000000    0.8224250000000000 C
   0.4016400000000000    0.9999900000000000    0.8548000000000000 C
   0.4016400000000000    0.5000100000000000    0.8548000000000000 C
   0.9016400000000000    0.0000000000000000    0.8548050000000000 C
   0.9016500000000000    0.5000100000000000    0.8548000000000000 C
   0.4598000000000000    0.9999900000000000    0.8344500000000000 C
   0.4598000000000000    0.5000100000000000    0.8340000000000001 C
   0.9598000000000000    0.9999900000000000    0.8344500000000000 C
   0.9598100000000001    0.5000000000000000    0.8344450000000000 C
   0.0236600000000000    0.9999900000000000    0.8647500000000000 C
   0.0236700000000000    0.5000000000000000    0.8647600000000000 C
   0.5236700000000000    0.9999900000000000    0.8647600000000000 C
   0.5236700000000000    0.5000100000000000    0.8647600000000000 C
   0.0860900000000000    0.9999800000000000    0.8429900000000000 C
   0.0861100000000000    0.5000000000000000    0.8429900000000000 C
   0.5861000000000000    0.9999900000000000    0.8429900000000000 C
   0.5861000000000000    0.5000100000000000    0.8429900000000000 C
   0.0294000000000000    0.9999900000000000    0.9152600000000000 C
   0.0294100000000000    0.5000100000000000    0.9152500000000000 C
   0.5294100000000000    0.9999900000000000    0.9152600000000000 C
   0.9712200000000000    0.5000200000000000    0.9358500000000001 C
   0.4076100000000000    0.9999800000000000    0.9055050000000000 C
   0.4076100000000000    0.5000100000000000    0.9055000000000000 C
   0.9076100000000000    0.9999900000000000    0.9055050000000000 C
   0.9076200000000000    0.5000200000000000    0.9055000000000000 C
   0.1667900000000000    0.9999900000000000    0.6775599999999999 C
   0.1667900000000000    0.4999900000000000    0.6775550000000000 C
   0.6667900000000000    0.5000000000000000    0.6775599999999999 C