H3 O2
1.0
  20.3649994758013975    0.0000000000000000   -0.0046206718885470
   0.0071816238930929   17.8939973569474589   -0.0065584933965502
   0.0000000000000000    0.0000000000000000   19.8449999999999989
H O
3 2
direct
   1.0323183927354438    0.7392630873099488    0.6449660446901476 H
   0.2090963775074044    0.8118901237710998    0.6205640520662414 H
   0.1293831839477852    0.7808164448586838    0.6222670780317959 H
   1.0725099999999999    0.7504100000000000    0.6692000000000000 O
   0.1742500000000000    0.7932600000000000    0.6493200000000000 O
