H2 O2
1.0
  20.3649994758013975    0.0000000000000000   -0.0046206718885470
   0.0071816238930929   17.8939973569474589   -0.0065584933965502
   0.0000000000000000    0.0000000000000000   19.8449999999999989
H O
2 2
direct
   0.7186749946885765    0.9011321044080477    0.8264096472729392 H
   0.7813272795092233    0.0987998089970445    0.1735438152473702 H
   0.7114500000000000    0.8751700000000000    0.7836400000000000 O
   0.7885500000000000    0.1247900000000000    0.2163000000000000 O
