H8 C10 N2 O2
1.0
  20.3649994758013975    0.0000000000000000   -0.0046206718885470
   0.0071816238930929   17.8939973569474589   -0.0065584933965502
   0.0000000000000000    0.0000000000000000   19.8449999999999989
H C N O
8 10 2 2
direct
   0.6864800000000000    0.0521000000000000    0.1878600000000000 H
   0.8550600000000000    0.0601200000000000    0.0000000000000000 H
   0.6627500000000000    0.9871600000000000    0.0806800000000000 H
   0.8701300000000000    0.1209300000000000    0.1212900000000000 H
   0.8135000000000000    0.9478799999999999    0.8120900000000000 H
   0.6449800000000000    0.9396200000000000    0.9896000000000000 H
   0.8372200000000000    0.0127600000000000    0.9193100000000000 H
   0.6299000000000000    0.8788899999999999    0.8786800000000000 H
   0.7211500000000000    0.0506900000000000    0.1462600000000000 C
   0.7560700000000000    0.0171300000000000    0.0319000000000000 C
   0.8156400000000000    0.0560700000000000    0.0472100000000000 C
   0.7096200000000000    0.0157000000000000    0.0860100000000000 C
   0.8258799999999999    0.0903700000000000    0.1080300000000000 C
   0.7788400000000000    0.9492400000000000    0.8537100000000000 C
   0.7439300000000000    0.9827000000000000    0.9680600000000000 C
   0.6843800000000000    0.9437300000000000    0.9527800000000000 C
   0.7903700000000000    0.9841900000000000    0.9139699999999999 C
   0.6741400000000000    0.9094800000000000    0.8919000000000000 C
   0.7785900000000000    0.0889500000000000    0.1573400000000000 N
   0.7214100000000000    0.9109600000000000    0.8426000000000000 N
   0.7114500000000000    0.8751700000000000    0.7836400000000000 O
   0.7885500000000000    0.1247900000000000    0.2163000000000000 O
