Zn8 H80 C124 N8 O32
1.0
  12.9610917780578383    0.0000000000000000    2.6737344521776123
   0.0830982000988271   13.1982889058009984    1.4226347557087959
   0.0000000000000000    0.0000000000000000   28.0060000000000002
Zn H C N O
8 80 124 8 32
direct
   0.1466500000000000    0.3290000000000000    0.3373050000000000 Zn
   0.1466500000000000    0.3290000000000000    0.8373050000000000 Zn
   0.1204800000000000    0.3245000000000000    0.9399200000000000 Zn
   0.1204800000000000    0.3245000000000000    0.4399200000000000 Zn
   0.8533500000000001    0.6710100000000000    0.6627100000000000 Zn
   0.8795200000000000    0.6755100000000001    0.0600950000000000 Zn
   0.8533500000000001    0.6710100000000000    0.1627100000000000 Zn
   0.8795200000000000    0.6755100000000001    0.5600950000000000 Zn
   0.1075900000000000    0.9991300000000000    0.4818350000000000 H
   0.1047900000000000    0.8107300000000000    0.4909500000000000 H
   0.1462900000000000    0.0056900000000000    0.3256750000000000 H
   0.1519400000000000    0.6543600000000001    0.2964850000000000 H
   0.1546200000000000    0.8430000000000000    0.2872850000000000 H
   0.1160700000000000    0.6489300000000000    0.4525450000000000 H
   0.8270000000000000    0.3321100000000000    0.3257550000000000 H
   0.7809100000000000    0.3193300000000000    0.4825550000000000 H
   0.5909200000000000    0.3201300000000000    0.4893700000000000 H
   0.4831800000000000    0.3358400000000000    0.2926550000000000 H
   0.6739000000000001    0.3374700000000000    0.2852700000000000 H
   0.4382900000000000    0.3233300000000000    0.4492050000000000 H
   0.8270000000000000    0.3321100000000000    0.8257550000000000 H
   0.7809100000000000    0.3193300000000000    0.9825550000000001 H
   0.5909200000000000    0.3201300000000000    0.9893700000000001 H
   0.4831800000000000    0.3358400000000000    0.7926550000000000 H
   0.6739000000000001    0.3374700000000000    0.7852700000000000 H
   0.4382900000000000    0.3233300000000000    0.9492050000000001 H
   0.1234100000000000    0.1619000000000000    0.6140500000000000 H
   0.1470900000000000    0.4887800000000000    0.5937749999999999 H
   0.1157400000000000    0.1683200000000000    0.5256700000000000 H
   0.1299800000000000    0.4814900000000000    0.5074400000000000 H
   0.2129000000000000    0.1787700000000000    0.6724450000000000 H
   0.0724700000000000    0.4777100000000000    0.6715200000000000 H
   0.0879500000000000    0.4745600000000000    0.7588699999999999 H
   0.2147100000000000    0.1865200000000000    0.7609699999999999 H
   0.1423743609685608    0.1410225179290990    0.8252877136610326 H
   0.1185657182319639    0.1340212053237249    0.9700772018690810 H
   0.1302523235560814    0.1269172874615216    0.8984606505135101 H
   0.1035777504454605    0.5123273005313045    0.9531997088083810 H
   0.1559220939615602    0.5200794740039039    0.8071612007038715 H
   0.1296291101185704    0.5266164081252802    0.8794703557794761 H
   0.1234100000000000    0.1619000000000000    0.1140500000000000 H
   0.1470900000000000    0.4887800000000000    0.0937750000000000 H
   0.1157400000000000    0.1683200000000000    0.0256700000000000 H
   0.1299800000000000    0.4814900000000000    0.0074400000000000 H
   0.2129000000000000    0.1787700000000000    0.1724450000000000 H
   0.0724700000000000    0.4777100000000000    0.1715200000000000 H
   0.0879500000000000    0.4745600000000000    0.2588700000000000 H
   0.2147100000000000    0.1865200000000000    0.2609700000000000 H
   0.8924100000000000    0.0008800000000000    0.5181800000000000 H
   0.8952100000000000    0.1892900000000000    0.5090650000000000 H
   0.8537100000000000    0.0000000000000000    0.6743399999999999 H
   0.8480600000000000    0.3456600000000000    0.7035350000000000 H
   0.8453800000000000    0.1570100000000000    0.7127300000000000 H
   0.8839300000000000    0.3510800000000000    0.5474700000000000 H
   0.8924100000000000    0.0008800000000000    0.0181800000000000 H
   0.8952100000000000    0.1892900000000000    0.0090650000000000 H
   0.8537100000000000    0.0000000000000000    0.1743400000000000 H
   0.8480600000000000    0.3456600000000000    0.2035350000000000 H
   0.8453800000000000    0.1570100000000000    0.2127300000000000 H
   0.8839300000000000    0.3510800000000000    0.0474700000000000 H
   0.5168199999999999    0.6641700000000000    0.7073600000000000 H
   0.3261000000000000    0.6625400000000000    0.7147450000000000 H
   0.5617100000000000    0.6766900000000000    0.5508100000000000 H
   0.2190900000000000    0.6806800000000000    0.5174600000000000 H
   0.4090800000000000    0.6798800000000000    0.5106500000000000 H
   0.1730000000000000    0.6678900000000000    0.6742600000000000 H
   0.8766000000000000    0.8381100000000000    0.8859650000000000 H
   0.8529099999999999    0.5112400000000000    0.9062450000000000 H
   0.8700200000000000    0.5185200000000000    0.9925800000000000 H
   0.8842500000000000    0.8316900000000000    0.9743450000000000 H
   0.7871100000000000    0.8212400000000000    0.8275699999999999 H
   0.9275300000000000    0.5223000000000000    0.8284950000000000 H
   0.9120500000000000    0.5254500000000000    0.7411449999999999 H
   0.7852900000000000    0.8134900000000000    0.7390450000000000 H
   0.5168199999999999    0.6641700000000000    0.2073600000000000 H
   0.3261000000000000    0.6625400000000000    0.2147450000000000 H
   0.5617100000000000    0.6766900000000000    0.0508100000000000 H
   0.2190900000000000    0.6806800000000000    0.0174600000000000 H
   0.4090800000000000    0.6798800000000000    0.0106500000000000 H
   0.1730000000000000    0.6678900000000000    0.1742600000000000 H
   0.8766000000000000    0.8381100000000000    0.3859650000000000 H
   0.8529099999999999    0.5112400000000000    0.4062450000000000 H
   0.8700200000000000    0.5185200000000000    0.4925800000000000 H
   0.8842500000000000    0.8316900000000000    0.4743450000000000 H
   0.7871100000000000    0.8212400000000000    0.3275700000000000 H
   0.9275300000000000    0.5223000000000000    0.3284950000000000 H
   0.9120500000000000    0.5254500000000000    0.2411450000000000 H
   0.7852900000000000    0.8134900000000000    0.2390450000000000 H
   0.1302400000000000    0.1271000000000000    0.3980400000000000 C
   0.1317800000000000    0.5269300000000000    0.3798350000000000 C
   0.1165900000000000    0.9574800000000000    0.4498050000000000 C
   0.1158700000000000    0.8531800000000000    0.4547150000000000 C
   0.1381000000000000    0.9621300000000000    0.3615100000000000 C
   0.1283900000000000    0.0133000000000000    0.4028100000000000 C
   0.1375700000000000    0.8549700000000000    0.3651950000000000 C
   0.1449700000000000    0.6963600000000000    0.3283300000000000 C
   0.1464600000000000    0.8005600000000000    0.3234600000000000 C
   0.1256800000000000    0.6918000000000000    0.4165250000000000 C
   0.1342400000000000    0.6406100000000000    0.3753050000000000 C
   0.1270900000000000    0.7989900000000000    0.4127900000000000 C
   0.3352000000000000    0.3273800000000000    0.3758750000000000 C
   0.9300500000000000    0.3271000000000000    0.3994250000000000 C
   0.7743800000000000    0.3296800000000000    0.3612500000000000 C
   0.8152100000000000    0.3257600000000000    0.4033000000000000 C
   0.6665100000000000    0.3300800000000000    0.3637350000000000 C
   0.7477400000000000    0.3222000000000000    0.4499100000000000 C
   0.6424900000000000    0.3227200000000000    0.4535400000000000 C
   0.5172200000000000    0.3331000000000000    0.3250700000000000 C
   0.6226000000000000    0.3338500000000000    0.3212200000000000 C
   0.4908600000000000    0.3261200000000000    0.4137000000000000 C
   0.4501200000000000    0.3289300000000000    0.3717550000000000 C
   0.5987400000000000    0.3263500000000000    0.4110100000000000 C
   0.3352000000000000    0.3273800000000000    0.8758750000000000 C
   0.9300500000000000    0.3271000000000000    0.8994249999999999 C
   0.7743800000000000    0.3296800000000000    0.8612500000000001 C
   0.8152100000000000    0.3257600000000000    0.9033000000000000 C
   0.6665100000000000    0.3300800000000000    0.8637349999999999 C
   0.7477400000000000    0.3222000000000000    0.9499100000000000 C
   0.6424900000000000    0.3227200000000000    0.9535400000000001 C
   0.5172200000000000    0.3331000000000000    0.8250700000000000 C
   0.6226000000000000    0.3338500000000000    0.8212200000000001 C
   0.4908600000000000    0.3261200000000000    0.9137000000000000 C
   0.4501200000000000    0.3289300000000000    0.8717550000000001 C
   0.5987400000000000    0.3263500000000000    0.9110100000000000 C
   0.1282200000000000    0.2346400000000000    0.5917350000000000 C
   0.1380800000000000    0.4159300000000000    0.5808100000000000 C
   0.1222400000000000    0.2371900000000000    0.5427150000000001 C
   0.1302000000000000    0.4127500000000000    0.5323900000000000 C
   0.1361100000000000    0.3256800000000000    0.6119400000000000 C
   0.1821000000000000    0.2453000000000000    0.6902100000000000 C
   0.1064200000000000    0.4117900000000000    0.6892150000000000 C
   0.1130200000000000    0.4103800000000000    0.7381050000000000 C
   0.1848500000000000    0.2491800000000000    0.7392700000000000 C
   0.1415200000000000    0.3274500000000000    0.6640150000000000 C
   0.1282200000000000    0.2346400000000000    0.0917350000000000 C
   0.1380800000000000    0.4159300000000000    0.0808100000000000 C
   0.1222400000000000    0.2371900000000000    0.0427150000000000 C
   0.1302000000000000    0.4127500000000000    0.0323900000000000 C
   0.1361100000000000    0.3256800000000000    0.1119400000000000 C
   0.1821000000000000    0.2453000000000000    0.1902100000000000 C
   0.1064200000000000    0.4117900000000000    0.1892150000000000 C
   0.1130200000000000    0.4103800000000000    0.2381050000000000 C
   0.1848500000000000    0.2491800000000000    0.2392700000000000 C
   0.1415200000000000    0.3274500000000000    0.1640150000000000 C
   0.8697500000000000    0.8729100000000000    0.6019800000000000 C
   0.8682299999999999    0.4730900000000000    0.6201800000000000 C
   0.8834100000000000    0.0425400000000000    0.5502100000000000 C
   0.8841300000000000    0.1468300000000000    0.5453000000000000 C
   0.8619000000000000    0.0378800000000000    0.6385050000000000 C
   0.8716100000000000    0.9867100000000000    0.5972050000000000 C
   0.8624300000000000    0.1450400000000000    0.6348199999999999 C
   0.8550400000000000    0.3036600000000000    0.6716900000000000 C
   0.8535400000000000    0.1994500000000000    0.6765600000000001 C
   0.8743200000000000    0.3082100000000000    0.5834900000000000 C
   0.8657600000000000    0.3594000000000000    0.6247100000000000 C
   0.8729100000000000    0.2010200000000000    0.5872250000000000 C
   0.8697500000000000    0.8729100000000000    0.1019800000000000 C
   0.8682299999999999    0.4730900000000000    0.1201800000000000 C
   0.8834100000000000    0.0425400000000000    0.0502100000000000 C
   0.8841300000000000    0.1468300000000000    0.0453000000000000 C
   0.8619000000000000    0.0378800000000000    0.1385050000000000 C
   0.8716100000000000    0.9867100000000000    0.0972050000000000 C
   0.8624300000000000    0.1450400000000000    0.1348200000000000 C
   0.8550400000000000    0.3036600000000000    0.1716900000000000 C
   0.8535400000000000    0.1994500000000000    0.1765600000000000 C
   0.8743200000000000    0.3082100000000000    0.0834900000000000 C
   0.8657600000000000    0.3594000000000000    0.1247100000000000 C
   0.8729100000000000    0.2010200000000000    0.0872250000000000 C
   0.6647999999999999    0.6726300000000000    0.6241400000000000 C
   0.0699500000000000    0.6729200000000000    0.6005950000000000 C
   0.4827800000000000    0.6669100000000000    0.6749450000000000 C
   0.3774000000000000    0.6661600000000000    0.6787950000000000 C
   0.5091400000000000    0.6738900000000000    0.5863200000000000 C
   0.5498800000000000    0.6710900000000000    0.6282650000000000 C
   0.4012600000000000    0.6736700000000000    0.5890100000000000 C
   0.2522600000000000    0.6778100000000000    0.5501100000000000 C
   0.3575100000000000    0.6772899999999999    0.5464750000000000 C
   0.2256200000000000    0.6703300000000000    0.6387650000000000 C
   0.1847900000000000    0.6742400000000000    0.5967150000000000 C
   0.3334900000000000    0.6699300000000000    0.6362800000000000 C
   0.8717800000000000    0.7653700000000000    0.9082800000000000 C
   0.8619200000000000    0.5840800000000000    0.9192050000000000 C
   0.8698000000000000    0.5872600000000000    0.9676250000000000 C
   0.8777600000000000    0.7628200000000001    0.9573050000000001 C
   0.8638900000000000    0.6743400000000001    0.8880749999999999 C
   0.8179000000000000    0.7547100000000000    0.8098050000000000 C
   0.8935800000000000    0.5882200000000000    0.8108000000000000 C
   0.8869800000000000    0.5896400000000001    0.7619100000000000 C
   0.8151500000000000    0.7508300000000000    0.7607450000000000 C
   0.8584800000000000    0.6725600000000000    0.8360000000000001 C
   0.6647999999999999    0.6726300000000000    0.1241400000000000 C
   0.0699500000000000    0.6729200000000000    0.1005950000000000 C
   0.4827800000000000    0.6669100000000000    0.1749450000000000 C
   0.3774000000000000    0.6661600000000000    0.1787950000000000 C
   0.5091400000000000    0.6738900000000000    0.0863200000000000 C
   0.5498800000000000    0.6710900000000000    0.1282650000000000 C
   0.4012600000000000    0.6736700000000000    0.0890100000000000 C
   0.2522600000000000    0.6778100000000000    0.0501100000000000 C
   0.3575100000000000    0.6772899999999999    0.0464750000000000 C
   0.2256200000000000    0.6703300000000000    0.1387650000000000 C
   0.1847900000000000    0.6742400000000000    0.0967150000000000 C
   0.3334900000000000    0.6699300000000000    0.1362800000000000 C
   0.8717800000000000    0.7653700000000000    0.4082800000000000 C
   0.8619200000000000    0.5840800000000000    0.4192050000000000 C
   0.8698000000000000    0.5872600000000000    0.4676250000000000 C
   0.8777600000000000    0.7628200000000001    0.4573050000000000 C
   0.8638900000000000    0.6743400000000001    0.3880750000000000 C
   0.8179000000000000    0.7547100000000000    0.3098050000000000 C
   0.8935800000000000    0.5882200000000000    0.3108000000000000 C
   0.8869800000000000    0.5896400000000001    0.2619100000000000 C
   0.8151500000000000    0.7508300000000000    0.2607450000000000 C
   0.8584800000000000    0.6725600000000000    0.3360000000000000 C
   0.1223100000000000    0.3247600000000000    0.5134050000000000 N
   0.1506200000000000    0.3303400000000000    0.7631049999999999 N
   0.1223100000000000    0.3247600000000000    0.0134050000000000 N
   0.1506200000000000    0.3303400000000000    0.2631050000000000 N
   0.8776900000000000    0.6752600000000000    0.9866100000000000 N
   0.8493800000000000    0.6696700000000000    0.7369100000000000 N
   0.8776900000000000    0.6752600000000000    0.4866100000000000 N
   0.8493800000000000    0.6696700000000000    0.2369100000000000 N
   0.1242200000000000    0.1689700000000000    0.4374150000000000 O
   0.1377500000000000    0.1732600000000000    0.3551500000000000 O
   0.1156400000000000    0.4805600000000000    0.4229150000000000 O
   0.1453400000000000    0.4852400000000000    0.3400250000000000 O
   0.2796900000000000    0.3291700000000000    0.4185650000000000 O
   0.3020100000000000    0.3244700000000000    0.3363450000000000 O
   0.9632800000000000    0.3195600000000000    0.4393900000000000 O
   0.0000000000000000    0.3378600000000000    0.3563900000000000 O
   0.2796900000000000    0.3291700000000000    0.9185650000000001 O
   0.3020100000000000    0.3244700000000000    0.8363450000000000 O
   0.9632800000000000    0.3195600000000000    0.9393899999999999 O
   0.0000000000000000    0.3378600000000000    0.8563900000000000 O
   0.1377500000000000    0.1732600000000000    0.8551500000000001 O
   0.1242200000000000    0.1689700000000000    0.9374150000000000 O
   0.1156400000000000    0.4805600000000000    0.9229149999999999 O
   0.1453400000000000    0.4852400000000000    0.8400250000000000 O
   0.8757800000000000    0.8310400000000000    0.5626050000000000 O
   0.8622500000000000    0.8267500000000000    0.6448700000000001 O
   0.8843600000000000    0.5194500000000000    0.5770999999999999 O
   0.8546700000000000    0.5147800000000000    0.6599900000000000 O
   0.8757800000000000    0.8310400000000000    0.0626050000000000 O
   0.8622500000000000    0.8267500000000000    0.1448700000000000 O
   0.8843600000000000    0.5194500000000000    0.0771000000000000 O
   0.8546700000000000    0.5147800000000000    0.1599900000000000 O
   0.7203100000000000    0.6708400000000000    0.5814500000000000 O
   0.6979900000000000    0.6755400000000000    0.6636750000000000 O
   0.0143300000000000    0.6621500000000000    0.6436300000000000 O
   0.0367200000000000    0.6804500000000000    0.5606300000000000 O
   0.7203100000000000    0.6708400000000000    0.0814500000000000 O
   0.6979900000000000    0.6755400000000000    0.1636750000000000 O
   0.0143300000000000    0.6621500000000000    0.1436300000000000 O
   0.0367200000000000    0.6804500000000000    0.0606300000000000 O
