H6 O4
1.0
  36.3569932165776919    0.0000000000000000   -0.0222092260839093
  -0.3005013726968706   29.0824475224202743   -0.0010152231190895
   0.0000000000000000    0.0000000000000000   30.4579999999999984
H O
6 4
direct
   0.1747878996800010    0.2215452753661639    0.7804677507864809 H
   0.1073460298104496    0.1345621670381400    0.8454348873755888 H
   0.1409211463760232    0.1807427321738432    0.8164556595214959 H
   0.1877800856888551    0.3205066446130899    0.9551440694536694 H
   0.1271074971936397    0.3593645000665802    0.9227490856188976 H
   0.1771623531416696    0.3598521722850017    0.8315809907856891 H
   0.1602933333333333    0.1935450000000000    0.7835500000000000 O
   0.1220433333333333    0.1442750000000000    0.8204700000000000 O
   0.1760233333333333    0.3184300000000000    0.9836650000000000 O
   0.1268766666666667    0.3509700000000000    0.9535700000000000 O
