Cd96 H570 C1140 O380
1.0
  36.3569932165776919    0.0000000000000000   -0.0222092260839093
  -0.3005013726968706   29.0824475224202743   -0.0010152231190895
   0.0000000000000000    0.0000000000000000   30.4579999999999984
Cd H C O
96 570 1140 380
direct
   0.0676333333333333    0.3540300000000000    0.4829900000000000 Cd
   0.1839133333333333    0.1459850000000000    0.2329900000000000 Cd
   0.0172400000000000    0.1459950000000000    0.2329950000000000 Cd
   0.2669366666666667    0.1037550000000000    0.2634950000000000 Cd
   0.1002633333333333    0.1037550000000000    0.2635000000000000 Cd
   0.3179633333333333    0.3962750000000000    0.0135000000000000 Cd
   0.1512933333333333    0.3962750000000000    0.0135050000000000 Cd
   0.2343033333333333    0.3540200000000000    0.4829900000000000 Cd
   0.4009666666666666    0.3540300000000000    0.4829900000000000 Cd
   0.5172466666666666    0.1459850000000000    0.2329900000000000 Cd
   0.3505733333333333    0.1459950000000000    0.2329950000000000 Cd
   0.6002700000000000    0.1037550000000000    0.2634950000000000 Cd
   0.4335966666666666    0.1037550000000000    0.2635000000000000 Cd
   0.6512966666666666    0.3962750000000000    0.0135000000000000 Cd
   0.4846266666666667    0.3962750000000000    0.0135050000000000 Cd
   0.5676366666666667    0.3540200000000000    0.4829900000000000 Cd
   0.7343000000000000    0.3540300000000000    0.4829900000000000 Cd
   0.8505799999999999    0.1459850000000000    0.2329900000000000 Cd
   0.6839066666666667    0.1459950000000000    0.2329950000000000 Cd
   0.9336033333333333    0.1037550000000000    0.2634950000000000 Cd
   0.7669300000000000    0.1037550000000000    0.2635000000000000 Cd
   0.9846299999999999    0.3962750000000000    0.0135000000000000 Cd
   0.8179600000000000    0.3962750000000000    0.0135050000000000 Cd
   0.9009699999999999    0.3540200000000000    0.4829900000000000 Cd
   0.0676333333333333    0.8540300000000001    0.4829900000000000 Cd
   0.1839133333333333    0.6459850000000000    0.2329900000000000 Cd
   0.0172400000000000    0.6459950000000000    0.2329950000000000 Cd
   0.2669366666666667    0.6037550000000000    0.2634950000000000 Cd
   0.1002633333333333    0.6037550000000000    0.2635000000000000 Cd
   0.3179633333333333    0.8962749999999999    0.0135000000000000 Cd
   0.1512933333333333    0.8962749999999999    0.0135050000000000 Cd
   0.2343033333333333    0.8540200000000000    0.4829900000000000 Cd
   0.4009666666666666    0.8540300000000001    0.4829900000000000 Cd
   0.5172466666666666    0.6459850000000000    0.2329900000000000 Cd
   0.3505733333333333    0.6459950000000000    0.2329950000000000 Cd
   0.6002700000000000    0.6037550000000000    0.2634950000000000 Cd
   0.4335966666666666    0.6037550000000000    0.2635000000000000 Cd
   0.6512966666666666    0.8962749999999999    0.0135000000000000 Cd
   0.4846266666666667    0.8962749999999999    0.0135050000000000 Cd
   0.5676366666666667    0.8540200000000000    0.4829900000000000 Cd
   0.7343000000000000    0.8540300000000001    0.4829900000000000 Cd
   0.8505799999999999    0.6459850000000000    0.2329900000000000 Cd
   0.6839066666666667    0.6459950000000000    0.2329950000000000 Cd
   0.9336033333333333    0.6037550000000000    0.2634950000000000 Cd
   0.7669300000000000    0.6037550000000000    0.2635000000000000 Cd
   0.9846299999999999    0.8962749999999999    0.0135000000000000 Cd
   0.8179600000000000    0.8962749999999999    0.0135050000000000 Cd
   0.9009699999999999    0.8540200000000000    0.4829900000000000 Cd
   0.0676333333333333    0.3540300000000000    0.9829900000000000 Cd
   0.1839133333333333    0.1459850000000000    0.7329900000000000 Cd
   0.0172400000000000    0.1459950000000000    0.7329950000000001 Cd
   0.2669366666666667    0.1037550000000000    0.7634950000000000 Cd
   0.1002633333333333    0.1037550000000000    0.7635000000000001 Cd
   0.3179633333333333    0.3962750000000000    0.5135000000000000 Cd
   0.1512933333333333    0.3962750000000000    0.5135050000000000 Cd
   0.2343033333333333    0.3540200000000000    0.9829900000000000 Cd
   0.4009666666666666    0.3540300000000000    0.9829900000000000 Cd
   0.5172466666666666    0.1459850000000000    0.7329900000000000 Cd
   0.3505733333333333    0.1459950000000000    0.7329950000000001 Cd
   0.6002700000000000    0.1037550000000000    0.7634950000000000 Cd
   0.4335966666666666    0.1037550000000000    0.7635000000000001 Cd
   0.6512966666666666    0.3962750000000000    0.5135000000000000 Cd
   0.4846266666666667    0.3962750000000000    0.5135050000000000 Cd
   0.5676366666666667    0.3540200000000000    0.9829900000000000 Cd
   0.7343000000000000    0.3540300000000000    0.9829900000000000 Cd
   0.8505799999999999    0.1459850000000000    0.7329900000000000 Cd
   0.6839066666666667    0.1459950000000000    0.7329950000000001 Cd
   0.9336033333333333    0.1037550000000000    0.7634950000000000 Cd
   0.7669300000000000    0.1037550000000000    0.7635000000000001 Cd
   0.9846299999999999    0.3962750000000000    0.5135000000000000 Cd
   0.8179600000000000    0.3962750000000000    0.5135050000000000 Cd
   0.9009699999999999    0.3540200000000000    0.9829900000000000 Cd
   0.0676333333333333    0.8540300000000001    0.9829900000000000 Cd
   0.1839133333333333    0.6459850000000000    0.7329900000000000 Cd
   0.0172400000000000    0.6459950000000000    0.7329950000000001 Cd
   0.2669366666666667    0.6037550000000000    0.7634950000000000 Cd
   0.1002633333333333    0.6037550000000000    0.7635000000000001 Cd
   0.3179633333333333    0.8962749999999999    0.5135000000000000 Cd
   0.1512933333333333    0.8962749999999999    0.5135050000000000 Cd
   0.2343033333333333    0.8540200000000000    0.9829900000000000 Cd
   0.4009666666666666    0.8540300000000001    0.9829900000000000 Cd
   0.5172466666666666    0.6459850000000000    0.7329900000000000 Cd
   0.3505733333333333    0.6459950000000000    0.7329950000000001 Cd
   0.6002700000000000    0.6037550000000000    0.7634950000000000 Cd
   0.4335966666666666    0.6037550000000000    0.7635000000000001 Cd
   0.6512966666666666    0.8962749999999999    0.5135000000000000 Cd
   0.4846266666666667    0.8962749999999999    0.5135050000000000 Cd
   0.5676366666666667    0.8540200000000000    0.9829900000000000 Cd
   0.7343000000000000    0.8540300000000001    0.9829900000000000 Cd
   0.8505799999999999    0.6459850000000000    0.7329900000000000 Cd
   0.6839066666666667    0.6459950000000000    0.7329950000000001 Cd
   0.9336033333333333    0.6037550000000000    0.7634950000000000 Cd
   0.7669300000000000    0.6037550000000000    0.7635000000000001 Cd
   0.9846299999999999    0.8962749999999999    0.5135000000000000 Cd
   0.8179600000000000    0.8962749999999999    0.5135050000000000 Cd
   0.9009699999999999    0.8540200000000000    0.9829900000000000 Cd
   0.1803833333333333    0.3753650000000000    0.3631650000000000 H
   0.0136600000000000    0.3753700000000000    0.3631900000000000 H
   0.1608100000000000    0.3512050000000000    0.2887600000000000 H
   0.0000000000000000    0.3512050000000000    0.2888050000000000 H
   0.1527666666666667    0.4095800000000000    0.2298300000000000 H
   0.0000000000000000    0.4095650000000000    0.2298600000000000 H
   0.1640433333333333    0.4919850000000000    0.2452700000000000 H
   0.0000000000000000    0.4919700000000000    0.2452750000000000 H
   0.2077600000000000    0.0768800000000000    0.3709950000000000 H
   0.0411033333333333    0.0768750000000000    0.3709700000000000 H
   0.2083500000000000    0.0197500000000000    0.4319700000000000 H
   0.0417000000000000    0.0197550000000000    0.4319550000000000 H
   0.2378133333333333    0.1246500000000000    0.1132550000000000 H
   0.0711033333333333    0.1246700000000000    0.1132600000000000 H
   0.2574600000000000    0.1488500000000000    0.0389250000000000 H
   0.0907266666666666    0.1488850000000000    0.0389300000000000 H
   0.2656100000000000    0.0905050000000000    0.4799900000000000 H
   0.0988833333333333    0.0905500000000000    0.4799850000000000 H
   0.2543200000000000    0.0080900000000000    0.4953450000000000 H
   0.0876200000000000    0.0081250000000000    0.4953400000000000 H
   0.2104400000000000    0.4231350000000000    0.1209100000000000 H
   0.0437700000000000    0.4231500000000000    0.1209050000000000 H
   0.2097900000000000    0.4802350000000000    0.1819050000000000 H
   0.0431200000000000    0.4802400000000000    0.1819050000000000 H
   0.3225466666666666    0.1264050000000000    0.3829450000000000 H
   0.1559233333333333    0.1264350000000000    0.3829150000000000 H
   0.0084600000000000    0.1029300000000000    0.4575300000000000 H
   0.1752066666666666    0.1029650000000000    0.4574900000000000 H
   0.0153000000000000    0.1615150000000000    0.0166600000000000 H
   0.0033366666666667    0.2434450000000000    0.0012250000000000 H
   0.2931433333333333    0.3267200000000000    0.3750100000000000 H
   0.1264866666666667    0.3267450000000000    0.3750000000000000 H
   0.2932500000000000    0.2695500000000000    0.3140850000000000 H
   0.1265933333333333    0.2695750000000000    0.3140700000000000 H
   0.2625033333333333    0.3736300000000000    0.1328650000000000 H
   0.0958000000000000    0.3736100000000000    0.1328700000000000 H
   0.2432066666666667    0.3971750000000000    0.2073800000000000 H
   0.0764833333333333    0.3971350000000000    0.2073850000000000 H
   0.2362133333333333    0.3386300000000000    0.2664950000000000 H
   0.0694966666666667    0.3385750000000000    0.2664900000000000 H
   0.2481200000000000    0.2566700000000000    0.2511350000000000 H
   0.0814266666666667    0.2566250000000000    0.2511200000000000 H
   0.2917733333333333    0.1732950000000000    0.1250900000000000 H
   0.1251300000000000    0.1732850000000000    0.1250750000000000 H
   0.2917166666666666    0.2304250000000000    0.0641350000000000 H
   0.1250733333333333    0.2304250000000000    0.0641300000000000 H
   0.5137166666666666    0.3753650000000000    0.3631650000000000 H
   0.3469933333333333    0.3753700000000000    0.3631900000000000 H
   0.4941433333333333    0.3512050000000000    0.2887600000000000 H
   0.3333333333333333    0.3512050000000000    0.2888050000000000 H
   0.4861000000000000    0.4095800000000000    0.2298300000000000 H
   0.3333333333333333    0.4095650000000000    0.2298600000000000 H
   0.4973766666666666    0.4919850000000000    0.2452700000000000 H
   0.3333333333333333    0.4919700000000000    0.2452750000000000 H
   0.5410933333333333    0.0768800000000000    0.3709950000000000 H
   0.3744366666666666    0.0768750000000000    0.3709700000000000 H
   0.5416833333333333    0.0197500000000000    0.4319700000000000 H
   0.3750333333333333    0.0197550000000000    0.4319550000000000 H
   0.5711466666666667    0.1246500000000000    0.1132550000000000 H
   0.4044366666666667    0.1246700000000000    0.1132600000000000 H
   0.5907933333333333    0.1488500000000000    0.0389250000000000 H
   0.4240600000000000    0.1488850000000000    0.0389300000000000 H
   0.5989433333333334    0.0905050000000000    0.4799900000000000 H
   0.4322166666666666    0.0905500000000000    0.4799850000000000 H
   0.5876533333333334    0.0080900000000000    0.4953450000000000 H
   0.4209533333333333    0.0081250000000000    0.4953400000000000 H
   0.5437733333333333    0.4231350000000000    0.1209100000000000 H
   0.3771033333333333    0.4231500000000000    0.1209050000000000 H
   0.5431233333333333    0.4802350000000000    0.1819050000000000 H
   0.3764533333333333    0.4802400000000000    0.1819050000000000 H
   0.6558800000000000    0.1264050000000000    0.3829450000000000 H
   0.4892566666666667    0.1264350000000000    0.3829150000000000 H
   0.3417933333333333    0.1029300000000000    0.4575300000000000 H
   0.5085400000000000    0.1029650000000000    0.4574900000000000 H
   0.3486333333333333    0.1615150000000000    0.0166600000000000 H
   0.5153766666666666    0.1615450000000000    0.0166200000000000 H
   0.3366700000000000    0.2434450000000000    0.0012250000000000 H
   0.5033933333333334    0.2434650000000000    0.0012000000000000 H
   0.6264766666666666    0.3267200000000000    0.3750100000000000 H
   0.4598200000000000    0.3267450000000000    0.3750000000000000 H
   0.6265833333333333    0.2695500000000000    0.3140850000000000 H
   0.4599266666666667    0.2695750000000000    0.3140700000000000 H
   0.5958366666666666    0.3736300000000000    0.1328650000000000 H
   0.4291333333333333    0.3736100000000000    0.1328700000000000 H
   0.5765400000000001    0.3971750000000000    0.2073800000000000 H
   0.4098166666666666    0.3971350000000000    0.2073850000000000 H
   0.5695466666666666    0.3386300000000000    0.2664950000000000 H
   0.4028300000000000    0.3385750000000000    0.2664900000000000 H
   0.5814533333333334    0.2566700000000000    0.2511350000000000 H
   0.4147600000000000    0.2566250000000000    0.2511200000000000 H
   0.6251066666666667    0.1732950000000000    0.1250900000000000 H
   0.4584633333333333    0.1732850000000000    0.1250750000000000 H
   0.6250499999999999    0.2304250000000000    0.0641350000000000 H
   0.4584066666666666    0.2304250000000000    0.0641300000000000 H
   0.8470500000000000    0.3753650000000000    0.3631650000000000 H
   0.6803266666666666    0.3753700000000000    0.3631900000000000 H
   0.8274766666666666    0.3512050000000000    0.2887600000000000 H
   0.6666666666666666    0.3512050000000000    0.2888050000000000 H
   0.8194333333333332    0.4095800000000000    0.2298300000000000 H
   0.6666666666666666    0.4095650000000000    0.2298600000000000 H
   0.8307099999999999    0.4919850000000000    0.2452700000000000 H
   0.6666666666666666    0.4919700000000000    0.2452750000000000 H
   0.8744266666666666    0.0768800000000000    0.3709950000000000 H
   0.7077700000000000    0.0768750000000000    0.3709700000000000 H
   0.8750166666666666    0.0197500000000000    0.4319700000000000 H
   0.7083666666666666    0.0197550000000000    0.4319550000000000 H
   0.9044800000000000    0.1246500000000000    0.1132550000000000 H
   0.7377699999999999    0.1246700000000000    0.1132600000000000 H
   0.9241266666666665    0.1488500000000000    0.0389250000000000 H
   0.7573933333333333    0.1488850000000000    0.0389300000000000 H
   0.9322766666666666    0.0905050000000000    0.4799900000000000 H
   0.7655500000000000    0.0905500000000000    0.4799850000000000 H
   0.9209866666666666    0.0080900000000000    0.4953450000000000 H
   0.7542866666666667    0.0081250000000000    0.4953400000000000 H
   0.8771066666666666    0.4231350000000000    0.1209100000000000 H
   0.7104366666666666    0.4231500000000000    0.1209050000000000 H
   0.8764566666666667    0.4802350000000000    0.1819050000000000 H
   0.7097866666666667    0.4802400000000000    0.1819050000000000 H
   0.9892133333333333    0.1264050000000000    0.3829450000000000 H
   0.8225899999999999    0.1264350000000000    0.3829150000000000 H
   0.6751266666666667    0.1029300000000000    0.4575300000000000 H
   0.8418733333333333    0.1029650000000000    0.4574900000000000 H
   0.6819666666666666    0.1615150000000000    0.0166600000000000 H
   0.8487100000000000    0.1615450000000000    0.0166200000000000 H
   0.6700033333333333    0.2434450000000000    0.0012250000000000 H
   0.8367266666666666    0.2434650000000000    0.0012000000000000 H
   0.9598099999999999    0.3267200000000000    0.3750100000000000 H
   0.7931533333333333    0.3267450000000000    0.3750000000000000 H
   0.9599166666666666    0.2695500000000000    0.3140850000000000 H
   0.7932600000000000    0.2695750000000000    0.3140700000000000 H
   0.9291699999999999    0.3736300000000000    0.1328650000000000 H
   0.7624666666666666    0.3736100000000000    0.1328700000000000 H
   0.9098733333333333    0.3971750000000000    0.2073800000000000 H
   0.7431500000000000    0.3971350000000000    0.2073850000000000 H
   0.9028799999999999    0.3386300000000000    0.2664950000000000 H
   0.7361633333333333    0.3385750000000000    0.2664900000000000 H
   0.9147866666666666    0.2566700000000000    0.2511350000000000 H
   0.7480933333333333    0.2566250000000000    0.2511200000000000 H
   0.9584400000000000    0.1732950000000000    0.1250900000000000 H
   0.7917966666666666    0.1732850000000000    0.1250750000000000 H
   0.9583833333333333    0.2304250000000000    0.0641350000000000 H
   0.7917399999999999    0.2304250000000000    0.0641300000000000 H
   0.1803833333333333    0.8753649999999999    0.3631650000000000 H
   0.0136600000000000    0.8753700000000000    0.3631900000000000 H
   0.1608100000000000    0.8512050000000000    0.2887600000000000 H
   0.0000000000000000    0.8512050000000000    0.2888050000000000 H
   0.1527666666666667    0.9095800000000001    0.2298300000000000 H
   0.0000000000000000    0.9095650000000000    0.2298600000000000 H
   0.1640433333333333    0.9919850000000000    0.2452700000000000 H
   0.0000000000000000    0.9919700000000000    0.2452750000000000 H
   0.2077600000000000    0.5768800000000001    0.3709950000000000 H
   0.0411033333333333    0.5768750000000000    0.3709700000000000 H
   0.2083500000000000    0.5197500000000000    0.4319700000000000 H
   0.0417000000000000    0.5197550000000000    0.4319550000000000 H
   0.2378133333333333    0.6246500000000000    0.1132550000000000 H
   0.0711033333333333    0.6246700000000001    0.1132600000000000 H
   0.2574600000000000    0.6488500000000000    0.0389250000000000 H
   0.0907266666666666    0.6488849999999999    0.0389300000000000 H
   0.2656100000000000    0.5905050000000001    0.4799900000000000 H
   0.0988833333333333    0.5905500000000000    0.4799850000000000 H
   0.2543200000000000    0.5080900000000000    0.4953450000000000 H
   0.0876200000000000    0.5081250000000000    0.4953400000000000 H
   0.2104400000000000    0.9231350000000000    0.1209100000000000 H
   0.0437700000000000    0.9231500000000000    0.1209050000000000 H
   0.2097900000000000    0.9802350000000000    0.1819050000000000 H
   0.0431200000000000    0.9802400000000000    0.1819050000000000 H
   0.3225466666666666    0.6264050000000000    0.3829450000000000 H
   0.1559233333333333    0.6264350000000000    0.3829150000000000 H
   0.0084600000000000    0.6029300000000000    0.4575300000000000 H
   0.1752066666666666    0.6029650000000000    0.4574900000000000 H
   0.0153000000000000    0.6615150000000000    0.0166600000000000 H
   0.1820433333333333    0.6615450000000000    0.0166200000000000 H
   0.0033366666666667    0.7434450000000000    0.0012250000000000 H
   0.1700600000000000    0.7434650000000000    0.0012000000000000 H
   0.2931433333333333    0.8267200000000000    0.3750100000000000 H
   0.1264866666666667    0.8267450000000001    0.3750000000000000 H
   0.2932500000000000    0.7695500000000000    0.3140850000000000 H
   0.1265933333333333    0.7695750000000000    0.3140700000000000 H
   0.2625033333333333    0.8736300000000000    0.1328650000000000 H
   0.0958000000000000    0.8736100000000000    0.1328700000000000 H
   0.2432066666666667    0.8971750000000001    0.2073800000000000 H
   0.0764833333333333    0.8971350000000000    0.2073850000000000 H
   0.2362133333333333    0.8386300000000000    0.2664950000000000 H
   0.0694966666666667    0.8385750000000001    0.2664900000000000 H
   0.2481200000000000    0.7566700000000000    0.2511350000000000 H
   0.0814266666666667    0.7566250000000000    0.2511200000000000 H
   0.2917733333333333    0.6732950000000000    0.1250900000000000 H
   0.1251300000000000    0.6732850000000000    0.1250750000000000 H
   0.2917166666666666    0.7304250000000000    0.0641350000000000 H
   0.1250733333333333    0.7304250000000000    0.0641300000000000 H
   0.5137166666666666    0.8753649999999999    0.3631650000000000 H
   0.3469933333333333    0.8753700000000000    0.3631900000000000 H
   0.4941433333333333    0.8512050000000000    0.2887600000000000 H
   0.3333333333333333    0.8512050000000000    0.2888050000000000 H
   0.4861000000000000    0.9095800000000001    0.2298300000000000 H
   0.3333333333333333    0.9095650000000000    0.2298600000000000 H
   0.4973766666666666    0.9919850000000000    0.2452700000000000 H
   0.3333333333333333    0.9919700000000000    0.2452750000000000 H
   0.5410933333333333    0.5768800000000001    0.3709950000000000 H
   0.3744366666666666    0.5768750000000000    0.3709700000000000 H
   0.5416833333333333    0.5197500000000000    0.4319700000000000 H
   0.3750333333333333    0.5197550000000000    0.4319550000000000 H
   0.5711466666666667    0.6246500000000000    0.1132550000000000 H
   0.4044366666666667    0.6246700000000001    0.1132600000000000 H
   0.5907933333333333    0.6488500000000000    0.0389250000000000 H
   0.4240600000000000    0.6488849999999999    0.0389300000000000 H
   0.5989433333333334    0.5905050000000001    0.4799900000000000 H
   0.4322166666666666    0.5905500000000000    0.4799850000000000 H
   0.5876533333333334    0.5080900000000000    0.4953450000000000 H
   0.4209533333333333    0.5081250000000000    0.4953400000000000 H
   0.5437733333333333    0.9231350000000000    0.1209100000000000 H
   0.3771033333333333    0.9231500000000000    0.1209050000000000 H
   0.5431233333333333    0.9802350000000000    0.1819050000000000 H
   0.3764533333333333    0.9802400000000000    0.1819050000000000 H
   0.6558800000000000    0.6264050000000000    0.3829450000000000 H
   0.4892566666666667    0.6264350000000000    0.3829150000000000 H
   0.3417933333333333    0.6029300000000000    0.4575300000000000 H
   0.5085400000000000    0.6029650000000000    0.4574900000000000 H
   0.3486333333333333    0.6615150000000000    0.0166600000000000 H
   0.5153766666666666    0.6615450000000000    0.0166200000000000 H
   0.3366700000000000    0.7434450000000000    0.0012250000000000 H
   0.5033933333333334    0.7434650000000000    0.0012000000000000 H
   0.6264766666666666    0.8267200000000000    0.3750100000000000 H
   0.4598200000000000    0.8267450000000001    0.3750000000000000 H
   0.6265833333333333    0.7695500000000000    0.3140850000000000 H
   0.4599266666666667    0.7695750000000000    0.3140700000000000 H
   0.5958366666666666    0.8736300000000000    0.1328650000000000 H
   0.4291333333333333    0.8736100000000000    0.1328700000000000 H
   0.5765400000000001    0.8971750000000001    0.2073800000000000 H
   0.4098166666666666    0.8971350000000000    0.2073850000000000 H
   0.5695466666666666    0.8386300000000000    0.2664950000000000 H
   0.4028300000000000    0.8385750000000001    0.2664900000000000 H
   0.5814533333333334    0.7566700000000000    0.2511350000000000 H
   0.4147600000000000    0.7566250000000000    0.2511200000000000 H
   0.6251066666666667    0.6732950000000000    0.1250900000000000 H
   0.4584633333333333    0.6732850000000000    0.1250750000000000 H
   0.6250499999999999    0.7304250000000000    0.0641350000000000 H
   0.4584066666666666    0.7304250000000000    0.0641300000000000 H
   0.8470500000000000    0.8753649999999999    0.3631650000000000 H
   0.6803266666666666    0.8753700000000000    0.3631900000000000 H
   0.8274766666666666    0.8512050000000000    0.2887600000000000 H
   0.6666666666666666    0.8512050000000000    0.2888050000000000 H
   0.8194333333333332    0.9095800000000001    0.2298300000000000 H
   0.6666666666666666    0.9095650000000000    0.2298600000000000 H
   0.8307099999999999    0.9919850000000000    0.2452700000000000 H
   0.6666666666666666    0.9919700000000000    0.2452750000000000 H
   0.8744266666666666    0.5768800000000001    0.3709950000000000 H
   0.7077700000000000    0.5768750000000000    0.3709700000000000 H
   0.8750166666666666    0.5197500000000000    0.4319700000000000 H
   0.7083666666666666    0.5197550000000000    0.4319550000000000 H
   0.9044800000000000    0.6246500000000000    0.1132550000000000 H
   0.7377699999999999    0.6246700000000001    0.1132600000000000 H
   0.9241266666666665    0.6488500000000000    0.0389250000000000 H
   0.7573933333333333    0.6488849999999999    0.0389300000000000 H
   0.9322766666666666    0.5905050000000001    0.4799900000000000 H
   0.7655500000000000    0.5905500000000000    0.4799850000000000 H
   0.9209866666666666    0.5080900000000000    0.4953450000000000 H
   0.7542866666666667    0.5081250000000000    0.4953400000000000 H
   0.8771066666666666    0.9231350000000000    0.1209100000000000 H
   0.7104366666666666    0.9231500000000000    0.1209050000000000 H
   0.8764566666666667    0.9802350000000000    0.1819050000000000 H
   0.7097866666666667    0.9802400000000000    0.1819050000000000 H
   0.9892133333333333    0.6264050000000000    0.3829450000000000 H
   0.8225899999999999    0.6264350000000000    0.3829150000000000 H
   0.6751266666666667    0.6029300000000000    0.4575300000000000 H
   0.8418733333333333    0.6029650000000000    0.4574900000000000 H
   0.6819666666666666    0.6615150000000000    0.0166600000000000 H
   0.8487100000000000    0.6615450000000000    0.0166200000000000 H
   0.6700033333333333    0.7434450000000000    0.0012250000000000 H
   0.8367266666666666    0.7434650000000000    0.0012000000000000 H
   0.9598099999999999    0.8267200000000000    0.3750100000000000 H
   0.7931533333333333    0.8267450000000001    0.3750000000000000 H
   0.9599166666666666    0.7695500000000000    0.3140850000000000 H
   0.7932600000000000    0.7695750000000000    0.3140700000000000 H
   0.9291699999999999    0.8736300000000000    0.1328650000000000 H
   0.7624666666666666    0.8736100000000000    0.1328700000000000 H
   0.9098733333333333    0.8971750000000001    0.2073800000000000 H
   0.7431500000000000    0.8971350000000000    0.2073850000000000 H
   0.9028799999999999    0.8386300000000000    0.2664950000000000 H
   0.7361633333333333    0.8385750000000001    0.2664900000000000 H
   0.9147866666666666    0.7566700000000000    0.2511350000000000 H
   0.7480933333333333    0.7566250000000000    0.2511200000000000 H
   0.9584400000000000    0.6732950000000000    0.1250900000000000 H
   0.7917966666666666    0.6732850000000000    0.1250750000000000 H
   0.9583833333333333    0.7304250000000000    0.0641350000000000 H
   0.7917399999999999    0.7304250000000000    0.0641300000000000 H
   0.1803833333333333    0.3753650000000000    0.8631650000000000 H
   0.0136600000000000    0.3753700000000000    0.8631900000000000 H
   0.1608100000000000    0.3512050000000000    0.7887600000000000 H
   0.0000000000000000    0.3512050000000000    0.7888050000000000 H
   0.1527666666666667    0.4095800000000000    0.7298300000000000 H
   0.0000000000000000    0.4095650000000000    0.7298600000000000 H
   0.1640433333333333    0.4919850000000000    0.7452700000000000 H
   0.0000000000000000    0.4919700000000000    0.7452750000000000 H
   0.2077600000000000    0.0768800000000000    0.8709950000000000 H
   0.0411033333333333    0.0768750000000000    0.8709700000000000 H
   0.2083500000000000    0.0197500000000000    0.9319700000000000 H
   0.0417000000000000    0.0197550000000000    0.9319550000000000 H
   0.2378133333333333    0.1246500000000000    0.6132550000000000 H
   0.0711033333333333    0.1246700000000000    0.6132600000000000 H
   0.2574600000000000    0.1488500000000000    0.5389250000000000 H
   0.0907266666666666    0.1488850000000000    0.5389300000000000 H
   0.2656100000000000    0.0905050000000000    0.9799900000000000 H
   0.0988833333333333    0.0905500000000000    0.9799850000000000 H
   0.2543200000000000    0.0080900000000000    0.9953449999999999 H
   0.0876200000000000    0.0081250000000000    0.9953400000000000 H
   0.2104400000000000    0.4231350000000000    0.6209100000000000 H
   0.0437700000000000    0.4231500000000000    0.6209050000000000 H
   0.2097900000000000    0.4802350000000000    0.6819050000000000 H
   0.0431200000000000    0.4802400000000000    0.6819050000000000 H
   0.3225466666666666    0.1264050000000000    0.8829450000000000 H
   0.0084600000000000    0.1029300000000000    0.9575300000000000 H
   0.0153000000000000    0.1615150000000000    0.5166600000000000 H
   0.1820433333333333    0.1615450000000000    0.5166200000000000 H
   0.0033366666666667    0.2434450000000000    0.5012250000000000 H
   0.1700600000000000    0.2434650000000000    0.5012000000000000 H
   0.2931433333333333    0.3267200000000000    0.8750100000000001 H
   0.2932500000000000    0.2695500000000000    0.8140849999999999 H
   0.2625033333333333    0.3736300000000000    0.6328650000000000 H
   0.0958000000000000    0.3736100000000000    0.6328700000000000 H
   0.2432066666666667    0.3971750000000000    0.7073800000000000 H
   0.0764833333333333    0.3971350000000000    0.7073850000000000 H
   0.2362133333333333    0.3386300000000000    0.7664949999999999 H
   0.0694966666666667    0.3385750000000000    0.7664900000000000 H
   0.2481200000000000    0.2566700000000000    0.7511350000000000 H
   0.0814266666666667    0.2566250000000000    0.7511200000000000 H
   0.2917733333333333    0.1732950000000000    0.6250900000000000 H
   0.1251300000000000    0.1732850000000000    0.6250750000000000 H
   0.2917166666666666    0.2304250000000000    0.5641350000000001 H
   0.1250733333333333    0.2304250000000000    0.5641300000000000 H
   0.5137166666666666    0.3753650000000000    0.8631650000000000 H
   0.3469933333333333    0.3753700000000000    0.8631900000000000 H
   0.4941433333333333    0.3512050000000000    0.7887600000000000 H
   0.3333333333333333    0.3512050000000000    0.7888050000000000 H
   0.4861000000000000    0.4095800000000000    0.7298300000000000 H
   0.3333333333333333    0.4095650000000000    0.7298600000000000 H
   0.4973766666666666    0.4919850000000000    0.7452700000000000 H
   0.3333333333333333    0.4919700000000000    0.7452750000000000 H
   0.5410933333333333    0.0768800000000000    0.8709950000000000 H
   0.3744366666666666    0.0768750000000000    0.8709700000000000 H