H6 O6
1.0
  33.7824997478769191    0.0000000000000000   -0.0041273109716195
  -0.0006244131804919   35.7674999727588272   -0.0012485212801552
   0.0000000000000000    0.0000000000000000   35.9324999999999974
H O
6 6
direct
   0.1999749927786176    0.3566863053041902    0.9568343643326332 H
   0.9999749927786177    0.9566863053041902    0.9568343643326332 H
   0.8000186763541116    0.7566864744772605    0.2431651331812211 H
   0.7999749927786177    0.9566863053041902    0.5568343643326332 H
   0.5999749927786177    0.7566863053041903    0.7568343643326334 H
   0.8000166760426521    0.6433324055030545    0.6431627158822731 H
   0.1999800000000000    0.3375220000000000    0.9373980000000001 O
   0.9999800000000001    0.9375220000000001    0.9373980000000001 O
   0.8000120000000001    0.7375220000000001    0.2626000000000000 O
   0.7999800000000001    0.9375220000000001    0.5373980000000000 O
   0.5999800000000001    0.7375220000000001    0.7373980000000001 O
   0.8000100000000000    0.6625060000000000    0.6625900000000001 O
