H12 O6
1.0
  33.7824997478769191    0.0000000000000000   -0.0041273109716195
  -0.0006244131804919   35.7674999727588272   -0.0012485212801552
   0.0000000000000000    0.0000000000000000   35.9324999999999974
H O
12 6
direct
   0.7263448024415983    0.9232469201619072    0.6999804656371665 H
   0.7263452493677418    0.8767883117115572    0.6999775721717609 H
   0.6736445101031867    0.8767886768364616    0.7000120885139300 H
   0.6736454371796502    0.9232472838860782    0.7000149807226944 H
   0.4736445101031866    0.6767886768364616    0.1000120885139300 H
   0.4736454371796501    0.7232472838860783    0.1000149807226943 H
   0.5263448024415982    0.7232469201619073    0.0999804656371665 H
   0.5263452493677416    0.6767883117115572    0.0999775721717609 H
   0.2736454371796501    0.7232472838860783    0.3000149807226943 H
   0.2736445101031866    0.6767886768364616    0.3000120885139300 H
   0.3263448024415982    0.7232469201619074    0.2999804656371665 H
   0.3263452493677416    0.6767883117115572    0.2999775721717609 H
   0.7416480000000001    0.9000180000000001    0.6999660000000001 O
   0.6583420000000001    0.9000180000000001    0.7000280000000001 O
   0.4583420000000000    0.7000180000000001    0.1000280000000000 O
   0.5416480000000000    0.7000180000000001    0.0999660000000000 O
   0.2583420000000000    0.7000180000000001    0.3000280000000000 O
   0.3416480000000000    0.7000180000000001    0.2999660000000000 O
