H12 C12 N6
1.0
  33.7824997478769191    0.0000000000000000   -0.0041273109716195
  -0.0006244131804919   35.7674999727588272   -0.0012485212801552
   0.0000000000000000    0.0000000000000000   35.9324999999999974
H C N
12 12 6
direct
   0.5371920000000000    0.7580880000000001    0.0999520000000000 H
   0.4628000000000000    0.7580880000000001    0.1000460000000000 H
   0.4627980000000000    0.6419480000000001    0.1000360000000000 H
   0.5371900000000001    0.6419480000000001    0.0999440000000000 H
   0.3371920000000000    0.7580880000000001    0.2999520000000000 H
   0.2628000000000000    0.7580880000000001    0.3000460000000000 H
   0.2627980000000000    0.6419480000000001    0.3000360000000000 H
   0.3371900000000000    0.6419480000000001    0.2999440000000000 H
   0.7371920000000001    0.9580880000000001    0.6999520000000001 H
   0.6628000000000001    0.9580880000000001    0.7000460000000001 H
   0.6627980000000001    0.8419480000000000    0.7000360000000001 H
   0.7371900000000001    0.8419480000000000    0.6999440000000001 H
   0.5204900000000000    0.7321340000000001    0.0999860000000000 C
   0.4795000000000000    0.7321340000000001    0.1000100000000000 C
   0.4795000000000000    0.6679000000000000    0.1000060000000000 C
   0.5204900000000000    0.6679000000000000    0.0999820000000000 C
   0.3204900000000001    0.7321340000000001    0.2999860000000000 C
   0.2795000000000000    0.7321340000000001    0.3000100000000000 C
   0.2795000000000000    0.6679000000000000    0.3000060000000000 C
   0.3204900000000001    0.6679000000000000    0.2999820000000000 C
   0.7204900000000001    0.9321340000000000    0.6999860000000001 C
   0.6795000000000001    0.9321340000000000    0.7000100000000001 C
   0.6795000000000001    0.8679000000000000    0.7000060000000001 C
   0.7204900000000001    0.8679000000000000    0.6999820000000001 C
   0.5416480000000000    0.7000180000000001    0.0999660000000000 N
   0.4583420000000000    0.7000180000000001    0.1000280000000000 N
   0.3416480000000000    0.7000180000000001    0.2999660000000000 N
   0.2583420000000000    0.7000180000000001    0.3000280000000000 N
   0.7416480000000001    0.9000180000000001    0.6999660000000001 N
   0.6583420000000001    0.9000180000000001    0.7000280000000001 N
