H8 C12 N5
1.0
  31.1774285783713196    0.0000000000000000    9.8020952474741616
  -7.7368557620816745   14.9668013968380684    6.5536251696560761
   0.0000000000000000    0.0000000000000000   36.1319999999999979
H C N
8 12 5
direct
   0.4304700000000000    0.5743100000000000    0.4925900000000000 H
   0.2936400000000000    0.7326600000000000    0.5979800000000000 H
   0.2491700000000000    0.8128800000000000    0.6219749999999999 H
   0.2018500000000000    0.7530700000000000    0.7044000000000000 H
   0.2006700000000000    0.6179300000000000    0.7589049999999999 H
   0.3864350000000000    0.4348200000000000    0.6522500000000000 H
   0.4490100000000000    0.4241000000000000    0.5986950000000000 H
   0.3686400000000000    0.5942000000000000    0.5420900000000000 H
   0.2966750000000000    0.5877500000000000    0.6559349999999999 C
   0.3391900000000000    0.5331700000000000    0.6315100000000000 C
   0.2714100000000000    0.6369200000000000    0.6652650000000000 C
   0.2731650000000000    0.7112600000000000    0.6329899999999999 C
   0.2483100000000000    0.7545900000000000    0.6465300000000000 C
   0.2218900000000000    0.7214400000000000    0.6922400000000000 C
   0.2211150000000000    0.6464700000000000    0.7228950000000001 C
   0.3726350000000000    0.5178300000000000    0.6017550000000000 C
   0.3952500000000000    0.4670400000000000    0.6170300000000000 C
   0.4303100000000000    0.4607300000000000    0.5871500000000001 C
   0.4201900000000000    0.5448900000000000    0.5281100000000000 C
   0.3854850000000000    0.5555700000000000    0.5559200000000000 C
   0.2926900000000000    0.5210000000000000    0.6923250000000000 N
   0.3203100000000000    0.4854900000000000    0.6768500000000000 N
   0.3253200000000000    0.5976500000000000    0.6170949999999999 N
   0.2454700000000000    0.6040500000000000    0.7102800000000000 N
   0.4440850000000000    0.5002100000000000    0.5425300000000000 N
