Y12 H68 C136 O68
1.0
  10.3776394322981034    0.0000000000000000    3.0051648562452451
   4.4923340633148188   30.8152912709781788    9.0414095996341945
   0.0000000000000000    0.0000000000000000   18.3889999999999993
Y H C O
12 68 136 68
direct
   0.4728000000000000    0.1816933333333333    0.8982100000000000 Y
   0.5450000000000000    0.1575900000000000    0.3983800000000000 Y
   0.5277900000000000    0.1514500000000000    0.1015800000000000 Y
   0.4545800000000000    0.1758266666666666    0.6015100000000000 Y
   0.4728000000000000    0.5150266666666666    0.8982100000000000 Y
   0.5450000000000000    0.4909233333333333    0.3983800000000000 Y
   0.5277900000000000    0.4847833333333333    0.1015800000000000 Y
   0.4545800000000000    0.5091599999999999    0.6015100000000000 Y
   0.4728000000000000    0.8483600000000000    0.8982100000000000 Y
   0.5450000000000000    0.8242566666666666    0.3983800000000000 Y
   0.5277900000000000    0.8181166666666666    0.1015800000000000 Y
   0.4545800000000000    0.8424933333333333    0.6015100000000000 Y
   0.7873300000000000    0.1887166666666667    0.5858100000000001 H
   0.1157300000000000    0.1700833333333333    0.7258900000000000 H
   0.0049200000000000    0.1390900000000000    0.3859200000000000 H
   0.1973800000000000    0.1200266666666667    0.9528900000000000 H
   0.9586800000000000    0.1209366666666667    0.0132400000000000 H
   0.8759700000000000    0.1725200000000000    0.7871600000000000 H
   0.4348700000000000    0.0710933333333333    0.9137400000000000 H
   0.4899900000000000    0.2950333333333333    0.7739900000000000 H
   0.5811600000000000    0.3320600000000000    0.1146400000000000 H
   0.6386500000000001    0.2679100000000000    0.5469800000000000 H
   0.6369100000000000    0.0139633333333333    0.4865800000000000 H
   0.4825600000000000    0.0415033333333333    0.7126000000000000 H
   0.2133100000000000    0.1446166666666667    0.4144100000000000 H
   0.8850600000000000    0.1633033333333333    0.2742800000000000 H
   0.9960599999999999    0.1939333333333333    0.6142500000000000 H
   0.8032500000000000    0.2130333333333333    0.0472900000000000 H
   0.0416600000000000    0.2123066666666667    0.0000000000000000 H
   0.1250800000000000    0.1606533333333333    0.2125500000000000 H
   0.5654400000000001    0.2624700000000000    0.0863800000000000 H
   0.5098300000000000    0.0387633333333333    0.2261200000000000 H
   0.4182400000000000    0.0016566666666667    0.8853200000000000 H
   0.3598100000000000    0.0659033333333333    0.4530900000000000 H
   0.3627700000000000    0.3194399999999999    0.5131900000000000 H
   0.5171700000000000    0.2920199999999999    0.2870900000000000 H
   0.1157300000000000    0.5034166666666666    0.7258900000000000 H
   0.1973800000000000    0.4533600000000000    0.9528900000000000 H
   0.9586800000000000    0.4542700000000000    0.0132400000000000 H
   0.8759700000000000    0.5058533333333333    0.7871600000000000 H
   0.4348700000000000    0.4044266666666667    0.9137400000000000 H
   0.4899900000000000    0.6283666666666666    0.7739900000000000 H
   0.5811600000000000    0.6653933333333333    0.1146400000000000 H
   0.6386500000000001    0.6012433333333334    0.5469800000000000 H
   0.6369100000000000    0.3472966666666666    0.4865800000000000 H
   0.4825600000000000    0.3748366666666667    0.7126000000000000 H
   0.8850600000000000    0.4966366666666666    0.2742800000000000 H
   0.8032500000000000    0.5463666666666667    0.0472900000000000 H
   0.0416600000000000    0.5456400000000000    0.0000000000000000 H
   0.1250800000000000    0.4939866666666666    0.2125500000000000 H
   0.5654400000000001    0.5958033333333332    0.0863800000000000 H
   0.5098300000000000    0.3720966666666666    0.2261200000000000 H
   0.4182400000000000    0.3349900000000000    0.8853200000000000 H
   0.3598100000000000    0.3992366666666666    0.4530900000000000 H
   0.3627700000000000    0.6527733333333332    0.5131900000000000 H
   0.5171700000000000    0.6253533333333332    0.2870900000000000 H
   0.7873300000000000    0.8553833333333333    0.5858100000000001 H
   0.1157300000000000    0.8367499999999999    0.7258900000000000 H
   0.0049200000000000    0.8057566666666667    0.3859200000000000 H
   0.1973800000000000    0.7866933333333332    0.9528900000000000 H
   0.9586800000000000    0.7876033333333333    0.0132400000000000 H
   0.8759700000000000    0.8391866666666666    0.7871600000000000 H
   0.4348700000000000    0.7377600000000000    0.9137400000000000 H
   0.4899900000000000    0.9617000000000000    0.7739900000000000 H
   0.5811600000000000    0.9987266666666665    0.1146400000000000 H
   0.6386500000000001    0.9345766666666666    0.5469800000000000 H
   0.6369100000000000    0.6806300000000000    0.4865800000000000 H
   0.4825600000000000    0.7081700000000000    0.7126000000000000 H
   0.2133100000000000    0.8112833333333334    0.4144100000000000 H
   0.8850600000000000    0.8299700000000000    0.2742800000000000 H
   0.9960599999999999    0.8605999999999999    0.6142500000000000 H
   0.8032500000000000    0.8796999999999999    0.0472900000000000 H
   0.0416600000000000    0.8789733333333333    0.0000000000000000 H
   0.1250800000000000    0.8273199999999999    0.2125500000000000 H
   0.5654400000000001    0.9291366666666666    0.0863800000000000 H
   0.5098300000000000    0.7054300000000000    0.2261200000000000 H
   0.4182400000000000    0.6683233333333333    0.8853200000000000 H
   0.3598100000000000    0.7325699999999999    0.4530900000000000 H
   0.3627700000000000    0.9861066666666666    0.5131900000000000 H
   0.5171700000000000    0.9586866666666666    0.2870900000000000 H
   0.3110300000000000    0.1483266666666667    0.8005100000000001 C
   0.8829399999999999    0.1636500000000000    0.4838800000000000 C
   0.9039100000000000    0.1474566666666667    0.9036600000000000 C
   0.7614400000000000    0.1522366666666667    0.9397799999999999 C
   0.1699400000000000    0.1455600000000000    0.8360800000000000 C
   0.7596800000000000    0.1609433333333333    0.4645600000000000 C
   0.8806600000000000    0.1790566666666667    0.5485100000000001 C
   0.0801000000000000    0.1595933333333333    0.7887000000000000 C
   0.0037700000000000    0.1512100000000000    0.4357100000000000 C
   0.1265400000000000    0.1309366666666666    0.9169700000000000 C
   0.9941200000000000    0.1316033333333333    0.9505900000000000 C
   0.9477300000000000    0.1607000000000000    0.8224700000000000 C
   0.5533500000000000    0.2300866666666667    0.6993400000000000 C
   0.5090100000000000    0.0390466666666667    0.0161000000000000 C
   0.5575900000000000    0.0321800000000000    0.5961400000000000 C
   0.5434500000000000    0.0796500000000000    0.5600200000000000 C
   0.5626700000000000    0.2770400000000000    0.6637900000000000 C
   0.5174600000000000    0.0800066666666667    0.0355900000000000 C
   0.4631800000000000    0.0399500000000000    0.9512000000000000 C
   0.5213500000000000    0.3069433333333333    0.7111800000000000 C
   0.5455400000000000    0.3323300000000000    0.0646100000000000 C
   0.6064700000000000    0.2915066666666666    0.5828900000000000 C
   0.6050300000000000    0.0022900000000000    0.5492500000000000 C
   0.5177400000000000    0.0175933333333333    0.6773200000000000 C
   0.6899800000000000    0.1845533333333333    0.1995700000000000 C
   0.1171200000000000    0.1696866666666667    0.5162800000000000 C
   0.0967500000000000    0.1857366666666667    0.0961300000000000 C
   0.2391600000000000    0.1809466666666666    0.0599400000000000 C
   0.8308800000000000    0.1876300000000000    0.1640800000000000 C
   0.2400100000000000    0.1724866666666667    0.5358400000000000 C
   0.1198600000000000    0.1542100000000000    0.4516500000000000 C
   0.9207000000000000    0.1737733333333333    0.2114600000000000 C
   0.9969500000000000    0.1818933333333334    0.5644100000000000 C
   0.8741700000000000    0.2022400000000000    0.0831700000000000 C
   0.0065400000000000    0.2016433333333333    0.0495000000000000 C
   0.0531800000000000    0.1724400000000000    0.1773300000000000 C
   0.4450300000000000    0.1037666666666667    0.3006600000000000 C
   0.4914800000000000    0.2942866666666666    0.9839100000000000 C
   0.4421700000000000    0.3012600000000000    0.4036000000000000 C
   0.4564100000000000    0.2537666666666666    0.4397000000000000 C
   0.4363500000000000    0.0567833333333333    0.3362900000000000 C
   0.4836400000000000    0.2531800000000000    0.9646400000000001 C
   0.5369699999999999    0.2935633333333333    0.0488400000000000 C
   0.4782400000000000    0.0268733333333333    0.2889200000000000 C
   0.4541200000000000    0.0012700000000000    0.9353100000000000 C
   0.3923500000000000    0.0423133333333333    0.4171800000000000 C
   0.3939800000000000    0.3315233333333333    0.4508000000000000 C
   0.4820000000000000    0.3159000000000000    0.3224200000000000 C
   0.3110300000000000    0.4816600000000000    0.8005100000000001 C
   0.9039100000000000    0.4807899999999999    0.9036600000000000 C
   0.7614400000000000    0.4855699999999999    0.9397799999999999 C
   0.1699400000000000    0.4788933333333333    0.8360800000000000 C
   0.0801000000000000    0.4929266666666666    0.7887000000000000 C
   0.1265400000000000    0.4642700000000000    0.9169700000000000 C
   0.9941200000000000    0.4649366666666667    0.9505900000000000 C
   0.9477300000000000    0.4940333333333333    0.8224700000000000 C
   0.5533500000000000    0.5634200000000000    0.6993400000000000 C
   0.5090100000000000    0.3723800000000000    0.0161000000000000 C
   0.5575900000000000    0.3655133333333333    0.5961400000000000 C
   0.5434500000000000    0.4129833333333333    0.5600200000000000 C
   0.5626700000000000    0.6103733333333332    0.6637900000000000 C
   0.5174600000000000    0.4133400000000000    0.0355900000000000 C
   0.4631800000000000    0.3732833333333333    0.9512000000000000 C
   0.5213500000000000    0.6402766666666666    0.7111800000000000 C
   0.5455400000000000    0.6656633333333333    0.0646100000000000 C
   0.6064700000000000    0.6248400000000000    0.5828900000000000 C
   0.6050300000000000    0.3356233333333333    0.5492500000000000 C
   0.5177400000000000    0.3509266666666667    0.6773200000000000 C
   0.6899800000000000    0.5178866666666666    0.1995700000000000 C
   0.0967500000000000    0.5190699999999999    0.0961300000000000 C
   0.2391600000000000    0.5142800000000000    0.0599400000000000 C
   0.8308800000000000    0.5209633333333333    0.1640800000000000 C
   0.9207000000000000    0.5071066666666666    0.2114600000000000 C
   0.8741700000000000    0.5355733333333333    0.0831700000000000 C
   0.0065400000000000    0.5349766666666667    0.0495000000000000 C
   0.0531800000000000    0.5057733333333333    0.1773300000000000 C
   0.4450300000000000    0.4371000000000000    0.3006600000000000 C
   0.4914800000000000    0.6276200000000000    0.9839100000000000 C
   0.4421700000000000    0.6345933333333333    0.4036000000000000 C
   0.4564100000000000    0.5871000000000000    0.4397000000000000 C
   0.4363500000000000    0.3901166666666667    0.3362900000000000 C
   0.4836400000000000    0.5865133333333332    0.9646400000000001 C
   0.5369699999999999    0.6268966666666667    0.0488400000000000 C
   0.4782400000000000    0.3602066666666667    0.2889200000000000 C
   0.4541200000000000    0.3346033333333333    0.9353100000000000 C
   0.3923500000000000    0.3756466666666666    0.4171800000000000 C
   0.3939800000000000    0.6648566666666667    0.4508000000000000 C
   0.4820000000000000    0.6492333333333333    0.3224200000000000 C
   0.3110300000000000    0.8149933333333332    0.8005100000000001 C
   0.8829399999999999    0.8303166666666666    0.4838800000000000 C
   0.9039100000000000    0.8141233333333333    0.9036600000000000 C
   0.7614400000000000    0.8189033333333333    0.9397799999999999 C
   0.1699400000000000    0.8122266666666667    0.8360800000000000 C
   0.7596800000000000    0.8276100000000000    0.4645600000000000 C
   0.8806600000000000    0.8457233333333333    0.5485100000000001 C
   0.0801000000000000    0.8262600000000000    0.7887000000000000 C
   0.0037700000000000    0.8178766666666666    0.4357100000000000 C
   0.1265400000000000    0.7976033333333332    0.9169700000000000 C
   0.9941200000000000    0.7982699999999999    0.9505900000000000 C
   0.9477300000000000    0.8273666666666666    0.8224700000000000 C
   0.5533500000000000    0.8967533333333333    0.6993400000000000 C
   0.5090100000000000    0.7057133333333333    0.0161000000000000 C
   0.5575900000000000    0.6988466666666666    0.5961400000000000 C
   0.5434500000000000    0.7463166666666666    0.5600200000000000 C
   0.5626700000000000    0.9437066666666666    0.6637900000000000 C
   0.5174600000000000    0.7466733333333333    0.0355900000000000 C
   0.4631800000000000    0.7066166666666667    0.9512000000000000 C
   0.5213500000000000    0.9736100000000000    0.7111800000000000 C
   0.5455400000000000    0.9989966666666666    0.0646100000000000 C
   0.6064700000000000    0.9581733333333333    0.5828900000000000 C
   0.6050300000000000    0.6689566666666666    0.5492500000000000 C
   0.5177400000000000    0.6842600000000000    0.6773200000000000 C
   0.6899800000000000    0.8512200000000000    0.1995700000000000 C
   0.1171200000000000    0.8363533333333333    0.5162800000000000 C
   0.0967500000000000    0.8524033333333333    0.0961300000000000 C
   0.2391600000000000    0.8476133333333333    0.0599400000000000 C
   0.8308800000000000    0.8542966666666666    0.1640800000000000 C
   0.2400100000000000    0.8391533333333333    0.5358400000000000 C
   0.1198600000000000    0.8208766666666666    0.4516500000000000 C
   0.9207000000000000    0.8404400000000000    0.2114600000000000 C
   0.9969500000000000    0.8485600000000000    0.5644100000000000 C
   0.8741700000000000    0.8689066666666666    0.0831700000000000 C
   0.0065400000000000    0.8683099999999999    0.0495000000000000 C
   0.0531800000000000    0.8391066666666667    0.1773300000000000 C
   0.4450300000000000    0.7704333333333333    0.3006600000000000 C
   0.4914800000000000    0.9609533333333333    0.9839100000000000 C
   0.4421700000000000    0.9679266666666666    0.4036000000000000 C
   0.4564100000000000    0.9204333333333332    0.4397000000000000 C
   0.4363500000000000    0.7234499999999999    0.3362900000000000 C
   0.4836400000000000    0.9198466666666666    0.9646400000000001 C
   0.5369699999999999    0.9602299999999999    0.0488400000000000 C
   0.4782400000000000    0.6935399999999999    0.2889200000000000 C
   0.4541200000000000    0.6679366666666666    0.9353100000000000 C
   0.3923500000000000    0.7089799999999999    0.4171800000000000 C
   0.3939800000000000    0.9981899999999999    0.4508000000000000 C
   0.4820000000000000    0.9825666666666666    0.3224200000000000 C
   0.3501000000000000    0.1557966666666667    0.7270700000000000 O
   0.3855500000000000    0.1433833333333333    0.8465700000000000 O
   0.6479900000000000    0.1714766666666667    0.5085700000000000 O
   0.6849700000000000    0.1663100000000000    0.8932000000000000 O
   0.7656600000000000    0.1490733333333333    0.4032500000000000 O
   0.7238000000000000    0.1431766666666667    0.0137500000000000 O
   0.5301800000000000    0.2170233333333333    0.7728200000000000 O
   0.5681000000000000    0.2053466666666667    0.6531900000000000 O
   0.4872000000000000    0.1173133333333333    0.9912800000000000 O
   0.5026600000000000    0.1051400000000000    0.6065600000000000 O
   0.5520600000000000    0.0778400000000000    0.0973200000000000 O
   0.5693500000000000    0.0921700000000000    0.4860400000000000 O
   0.6506700000000000    0.1768933333333333    0.2730300000000000 O
   0.6159000000000000    0.1893866666666666    0.1533400000000000 O
   0.3520500000000000    0.1622566666666667    0.4918200000000000 O
   0.3157200000000000    0.1669733333333333    0.1064500000000000 O
   0.2334600000000000    0.1841333333333333    0.5974400000000000 O
   0.2766400000000000    0.1898966666666667    0.0000000000000000 O
   0.4680400000000000    0.1167233333333333    0.2271900000000000 O
   0.4298300000000000    0.1286366666666666    0.3466800000000000 O
   0.5142400000000000    0.2160000000000000    0.0091300000000000 O
   0.4984600000000000    0.2283200000000000    0.3931000000000000 O
   0.4492900000000000    0.2551366666666667    0.9029300000000000 O
   0.4294600000000000    0.2411833333333333    0.5136600000000000 O
   0.3501000000000000    0.4891300000000000    0.7270700000000000 O
   0.3855500000000000    0.4767166666666666    0.8465700000000000 O
   0.6849700000000000    0.4996433333333333    0.8932000000000000 O
   0.7238000000000000    0.4765100000000000    0.0137500000000000 O
   0.5301800000000000    0.5503566666666666    0.7728200000000000 O
   0.5681000000000000    0.5386800000000000    0.6531900000000000 O
   0.4872000000000000    0.4506466666666666    0.9912800000000000 O
   0.5026600000000000    0.4384733333333333    0.6065600000000000 O
   0.5520600000000000    0.4111733333333333    0.0973200000000000 O
   0.5693500000000000    0.4255033333333333    0.4860400000000000 O
   0.6506700000000000    0.5102266666666666    0.2730300000000000 O
   0.6159000000000000    0.5227200000000000    0.1533400000000000 O
   0.3157200000000000    0.5003066666666667    0.1064500000000000 O
   0.2766400000000000    0.5232300000000000    0.0000000000000000 O
   0.4680400000000000    0.4500566666666667    0.2271900000000000 O
   0.4298300000000000    0.4619700000000000    0.3466800000000000 O
   0.5142400000000000    0.5493333333333333    0.0091300000000000 O
   0.4984600000000000    0.5616533333333333    0.3931000000000000 O
   0.4492900000000000    0.5884700000000000    0.9029300000000000 O
   0.4294600000000000    0.5745166666666667    0.5136600000000000 O
   0.3501000000000000    0.8224633333333333    0.7270700000000000 O
   0.3855500000000000    0.8100499999999999    0.8465700000000000 O
   0.6479900000000000    0.8381433333333332    0.5085700000000000 O
   0.6849700000000000    0.8329766666666666    0.8932000000000000 O
   0.7656600000000000    0.8157399999999999    0.4032500000000000 O
   0.7238000000000000    0.8098433333333332    0.0137500000000000 O
   0.5301800000000000    0.8836900000000000    0.7728200000000000 O
   0.5681000000000000    0.8720133333333333    0.6531900000000000 O
   0.4872000000000000    0.7839799999999999    0.9912800000000000 O
   0.5026600000000000    0.7718066666666666    0.6065600000000000 O
   0.5520600000000000    0.7445066666666666    0.0973200000000000 O
   0.5693500000000000    0.7588366666666666    0.4860400000000000 O
   0.6506700000000000    0.8435600000000000    0.2730300000000000 O
   0.6159000000000000    0.8560533333333333    0.1533400000000000 O
   0.3520500000000000    0.8289233333333332    0.4918200000000000 O
   0.3157200000000000    0.8336399999999999    0.1064500000000000 O
   0.2334600000000000    0.8508000000000000    0.5974400000000000 O
   0.2766400000000000    0.8565633333333333    0.0000000000000000 O
   0.4680400000000000    0.7833899999999999    0.2271900000000000 O
   0.4298300000000000    0.7953033333333333    0.3466800000000000 O
   0.5142400000000000    0.8826666666666666    0.0091300000000000 O
   0.4984600000000000    0.8949866666666666    0.3931000000000000 O
   0.4492900000000000    0.9218033333333333    0.9029300000000000 O
   0.4294600000000000    0.9078499999999999    0.5136600000000000 O
