H6 O4
1.0
  20.0483865237542780    0.0000000000000000   -5.4692009283027545
   2.8799882533249024   11.7064968233298448   -1.4712663885506232
   0.0000000000000000    0.0000000000000000   36.4320000000000022
H O
6 4
direct
   0.7235724304924019   -0.1052330343159633    0.2819731973402785 H
  -0.0787576466543686    0.1775806916798279    0.3152770986715073 H
   0.7601801989650977    1.0374932323259791    0.2890739607310729 H
  -0.1689953289605659    0.1127473154419925    0.3017362571473630 H
   0.8558480869076621    0.7557482283415491    0.2713421514520299 H
   0.8005461514997311   -0.1250886405057772    0.2273830200801084 H
   0.7364900000000000   -0.1485900000000000    0.3045500000000000 O
  -0.0983900000000000    0.1116000000000000    0.3080000000000000 O
   0.8083800000000000    1.0367100000000000    0.2933500000000000 O
   0.8380000000000000    0.7492000000000000    0.2928433333333333 O
