H6 C12 O4
1.0
  20.0483865237542780    0.0000000000000000   -5.4692009283027545
   2.8799882533249024   11.7064968233298448   -1.4712663885506232
   0.0000000000000000    0.0000000000000000   36.4320000000000022
H C O
6 12 4
direct
   0.7000400000000000    0.1709400000000000    0.2695966666666667 H
   0.6195500000000000    0.3605400000000000    0.2606666666666667 H
   0.8724200000000000    0.3253700000000000    0.3033000000000000 H
   0.8524200000000000    0.5377500000000000    0.2995166666666667 H
   0.6464900000000000    0.7444499999999999    0.2862000000000000 H
   0.5995700000000000    0.5724200000000000    0.2697866666666666 H
   0.8376900000000000    0.1223500000000000    0.2972766666666666 C
   0.7914000000000000    0.2367100000000000    0.2877666666666666 C
   0.7194800000000000    0.2475200000000000    0.2744933333333333 C
   0.6748400000000000    0.3532100000000000    0.2697200000000000 C
   0.6995600000000000    0.4540300000000000    0.2773466666666666 C
   0.7725700000000000    0.4437200000000000    0.2877200000000000 C
   0.8172300000000000    0.3335400000000000    0.2932666666666667 C
   0.7973200000000000    0.5444400000000000    0.2933100000000000 C
   0.7775200000000000    0.7582100000000001    0.2971266666666667 C
   0.7523000000000000    0.6514400000000000    0.2917033333333333 C
   0.6806600000000000    0.6603400000000000    0.2847866666666666 C
   0.6548900000000000    0.5644500000000000    0.2763900000000000 C
   0.8083800000000000    1.0367100000000000    0.2933500000000000 O
   0.8380000000000000    0.7492000000000000    0.2928433333333333 O
   0.7364900000000000   -0.1485900000000000    0.3045500000000000 O
  -0.0983900000000000    0.1116000000000000    0.3080000000000000 O
