Zn32 H190 C189 N126 O1
1.0
  15.5030000000000001    0.0000000000000000    0.0000000000000009
   0.0103900839017500   15.6659964018091742   -0.0021873862378289
   0.0000000000000000    0.0000000000000000   37.1180000000000021
Zn H C N O
32 190 189 126 1
direct
   0.9891400000000000    0.8368600000000000    0.1565600000000000 Zn
   0.7964300000000000    0.8625699999999999    0.2970100000000000 Zn
   0.2965600000000000    0.6375999999999999    0.2029650000000000 Zn
   0.4892200000000000    0.6632800000000000    0.3430000000000000 Zn
   0.7034300000000000    0.3624300000000000    0.2970200000000000 Zn
   0.5107600000000000    0.3367500000000000    0.1565350000000000 Zn
   0.2035600000000000    0.1374600000000000    0.2029750000000000 Zn
   0.0108400000000000    0.1631600000000000    0.3434250000000000 Zn
   0.7965100000000001    0.6375600000000000    0.0470200000000000 Zn
   0.9892000000000000    0.6632800000000000    0.9065500000000000 Zn
   0.2034800000000000    0.3624700000000000    0.9529650000000001 Zn
   0.0107800000000000    0.3367400000000000    0.0934350000000000 Zn
   0.2964300000000000    0.8625900000000000    0.9529799999999999 Zn
   0.4891400000000000    0.8368800000000000    0.0934350000000000 Zn
   0.7035500000000000    0.1374400000000000    0.0470050000000000 Zn
   0.5108400000000000    0.1631500000000000    0.9065500000000000 Zn
   0.9891400000000000    0.8368600000000000    0.6565600000000000 Zn
   0.7964300000000000    0.8625699999999999    0.7970100000000000 Zn
   0.2965600000000000    0.6375999999999999    0.7029650000000001 Zn
   0.4892200000000000    0.6632800000000000    0.8430000000000000 Zn
   0.7034300000000000    0.3624300000000000    0.7970200000000001 Zn
   0.5107600000000000    0.3367500000000000    0.6565350000000000 Zn
   0.2035600000000000    0.1374600000000000    0.7029750000000000 Zn
   0.0108400000000000    0.1631600000000000    0.8434250000000000 Zn
   0.7965100000000001    0.6375600000000000    0.5470200000000000 Zn
   0.9892000000000000    0.6632800000000000    0.4065500000000000 Zn
   0.2034800000000000    0.3624700000000000    0.4529650000000000 Zn
   0.0107800000000000    0.3367400000000000    0.5934350000000000 Zn
   0.2964300000000000    0.8625900000000000    0.4529800000000000 Zn
   0.4891400000000000    0.8368800000000000    0.5934350000000000 Zn
   0.7035500000000000    0.1374400000000000    0.5470050000000000 Zn
   0.5108400000000000    0.1631500000000000    0.4065500000000000 Zn
   0.0626300000000000    0.9848900000000000    0.2077500000000000 H
   0.1286700000000000    0.9209300000000000    0.1009800000000000 H
   0.2360200000000000    0.0514200000000000    0.1249800000000000 H
   0.9253200000000000    0.6764300000000000    0.1114700000000000 H
   0.9088100000000000    0.9388500000000000    0.0871300000000000 H
   0.8194800000000000    0.8464300000000000    0.0353750000000000 H
   0.6843800000000000    0.7147700000000000    0.3307700000000000 H
   0.6022100000000000    0.9499100000000000    0.2874450000000000 H
   0.4593800000000000    0.8574600000000000    0.3096200000000000 H
   0.9500700000000000    0.8180800000000000    0.2426150000000000 H
   0.7993300000000000    0.9198200000000000    0.1584350000000000 H
   0.7094300000000000    0.9345599999999999    0.2228750000000000 H
   0.4252800000000000    0.8237100000000001    0.3885500000000000 H
   0.4090700000000000    0.5612900000000000    0.4128900000000000 H
   0.3196700000000000    0.6537400000000000    0.4646500000000000 H
   0.5624600000000000    0.5150600000000000    0.2923500000000000 H
   0.7361600000000000    0.4484000000000000    0.3750000000000000 H
   0.6290600000000000    0.5792300000000000    0.3990300000000000 H
   0.1843000000000000    0.7855400000000000    0.1690000000000000 H
   0.1026100000000000    0.5502100000000000    0.2124950000000000 H
   0.9595900000000001    0.6426200000000000    0.1903000000000000 H
   0.4502600000000000    0.6820900000000000    0.2573600000000000 H
   0.2996000000000000    0.5803800000000000    0.3415250000000000 H
   0.2097500000000000    0.5656300000000000    0.2770750000000000 H
   0.8156900000000000    0.2144800000000000    0.3306850000000000 H
   0.0404100000000000    0.3574100000000000    0.3096450000000000 H
   0.8973800000000000    0.4498100000000000    0.2874500000000000 H
   0.5497400000000000    0.3179300000000000    0.2426200000000000 H
   0.7003900000000000    0.4196600000000000    0.1584550000000000 H
   0.7902300000000000    0.4344100000000000    0.2229100000000000 H
   0.4375300000000000    0.4849600000000000    0.2076300000000000 H
   0.3709300000000000    0.4207900000000000    0.1009550000000000 H
   0.2638300000000000    0.5516300000000000    0.1249600000000000 H
   0.5747200000000000    0.1763100000000000    0.1114300000000000 H
   0.5909200000000000    0.4387300000000000    0.0870950000000000 H
   0.6803200000000000    0.3462900000000000    0.0353300000000000 H
   0.3156100000000000    0.2852600000000000    0.1692100000000000 H
   0.3977800000000000    0.0501100000000000    0.2125350000000000 H
   0.5406100000000000    0.1425600000000000    0.1903600000000000 H
   0.0499200000000000    0.1819400000000000    0.2573650000000000 H
   0.2006700000000000    0.0802000000000000    0.3415000000000000 H
   0.2905700000000000    0.0654600000000000    0.2771000000000000 H
   0.9373700000000000    0.0151400000000000    0.2922300000000000 H
   0.8713200000000000    0.0790900000000000    0.3990000000000000 H
   0.7639700000000000    0.9486100000000000    0.3750000000000000 H
   0.0746800000000000    0.3236000000000000    0.3885100000000000 H
   0.1805100000000000    0.1535900000000000    0.4646050000000000 H
   0.0911900000000000    0.0611700000000000    0.4128550000000000 H
   0.6842600000000000    0.7854800000000000    0.0806850000000000 H
   0.4594900000000000    0.6426400000000000    0.0596250000000000 H
   0.6024800000000000    0.5501500000000000    0.0374500000000000 H
   0.9501300000000000    0.6822100000000000    0.9926200000000001 H
   0.7996400000000000    0.5801900000000000    0.9084550000000000 H
   0.7097800000000000    0.5654300000000000    0.9729000000000000 H
   0.0624500000000000    0.5150800000000000    0.9576000000000000 H
   0.1291300000000000    0.5793100000000000    0.8509900000000000 H
   0.2362900000000000    0.4485400000000000    0.8749950000000000 H
   0.9252200000000000    0.8237200000000000    0.8614600000000000 H
   0.8196900000000000    0.6537200000000000    0.7853350000000000 H
   0.9090600000000000    0.5612900000000000    0.8371000000000000 H
   0.3157300000000000    0.2145500000000000    0.9192950000000000 H
   0.3975200000000000    0.4498700000000000    0.9625000000000000 H
   0.5405000000000000    0.3573800000000000    0.9403550000000001 H
   0.0498600000000000    0.3178100000000000    0.0073600000000000 H
   0.2003500000000000    0.4198500000000000    0.0915250000000000 H
   0.2902000000000000    0.4346100000000000    0.0270800000000000 H
   0.9375400000000000    0.4849400000000000    0.0423400000000000 H
   0.8708600000000000    0.4207100000000000    0.1489900000000000 H
   0.7637000000000000    0.5514900000000000    0.1249850000000000 H
   0.0747700000000000    0.1763000000000000    0.1385200000000000 H
   0.1803000000000000    0.3463000000000000    0.2145000000000000 H
   0.0909300000000000    0.4387300000000000    0.1628800000000000 H
   0.1843400000000000    0.7147500000000000    0.9192400000000001 H
   0.1022200000000000    0.9499900000000000    0.9625250000000001 H
   0.9593699999999999    0.8575300000000000    0.9403650000000000 H
   0.3970703268234519    0.8531994455955521    0.0313053746505238 H
   0.5626700000000000    0.9848400000000000    0.0422350000000000 H
   0.7359700000000000    0.0515100000000000    0.1250000000000000 H
   0.6286400000000000    0.9210199999999999    0.1490250000000000 H
   0.4254900000000000    0.6764700000000000    0.1385500000000000 H
   0.3195600000000000    0.8464699999999999    0.2146000000000000 H
   0.4087800000000000    0.9389100000000000    0.1628750000000000 H
   0.8156500000000000    0.2852700000000000    0.0807400000000000 H
   0.8977700000000000    0.0500300000000000    0.0374550000000000 H
   0.0406200000000000    0.1424900000000000    0.0596150000000000 H
   0.5498800000000000    0.1817900000000000    0.9926100000000000 H
   0.7906300000000001    0.0655400000000000    0.9724999999999999 H
   0.7007400000000000    0.0802900000000000    0.9084000000000000 H
   0.4373200000000000    0.0151800000000000    0.9577450000000001 H
   0.3713500000000000    0.0790000000000000    0.8509550000000000 H
   0.2640200000000000    0.9485100000000000    0.8749500000000000 H
   0.5745000000000000    0.3235500000000000    0.8614299999999999 H
   0.5912100000000000    0.0611100000000000    0.8371050000000000 H
   0.6804300000000000    0.1535500000000000    0.7853399999999999 H
   0.0626300000000000    0.9848900000000000    0.7077500000000000 H
   0.1286700000000000    0.9209300000000000    0.6009800000000000 H
   0.2360200000000000    0.0514200000000000    0.6249800000000000 H
   0.9253200000000000    0.6764300000000000    0.6114700000000000 H
   0.9088100000000000    0.9388500000000000    0.5871300000000000 H
   0.8194800000000000    0.8464300000000000    0.5353750000000000 H
   0.6843800000000000    0.7147700000000000    0.8307700000000000 H
   0.6022100000000000    0.9499100000000000    0.7874450000000000 H
   0.4593800000000000    0.8574600000000000    0.8096200000000000 H
   0.9500700000000000    0.8180800000000000    0.7426150000000000 H
   0.7993300000000000    0.9198200000000000    0.6584350000000000 H
   0.7094300000000000    0.9345599999999999    0.7228749999999999 H
   0.4252800000000000    0.8237100000000001    0.8885500000000000 H
   0.4090700000000000    0.5612900000000000    0.9128900000000000 H
   0.3196700000000000    0.6537400000000000    0.9646500000000000 H
   0.5624600000000000    0.5150600000000000    0.7923500000000000 H
   0.7361600000000000    0.4484000000000000    0.8750000000000000 H
   0.6290600000000000    0.5792300000000000    0.8990300000000000 H
   0.1843000000000000    0.7855400000000000    0.6690000000000000 H
   0.1026100000000000    0.5502100000000000    0.7124950000000000 H
   0.9595900000000001    0.6426200000000000    0.6903000000000000 H
   0.4502600000000000    0.6820900000000000    0.7573600000000000 H
   0.2996000000000000    0.5803800000000000    0.8415250000000001 H
   0.2097500000000000    0.5656300000000000    0.7770750000000000 H
   0.8156900000000000    0.2144800000000000    0.8306850000000000 H
   0.0404100000000000    0.3574100000000000    0.8096449999999999 H
   0.8973800000000000    0.4498100000000000    0.7874500000000000 H
   0.5497400000000000    0.3179300000000000    0.7426200000000001 H
   0.7003900000000000    0.4196600000000000    0.6584550000000000 H
   0.7902300000000000    0.4344100000000000    0.7229099999999999 H
   0.4375300000000000    0.4849600000000000    0.7076300000000000 H
   0.3709300000000000    0.4207900000000000    0.6009550000000000 H
   0.2638300000000000    0.5516300000000000    0.6249600000000000 H
   0.5747200000000000    0.1763100000000000    0.6114300000000000 H
   0.5909200000000000    0.4387300000000000    0.5870950000000000 H
   0.6803200000000000    0.3462900000000000    0.5353300000000000 H
   0.3156100000000000    0.2852600000000000    0.6692100000000000 H
   0.3977800000000000    0.0501100000000000    0.7125350000000000 H
   0.5406100000000000    0.1425600000000000    0.6903600000000000 H
   0.0499200000000000    0.1819400000000000    0.7573650000000001 H
   0.2006700000000000    0.0802000000000000    0.8415000000000000 H
   0.2905700000000000    0.0654600000000000    0.7771000000000000 H
   0.9373700000000000    0.0151400000000000    0.7922300000000000 H
   0.8713200000000000    0.0790900000000000    0.8990000000000000 H
   0.7639700000000000    0.9486100000000000    0.8750000000000000 H
   0.0746800000000000    0.3236000000000000    0.8885100000000000 H
   0.1805100000000000    0.1535900000000000    0.9646049999999999 H
   0.0911900000000000    0.0611700000000000    0.9128550000000000 H
   0.6842600000000000    0.7854800000000000    0.5806850000000000 H
   0.4594900000000000    0.6426400000000000    0.5596250000000000 H
   0.6024800000000000    0.5501500000000000    0.5374500000000000 H
   0.9501300000000000    0.6822100000000000    0.4926200000000000 H
   0.7996400000000000    0.5801900000000000    0.4084550000000000 H
   0.7097800000000000    0.5654300000000000    0.4729000000000000 H
   0.0624500000000000    0.5150800000000000    0.4576000000000000 H
   0.1291300000000000    0.5793100000000000    0.3509900000000000 H
   0.2362900000000000    0.4485400000000000    0.3749950000000000 H
   0.9252200000000000    0.8237200000000000    0.3614600000000000 H
   0.8196900000000000    0.6537200000000000    0.2853350000000000 H
   0.9090600000000000    0.5612900000000000    0.3371000000000000 H
   0.3157300000000000    0.2145500000000000    0.4192950000000000 H
   0.3975200000000000    0.4498700000000000    0.4625000000000000 H
   0.5405000000000000    0.3573800000000000    0.4403550000000000 H
   0.0498600000000000    0.3178100000000000    0.5073600000000000 H
   0.2003500000000000    0.4198500000000000    0.5915250000000000 H
   0.2902000000000000    0.4346100000000000    0.5270800000000000 H
   0.9375400000000000    0.4849400000000000    0.5423400000000000 H
   0.8708600000000000    0.4207100000000000    0.6489900000000000 H
   0.7637000000000000    0.5514900000000000    0.6249850000000000 H
   0.0747700000000000    0.1763000000000000    0.6385200000000000 H
   0.1803000000000000    0.3463000000000000    0.7145000000000000 H
   0.0909300000000000    0.4387300000000000    0.6628800000000000 H
   0.1843400000000000    0.7147500000000000    0.4192400000000000 H
   0.1022200000000000    0.9499900000000000    0.4625250000000000 H
   0.9593699999999999    0.8575300000000000    0.4403650000000000 H
   0.4501100000000000    0.8182400000000000    0.5073700000000000 H
   0.2992500000000000    0.9197400000000000    0.5915750000000000 H
   0.2093600000000000    0.9344900000000000    0.5271350000000000 H
   0.5626700000000000    0.9848400000000000    0.5422350000000000 H
   0.7359700000000000    0.0515100000000000    0.6250000000000000 H
   0.6286400000000000    0.9210199999999999    0.6490250000000000 H
   0.4254900000000000    0.6764700000000000    0.6385500000000000 H
   0.3195600000000000    0.8464699999999999    0.7146000000000000 H
   0.4087800000000000    0.9389100000000000    0.6628750000000000 H
   0.8156500000000000    0.2852700000000000    0.5807400000000000 H
   0.8977700000000000    0.0500300000000000    0.5374550000000000 H
   0.0406200000000000    0.1424900000000000    0.5596150000000000 H
   0.5498800000000000    0.1817900000000000    0.4926100000000000 H
   0.7906300000000001    0.0655400000000000    0.4725000000000000 H
   0.7007400000000000    0.0802900000000000    0.4084000000000000 H
   0.4373200000000000    0.0151800000000000    0.4577450000000000 H
   0.3713500000000000    0.0790000000000000    0.3509550000000000 H
   0.2640200000000000    0.9485100000000000    0.3749500000000000 H
   0.5745000000000000    0.3235500000000000    0.3614300000000000 H
   0.5912100000000000    0.0611100000000000    0.3371050000000000 H
   0.6804300000000000    0.1535500000000000    0.2853400000000000 H
   0.0953800000000000    0.9851700000000000    0.1819000000000000 C
   0.1307900000000000    0.9537700000000000    0.1266900000000000 C
   0.1840500000000000    0.0181500000000000    0.1386000000000000 C
   0.9088500000000000    0.7353900000000000    0.0977550000000000 C
   0.8992500000000000    0.8705500000000000    0.0844900000000000 C
   0.8549400000000000    0.8246700000000000    0.0588450000000000 C
   0.6425700000000000    0.7663400000000000    0.3220500000000000 C
   0.5983900000000000    0.8872900000000000    0.2998000000000000 C
   0.5274000000000000    0.8414400000000000    0.3108250000000000 C
   0.8972800000000000    0.8490400000000000    0.2285200000000000 C
   0.8177700000000000    0.9020400000000000    0.1855900000000000 C
   0.7732400000000000    0.9091300000000000    0.2175150000000000 C
   0.4088800000000000    0.7647500000000000    0.4022500000000000 C
   0.3994300000000000    0.6295900000000000    0.4155250000000000 C
   0.3550900000000000    0.6754800000000000    0.4411800000000000 C
   0.5953300000000000    0.5148000000000000    0.3181600000000000 C
   0.6841699999999999    0.4817400000000000    0.3614200000000000 C
   0.6310200000000000    0.5463000000000000    0.3733300000000000 C
   0.1426000000000000    0.7339100000000000    0.1779900000000000 C
   0.0986500000000000    0.6128600000000000    0.2001750000000000 C
   0.0275800000000000    0.6586900000000000    0.1891500000000000 C
   0.3975000000000000    0.6511300000000000    0.2714500000000000 C
   0.3180200000000000    0.5981500000000000    0.3143700000000000 C
   0.2735300000000000    0.5910500000000000    0.2824400000000000 C
   0.8573900000000000    0.2661200000000000    0.3219500000000000 C
   0.9724100000000000    0.3413300000000000    0.3108300000000000 C
   0.9013400000000000    0.3871600000000000    0.2998100000000000 C
   0.6024900000000000    0.3488900000000000    0.2285300000000000 C
   0.6819700000000000    0.4018800000000000    0.1856000000000000 C
   0.7264600000000000    0.4089800000000000    0.2175400000000000 C
   0.4046600000000000    0.4852200000000000    0.1818200000000000 C
   0.3689700000000000    0.4537200000000000    0.1266500000000000 C
   0.3158200000000000    0.5182800000000000    0.1385600000000000 C
   0.5911100000000000    0.2352700000000000    0.0977200000000000 C
   0.6005600000000000    0.3704300000000000    0.0844550000000000 C
   0.6449000000000000    0.3245400000000000    0.0588000000000000 C
   0.3574200000000000    0.2336800000000000    0.1779000000000000 C
   0.4016000000000000    0.1127300000000000    0.2001850000000000 C
   0.4725900000000000    0.1585800000000000    0.1891550000000000 C
   0.1027100000000000    0.1509800000000000    0.2714650000000000 C
   0.1822300000000000    0.0979800000000000    0.3143900000000000 C
   0.2267600000000000    0.0909000000000000    0.2824500000000000 C
   0.9046100000000000    0.0148500000000000    0.3180700000000000 C
   0.8692000000000000    0.0462500000000000    0.3732900000000000 C
   0.8159400000000000    0.9818700000000000    0.3613800000000000 C
   0.0911400000000000    0.2646300000000000    0.4022250000000000 C
   0.1450500000000000    0.1753500000000000    0.4411400000000000 C
   0.1007400000000000    0.1294800000000000    0.4154900000000000 C
   0.6425300000000000    0.7338500000000000    0.0719900000000000 C
   0.5274900000000000    0.6586800000000000    0.0608000000000000 C
   0.5985400000000000    0.6128200000000000    0.0498000000000000 C
   0.8974200000000000    0.6511700000000000    0.9785300000000000 C
   0.8180300000000000    0.5980200000000000    0.9356100000000001 C
   0.7735300000000001    0.5909300000000000    0.9675350000000000 C
   0.0953600000000000    0.5148400000000000    0.9318400000000000 C
   0.1310900000000000    0.5463800000000000    0.8766800000000000 C
   0.1842500000000000    0.4818400000000000    0.8885900000000000 C
   0.9088400000000000    0.7647500000000000    0.8477399999999999 C
   0.8550900000000000    0.6754800000000000    0.8088100000000000 C
   0.8994200000000000    0.6296000000000000    0.8344650000000000 C
   0.3574600000000000    0.2661700000000000    0.9279900000000000 C
   0.4014400000000000    0.3872000000000000    0.9501800000000000 C
   0.4725000000000000    0.3413400000000000    0.9391650000000000 C
   0.1025700000000000    0.3488600000000000    0.0214500000000000 C
   0.1819600000000000    0.4020100000000000    0.0643700000000000 C
   0.2264600000000000    0.4091100000000000    0.0324450000000000 C
   0.9046300000000000    0.4851800000000000    0.0681400000000000 C
   0.8689000000000000    0.4536400000000000    0.1233000000000000 C
   0.8157400000000000    0.5181800000000000    0.1113900000000000 C
   0.0911500000000000    0.2352700000000000    0.1522400000000000 C
   0.1449100000000000    0.3245500000000000    0.1911700000000000 C
   0.1005700000000000    0.3704300000000000    0.1655150000000000 C
   0.1425400000000000    0.7663500000000000    0.9279550000000000 C
   0.0983900000000000    0.8873500000000000    0.9501850000000001 C
   0.0273900000000000    0.8414900000000000    0.9391650000000000 C
   0.5954000000000000    0.9851600000000000    0.0680800000000000 C
   0.6840300000000000    0.0182100000000000    0.1114050000000000 C
   0.6307700000000001    0.9538300000000000    0.1233100000000000 C
   0.4089800000000000    0.7354400000000000    0.1522600000000000 C
   0.3550100000000000    0.8247200000000000    0.1911700000000000 C
   0.3992800000000000    0.8706000000000000    0.1655200000000000 C
   0.8574500000000000    0.2336700000000000    0.0720250000000000 C
   0.9016000000000000    0.1126800000000000    0.0495000000000000 C
   0.9726000000000000    0.1585300000000000    0.0608000000000000 C
   0.6027000000000000    0.1508900000000000    0.9784999999999999 C
   0.7268000000000000    0.0909200000000000    0.9674950000000000 C
   0.6822700000000000    0.0980200000000000    0.9355700000000000 C
   0.4045900000000000    0.0148600000000000    0.9319000000000000 C
   0.3692200000000000    0.0461900000000000    0.8766750000000000 C
   0.3159600000000000    0.9818100000000000    0.8885799999999999 C
   0.5910200000000000    0.2645800000000000    0.8477200000000000 C
   0.6007100000000000    0.1294200000000000    0.8344650000000000 C
   0.6449800000000000    0.1753100000000000    0.8088100000000000 C
   0.0953800000000000    0.9851700000000000    0.6819000000000000 C
   0.1307900000000000    0.9537700000000000    0.6266900000000000 C
   0.1840500000000000    0.0181500000000000    0.6386000000000001 C
   0.9088500000000000    0.7353900000000000    0.5977550000000000 C
   0.8992500000000000    0.8705500000000000    0.5844900000000000 C
   0.8549400000000000    0.8246700000000000    0.5588450000000000 C
   0.6425700000000000    0.7663400000000000    0.8220499999999999 C
   0.5983900000000000    0.8872900000000000    0.7998000000000001 C
   0.5274000000000000    0.8414400000000000    0.8108250000000000 C
   0.8972800000000000    0.8490400000000000    0.7285200000000001 C
   0.8177700000000000    0.9020400000000000    0.6855900000000000 C
   0.7732400000000000    0.9091300000000000    0.7175150000000000 C
   0.4088800000000000    0.7647500000000000    0.9022500000000000 C
   0.3994300000000000    0.6295900000000000    0.9155249999999999 C
   0.3550900000000000    0.6754800000000000    0.9411800000000000 C
   0.5953300000000000    0.5148000000000000    0.8181600000000000 C
   0.6841699999999999    0.4817400000000000    0.8614200000000001 C
   0.6310200000000000    0.5463000000000000    0.8733299999999999 C
   0.1426000000000000    0.7339100000000000    0.6779900000000000 C
   0.0986500000000000    0.6128600000000000    0.7001750000000000 C
   0.0275800000000000    0.6586900000000000    0.6891500000000000 C
   0.3975000000000000    0.6511300000000000    0.7714500000000000 C
   0.3180200000000000    0.5981500000000000    0.8143700000000000 C
   0.2735300000000000    0.5910500000000000    0.7824400000000000 C
   0.8573900000000000    0.2661200000000000    0.8219500000000000 C
   0.9724100000000000    0.3413300000000000    0.8108299999999999 C
   0.9013400000000000    0.3871600000000000    0.7998100000000000 C
   0.6024900000000000    0.3488900000000000    0.7285300000000000 C
   0.6819700000000000    0.4018800000000000    0.6856000000000000 C
   0.7264600000000000    0.4089800000000000    0.7175400000000001 C
   0.4046600000000000    0.4852200000000000    0.6818200000000000 C
   0.3689700000000000    0.4537200000000000    0.6266500000000000 C
   0.3158200000000000    0.5182800000000000    0.6385600000000000 C
   0.5911100000000000    0.2352700000000000    0.5977200000000000 C
   0.6005600000000000    0.3704300000000000    0.5844549999999999 C
   0.6449000000000000    0.3245400000000000    0.5588000000000000 C
   0.3574200000000000    0.2336800000000000    0.6778999999999999 C
   0.4016000000000000    0.1127300000000000    0.7001850000000001 C
   0.4725900000000000    0.1585800000000000    0.6891550000000000 C
   0.1027100000000000    0.1509800000000000    0.7714650000000001 C
   0.1822300000000000    0.0979800000000000    0.8143899999999999 C
   0.2267600000000000    0.0909000000000000    0.7824500000000000 C
   0.9046100000000000    0.0148500000000000    0.8180700000000001 C
   0.8692000000000000    0.0462500000000000    0.8732900000000000 C
   0.8159400000000000    0.9818700000000000    0.8613800000000000 C
   0.0911400000000000    0.2646300000000000    0.9022250000000001 C
   0.1450500000000000    0.1753500000000000    0.9411400000000000 C
   0.1007400000000000    0.1294800000000000    0.9154900000000000 C
   0.6425300000000000    0.7338500000000000    0.5719900000000000 C
   0.5274900000000000    0.6586800000000000    0.5608000000000000 C
   0.5985400000000000    0.6128200000000000    0.5498000000000000 C
   0.8974200000000000    0.6511700000000000    0.4785300000000000 C
   0.8180300000000000    0.5980200000000000    0.4356100000000000 C
   0.7735300000000001    0.5909300000000000    0.4675350000000000 C
   0.0953600000000000    0.5148400000000000    0.4318400000000000 C
   0.1310900000000000    0.5463800000000000    0.3766800000000000 C
   0.1842500000000000    0.4818400000000000    0.3885900000000000 C
   0.9088400000000000    0.7647500000000000    0.3477400000000000 C
   0.8550900000000000    0.6754800000000000    0.3088100000000000 C
   0.8994200000000000    0.6296000000000000    0.3344650000000000 C
   0.3574600000000000    0.2661700000000000    0.4279900000000000 C
   0.4014400000000000    0.3872000000000000    0.4501800000000000 C
   0.4725000000000000    0.3413400000000000    0.4391650000000000 C
   0.1025700000000000    0.3488600000000000    0.5214500000000000 C
   0.1819600000000000    0.4020100000000000    0.5643700000000000 C
   0.2264600000000000    0.4091100000000000    0.5324450000000001 C
   0.9046300000000000    0.4851800000000000    0.5681400000000000 C
   0.8689000000000000    0.4536400000000000    0.6233000000000000 C
   0.8157400000000000    0.5181800000000000    0.6113900000000000 C
   0.0911500000000000    0.2352700000000000    0.6522399999999999 C
   0.1449100000000000    0.3245500000000000    0.6911700000000001 C
   0.1005700000000000    0.3704300000000000    0.6655150000000000 C
   0.1425400000000000    0.7663500000000000    0.4279550000000000 C
   0.0983900000000000    0.8873500000000000    0.4501850000000000 C
   0.0273900000000000    0.8414900000000000    0.4391650000000000 C
   0.3972900000000000    0.8491300000000001    0.5214750000000000 C
   0.3177200000000000    0.9020100000000000    0.5644100000000000 C
   0.2731900000000000    0.9091000000000000    0.5324900000000000 C
   0.5954000000000000    0.9851600000000000    0.5680800000000000 C
   0.6840300000000000    0.0182100000000000    0.6114050000000000 C
   0.6307700000000001    0.9538300000000000    0.6233100000000000 C
   0.4089800000000000    0.7354400000000000    0.6522600000000001 C
   0.3550100000000000    0.8247200000000000    0.6911700000000001 C
   0.3992800000000000    0.8706000000000000    0.6655200000000000 C
   0.8574500000000000    0.2336700000000000    0.5720250000000000 C
   0.9016000000000000    0.1126800000000000    0.5495000000000000 C
   0.9726000000000000    0.1585300000000000    0.5608000000000000 C
   0.6027000000000000    0.1508900000000000    0.4785000000000000 C
   0.7268000000000000    0.0909200000000000    0.4674950000000000 C
   0.6822700000000000    0.0980200000000000    0.4355700000000000 C
   0.4045900000000000    0.0148600000000000    0.4319000000000000 C
   0.3692200000000000    0.0461900000000000    0.3766750000000000 C
   0.3159600000000000    0.9818100000000000    0.3885800000000000 C
   0.5910200000000000    0.2645800000000000    0.3477200000000000 C
   0.6007100000000000    0.1294200000000000    0.3344650000000000 C
   0.6449800000000000    0.1753100000000000    0.3088100000000000 C
   0.1613500000000000    0.0377900000000000    0.1737400000000000 N
   0.0745100000000000    0.9330600000000000    0.1543000000000000 N
   0.8611799999999999    0.7387700000000000    0.0673950000000000 N
   0.9335800000000000    0.8134300000000000    0.1091250000000000 N
   0.5558700000000000    0.7645800000000000    0.3249350000000000 N
   0.6715000000000000    0.8393100000000000    0.3069500000000000 N
   0.8965000000000000    0.8639100000000000    0.1927250000000000 N
   0.8239600000000000    0.8754000000000000    0.2447450000000000 N
   0.4336700000000000    0.6867100000000000    0.3908900000000000 N
   0.3612400000000000    0.7613799999999999    0.4326300000000000 N
   0.6613000000000000    0.4620500000000000    0.3263100000000000 N
   0.5746400000000000    0.5670400000000000    0.3457450000000000 N
   0.0558900000000000    0.7356100000000000    0.1750850000000000 N
   0.1716500000000000    0.6609300000000000    0.1930300000000000 N
   0.3967100000000000    0.6362700000000000    0.3072450000000000 N
   0.3242200000000000    0.6247600000000000    0.2552150000000000 N
   0.8283400000000000    0.3390900000000000    0.3069500000000000 N
   0.9441000000000001    0.2644100000000000    0.3248950000000000 N
   0.6032800000000000    0.3637500000000000    0.1927350000000000 N
   0.6757700000000000    0.3752600000000000    0.2447650000000000 N
   0.3386900000000000    0.5379699999999999    0.1736700000000000 N
   0.4253500000000000    0.4329800000000000    0.1542400000000000 N
   0.6387500000000000    0.2386400000000000    0.0673500000000000 N
   0.5663200000000000    0.3133200000000000    0.1090950000000000 N
   0.4441300000000000    0.2354400000000000    0.1750450000000000 N