H1 O1
1.0
  15.5030000000000001    0.0000000000000000    0.0000000000000009
   0.0103900839017500   15.6659964018091742   -0.0021873862378289
   0.0000000000000000    0.0000000000000000   37.1180000000000021
H O
1 1
direct
   0.3970703268234519    0.8531994455955521    0.0313053746505238 H
   0.3964900000000000    0.8639500000000000    0.0572750000000000 O
