H2 C3 O4
1.0
  27.7177465932745548    0.0000000000000000    0.1185233775125492
   0.0865802142892796   27.5858570683225501    0.0197401259409662
   0.0000000000000000    0.0000000000000000   21.9909999999999997
H C O
2 3 4
direct
   0.9490175000000001    0.8542600000000000    0.5516000000000000 H
   0.9471350000000001    0.8021650000000000    0.5024999999999999 H
   0.9890300000000000    0.8612800000000000    0.4671200000000000 C
   0.9463000000000000    0.8420500000000000    0.5044500000000000 C
   0.8995649999999999    0.8600600000000000    0.4759500000000000 C
   0.0188375000000000    0.8875999999999999    0.4960100000000000 O
   0.9915625000000000    0.8503300000000000    0.4112300000000000 O
   0.8876150000000000    0.8439099999999999    0.4239900000000000 O
   0.8751450000000001    0.8912550000000000    0.5056700000000000 O
