H1 C3 O4
1.0
  27.7177465932745548    0.0000000000000000    0.1185233775125492
   0.0865802142892796   27.5858570683225501    0.0197401259409662
   0.0000000000000000    0.0000000000000000   21.9909999999999997
H C O
1 3 4
direct
   0.8145925000000001    0.4271700000000000    0.3325500000000000 H
   0.7709700000000000    0.4861200000000000    0.3656100000000000 C
   0.8148275000000000    0.4670450000000000    0.3302000000000000 C
   0.8605275000000000    0.5000000000000000    0.3603700000000000 C
   0.7668050000000000    0.4749400000000000    0.4213300000000000 O
   0.8708950000000000    0.4707050000000000    0.4134200000000000 O
   0.7415000000000000    0.5124649999999999    0.3360200000000000 O
   0.8852375000000000    0.5164950000000000    0.3305300000000000 O
