H8 C10 N2
1.0
  27.7177465932745548    0.0000000000000000    0.1185233775125492
   0.0865802142892796   27.5858570683225501    0.0197401259409662
   0.0000000000000000    0.0000000000000000   21.9909999999999997
H C N
8 10 2
direct
   0.4003050000000000    0.3025650000000000    0.2363500000000000 H
   0.3965050000000000    0.3563700000000000    0.1445400000000000 H
   0.4487975000000000    0.4723800000000000    0.2592400000000000 H
   0.4521225000000000    0.4136600000000000    0.3440000000000000 H
   0.4557975000000000    0.4614400000000000    0.9923200000000000 H
   0.4542725000000000    0.4019200000000000    0.0767200000000000 H
   0.3892800000000000    0.5130749999999999    0.1897800000000000 H
   0.3913575000000000    0.5674800000000000    0.0983300000000000 H
   0.4116125000000000    0.3402950000000000    0.2384300000000000 C
   0.4092475000000000    0.3704600000000000    0.1878900000000000 C
   0.4227950000000000    0.4192250000000000    0.1937700000000000 C
   0.4377925000000000    0.4351850000000000    0.2510700000000000 C
   0.4399400000000000    0.4025350000000000    0.2991100000000000 C
   0.4222250000000000    0.4527350000000000    0.1413000000000000 C
   0.4412850000000000    0.4712550000000000    0.0367800000000000 C
   0.4402325000000000    0.4382350000000000    0.0845400000000000 C
   0.4044950000000000    0.5002500000000000    0.1468700000000000 C
   0.4059275000000000    0.5307950000000000    0.0966500000000000 C
   0.4273925000000000    0.3556350000000000    0.2930700000000000 N
   0.4247300000000000    0.5170200000000000    0.0426000000000000 N
