H6 O4
1.0
  27.7177465932745548    0.0000000000000000    0.1185233775125492
   0.0865802142892796   27.5858570683225501    0.0197401259409662
   0.0000000000000000    0.0000000000000000   21.9909999999999997
H O
6 4
direct
   0.7538633961298967    0.4882121310074056    0.2979134432057111 H
   0.7369568355050841    0.5171241964156786    0.2926944798758761 H
   0.7774709944002373    0.4540168683501803    0.3884551881675650 H
   0.8626115276932728    0.4459867863547853    0.3839381741678428 H
   0.8871728470095329    0.5233888269706811    0.2873308251749992 H
   0.8760702403303339    0.4891395294116644    0.2979026738097784 H
   0.7415000000000000    0.5124649999999999    0.3360200000000000 O
   0.7668050000000000    0.4749400000000000    0.4213300000000000 O
   0.8708950000000000    0.4707050000000000    0.4134200000000000 O
   0.8852375000000000    0.5164950000000000    0.3305300000000000 O
