H7 O5
1.0
  18.2503498007243863    0.0000000000000000   -2.2863029438811182
  -3.1544695858582923   10.9347489515776513   -5.6365403394162357
   0.0000000000000000    0.0000000000000000   26.9925999999999995
H O
7 5
direct
   0.2969178556743430    0.0489525878564694    0.5696568311274640 H
   0.4566538767036288    1.1146299217152795    0.6088266921144206 H
   0.3615496370415171    1.0543860398926617    0.6857612755690288 H
   0.3352063163527769    0.7497562327423994    0.9028999879490726 H
   0.5110617919730531    1.1055988272673882    0.9467453473120888 H
   0.2871294713961053    1.0458149422620158    0.8796227718895426 H
   0.3929803807015167    1.0780975747868480    0.9091142563692268 H
   0.3179800000000000    0.0646200000000000    0.5415900000000000 O
   0.4459250000000000    1.1171500000000001    0.5733250000000000 O
   0.2942000000000000    0.7667000000000000    0.8833500000000001 O
   0.4563500000000000    1.0739600000000000    0.9398150000000001 O
   0.3320800000000000    1.0428800000000000    0.9014000000000000 O
