H9 O6
1.0
  18.2503498007243863    0.0000000000000000   -2.2863029438811182
  -3.1544695858582923   10.9347489515776513   -5.6365403394162357
   0.0000000000000000    0.0000000000000000   26.9925999999999995
H O
9 6
direct
   0.5709278033220431    0.8932084783645807    0.8960552313094472 H
   0.7195372685792292   -0.0465000438053379    0.9402041388459508 H
   0.7594824480778952    0.9828602060236831    0.8384920899252626 H
   0.7309460163604496    0.3351649542758729    0.6507541063761277 H
   0.5625373484640344    0.1521854884025280    0.5121224637125058 H
   0.6443105262681939    0.2526478479312699    0.5827919160726881 H
   0.5699521878805252    0.9380681749875535    0.5948375057167394 H
   0.7086816563682468   -0.0305185637816162    0.6258252893452917 H
   0.7408692148282389    0.9900581167174870    0.6899930884002035 H
   0.5510550000000000    0.8810700000000000    0.9253450000000000 O
   0.6790150000000000   -0.0662899999999999    0.9570900000000000 O
   0.7025049999999999    0.2629400000000000    0.6154050000000000 O
   0.6079100000000000    0.1602100000000000    0.5375500000000000 O
   0.5406750000000000    0.9246200000000000    0.5590600000000000 O
   0.6649600000000000   -0.0448100000000000    0.5972300000000000 O
