H12 C12 N3 O9
1.0
  18.2503498007243863    0.0000000000000000   -2.2863029438811182
  -3.1544695858582923   10.9347489515776513   -5.6365403394162357
   0.0000000000000000    0.0000000000000000   26.9925999999999995
H C N O
12 12 3 9
direct
   0.6659349999999999    0.4474600000000000    0.6949650000000001 H
   0.7126500000000000    0.5026000000000000    0.6536850000000000 H
   0.5962200000000000    0.3863100000000000    0.5720950000000000 H
   0.5497400000000000    0.3289900000000000    0.6121750000000000 H
   0.6848650000000001    0.8369400000000000    0.6462300000000000 H
   0.6496850000000001    0.9424300000000000    0.7006400000000000 H
   0.5488350000000000    0.7398100000000000    0.5844500000000000 H
   0.5204850000000000    0.8600300000000000    0.6357699999999999 H
   0.5207800000000000    0.6723700000000000    0.8083300000000000 H
   0.5206800000000000    0.8169000000000000    0.8124899999999999 H
   0.6647050000000000    0.8877400000000000    0.8512200000000000 H
   0.6598550000000000    0.7507000000000000    0.8546450000000000 H
   0.5969450000000001    0.6042800000000000    0.7315550000000000 C
   0.6348549999999999    0.6524799999999999    0.6574050000000000 C
   0.5894450000000000    0.7999400000000000    0.7346100000000000 C
   0.6571400000000001    0.4718800000000000    0.6610400000000000 C
   0.6061350000000000    0.3623300000000000    0.6063150000000000 C
   0.6410850000000000    0.2567900000000000    0.5859700000000000 C
   0.6349050000000001    0.8510900000000000    0.6637200000000000 C
   0.5693100000000000    0.8358900000000000    0.6182300000000001 C
   0.5927500000000000    0.9117300000000000    0.5891950000000000 C
   0.5551699999999999    0.7538800000000000    0.8091699999999999 C
   0.6276800000000000    0.8169000000000000    0.8570850000000000 C
   0.6163350000000000    0.8806000000000000    0.9168650000000000 C
   0.5766650000000000    0.7140500000000000    0.7541249999999999 N
   0.6252650000000000    0.5774300000000000    0.6828200000000000 N
   0.6163850000000000    0.7628300000000000    0.6850350000000001 N
   0.5909500000000000    0.5373100000000000    0.7532550000000000 O
   0.6593200000000000    0.6240400000000000    0.6144100000000000 O
   0.5779750000000000    0.9003200000000000    0.7594000000000001 O
   0.7025049999999999    0.2629400000000000    0.6154050000000000 O
   0.6649600000000000   -0.0448100000000000    0.5972300000000000 O
   0.5406750000000000    0.9246200000000000    0.5590600000000000 O
   0.6790150000000000   -0.0662899999999999    0.9570900000000000 O
   0.5510550000000000    0.8810700000000000    0.9253450000000000 O
   0.6079100000000000    0.1602100000000000    0.5375500000000000 O
