H6 C12 O4
1.0
  12.9059996147235445    0.0000000000000000   -0.0031535306742928
   0.0061216052491694   14.6149986623094055   -0.0012753993492751
   0.0000000000000000    0.0000000000000000   30.2500000000000000
H C O
6 12 4
direct
   0.8699100000000000    0.6519100000000000    0.3725150000000000 H
   0.8818200000000000    0.5363200000000000    0.4328800000000000 H
   0.9863499999999999    0.2597300000000000    0.3608250000000000 H
   0.0000000000000000    0.2190300000000000    0.2852050000000000 H
   0.0000000000000000    0.3388300000000000    0.2267700000000000 H
   0.0000000000000000    0.4984000000000000    0.2434950000000000 H
   0.9329499999999999    0.6397699999999999    0.2908000000000000 C
   0.9323100000000000    0.5629700000000000    0.3229650000000000 C
   0.8979000000000000    0.5831000000000000    0.3653700000000000 C
   0.9028400000000000    0.5175300000000000    0.3991850000000000 C
   0.9341000000000000    0.4287900000000000    0.3901850000000000 C
   0.9634400000000000    0.4033100000000000    0.3463000000000000 C
   0.9669800000000000    0.4724000000000000    0.3122900000000000 C
   0.9916600000000000    0.3120400000000000    0.3353200000000000 C
   0.0000000000000000    0.2894100000000000    0.2931550000000000 C
   0.0000000000000000    0.3573000000000000    0.2599550000000000 C
   0.0000000000000000    0.4465200000000000    0.2692350000000000 C
   0.9372500000000000    0.3617900000000000    0.4280000000000000 C
   0.8565199999999999    0.6957900000000000    0.2905350000000000 O
   0.0098000000000000    0.6522600000000000    0.2646700000000000 O
   0.8798300000000000    0.2911900000000000    0.4259000000000000 O
  -0.0034199999999999    0.3822700000000000    0.4601200000000000 O
