H6 O4
1.0
  12.9059996147235445    0.0000000000000000   -0.0031535306742928
   0.0061216052491694   14.6149986623094055   -0.0012753993492751
   0.0000000000000000    0.0000000000000000   30.2500000000000000
H O
6 4
direct
   0.9263866885924835    0.6803338569482791    0.2997137254936763 H
  -0.0598748584532173    0.6295938381268064    0.2695994853131829 H
   0.0171624728804195    0.3811866704804456    0.4292862009611630 H
   0.8664338076039447    0.2687847344799452    0.3962608618893177 H
  -0.0597776118397368    0.2880113315654293    0.3354285211438092 H
   0.4341435443290444    0.5583852986744590    0.3204180680260688 H
   0.8565199999999999    0.6957900000000000    0.2905350000000000 O
   0.0098000000000000    0.6522600000000000    0.2646700000000000 O
  -0.0034199999999999    0.3822700000000000    0.4601200000000000 O
   0.8798300000000000    0.2911900000000000    0.4259000000000000 O
