Ca16 H90 C180 O60
1.0
  12.9059996147235445    0.0000000000000000   -0.0031535306742928
   0.0061216052491694   14.6149986623094055   -0.0012753993492751
   0.0000000000000000    0.0000000000000000   30.2500000000000000
Ca H C O
16 90 180 60
direct
   0.9326300000000000    0.7973100000000000    0.2329300000000000 Ca
   0.3169100000000000    0.2017400000000000    0.4821550000000000 Ca
   0.8167900000000000    0.2012400000000000    0.4831550000000000 Ca
   0.0668500000000000    0.2976200000000000    0.0173100000000000 Ca
   0.5667800000000000    0.2964600000000000    0.0174100000000000 Ca
   0.1830900000000000    0.7018400000000000    0.2669500000000000 Ca
   0.6827600000000000    0.7014700000000000    0.2677950000000000 Ca
   0.4331000000000000    0.7965600000000000    0.2326050000000000 Ca
   0.9326300000000000    0.7973100000000000    0.7329300000000000 Ca
   0.3169100000000000    0.2017400000000000    0.9821550000000000 Ca
   0.8167900000000000    0.2012400000000000    0.9831550000000000 Ca
   0.0668500000000000    0.2976200000000000    0.5173100000000000 Ca
   0.5667800000000000    0.2964600000000000    0.5174100000000000 Ca
   0.1830900000000000    0.7018400000000000    0.7669500000000000 Ca
   0.6827600000000000    0.7014700000000000    0.7677950000000000 Ca
   0.4331000000000000    0.7965600000000000    0.7326050000000000 Ca
   0.3711300000000000    0.6502100000000000    0.3724250000000000 H
   0.3845800000000000    0.5339200000000000    0.4324000000000000 H
   0.4883700000000000    0.2584300000000000    0.3592150000000000 H
   0.5447900000000000    0.2187500000000000    0.2832800000000000 H
   0.5525900000000000    0.3392300000000000    0.2251600000000000 H
   0.5036400000000000    0.4985100000000000    0.2424950000000000 H
   0.3790100000000000    0.3471200000000000    0.1218750000000000 H
   0.8793100000000000    0.3470000000000000    0.1228050000000000 H
   0.3665900000000000    0.4628900000000000    0.1821550000000000 H
   0.8662200000000000    0.4627500000000000    0.1830650000000000 H
   0.2632000000000000    0.7394100000000000    0.1096500000000000 H
   0.7613799999999999    0.7388000000000000    0.1105900000000000 H
   0.2064400000000000    0.7798900000000000    0.0338750000000000 H
   0.7046200000000000    0.7791100000000000    0.0347650000000000 H
   0.1977100000000000    0.6599100000000000    0.4755200000000000 H
   0.6970800000000000    0.6592100000000000    0.4763500000000000 H
   0.2461800000000000    0.5003600000000000    0.4924900000000000 H
   0.7465100000000000    0.4998500000000000    0.4933050000000000 H
   0.1300300000000000    0.1524700000000000    0.3778150000000000 H
   0.6287700000000001    0.1501300000000000    0.3776050000000000 H
   0.1177400000000000    0.0370900000000000    0.3173600000000000 H
   0.6154100000000000    0.0338200000000000    0.3176000000000000 H
   0.0127400000000000    0.7605800000000000    0.3892350000000000 H
   0.5116000000000001    0.7584100000000000    0.3908000000000000 H
   0.9555900000000001    0.7196500000000000    0.4649000000000000 H
   0.4552200000000000    0.7187900000000000    0.4667400000000000 H
   0.9469800000000000    0.8391999999999999    0.0234650000000000 H
   0.4474300000000000    0.8393000000000000    0.0248550000000000 H
   0.9960599999999999    0.9987400000000000    0.0068550000000000 H
   0.4962900000000000    0.9985500000000000    0.0075050000000000 H
   0.1205400000000000    0.8473800000000000    0.1272400000000000 H
   0.6208300000000000    0.8471900000000000    0.1281750000000000 H
   0.1338900000000000    0.9629400000000000    0.0669100000000000 H
   0.6332900000000000    0.9629900000000000    0.0679200000000000 H
   0.2388900000000000    0.2390400000000000    0.1392950000000000 H
   0.7367600000000000    0.2393600000000000    0.1404500000000000 H
   0.2956600000000000    0.2794000000000000    0.2151050000000000 H
   0.7936600000000000    0.2797400000000000    0.2162400000000000 H
   0.3031400000000000    0.1595800000000000    0.2735700000000000 H
   0.8024000000000000    0.1597100000000000    0.2745800000000000 H
   0.2536100000000000    0.0002700000000000    0.2566600000000000 H
   0.7538400000000000    0.0002300000000000    0.2575950000000000 H
   0.3711300000000000    0.6502100000000000    0.8724250000000000 H
   0.8699100000000000    0.6519100000000000    0.8725149999999999 H
   0.3845800000000000    0.5339200000000000    0.9324000000000000 H
   0.8818200000000000    0.5363200000000000    0.9328799999999999 H
   0.4883700000000000    0.2584300000000000    0.8592150000000001 H
   0.9863499999999999    0.2597300000000000    0.8608250000000000 H
   0.5447900000000000    0.2187500000000000    0.7832800000000000 H
   0.0000000000000000    0.2190300000000000    0.7852049999999999 H
   0.5525900000000000    0.3392300000000000    0.7251600000000000 H
   0.0000000000000000    0.3388300000000000    0.7267700000000000 H
   0.5036400000000000    0.4985100000000000    0.7424950000000000 H
   0.0000000000000000    0.4984000000000000    0.7434950000000000 H
   0.3790100000000000    0.3471200000000000    0.6218750000000000 H
   0.8793100000000000    0.3470000000000000    0.6228050000000001 H
   0.3665900000000000    0.4628900000000000    0.6821550000000001 H
   0.8662200000000000    0.4627500000000000    0.6830650000000000 H
   0.2632000000000000    0.7394100000000000    0.6096500000000000 H
   0.7613799999999999    0.7388000000000000    0.6105900000000000 H
   0.2064400000000000    0.7798900000000000    0.5338750000000000 H
   0.7046200000000000    0.7791100000000000    0.5347650000000000 H
   0.1977100000000000    0.6599100000000000    0.9755199999999999 H
   0.6970800000000000    0.6592100000000000    0.9763500000000001 H
   0.2461800000000000    0.5003600000000000    0.9924900000000000 H
   0.7465100000000000    0.4998500000000000    0.9933050000000000 H
   0.1300300000000000    0.1524700000000000    0.8778150000000000 H
   0.6287700000000001    0.1501300000000000    0.8776050000000000 H
   0.1177400000000000    0.0370900000000000    0.8173600000000000 H
   0.6154100000000000    0.0338200000000000    0.8176000000000000 H
   0.0127400000000000    0.7605800000000000    0.8892350000000000 H
   0.5116000000000001    0.7584100000000000    0.8908000000000000 H
   0.9555900000000001    0.7196500000000000    0.9649000000000000 H
   0.4552200000000000    0.7187900000000000    0.9667399999999999 H
   0.9469800000000000    0.8391999999999999    0.5234650000000000 H
   0.4474300000000000    0.8393000000000000    0.5248550000000000 H
   0.9960599999999999    0.9987400000000000    0.5068550000000001 H
   0.4962900000000000    0.9985500000000000    0.5075050000000000 H
   0.1205400000000000    0.8473800000000000    0.6272400000000000 H
   0.6208300000000000    0.8471900000000000    0.6281750000000000 H
   0.1338900000000000    0.9629400000000000    0.5669100000000000 H
   0.6332900000000000    0.9629900000000000    0.5679200000000000 H
   0.2388900000000000    0.2390400000000000    0.6392949999999999 H
   0.7367600000000000    0.2393600000000000    0.6404500000000000 H
   0.2956600000000000    0.2794000000000000    0.7151050000000000 H
   0.7936600000000000    0.2797400000000000    0.7162400000000000 H
   0.3031400000000000    0.1595800000000000    0.7735700000000000 H
   0.8024000000000000    0.1597100000000000    0.7745800000000000 H
   0.2536100000000000    0.0002700000000000    0.7566600000000000 H
   0.7538400000000000    0.0002300000000000    0.7575950000000000 H
   0.4326100000000000    0.6392200000000000    0.2904650000000000 C
   0.4326500000000000    0.5620000000000001    0.3224000000000000 C
   0.3991800000000000    0.5815600000000000    0.3649950000000000 C
   0.4050400000000000    0.5155800000000000    0.3986100000000000 C
   0.4362500000000000    0.4270000000000000    0.3892450000000000 C
   0.4647900000000000    0.4021300000000000    0.3451750000000000 C
   0.4674400000000000    0.4716400000000000    0.3113450000000000 C
   0.4930500000000000    0.3110500000000000    0.3338400000000000 C
   0.5236200000000000    0.2889800000000000    0.2915000000000000 C
   0.5275600000000000    0.3572700000000000    0.2584800000000000 C
   0.5000000000000000    0.4463300000000000    0.2681050000000000 C
   0.4392100000000000    0.3593200000000000    0.4268100000000000 C
   0.3168100000000000    0.3592000000000000    0.0399650000000000 C
   0.8169700000000000    0.3587700000000000    0.0409050000000000 C
   0.3173200000000000    0.4359900000000000    0.0721350000000000 C
   0.8174800000000000    0.4356700000000000    0.0730200000000000 C
   0.3511600000000000    0.4159300000000000    0.1146350000000000 C
   0.8512900000000000    0.4157400000000000    0.1155350000000000 C
   0.3458900000000000    0.4816100000000000    0.1484100000000000 C
   0.8456000000000000    0.4814200000000000    0.1493050000000000 C
   0.3148400000000000    0.5703600000000000    0.1393000000000000 C
   0.8141100000000000    0.5700300000000000    0.1401750000000000 C
   0.2860700000000000    0.5957400000000000    0.0953200000000000 C
   0.7853400000000000    0.5952900000000000    0.0961850000000000 C
   0.2828800000000000    0.5265600000000000    0.0613350000000000 C
   0.7826800000000000    0.5261300000000000    0.0621950000000000 C
   0.2581100000000000    0.6870000000000001    0.0841950000000000 C
   0.7568000000000000    0.6864300000000000    0.0850850000000000 C
   0.2273200000000000    0.7095200000000000    0.0419350000000000 C
   0.7260300000000000    0.7088500000000000    0.0428050000000000 C
   0.2228800000000000    0.6415300000000000    0.0087700000000000 C
   0.7222100000000000    0.6408900000000000    0.0096100000000000 C
   0.2501500000000000    0.5523200000000000    0.0181800000000000 C
   0.7500100000000000    0.5518000000000000    0.0190200000000000 C
   0.3118800000000000    0.6376200000000000    0.1770600000000000 C
   0.8103100000000000    0.6372300000000000    0.1779000000000000 C
   0.0669800000000000    0.1402600000000000    0.4594650000000000 C
   0.5671600000000000    0.1391700000000000    0.4595650000000000 C
   0.0677200000000000    0.0634900000000000    0.4273250000000000 C
   0.5672000000000000    0.0619600000000000    0.4276150000000000 C
   0.1020000000000000    0.0836700000000000    0.3849100000000000 C
   0.6007200000000000    0.0814900000000000    0.3850300000000000 C
   0.0967600000000000    0.0182200000000000    0.3510450000000000 C
   0.5949200000000000    0.0155000000000000    0.3514100000000000 C
   0.0651900000000000    0.9296000000000000    0.3600150000000000 C
   0.5637200000000000    0.9269400000000000    0.3607500000000000 C
   0.0360800000000000    0.9040400000000000    0.4039050000000000 C
   0.5351500000000000    0.9021000000000000    0.4048000000000000 C
   0.0329500000000000    0.9729800000000000    0.4379500000000000 C
   0.5324700000000000    0.9716200000000000    0.4386700000000000 C
   0.0077600000000000    0.8127900000000000    0.4148100000000000 C
   0.5069200000000000    0.8110400000000000    0.4161750000000000 C
   0.9767300000000000    0.7900199999999999    0.4550000000000000 C
   0.4763600000000000    0.7890100000000000    0.4585000000000000 C
   0.9723500000000000    0.8577800000000000    0.4902750000000000 C
   0.4724300000000000    0.8573100000000000    0.4915400000000000 C
   0.9999300000000000    0.9469800000000000    0.4810600000000000 C
   0.4999400000000000    0.9463500000000000    0.4819100000000000 C
   0.0613900000000000    0.8625900000000000    0.3221900000000000 C
   0.5607600000000000    0.8592600000000000    0.3232000000000000 C
   0.1828200000000000    0.8594100000000000    0.2091850000000000 C
   0.6829600000000000    0.8591400000000000    0.2100700000000000 C
   0.1825400000000000    0.9361000000000000    0.1769700000000000 C
   0.6825100000000000    0.9359800000000000    0.1779300000000000 C
   0.1487200000000000    0.9160700000000001    0.1344500000000000 C
   0.6486800000000000    0.9159700000000000    0.1354250000000000 C
   0.1545300000000000    0.9816400000000000    0.1006650000000000 C
   0.6539600000000000    0.9816700000000000    0.1016700000000000 C
   0.1861000000000000    0.0702300000000000    0.1097500000000000 C
   0.6850000000000001    0.0703800000000000    0.1108100000000000 C
   0.2148700000000000    0.0955800000000000    0.1537000000000000 C
   0.7138200000000000    0.0957100000000000    0.1547900000000000 C
   0.2174700000000000    0.0265000000000000    0.1877450000000000 C
   0.7170000000000000    0.0265100000000000    0.1887550000000000 C
   0.2434500000000000    0.1867000000000000    0.1648100000000000 C
   0.7418400000000001    0.1869400000000000    0.1659150000000000 C
   0.2742300000000000    0.2091500000000000    0.2070800000000000 C
   0.7727100000000000    0.2094000000000000    0.2081750000000000 C
   0.2780000000000000    0.1412500000000000    0.2403000000000000 C
   0.7771600000000000    0.1413900000000000    0.2413250000000000 C
   0.2501600000000000    0.0521800000000000    0.2309000000000000 C
   0.7498200000000000    0.0522100000000000    0.2319050000000000 C
   0.1898000000000000    0.1373600000000000    0.0719700000000000 C
   0.6879300000000000    0.1376000000000000    0.0730450000000000 C
   0.4326100000000000    0.6392200000000000    0.7904650000000000 C
   0.9329499999999999    0.6397699999999999    0.7907999999999999 C
   0.4326500000000000    0.5620000000000001    0.8224000000000000 C
   0.9323100000000000    0.5629700000000000    0.8229649999999999 C
   0.3991800000000000    0.5815600000000000    0.8649950000000000 C
   0.8979000000000000    0.5831000000000000    0.8653700000000000 C
   0.4050400000000000    0.5155800000000000    0.8986100000000000 C
   0.9028400000000000    0.5175300000000000    0.8991850000000000 C
   0.4362500000000000    0.4270000000000000    0.8892450000000001 C
   0.9341000000000000    0.4287900000000000    0.8901850000000000 C
   0.4647900000000000    0.4021300000000000    0.8451750000000000 C
   0.9634400000000000    0.4033100000000000    0.8463000000000001 C
   0.4674400000000000    0.4716400000000000    0.8113450000000000 C
   0.9669800000000000    0.4724000000000000    0.8122900000000000 C
   0.4930500000000000    0.3110500000000000    0.8338400000000000 C
   0.9916600000000000    0.3120400000000000    0.8353200000000001 C
   0.5236200000000000    0.2889800000000000    0.7915000000000000 C
   0.0000000000000000    0.2894100000000000    0.7931550000000001 C
   0.5275600000000000    0.3572700000000000    0.7584800000000000 C
   0.0000000000000000    0.3573000000000000    0.7599549999999999 C
   0.5000000000000000    0.4463300000000000    0.7681050000000000 C
   0.0000000000000000    0.4465200000000000    0.7692350000000000 C
   0.4392100000000000    0.3593200000000000    0.9268100000000000 C
   0.9372500000000000    0.3617900000000000    0.9279999999999999 C
   0.3168100000000000    0.3592000000000000    0.5399650000000000 C
   0.8169700000000000    0.3587700000000000    0.5409050000000000 C
   0.3173200000000000    0.4359900000000000    0.5721350000000001 C
   0.8174800000000000    0.4356700000000000    0.5730200000000000 C
   0.3511600000000000    0.4159300000000000    0.6146350000000000 C
   0.8512900000000000    0.4157400000000000    0.6155349999999999 C
   0.3458900000000000    0.4816100000000000    0.6484099999999999 C
   0.8456000000000000    0.4814200000000000    0.6493050000000000 C
   0.3148400000000000    0.5703600000000000    0.6393000000000000 C
   0.8141100000000000    0.5700300000000000    0.6401749999999999 C
   0.2860700000000000    0.5957400000000000    0.5953200000000000 C
   0.7853400000000000    0.5952900000000000    0.5961850000000000 C
   0.2828800000000000    0.5265600000000000    0.5613350000000000 C
   0.7826800000000000    0.5261300000000000    0.5621950000000000 C
   0.2581100000000000    0.6870000000000001    0.5841950000000000 C
   0.7568000000000000    0.6864300000000000    0.5850850000000000 C
   0.2273200000000000    0.7095200000000000    0.5419350000000001 C
   0.7260300000000000    0.7088500000000000    0.5428050000000000 C
   0.2228800000000000    0.6415300000000000    0.5087699999999999 C
   0.7222100000000000    0.6408900000000000    0.5096100000000000 C
   0.2501500000000000    0.5523200000000000    0.5181800000000000 C
   0.7500100000000000    0.5518000000000000    0.5190200000000000 C
   0.3118800000000000    0.6376200000000000    0.6770600000000000 C
   0.8103100000000000    0.6372300000000000    0.6778999999999999 C
   0.0669800000000000    0.1402600000000000    0.9594650000000000 C
   0.5671600000000000    0.1391700000000000    0.9595650000000000 C
   0.0677200000000000    0.0634900000000000    0.9273250000000000 C
   0.5672000000000000    0.0619600000000000    0.9276150000000001 C
   0.1020000000000000    0.0836700000000000    0.8849100000000000 C
   0.6007200000000000    0.0814900000000000    0.8850300000000000 C
   0.0967600000000000    0.0182200000000000    0.8510450000000001 C
   0.5949200000000000    0.0155000000000000    0.8514100000000000 C
   0.0651900000000000    0.9296000000000000    0.8600150000000000 C
   0.5637200000000000    0.9269400000000000    0.8607500000000000 C
   0.0360800000000000    0.9040400000000000    0.9039050000000000 C
   0.5351500000000000    0.9021000000000000    0.9048000000000000 C
   0.0329500000000000    0.9729800000000000    0.9379500000000001 C
   0.5324700000000000    0.9716200000000000    0.9386700000000000 C
   0.0077600000000000    0.8127900000000000    0.9148100000000000 C
   0.5069200000000000    0.8110400000000000    0.9161750000000000 C
   0.9767300000000000    0.7900199999999999    0.9550000000000001 C
   0.4763600000000000    0.7890100000000000    0.9585000000000000 C
   0.9723500000000000    0.8577800000000000    0.9902750000000000 C
   0.4724300000000000    0.8573100000000000    0.9915400000000000 C
   0.9999300000000000    0.9469800000000000    0.9810600000000000 C
   0.4999400000000000    0.9463500000000000    0.9819100000000001 C
   0.0613900000000000    0.8625900000000000    0.8221900000000000 C
   0.5607600000000000    0.8592600000000000    0.8231999999999999 C
   0.1828200000000000    0.8594100000000000    0.7091850000000000 C
   0.6829600000000000    0.8591400000000000    0.7100700000000000 C
   0.1825400000000000    0.9361000000000000    0.6769700000000000 C
   0.6825100000000000    0.9359800000000000    0.6779300000000000 C
   0.1487200000000000    0.9160700000000001    0.6344500000000000 C
   0.6486800000000000    0.9159700000000000    0.6354250000000000 C
   0.1545300000000000    0.9816400000000000    0.6006650000000000 C
   0.6539600000000000    0.9816700000000000    0.6016700000000000 C
   0.1861000000000000    0.0702300000000000    0.6097500000000000 C
   0.6850000000000001    0.0703800000000000    0.6108100000000000 C
   0.2148700000000000    0.0955800000000000    0.6536999999999999 C
   0.7138200000000000    0.0957100000000000    0.6547900000000000 C
   0.2174700000000000    0.0265000000000000    0.6877450000000001 C
   0.7170000000000000    0.0265100000000000    0.6887550000000000 C
   0.2434500000000000    0.1867000000000000    0.6648100000000000 C
   0.7418400000000001    0.1869400000000000    0.6659150000000000 C
   0.2742300000000000    0.2091500000000000    0.7070799999999999 C
   0.7727100000000000    0.2094000000000000    0.7081750000000000 C
   0.2780000000000000    0.1412500000000000    0.7403000000000000 C
   0.7771600000000000    0.1413900000000000    0.7413250000000000 C
   0.2501600000000000    0.0521800000000000    0.7309000000000000 C
   0.7498200000000000    0.0522100000000000    0.7319050000000000 C
   0.1898000000000000    0.1373600000000000    0.5719700000000000 C
   0.6879300000000000    0.1376000000000000    0.5730450000000000 C
   0.3559900000000000    0.6950900000000000    0.2904400000000000 O
   0.5093400000000000    0.6521100000000000    0.2643000000000000 O
   0.3816400000000000    0.2888600000000000    0.4242050000000000 O
   0.4980200000000000    0.3790000000000000    0.4591950000000000 O
   0.3928500000000000    0.3027200000000000    0.0399850000000000 O
   0.8933100000000000    0.3025900000000000    0.0406950000000000 O
   0.2403500000000000    0.3472800000000000    0.0135250000000000 O
   0.7400400000000000    0.3464700000000000    0.0147650000000000 O
   0.3696900000000000    0.7079600000000000    0.1747800000000000 O
   0.8678399999999999    0.7077900000000000    0.1759000000000000 O
   0.2526000000000000    0.6176900000000000    0.2092450000000000 O
   0.7504800000000000    0.6171000000000000    0.2098800000000000 O
   0.1430200000000000    0.1966700000000000    0.4595550000000000 O
   0.6438000000000000    0.1949500000000000    0.4596500000000000 O
   0.4902900000000000    0.1521500000000000    0.4856500000000000 O
   0.9903400000000000    0.1523800000000000    0.4857450000000000 O
   0.1200200000000000    0.7926800000000001    0.3239250000000000 O
   0.6183400000000000    0.7887600000000000    0.3257900000000000 O
   0.5019700000000000    0.8790000000000000    0.2908150000000000 O
   0.0000000000000000    0.8823299999999999    0.2906100000000000 O
   0.1060600000000000    0.8037600000000000    0.2096000000000000 O
   0.6069200000000000    0.8027200000000000    0.2099950000000000 O
   0.2599000000000000    0.8467600000000000    0.2352000000000000 O
   0.7593800000000001    0.8471100000000000    0.2365200000000000 O
   0.1324000000000000    0.2080400000000000    0.0741000000000000 O
   0.6302700000000000    0.2080800000000000    0.0753450000000000 O
   0.2492800000000000    0.1170600000000000    0.0399300000000000 O
   0.7470400000000000    0.1174800000000000    0.0408250000000000 O
   0.3559900000000000    0.6950900000000000    0.7904400000000000 O
   0.8565199999999999    0.6957900000000000    0.7905350000000000 O
   0.0098000000000000    0.6522600000000000    0.7646700000000000 O
   0.5093400000000000    0.6521100000000000    0.7643000000000000 O
   0.3816400000000000    0.2888600000000000    0.9242049999999999 O
   0.8798300000000000    0.2911900000000000    0.9258999999999999 O
   0.9965800000000000    0.3822700000000000    0.9601200000000000 O
   0.4980200000000000    0.3790000000000000    0.9591950000000000 O
   0.3928500000000000    0.3027200000000000    0.5399850000000000 O
   0.8933100000000000    0.3025900000000000    0.5406950000000000 O
   0.2403500000000000    0.3472800000000000    0.5135250000000000 O
   0.7400400000000000    0.3464700000000000    0.5147650000000000 O
   0.3696900000000000    0.7079600000000000    0.6747799999999999 O
   0.8678399999999999    0.7077900000000000    0.6758999999999999 O
   0.2526000000000000    0.6176900000000000    0.7092450000000000 O
   0.7504800000000000    0.6171000000000000    0.7098800000000001 O
   0.1430200000000000    0.1966700000000000    0.9595549999999999 O
   0.6438000000000000    0.1949500000000000    0.9596500000000000 O
   0.4902900000000000    0.1521500000000000    0.9856500000000000 O
   0.9903400000000000    0.1523800000000000    0.9857450000000000 O
   0.1200200000000000    0.7926800000000001    0.8239250000000000 O
   0.6183400000000000    0.7887600000000000    0.8257900000000000 O
   0.5019700000000000    0.8790000000000000    0.7908150000000000 O
   0.0000000000000000    0.8823299999999999    0.7906100000000000 O
   0.1060600000000000    0.8037600000000000    0.7096000000000000 O
   0.6069200000000000    0.8027200000000000    0.7099949999999999 O
   0.2599000000000000    0.8467600000000000    0.7352000000000000 O
   0.7593800000000001    0.8471100000000000    0.7365200000000001 O
   0.1324000000000000    0.2080400000000000    0.5741000000000001 O
   0.6302700000000000    0.2080800000000000    0.5753450000000000 O
   0.2492800000000000    0.1170600000000000    0.5399300000000000 O
   0.7470400000000000    0.1174800000000000    0.5408250000000000 O
