H9 O5
1.0
  35.9759987671219221    0.0000000000000000   -0.0094184946678705
  -0.0041749149326150   15.9469994535048922    0.0000000000000010
   0.0000000000000000    0.0000000000000000   33.3239999999999981
H O
9 5
direct
   0.8820225152128134    0.6785262152794155    0.4556173327541914 H
   0.9177462097337368    0.7059663552499511    0.4853194332283714 H
   0.8592586787165211    0.0674383132577209    0.5902778663149605 H
   0.8731597186066032    0.8461357452335490    0.6576787940300400 H
   0.8661891008051593    0.9567494490525175    0.6239854310999767 H
   0.7694263470606940    0.8605017832734079    0.5731563263670650 H
   0.8073628031982690    0.8614570757133285    0.5776116795709516 H
   0.8805051609853262    0.9641368814148100    0.5343844085520457 H
   0.8513594967397107    0.9079632431332888    0.5105792498812634 H
   0.9065449999999999    0.6657000000000000    0.4667450000000000 O
   0.8625866666666666    0.0165400000000000    0.6058050000000000 O
   0.8700866666666666    0.8971400000000000    0.6421700000000000 O
   0.7871983333333333    0.9025800000000000    0.5766500000000000 O
   0.8565883333333333    0.9351699999999999    0.5362900000000000 O
