Cd48 H517 C423 N94 Cl48 O141
1.0
  35.9759987671219221    0.0000000000000000   -0.0094184946678705
  -0.0041749149326150   15.9469994535048922    0.0000000000000010
   0.0000000000000000    0.0000000000000000   33.3239999999999981
Cd H C N Cl O
48 517 423 94 48 141
direct
   0.0213566666666667    0.4576400000000000    0.3005150000000000 Cd
   0.1047500000000000    0.5428900000000000    0.4494950000000000 Cd
   0.1452550000000000    0.0428000000000000    0.0504850000000000 Cd
   0.0619766666666667    0.9575399999999999    0.1994700000000000 Cd
   0.1880233333333333    0.4576400000000000    0.3005150000000000 Cd
   0.2714166666666666    0.5428900000000000    0.4494950000000000 Cd
   0.3119216666666667    0.0428000000000000    0.0504850000000000 Cd
   0.2286433333333333    0.9575399999999999    0.1994700000000000 Cd
   0.3546900000000000    0.4576400000000000    0.3005150000000000 Cd
   0.4380833333333333    0.5428900000000000    0.4494950000000000 Cd
   0.4785883333333333    0.0428000000000000    0.0504850000000000 Cd
   0.3953100000000000    0.9575399999999999    0.1994700000000000 Cd
   0.5213566666666667    0.4576400000000000    0.3005150000000000 Cd
   0.6047500000000000    0.5428900000000000    0.4494950000000000 Cd
   0.6452550000000000    0.0428000000000000    0.0504850000000000 Cd
   0.5619766666666667    0.9575399999999999    0.1994700000000000 Cd
   0.6880233333333333    0.4576400000000000    0.3005150000000000 Cd
   0.7714166666666666    0.5428900000000000    0.4494950000000000 Cd
   0.8119216666666667    0.0428000000000000    0.0504850000000000 Cd
   0.7286433333333333    0.9575399999999999    0.1994700000000000 Cd
   0.8546899999999999    0.4576400000000000    0.3005150000000000 Cd
   0.9380833333333333    0.5428900000000000    0.4494950000000000 Cd
   0.9785883333333333    0.0428000000000000    0.0504850000000000 Cd
   0.8953099999999999    0.9575399999999999    0.1994700000000000 Cd
   0.0213566666666667    0.4576400000000000    0.8005150000000000 Cd
   0.1047500000000000    0.5428900000000000    0.9494950000000000 Cd
   0.1452550000000000    0.0428000000000000    0.5504850000000000 Cd
   0.0619766666666667    0.9575399999999999    0.6994700000000000 Cd
   0.1880233333333333    0.4576400000000000    0.8005150000000000 Cd
   0.2714166666666666    0.5428900000000000    0.9494950000000000 Cd
   0.3119216666666667    0.0428000000000000    0.5504850000000000 Cd
   0.2286433333333333    0.9575399999999999    0.6994700000000000 Cd
   0.3546900000000000    0.4576400000000000    0.8005150000000000 Cd
   0.4380833333333333    0.5428900000000000    0.9494950000000000 Cd
   0.4785883333333333    0.0428000000000000    0.5504850000000000 Cd
   0.3953100000000000    0.9575399999999999    0.6994700000000000 Cd
   0.5213566666666667    0.4576400000000000    0.8005150000000000 Cd
   0.6047500000000000    0.5428900000000000    0.9494950000000000 Cd
   0.6452550000000000    0.0428000000000000    0.5504850000000000 Cd
   0.5619766666666667    0.9575399999999999    0.6994700000000000 Cd
   0.6880233333333333    0.4576400000000000    0.8005150000000000 Cd
   0.7714166666666666    0.5428900000000000    0.9494950000000000 Cd
   0.8119216666666667    0.0428000000000000    0.5504850000000000 Cd
   0.7286433333333333    0.9575399999999999    0.6994700000000000 Cd
   0.8546899999999999    0.4576400000000000    0.8005150000000000 Cd
   0.9380833333333333    0.5428900000000000    0.9494950000000000 Cd
   0.9785883333333333    0.0428000000000000    0.5504850000000000 Cd
   0.8953099999999999    0.9575399999999999    0.6994700000000000 Cd
   0.0761950000000000    0.2333600000000000    0.3015650000000000 H
   0.1107933333333333    0.3633100000000000    0.3187450000000000 H
   0.0324300000000000    0.2972400000000000    0.2455850000000000 H
   0.0022383333333333    0.1610100000000000    0.2266050000000000 H
   0.1319916666666667    0.0344300000000000    0.2156600000000000 H
   0.0687883333333333    0.1169200000000000    0.2551550000000000 H
   0.1056550000000000    0.0590200000000000    0.2755850000000000 H
   0.1259416666666667    0.1683600000000000    0.1774600000000000 H
   0.0666583333333333    0.1927300000000000    0.1434900000000000 H
   0.0620066666666667    0.2031400000000000    0.1962900000000000 H
   0.0336650000000000    0.0716900000000000    0.1457550000000000 H
   0.0071416666666667    0.7334100000000000    0.1983950000000000 H
   0.1392033333333333    0.8633000000000000    0.1812200000000000 H
   0.0509050000000000    0.7970900000000000    0.2543800000000000 H
   0.0811066666666667    0.6609200000000000    0.2733600000000000 H
   0.1180250000000000    0.5344700000000000    0.2843450000000000 H
   0.0145550000000000    0.6169600000000000    0.2448050000000000 H
   0.1443450000000000    0.5590000000000001    0.2244050000000000 H
   0.1241116666666667    0.6684700000000000    0.3225050000000000 H
   0.0167383333333333    0.6928400000000000    0.3564750000000000 H
   0.0213950000000000    0.7031800000000000    0.3036650000000000 H
   0.0496833333333333    0.5717500000000000    0.3542400000000000 H
   0.0905266666666667    0.2667800000000000    0.0515500000000000 H
   0.0558600000000000    0.1369400000000000    0.0687100000000000 H
   0.1342550000000000    0.2032600000000000    0.4955250000000000 H
   0.1645116666666667    0.3394100000000000    0.4765650000000000 H
   0.0347666666666667    0.4659100000000000    0.4657050000000000 H
   0.0979833333333333    0.3832500000000000    0.0051250000000000 H
   0.0611666666666667    0.4412000000000000    0.0256100000000000 H
   0.0407933333333333    0.3320900000000000    0.4274300000000000 H
   0.1000566666666667    0.3077200000000000    0.3934600000000000 H
   0.1047200000000000    0.2972200000000000    0.4462600000000000 H
   0.1330550000000000    0.4287700000000000    0.3957900000000000 H
   0.1594666666666666    0.7666800000000000    0.4483850000000000 H
   0.0274900000000000    0.6369300000000000    0.4312150000000000 H
   0.1157150000000000    0.7033199999999999    0.0044750000000000 H
   0.0854333333333333    0.8393900000000000    0.0234500000000000 H
   0.0485450000000000    0.9658000000000000    0.0342750000000000 H
   0.1519683333333333    0.8830500000000000    0.4949000000000000 H
   0.0220800000000000    0.9410900000000000    0.4743750000000000 H
   0.0424966666666667    0.8319800000000001    0.0725550000000000 H
   0.1498933333333333    0.8076400000000000    0.1065450000000000 H
   0.1452250000000000    0.7971000000000000    0.0537450000000000 H
   0.1169250000000000    0.9286700000000000    0.1042000000000000 H
   0.2428616666666666    0.2333600000000000    0.3015650000000000 H
   0.2774600000000000    0.3633100000000000    0.3187450000000000 H
   0.1990966666666666    0.2972400000000000    0.2455850000000000 H
   0.1689050000000000    0.1610100000000000    0.2266050000000000 H
   0.2986583333333334    0.0344300000000000    0.2156600000000000 H
   0.2354550000000000    0.1169200000000000    0.2551550000000000 H
   0.2723216666666667    0.0590200000000000    0.2755850000000000 H
   0.2926083333333334    0.1683600000000000    0.1774600000000000 H
   0.2333250000000000    0.1927300000000000    0.1434900000000000 H
   0.2286733333333333    0.2031400000000000    0.1962900000000000 H
   0.2003316666666667    0.0716900000000000    0.1457550000000000 H
   0.1738083333333333    0.7334100000000000    0.1983950000000000 H
   0.3058700000000000    0.8633000000000000    0.1812200000000000 H
   0.2175716666666667    0.7970900000000000    0.2543800000000000 H
   0.2477733333333333    0.6609200000000000    0.2733600000000000 H
   0.2846916666666667    0.5344700000000000    0.2843450000000000 H
   0.1812216666666667    0.6169600000000000    0.2448050000000000 H
   0.3110116666666667    0.5590000000000001    0.2244050000000000 H
   0.2907783333333334    0.6684700000000000    0.3225050000000000 H
   0.1834050000000000    0.6928400000000000    0.3564750000000000 H
   0.1880616666666667    0.7031800000000000    0.3036650000000000 H
   0.2163500000000000    0.5717500000000000    0.3542400000000000 H
   0.2571933333333333    0.2667800000000000    0.0515500000000000 H
   0.2225266666666667    0.1369400000000000    0.0687100000000000 H
   0.3009216666666666    0.2032600000000000    0.4955250000000000 H
   0.3311783333333334    0.3394100000000000    0.4765650000000000 H
   0.2014333333333333    0.4659100000000000    0.4657050000000000 H
   0.2646500000000000    0.3832500000000000    0.0051250000000000 H
   0.2278333333333333    0.4412000000000000    0.0256100000000000 H
   0.2074600000000000    0.3320900000000000    0.4274300000000000 H
   0.2667233333333333    0.3077200000000000    0.3934600000000000 H
   0.2713866666666667    0.2972200000000000    0.4462600000000000 H
   0.2997216666666667    0.4287700000000000    0.3957900000000000 H
   0.3261333333333333    0.7666800000000000    0.4483850000000000 H
   0.1941566666666666    0.6369300000000000    0.4312150000000000 H
   0.2823816666666666    0.7033199999999999    0.0044750000000000 H
   0.2521000000000000    0.8393900000000000    0.0234500000000000 H
   0.2152116666666666    0.9658000000000000    0.0342750000000000 H
   0.3186350000000000    0.8830500000000000    0.4949000000000000 H
   0.1887466666666666    0.9410900000000000    0.4743750000000000 H
   0.2091633333333333    0.8319800000000001    0.0725550000000000 H
   0.3165600000000000    0.8076400000000000    0.1065450000000000 H
   0.3118916666666667    0.7971000000000000    0.0537450000000000 H
   0.2835916666666667    0.9286700000000000    0.1042000000000000 H
   0.4095283333333333    0.2333600000000000    0.3015650000000000 H
   0.4441266666666667    0.3633100000000000    0.3187450000000000 H
   0.3657633333333333    0.2972400000000000    0.2455850000000000 H
   0.3355716666666667    0.1610100000000000    0.2266050000000000 H
   0.4653250000000000    0.0344300000000000    0.2156600000000000 H
   0.4021216666666667    0.1169200000000000    0.2551550000000000 H
   0.4389883333333333    0.0590200000000000    0.2755850000000000 H
   0.4592750000000000    0.1683600000000000    0.1774600000000000 H
   0.3999916666666666    0.1927300000000000    0.1434900000000000 H
   0.3953400000000000    0.2031400000000000    0.1962900000000000 H
   0.3669983333333333    0.0716900000000000    0.1457550000000000 H
   0.3404750000000000    0.7334100000000000    0.1983950000000000 H
   0.4725366666666666    0.8633000000000000    0.1812200000000000 H
   0.3842383333333333    0.7970900000000000    0.2543800000000000 H
   0.4144400000000000    0.6609200000000000    0.2733600000000000 H
   0.4513583333333333    0.5344700000000000    0.2843450000000000 H
   0.3478883333333333    0.6169600000000000    0.2448050000000000 H
   0.4776783333333333    0.5590000000000001    0.2244050000000000 H
   0.4574450000000000    0.6684700000000000    0.3225050000000000 H
   0.3500716666666667    0.6928400000000000    0.3564750000000000 H
   0.3547283333333333    0.7031800000000000    0.3036650000000000 H
   0.3830166666666667    0.5717500000000000    0.3542400000000000 H
   0.4238600000000000    0.2667800000000000    0.0515500000000000 H
   0.3891933333333333    0.1369400000000000    0.0687100000000000 H
   0.4675883333333333    0.2032600000000000    0.4955250000000000 H
   0.4978450000000000    0.3394100000000000    0.4765650000000000 H
   0.3681000000000000    0.4659100000000000    0.4657050000000000 H
   0.4313166666666666    0.3832500000000000    0.0051250000000000 H
   0.3945000000000000    0.4412000000000000    0.0256100000000000 H
   0.3741266666666667    0.3320900000000000    0.4274300000000000 H
   0.4333899999999999    0.3077200000000000    0.3934600000000000 H
   0.4380533333333333    0.2972200000000000    0.4462600000000000 H
   0.4663883333333333    0.4287700000000000    0.3957900000000000 H
   0.4928000000000000    0.7666800000000000    0.4483850000000000 H
   0.3608233333333333    0.6369300000000000    0.4312150000000000 H
   0.4490483333333333    0.7033199999999999    0.0044750000000000 H
   0.4187666666666666    0.8393900000000000    0.0234500000000000 H
   0.3818783333333333    0.9658000000000000    0.0342750000000000 H
   0.4853016666666666    0.8830500000000000    0.4949000000000000 H
   0.3554133333333333    0.9410900000000000    0.4743750000000000 H
   0.3758300000000000    0.8319800000000001    0.0725550000000000 H
   0.4832266666666666    0.8076400000000000    0.1065450000000000 H
   0.4785583333333333    0.7971000000000000    0.0537450000000000 H
   0.4502583333333333    0.9286700000000000    0.1042000000000000 H
   0.5761950000000000    0.2333600000000000    0.3015650000000000 H
   0.6107933333333333    0.3633100000000000    0.3187450000000000 H
   0.5324300000000000    0.2972400000000000    0.2455850000000000 H
   0.5022383333333333    0.1610100000000000    0.2266050000000000 H
   0.6319916666666667    0.0344300000000000    0.2156600000000000 H
   0.5687883333333333    0.1169200000000000    0.2551550000000000 H
   0.6056550000000001    0.0590200000000000    0.2755850000000000 H
   0.6259416666666666    0.1683600000000000    0.1774600000000000 H
   0.5666583333333334    0.1927300000000000    0.1434900000000000 H
   0.5620066666666667    0.2031400000000000    0.1962900000000000 H
   0.5336650000000001    0.0716900000000000    0.1457550000000000 H
   0.5071416666666667    0.7334100000000000    0.1983950000000000 H
   0.6392033333333333    0.8633000000000000    0.1812200000000000 H
   0.5509050000000000    0.7970900000000000    0.2543800000000000 H
   0.5811066666666667    0.6609200000000000    0.2733600000000000 H
   0.6180250000000000    0.5344700000000000    0.2843450000000000 H
   0.5145550000000000    0.6169600000000000    0.2448050000000000 H
   0.6443449999999999    0.5590000000000001    0.2244050000000000 H
   0.6241116666666666    0.6684700000000000    0.3225050000000000 H
   0.5167383333333333    0.6928400000000000    0.3564750000000000 H
   0.5213950000000001    0.7031800000000000    0.3036650000000000 H
   0.5496833333333333    0.5717500000000000    0.3542400000000000 H
   0.5905266666666666    0.2667800000000000    0.0515500000000000 H
   0.5558600000000000    0.1369400000000000    0.0687100000000000 H
   0.6342550000000000    0.2032600000000000    0.4955250000000000 H
   0.6645116666666666    0.3394100000000000    0.4765650000000000 H
   0.5347666666666666    0.4659100000000000    0.4657050000000000 H
   0.5979833333333333    0.3832500000000000    0.0051250000000000 H
   0.5611666666666667    0.4412000000000000    0.0256100000000000 H
   0.5407933333333333    0.3320900000000000    0.4274300000000000 H
   0.6000566666666667    0.3077200000000000    0.3934600000000000 H
   0.6047200000000000    0.2972200000000000    0.4462600000000000 H
   0.6330549999999999    0.4287700000000000    0.3957900000000000 H
   0.6594666666666666    0.7666800000000000    0.4483850000000000 H
   0.5274900000000000    0.6369300000000000    0.4312150000000000 H
   0.6157150000000000    0.7033199999999999    0.0044750000000000 H
   0.5854333333333334    0.8393900000000000    0.0234500000000000 H
   0.5485449999999999    0.9658000000000000    0.0342750000000000 H
   0.6519683333333333    0.8830500000000000    0.4949000000000000 H
   0.5220800000000000    0.9410900000000000    0.4743750000000000 H
   0.5424966666666666    0.8319800000000001    0.0725550000000000 H
   0.6498933333333333    0.8076400000000000    0.1065450000000000 H
   0.6452249999999999    0.7971000000000000    0.0537450000000000 H
   0.6169249999999999    0.9286700000000000    0.1042000000000000 H
   0.7428616666666666    0.2333600000000000    0.3015650000000000 H
   0.7774599999999999    0.3633100000000000    0.3187450000000000 H
   0.6990966666666666    0.2972400000000000    0.2455850000000000 H
   0.6689050000000000    0.1610100000000000    0.2266050000000000 H
   0.7986583333333332    0.0344300000000000    0.2156600000000000 H
   0.7354550000000000    0.1169200000000000    0.2551550000000000 H
   0.7723216666666666    0.0590200000000000    0.2755850000000000 H
   0.7926083333333334    0.1683600000000000    0.1774600000000000 H
   0.7333250000000000    0.1927300000000000    0.1434900000000000 H
   0.7286733333333333    0.2031400000000000    0.1962900000000000 H
   0.7003316666666666    0.0716900000000000    0.1457550000000000 H
   0.6738083333333333    0.7334100000000000    0.1983950000000000 H
   0.8058700000000000    0.8633000000000000    0.1812200000000000 H
   0.7175716666666666    0.7970900000000000    0.2543800000000000 H
   0.7477733333333333    0.6609200000000000    0.2733600000000000 H
   0.7846916666666666    0.5344700000000000    0.2843450000000000 H
   0.6812216666666666    0.6169600000000000    0.2448050000000000 H
   0.8110116666666667    0.5590000000000001    0.2244050000000000 H
   0.7907783333333334    0.6684700000000000    0.3225050000000000 H
   0.6834049999999999    0.6928400000000000    0.3564750000000000 H
   0.6880616666666667    0.7031800000000000    0.3036650000000000 H
   0.7163499999999999    0.5717500000000000    0.3542400000000000 H
   0.7571933333333333    0.2667800000000000    0.0515500000000000 H
   0.7225266666666667    0.1369400000000000    0.0687100000000000 H
   0.8009216666666666    0.2032600000000000    0.4955250000000000 H
   0.8311783333333334    0.3394100000000000    0.4765650000000000 H
   0.7014333333333334    0.4659100000000000    0.4657050000000000 H
   0.7646499999999999    0.3832500000000000    0.0051250000000000 H
   0.7278333333333333    0.4412000000000000    0.0256100000000000 H
   0.7074600000000000    0.3320900000000000    0.4274300000000000 H
   0.7667233333333333    0.3077200000000000    0.3934600000000000 H
   0.7713866666666667    0.2972200000000000    0.4462600000000000 H
   0.7997216666666667    0.4287700000000000    0.3957900000000000 H
   0.6941566666666666    0.6369300000000000    0.4312150000000000 H
   0.7823816666666666    0.7033199999999999    0.0044750000000000 H
   0.7521000000000000    0.8393900000000000    0.0234500000000000 H
   0.7152116666666666    0.9658000000000000    0.0342750000000000 H
   0.6887466666666666    0.9410900000000000    0.4743750000000000 H
   0.7091633333333333    0.8319800000000001    0.0725550000000000 H
   0.8165600000000000    0.8076400000000000    0.1065450000000000 H
   0.8118916666666667    0.7971000000000000    0.0537450000000000 H
   0.7835916666666667    0.9286700000000000    0.1042000000000000 H
   0.9095283333333333    0.2333600000000000    0.3015650000000000 H
   0.9441266666666666    0.3633100000000000    0.3187450000000000 H
   0.8657633333333332    0.2972400000000000    0.2455850000000000 H
   0.8355716666666666    0.1610100000000000    0.2266050000000000 H
   0.9653250000000000    0.0344300000000000    0.2156600000000000 H
   0.9021216666666666    0.1169200000000000    0.2551550000000000 H
   0.9389883333333333    0.0590200000000000    0.2755850000000000 H
   0.9592749999999999    0.1683600000000000    0.1774600000000000 H
   0.8999916666666666    0.1927300000000000    0.1434900000000000 H
   0.8953399999999999    0.2031400000000000    0.1962900000000000 H
   0.8669983333333333    0.0716900000000000    0.1457550000000000 H
   0.8404750000000000    0.7334100000000000    0.1983950000000000 H
   0.9725366666666666    0.8633000000000000    0.1812200000000000 H
   0.8842383333333332    0.7970900000000000    0.2543800000000000 H
   0.9144399999999999    0.6609200000000000    0.2733600000000000 H
   0.9513583333333333    0.5344700000000000    0.2843450000000000 H
   0.8478883333333332    0.6169600000000000    0.2448050000000000 H
   0.9776783333333332    0.5590000000000001    0.2244050000000000 H
   0.9574449999999999    0.6684700000000000    0.3225050000000000 H
   0.8500716666666666    0.6928400000000000    0.3564750000000000 H
   0.8547283333333333    0.7031800000000000    0.3036650000000000 H
   0.8830166666666666    0.5717500000000000    0.3542400000000000 H
   0.9238599999999999    0.2667800000000000    0.0515500000000000 H
   0.8891933333333333    0.1369400000000000    0.0687100000000000 H
   0.9675883333333333    0.2032600000000000    0.4955250000000000 H
   0.9978449999999999    0.3394100000000000    0.4765650000000000 H
   0.8680999999999999    0.4659100000000000    0.4657050000000000 H
   0.9313166666666666    0.3832500000000000    0.0051250000000000 H
   0.8945000000000000    0.4412000000000000    0.0256100000000000 H
   0.8741266666666666    0.3320900000000000    0.4274300000000000 H
   0.9333899999999999    0.3077200000000000    0.3934600000000000 H
   0.9380533333333333    0.2972200000000000    0.4462600000000000 H
   0.9663883333333332    0.4287700000000000    0.3957900000000000 H
   0.9927999999999999    0.7666800000000000    0.4483850000000000 H
   0.9490483333333333    0.7033199999999999    0.0044750000000000 H
   0.9187666666666666    0.8393900000000000    0.0234500000000000 H
   0.8818783333333332    0.9658000000000000    0.0342750000000000 H
   0.9853016666666665    0.8830500000000000    0.4949000000000000 H
   0.8758299999999999    0.8319800000000001    0.0725550000000000 H
   0.9832266666666666    0.8076400000000000    0.1065450000000000 H
   0.9785583333333332    0.7971000000000000    0.0537450000000000 H
   0.9502583333333332    0.9286700000000000    0.1042000000000000 H
   0.0761950000000000    0.2333600000000000    0.8015650000000001 H
   0.1107933333333333    0.3633100000000000    0.8187450000000001 H
   0.0324300000000000    0.2972400000000000    0.7455849999999999 H
   0.0022383333333333    0.1610100000000000    0.7266049999999999 H
   0.1319916666666667    0.0344300000000000    0.7156600000000000 H
   0.0687883333333333    0.1169200000000000    0.7551550000000000 H
   0.1056550000000000    0.0590200000000000    0.7755850000000000 H
   0.1259416666666667    0.1683600000000000    0.6774600000000000 H
   0.0666583333333333    0.1927300000000000    0.6434900000000000 H
   0.0620066666666667    0.2031400000000000    0.6962900000000000 H
   0.0336650000000000    0.0716900000000000    0.6457550000000000 H
   0.0071416666666667    0.7334100000000000    0.6983950000000000 H
   0.1392033333333333    0.8633000000000000    0.6812199999999999 H
   0.0509050000000000    0.7970900000000000    0.7543800000000001 H
   0.0811066666666667    0.6609200000000000    0.7733600000000000 H
   0.1180250000000000    0.5344700000000000    0.7843450000000001 H
   0.0145550000000000    0.6169600000000000    0.7448049999999999 H
   0.1443450000000000    0.5590000000000001    0.7244050000000000 H
   0.1241116666666667    0.6684700000000000    0.8225050000000000 H
   0.0167383333333333    0.6928400000000000    0.8564750000000000 H
   0.0213950000000000    0.7031800000000000    0.8036650000000001 H
   0.0496833333333333    0.5717500000000000    0.8542400000000000 H
   0.0905266666666667    0.2667800000000000    0.5515500000000000 H
   0.0558600000000000    0.1369400000000000    0.5687100000000000 H
   0.1342550000000000    0.2032600000000000    0.9955250000000000 H
   0.1645116666666667    0.3394100000000000    0.9765650000000000 H
   0.0347666666666667    0.4659100000000000    0.9657050000000000 H
   0.0979833333333333    0.3832500000000000    0.5051250000000000 H
   0.0611666666666667    0.4412000000000000    0.5256100000000000 H
   0.0407933333333333    0.3320900000000000    0.9274300000000000 H
   0.1000566666666667    0.3077200000000000    0.8934599999999999 H
   0.1047200000000000    0.2972200000000000    0.9462600000000000 H
   0.1330550000000000    0.4287700000000000    0.8957900000000000 H
   0.1594666666666666    0.7666800000000000    0.9483850000000000 H
   0.0274900000000000    0.6369300000000000    0.9312150000000000 H
   0.1157150000000000    0.7033199999999999    0.5044750000000000 H
   0.0854333333333333    0.8393900000000000    0.5234500000000000 H
   0.0485450000000000    0.9658000000000000    0.5342750000000001 H
   0.1519683333333333    0.8830500000000000    0.9949000000000000 H
   0.0220800000000000    0.9410900000000000    0.9743750000000000 H
   0.0424966666666667    0.8319800000000001    0.5725550000000000 H
   0.1498933333333333    0.8076400000000000    0.6065450000000000 H
   0.1452250000000000    0.7971000000000000    0.5537450000000000 H
   0.1169250000000000    0.9286700000000000    0.6042000000000000 H
   0.2428616666666666    0.2333600000000000    0.8015650000000001 H
   0.2774600000000000    0.3633100000000000    0.8187450000000001 H
   0.1990966666666666    0.2972400000000000    0.7455849999999999 H
   0.1689050000000000    0.1610100000000000    0.7266049999999999 H
   0.2986583333333334    0.0344300000000000    0.7156600000000000 H
   0.2354550000000000    0.1169200000000000    0.7551550000000000 H
   0.2723216666666667    0.0590200000000000    0.7755850000000000 H
   0.2926083333333334    0.1683600000000000    0.6774600000000000 H
   0.2333250000000000    0.1927300000000000    0.6434900000000000 H
   0.2286733333333333    0.2031400000000000    0.6962900000000000 H
   0.2003316666666667    0.0716900000000000    0.6457550000000000 H
   0.1738083333333333    0.7334100000000000    0.6983950000000000 H
   0.3058700000000000    0.8633000000000000    0.6812199999999999 H
   0.2175716666666667    0.7970900000000000    0.7543800000000001 H
   0.2477733333333333    0.6609200000000000    0.7733600000000000 H
   0.2846916666666667    0.5344700000000000    0.7843450000000001 H
   0.1812216666666667    0.6169600000000000    0.7448049999999999 H
   0.3110116666666667    0.5590000000000001    0.7244050000000000 H
   0.2907783333333334    0.6684700000000000    0.8225050000000000 H
   0.1834050000000000    0.6928400000000000    0.8564750000000000 H
   0.1880616666666667    0.7031800000000000    0.8036650000000001 H
   0.2163500000000000    0.5717500000000000    0.8542400000000000 H
   0.2571933333333333    0.2667800000000000    0.5515500000000000 H
   0.2225266666666667    0.1369400000000000    0.5687100000000000 H
   0.3009216666666666    0.2032600000000000    0.9955250000000000 H
   0.3311783333333334    0.3394100000000000    0.9765650000000000 H
   0.2014333333333333    0.4659100000000000    0.9657050000000000 H
   0.2646500000000000    0.3832500000000000    0.5051250000000000 H
   0.2278333333333333    0.4412000000000000    0.5256100000000000 H
   0.2074600000000000    0.3320900000000000    0.9274300000000000 H
   0.2667233333333333    0.3077200000000000    0.8934599999999999 H
   0.2713866666666667    0.2972200000000000    0.9462600000000000 H
   0.2997216666666667    0.4287700000000000    0.8957900000000000 H
   0.3261333333333333    0.7666800000000000    0.9483850000000000 H
   0.1941566666666666    0.6369300000000000    0.9312150000000000 H
   0.2823816666666666    0.7033199999999999    0.5044750000000000 H
   0.2521000000000000    0.8393900000000000    0.5234500000000000 H
   0.2152116666666666    0.9658000000000000    0.5342750000000001 H
   0.3186350000000000    0.8830500000000000    0.9949000000000000 H
   0.1887466666666666    0.9410900000000000    0.9743750000000000 H
   0.2091633333333333    0.8319800000000001    0.5725550000000000 H
   0.3165600000000000    0.8076400000000000    0.6065450000000000 H
   0.3118916666666667    0.7971000000000000    0.5537450000000000 H
   0.2835916666666667    0.9286700000000000    0.6042000000000000 H
   0.4095283333333333    0.2333600000000000    0.8015650000000001 H
   0.4441266666666667    0.3633100000000000    0.8187450000000001 H
   0.3657633333333333    0.2972400000000000    0.7455849999999999 H
   0.3355716666666667    0.1610100000000000    0.7266049999999999 H
   0.4653250000000000    0.0344300000000000    0.7156600000000000 H
   0.4021216666666667    0.1169200000000000    0.7551550000000000 H
   0.4389883333333333    0.0590200000000000    0.7755850000000000 H
   0.4592750000000000    0.1683600000000000    0.6774600000000000 H
   0.3999916666666666    0.1927300000000000    0.6434900000000000 H
   0.3953400000000000    0.2031400000000000    0.6962900000000000 H
   0.3669983333333333    0.0716900000000000    0.6457550000000000 H
   0.3404750000000000    0.7334100000000000    0.6983950000000000 H
   0.4725366666666666    0.8633000000000000    0.6812199999999999 H
   0.3842383333333333    0.7970900000000000    0.7543800000000001 H
   0.4144400000000000    0.6609200000000000    0.7733600000000000 H
   0.4513583333333333    0.5344700000000000    0.7843450000000001 H
   0.3478883333333333    0.6169600000000000    0.7448049999999999 H
   0.4776783333333333    0.5590000000000001    0.7244050000000000 H
   0.4574450000000000    0.6684700000000000    0.8225050000000000 H
   0.3500716666666667    0.6928400000000000    0.8564750000000000 H
   0.3547283333333333    0.7031800000000000    0.8036650000000001 H
   0.3830166666666667    0.5717500000000000    0.8542400000000000 H
   0.4238600000000000    0.2667800000000000    0.5515500000000000 H
   0.3891933333333333    0.1369400000000000    0.5687100000000000 H
   0.4675883333333333    0.2032600000000000    0.9955250000000000 H
   0.4978450000000000    0.3394100000000000    0.9765650000000000 H
   0.3681000000000000    0.4659100000000000    0.9657050000000000 H
   0.4313166666666666    0.3832500000000000    0.5051250000000000 H
   0.3945000000000000    0.4412000000000000    0.5256100000000000 H
   0.3741266666666667    0.3320900000000000    0.9274300000000000 H
   0.4333899999999999    0.3077200000000000    0.8934599999999999 H
   0.4380533333333333    0.2972200000000000    0.9462600000000000 H
   0.4663883333333333    0.4287700000000000    0.8957900000000000 H
   0.4928000000000000    0.7666800000000000    0.9483850000000000 H
   0.3608233333333333    0.6369300000000000    0.9312150000000000 H
   0.4490483333333333    0.7033199999999999    0.5044750000000000 H
   0.4187666666666666    0.8393900000000000    0.5234500000000000 H
   0.3818783333333333    0.9658000000000000    0.5342750000000001 H
   0.4853016666666666    0.8830500000000000    0.9949000000000000 H
   0.3554133333333333    0.9410900000000000    0.9743750000000000 H