Cd32 H444 C630 N126 O128
1.0
  26.9279986711564767    0.0000000000000000    0.0084596805584339
   0.0187777622189378   29.8979840440293749    0.0245254686182461
   0.0000000000000000    0.0000000000000000   29.9059999999999988
Cd H C N O
32 444 630 126 128
direct
   0.2500150000000000    0.8726950000000000    0.3725500000000000 Cd
   0.0000300000000000    0.1275000000000000    0.1274300000000000 Cd
   0.2500150000000000    0.3726950000000000    0.8725499999999999 Cd
   0.0000300000000000    0.6274999999999999    0.6274299999999999 Cd
   0.7500150000000000    0.8726950000000000    0.3725500000000000 Cd
   0.5000300000000000    0.1275000000000000    0.1274300000000000 Cd
   0.7500150000000000    0.3726950000000000    0.8725499999999999 Cd
   0.5000300000000000    0.6274999999999999    0.6274299999999999 Cd
   0.8750249999999999    0.8775150000000000    0.1225550000000000 Cd
   0.1250400000000000    0.1225500000000000    0.3775750000000000 Cd
   0.8750249999999999    0.3775150000000000    0.6225550000000000 Cd
   0.1250400000000000    0.6225500000000000    0.8775750000000000 Cd
   0.3750250000000000    0.3775150000000000    0.6225550000000000 Cd
   0.6250400000000000    0.6225500000000000    0.8775750000000000 Cd
   0.3750250000000000    0.8775150000000000    0.1225550000000000 Cd
   0.6250400000000000    0.1225500000000000    0.3775750000000000 Cd
   0.2500150000000000    0.8726950000000000    0.8725499999999999 Cd
   0.0000300000000000    0.1275000000000000    0.6274299999999999 Cd
   0.2500150000000000    0.3726950000000000    0.3725500000000000 Cd
   0.0000300000000000    0.6274999999999999    0.1274300000000000 Cd
   0.7500150000000000    0.8726950000000000    0.8725499999999999 Cd
   0.5000300000000000    0.1275000000000000    0.6274299999999999 Cd
   0.7500150000000000    0.3726950000000000    0.3725500000000000 Cd
   0.5000300000000000    0.6274999999999999    0.1274300000000000 Cd
   0.8750249999999999    0.8775150000000000    0.6225550000000000 Cd
   0.1250400000000000    0.1225500000000000    0.8775750000000000 Cd
   0.8750249999999999    0.3775150000000000    0.1225550000000000 Cd
   0.1250400000000000    0.6225500000000000    0.3775750000000000 Cd
   0.3750250000000000    0.8775150000000000    0.6225550000000000 Cd
   0.6250400000000000    0.1225500000000000    0.8775750000000000 Cd
   0.3750250000000000    0.3775150000000000    0.1225550000000000 Cd
   0.6250400000000000    0.6225500000000000    0.3775750000000000 Cd
   0.1713633780252777    0.8455442614738928    0.4233494139436796 H
   0.3544900000000000    0.8093049999999999    0.3617000000000000 H
   0.3695750000000000    0.7921800000000000    0.5000000000000000 H
   0.2848250000000000    0.8419200000000000    0.4836850000000000 H
   0.5205000000000000    0.7579850000000000    0.3557000000000000 H
   0.4470650000000000    0.8078350000000001    0.3696300000000000 H
   0.3986650000000000    0.7187350000000000    0.4742900000000000 H
   0.4725450000000000    0.6703450000000000    0.4604850000000000 H
   0.1457000000000000    0.8616900000000001    0.3090550000000000 H
   0.1302700000000000    0.0000000000000000    0.2919800000000000 H
   0.2149600000000000    0.9837750000000001    0.3417750000000000 H
   0.9796500000000000    0.8556800000000000    0.2578150000000000 H
   0.0530600000000000    0.8695550000000001    0.3076000000000000 H
   0.1013950000000000    0.9742450000000000    0.2185000000000000 H
   0.0275450000000000    0.9604500000000000    0.1701700000000000 H
   0.1044550000000000    0.1908600000000000    0.1383850000000000 H
   0.1197600000000000    0.2081400000000000    0.9980400000000000 H
   0.0350200000000000    0.1584350000000000    0.0163200000000000 H
   0.2704850000000000    0.2422400000000000    0.1444150000000000 H
   0.1970850000000000    0.1924200000000000    0.1305700000000000 H
   0.1486650000000000    0.2814750000000000    0.0258600000000000 H
   0.2224900000000000    0.3298400000000000    0.0396150000000000 H
   0.8956600000000000    0.1384000000000000    0.1908800000000000 H
   0.8805050000000000    0.9980100000000001    0.2080850000000000 H
   0.9651850000000000    0.0163350000000000    0.1582750000000000 H
   0.7295250000000000    0.1443300000000000    0.2422200000000000 H
   0.8030100000000000    0.1305100000000000    0.1924100000000000 H
   0.8515850000000000    0.0258950000000000    0.2815000000000000 H
   0.7776650000000001    0.0396100000000000    0.3298700000000000 H
   0.3544900000000000    0.3093050000000000    0.8617000000000000 H
   0.3695750000000000    0.2921800000000000    0.0000000000000000 H
   0.2848250000000000    0.3419200000000000    0.9836849999999999 H
   0.5205000000000000    0.2579850000000000    0.8557000000000000 H
   0.4470650000000000    0.3078350000000000    0.8696300000000000 H
   0.3986650000000000    0.2187350000000000    0.9742900000000000 H
   0.4725450000000000    0.1703450000000000    0.9604850000000000 H
   0.1457000000000000    0.3616900000000000    0.8090550000000001 H
   0.1302700000000000    0.5000000000000000    0.7919800000000000 H
   0.2149600000000000    0.4837750000000000    0.8417749999999999 H
   0.9796500000000000    0.3556800000000000    0.7578150000000000 H
   0.0530600000000000    0.3695550000000000    0.8076000000000000 H
   0.1013950000000000    0.4742450000000000    0.7185000000000000 H
   0.0275450000000000    0.4604500000000000    0.6701699999999999 H
   0.1044550000000000    0.6908600000000000    0.6383850000000000 H
   0.1197600000000000    0.7081400000000000    0.4980400000000000 H
   0.0350200000000000    0.6584350000000000    0.5163200000000000 H
   0.2704850000000000    0.7422400000000000    0.6444150000000000 H
   0.1970850000000000    0.6924200000000000    0.6305700000000000 H
   0.1486650000000000    0.7814749999999999    0.5258600000000000 H
   0.2224900000000000    0.8298400000000000    0.5396150000000000 H
   0.8956600000000000    0.6384000000000000    0.6908799999999999 H
   0.8805050000000000    0.4980100000000000    0.7080850000000000 H
   0.9651850000000000    0.5163350000000000    0.6582749999999999 H
   0.7295250000000000    0.6443300000000001    0.7422200000000000 H
   0.8030100000000000    0.6305100000000000    0.6924100000000000 H
   0.8515850000000000    0.5258950000000000    0.7815000000000000 H
   0.7776650000000001    0.5396100000000000    0.8298700000000000 H
   0.8544900000000000    0.8093049999999999    0.3617000000000000 H
   0.8695750000000000    0.7921800000000000    0.5000000000000000 H
   0.7848250000000000    0.8419200000000000    0.4836850000000000 H
   0.0205000000000000    0.7579850000000000    0.3557000000000000 H
   0.9470650000000000    0.8078350000000001    0.3696300000000000 H
   0.8986650000000000    0.7187350000000000    0.4742900000000000 H
   0.9725450000000000    0.6703450000000000    0.4604850000000000 H
   0.6456999999999999    0.8616900000000001    0.3090550000000000 H
   0.6302700000000000    0.0000000000000000    0.2919800000000000 H
   0.7149600000000000    0.9837750000000001    0.3417750000000000 H
   0.4796500000000000    0.8556800000000000    0.2578150000000000 H
   0.5530600000000000    0.8695550000000001    0.3076000000000000 H
   0.6013950000000000    0.9742450000000000    0.2185000000000000 H
   0.5275450000000000    0.9604500000000000    0.1701700000000000 H
   0.6044550000000000    0.1908600000000000    0.1383850000000000 H
   0.6197600000000000    0.2081400000000000    0.9980400000000000 H
   0.5350200000000001    0.1584350000000000    0.0163200000000000 H
   0.7704850000000000    0.2422400000000000    0.1444150000000000 H
   0.6970850000000000    0.1924200000000000    0.1305700000000000 H
   0.6486650000000000    0.2814750000000000    0.0258600000000000 H
   0.7224900000000000    0.3298400000000000    0.0396150000000000 H
   0.3956600000000000    0.1384000000000000    0.1908800000000000 H
   0.3805050000000000    0.9980100000000001    0.2080850000000000 H
   0.4651850000000000    0.0163350000000000    0.1582750000000000 H
   0.2295250000000000    0.1443300000000000    0.2422200000000000 H
   0.3030100000000000    0.1305100000000000    0.1924100000000000 H
   0.3515850000000000    0.0258950000000000    0.2815000000000000 H
   0.2776650000000000    0.0396100000000000    0.3298700000000000 H
   0.8544900000000000    0.3093050000000000    0.8617000000000000 H
   0.8695750000000000    0.2921800000000000    0.0000000000000000 H
   0.7848250000000000    0.3419200000000000    0.9836849999999999 H
   0.0205000000000000    0.2579850000000000    0.8557000000000000 H
   0.9470650000000000    0.3078350000000000    0.8696300000000000 H
   0.8986650000000000    0.2187350000000000    0.9742900000000000 H
   0.9725450000000000    0.1703450000000000    0.9604850000000000 H
   0.6456999999999999    0.3616900000000000    0.8090550000000001 H
   0.6302700000000000    0.5000000000000000    0.7919800000000000 H
   0.7149600000000000    0.4837750000000000    0.8417749999999999 H
   0.4796500000000000    0.3556800000000000    0.7578150000000000 H
   0.5530600000000000    0.3695550000000000    0.8076000000000000 H
   0.6013950000000000    0.4742450000000000    0.7185000000000000 H
   0.5275450000000000    0.4604500000000000    0.6701699999999999 H
   0.6044550000000000    0.6908600000000000    0.6383850000000000 H
   0.6197600000000000    0.7081400000000000    0.4980400000000000 H
   0.5350200000000001    0.6584350000000000    0.5163200000000000 H
   0.7704850000000000    0.7422400000000000    0.6444150000000000 H
   0.6970850000000000    0.6924200000000000    0.6305700000000000 H
   0.6486650000000000    0.7814749999999999    0.5258600000000000 H
   0.7224900000000000    0.8298400000000000    0.5396150000000000 H
   0.3956600000000000    0.6384000000000000    0.6908799999999999 H
   0.3805050000000000    0.4980100000000000    0.7080850000000000 H
   0.4651850000000000    0.5163350000000000    0.6582749999999999 H
   0.2295250000000000    0.6443300000000001    0.7422200000000000 H
   0.3030100000000000    0.6305100000000000    0.6924100000000000 H
   0.3515850000000000    0.5258950000000000    0.7815000000000000 H
   0.2776650000000000    0.5396100000000000    0.8298700000000000 H
   0.7707250000000000    0.9409850000000000    0.1117500000000000 H
   0.7557900000000000    0.9582800000000000    0.2521100000000000 H
   0.8404400000000001    0.9084099999999999    0.2337000000000000 H
   0.6047950000000000    0.9922200000000000    0.1057100000000000 H
   0.6783399999999999    0.9425049999999999    0.1196550000000000 H
   0.7264950000000000    0.0316150000000000    0.2242150000000000 H
   0.6525250000000000    0.0798900000000000    0.2103500000000000 H
   0.9794900000000000    0.8883900000000000    0.0592500000000000 H
   0.9945600000000000    0.7479899999999999    0.0421250000000000 H
   0.9097850000000001    0.7664050000000000    0.0917900000000000 H
   0.1455250000000000    0.8942700000000000    0.0000000000000000 H
   0.0720600000000000    0.8803750000000000    0.0578100000000000 H
   0.0236300000000000    0.7758849999999999    0.9687000000000000 H
   0.0975350000000000    0.7896799999999999    0.9203749999999999 H
   0.2294300000000000    0.1117000000000000    0.4411000000000000 H
   0.2443850000000000    0.2521150000000000    0.4580000000000000 H
   0.1597800000000000    0.2336850000000000    0.4082400000000000 H
   0.3954550000000000    0.1057700000000000    0.4922450000000000 H
   0.3219600000000000    0.1196600000000000    0.4424950000000000 H
   0.2734850000000000    0.2242450000000000    0.5315500000000000 H
   0.3474000000000000    0.2104300000000000    0.5798500000000000 H
   0.0205750000000000    0.0591050000000000    0.3884300000000000 H
   0.0057000000000000    0.0420900000000000    0.2480450000000000 H
   0.0903750000000000    0.0917800000000000    0.2665150000000000 H
   0.8546400000000001    0.0000000000000000    0.3943500000000000 H
   0.9280999999999999    0.0576650000000000    0.3804900000000000 H
   0.9026550000000000    0.9203749999999999    0.2896250000000000 H
   0.9765400000000000    0.9686900000000001    0.2755000000000000 H
   0.7707250000000000    0.4409850000000000    0.6117500000000000 H
   0.7557900000000000    0.4582800000000000    0.7521100000000001 H
   0.8404400000000001    0.4084100000000000    0.7337000000000000 H
   0.6047950000000000    0.4922200000000000    0.6057100000000000 H
   0.6783399999999999    0.4425050000000000    0.6196550000000000 H
   0.7264950000000000    0.5316149999999999    0.7242150000000001 H
   0.6525250000000000    0.5798900000000000    0.7103500000000000 H
   0.9794900000000000    0.3883900000000000    0.5592500000000000 H
   0.9945600000000000    0.2479900000000000    0.5421250000000000 H
   0.9097850000000001    0.2664050000000000    0.5917900000000000 H
   0.1455250000000000    0.3942700000000000    0.5000000000000000 H
   0.0720600000000000    0.3803750000000000    0.5578100000000000 H
   0.0236300000000000    0.2758850000000000    0.4687000000000000 H
   0.0975350000000000    0.2896800000000000    0.4203750000000000 H
   0.2294300000000000    0.6117000000000000    0.9411000000000000 H
   0.2443850000000000    0.7521150000000000    0.9580000000000000 H
   0.1597800000000000    0.7336850000000000    0.9082399999999999 H
   0.3954550000000000    0.6057700000000000    0.9922450000000000 H
   0.3219600000000000    0.6196600000000000    0.9424950000000001 H
   0.2734850000000000    0.7242450000000000    0.0315500000000000 H
   0.3474000000000000    0.7104300000000000    0.0798500000000000 H
   0.0205750000000000    0.5591050000000000    0.8884300000000001 H
   0.0057000000000000    0.5420900000000000    0.7480450000000000 H
   0.0903750000000000    0.5917800000000000    0.7665150000000001 H
   0.8546400000000001    0.5000000000000000    0.8943500000000000 H
   0.9280999999999999    0.5576650000000000    0.8804900000000000 H
   0.9026550000000000    0.4203750000000000    0.7896250000000000 H
   0.9765400000000000    0.4686900000000000    0.7755000000000001 H
   0.2707250000000000    0.4409850000000000    0.6117500000000000 H
   0.2557900000000000    0.4582800000000000    0.7521100000000001 H
   0.3404400000000000    0.4084100000000000    0.7337000000000000 H
   0.1047950000000000    0.4922200000000000    0.6057100000000000 H
   0.1783400000000000    0.4425050000000000    0.6196550000000000 H
   0.2264950000000000    0.5316149999999999    0.7242150000000001 H
   0.1525250000000000    0.5798900000000000    0.7103500000000000 H
   0.4794900000000000    0.3883900000000000    0.5592500000000000 H
   0.4945600000000000    0.2479900000000000    0.5421250000000000 H
   0.4097850000000000    0.2664050000000000    0.5917900000000000 H
   0.6455250000000000    0.3942700000000000    0.5000000000000000 H
   0.5720600000000000    0.3803750000000000    0.5578100000000000 H
   0.5236300000000000    0.2758850000000000    0.4687000000000000 H
   0.5975350000000000    0.2896800000000000    0.4203750000000000 H
   0.7294300000000000    0.6117000000000000    0.9411000000000000 H
   0.7443850000000000    0.7521150000000000    0.9580000000000000 H
   0.6597800000000000    0.7336850000000000    0.9082399999999999 H
   0.8954550000000000    0.6057700000000000    0.9922450000000000 H
   0.8219600000000000    0.6196600000000000    0.9424950000000001 H
   0.7734850000000000    0.7242450000000000    0.0315500000000000 H
   0.8473999999999999    0.7104300000000000    0.0798500000000000 H
   0.5205750000000000    0.5591050000000000    0.8884300000000001 H
   0.5057000000000000    0.5420900000000000    0.7480450000000000 H
   0.5903750000000000    0.5917800000000000    0.7665150000000001 H
   0.3546400000000000    0.5000000000000000    0.8943500000000000 H
   0.4281000000000000    0.5576650000000000    0.8804900000000000 H
   0.4026550000000000    0.4203750000000000    0.7896250000000000 H
   0.4765400000000000    0.4686900000000000    0.7755000000000001 H
   0.2707250000000000    0.9409850000000000    0.1117500000000000 H
   0.2557900000000000    0.9582800000000000    0.2521100000000000 H
   0.3404400000000000    0.9084099999999999    0.2337000000000000 H
   0.1047950000000000    0.9922200000000000    0.1057100000000000 H
   0.1783400000000000    0.9425049999999999    0.1196550000000000 H
   0.2264950000000000    0.0316150000000000    0.2242150000000000 H
   0.1525250000000000    0.0798900000000000    0.2103500000000000 H
   0.4794900000000000    0.8883900000000000    0.0592500000000000 H
   0.4945600000000000    0.7479899999999999    0.0421250000000000 H
   0.4097850000000000    0.7664050000000000    0.0917900000000000 H
   0.6455250000000000    0.8942700000000000    0.0000000000000000 H
   0.5720600000000000    0.8803750000000000    0.0578100000000000 H
   0.5236300000000000    0.7758849999999999    0.9687000000000000 H
   0.5975350000000000    0.7896799999999999    0.9203749999999999 H
   0.7294300000000000    0.1117000000000000    0.4411000000000000 H
   0.7443850000000000    0.2521150000000000    0.4580000000000000 H
   0.6597800000000000    0.2336850000000000    0.4082400000000000 H
   0.8954550000000000    0.1057700000000000    0.4922450000000000 H
   0.8219600000000000    0.1196600000000000    0.4424950000000000 H
   0.7734850000000000    0.2242450000000000    0.5315500000000000 H
   0.8473999999999999    0.2104300000000000    0.5798500000000000 H
   0.5205750000000000    0.0591050000000000    0.3884300000000000 H
   0.5057000000000000    0.0420900000000000    0.2480450000000000 H
   0.5903750000000000    0.0917800000000000    0.2665150000000000 H
   0.3546400000000000    0.0000000000000000    0.3943500000000000 H
   0.4281000000000000    0.0576650000000000    0.3804900000000000 H
   0.4026550000000000    0.9203749999999999    0.2896250000000000 H
   0.4765400000000000    0.9686900000000001    0.2755000000000000 H
   0.3544900000000000    0.8093049999999999    0.8617000000000000 H
   0.3695750000000000    0.7921800000000000    0.0000000000000000 H
   0.2848250000000000    0.8419200000000000    0.9836849999999999 H
   0.5205000000000000    0.7579850000000000    0.8557000000000000 H
   0.4470650000000000    0.8078350000000001    0.8696300000000000 H
   0.3986650000000000    0.7187350000000000    0.9742900000000000 H
   0.4725450000000000    0.6703450000000000    0.9604850000000000 H
   0.1457000000000000    0.8616900000000001    0.8090550000000001 H
   0.1302700000000000    0.0000000000000000    0.7919800000000000 H
   0.2149600000000000    0.9837750000000001    0.8417749999999999 H
   0.9796500000000000    0.8556800000000000    0.7578150000000000 H
   0.0530600000000000    0.8695550000000001    0.8076000000000000 H
   0.1013950000000000    0.9742450000000000    0.7185000000000000 H
   0.0275450000000000    0.9604500000000000    0.6701699999999999 H
   0.1044550000000000    0.1908600000000000    0.6383850000000000 H
   0.1197600000000000    0.2081400000000000    0.4980400000000000 H
   0.0350200000000000    0.1584350000000000    0.5163200000000000 H
   0.2704850000000000    0.2422400000000000    0.6444150000000000 H
   0.1970850000000000    0.1924200000000000    0.6305700000000000 H
   0.1486650000000000    0.2814750000000000    0.5258600000000000 H
   0.2224900000000000    0.3298400000000000    0.5396150000000000 H
   0.8956600000000000    0.1384000000000000    0.6908799999999999 H
   0.8805050000000000    0.9980100000000001    0.7080850000000000 H
   0.9651850000000000    0.0163350000000000    0.6582749999999999 H
   0.7295250000000000    0.1443300000000000    0.7422200000000000 H
   0.8030100000000000    0.1305100000000000    0.6924100000000000 H
   0.8515850000000000    0.0258950000000000    0.7815000000000000 H
   0.7776650000000001    0.0396100000000000    0.8298700000000000 H
   0.3544900000000000    0.3093050000000000    0.3617000000000000 H
   0.3695750000000000    0.2921800000000000    0.5000000000000000 H
   0.2848250000000000    0.3419200000000000    0.4836850000000000 H
   0.5205000000000000    0.2579850000000000    0.3557000000000000 H
   0.4470650000000000    0.3078350000000000    0.3696300000000000 H
   0.3986650000000000    0.2187350000000000    0.4742900000000000 H
   0.4725450000000000    0.1703450000000000    0.4604850000000000 H
   0.1457000000000000    0.3616900000000000    0.3090550000000000 H
   0.1302700000000000    0.5000000000000000    0.2919800000000000 H
   0.2149600000000000    0.4837750000000000    0.3417750000000000 H
   0.9796500000000000    0.3556800000000000    0.2578150000000000 H
   0.0530600000000000    0.3695550000000000    0.3076000000000000 H
   0.1013950000000000    0.4742450000000000    0.2185000000000000 H
   0.0275450000000000    0.4604500000000000    0.1701700000000000 H
   0.1044550000000000    0.6908600000000000    0.1383850000000000 H
   0.1197600000000000    0.7081400000000000    0.9980400000000000 H
   0.0350200000000000    0.6584350000000000    0.0163200000000000 H
   0.2704850000000000    0.7422400000000000    0.1444150000000000 H
   0.1970850000000000    0.6924200000000000    0.1305700000000000 H
   0.1486650000000000    0.7814749999999999    0.0258600000000000 H
   0.2224900000000000    0.8298400000000000    0.0396150000000000 H
   0.8956600000000000    0.6384000000000000    0.1908800000000000 H
   0.8805050000000000    0.4980100000000000    0.2080850000000000 H
   0.9651850000000000    0.5163350000000000    0.1582750000000000 H
   0.7295250000000000    0.6443300000000001    0.2422200000000000 H
   0.8030100000000000    0.6305100000000000    0.1924100000000000 H
   0.8515850000000000    0.5258950000000000    0.2815000000000000 H
   0.7776650000000001    0.5396100000000000    0.3298700000000000 H
   0.8544900000000000    0.8093049999999999    0.8617000000000000 H
   0.8695750000000000    0.7921800000000000    0.0000000000000000 H
   0.7848250000000000    0.8419200000000000    0.9836849999999999 H
   0.0205000000000000    0.7579850000000000    0.8557000000000000 H
   0.9470650000000000    0.8078350000000001    0.8696300000000000 H
   0.8986650000000000    0.7187350000000000    0.9742900000000000 H
   0.9725450000000000    0.6703450000000000    0.9604850000000000 H
   0.6456999999999999    0.8616900000000001    0.8090550000000001 H
   0.6302700000000000    0.0000000000000000    0.7919800000000000 H
   0.7149600000000000    0.9837750000000001    0.8417749999999999 H
   0.4796500000000000    0.8556800000000000    0.7578150000000000 H
   0.5530600000000000    0.8695550000000001    0.8076000000000000 H
   0.6013950000000000    0.9742450000000000    0.7185000000000000 H
   0.5275450000000000    0.9604500000000000    0.6701699999999999 H
   0.6044550000000000    0.1908600000000000    0.6383850000000000 H
   0.6197600000000000    0.2081400000000000    0.4980400000000000 H
   0.5350200000000001    0.1584350000000000    0.5163200000000000 H
   0.7704850000000000    0.2422400000000000    0.6444150000000000 H
   0.6970850000000000    0.1924200000000000    0.6305700000000000 H
   0.6486650000000000    0.2814750000000000    0.5258600000000000 H
   0.7224900000000000    0.3298400000000000    0.5396150000000000 H
   0.3956600000000000    0.1384000000000000    0.6908799999999999 H
   0.3805050000000000    0.9980100000000001    0.7080850000000000 H
   0.4651850000000000    0.0163350000000000    0.6582749999999999 H
   0.2295250000000000    0.1443300000000000    0.7422200000000000 H
   0.3030100000000000    0.1305100000000000    0.6924100000000000 H
   0.3515850000000000    0.0258950000000000    0.7815000000000000 H
   0.2776650000000000    0.0396100000000000    0.8298700000000000 H
   0.8544900000000000    0.3093050000000000    0.3617000000000000 H
   0.8695750000000000    0.2921800000000000    0.5000000000000000 H
   0.7848250000000000    0.3419200000000000    0.4836850000000000 H
   0.0205000000000000    0.2579850000000000    0.3557000000000000 H
   0.9470650000000000    0.3078350000000000    0.3696300000000000 H
   0.8986650000000000    0.2187350000000000    0.4742900000000000 H
   0.9725450000000000    0.1703450000000000    0.4604850000000000 H
   0.6456999999999999    0.3616900000000000    0.3090550000000000 H
   0.6302700000000000    0.5000000000000000    0.2919800000000000 H
   0.7149600000000000    0.4837750000000000    0.3417750000000000 H
   0.4796500000000000    0.3556800000000000    0.2578150000000000 H
   0.5530600000000000    0.3695550000000000    0.3076000000000000 H
   0.6013950000000000    0.4742450000000000    0.2185000000000000 H
   0.5275450000000000    0.4604500000000000    0.1701700000000000 H
   0.6044550000000000    0.6908600000000000    0.1383850000000000 H
   0.6197600000000000    0.7081400000000000    0.9980400000000000 H
   0.5350200000000001    0.6584350000000000    0.0163200000000000 H
   0.7704850000000000    0.7422400000000000    0.1444150000000000 H
   0.6970850000000000    0.6924200000000000    0.1305700000000000 H
   0.6486650000000000    0.7814749999999999    0.0258600000000000 H
   0.7224900000000000    0.8298400000000000    0.0396150000000000 H
   0.3956600000000000    0.6384000000000000    0.1908800000000000 H
   0.3805050000000000    0.4980100000000000    0.2080850000000000 H
   0.4651850000000000    0.5163350000000000    0.1582750000000000 H
   0.2295250000000000    0.6443300000000001    0.2422200000000000 H
   0.3030100000000000    0.6305100000000000    0.1924100000000000 H
   0.3515850000000000    0.5258950000000000    0.2815000000000000 H
   0.2776650000000000    0.5396100000000000    0.3298700000000000 H
   0.7707250000000000    0.9409850000000000    0.6117500000000000 H
   0.7557900000000000    0.9582800000000000    0.7521100000000001 H
   0.8404400000000001    0.9084099999999999    0.7337000000000000 H
   0.6047950000000000    0.9922200000000000    0.6057100000000000 H
   0.6783399999999999    0.9425049999999999    0.6196550000000000 H
   0.7264950000000000    0.0316150000000000    0.7242150000000001 H
   0.6525250000000000    0.0798900000000000    0.7103500000000000 H
   0.9614400870433409    0.8482411827467202    0.5672332306022891 H
   0.9354829183971540    0.8025562420386294    0.5786829327586479 H
   0.2294300000000000    0.1117000000000000    0.9411000000000000 H
   0.2443850000000000    0.2521150000000000    0.9580000000000000 H
   0.1597800000000000    0.2336850000000000    0.9082399999999999 H
   0.3954550000000000    0.1057700000000000    0.9922450000000000 H
   0.3219600000000000    0.1196600000000000    0.9424950000000001 H
   0.2734850000000000    0.2242450000000000    0.0315500000000000 H
   0.3474000000000000    0.2104300000000000    0.0798500000000000 H
   0.0205750000000000    0.0591050000000000    0.8884300000000001 H
   0.0057000000000000    0.0420900000000000    0.7480450000000000 H
   0.0903750000000000    0.0917800000000000    0.7665150000000001 H
   0.8546400000000001    0.0000000000000000    0.8943500000000000 H
   0.9280999999999999    0.0576650000000000    0.8804900000000000 H
   0.9026550000000000    0.9203749999999999    0.7896250000000000 H
   0.9765400000000000    0.9686900000000001    0.7755000000000001 H
   0.7707250000000000    0.4409850000000000    0.1117500000000000 H
   0.7557900000000000    0.4582800000000000    0.2521100000000000 H
   0.8404400000000001    0.4084100000000000    0.2337000000000000 H
   0.6047950000000000    0.4922200000000000    0.1057100000000000 H
   0.6783399999999999    0.4425050000000000    0.1196550000000000 H
   0.7264950000000000    0.5316149999999999    0.2242150000000000 H
   0.6525250000000000    0.5798900000000000    0.2103500000000000 H
   0.9794900000000000    0.3883900000000000    0.0592500000000000 H
   0.9945600000000000    0.2479900000000000    0.0421250000000000 H
   0.9097850000000001    0.2664050000000000    0.0917900000000000 H
   0.1455250000000000    0.3942700000000000    0.0000000000000000 H
   0.0720600000000000    0.3803750000000000    0.0578100000000000 H
   0.0236300000000000    0.2758850000000000    0.9687000000000000 H
   0.0975350000000000    0.2896800000000000    0.9203749999999999 H
   0.2294300000000000    0.6117000000000000    0.4411000000000000 H
   0.2443850000000000    0.7521150000000000    0.4580000000000000 H
   0.1597800000000000    0.7336850000000000    0.4082400000000000 H
   0.3954550000000000    0.6057700000000000    0.4922450000000000 H
   0.3219600000000000    0.6196600000000000    0.4424950000000000 H
   0.2734850000000000    0.7242450000000000    0.5315500000000000 H
   0.3474000000000000    0.7104300000000000    0.5798500000000000 H
   0.0205750000000000    0.5591050000000000    0.3884300000000000 H
   0.0057000000000000    0.5420900000000000    0.2480450000000000 H
   0.0903750000000000    0.5917800000000000    0.2665150000000000 H
   0.8546400000000001    0.5000000000000000    0.3943500000000000 H
   0.9280999999999999    0.5576650000000000    0.3804900000000000 H
   0.9026550000000000    0.4203750000000000    0.2896250000000000 H
   0.9765400000000000    0.4686900000000000    0.2755000000000000 H
   0.2707250000000000    0.9409850000000000    0.6117500000000000 H
   0.2557900000000000    0.9582800000000000    0.7521100000000001 H
   0.3404400000000000    0.9084099999999999    0.7337000000000000 H
   0.1047950000000000    0.9922200000000000    0.6057100000000000 H
   0.1783400000000000    0.9425049999999999    0.6196550000000000 H
   0.2264950000000000    0.0316150000000000    0.7242150000000001 H
   0.1525250000000000    0.0798900000000000    0.7103500000000000 H
   0.4794900000000000    0.8883900000000000    0.5592500000000000 H
   0.4945600000000000    0.7479899999999999    0.5421250000000000 H
   0.4097850000000000    0.7664050000000000    0.5917900000000000 H
   0.6455250000000000    0.8942700000000000    0.5000000000000000 H
   0.5720600000000000    0.8803750000000000    0.5578100000000000 H
   0.5236300000000000    0.7758849999999999    0.4687000000000000 H
   0.5975350000000000    0.7896799999999999    0.4203750000000000 H
   0.7294300000000000    0.1117000000000000    0.9411000000000000 H
   0.7443850000000000    0.2521150000000000    0.9580000000000000 H