H2 O2
1.0
  35.1099999946524406    0.0000000000000000    0.0006127851003447
  -1.5930108638768703   35.0538217087319950    0.0000000000000021
   0.0000000000000000    0.0000000000000000   31.8260000000000005
H O
2 2
direct
   0.0805878968343430    0.6693080051634482    0.4814840351488058 H
   0.0439699523565337    0.7061010211891181    0.4975205592193572 H
   0.0705850000000000    0.6793549999999999    0.4552200000000000 O
   0.0443650000000000    0.7056950000000000    0.4667800000000000 O
