H1 O1
1.0
  18.2699867516615022    0.0000000000000000   -0.0220021388311903
   0.0150454183321506   20.9569552714949765    0.0406002949020030
   0.0000000000000000    0.0000000000000000   18.5899999999999999
H O
1 1
direct
   0.7033781589254741    0.4829514777805116    0.4930805530558111 H
   0.7502100000000000    0.4633900000000000    0.4802300000000000 O
