H4 C6 N1 O2
1.0
  18.2699867516615022    0.0000000000000000   -0.0220021388311903
   0.0150454183321506   20.9569552714949765    0.0406002949020030
   0.0000000000000000    0.0000000000000000   18.5899999999999999
H C N O
4 6 1 2
direct
   0.9891700000000000    0.3394900000000000    0.7075700000000000 H
   0.9250600000000000    0.2613600000000000    0.7878100000000000 H
   0.7997900000000000    0.4045900000000000    0.8801600000000001 H
   0.8580200000000000    0.4882600000000000    0.8010800000000000 H
   0.9640100000000000    0.4684400000000000    0.7000000000000000 C
   0.9474000000000000    0.3554300000000000    0.7451300000000000 C
   0.9282400000000000    0.4199300000000000    0.7486200000000000 C
   0.9120000000000000    0.3121100000000000    0.7894500000000000 C
   0.8414199999999999    0.3923900000000000    0.8405899999999999 C
   0.8739100000000000    0.4383200000000000    0.7972200000000000 C
   0.8600700000000000    0.3301800000000000    0.8368200000000000 N
   0.0213700000000000    0.4472500000000000    0.6657600000000000 O
   0.9378300000000001    0.5229200000000001    0.6938600000000000 O
