H12 C14 O8
1.0
  15.6139999976218515    0.0000000000000000   -0.0002725157093944
  -0.0018038285489767   17.2279922540576109    0.0162370050670218
   0.0000000000000000    0.0000000000000000   36.8100000000000023
H C O
12 14 8
direct
   0.4644500000000000    0.8016900000000000    0.6795700000000000 H
   0.5390800000000000    0.7245700000000000    0.6786950000000000 H
   0.6012800000000000    0.9436099999999999    0.6276550000000000 H
   0.5016699999999999    0.9321300000000000    0.6495200000000000 H
   0.7389600000000000    0.9514600000000000    0.6650550000000000 H
   0.7332500000000000    0.9449700000000000    0.7129750000000000 H
   0.6760400000000000    0.7323300000000000    0.7157150000000000 H
   0.6969400000000000    0.8155900000000000    0.7430600000000001 H
   0.5911100000000000    0.9275600000000001    0.7445750000000000 H
   0.4948700000000000    0.9224900000000000    0.7194850000000000 H
   0.7081700000000000    0.8320200000000000    0.6257750000000000 H
   0.6834300000000000    0.7419300000000000    0.6470300000000000 H
   0.5313099999999999    0.7766200000000000    0.7486050000000000 C
   0.5721800000000000    0.8176099999999999    0.7163450000000000 C
   0.5332400000000000    0.7878900000000000    0.6803900000000001 C
   0.5788800000000000    0.8268000000000000    0.6481100000000000 C
   0.5696900000000000    0.9157999999999999    0.6508600000000000 C
   0.6089100000000000    0.9450499999999999    0.6865150000000000 C
   0.7049100000000000    0.9232100000000000    0.6876750000000000 C
   0.7151300000000000    0.8346700000000000    0.6849650000000000 C
   0.6684600000000001    0.7956400000000000    0.7173450000000000 C
   0.5630900000000000    0.9064600000000000    0.7190850000000000 C
   0.6752899999999999    0.8051300000000000    0.6490450000000000 C
   0.5403500000000000    0.7996799999999999    0.6120850000000000 C
   0.6016200000000000    0.0336100000000000    0.6897150000000000 C
   0.8086300000000000    0.8092400000000000    0.6878800000000000 C
   0.5187600000000000    0.8134400000000001    0.7779750000000001 O
   0.5149800000000000    0.7034100000000000    0.7454250000000000 O
   0.4958400000000000    0.7384200000000000    0.6110350000000000 O
   0.5556700000000000    0.8436200000000000    0.5843050000000000 O
   0.5658500000000000    0.0698400000000000    0.6624000000000000 O
   0.6291700000000000    0.0688800000000000    0.7169650000000000 O
   0.8633600000000000    0.8602100000000000    0.6984200000000000 O
   0.8256100000000000    0.7387400000000000    0.6811450000000000 O
