Zn32 H180 C210 O120
1.0
  15.6139999976218515    0.0000000000000000   -0.0002725157093944
  -0.0018038285489767   17.2279922540576109    0.0162370050670218
   0.0000000000000000    0.0000000000000000   36.8100000000000023
Zn H C O
32 180 210 120
direct
   0.4811300000000000    0.6702000000000000    0.2936200000000000 Zn
   0.0663600000000000    0.1765100000000000    0.0705000000000000 Zn
   0.0188400000000000    0.3297800000000000    0.0435750000000000 Zn
   0.5663700000000000    0.3234900000000000    0.4294650000000000 Zn
   0.5188500000000000    0.1702100000000000    0.4564100000000000 Zn
   0.9336300000000000    0.6764600000000000    0.1794950000000000 Zn
   0.9811299999999999    0.8297800000000000    0.2063700000000000 Zn
   0.5663300000000000    0.1764800000000000    0.1794850000000000 Zn
   0.5188400000000000    0.3297900000000000    0.2063650000000000 Zn
   0.9336100000000001    0.8234800000000000    0.4294700000000000 Zn
   0.9811299999999999    0.6702000000000000    0.4564100000000000 Zn
   0.4336100000000000    0.6765000000000000    0.0705200000000000 Zn
   0.4811300000000000    0.8297700000000000    0.0435800000000000 Zn
   0.0663500000000000    0.3235200000000000    0.3204900000000000 Zn
   0.0188500000000000    0.1702000000000000    0.2936150000000000 Zn
   0.4336400000000000    0.8235100000000000    0.3205000000000000 Zn
   0.4811300000000000    0.6702000000000000    0.7936200000000000 Zn
   0.0663600000000000    0.1765100000000000    0.5705000000000000 Zn
   0.0188400000000000    0.3297800000000000    0.5435750000000000 Zn
   0.5663700000000000    0.3234900000000000    0.9294650000000000 Zn
   0.5188500000000000    0.1702100000000000    0.9564100000000000 Zn
   0.9336300000000000    0.6764600000000000    0.6794950000000000 Zn
   0.9811299999999999    0.8297800000000000    0.7063699999999999 Zn
   0.5663300000000000    0.1764800000000000    0.6794850000000000 Zn
   0.5188400000000000    0.3297900000000000    0.7063650000000000 Zn
   0.9336100000000001    0.8234800000000000    0.9294700000000000 Zn
   0.9811299999999999    0.6702000000000000    0.9564100000000000 Zn
   0.4336100000000000    0.6765000000000000    0.5705200000000000 Zn
   0.4811300000000000    0.8297700000000000    0.5435800000000000 Zn
   0.0663500000000000    0.3235200000000000    0.8204899999999999 Zn
   0.0188500000000000    0.1702000000000000    0.7936150000000000 Zn
   0.4336400000000000    0.8235100000000000    0.8205000000000000 Zn
   0.4644500000000000    0.8016900000000000    0.1795700000000000 H
   0.5390800000000000    0.7245700000000000    0.1786950000000000 H
   0.6012800000000000    0.9436099999999999    0.1276550000000000 H
   0.5016699999999999    0.9321300000000000    0.1495200000000000 H
   0.7389600000000000    0.9514600000000000    0.1650550000000000 H
   0.7332500000000000    0.9449700000000000    0.2129750000000000 H
   0.6760400000000000    0.7323300000000000    0.2157150000000000 H
   0.6969400000000000    0.8155900000000000    0.2430600000000000 H
   0.5911100000000000    0.9275600000000001    0.2445750000000000 H
   0.4948700000000000    0.9224900000000000    0.2194850000000000 H
   0.7081700000000000    0.8320200000000000    0.1257750000000000 H
   0.6834300000000000    0.7419300000000000    0.1470300000000000 H
   0.0355400000000000    0.1982900000000000    0.4296650000000000 H
   0.9608600000000000    0.2753800000000000    0.4287100000000000 H
   0.8990500000000000    0.0563100000000000    0.3778250000000000 H
   0.9985000000000001    0.0679300000000000    0.3997900000000000 H
   0.7610700000000000    0.0484400000000000    0.4151800000000000 H
   0.7667000000000000    0.0549000000000000    0.4630900000000000 H
   0.8238500000000000    0.2675800000000000    0.4656500000000000 H
   0.8029200000000000    0.1843200000000000    0.4930900000000000 H
   0.9086100000000000    0.0723800000000000    0.4947450000000000 H
   0.0000000000000000    0.0773800000000000    0.4697450000000000 H
   0.7919200000000000    0.1678500000000000    0.3758150000000000 H
   0.8165800000000000    0.2579700000000000    0.3969900000000000 H
   0.5354800000000000    0.3016500000000000    0.0703300000000000 H
   0.4607500000000000    0.2245900000000000    0.0712650000000000 H
   0.3989400000000000    0.4436500000000000    0.1221500000000000 H
   0.4984400000000000    0.4320600000000000    0.1002250000000000 H
   0.2610400000000000    0.4515900000000000    0.0847250000000000 H
   0.2668000000000000    0.4450600000000000    0.0368200000000000 H
   0.3238200000000000    0.2324300000000000    0.0342600000000000 H
   0.3029600000000000    0.3157200000000000    0.0068500000000000 H
   0.4087600000000000    0.4276300000000000    0.0052300000000000 H
   0.5050800000000000    0.4225800000000000    0.0302750000000000 H
   0.2918200000000000    0.3321500000000000    0.1241250000000000 H
   0.3164700000000000    0.2420300000000000    0.1029500000000000 H
   0.9644800000000000    0.6984200000000000    0.3204100000000000 H
   0.0392300000000000    0.7754600000000000    0.3212500000000000 H
   0.1011000000000000    0.5563700000000000    0.3723400000000000 H
   0.0015500000000000    0.5679300000000000    0.3504300000000000 H
   0.2388600000000000    0.5485000000000000    0.3349700000000000 H
   0.2332300000000000    0.5549600000000000    0.2870500000000000 H
   0.1761400000000000    0.7676400000000000    0.2842900000000000 H
   0.1970000000000000    0.6843700000000000    0.2569450000000000 H
   0.0911200000000000    0.5724500000000000    0.2554150000000000 H
   0.9948600000000000    0.5775400000000001    0.2804900000000000 H
   0.2081500000000000    0.6678700000000000    0.3742300000000000 H
   0.1835000000000000    0.7580100000000000    0.3529950000000000 H
   0.5355300000000000    0.1983000000000000    0.3204150000000000 H
   0.4608900000000000    0.2754200000000000    0.3212900000000000 H
   0.3987000000000000    0.0563800000000000    0.3723350000000000 H
   0.4983100000000000    0.0678600000000000    0.3504650000000000 H
   0.2610200000000000    0.0485300000000000    0.3349300000000000 H
   0.2667200000000000    0.0550200000000000    0.2870000000000000 H
   0.3239300000000000    0.2676600000000000    0.2842700000000000 H
   0.3030400000000000    0.1844000000000000    0.2569250000000000 H
   0.4088600000000000    0.0724300000000000    0.2554150000000000 H
   0.5051000000000000    0.0775000000000000    0.2805050000000000 H
   0.2918000000000000    0.1679700000000000    0.3742100000000000 H
   0.3165400000000000    0.2580600000000000    0.3529550000000000 H
   0.9644400000000000    0.8017000000000000    0.0703200000000000 H
   0.0391200000000000    0.7246100000000000    0.0712750000000000 H
   0.1009200000000000    0.9436800000000000    0.1221600000000000 H
   0.0014700000000000    0.9320500000000000    0.1001950000000000 H
   0.2389000000000000    0.9515500000000000    0.0848100000000000 H
   0.2332800000000000    0.9450800000000000    0.0368950000000000 H
   0.1761200000000000    0.7324100000000000    0.0343150000000000 H
   0.1970500000000000    0.8156700000000000    0.0068950000000000 H
   0.0913600000000000    0.9276100000000000    0.0052450000000000 H
   0.9949800000000000    0.9226100000000000    0.0302000000000000 H
   0.2080600000000000    0.8321400000000000    0.1241700000000000 H
   0.1834000000000000    0.7420200000000000    0.1029950000000000 H
   0.4644900000000000    0.6983300000000000    0.4296550000000000 H
   0.5392200000000000    0.7754000000000000    0.4287200000000000 H
   0.6010400000000000    0.5563399999999999    0.3778400000000000 H
   0.5015400000000000    0.5679300000000000    0.3997600000000000 H
   0.7389400000000000    0.5484000000000000    0.4152600000000000 H
   0.7331800000000001    0.5549300000000000    0.4631700000000000 H
   0.6761600000000000    0.7675600000000000    0.4657250000000000 H
   0.6970100000000000    0.6842800000000000    0.4931350000000000 H
   0.5912200000000000    0.5723600000000000    0.4947550000000000 H
   0.4949000000000000    0.5774000000000000    0.4697150000000000 H
   0.7081600000000000    0.6678500000000001    0.3758600000000000 H
   0.6835100000000000    0.7579600000000000    0.3970350000000000 H
   0.0355000000000000    0.3015700000000000    0.1795750000000000 H
   0.9607400000000000    0.2245200000000000    0.1786950000000000 H
   0.8988800000000000    0.4436200000000000    0.1275000000000000 H
   0.9984300000000000    0.4320600000000000    0.1495550000000000 H
   0.7611200000000000    0.4514900000000000    0.1650150000000000 H
   0.7667500000000000    0.4450200000000000    0.2129350000000000 H
   0.8238400000000000    0.2323400000000000    0.2156950000000000 H
   0.8029700000000000    0.3156100000000000    0.2430400000000000 H
   0.9088600000000000    0.4275400000000000    0.2445700000000000 H
   0.0000000000000000    0.4224400000000000    0.2194950000000000 H
   0.7918300000000000    0.3321100000000000    0.1257550000000000 H
   0.8164700000000000    0.2419800000000000    0.1469900000000000 H
   0.0355400000000000    0.1982900000000000    0.9296650000000000 H
   0.9608600000000000    0.2753800000000000    0.9287099999999999 H
   0.8990500000000000    0.0563100000000000    0.8778250000000001 H
   0.9985000000000001    0.0679300000000000    0.8997900000000000 H
   0.7610700000000000    0.0484400000000000    0.9151800000000000 H
   0.7667000000000000    0.0549000000000000    0.9630900000000000 H
   0.8238500000000000    0.2675800000000000    0.9656500000000000 H
   0.8029200000000000    0.1843200000000000    0.9930900000000000 H
   0.9086100000000000    0.0723800000000000    0.9947450000000000 H
   0.0000000000000000    0.0773800000000000    0.9697450000000001 H
   0.7919200000000000    0.1678500000000000    0.8758150000000000 H
   0.8165800000000000    0.2579700000000000    0.8969900000000000 H
   0.5354800000000000    0.3016500000000000    0.5703300000000000 H
   0.4607500000000000    0.2245900000000000    0.5712650000000000 H
   0.3989400000000000    0.4436500000000000    0.6221500000000000 H
   0.4984400000000000    0.4320600000000000    0.6002250000000000 H
   0.2610400000000000    0.4515900000000000    0.5847249999999999 H
   0.2668000000000000    0.4450600000000000    0.5368200000000000 H
   0.3238200000000000    0.2324300000000000    0.5342600000000000 H
   0.3029600000000000    0.3157200000000000    0.5068500000000000 H
   0.4087600000000000    0.4276300000000000    0.5052300000000000 H
   0.5050800000000000    0.4225800000000000    0.5302750000000001 H
   0.2918200000000000    0.3321500000000000    0.6241250000000000 H
   0.3164700000000000    0.2420300000000000    0.6029500000000000 H
   0.9644800000000000    0.6984200000000000    0.8204100000000000 H
   0.0392300000000000    0.7754600000000000    0.8212500000000000 H
   0.1011000000000000    0.5563700000000000    0.8723400000000000 H
   0.0015500000000000    0.5679300000000000    0.8504300000000000 H
   0.2388600000000000    0.5485000000000000    0.8349700000000000 H
   0.2332300000000000    0.5549600000000000    0.7870500000000000 H
   0.1761400000000000    0.7676400000000000    0.7842899999999999 H
   0.1970000000000000    0.6843700000000000    0.7569450000000000 H
   0.0911200000000000    0.5724500000000000    0.7554149999999999 H
   0.9948600000000000    0.5775400000000001    0.7804900000000000 H
   0.2081500000000000    0.6678700000000000    0.8742300000000001 H
   0.1835000000000000    0.7580100000000000    0.8529949999999999 H
   0.5355300000000000    0.1983000000000000    0.8204150000000000 H
   0.4608900000000000    0.2754200000000000    0.8212900000000001 H
   0.3987000000000000    0.0563800000000000    0.8723350000000001 H
   0.4983100000000000    0.0678600000000000    0.8504650000000000 H
   0.2610200000000000    0.0485300000000000    0.8349299999999999 H
   0.2667200000000000    0.0550200000000000    0.7869999999999999 H
   0.3239300000000000    0.2676600000000000    0.7842700000000000 H
   0.3030400000000000    0.1844000000000000    0.7569250000000001 H
   0.4088600000000000    0.0724300000000000    0.7554149999999999 H
   0.5051000000000000    0.0775000000000000    0.7805050000000000 H
   0.2918000000000000    0.1679700000000000    0.8742099999999999 H
   0.3165400000000000    0.2580600000000000    0.8529550000000000 H
   0.9644400000000000    0.8017000000000000    0.5703199999999999 H
   0.0391200000000000    0.7246100000000000    0.5712750000000000 H
   0.1009200000000000    0.9436800000000000    0.6221600000000000 H
   0.0014700000000000    0.9320500000000000    0.6001950000000000 H
   0.2389000000000000    0.9515500000000000    0.5848100000000001 H
   0.2332800000000000    0.9450800000000000    0.5368950000000000 H
   0.1761200000000000    0.7324100000000000    0.5343150000000000 H
   0.1970500000000000    0.8156700000000000    0.5068950000000000 H
   0.0913600000000000    0.9276100000000000    0.5052449999999999 H
   0.9949800000000000    0.9226100000000000    0.5302000000000000 H
   0.2080600000000000    0.8321400000000000    0.6241700000000000 H
   0.1834000000000000    0.7420200000000000    0.6029949999999999 H
   0.4644900000000000    0.6983300000000000    0.9296550000000000 H
   0.5392200000000000    0.7754000000000000    0.9287200000000000 H
   0.6010400000000000    0.5563399999999999    0.8778400000000000 H
   0.5015400000000000    0.5679300000000000    0.8997600000000000 H
   0.7389400000000000    0.5484000000000000    0.9152600000000000 H
   0.7331800000000001    0.5549300000000000    0.9631700000000001 H
   0.6761600000000000    0.7675600000000000    0.9657249999999999 H
   0.6970100000000000    0.6842800000000000    0.9931350000000000 H
   0.5912200000000000    0.5723600000000000    0.9947550000000001 H
   0.4949000000000000    0.5774000000000000    0.9697150000000000 H
   0.7081600000000000    0.6678500000000001    0.8758600000000001 H
   0.6835100000000000    0.7579600000000000    0.8970350000000000 H
   0.0355000000000000    0.3015700000000000    0.6795750000000000 H
   0.9607400000000000    0.2245200000000000    0.6786950000000000 H
   0.8988800000000000    0.4436200000000000    0.6274999999999999 H
   0.9984300000000000    0.4320600000000000    0.6495550000000000 H
   0.7611200000000000    0.4514900000000000    0.6650150000000000 H
   0.7667500000000000    0.4450200000000000    0.7129350000000000 H
   0.8238400000000000    0.2323400000000000    0.7156950000000000 H
   0.8029700000000000    0.3156100000000000    0.7430400000000000 H
   0.9088600000000000    0.4275400000000000    0.7445700000000000 H
   0.0000000000000000    0.4224400000000000    0.7194950000000000 H
   0.7918300000000000    0.3321100000000000    0.6257550000000001 H
   0.8164700000000000    0.2419800000000000    0.6469900000000000 H
   0.5788800000000000    0.6731700000000000    0.3981950000000000 C
   0.5695900000000000    0.5841900000000000    0.4010350000000000 C
   0.6088400000000000    0.5548700000000000    0.4366950000000000 C
   0.7048700000000000    0.5766700000000000    0.4378400000000000 C
   0.5313099999999999    0.7766200000000000    0.2486050000000000 C
   0.5721800000000000    0.8176099999999999    0.2163450000000000 C
   0.5332400000000000    0.7878900000000000    0.1803900000000000 C
   0.5788800000000000    0.8268000000000000    0.1481100000000000 C
   0.5696900000000000    0.9157999999999999    0.1508600000000000 C
   0.6089100000000000    0.9450499999999999    0.1865150000000000 C
   0.7049100000000000    0.9232100000000000    0.1876750000000000 C
   0.7151300000000000    0.8346700000000000    0.1849650000000000 C
   0.6684600000000001    0.7956400000000000    0.2173450000000000 C
   0.5630900000000000    0.9064600000000000    0.2190850000000000 C
   0.6752899999999999    0.8051300000000000    0.1490450000000000 C
   0.5403500000000000    0.7996799999999999    0.1120850000000000 C
   0.6016200000000000    0.0336100000000000    0.1897150000000000 C
   0.8086300000000000    0.8092400000000000    0.1878800000000000 C
   0.9686000000000000    0.2233200000000000    0.4986450000000000 C
   0.9277300000000001    0.1823200000000000    0.4664150000000000 C
   0.9667300000000000    0.2120600000000000    0.4304450000000000 C
   0.9211600000000000    0.1731500000000000    0.3981850000000000 C
   0.9304400000000000    0.0841800000000000    0.4010350000000000 C
   0.8911100000000000    0.0548700000000000    0.4366800000000000 C
   0.7950900000000000    0.0766800000000000    0.4377850000000000 C
   0.7848500000000000    0.1652300000000000    0.4350000000000000 C
   0.8314500000000000    0.2042700000000000    0.4673650000000000 C
   0.9367900000000000    0.0934400000000000    0.4692500000000000 C
   0.8247400000000000    0.1947700000000000    0.3990700000000000 C
   0.9597100000000000    0.2002500000000000    0.3621300000000000 C
   0.8983300000000000    0.9662600000000000    0.4398400000000000 C
   0.6913400000000000    0.1906600000000000    0.4378800000000000 C
   0.4686100000000000    0.2766700000000000    0.0000000000000000 C
   0.4277500000000000    0.3176700000000000    0.0335600000000000 C
   0.4666800000000000    0.2879100000000000    0.0695350000000000 C
   0.4211000000000000    0.3268200000000000    0.1017900000000000 C
   0.4303900000000000    0.4158000000000000    0.0989500000000000 C
   0.3911400000000000    0.4451200000000000    0.0632900000000000 C
   0.2951100000000000    0.4233200000000000    0.0621500000000000 C
   0.2848400000000000    0.3347700000000000    0.0649000000000000 C
   0.3314600000000000    0.2957400000000000    0.0325800000000000 C
   0.4368700000000000    0.4065500000000000    0.0307000000000000 C
   0.3246800000000000    0.3052200000000000    0.1008850000000000 C
   0.4596500000000000    0.2997100000000000    0.1378500000000000 C
   0.3983800000000000    0.5337000000000000    0.0601400000000000 C
   0.1913300000000000    0.3093500000000000    0.0620700000000000 C
   0.0313400000000000    0.7233800000000000    0.2513850000000000 C
   0.0722200000000000    0.6824000000000000    0.2836450000000000 C
   0.0333000000000000    0.7121499999999999    0.3195000000000000 C
   0.0788800000000000    0.6732000000000000    0.3518800000000000 C
   0.0696000000000000    0.5842100000000000    0.3491200000000000 C
   0.1088400000000000    0.5549400000000000    0.3134800000000000 C
   0.2048700000000000    0.5767500000000000    0.3123400000000000 C
   0.2151400000000000    0.6652800000000000    0.3150500000000000 C
   0.1685100000000000    0.7043300000000000    0.2826600000000000 C
   0.0630900000000000    0.5935500000000000    0.2809000000000000 C
   0.1753000000000000    0.6948200000000000    0.3509650000000000 C
   0.0403400000000000    0.7003100000000000    0.3879050000000000 C
   0.1015500000000000    0.4664100000000000    0.3102500000000000 C
   0.3086500000000000    0.6907000000000000    0.3121250000000000 C
   0.4686700000000000    0.2233700000000000    0.2513800000000000 C
   0.4277900000000000    0.1823800000000000    0.2836000000000000 C
   0.4667400000000000    0.2121000000000000    0.3195950000000000 C
   0.4210900000000000    0.1731900000000000    0.3518750000000000 C
   0.4302800000000000    0.0841900000000000    0.3491250000000000 C
   0.3910700000000000    0.0549400000000000    0.3134750000000000 C
   0.2950600000000000    0.0767700000000000    0.3123150000000000 C
   0.2848400000000000    0.1653100000000000    0.3150250000000000 C
   0.3315100000000000    0.2043500000000000    0.2826000000000000 C
   0.4368800000000000    0.0935300000000000    0.2809000000000000 C
   0.3246900000000000    0.1948600000000000    0.3509400000000000 C
   0.4596300000000000    0.2003100000000000    0.3879000000000000 C
   0.3983500000000000    0.9663800000000000    0.3102700000000000 C
   0.1913400000000000    0.1907400000000000    0.3121050000000000 C
   0.0313700000000000    0.7766700000000000    0.0000000000000000 C
   0.0722500000000000    0.8176700000000000    0.0335700000000000 C
   0.0332400000000000    0.7879300000000000    0.0695400000000000 C
   0.0788100000000000    0.8268400000000000    0.1018000000000000 C
   0.0695300000000000    0.9158100000000000    0.0989500000000000 C
   0.1088600000000000    0.9451200000000000    0.0633050000000000 C
   0.2048900000000000    0.9233100000000000    0.0622050000000000 C
   0.2151300000000000    0.8347599999999999    0.0649850000000000 C
   0.1685300000000000    0.7957200000000000    0.0326200000000000 C
   0.0631800000000000    0.9065500000000000    0.0307300000000000 C
   0.1752300000000000    0.8052200000000000    0.1009200000000000 C
   0.0402700000000000    0.7997400000000000    0.1378550000000000 C
   0.1016500000000000    0.0337200000000000    0.0601450000000000 C
   0.3086400000000000    0.8093200000000000    0.0621050000000000 C
   0.5313600000000001    0.7233200000000000    0.4986550000000000 C
   0.5722300000000000    0.6823200000000000    0.4664300000000000 C
   0.5333000000000000    0.7120800000000000    0.4304500000000000 C
   0.7151300000000000    0.6652200000000000    0.4350500000000000 C
   0.6685200000000000    0.7042500000000000    0.4674100000000000 C
   0.5631200000000000    0.5934400000000000    0.4692600000000000 C
   0.6753000000000000    0.6947700000000000    0.3991050000000000 C
   0.5403300000000000    0.7002800000000000    0.3621400000000000 C
   0.6016000000000000    0.4662800000000000    0.4398450000000000 C
   0.8086500000000000    0.6906400000000000    0.4379150000000000 C
   0.9686300000000000    0.2766100000000000    0.2486000000000000 C
   0.9277600000000000    0.3175900000000000    0.2163400000000000 C
   0.9666800000000000    0.2878400000000000    0.1803900000000000 C
   0.9211000000000000    0.3267900000000000    0.1481050000000000 C
   0.9303800000000000    0.4157800000000000    0.1508650000000000 C
   0.8911400000000000    0.4450400000000000    0.1865100000000000 C
   0.7951100000000000    0.4232400000000000    0.1876450000000000 C
   0.7848400000000000    0.3347000000000000    0.1849400000000000 C
   0.8314700000000000    0.2956500000000000    0.2173300000000000 C
   0.9368900000000000    0.4064300000000000    0.2190850000000000 C
   0.8246800000000000    0.3051700000000000    0.1490200000000000 C
   0.9596300000000000    0.2996700000000000    0.1120850000000000 C
   0.8984300000000000    0.5335800000000001    0.1897150000000000 C
   0.6913300000000000    0.3092900000000000    0.1878600000000000 C
   0.5788800000000000    0.6731700000000000    0.8981950000000001 C
   0.5695900000000000    0.5841900000000000    0.9010350000000000 C
   0.6088400000000000    0.5548700000000000    0.9366950000000001 C
   0.7048700000000000    0.5766700000000000    0.9378400000000000 C
   0.9686000000000000    0.2233200000000000    0.9986450000000000 C
   0.9277300000000001    0.1823200000000000    0.9664150000000000 C
   0.9667300000000000    0.2120600000000000    0.9304450000000000 C
   0.9211600000000000    0.1731500000000000    0.8981850000000000 C
   0.9304400000000000    0.0841800000000000    0.9010350000000000 C
   0.8911100000000000    0.0548700000000000    0.9366800000000000 C
   0.7950900000000000    0.0766800000000000    0.9377850000000000 C
   0.7848500000000000    0.1652300000000000    0.9350000000000001 C
   0.8314500000000000    0.2042700000000000    0.9673650000000000 C
   0.9367900000000000    0.0934400000000000    0.9692499999999999 C
   0.8247400000000000    0.1947700000000000    0.8990700000000000 C
   0.9597100000000000    0.2002500000000000    0.8621300000000001 C
   0.8983300000000000    0.9662600000000000    0.9398400000000000 C
   0.6913400000000000    0.1906600000000000    0.9378800000000000 C
   0.4686100000000000    0.2766700000000000    0.5000000000000000 C
   0.4277500000000000    0.3176700000000000    0.5335600000000000 C
   0.4666800000000000    0.2879100000000000    0.5695350000000000 C
   0.4211000000000000    0.3268200000000000    0.6017900000000000 C
   0.4303900000000000    0.4158000000000000    0.5989500000000000 C
   0.3911400000000000    0.4451200000000000    0.5632900000000000 C
   0.2951100000000000    0.4233200000000000    0.5621500000000000 C
   0.2848400000000000    0.3347700000000000    0.5649000000000000 C
   0.3314600000000000    0.2957400000000000    0.5325800000000001 C
   0.4368700000000000    0.4065500000000000    0.5306999999999999 C
   0.3246800000000000    0.3052200000000000    0.6008850000000000 C
   0.4596500000000000    0.2997100000000000    0.6378500000000000 C
   0.3983800000000000    0.5337000000000000    0.5601400000000000 C
   0.1913300000000000    0.3093500000000000    0.5620700000000000 C
   0.0313400000000000    0.7233800000000000    0.7513850000000000 C
   0.0722200000000000    0.6824000000000000    0.7836449999999999 C
   0.0333000000000000    0.7121499999999999    0.8195000000000000 C
   0.0788800000000000    0.6732000000000000    0.8518800000000000 C
   0.0696000000000000    0.5842100000000000    0.8491200000000000 C
   0.1088400000000000    0.5549400000000000    0.8134800000000000 C
   0.2048700000000000    0.5767500000000000    0.8123400000000001 C
   0.2151400000000000    0.6652800000000000    0.8150500000000001 C
   0.1685100000000000    0.7043300000000000    0.7826600000000000 C
   0.0630900000000000    0.5935500000000000    0.7808999999999999 C
   0.1753000000000000    0.6948200000000000    0.8509650000000000 C
   0.0403400000000000    0.7003100000000000    0.8879049999999999 C
   0.1015500000000000    0.4664100000000000    0.8102500000000000 C
   0.3086500000000000    0.6907000000000000    0.8121250000000000 C
   0.4686700000000000    0.2233700000000000    0.7513799999999999 C
   0.4277900000000000    0.1823800000000000    0.7836000000000001 C
   0.4667400000000000    0.2121000000000000    0.8195950000000001 C
   0.4210900000000000    0.1731900000000000    0.8518749999999999 C
   0.4302800000000000    0.0841900000000000    0.8491250000000000 C
   0.3910700000000000    0.0549400000000000    0.8134749999999999 C
   0.2950600000000000    0.0767700000000000    0.8123150000000000 C
   0.2848400000000000    0.1653100000000000    0.8150250000000000 C
   0.3315100000000000    0.2043500000000000    0.7826000000000000 C
   0.4368800000000000    0.0935300000000000    0.7808999999999999 C
   0.3246900000000000    0.1948600000000000    0.8509400000000000 C
   0.4596300000000000    0.2003100000000000    0.8879000000000000 C
   0.3983500000000000    0.9663800000000000    0.8102700000000000 C
   0.1913400000000000    0.1907400000000000    0.8121050000000001 C
   0.0313700000000000    0.7766700000000000    0.5000000000000000 C
   0.0722500000000000    0.8176700000000000    0.5335700000000000 C
   0.0332400000000000    0.7879300000000000    0.5695400000000000 C
   0.0788100000000000    0.8268400000000000    0.6018000000000000 C
   0.0695300000000000    0.9158100000000000    0.5989500000000000 C
   0.1088600000000000    0.9451200000000000    0.5633049999999999 C
   0.2048900000000000    0.9233100000000000    0.5622050000000000 C
   0.2151300000000000    0.8347599999999999    0.5649850000000000 C
   0.1685300000000000    0.7957200000000000    0.5326200000000000 C
   0.0631800000000000    0.9065500000000000    0.5307300000000000 C
   0.1752300000000000    0.8052200000000000    0.6009200000000000 C
   0.0402700000000000    0.7997400000000000    0.6378550000000001 C
   0.1016500000000000    0.0337200000000000    0.5601450000000000 C
   0.3086400000000000    0.8093200000000000    0.5621050000000000 C
   0.5313600000000001    0.7233200000000000    0.9986550000000001 C
   0.5722300000000000    0.6823200000000000    0.9664300000000000 C
   0.5333000000000000    0.7120800000000000    0.9304500000000000 C
   0.7151300000000000    0.6652200000000000    0.9350499999999999 C
   0.6685200000000000    0.7042500000000000    0.9674100000000000 C
   0.5631200000000000    0.5934400000000000    0.9692600000000000 C
   0.6753000000000000    0.6947700000000000    0.8991050000000000 C
   0.5403300000000000    0.7002800000000000    0.8621400000000000 C
   0.6016000000000000    0.4662800000000000    0.9398450000000000 C
   0.8086500000000000    0.6906400000000000    0.9379150000000001 C
   0.9686300000000000    0.2766100000000000    0.7485999999999999 C
   0.9277600000000000    0.3175900000000000    0.7163400000000000 C
   0.9666800000000000    0.2878400000000000    0.6803900000000001 C
   0.9211000000000000    0.3267900000000000    0.6481049999999999 C
   0.9303800000000000    0.4157800000000000    0.6508650000000000 C
   0.8911400000000000    0.4450400000000000    0.6865100000000000 C
   0.7951100000000000    0.4232400000000000    0.6876450000000001 C
   0.7848400000000000    0.3347000000000000    0.6849400000000000 C
   0.8314700000000000    0.2956500000000000    0.7173300000000000 C
   0.9368900000000000    0.4064300000000000    0.7190850000000000 C
   0.8246800000000000    0.3051700000000000    0.6490200000000000 C
   0.9596300000000000    0.2996700000000000    0.6120850000000000 C
   0.8984300000000000    0.5335800000000001    0.6897150000000000 C
   0.6913300000000000    0.3092900000000000    0.6878600000000000 C
   0.4812100000000000    0.1865500000000000    0.2220100000000000 O
   0.4850000000000000    0.2965800000000000    0.2545600000000000 O
   0.5041400000000000    0.2615600000000000    0.3889500000000000 O
   0.4443100000000000    0.1563700000000000    0.4156850000000000 O
   0.4341200000000000    0.9301500000000000    0.3375500000000000 O
   0.5187600000000000    0.8134400000000001    0.2779750000000000 O
   0.5149800000000000    0.7034100000000000    0.2454250000000000 O
   0.4958400000000000    0.7384200000000000    0.1110350000000000 O
   0.5556700000000000    0.8436200000000000    0.0843050000000000 O
   0.5658500000000000    0.0698400000000000    0.1624000000000000 O
   0.6291700000000000    0.0688800000000000    0.2169650000000000 O
   0.8633600000000000    0.8602100000000000    0.1984200000000000 O
   0.8256100000000000    0.7387400000000000    0.1811450000000000 O
   0.9811400000000000    0.1864900000000000    0.0280450000000000 O