H18 C26 N4
1.0
  10.3109708039405561    0.0000000000000000   -3.1537576524339088
  -3.4949153032120339   13.0101875696959937   -7.0765581623203113
   0.0000000000000000    0.0000000000000000   30.4600000000000009
H C N
18 26 4
direct
   0.7326400000000000    0.7330100000000001    0.0220100000000000 H
   0.8725600000000000    0.3154900000000000    0.1005400000000000 H
   0.6732200000000000    0.3160100000000000    0.0340400000000000 H
   0.8098400000000000    0.6479100000000000    0.1232150000000000 H
   0.0009100000000000    0.6340600000000000    0.1865250000000000 H
   0.7347800000000000    0.5790500000000000    0.0220550000000000 H
   0.5792200000000000    0.4937600000000000    0.1301550000000000 H
   0.4908300000000000    0.4102500000000000    0.1707650000000000 H
   0.1886300000000000    0.1944500000000000    0.0261050000000000 H
   0.1274300000000000    0.6845100000000000    0.8994599999999999 H
   0.3267400000000000    0.6839300000000000    0.9659550000000000 H
   0.1899500000000000    0.3520500000000000    0.8767900000000000 H
   0.9989000000000000    0.3659400000000000    0.8135000000000000 H
   0.2651100000000000    0.4208400000000000    0.9779249999999999 H
   0.4207400000000000    0.5061900000000000    0.8698250000000001 H
   0.5093100000000000    0.5896400000000001    0.8292300000000000 H
   0.8114600000000000    0.8054000000000000    0.9739150000000000 H
   0.2672800000000000    0.2668800000000000    0.9779900000000000 H
   0.8550000000000000    0.3875000000000000    0.1038700000000000 C
   0.7440500000000000    0.3884700000000000    0.0669950000000000 C
   0.7232600000000000    0.4826900000000000    0.0731300000000000 C
   0.8207200000000000    0.5722200000000000    0.1158200000000000 C
   0.9279400000000000    0.5651600000000000    0.1514150000000000 C
   0.6054600000000000    0.4902300000000000    0.0365600000000000 C
   0.6303700000000000    0.5469400000000000    0.0132600000000000 C
   0.4709700000000000    0.4420100000000000    0.0234750000000000 C
   0.4305100000000000    0.3891800000000000    0.0495850000000000 C
   0.4935100000000000    0.4267000000000000    0.1045700000000000 C
   0.4433500000000000    0.3804700000000000    0.1280200000000000 C
   0.2752500000000000    0.2608200000000000    0.0475750000000000 C
   0.3197600000000000    0.3024900000000000    0.0210650000000000 C
   0.1449200000000000    0.6124800000000000    0.8961300000000000 C
   0.2558800000000000    0.6114800000000000    0.9329950000000000 C
   0.2766300000000000    0.5172600000000001    0.9268600000000000 C
   0.1791300000000000    0.4277500000000000    0.8841800000000000 C
   0.0718900000000000    0.4348400000000000    0.8486000000000000 C
   0.3944300000000000    0.5096800000000000    0.9634250000000000 C
   0.3695200000000000    0.4529500000000000    0.9867150000000000 C
   0.5289100000000000    0.5579100000000000    0.9765150000000000 C
   0.5694500000000000    0.6107200000000000    0.9504049999999999 C
   0.5065000000000000    0.5732200000000000    0.8954200000000000 C
   0.5567200000000000    0.6194400000000000    0.8719800000000000 C
   0.7248000000000000    0.7390600000000001    0.9524349999999999 C
   0.6802200000000000    0.6973900000000000    0.9789350000000000 C
   0.9452000000000000    0.4746000000000000    0.1468350000000000 N
   0.3340400000000000    0.2997000000000000    0.1008650000000000 N
   0.0546800000000000    0.5253900000000000    0.8531700000000000 N
   0.6661400000000000    0.7001400000000000    0.8991400000000001 N
