H8 O4
1.0
  10.3109708039405561    0.0000000000000000   -3.1537576524339088
  -3.4949153032120339   13.0101875696959937   -7.0765581623203113
   0.0000000000000000    0.0000000000000000   30.4600000000000009
H O
8 4
direct
   0.9327227365576654    0.5400658735421681    0.1501458845055557 H
   0.8801630253443580    0.4117982207039200    0.1158559133472322 H
   0.2914995399914419    0.2715664214129488    0.0623043414890957 H
   0.4132005322826234    0.3581923263422147    0.1205302113634127 H
   0.7085888753684823    0.7283041702922149    0.9377065327780985 H
   0.5869077242502649    0.6417042053280605    0.8794731327969036 H
   0.1197441240320524    0.5881829361918378    0.8841446760684505 H
   0.0671228180299234    0.4599224129802693    0.8498658931785735 H
   0.9452000000000000    0.4746000000000000    0.1468350000000000 O
   0.3340400000000000    0.2997000000000000    0.1008650000000000 O
   0.6661400000000000    0.7001400000000000    0.8991400000000001 O
   0.0546800000000000    0.5253900000000000    0.8531700000000000 O
