Cu16 H240 C240 S30 I16
1.0
  14.7989999977459821    0.0000000000000000   -0.0002582912759912
  -0.0251950105688803   25.7779876873941092    0.0000000000000016
   0.0000000000000000    0.0000000000000000   20.8500000000000014
Cu H C S I
16 240 240 30 16
direct
   0.1208500000000000    0.3310150000000000    0.7500100000000000 Cu
   0.3708200000000000    0.4197100000000000    0.7500100000000000 Cu
   0.3791600000000000    0.1689900000000000    0.2500200000000000 Cu
   0.1291200000000000    0.0803400000000000    0.2500200000000000 Cu
   0.6208500000000000    0.3310150000000000    0.7500100000000000 Cu
   0.8708199999999999    0.4197100000000000    0.7500100000000000 Cu
   0.8791599999999999    0.1689900000000000    0.2500200000000000 Cu
   0.6291200000000000    0.0803400000000000    0.2500200000000000 Cu
   0.1208500000000000    0.8310150000000001    0.7500100000000000 Cu
   0.3708200000000000    0.9197100000000000    0.7500100000000000 Cu
   0.3791600000000000    0.6689900000000000    0.2500200000000000 Cu
   0.1291200000000000    0.5803400000000000    0.2500200000000000 Cu
   0.6208500000000000    0.8310150000000001    0.7500100000000000 Cu
   0.8708199999999999    0.9197100000000000    0.7500100000000000 Cu
   0.8791599999999999    0.6689900000000000    0.2500200000000000 Cu
   0.6291200000000000    0.5803400000000000    0.2500200000000000 Cu
   0.1907550000000000    0.4186750000000000    0.1085300000000000 H
   0.2603700000000000    0.3779950000000000    0.0131700000000000 H
   0.1407000000000000    0.4945550000000000    0.8925800000000000 H
   0.0741400000000000    0.0365500000000000    0.9883000000000000 H
   0.0513750000000000    0.0429200000000000    0.0996400000000000 H
   0.0611500000000000    0.4869350000000000    0.1478700000000000 H
   0.1912400000000000    0.1157950000000000    0.0957900000000000 H
   0.2877150000000000    0.1073800000000000    0.1448300000000000 H
   0.0589550000000000    0.1687950000000000    0.8913400000000000 H
   0.4895150000000000    0.1279250000000000    0.9866300000000000 H
   0.1092900000000000    0.2445050000000000    0.1073700000000000 H
   0.1758100000000000    0.2866250000000000    0.0117000000000000 H
   0.1985400000000000    0.2931200000000000    0.9003400000000000 H
   0.1885800000000000    0.2371900000000000    0.8520300000000000 H
   0.0587550000000000    0.3660000000000000    0.9042900000000000 H
   0.4622500000000000    0.3575300000000000    0.8553700000000000 H
   0.3092250000000000    0.0813300000000000    0.6085600000000000 H
   0.2396400000000000    0.1220250000000000    0.5132000000000000 H
   0.3592050000000000    0.0054100000000000    0.3926400000000000 H
   0.4258350000000000    0.4634550000000000    0.4883600000000000 H
   0.4484350000000000    0.4570350000000000    0.5997400000000001 H
   0.4388400000000000    0.0130700000000000    0.6479000000000000 H
   0.3087850000000000    0.3843050000000000    0.5959100000000001 H
   0.2122150000000000    0.3926800000000000    0.6448700000000001 H
   0.4409800000000000    0.3312350000000000    0.3913300000000000 H
   0.3907250000000000    0.2554850000000000    0.6073300000000000 H
   0.3241400000000000    0.2133900000000000    0.5116500000000000 H
   0.3012750000000000    0.2069450000000000    0.4003800000000000 H
   0.3113500000000000    0.2628350000000000    0.3520200000000000 H
   0.4412600000000000    0.1339950000000000    0.4044100000000000 H
   0.3092400000000000    0.0813400000000000    0.8914800000000001 H
   0.2396150000000000    0.1220250000000000    0.9868200000000000 H
   0.3592300000000000    0.0054550000000000    0.1074300000000000 H
   0.4258400000000000    0.4634750000000000    0.0117200000000000 H
   0.4485800000000000    0.4570850000000000    0.9003700000000000 H
   0.4388450000000000    0.0130750000000000    0.8521500000000000 H
   0.3086800000000000    0.3842150000000000    0.9041800000000000 H
   0.2122050000000000    0.3926750000000000    0.8551600000000000 H
   0.4409550000000000    0.3312350000000000    0.1087200000000000 H
   0.0105400000000000    0.3720750000000000    0.0133800000000000 H
   0.3906850000000000    0.2555200000000000    0.8926900000000000 H
   0.3241300000000000    0.2134050000000000    0.9883600000000000 H
   0.3013950000000000    0.2069100000000000    0.0997100000000000 H
   0.3114050000000000    0.2628200000000000    0.1480500000000000 H
   0.4411550000000000    0.1340450000000000    0.0956500000000000 H
   0.0377800000000000    0.1424700000000000    0.1446900000000000 H
   0.1907850000000000    0.4186650000000000    0.3915000000000000 H
   0.2603800000000000    0.3779950000000000    0.4868700000000000 H
   0.1406800000000000    0.4945600000000000    0.6074200000000000 H
   0.0741400000000000    0.0365500000000000    0.5116900000000000 H
   0.0513650000000000    0.0429150000000000    0.4004300000000000 H
   0.0611200000000000    0.4869500000000000    0.3521600000000000 H
   0.1912800000000000    0.1158000000000000    0.4042800000000000 H
   0.2877350000000000    0.1073700000000000    0.3552300000000000 H
   0.4894050000000000    0.1279800000000000    0.5133700000000000 H
   0.4622650000000000    0.3575450000000000    0.6446200000000000 H
   0.6907550000000000    0.4186750000000000    0.1085300000000000 H
   0.7603700000000000    0.3779950000000000    0.0131700000000000 H
   0.6407000000000000    0.4945550000000000    0.8925800000000000 H
   0.5741400000000000    0.0365500000000000    0.9883000000000000 H
   0.5513749999999999    0.0429200000000000    0.0996400000000000 H
   0.5611500000000000    0.4869350000000000    0.1478700000000000 H
   0.6912400000000000    0.1157950000000000    0.0957900000000000 H
   0.7877149999999999    0.1073800000000000    0.1448300000000000 H
   0.5589550000000000    0.1687950000000000    0.8913400000000000 H
   0.9895149999999999    0.1279250000000000    0.9866300000000000 H
   0.6092900000000000    0.2445050000000000    0.1073700000000000 H
   0.6758100000000000    0.2866250000000000    0.0117000000000000 H
   0.6985399999999999    0.2931200000000000    0.9003400000000000 H
   0.6885800000000000    0.2371900000000000    0.8520300000000000 H
   0.5587550000000000    0.3660000000000000    0.9042900000000000 H
   0.9622500000000000    0.3575300000000000    0.8553700000000000 H
   0.8092250000000001    0.0813300000000000    0.6085600000000000 H
   0.7396400000000000    0.1220250000000000    0.5132000000000000 H
   0.8592050000000000    0.0054100000000000    0.3926400000000000 H
   0.9258350000000000    0.4634550000000000    0.4883600000000000 H
   0.9484349999999999    0.4570350000000000    0.5997400000000001 H
   0.9388400000000000    0.0130700000000000    0.6479000000000000 H
   0.8087850000000000    0.3843050000000000    0.5959100000000001 H
   0.7122150000000000    0.3926800000000000    0.6448700000000001 H
   0.5105350000000000    0.3720600000000000    0.4866400000000000 H
   0.5377350000000000    0.1424850000000000    0.3554000000000000 H
   0.8092400000000000    0.0813400000000000    0.8914800000000001 H
   0.7396150000000000    0.1220250000000000    0.9868200000000000 H
   0.8592299999999999    0.0054550000000000    0.1074300000000000 H
   0.9258400000000000    0.4634750000000000    0.0117200000000000 H
   0.9485800000000000    0.4570850000000000    0.9003700000000000 H
   0.9388449999999999    0.0130750000000000    0.8521500000000000 H
   0.8086800000000001    0.3842150000000000    0.9041800000000000 H
   0.7122050000000000    0.3926750000000000    0.8551600000000000 H
   0.9409550000000000    0.3312350000000000    0.1087200000000000 H
   0.5105400000000000    0.3720750000000000    0.0133800000000000 H
   0.8906849999999999    0.2555200000000000    0.8926900000000000 H
   0.8241300000000000    0.2134050000000000    0.9883600000000000 H
   0.8013950000000001    0.2069100000000000    0.0997100000000000 H
   0.8114049999999999    0.2628200000000000    0.1480500000000000 H
   0.9411550000000000    0.1340450000000000    0.0956500000000000 H
   0.5377800000000000    0.1424700000000000    0.1446900000000000 H
   0.6907850000000000    0.4186650000000000    0.3915000000000000 H
   0.7603800000000001    0.3779950000000000    0.4868700000000000 H
   0.6406800000000000    0.4945600000000000    0.6074200000000000 H
   0.5741400000000000    0.0365500000000000    0.5116900000000000 H
   0.5513650000000000    0.0429150000000000    0.4004300000000000 H
   0.5611200000000000    0.4869500000000000    0.3521600000000000 H
   0.6912800000000000    0.1158000000000000    0.4042800000000000 H
   0.7877350000000001    0.1073700000000000    0.3552300000000000 H
   0.5589600000000000    0.1687850000000000    0.6087200000000000 H
   0.6092350000000000    0.2445400000000000    0.3927200000000000 H
   0.6758150000000001    0.2866300000000000    0.4883900000000000 H
   0.6986600000000001    0.2930950000000000    0.5996300000000000 H
   0.6886450000000000    0.2372150000000000    0.6480300000000000 H
   0.5587400000000000    0.3660350000000000    0.5956200000000000 H
   0.1907550000000000    0.9186750000000000    0.1085300000000000 H
   0.2603700000000000    0.8779950000000001    0.0131700000000000 H
   0.1407000000000000    0.9945550000000001    0.8925800000000000 H
   0.0741400000000000    0.5365500000000000    0.9883000000000000 H
   0.0513750000000000    0.5429200000000000    0.0996400000000000 H
   0.0611500000000000    0.9869350000000000    0.1478700000000000 H
   0.1912400000000000    0.6157950000000000    0.0957900000000000 H
   0.2877150000000000    0.6073800000000000    0.1448300000000000 H
   0.0589550000000000    0.6687950000000000    0.8913400000000000 H
   0.4895150000000000    0.6279250000000001    0.9866300000000000 H
   0.1092900000000000    0.7445050000000000    0.1073700000000000 H
   0.1758100000000000    0.7866250000000000    0.0117000000000000 H
   0.1985400000000000    0.7931200000000000    0.9003400000000000 H
   0.1885800000000000    0.7371900000000000    0.8520300000000000 H
   0.0587550000000000    0.8660000000000000    0.9042900000000000 H
   0.4622500000000000    0.8575300000000000    0.8553700000000000 H
   0.3092250000000000    0.5813300000000000    0.6085600000000000 H
   0.2396400000000000    0.6220250000000001    0.5132000000000000 H
   0.3592050000000000    0.5054100000000000    0.3926400000000000 H
   0.4258350000000000    0.9634550000000000    0.4883600000000000 H
   0.4484350000000000    0.9570350000000001    0.5997400000000001 H
   0.4388400000000000    0.5130700000000000    0.6479000000000000 H
   0.3087850000000000    0.8843050000000000    0.5959100000000001 H
   0.2122150000000000    0.8926799999999999    0.6448700000000001 H
   0.4409800000000000    0.8312349999999999    0.3913300000000000 H
   0.0105350000000000    0.8720600000000001    0.4866400000000000 H
   0.3907250000000000    0.7554850000000000    0.6073300000000000 H
   0.3241400000000000    0.7133900000000000    0.5116500000000000 H
   0.3012750000000000    0.7069449999999999    0.4003800000000000 H
   0.3113500000000000    0.7628349999999999    0.3520200000000000 H
   0.4412600000000000    0.6339950000000000    0.4044100000000000 H
   0.0377350000000000    0.6424850000000000    0.3554000000000000 H
   0.3092400000000000    0.5813400000000000    0.8914800000000001 H
   0.2396150000000000    0.6220250000000001    0.9868200000000000 H
   0.3592300000000000    0.5054550000000000    0.1074300000000000 H
   0.4258400000000000    0.9634750000000001    0.0117200000000000 H
   0.4485800000000000    0.9570850000000000    0.9003700000000000 H
   0.4388450000000000    0.5130749999999999    0.8521500000000000 H
   0.3086800000000000    0.8842150000000000    0.9041800000000000 H
   0.2122050000000000    0.8926750000000000    0.8551600000000000 H
   0.4409550000000000    0.8312349999999999    0.1087200000000000 H
   0.0105400000000000    0.8720749999999999    0.0133800000000000 H
   0.3906850000000000    0.7555200000000000    0.8926900000000000 H
   0.3241300000000000    0.7134050000000001    0.9883600000000000 H
   0.3013950000000000    0.7069100000000000    0.0997100000000000 H
   0.3114050000000000    0.7628200000000001    0.1480500000000000 H
   0.4411550000000000    0.6340450000000000    0.0956500000000000 H
   0.0377800000000000    0.6424700000000000    0.1446900000000000 H
   0.1907850000000000    0.9186650000000001    0.3915000000000000 H
   0.2603800000000000    0.8779950000000001    0.4868700000000000 H
   0.1406800000000000    0.9945600000000000    0.6074200000000000 H
   0.0741400000000000    0.5365500000000000    0.5116900000000000 H
   0.0513650000000000    0.5429150000000000    0.4004300000000000 H
   0.0611200000000000    0.9869500000000000    0.3521600000000000 H
   0.1912800000000000    0.6158000000000000    0.4042800000000000 H
   0.2877350000000000    0.6073700000000000    0.3552300000000000 H
   0.0589600000000000    0.6687850000000000    0.6087200000000000 H
   0.4894050000000000    0.6279800000000000    0.5133700000000000 H
   0.1092350000000000    0.7445400000000000    0.3927200000000000 H
   0.1758150000000000    0.7866299999999999    0.4883900000000000 H
   0.1986600000000000    0.7930950000000000    0.5996300000000000 H
   0.1886450000000000    0.7372150000000000    0.6480300000000000 H
   0.0587400000000000    0.8660350000000000    0.5956200000000000 H
   0.4622650000000000    0.8575450000000000    0.6446200000000000 H
   0.6907550000000000    0.9186750000000000    0.1085300000000000 H
   0.7603700000000000    0.8779950000000001    0.0131700000000000 H
   0.6407000000000000    0.9945550000000001    0.8925800000000000 H
   0.5741400000000000    0.5365500000000000    0.9883000000000000 H
   0.5513749999999999    0.5429200000000000    0.0996400000000000 H
   0.5611500000000000    0.9869350000000000    0.1478700000000000 H
   0.6912400000000000    0.6157950000000000    0.0957900000000000 H
   0.7877149999999999    0.6073800000000000    0.1448300000000000 H
   0.5589550000000000    0.6687950000000000    0.8913400000000000 H
   0.9895149999999999    0.6279250000000001    0.9866300000000000 H
   0.6092900000000000    0.7445050000000000    0.1073700000000000 H
   0.6758100000000000    0.7866250000000000    0.0117000000000000 H
   0.6985399999999999    0.7931200000000000    0.9003400000000000 H
   0.6885800000000000    0.7371900000000000    0.8520300000000000 H
   0.5587550000000000    0.8660000000000000    0.9042900000000000 H
   0.9622500000000000    0.8575300000000000    0.8553700000000000 H
   0.8092250000000001    0.5813300000000000    0.6085600000000000 H
   0.7396400000000000    0.6220250000000001    0.5132000000000000 H
   0.8592050000000000    0.5054100000000000    0.3926400000000000 H
   0.9258350000000000    0.9634550000000000    0.4883600000000000 H
   0.9484349999999999    0.9570350000000001    0.5997400000000001 H
   0.9388400000000000    0.5130700000000000    0.6479000000000000 H
   0.8087850000000000    0.8843050000000000    0.5959100000000001 H
   0.7122150000000000    0.8926799999999999    0.6448700000000001 H
   0.9409799999999999    0.8312349999999999    0.3913300000000000 H
   0.5105350000000000    0.8720600000000001    0.4866400000000000 H
   0.8907250000000000    0.7554850000000000    0.6073300000000000 H
   0.8241400000000000    0.7133900000000000    0.5116500000000000 H
   0.8012750000000000    0.7069449999999999    0.4003800000000000 H
   0.8113500000000000    0.7628349999999999    0.3520200000000000 H
   0.9412600000000000    0.6339950000000000    0.4044100000000000 H
   0.5377350000000000    0.6424850000000000    0.3554000000000000 H
   0.8092400000000000    0.5813400000000000    0.8914800000000001 H
   0.7396150000000000    0.6220250000000001    0.9868200000000000 H
   0.8592299999999999    0.5054550000000000    0.1074300000000000 H
   0.9258400000000000    0.9634750000000001    0.0117200000000000 H
   0.9485800000000000    0.9570850000000000    0.9003700000000000 H
   0.9388449999999999    0.5130749999999999    0.8521500000000000 H
   0.8086800000000001    0.8842150000000000    0.9041800000000000 H
   0.7122050000000000    0.8926750000000000    0.8551600000000000 H
   0.9409550000000000    0.8312349999999999    0.1087200000000000 H
   0.5105400000000000    0.8720749999999999    0.0133800000000000 H
   0.8906849999999999    0.7555200000000000    0.8926900000000000 H
   0.8241300000000000    0.7134050000000001    0.9883600000000000 H
   0.8013950000000001    0.7069100000000000    0.0997100000000000 H
   0.8114049999999999    0.7628200000000001    0.1480500000000000 H
   0.9411550000000000    0.6340450000000000    0.0956500000000000 H
   0.5377800000000000    0.6424700000000000    0.1446900000000000 H
   0.6907850000000000    0.9186650000000001    0.3915000000000000 H
   0.7603800000000001    0.8779950000000001    0.4868700000000000 H
   0.6406800000000000    0.9945600000000000    0.6074200000000000 H
   0.5741400000000000    0.5365500000000000    0.5116900000000000 H
   0.5513650000000000    0.5429150000000000    0.4004300000000000 H
   0.5611200000000000    0.9869500000000000    0.3521600000000000 H
   0.6912800000000000    0.6158000000000000    0.4042800000000000 H
   0.7877350000000001    0.6073700000000000    0.3552300000000000 H
   0.5589600000000000    0.6687850000000000    0.6087200000000000 H
   0.9894050000000000    0.6279800000000000    0.5133700000000000 H
   0.6092350000000000    0.7445400000000000    0.3927200000000000 H
   0.6758150000000001    0.7866299999999999    0.4883900000000000 H
   0.6986600000000001    0.7930950000000000    0.5996300000000000 H
   0.6886450000000000    0.7372150000000000    0.6480300000000000 H
   0.5587400000000000    0.8660350000000000    0.5956200000000000 H
   0.9622649999999999    0.8575450000000000    0.6446200000000000 H
   0.1782350000000000    0.4351300000000000    0.0611100000000000 C
   0.2173800000000000    0.4120800000000000    0.0072800000000000 C
   0.2067500000000000    0.4340200000000000    0.9461300000000000 C
   0.1507650000000000    0.4775100000000000    0.9399000000000000 C
   0.1135650000000000    0.0011200000000000    0.9938000000000000 C
   0.1288600000000000    0.4813300000000000    0.0554700000000000 C
   0.0974400000000000    0.0113950000000000    0.1131100000000000 C
   0.2425450000000000    0.0874700000000000    0.1106600000000000 C
   0.0715650000000000    0.1852100000000000    0.9387799999999999 C
   0.0325000000000000    0.1620500000000000    0.9925900000000000 C
   0.0431850000000000    0.1839400000000000    0.0537800000000000 C
   0.0991750000000000    0.2274900000000000    0.0600400000000000 C
   0.1363650000000000    0.2511650000000000    0.0061600000000000 C
   0.1209300000000000    0.2314700000000000    0.9444500000000000 C
   0.1523800000000000    0.2616050000000000    0.8868400000000000 C
   0.0074250000000000    0.3376350000000000    0.8894500000000000 C
   0.3217500000000000    0.0648850000000000    0.5611300000000000 C
   0.2826100000000000    0.0879350000000000    0.5073100000000000 C
   0.2932200000000000    0.0659750000000000    0.4461800000000000 C
   0.3491750000000000    0.0224700000000000    0.4399600000000000 C
   0.3864200000000000    0.4988850000000000    0.4938600000000000 C
   0.3711100000000000    0.0186800000000000    0.5555099999999999 C
   0.4024700000000000    0.4886150000000000    0.6131700000000000 C
   0.2574050000000000    0.4126000000000000    0.6107200000000000 C
   0.4284050000000000    0.3148050000000000    0.4387700000000000 C
   0.4675100000000000    0.3379450000000000    0.4925800000000000 C
   0.4568350000000000    0.3160450000000000    0.5537500000000000 C
   0.4008350000000000    0.2725050000000000    0.5600000000000001 C
   0.3636150000000000    0.2488400000000000    0.5061300000000000 C
   0.3790000000000000    0.2685650000000000    0.4444500000000000 C
   0.3475050000000000    0.2384200000000000    0.3868500000000000 C
   0.4925300000000000    0.1623850000000000    0.3895100000000000 C
   0.3217550000000000    0.0648900000000000    0.9389000000000000 C
   0.2826050000000000    0.0879450000000000    0.9927200000000000 C
   0.2932050000000000    0.0659950000000000    0.0538800000000000 C
   0.3491800000000000    0.0225000000000000    0.0601100000000000 C
   0.3864200000000000    0.4989050000000000    0.0062200000000000 C
   0.3711300000000000    0.0186900000000000    0.9445500000000000 C
   0.4025350000000000    0.4886150000000000    0.8869100000000000 C
   0.2574000000000000    0.4125600000000000    0.8893400000000000 C
   0.4283850000000000    0.3148150000000000    0.0612800000000000 C
   0.4674850000000000    0.3379650000000000    0.0074700000000000 C
   0.4568150000000000    0.3160700000000000    0.9462800000000000 C
   0.4008050000000000    0.2725250000000000    0.9400300000000000 C
   0.3636050000000000    0.2488550000000000    0.9939000000000000 C
   0.3790050000000000    0.2685650000000000    0.0556100000000000 C
   0.3475800000000000    0.2384150000000000    0.1132200000000000 C
   0.4925150000000000    0.1623900000000000    0.1105400000000000 C
   0.1782600000000000    0.4351200000000000    0.4389300000000000 C
   0.2173950000000000    0.4120800000000000    0.4927600000000000 C
   0.2067550000000000    0.4340250000000000    0.5538999999999999 C
   0.1507700000000000    0.4775150000000000    0.5601000000000000 C
   0.1135550000000000    0.0011150000000000    0.5062100000000000 C
   0.1288750000000000    0.4813200000000000    0.4445600000000000 C
   0.0974250000000000    0.0113950000000000    0.3869400000000000 C
   0.2425600000000000    0.0874650000000000    0.3894000000000000 C
   0.6782350000000000    0.4351300000000000    0.0611100000000000 C
   0.7173800000000000    0.4120800000000000    0.0072800000000000 C
   0.7067500000000000    0.4340200000000000    0.9461300000000000 C
   0.6507650000000000    0.4775100000000000    0.9399000000000000 C
   0.6135650000000000    0.0011200000000000    0.9938000000000000 C
   0.6288600000000000    0.4813300000000000    0.0554700000000000 C
   0.5974400000000000    0.0113950000000000    0.1131100000000000 C
   0.7425450000000000    0.0874700000000000    0.1106600000000000 C
   0.5715650000000000    0.1852100000000000    0.9387799999999999 C
   0.5325000000000000    0.1620500000000000    0.9925900000000000 C
   0.5431850000000000    0.1839400000000000    0.0537800000000000 C
   0.5991750000000000    0.2274900000000000    0.0600400000000000 C
   0.6363650000000000    0.2511650000000000    0.0061600000000000 C
   0.6209300000000000    0.2314700000000000    0.9444500000000000 C
   0.6523800000000000    0.2616050000000000    0.8868400000000000 C
   0.5074250000000000    0.3376350000000000    0.8894500000000000 C
   0.8217500000000000    0.0648850000000000    0.5611300000000000 C
   0.7826100000000000    0.0879350000000000    0.5073100000000000 C
   0.7932200000000000    0.0659750000000000    0.4461800000000000 C
   0.8491750000000000    0.0224700000000000    0.4399600000000000 C
   0.8864200000000000    0.4988850000000000    0.4938600000000000 C
   0.8711100000000001    0.0186800000000000    0.5555099999999999 C
   0.9024700000000000    0.4886150000000000    0.6131700000000000 C
   0.7574050000000000    0.4126000000000000    0.6107200000000000 C
   0.8217550000000000    0.0648900000000000    0.9389000000000000 C
   0.7826050000000000    0.0879450000000000    0.9927200000000000 C
   0.7932049999999999    0.0659950000000000    0.0538800000000000 C
   0.8491800000000000    0.0225000000000000    0.0601100000000000 C
   0.8864200000000000    0.4989050000000000    0.0062200000000000 C
   0.8711300000000000    0.0186900000000000    0.9445500000000000 C
   0.9025350000000000    0.4886150000000000    0.8869100000000000 C
   0.7574000000000001    0.4125600000000000    0.8893400000000000 C
   0.9283850000000000    0.3148150000000000    0.0612800000000000 C
   0.9674849999999999    0.3379650000000000    0.0074700000000000 C
   0.9568150000000000    0.3160700000000000    0.9462800000000000 C
   0.9008050000000001    0.2725250000000000    0.9400300000000000 C
   0.8636050000000000    0.2488550000000000    0.9939000000000000 C
   0.8790050000000000    0.2685650000000000    0.0556100000000000 C
   0.8475800000000000    0.2384150000000000    0.1132200000000000 C
   0.9925150000000000    0.1623900000000000    0.1105400000000000 C
   0.6782600000000000    0.4351200000000000    0.4389300000000000 C
   0.7173950000000000    0.4120800000000000    0.4927600000000000 C
   0.7067550000000000    0.4340250000000000    0.5538999999999999 C
   0.6507700000000000    0.4775150000000000    0.5601000000000000 C
   0.6135550000000000    0.0011150000000000    0.5062100000000000 C
   0.6288750000000000    0.4813200000000000    0.4445600000000000 C
   0.5974250000000000    0.0113950000000000    0.3869400000000000 C
   0.7425600000000000    0.0874650000000000    0.3894000000000000 C
   0.5715550000000000    0.1852050000000000    0.5612800000000000 C
   0.5324750000000000    0.1620650000000000    0.5074500000000000 C
   0.5431400000000000    0.1839700000000000    0.4462900000000000 C
   0.5991299999999999    0.2275200000000000    0.4400500000000000 C
   0.6363650000000000    0.2511700000000000    0.4939200000000000 C
   0.6209450000000000    0.2314550000000000    0.5556000000000000 C
   0.6524650000000000    0.2616050000000000    0.6131799999999999 C
   0.5074550000000000    0.3376500000000000    0.6105100000000000 C
   0.1782350000000000    0.9351300000000000    0.0611100000000000 C
   0.2173800000000000    0.9120800000000000    0.0072800000000000 C
   0.2067500000000000    0.9340200000000001    0.9461300000000000 C
   0.1507650000000000    0.9775100000000000    0.9399000000000000 C
   0.1135650000000000    0.5011200000000000    0.9938000000000000 C
   0.1288600000000000    0.9813300000000000    0.0554700000000000 C
   0.0974400000000000    0.5113950000000000    0.1131100000000000 C
   0.2425450000000000    0.5874700000000000    0.1106600000000000 C
   0.0715650000000000    0.6852100000000000    0.9387799999999999 C
   0.0325000000000000    0.6620500000000000    0.9925900000000000 C
   0.0431850000000000    0.6839400000000000    0.0537800000000000 C
   0.0991750000000000    0.7274900000000000    0.0600400000000000 C
   0.1363650000000000    0.7511650000000001    0.0061600000000000 C
   0.1209300000000000    0.7314700000000001    0.9444500000000000 C
   0.1523800000000000    0.7616050000000000    0.8868400000000000 C
   0.0074250000000000    0.8376350000000000    0.8894500000000000 C
   0.3217500000000000    0.5648850000000000    0.5611300000000000 C
   0.2826100000000000    0.5879350000000000    0.5073100000000000 C
   0.2932200000000000    0.5659750000000000    0.4461800000000000 C
   0.3491750000000000    0.5224700000000000    0.4399600000000000 C
   0.3864200000000000    0.9988850000000000    0.4938600000000000 C
   0.3711100000000000    0.5186800000000000    0.5555099999999999 C
   0.4024700000000000    0.9886150000000000    0.6131700000000000 C
   0.2574050000000000    0.9126000000000001    0.6107200000000000 C
   0.4284050000000000    0.8148050000000000    0.4387700000000000 C
   0.4675100000000000    0.8379449999999999    0.4925800000000000 C
   0.4568350000000000    0.8160450000000000    0.5537500000000000 C
   0.4008350000000000    0.7725050000000000    0.5600000000000001 C
   0.3636150000000000    0.7488400000000000    0.5061300000000000 C
   0.3790000000000000    0.7685649999999999    0.4444500000000000 C
   0.3475050000000000    0.7384200000000000    0.3868500000000000 C
   0.4925300000000000    0.6623850000000000    0.3895100000000000 C
   0.3217550000000000    0.5648900000000000    0.9389000000000000 C
   0.2826050000000000    0.5879449999999999    0.9927200000000000 C
   0.2932050000000000    0.5659950000000000    0.0538800000000000 C
   0.3491800000000000    0.5225000000000000    0.0601100000000000 C
   0.3864200000000000    0.9989049999999999    0.0062200000000000 C
   0.3711300000000000    0.5186900000000000    0.9445500000000000 C
   0.4025350000000000    0.9886150000000000    0.8869100000000000 C
   0.2574000000000000    0.9125600000000000    0.8893400000000000 C
   0.4283850000000000    0.8148150000000001    0.0612800000000000 C
   0.4674850000000000    0.8379650000000001    0.0074700000000000 C
   0.4568150000000000    0.8160700000000001    0.9462800000000000 C
   0.4008050000000000    0.7725250000000000    0.9400300000000000 C
   0.3636050000000000    0.7488550000000000    0.9939000000000000 C
   0.3790050000000000    0.7685649999999999    0.0556100000000000 C
   0.3475800000000000    0.7384150000000000    0.1132200000000000 C
   0.4925150000000000    0.6623900000000000    0.1105400000000000 C
   0.1782600000000000    0.9351200000000000    0.4389300000000000 C
   0.2173950000000000    0.9120800000000000    0.4927600000000000 C
   0.2067550000000000    0.9340250000000000    0.5538999999999999 C
   0.1507700000000000    0.9775150000000000    0.5601000000000000 C
   0.1135550000000000    0.5011150000000000    0.5062100000000000 C
   0.1288750000000000    0.9813200000000000    0.4445600000000000 C
   0.0974250000000000    0.5113950000000000    0.3869400000000000 C
   0.2425600000000000    0.5874650000000000    0.3894000000000000 C
   0.0715550000000000    0.6852050000000001    0.5612800000000000 C
   0.0324750000000000    0.6620650000000000    0.5074500000000000 C
   0.0431400000000000    0.6839700000000000    0.4462900000000000 C
   0.0991300000000000    0.7275199999999999    0.4400500000000000 C
   0.1363650000000000    0.7511700000000000    0.4939200000000000 C
   0.1209450000000000    0.7314550000000000    0.5556000000000000 C
   0.1524650000000000    0.7616050000000000    0.6131799999999999 C
   0.0074550000000000    0.8376500000000000    0.6105100000000000 C
   0.6782350000000000    0.9351300000000000    0.0611100000000000 C
   0.7173800000000000    0.9120800000000000    0.0072800000000000 C
   0.7067500000000000    0.9340200000000001    0.9461300000000000 C
   0.6507650000000000    0.9775100000000000    0.9399000000000000 C
   0.6135650000000000    0.5011200000000000    0.9938000000000000 C