H6 O4
1.0
  10.3776394322981034    0.0000000000000000    3.0051648562452451
   1.4974446877716063   10.2717637569927263    3.0138031998780650
   0.0000000000000000    0.0000000000000000   18.3889999999999993
H O
6 4
direct
   0.5796658756610953    0.1605564041837441    0.1368370040179067 H
   0.4603817313650684    0.3805262925616802   -0.0576378462046252 H
   0.5184493913422028    0.2693464250890700    0.0360125902060508 H
   0.5448566660383644    0.6362239172319794    0.0557844520316210 H
   0.4774803202315086    0.7545671621845673    0.9458871247682205 H
   0.4249963608737680    0.8358378219267186    0.8611342172874670 H
   0.5520600000000000    0.2335200000000000    0.0973200000000000 O
   0.4872000000000000    0.3519400000000000   -0.0087200000000000 O
   0.5142400000000000    0.6480000000000000    0.0091300000000000 O
   0.4492900000000000    0.7654100000000000    0.9029300000000000 O
