H1 O1
1.0
  36.9479804106665313    0.0000000000000000    0.0380469841455851
  -0.0167267271676867   16.2019380411214584    0.0415683564711619
   0.0000000000000000    0.0000000000000000   17.1340000000000003
H O
1 1
direct
   0.8618054672210322    0.3634837754029684    0.4682310581110840 H
   0.8799299999999999    0.3226000000000000    0.4529100000000000 O
