C1 S1 N1
1.0
  36.9479804106665313    0.0000000000000000    0.0380469841455851
  -0.0167267271676867   16.2019380411214584    0.0415683564711619
   0.0000000000000000    0.0000000000000000   17.1340000000000003
C S N
1 1 1
direct
   0.8580566666666666    0.3719400000000000    0.4714000000000000 C
   0.8277399999999999    0.4398000000000000    0.4987900000000000 S
   0.8799299999999999    0.3226000000000000    0.4529100000000000 N
