Cd24 Hg24 C89 S95 N89
1.0
  36.9479804106665313    0.0000000000000000    0.0380469841455851
  -0.0167267271676867   16.2019380411214584    0.0415683564711619
   0.0000000000000000    0.0000000000000000   17.1340000000000003
Cd Hg C S N
24 24 89 95 89
direct
   0.0859633333333333    0.7798800000000000    0.5358000000000001 Cd
   0.2525133333333333    0.2211200000000000    0.4647000000000000 Cd
   0.2525166666666666    0.7211200000000000    0.4646900000000000 Cd
   0.0855266666666667    0.9701500000000000    0.0358000000000000 Cd
   0.0855233333333333    0.4701600000000000    0.0358000000000000 Cd
   0.2522166666666666    0.5294500000000000    0.9641000000000000 Cd
   0.2522200000000000    0.0000000000000000    0.9641000000000000 Cd
   0.0859600000000000    0.2798800000000000    0.5358000000000001 Cd
   0.4192966666666667    0.7798800000000000    0.5358000000000001 Cd
   0.5858466666666666    0.2211200000000000    0.4647000000000000 Cd
   0.5858500000000000    0.7211200000000000    0.4646900000000000 Cd
   0.4188600000000000    0.9701500000000000    0.0358000000000000 Cd
   0.4188566666666667    0.4701600000000000    0.0358000000000000 Cd
   0.5855500000000000    0.5294500000000000    0.9641000000000000 Cd
   0.5855533333333334    0.0000000000000000    0.9641000000000000 Cd
   0.4192933333333333    0.2798800000000000    0.5358000000000001 Cd
   0.7526299999999999    0.7798800000000000    0.5358000000000001 Cd
   0.9191799999999999    0.2211200000000000    0.4647000000000000 Cd
   0.9191833333333332    0.7211200000000000    0.4646900000000000 Cd
   0.7521933333333333    0.9701500000000000    0.0358000000000000 Cd
   0.7521899999999999    0.4701600000000000    0.0358000000000000 Cd
   0.9188833333333333    0.5294500000000000    0.9641000000000000 Cd
   0.9188866666666666    0.0000000000000000    0.9641000000000000 Cd
   0.7526266666666667    0.2798800000000000    0.5358000000000001 Cd
   0.1464733333333333    0.5017900000000000    0.3612200000000000 Hg
   0.1464766666666666    0.0000000000000000    0.3612300000000000 Hg
   0.3129233333333333    0.9993000000000000    0.6387699999999999 Hg
   0.3129233333333333    0.4993100000000000    0.6387699999999999 Hg
   0.1460600000000000    0.2492000000000000    0.8616400000000000 Hg
   0.1460633333333333    0.7492100000000000    0.8616500000000000 Hg
   0.3126566666666666    0.2501900000000000    0.1384200000000000 Hg
   0.3126566666666666    0.7502000000000000    0.1384200000000000 Hg
   0.4798066666666666    0.5017900000000000    0.3612200000000000 Hg
   0.4798100000000000    0.0000000000000000    0.3612300000000000 Hg
   0.6462566666666667    0.9993000000000000    0.6387699999999999 Hg
   0.6462566666666667    0.4993100000000000    0.6387699999999999 Hg
   0.4793933333333333    0.2492000000000000    0.8616400000000000 Hg
   0.4793966666666666    0.7492100000000000    0.8616500000000000 Hg
   0.6459900000000000    0.2501900000000000    0.1384200000000000 Hg
   0.6459900000000000    0.7502000000000000    0.1384200000000000 Hg
   0.8131400000000000    0.5017900000000000    0.3612200000000000 Hg
   0.8131433333333333    0.0000000000000000    0.3612300000000000 Hg
   0.9795900000000000    0.9993000000000000    0.6387699999999999 Hg
   0.9795900000000000    0.4993100000000000    0.6387699999999999 Hg
   0.8127266666666666    0.2492000000000000    0.8616400000000000 Hg
   0.8127300000000000    0.7492100000000000    0.8616500000000000 Hg
   0.9793233333333333    0.2501900000000000    0.1384200000000000 Hg
   0.9793233333333333    0.7502000000000000    0.1384200000000000 Hg
   0.1462566666666666    0.1902500000000000    0.4122500000000000 C
   0.1462566666666666    0.6902600000000000    0.4122500000000000 C
   0.1348133333333333    0.4216200000000000    0.1923500000000000 C
   0.1348166666666666    0.9216299999999999    0.1923600000000000 C
   0.1913900000000000    0.3719400000000000    0.4714000000000000 C
   0.1913900000000000    0.8719400000000000    0.4714000000000000 C
   0.0699566666666667    0.4382300000000000    0.4224400000000000 C
   0.0699600000000000    0.9382400000000000    0.4224400000000000 C
   0.3127733333333333    0.3108000000000000    0.5881999999999999 C
   0.3127733333333333    0.8108100000000000    0.5881999999999999 C
   0.3012600000000000    0.0797100000000000    0.8074000000000000 C
   0.3012566666666666    0.5797200000000000    0.8074100000000000 C
   0.0246600000000000    0.1291700000000000    0.5287600000000000 C
   0.0246600000000000    0.6291800000000000    0.5287600000000000 C
   0.2364133333333333    0.0627500000000000    0.5780999999999999 C
   0.2364133333333333    0.5627500000000000    0.5780900000000000 C
   0.1347800000000000    0.3295900000000000    0.6925900000000000 C
   0.1347866666666667    0.8295900000000000    0.6925900000000000 C
   0.1910166666666666    0.3785400000000000    0.9713800000000000 C
   0.1910200000000000    0.8785500000000001    0.9713800000000000 C
   0.0695433333333333    0.3120800000000000    0.9228200000000000 C
   0.0695466666666667    0.8120900000000000    0.9228200000000000 C
   0.3124000000000000    0.4390200000000000    0.0875500000000000 C
   0.3124033333333333    0.9390300000000000    0.0875500000000000 C
   0.3013733333333333    0.1709100000000000    0.3079300000000000 C
   0.3013733333333333    0.6709100000000000    0.3079300000000000 C
   0.0242800000000000    0.1208200000000000    0.0285100000000000 C
   0.0242800000000000    0.6208300000000000    0.0285000000000000 C
   0.2361133333333333    0.1868300000000000    0.0778300000000000 C
   0.2361100000000000    0.6868400000000000    0.0778400000000000 C
   0.4795900000000000    0.1902500000000000    0.4122500000000000 C
   0.4795900000000000    0.6902600000000000    0.4122500000000000 C
   0.4681466666666667    0.4216200000000000    0.1923500000000000 C
   0.4681500000000000    0.9216299999999999    0.1923600000000000 C
   0.5247233333333333    0.3719400000000000    0.4714000000000000 C
   0.5247233333333333    0.8719400000000000    0.4714000000000000 C
   0.4032900000000000    0.4382300000000000    0.4224400000000000 C
   0.4032933333333333    0.9382400000000000    0.4224400000000000 C
   0.6461066666666666    0.3108000000000000    0.5881999999999999 C
   0.6461066666666666    0.8108100000000000    0.5881999999999999 C
   0.6345933333333333    0.0797100000000000    0.8074000000000000 C
   0.6345900000000000    0.5797200000000000    0.8074100000000000 C
   0.3579933333333333    0.1291700000000000    0.5287600000000000 C
   0.3579933333333333    0.6291800000000000    0.5287600000000000 C
   0.5697466666666666    0.0627500000000000    0.5780999999999999 C
   0.5697466666666666    0.5627500000000000    0.5780900000000000 C
   0.4681133333333333    0.3295900000000000    0.6925900000000000 C
   0.4681200000000000    0.8295900000000000    0.6925900000000000 C
   0.5243500000000000    0.3785400000000000    0.9713800000000000 C
   0.5243533333333333    0.8785500000000001    0.9713800000000000 C
   0.4028766666666667    0.3120800000000000    0.9228200000000000 C
   0.4028800000000000    0.8120900000000000    0.9228200000000000 C
   0.6457333333333333    0.4390200000000000    0.0875500000000000 C
   0.6457366666666666    0.9390300000000000    0.0875500000000000 C
   0.6347066666666666    0.1709100000000000    0.3079300000000000 C
   0.6347066666666666    0.6709100000000000    0.3079300000000000 C
   0.3576133333333333    0.1208200000000000    0.0285100000000000 C
   0.3576133333333333    0.6208300000000000    0.0285000000000000 C
   0.5694466666666667    0.1868300000000000    0.0778300000000000 C
   0.5694433333333333    0.6868400000000000    0.0778400000000000 C
   0.8129233333333332    0.1902500000000000    0.4122500000000000 C
   0.8129233333333332    0.6902600000000000    0.4122500000000000 C
   0.8014800000000000    0.4216200000000000    0.1923500000000000 C
   0.8014833333333333    0.9216299999999999    0.1923600000000000 C
   0.8580566666666666    0.8719400000000000    0.4714000000000000 C
   0.7366233333333333    0.4382300000000000    0.4224400000000000 C
   0.7366266666666667    0.9382400000000000    0.4224400000000000 C
   0.9794400000000000    0.3108000000000000    0.5881999999999999 C
   0.9794400000000000    0.8108100000000000    0.5881999999999999 C
   0.9679266666666666    0.0797100000000000    0.8074000000000000 C
   0.9679233333333332    0.5797200000000000    0.8074100000000000 C
   0.6913266666666666    0.1291700000000000    0.5287600000000000 C
   0.6913266666666666    0.6291800000000000    0.5287600000000000 C
   0.9030799999999999    0.0627500000000000    0.5780999999999999 C
   0.9030799999999999    0.5627500000000000    0.5780900000000000 C
   0.8014466666666666    0.3295900000000000    0.6925900000000000 C
   0.8014533333333334    0.8295900000000000    0.6925900000000000 C
   0.8576833333333332    0.3785400000000000    0.9713800000000000 C
   0.8576866666666666    0.8785500000000001    0.9713800000000000 C
   0.7362099999999999    0.3120800000000000    0.9228200000000000 C
   0.7362133333333333    0.8120900000000000    0.9228200000000000 C
   0.9790666666666666    0.4390200000000000    0.0875500000000000 C
   0.9790699999999999    0.9390300000000000    0.0875500000000000 C
   0.9680400000000000    0.1709100000000000    0.3079300000000000 C
   0.9680400000000000    0.6709100000000000    0.3079300000000000 C
   0.6909466666666666    0.1208200000000000    0.0285100000000000 C
   0.6909466666666666    0.6208300000000000    0.0285000000000000 C
   0.9027799999999999    0.1868300000000000    0.0778300000000000 C
   0.9027766666666666    0.6868400000000000    0.0778400000000000 C
   0.1733633333333333    0.1485900000000000    0.3469500000000000 S
   0.1733633333333333    0.6485900000000000    0.3469400000000000 S
   0.1610733333333333    0.4398000000000000    0.4987900000000000 S
   0.1610766666666666    0.9398000000000000    0.4988000000000000 S
   0.0754600000000000    0.5146400000000000    0.3605800000000000 S
   0.0754633333333333    0.0000000000000000    0.3605800000000000 S
   0.1659966666666667    0.3962100000000000    0.2563900000000000 S
   0.1660000000000000    0.8962200000000000    0.2563900000000000 S
   0.0064233333333333    0.3527000000000000    0.6535600000000000 S
   0.0064233333333333    0.8527100000000000    0.6535600000000000 S
   0.3277200000000000    0.0612200000000000    0.5011800000000000 S
   0.3277200000000000    0.5612300000000000    0.5011800000000000 S
   0.2419100000000000    0.9861600000000000    0.6397000000000000 S
   0.2419100000000000    0.4861700000000000    0.6397000000000000 S
   0.3323166666666666    0.1056300000000000    0.7430800000000000 S
   0.3323133333333333    0.6056400000000000    0.7430800000000000 S
   0.1607400000000000    0.3104600000000000    0.0000000000000000 S
   0.1607433333333333    0.8104700000000000    0.0000000000000000 S
   0.0750333333333333    0.2362500000000000    0.8607300000000000 S
   0.0750366666666667    0.7362600000000000    0.8607300000000000 S
   0.1656233333333333    0.3557300000000000    0.7570600000000000 S
   0.1656300000000000    0.8557300000000000    0.7570600000000000 S
   0.0060400000000000    0.3970200000000000    0.1530000000000000 S
   0.0060400000000000    0.8970200000000000    0.1530000000000000 S
   0.3272833333333333    0.1886800000000000    0.0010100000000000 S
   0.3272833333333333    0.6886900000000000    0.0010000000000000 S
   0.2416200000000000    0.2628000000000000    0.1397700000000000 S
   0.2416200000000000    0.7628100000000000    0.1397700000000000 S
   0.3322100000000000    0.1444100000000000    0.2435100000000000 S
   0.3322100000000000    0.6444100000000000    0.2435000000000000 S
   0.1728633333333333    0.1026500000000000    0.8465900000000000 S
   0.1728666666666666    0.6026500000000000    0.8465900000000000 S
   0.5066966666666667    0.1485900000000000    0.3469500000000000 S
   0.5066966666666667    0.6485900000000000    0.3469400000000000 S
   0.4944066666666667    0.4398000000000000    0.4987900000000000 S
   0.4944100000000000    0.9398000000000000    0.4988000000000000 S
   0.4087933333333333    0.5146400000000000    0.3605800000000000 S
   0.4087966666666666    0.0000000000000000    0.3605800000000000 S
   0.4993299999999999    0.3962100000000000    0.2563900000000000 S
   0.4993333333333333    0.8962200000000000    0.2563900000000000 S
   0.3397566666666667    0.3527000000000000    0.6535600000000000 S
   0.3397566666666667    0.8527100000000000    0.6535600000000000 S
   0.6610533333333333    0.0612200000000000    0.5011800000000000 S
   0.6610533333333333    0.5612300000000000    0.5011800000000000 S
   0.5752433333333333    0.9861600000000000    0.6397000000000000 S
   0.5752433333333333    0.4861700000000000    0.6397000000000000 S
   0.6656500000000000    0.1056300000000000    0.7430800000000000 S
   0.6656466666666667    0.6056400000000000    0.7430800000000000 S
   0.4940733333333333    0.3104600000000000    0.0000000000000000 S
   0.4940766666666666    0.8104700000000000    0.0000000000000000 S
   0.4083666666666667    0.2362500000000000    0.8607300000000000 S
   0.4083700000000000    0.7362600000000000    0.8607300000000000 S
   0.4989566666666666    0.3557300000000000    0.7570600000000000 S
   0.4989633333333333    0.8557300000000000    0.7570600000000000 S
   0.3393733333333333    0.3970200000000000    0.1530000000000000 S
   0.3393733333333333    0.8970200000000000    0.1530000000000000 S
   0.6606166666666666    0.1886800000000000    0.0010100000000000 S
   0.6606166666666666    0.6886900000000000    0.0010000000000000 S
   0.5749533333333333    0.2628000000000000    0.1397700000000000 S
   0.5749533333333333    0.7628100000000000    0.1397700000000000 S
   0.6655433333333334    0.1444100000000000    0.2435100000000000 S
   0.6655433333333334    0.6444100000000000    0.2435000000000000 S
   0.5061966666666666    0.1026500000000000    0.8465900000000000 S
   0.5062000000000000    0.6026500000000000    0.8465900000000000 S
   0.8400299999999999    0.1485900000000000    0.3469500000000000 S
   0.8400299999999999    0.6485900000000000    0.3469400000000000 S
   0.8277433333333333    0.9398000000000000    0.4988000000000000 S
   0.7421266666666666    0.5146400000000000    0.3605800000000000 S
   0.7421300000000000    0.0000000000000000    0.3605800000000000 S
   0.8326633333333333    0.3962100000000000    0.2563900000000000 S
   0.8326666666666667    0.8962200000000000    0.2563900000000000 S
   0.6730900000000000    0.3527000000000000    0.6535600000000000 S
   0.6730900000000000    0.8527100000000000    0.6535600000000000 S
   0.9943866666666666    0.0612200000000000    0.5011800000000000 S
   0.9943866666666666    0.5612300000000000    0.5011800000000000 S
   0.9085766666666666    0.9861600000000000    0.6397000000000000 S
   0.9085766666666666    0.4861700000000000    0.6397000000000000 S
   0.9989833333333333    0.1056300000000000    0.7430800000000000 S
   0.9989800000000000    0.6056400000000000    0.7430800000000000 S
   0.8274066666666666    0.3104600000000000    0.0000000000000000 S
   0.8274100000000000    0.8104700000000000    0.0000000000000000 S
   0.7416999999999999    0.2362500000000000    0.8607300000000000 S
   0.7417033333333333    0.7362600000000000    0.8607300000000000 S
   0.8322900000000000    0.3557300000000000    0.7570600000000000 S
   0.8322966666666667    0.8557300000000000    0.7570600000000000 S
   0.6727066666666667    0.3970200000000000    0.1530000000000000 S
   0.6727066666666667    0.8970200000000000    0.1530000000000000 S
   0.9939499999999999    0.1886800000000000    0.0010100000000000 S
   0.9939499999999999    0.6886900000000000    0.0010000000000000 S
   0.9082866666666666    0.2628000000000000    0.1397700000000000 S
   0.9082866666666666    0.7628100000000000    0.1397700000000000 S
   0.9988766666666666    0.1444100000000000    0.2435100000000000 S
   0.9988766666666666    0.6444100000000000    0.2435000000000000 S
   0.8395299999999999    0.1026500000000000    0.8465900000000000 S
   0.8395333333333332    0.6026500000000000    0.8465900000000000 S
   0.1274066666666667    0.2217000000000000    0.4590000000000000 N
   0.1274066666666667    0.7217100000000000    0.4589900000000000 N
   0.1124500000000000    0.4374200000000000    0.1455200000000000 N
   0.1124533333333333    0.9374300000000000    0.1455200000000000 N
   0.2132633333333333    0.3226000000000000    0.4529100000000000 N
   0.2132633333333333    0.8226000000000000    0.4529100000000000 N
   0.0652333333333333    0.3838400000000000    0.4674500000000000 N
   0.0652333333333333    0.8838500000000000    0.4674500000000000 N
   0.2940066666666666    0.2792000000000000    0.5414099999999999 N
   0.2940100000000000    0.7792100000000000    0.5414099999999999 N
   0.2789733333333333    0.0635500000000000    0.8544300000000000 N
   0.2789700000000000    0.5635500000000000    0.8544300000000000 N
   0.0465000000000000    0.1785700000000000    0.5474400000000000 N
   0.0465033333333333    0.6785800000000000    0.5474400000000000 N
   0.2316833333333333    0.1172900000000000    0.5333000000000000 N
   0.2316833333333333    0.6172900000000000    0.5332900000000000 N
   0.1126533333333333    0.3132300000000000    0.6454700000000000 N
   0.1126566666666667    0.8132400000000000    0.6454700000000000 N
   0.2128533333333333    0.4280200000000000    0.9525300000000000 N
   0.2128533333333333    0.9280400000000000    0.9525200000000000 N
   0.0648333333333333    0.3660300000000000    0.0000000000000000 N
   0.0648366666666667    0.8660400000000000    0.0000000000000000 N
   0.2936500000000000    0.4707300000000000    0.0407000000000000 N
   0.2936533333333333    0.9707300000000000    0.0407000000000000 N
   0.2792466666666666    0.1875500000000000    0.3550400000000000 N
   0.2792500000000000    0.6875599999999999    0.3550400000000000 N
   0.0461633333333333    0.0714700000000000    0.0470700000000000 N
   0.0461600000000000    0.5714800000000000    0.0470700000000000 N
   0.2313833333333333    0.1327400000000000    0.0327800000000000 N
   0.2313833333333333    0.6327500000000000    0.0327900000000000 N
   0.4607400000000000    0.2217000000000000    0.4590000000000000 N
   0.4607400000000000    0.7217100000000000    0.4589900000000000 N
   0.4457833333333333    0.4374200000000000    0.1455200000000000 N
   0.4457866666666667    0.9374300000000000    0.1455200000000000 N
   0.5465966666666666    0.3226000000000000    0.4529100000000000 N
   0.5465966666666666    0.8226000000000000    0.4529100000000000 N
   0.3985666666666666    0.3838400000000000    0.4674500000000000 N
   0.3985666666666666    0.8838500000000000    0.4674500000000000 N
   0.6273400000000000    0.2792000000000000    0.5414099999999999 N
   0.6273433333333334    0.7792100000000000    0.5414099999999999 N
   0.6123066666666666    0.0635500000000000    0.8544300000000000 N
   0.6123033333333333    0.5635500000000000    0.8544300000000000 N
   0.3798333333333333    0.1785700000000000    0.5474400000000000 N
   0.3798366666666667    0.6785800000000000    0.5474400000000000 N
   0.5650166666666666    0.1172900000000000    0.5333000000000000 N
   0.5650166666666666    0.6172900000000000    0.5332900000000000 N
   0.4459866666666666    0.3132300000000000    0.6454700000000000 N
   0.4459900000000000    0.8132400000000000    0.6454700000000000 N
   0.5461866666666666    0.4280200000000000    0.9525300000000000 N
   0.5461866666666666    0.9280400000000000    0.9525200000000000 N
   0.3981666666666667    0.3660300000000000    0.0000000000000000 N
   0.3981700000000000    0.8660400000000000    0.0000000000000000 N
   0.6269833333333332    0.4707300000000000    0.0407000000000000 N
   0.6269866666666666    0.9707300000000000    0.0407000000000000 N
   0.6125799999999999    0.1875500000000000    0.3550400000000000 N
   0.6125833333333333    0.6875599999999999    0.3550400000000000 N
   0.3794966666666666    0.0714700000000000    0.0470700000000000 N
   0.3794933333333333    0.5714800000000000    0.0470700000000000 N
   0.5647166666666666    0.1327400000000000    0.0327800000000000 N
   0.5647166666666666    0.6327500000000000    0.0327900000000000 N
   0.7940733333333333    0.2217000000000000    0.4590000000000000 N
   0.7940733333333333    0.7217100000000000    0.4589900000000000 N
   0.7791166666666667    0.4374200000000000    0.1455200000000000 N
   0.7791199999999999    0.9374300000000000    0.1455200000000000 N
   0.8799299999999999    0.8226000000000000    0.4529100000000000 N
   0.7319000000000000    0.3838400000000000    0.4674500000000000 N
   0.7319000000000000    0.8838500000000000    0.4674500000000000 N
   0.9606733333333333    0.2792000000000000    0.5414099999999999 N
   0.9606766666666666    0.7792100000000000    0.5414099999999999 N
   0.9456399999999999    0.0635500000000000    0.8544300000000000 N
   0.9456366666666667    0.5635500000000000    0.8544300000000000 N
   0.7131666666666666    0.1785700000000000    0.5474400000000000 N
   0.7131700000000000    0.6785800000000000    0.5474400000000000 N
   0.8983500000000000    0.1172900000000000    0.5333000000000000 N
   0.8983500000000000    0.6172900000000000    0.5332900000000000 N
   0.7793200000000000    0.3132300000000000    0.6454700000000000 N
   0.7793233333333333    0.8132400000000000    0.6454700000000000 N
   0.8795200000000000    0.4280200000000000    0.9525300000000000 N
   0.8795200000000000    0.9280400000000000    0.9525200000000000 N
   0.7314999999999999    0.3660300000000000    0.0000000000000000 N
   0.7315033333333333    0.8660400000000000    0.0000000000000000 N
   0.9603166666666666    0.4707300000000000    0.0407000000000000 N
   0.9603200000000000    0.9707300000000000    0.0407000000000000 N
   0.9459133333333333    0.1875500000000000    0.3550400000000000 N
   0.9459166666666666    0.6875599999999999    0.3550400000000000 N
   0.7128300000000000    0.0714700000000000    0.0470700000000000 N
   0.7128266666666666    0.5714800000000000    0.0470700000000000 N
   0.8980500000000000    0.1327400000000000    0.0327800000000000 N
   0.8980500000000000    0.6327500000000000    0.0327900000000000 N
