H9 O6
1.0
  28.4777862335077856    0.0000000000000000   -0.1103414638041160
  -0.0476656936708984   14.5417104016688050    0.0784256057942169
   0.0000000000000000    0.0000000000000000   30.1359999999999992
H O
9 6
direct
   0.9432749156751609    0.3325444183157286    0.6533663860207879 H
  -0.0176097681744850    0.3686092486652283    0.7221945350208028 H
   0.1361040260786865    0.2383955598612771    0.7634952615474060 H
   0.1740944115283604    0.0188155570343256    0.6990364223883521 H
   0.1541256499444392    0.1232700213337305    0.7235466560399481 H
   0.1236521766382449    1.0008518133687767    0.5961519616772173 H
   0.0057403683275105    1.1183191732257638    0.5643335694761965 H
   0.0587780373637944    1.0760941451470205    0.5802327245280856 H
   0.5936066600787148    0.3749289932424192    0.6905319328940439 H
   0.9772550000000000    0.3317300000000000    0.6556649999999999 O
   0.0162200000000000    0.3648000000000000    0.7191200000000000 O
   0.1521750000000000    0.1798100000000000    0.7655500000000000 O
   0.1728450000000000    0.0550300000000000    0.7259400000000000 O
   0.0933350000000000    0.9915600000000000    0.5820650000000001 O
   0.0269850000000000    1.0663499999999999    0.5654600000000000 O
