H4 C8 N8
1.0
  19.8239999516901158    0.0000000000000000    0.0013839762825392
   2.4703262274487576   17.1217081205510908    0.0006038490144819
   0.0000000000000000    0.0000000000000000   36.7620000000000005
H C N
4 8 8
direct
   0.1993133333333333    0.3428200000000000    0.5678750000000000 H
   0.2284900000000000    0.1229100000000000    0.6242350000000000 H
   0.1183533333333333    0.1599100000000000    0.6565350000000000 H
   0.0899766666666667    0.3808700000000000    0.6011400000000000 H
   0.2847400000000000    0.2056400000000000    0.5742050000000000 C
   0.2210933333333333    0.2302300000000000    0.5937600000000000 C
   0.1812100000000000    0.3027400000000000    0.5872250000000000 C
   0.1979733333333333    0.1794900000000000    0.6193400000000000 C
   0.0346500000000000    0.2973200000000000    0.6520600000000000 C
   0.0972533333333333    0.2734200000000000    0.6314550000000000 C
   0.1368500000000000    0.2005500000000000    0.6376500000000001 C
   0.1202800000000000    0.3240700000000000    0.6058150000000000 C
   0.3307300000000000    0.1436500000000000    0.5847599999999999 N
   0.3039700000000000    0.2378900000000000    0.5431300000000000 N
   0.2926600000000000    0.3066800000000000    0.6935050000000000 N
   0.2731333333333333    0.3639900000000000    0.6693750000000001 N
   0.3200366666666666    0.3589500000000000    0.6431450000000000 N
   0.0189566666666667    0.2637100000000000    0.6835050000000000 N
   0.3630300000000000    0.1930200000000000    0.5349600000000000 N
   0.3795300000000000    0.1367500000000000    0.5599400000000000 N
