H4 O2
1.0
  19.8239999516901158    0.0000000000000000    0.0013839762825392
   2.4703262274487576   17.1217081205510908    0.0006038490144819
   0.0000000000000000    0.0000000000000000   36.7620000000000005
H O
4 2
direct
   0.5330292474222905    0.1052499154784008    0.9714798973419476 H
   0.5218364057207477    0.0969372983175108    1.0164880939282814 H
   0.8001356464615453    0.8947941365400803    0.0285546330683062 H
   0.8113810312583251    0.9031154107199805   -0.0164793033546134 H
   0.5052366666666667    0.1192100000000000    0.9931350000000000 O
   0.8278799999999999    0.8808100000000000    0.0068850000000000 O
