H4 O2
1.0
  28.8359999999999985    0.0000000000000000    0.0000000000000018
   0.0074895568006030   28.6079969107114280    0.0109846831631159
   0.0000000000000000    0.0000000000000000   30.8719999999999999
H O
4 2
direct
   0.7191627739685078    0.1251256976682082    0.1520787853263496 H
   0.7191742063904355    0.1252562712623800    0.0978976212546260 H
   0.7808208016851578    0.1250292202559359    0.1520923663336575 H
   0.7808304842892273    0.1251561748002319    0.0979121627175121 H
   0.7015500000000000    0.1252200000000000    0.1249850000000000 O
   0.7984450000000001    0.1250800000000000    0.1250050000000000 O
