Zn56 H348 C348 N174 F16
1.0
  28.8359999999999985    0.0000000000000000    0.0000000000000018
   0.0074895568006030   28.6079969107114280    0.0109846831631159
   0.0000000000000000    0.0000000000000000   30.8719999999999999
Zn H C N F
56 348 348 174 16
direct
   0.1250000000000000    0.1252650000000000    0.3749250000000000 Zn
   0.1250000000000000    0.3749650000000000    0.1250500000000000 Zn
   0.3749950000000000    0.1252100000000000    0.1250000000000000 Zn
   0.3749950000000000    0.1252150000000000    0.3749950000000000 Zn
   0.3749950000000000    0.3747950000000000    0.1249850000000000 Zn
   0.3749950000000000    0.3747950000000000    0.3749850000000000 Zn
   0.1250000000000000    0.1253350000000000    0.1249800000000000 Zn
   0.6250000000000000    0.1252650000000000    0.3749250000000000 Zn
   0.6250000000000000    0.3749650000000000    0.1250500000000000 Zn
   0.8749950000000000    0.1252100000000000    0.1250000000000000 Zn
   0.8749950000000000    0.1252150000000000    0.3749950000000000 Zn
   0.8749950000000000    0.3747950000000000    0.1249850000000000 Zn
   0.8749950000000000    0.3747950000000000    0.3749850000000000 Zn
   0.6250000000000000    0.1253350000000000    0.1249800000000000 Zn
   0.1250000000000000    0.6252650000000000    0.3749250000000000 Zn
   0.1250000000000000    0.8749650000000000    0.1250500000000000 Zn
   0.3749950000000000    0.6252100000000000    0.1250000000000000 Zn
   0.3749950000000000    0.6252150000000000    0.3749950000000000 Zn
   0.3749950000000000    0.8747950000000000    0.1249850000000000 Zn
   0.3749950000000000    0.8747950000000000    0.3749850000000000 Zn
   0.1250000000000000    0.6253350000000000    0.1249800000000000 Zn
   0.6250000000000000    0.6252650000000000    0.3749250000000000 Zn
   0.6250000000000000    0.8749650000000000    0.1250500000000000 Zn
   0.8749950000000000    0.6252100000000000    0.1250000000000000 Zn
   0.8749950000000000    0.6252150000000000    0.3749950000000000 Zn
   0.8749950000000000    0.8747950000000000    0.1249850000000000 Zn
   0.8749950000000000    0.8747950000000000    0.3749850000000000 Zn
   0.6250000000000000    0.6253350000000000    0.1249800000000000 Zn
   0.1250000000000000    0.1252650000000000    0.8749250000000000 Zn
   0.1250000000000000    0.3749650000000000    0.6250500000000000 Zn
   0.3749950000000000    0.1252100000000000    0.6250000000000000 Zn
   0.3749950000000000    0.1252150000000000    0.8749950000000000 Zn
   0.3749950000000000    0.3747950000000000    0.6249850000000000 Zn
   0.3749950000000000    0.3747950000000000    0.8749850000000000 Zn
   0.1250000000000000    0.1253350000000000    0.6249800000000000 Zn
   0.6250000000000000    0.1252650000000000    0.8749250000000000 Zn
   0.6250000000000000    0.3749650000000000    0.6250500000000000 Zn
   0.8749950000000000    0.1252100000000000    0.6250000000000000 Zn
   0.8749950000000000    0.1252150000000000    0.8749950000000000 Zn
   0.8749950000000000    0.3747950000000000    0.6249850000000000 Zn
   0.8749950000000000    0.3747950000000000    0.8749850000000000 Zn
   0.6250000000000000    0.1253350000000000    0.6249800000000000 Zn
   0.1250000000000000    0.6252650000000000    0.8749250000000000 Zn
   0.1250000000000000    0.8749650000000000    0.6250500000000000 Zn
   0.3749950000000000    0.6252100000000000    0.6250000000000000 Zn
   0.3749950000000000    0.6252150000000000    0.8749950000000000 Zn
   0.3749950000000000    0.8747950000000000    0.6249850000000000 Zn
   0.3749950000000000    0.8747950000000000    0.8749850000000000 Zn
   0.1250000000000000    0.6253350000000000    0.6249800000000000 Zn
   0.6250000000000000    0.6252650000000000    0.8749250000000000 Zn
   0.6250000000000000    0.8749650000000000    0.6250500000000000 Zn
   0.8749950000000000    0.6252100000000000    0.6250000000000000 Zn
   0.8749950000000000    0.6252150000000000    0.8749950000000000 Zn
   0.8749950000000000    0.8747950000000000    0.6249850000000000 Zn
   0.8749950000000000    0.8747950000000000    0.8749850000000000 Zn
   0.6250000000000000    0.6253350000000000    0.6249800000000000 Zn
   0.1252050000000000    0.2063400000000000    0.1928550000000000 H
   0.1248950000000000    0.4564800000000000    0.1924550000000000 H
   0.3749550000000000    0.2061550000000000    0.1926550000000000 H
   0.3749500000000000    0.2061500000000000    0.4426550000000000 H
   0.3749750000000000    0.4562100000000000    0.1926700000000000 H
   0.3749950000000000    0.4562100000000000    0.4426500000000000 H
   0.1249050000000000    0.0439950000000000    0.1924350000000000 H
   0.1252150000000000    0.2940000000000000    0.1929050000000000 H
   0.3750000000000000    0.0437400000000000    0.1926750000000000 H
   0.3750000000000000    0.0437400000000000    0.4426700000000000 H
   0.3749750000000000    0.2938100000000000    0.1926550000000000 H
   0.3749500000000000    0.2938050000000000    0.4426600000000000 H
   0.0435100000000000    0.1254850000000000    0.1926200000000000 H
   0.0434900000000000    0.1246500000000000    0.4426500000000000 H
   0.0434800000000000    0.3751350000000000    0.1926500000000000 H
   0.2934750000000000    0.1249400000000000    0.1926550000000000 H
   0.2934850000000000    0.1251850000000000    0.4426250000000000 H
   0.2064950000000000    0.1250700000000000    0.1926400000000000 H
   0.2065150000000000    0.1252950000000000    0.4426350000000000 H
   0.4565200000000000    0.1253550000000000    0.1926350000000000 H
   0.4565100000000000    0.1248450000000000    0.4426450000000000 H
   0.4564900000000000    0.3749950000000000    0.1926500000000000 H
   0.1246350000000000    0.2064900000000000    0.0575000000000000 H
   0.1251700000000000    0.4564550000000000    0.0571200000000000 H
   0.3749750000000000    0.2062050000000000    0.0573250000000000 H
   0.3749700000000000    0.2062050000000000    0.3073250000000000 H
   0.3749800000000000    0.4562700000000000    0.0573150000000000 H
   0.3749600000000000    0.4562700000000000    0.3073000000000000 H
   0.1253450000000000    0.0440250000000000    0.0570900000000000 H
   0.1248150000000000    0.2940950000000000    0.0575550000000000 H
   0.3749850000000000    0.0438000000000000    0.0573200000000000 H
   0.3749850000000000    0.0438000000000000    0.3073150000000000 H
   0.3749750000000000    0.2938600000000000    0.0573250000000000 H
   0.3749950000000000    0.2938600000000000    0.3073250000000000 H
   0.2065350000000000    0.1254450000000000    0.0573300000000000 H
   0.2065100000000000    0.1249950000000000    0.3073000000000000 H
   0.4565000000000000    0.1248850000000000    0.0573350000000000 H
   0.4565050000000000    0.1253450000000000    0.3073450000000000 H
   0.4565200000000000    0.3748100000000000    0.0573500000000000 H
   0.0434750000000000    0.1247750000000000    0.0573100000000000 H
   0.0434900000000000    0.1253750000000000    0.3073400000000000 H
   0.0435100000000000    0.3749150000000000    0.0573650000000000 H
   0.2935000000000000    0.1252500000000000    0.0573550000000000 H
   0.2934900000000000    0.1249600000000000    0.3073250000000000 H
   0.6252050000000000    0.2063400000000000    0.1928550000000000 H
   0.6248950000000000    0.4564800000000000    0.1924550000000000 H
   0.8749549999999999    0.2061550000000000    0.1926550000000000 H
   0.8749500000000000    0.2061500000000000    0.4426550000000000 H
   0.8749750000000001    0.4562100000000000    0.1926700000000000 H
   0.8749950000000000    0.4562100000000000    0.4426500000000000 H
   0.6249050000000000    0.0439950000000000    0.1924350000000000 H
   0.6252150000000000    0.2940000000000000    0.1929050000000000 H
   0.8750000000000000    0.0437400000000000    0.1926750000000000 H
   0.8750000000000000    0.0437400000000000    0.4426700000000000 H
   0.8749750000000001    0.2938100000000000    0.1926550000000000 H
   0.8749500000000000    0.2938050000000000    0.4426600000000000 H
   0.5435100000000000    0.1254850000000000    0.1926200000000000 H
   0.5434900000000000    0.1246500000000000    0.4426500000000000 H
   0.5434800000000000    0.3751350000000000    0.1926500000000000 H
   0.7934850000000000    0.1251850000000000    0.4426250000000000 H
   0.7065150000000000    0.1252950000000000    0.4426350000000000 H
   0.9565200000000000    0.1253550000000000    0.1926350000000000 H
   0.9565100000000000    0.1248450000000000    0.4426450000000000 H
   0.9564900000000001    0.3749950000000000    0.1926500000000000 H
   0.6246350000000001    0.2064900000000000    0.0575000000000000 H
   0.6251700000000000    0.4564550000000000    0.0571200000000000 H
   0.8749750000000001    0.2062050000000000    0.0573250000000000 H
   0.8749700000000000    0.2062050000000000    0.3073250000000000 H
   0.8749800000000000    0.4562700000000000    0.0573150000000000 H
   0.8749600000000000    0.4562700000000000    0.3073000000000000 H
   0.6253450000000000    0.0440250000000000    0.0570900000000000 H
   0.6248150000000000    0.2940950000000000    0.0575550000000000 H
   0.8749850000000000    0.0438000000000000    0.0573200000000000 H
   0.8749850000000000    0.0438000000000000    0.3073150000000000 H
   0.8749750000000001    0.2938600000000000    0.0573250000000000 H
   0.8749950000000000    0.2938600000000000    0.3073250000000000 H
   0.7065100000000000    0.1249950000000000    0.3073000000000000 H
   0.9565000000000000    0.1248850000000000    0.0573350000000000 H
   0.9565049999999999    0.1253450000000000    0.3073450000000000 H
   0.9565200000000000    0.3748100000000000    0.0573500000000000 H
   0.5434750000000000    0.1247750000000000    0.0573100000000000 H
   0.5434900000000000    0.1253750000000000    0.3073400000000000 H
   0.5435100000000000    0.3749150000000000    0.0573650000000000 H
   0.7934900000000000    0.1249600000000000    0.3073250000000000 H
   0.1252050000000000    0.7063400000000000    0.1928550000000000 H
   0.1248950000000000    0.9564800000000000    0.1924550000000000 H
   0.3749550000000000    0.7061550000000000    0.1926550000000000 H
   0.3749500000000000    0.7061500000000001    0.4426550000000000 H
   0.3749750000000000    0.9562100000000000    0.1926700000000000 H
   0.3749950000000000    0.9562100000000000    0.4426500000000000 H
   0.1249050000000000    0.5439950000000000    0.1924350000000000 H
   0.1252150000000000    0.7940000000000000    0.1929050000000000 H
   0.3750000000000000    0.5437400000000000    0.1926750000000000 H
   0.3750000000000000    0.5437400000000000    0.4426700000000000 H
   0.3749750000000000    0.7938100000000000    0.1926550000000000 H
   0.3749500000000000    0.7938050000000000    0.4426600000000000 H
   0.0435100000000000    0.6254850000000001    0.1926200000000000 H
   0.0434900000000000    0.6246500000000000    0.4426500000000000 H
   0.0434800000000000    0.8751350000000000    0.1926500000000000 H
   0.2934750000000000    0.6249400000000001    0.1926550000000000 H
   0.2934850000000000    0.6251850000000000    0.4426250000000000 H
   0.2064950000000000    0.6250700000000000    0.1926400000000000 H
   0.2065150000000000    0.6252949999999999    0.4426350000000000 H
   0.4565200000000000    0.6253550000000000    0.1926350000000000 H
   0.4565100000000000    0.6248450000000000    0.4426450000000000 H
   0.4564900000000000    0.8749950000000000    0.1926500000000000 H
   0.1246350000000000    0.7064900000000001    0.0575000000000000 H
   0.1251700000000000    0.9564550000000001    0.0571200000000000 H
   0.3749750000000000    0.7062050000000000    0.0573250000000000 H
   0.3749700000000000    0.7062050000000000    0.3073250000000000 H
   0.3749800000000000    0.9562700000000000    0.0573150000000000 H
   0.3749600000000000    0.9562700000000000    0.3073000000000000 H
   0.1253450000000000    0.5440250000000000    0.0570900000000000 H
   0.1248150000000000    0.7940950000000000    0.0575550000000000 H
   0.3749850000000000    0.5438000000000000    0.0573200000000000 H
   0.3749850000000000    0.5438000000000000    0.3073150000000000 H
   0.3749750000000000    0.7938600000000000    0.0573250000000000 H
   0.3749950000000000    0.7938600000000000    0.3073250000000000 H
   0.2065350000000000    0.6254450000000000    0.0573300000000000 H
   0.2065100000000000    0.6249950000000000    0.3073000000000000 H
   0.4565000000000000    0.6248850000000000    0.0573350000000000 H
   0.4565050000000000    0.6253450000000000    0.3073450000000000 H
   0.4565200000000000    0.8748100000000000    0.0573500000000000 H
   0.0434750000000000    0.6247750000000000    0.0573100000000000 H
   0.0434900000000000    0.6253750000000000    0.3073400000000000 H
   0.0435100000000000    0.8749150000000000    0.0573650000000000 H
   0.2935000000000000    0.6252500000000000    0.0573550000000000 H
   0.2934900000000000    0.6249600000000000    0.3073250000000000 H
   0.6252050000000000    0.7063400000000000    0.1928550000000000 H
   0.6248950000000000    0.9564800000000000    0.1924550000000000 H
   0.8749549999999999    0.7061550000000000    0.1926550000000000 H
   0.8749500000000000    0.7061500000000001    0.4426550000000000 H
   0.8749750000000001    0.9562100000000000    0.1926700000000000 H
   0.8749950000000000    0.9562100000000000    0.4426500000000000 H
   0.6249050000000000    0.5439950000000000    0.1924350000000000 H
   0.6252150000000000    0.7940000000000000    0.1929050000000000 H
   0.8750000000000000    0.5437400000000000    0.1926750000000000 H
   0.8750000000000000    0.5437400000000000    0.4426700000000000 H
   0.8749750000000001    0.7938100000000000    0.1926550000000000 H
   0.8749500000000000    0.7938050000000000    0.4426600000000000 H
   0.5435100000000000    0.6254850000000001    0.1926200000000000 H
   0.5434900000000000    0.6246500000000000    0.4426500000000000 H
   0.5434800000000000    0.8751350000000000    0.1926500000000000 H
   0.7934749999999999    0.6249400000000001    0.1926550000000000 H
   0.7934850000000000    0.6251850000000000    0.4426250000000000 H
   0.7064950000000000    0.6250700000000000    0.1926400000000000 H
   0.7065150000000000    0.6252949999999999    0.4426350000000000 H
   0.9565200000000000    0.6253550000000000    0.1926350000000000 H
   0.9565100000000000    0.6248450000000000    0.4426450000000000 H
   0.9564900000000001    0.8749950000000000    0.1926500000000000 H
   0.6246350000000001    0.7064900000000001    0.0575000000000000 H
   0.6251700000000000    0.9564550000000001    0.0571200000000000 H
   0.8749750000000001    0.7062050000000000    0.0573250000000000 H
   0.8749700000000000    0.7062050000000000    0.3073250000000000 H
   0.8749800000000000    0.9562700000000000    0.0573150000000000 H
   0.8749600000000000    0.9562700000000000    0.3073000000000000 H
   0.6253450000000000    0.5440250000000000    0.0570900000000000 H
   0.6248150000000000    0.7940950000000000    0.0575550000000000 H
   0.8749850000000000    0.5438000000000000    0.0573200000000000 H
   0.8749850000000000    0.5438000000000000    0.3073150000000000 H
   0.8749750000000001    0.7938600000000000    0.0573250000000000 H
   0.8749950000000000    0.7938600000000000    0.3073250000000000 H
   0.7065350000000000    0.6254450000000000    0.0573300000000000 H
   0.7065100000000000    0.6249950000000000    0.3073000000000000 H
   0.9565000000000000    0.6248850000000000    0.0573350000000000 H
   0.9565049999999999    0.6253450000000000    0.3073450000000000 H
   0.9565200000000000    0.8748100000000000    0.0573500000000000 H
   0.5434750000000000    0.6247750000000000    0.0573100000000000 H
   0.5434900000000000    0.6253750000000000    0.3073400000000000 H
   0.5435100000000000    0.8749150000000000    0.0573650000000000 H
   0.7935000000000000    0.6252500000000000    0.0573550000000000 H
   0.7934900000000000    0.6249600000000000    0.3073250000000000 H
   0.1252050000000000    0.2063400000000000    0.6928550000000000 H
   0.1248950000000000    0.4564800000000000    0.6924550000000000 H
   0.3749550000000000    0.2061550000000000    0.6926550000000000 H
   0.3749500000000000    0.2061500000000000    0.9426550000000000 H
   0.3749750000000000    0.4562100000000000    0.6926700000000000 H
   0.3749950000000000    0.4562100000000000    0.9426500000000000 H
   0.1249050000000000    0.0439950000000000    0.6924350000000000 H
   0.1252150000000000    0.2940000000000000    0.6929050000000000 H
   0.3750000000000000    0.0437400000000000    0.6926750000000000 H
   0.3750000000000000    0.0437400000000000    0.9426700000000000 H
   0.3749750000000000    0.2938100000000000    0.6926550000000000 H
   0.3749500000000000    0.2938050000000000    0.9426600000000001 H
   0.0435100000000000    0.1254850000000000    0.6926200000000000 H
   0.0434900000000000    0.1246500000000000    0.9426500000000000 H
   0.0434800000000000    0.3751350000000000    0.6926500000000000 H
   0.2934750000000000    0.1249400000000000    0.6926550000000000 H
   0.2934850000000000    0.1251850000000000    0.9426250000000000 H
   0.2064950000000000    0.1250700000000000    0.6926400000000000 H
   0.2065150000000000    0.1252950000000000    0.9426350000000000 H
   0.4565200000000000    0.1253550000000000    0.6926350000000000 H
   0.4565100000000000    0.1248450000000000    0.9426450000000000 H
   0.4564900000000000    0.3749950000000000    0.6926500000000000 H
   0.1246350000000000    0.2064900000000000    0.5575000000000000 H
   0.1251700000000000    0.4564550000000000    0.5571199999999999 H
   0.3749750000000000    0.2062050000000000    0.5573250000000000 H
   0.3749700000000000    0.2062050000000000    0.8073250000000001 H
   0.3749800000000000    0.4562700000000000    0.5573150000000000 H
   0.3749600000000000    0.4562700000000000    0.8073000000000000 H
   0.1253450000000000    0.0440250000000000    0.5570900000000000 H
   0.1248150000000000    0.2940950000000000    0.5575550000000000 H
   0.3749850000000000    0.0438000000000000    0.5573200000000000 H
   0.3749850000000000    0.0438000000000000    0.8073150000000000 H
   0.3749750000000000    0.2938600000000000    0.5573250000000000 H
   0.3749950000000000    0.2938600000000000    0.8073250000000001 H
   0.2065350000000000    0.1254450000000000    0.5573300000000000 H
   0.2065100000000000    0.1249950000000000    0.8073000000000000 H
   0.4565000000000000    0.1248850000000000    0.5573350000000000 H
   0.4565050000000000    0.1253450000000000    0.8073450000000000 H
   0.4565200000000000    0.3748100000000000    0.5573500000000000 H
   0.0434750000000000    0.1247750000000000    0.5573100000000000 H
   0.0434900000000000    0.1253750000000000    0.8073399999999999 H
   0.0435100000000000    0.3749150000000000    0.5573650000000000 H
   0.2935000000000000    0.1252500000000000    0.5573550000000000 H
   0.2934900000000000    0.1249600000000000    0.8073250000000001 H
   0.6252050000000000    0.2063400000000000    0.6928550000000000 H
   0.6248950000000000    0.4564800000000000    0.6924550000000000 H
   0.8749549999999999    0.2061550000000000    0.6926550000000000 H
   0.8749500000000000    0.2061500000000000    0.9426550000000000 H
   0.8749750000000001    0.4562100000000000    0.6926700000000000 H
   0.8749950000000000    0.4562100000000000    0.9426500000000000 H
   0.6249050000000000    0.0439950000000000    0.6924350000000000 H
   0.6252150000000000    0.2940000000000000    0.6929050000000000 H
   0.8750000000000000    0.0437400000000000    0.6926750000000000 H
   0.8750000000000000    0.0437400000000000    0.9426700000000000 H
   0.8749750000000001    0.2938100000000000    0.6926550000000000 H
   0.8749500000000000    0.2938050000000000    0.9426600000000001 H
   0.5435100000000000    0.1254850000000000    0.6926200000000000 H
   0.5434900000000000    0.1246500000000000    0.9426500000000000 H
   0.5434800000000000    0.3751350000000000    0.6926500000000000 H
   0.7934749999999999    0.1249400000000000    0.6926550000000000 H
   0.7934850000000000    0.1251850000000000    0.9426250000000000 H
   0.7064950000000000    0.1250700000000000    0.6926400000000000 H
   0.7065150000000000    0.1252950000000000    0.9426350000000000 H
   0.9565200000000000    0.1253550000000000    0.6926350000000000 H
   0.9565100000000000    0.1248450000000000    0.9426450000000000 H
   0.9564900000000001    0.3749950000000000    0.6926500000000000 H
   0.6246350000000001    0.2064900000000000    0.5575000000000000 H
   0.6251700000000000    0.4564550000000000    0.5571199999999999 H
   0.8749750000000001    0.2062050000000000    0.5573250000000000 H
   0.8749700000000000    0.2062050000000000    0.8073250000000001 H
   0.8749800000000000    0.4562700000000000    0.5573150000000000 H
   0.8749600000000000    0.4562700000000000    0.8073000000000000 H
   0.6253450000000000    0.0440250000000000    0.5570900000000000 H
   0.6248150000000000    0.2940950000000000    0.5575550000000000 H
   0.8749850000000000    0.0438000000000000    0.5573200000000000 H
   0.8749850000000000    0.0438000000000000    0.8073150000000000 H
   0.8749750000000001    0.2938600000000000    0.5573250000000000 H
   0.8749950000000000    0.2938600000000000    0.8073250000000001 H
   0.7065350000000000    0.1254450000000000    0.5573300000000000 H
   0.7065100000000000    0.1249950000000000    0.8073000000000000 H
   0.9565000000000000    0.1248850000000000    0.5573350000000000 H
   0.9565049999999999    0.1253450000000000    0.8073450000000000 H
   0.9565200000000000    0.3748100000000000    0.5573500000000000 H
   0.5434750000000000    0.1247750000000000    0.5573100000000000 H
   0.5434900000000000    0.1253750000000000    0.8073399999999999 H
   0.5435100000000000    0.3749150000000000    0.5573650000000000 H
   0.7935000000000000    0.1252500000000000    0.5573550000000000 H
   0.7934900000000000    0.1249600000000000    0.8073250000000001 H
   0.1252050000000000    0.7063400000000000    0.6928550000000000 H
   0.1248950000000000    0.9564800000000000    0.6924550000000000 H
   0.3749550000000000    0.7061550000000000    0.6926550000000000 H
   0.3749500000000000    0.7061500000000001    0.9426550000000000 H
   0.3749750000000000    0.9562100000000000    0.6926700000000000 H
   0.3749950000000000    0.9562100000000000    0.9426500000000000 H
   0.1249050000000000    0.5439950000000000    0.6924350000000000 H
   0.1252150000000000    0.7940000000000000    0.6929050000000000 H
   0.3750000000000000    0.5437400000000000    0.6926750000000000 H
   0.3750000000000000    0.5437400000000000    0.9426700000000000 H
   0.3749750000000000    0.7938100000000000    0.6926550000000000 H
   0.3749500000000000    0.7938050000000000    0.9426600000000001 H
   0.0435100000000000    0.6254850000000001    0.6926200000000000 H
   0.0434900000000000    0.6246500000000000    0.9426500000000000 H
   0.0434800000000000    0.8751350000000000    0.6926500000000000 H
   0.2934750000000000    0.6249400000000001    0.6926550000000000 H
   0.2934850000000000    0.6251850000000000    0.9426250000000000 H
   0.2064950000000000    0.6250700000000000    0.6926400000000000 H
   0.2065150000000000    0.6252949999999999    0.9426350000000000 H
   0.4565200000000000    0.6253550000000000    0.6926350000000000 H
   0.4565100000000000    0.6248450000000000    0.9426450000000000 H
   0.4564900000000000    0.8749950000000000    0.6926500000000000 H
   0.1246350000000000    0.7064900000000001    0.5575000000000000 H
   0.1251700000000000    0.9564550000000001    0.5571199999999999 H
   0.3749750000000000    0.7062050000000000    0.5573250000000000 H
   0.3749700000000000    0.7062050000000000    0.8073250000000001 H
   0.3749800000000000    0.9562700000000000    0.5573150000000000 H
   0.3749600000000000    0.9562700000000000    0.8073000000000000 H
   0.1253450000000000    0.5440250000000000    0.5570900000000000 H
   0.1248150000000000    0.7940950000000000    0.5575550000000000 H
   0.3749850000000000    0.5438000000000000    0.5573200000000000 H
   0.3749850000000000    0.5438000000000000    0.8073150000000000 H
   0.3749750000000000    0.7938600000000000    0.5573250000000000 H
   0.3749950000000000    0.7938600000000000    0.8073250000000001 H
   0.2065350000000000    0.6254450000000000    0.5573300000000000 H
   0.2065100000000000    0.6249950000000000    0.8073000000000000 H
   0.4565000000000000    0.6248850000000000    0.5573350000000000 H
   0.4565050000000000    0.6253450000000000    0.8073450000000000 H
   0.4565200000000000    0.8748100000000000    0.5573500000000000 H
   0.0434750000000000    0.6247750000000000    0.5573100000000000 H
   0.0434900000000000    0.6253750000000000    0.8073399999999999 H
   0.0435100000000000    0.8749150000000000    0.5573650000000000 H
   0.2935000000000000    0.6252500000000000    0.5573550000000000 H
   0.2934900000000000    0.6249600000000000    0.8073250000000001 H
   0.6252050000000000    0.7063400000000000    0.6928550000000000 H
   0.6248950000000000    0.9564800000000000    0.6924550000000000 H
   0.8749549999999999    0.7061550000000000    0.6926550000000000 H
   0.8749500000000000    0.7061500000000001    0.9426550000000000 H
   0.8749750000000001    0.9562100000000000    0.6926700000000000 H
   0.8749950000000000    0.9562100000000000    0.9426500000000000 H
   0.6249050000000000    0.5439950000000000    0.6924350000000000 H
   0.6252150000000000    0.7940000000000000    0.6929050000000000 H
   0.8750000000000000    0.5437400000000000    0.6926750000000000 H
   0.8750000000000000    0.5437400000000000    0.9426700000000000 H
   0.8749750000000001    0.7938100000000000    0.6926550000000000 H
   0.8749500000000000    0.7938050000000000    0.9426600000000001 H
   0.5435100000000000    0.6254850000000001    0.6926200000000000 H
   0.5434900000000000    0.6246500000000000    0.9426500000000000 H
   0.5434800000000000    0.8751350000000000    0.6926500000000000 H
   0.7934749999999999    0.6249400000000001    0.6926550000000000 H
   0.7934850000000000    0.6251850000000000    0.9426250000000000 H
   0.7064950000000000    0.6250700000000000    0.6926400000000000 H
   0.7065150000000000    0.6252949999999999    0.9426350000000000 H
   0.9565200000000000    0.6253550000000000    0.6926350000000000 H
   0.9565100000000000    0.6248450000000000    0.9426450000000000 H
   0.9564900000000001    0.8749950000000000    0.6926500000000000 H
   0.6246350000000001    0.7064900000000001    0.5575000000000000 H
   0.6251700000000000    0.9564550000000001    0.5571199999999999 H
   0.8749750000000001    0.7062050000000000    0.5573250000000000 H
   0.8749700000000000    0.7062050000000000    0.8073250000000001 H
   0.8749800000000000    0.9562700000000000    0.5573150000000000 H
   0.8749600000000000    0.9562700000000000    0.8073000000000000 H
   0.6253450000000000    0.5440250000000000    0.5570900000000000 H
   0.6248150000000000    0.7940950000000000    0.5575550000000000 H
   0.8749850000000000    0.5438000000000000    0.5573200000000000 H
   0.8749850000000000    0.5438000000000000    0.8073150000000000 H
   0.8749750000000001    0.7938600000000000    0.5573250000000000 H
   0.8749950000000000    0.7938600000000000    0.8073250000000001 H
   0.7065350000000000    0.6254450000000000    0.5573300000000000 H
   0.7065100000000000    0.6249950000000000    0.8073000000000000 H
   0.9565000000000000    0.6248850000000000    0.5573350000000000 H
   0.9565049999999999    0.6253450000000000    0.8073450000000000 H
   0.9565200000000000    0.8748100000000000    0.5573500000000000 H
   0.5434750000000000    0.6247750000000000    0.5573100000000000 H
   0.5434900000000000    0.6253750000000000    0.8073399999999999 H
   0.5435100000000000    0.8749150000000000    0.5573650000000000 H
   0.7935000000000000    0.6252500000000000    0.5573550000000000 H
   0.7934900000000000    0.6249600000000000    0.8073250000000001 H
   0.1251100000000000    0.2258650000000000    0.1625750000000000 C
   0.1249500000000000    0.4759150000000000    0.1621350000000000 C
   0.3749650000000000    0.2256600000000000    0.1623650000000000 C
   0.3749550000000000    0.2256550000000000    0.4123650000000000 C
   0.3749850000000000    0.4756550000000000    0.1623450000000000 C
   0.3749950000000000    0.4756550000000000    0.4123400000000000 C
   0.1249650000000000    0.0245750000000000    0.1621150000000000 C
   0.1251250000000000    0.2745400000000000    0.1625950000000000 C
   0.3749950000000000    0.0243250000000000    0.1623500000000000 C
   0.3749950000000000    0.0243250000000000    0.4123000000000000 C
   0.3749750000000000    0.2743250000000000    0.1623650000000000 C
   0.3749600000000000    0.2743250000000000    0.4123650000000000 C
   0.0241750000000000    0.1253150000000000    0.1623150000000000 C
   0.0241700000000000    0.1248850000000000    0.4123350000000000 C
   0.0241600000000000    0.3750800000000000    0.1623550000000000 C
   0.2741500000000000    0.1250100000000000    0.1623450000000000 C
   0.2741550000000000    0.1251200000000000    0.4123150000000000 C
   0.2258300000000000    0.1250900000000000    0.1623350000000000 C
   0.2258350000000000    0.1251550000000000    0.4123200000000000 C
   0.4758450000000000    0.1252550000000000    0.1623250000000000 C
   0.4758400000000000    0.1249250000000000    0.4123350000000000 C
   0.4758250000000000    0.3750100000000000    0.1623450000000000 C
   0.1248450000000000    0.2259250000000000    0.0878300000000000 C
   0.1251150000000000    0.4759000000000000    0.0874300000000000 C
   0.3749700000000000    0.2256850000000000    0.0876000000000000 C
   0.3749700000000000    0.2256900000000000    0.3376150000000000 C
   0.3749850000000000    0.4756850000000000    0.0876400000000000 C
   0.3749750000000000    0.4756850000000000    0.3376350000000000 C
   0.1251600000000000    0.0245750000000000    0.0874100000000000 C
   0.1248950000000000    0.2745900000000000    0.0878450000000000 C
   0.3749900000000000    0.0243550000000000    0.0876450000000000 C
   0.3749850000000000    0.0243550000000000    0.3376350000000000 C