H12 O8
1.0
  27.1502720750192950    0.0000000000000000    1.2708761750963269
   0.5709741157569139   13.5683114912220333    0.6527846783647084
   0.0000000000000000    0.0000000000000000   27.2079999999999984
H O
12 8
direct
   0.3416493890646508   -0.1431111932623461    0.5189792429624565 H
   0.2056867387715052    0.7926820225304410    0.4902931748064213 H
   0.2753078051568123   -0.1879409756365708    0.5049633859594262 H
   0.4042906828896196    0.6453649641004774    0.5150570650656480 H
   0.3882270642154437    0.4299931725482359    0.4914271582832105 H
   0.3451778418109828    0.5219159562737326    0.5018229713429722 H
   0.2928814459520361    0.2109592448874889    0.5117205118472380 H
   0.1580885839238085    1.1456970526866836    0.4793537074403964 H
   0.2237198245315120    0.1909546548900426    0.4952219590738662 H
   0.0942945562454530    0.3569469459386139    0.4840639849428841 H
   0.1100465997248213    0.5713070585468394    0.5098173427803845 H
   0.1533236918444033    0.4799356839400548    0.4984051298320242 H
   0.3081100000000000   -0.1215300000000001    0.5119550000000000 O
   0.2297400000000000    0.8413800000000000    0.4954200000000000 O
   0.4378200000000000    0.6181500000000000    0.5118500000000000 O
   0.4190200000000000    0.4619800000000000    0.4947600000000000 O
   0.2691900000000000    0.1620800000000000    0.5057300000000000 O
   0.1915000000000000    1.1244800000000001    0.4870750000000000 O
   0.0607400000000000    0.3838900000000000    0.4876100000000000 O
   0.0792800000000000    0.5393900000000000    0.5062300000000000 O
