Cu24 H66 C176 O88
1.0
  27.1502720750192950    0.0000000000000000    1.2708761750963269
   0.5709741157569139   13.5683114912220333    0.6527846783647084
   0.0000000000000000    0.0000000000000000   27.2079999999999984
Cu H C O
24 66 176 88
direct
   0.0106000000000000    0.0210900000000000    0.2918850000000000 Cu
   0.2919350000000000    0.0215600000000000    0.0096350000000000 Cu
   0.2080950000000000    0.9819099999999999    0.4901800000000000 Cu
   0.4909100000000000    0.9818700000000000    0.2081800000000000 Cu
   0.4893100000000000    0.4171900000000000    0.4903500000000000 Cu
   0.0091800000000000    0.5848100000000001    0.0098800000000000 Cu
   0.5106000000000001    0.0210900000000000    0.2918850000000000 Cu
   0.7919350000000001    0.0215600000000000    0.0096350000000000 Cu
   0.7080950000000000    0.9819099999999999    0.4901800000000000 Cu
   0.9909100000000000    0.9818700000000000    0.2081800000000000 Cu
   0.9893100000000000    0.4171900000000000    0.4903500000000000 Cu
   0.5091800000000000    0.5848100000000001    0.0098800000000000 Cu
   0.0106000000000000    0.0210900000000000    0.7918850000000000 Cu
   0.2919350000000000    0.0215600000000000    0.5096349999999999 Cu
   0.2080950000000000    0.9819099999999999    0.9901800000000001 Cu
   0.4909100000000000    0.9818700000000000    0.7081800000000000 Cu
   0.4893100000000000    0.4171900000000000    0.9903500000000001 Cu
   0.0091800000000000    0.5848100000000001    0.5098800000000000 Cu
   0.5106000000000001    0.0210900000000000    0.7918850000000000 Cu
   0.7919350000000001    0.0215600000000000    0.5096349999999999 Cu
   0.7080950000000000    0.9819099999999999    0.9901800000000001 Cu
   0.9909100000000000    0.9818700000000000    0.7081800000000000 Cu
   0.9893100000000000    0.4171900000000000    0.9903500000000001 Cu
   0.5091800000000000    0.5848100000000001    0.5098800000000000 Cu
   0.4991750000000000    0.4357300000000000    0.3325000000000000 H
   0.3334800000000000    0.0000000000000000    0.2173600000000000 H
   0.2164700000000000    0.6666666666666666    0.0000000000000000 H
   0.2836950000000000    0.0015800000000000    0.1673750000000000 H
   0.0005500000000000    0.3363000000000000    0.2828500000000000 H
   0.1665250000000000    0.5666000000000000    0.0003550000000000 H
   0.4991150000000000    0.5675600000000000    0.1675800000000000 H
   0.1682100000000000    0.0014400000000000    0.2827250000000000 H
   0.2177000000000000    0.0000000000000000    0.3323800000000000 H
   0.0000000000000000    0.6666666666666666    0.2172250000000000 H
   0.3317100000000000    0.4360500000000000    0.0000000000000000 H
   0.0082150000000000    0.7375500000000000    0.3682750000000000 H
   0.3687500000000000    0.0157600000000000    0.3684700000000000 H
   0.3677250000000000    0.7380600000000000    0.0079450000000000 H
   0.1324700000000000    0.9876900000000000    0.1317150000000000 H
   0.4917000000000000    0.2653900000000000    0.1319950000000000 H
   0.9991749999999999    0.4357300000000000    0.3325000000000000 H
   0.8334800000000000    0.0000000000000000    0.2173600000000000 H
   0.7164699999999999    0.6666666666666666    0.0000000000000000 H
   0.7836950000000000    0.0015800000000000    0.1673750000000000 H
   0.5005500000000001    0.3363000000000000    0.2828500000000000 H
   0.6665250000000000    0.5666000000000000    0.0003550000000000 H
   0.9991150000000000    0.5675600000000000    0.1675800000000000 H
   0.6682100000000000    0.0014400000000000    0.2827250000000000 H
   0.7821650000000000    0.3367900000000000    0.4998150000000000 H
   0.7177000000000000    0.0000000000000000    0.3323800000000000 H
   0.5000000000000000    0.6666666666666666    0.2172250000000000 H
   0.8317099999999999    0.4360500000000000    0.0000000000000000 H
   0.5082150000000000    0.7375500000000000    0.3682750000000000 H
   0.8687500000000000    0.0157600000000000    0.3684700000000000 H
   0.8677250000000001    0.7380600000000000    0.0079450000000000 H
   0.6324700000000000    0.9876900000000000    0.1317150000000000 H
   0.9917000000000000    0.2653900000000000    0.1319950000000000 H
   0.6311550000000000    0.2642400000000000    0.4918500000000000 H
   0.4991750000000000    0.4357300000000000    0.8325000000000000 H
   0.3334800000000000    0.0000000000000000    0.7173600000000000 H
   0.2836950000000000    0.0015800000000000    0.6673750000000001 H
   0.0005500000000000    0.3363000000000000    0.7828500000000000 H
   0.4991150000000000    0.5675600000000000    0.6675800000000001 H
   0.1682100000000000    0.0014400000000000    0.7827250000000000 H
   0.2821650000000000    0.3367900000000000    0.9998150000000000 H
   0.2177000000000000    0.0000000000000000    0.8323800000000000 H
   0.0000000000000000    0.6666666666666666    0.7172250000000000 H
   0.0082150000000000    0.7375500000000000    0.8682750000000000 H
   0.3687500000000000    0.0157600000000000    0.8684700000000001 H
   0.1324700000000000    0.9876900000000000    0.6317150000000000 H
   0.4917000000000000    0.2653900000000000    0.6319950000000000 H
   0.1311550000000000    0.2642400000000000    0.9918500000000000 H
   0.9991749999999999    0.4357300000000000    0.8325000000000000 H
   0.8334800000000000    0.0000000000000000    0.7173600000000000 H
   0.7164699999999999    0.6666666666666666    0.5000000000000000 H
   0.7836950000000000    0.0015800000000000    0.6673750000000001 H
   0.5005500000000001    0.3363000000000000    0.7828500000000000 H
   0.6665250000000000    0.5666000000000000    0.5003550000000000 H
   0.9991150000000000    0.5675600000000000    0.6675800000000001 H
   0.6682100000000000    0.0014400000000000    0.7827250000000000 H
   0.7821650000000000    0.3367900000000000    0.9998150000000000 H
   0.7177000000000000    0.0000000000000000    0.8323800000000000 H
   0.5000000000000000    0.6666666666666666    0.7172250000000000 H
   0.8317099999999999    0.4360500000000000    0.5000000000000000 H
   0.5082150000000000    0.7375500000000000    0.8682750000000000 H
   0.8687500000000000    0.0157600000000000    0.8684700000000001 H
   0.8677250000000001    0.7380600000000000    0.5079450000000000 H
   0.6324700000000000    0.9876900000000000    0.6317150000000000 H
   0.9917000000000000    0.2653900000000000    0.6319950000000000 H
   0.6311550000000000    0.2642400000000000    0.9918500000000000 H
   0.0032250000000000    0.5514800000000000    0.4084600000000000 C
   0.0011500000000000    0.5122800000000000    0.3194500000000000 C
   0.0037900000000000    0.5827500000000000    0.3549800000000000 C
   0.4091700000000000    0.0072900000000000    0.2755250000000000 C
   0.3202150000000000    0.0034300000000000    0.2556000000000000 C
   0.3556500000000000    0.0080000000000000    0.2910150000000000 C
   0.2747800000000000    0.8184000000000000    0.0040100000000000 C
   0.2547550000000000    0.6404100000000000    0.0018150000000000 C
   0.2901900000000000    0.7114300000000000    0.0042500000000000 C
   0.2253800000000000    0.9953200000000000    0.0915800000000000 C
   0.2453750000000000    0.9988300000000000    0.1805350000000000 C
   0.2099850000000000    0.9946300000000000    0.1450550000000000 C
   0.4965850000000000    0.1848000000000000    0.2248400000000000 C
   0.4986300000000000    0.3627500000000000    0.2446250000000000 C
   0.4960100000000000    0.2918200000000000    0.2093500000000000 C
   0.4955850000000000    0.4513600000000000    0.0918200000000000 C
   0.4979050000000000    0.4908900000000000    0.1807450000000000 C
   0.4954250000000000    0.4203000000000000    0.1452800000000000 C
   0.0923650000000000    0.9953400000000000    0.2247400000000000 C
   0.1813850000000000    0.9987900000000000    0.2444500000000000 C
   0.1458350000000000    0.9946100000000000    0.2091500000000000 C
   0.2755200000000000    0.0078600000000000    0.4083500000000000 C
   0.2560500000000000    0.0037200000000000    0.3193350000000000 C
   0.2912800000000000    0.0082700000000000    0.3549400000000000 C
   0.0044950000000000    0.8181800000000000    0.2752200000000000 C
   0.0020150000000000    0.6402900000000000    0.2555250000000000 C
   0.0045250000000000    0.7111900000000000    0.2908300000000000 C
   0.4076700000000000    0.5518999999999999    0.0036500000000000 C
   0.3186050000000000    0.5125900000000000    0.0016150000000000 C
   0.3542200000000000    0.5831700000000000    0.0040350000000000 C
   0.0008900000000000    0.5392700000000000    0.2689500000000000 C
   0.0060550000000000    0.6826600000000000    0.3407500000000000 C
   0.2696350000000000    0.0026100000000000    0.2688750000000000 C
   0.3413150000000000    0.0117200000000000    0.3409050000000000 C
   0.2680950000000000    0.5394200000000000    0.0010550000000000 C
   0.3401500000000000    0.6830600000000000    0.0059350000000000 C
   0.2319250000000000    0.9997200000000001    0.2310000000000000 C
   0.1599900000000000    0.9913200000000000    0.1592200000000000 C
   0.4989450000000000    0.4638600000000000    0.2312150000000000 C
   0.4938250000000000    0.3203200000000000    0.1594600000000000 C
   0.5032250000000000    0.5514800000000000    0.4084600000000000 C
   0.5011500000000000    0.5122800000000000    0.3194500000000000 C
   0.5037900000000000    0.5827500000000000    0.3549800000000000 C
   0.9091700000000000    0.0072900000000000    0.2755250000000000 C
   0.8202150000000000    0.0034300000000000    0.2556000000000000 C
   0.8556500000000000    0.0080000000000000    0.2910150000000000 C
   0.7747800000000000    0.8184000000000000    0.0040100000000000 C
   0.7547550000000001    0.6404100000000000    0.0018150000000000 C
   0.7901899999999999    0.7114300000000000    0.0042500000000000 C
   0.7253800000000000    0.9953200000000000    0.0915800000000000 C
   0.7453750000000000    0.9988300000000000    0.1805350000000000 C
   0.7099850000000000    0.9946300000000000    0.1450550000000000 C
   0.9965850000000001    0.1848000000000000    0.2248400000000000 C
   0.9986300000000000    0.3627500000000000    0.2446250000000000 C
   0.9960100000000001    0.2918200000000000    0.2093500000000000 C
   0.5907800000000000    0.4499200000000000    0.4965300000000000 C
   0.6797600000000000    0.4901400000000000    0.4986000000000000 C
   0.6443099999999999    0.4192000000000000    0.4960800000000000 C
   0.9955849999999999    0.4513600000000000    0.0918200000000000 C
   0.9979050000000000    0.4908900000000000    0.1807450000000000 C
   0.9954250000000000    0.4203000000000000    0.1452800000000000 C
   0.5923650000000000    0.9953400000000000    0.2247400000000000 C
   0.6813850000000000    0.9987900000000000    0.2444500000000000 C
   0.6458349999999999    0.9946100000000000    0.2091500000000000 C
   0.7243900000000000    0.1847500000000000    0.4960700000000000 C
   0.7438450000000000    0.3628300000000000    0.4983550000000000 C
   0.7086150000000000    0.2915200000000000    0.4958250000000000 C
   0.7755200000000000    0.0078600000000000    0.4083500000000000 C
   0.7560500000000000    0.0037200000000000    0.3193350000000000 C
   0.7912800000000000    0.0082700000000000    0.3549400000000000 C
   0.5044950000000000    0.8181800000000000    0.2752200000000000 C
   0.5020150000000000    0.6402900000000000    0.2555250000000000 C
   0.5045250000000000    0.7111900000000000    0.2908300000000000 C
   0.9076700000000000    0.5518999999999999    0.0036500000000000 C
   0.8186050000000000    0.5125900000000000    0.0016150000000000 C
   0.8542200000000000    0.5831700000000000    0.0040350000000000 C
   0.5008899999999999    0.5392700000000000    0.2689500000000000 C
   0.5060550000000000    0.6826600000000000    0.3407500000000000 C
   0.7696350000000001    0.0026100000000000    0.2688750000000000 C
   0.8413150000000000    0.0117200000000000    0.3409050000000000 C
   0.7680950000000000    0.5394200000000000    0.0010550000000000 C
   0.8401500000000000    0.6830600000000000    0.0059350000000000 C
   0.7319249999999999    0.9997200000000001    0.2310000000000000 C
   0.6599900000000000    0.9913200000000000    0.1592200000000000 C
   0.9989450000000000    0.4638600000000000    0.2312150000000000 C
   0.9938250000000000    0.3203200000000000    0.1594600000000000 C
   0.7303200000000000    0.4637200000000000    0.4991650000000000 C
   0.6586050000000000    0.3194400000000000    0.4940250000000000 C
   0.0032250000000000    0.5514800000000000    0.9084600000000000 C
   0.0011500000000000    0.5122800000000000    0.8194500000000000 C
   0.0037900000000000    0.5827500000000000    0.8549800000000001 C
   0.4091700000000000    0.0072900000000000    0.7755250000000000 C
   0.3202150000000000    0.0034300000000000    0.7556000000000000 C
   0.3556500000000000    0.0080000000000000    0.7910150000000000 C
   0.2253800000000000    0.9953200000000000    0.5915800000000000 C
   0.2453750000000000    0.9988300000000000    0.6805350000000000 C
   0.2099850000000000    0.9946300000000000    0.6450549999999999 C
   0.4965850000000000    0.1848000000000000    0.7248400000000000 C
   0.4986300000000000    0.3627500000000000    0.7446250000000000 C
   0.4960100000000000    0.2918200000000000    0.7093500000000000 C
   0.0907800000000000    0.4499200000000000    0.9965300000000000 C
   0.1797600000000000    0.4901400000000000    0.9985999999999999 C
   0.1443100000000000    0.4192000000000000    0.9960800000000001 C
   0.4955850000000000    0.4513600000000000    0.5918200000000000 C
   0.4979050000000000    0.4908900000000000    0.6807449999999999 C
   0.4954250000000000    0.4203000000000000    0.6452800000000000 C
   0.0923650000000000    0.9953400000000000    0.7247399999999999 C
   0.1813850000000000    0.9987900000000000    0.7444500000000001 C
   0.1458350000000000    0.9946100000000000    0.7091499999999999 C
   0.2243900000000000    0.1847500000000000    0.9960700000000000 C
   0.2438450000000000    0.3628300000000000    0.9983550000000000 C
   0.2086150000000000    0.2915200000000000    0.9958250000000000 C
   0.2755200000000000    0.0078600000000000    0.9083500000000000 C
   0.2560500000000000    0.0037200000000000    0.8193349999999999 C
   0.2912800000000000    0.0082700000000000    0.8549400000000000 C
   0.0044950000000000    0.8181800000000000    0.7752200000000000 C
   0.0020150000000000    0.6402900000000000    0.7555250000000000 C
   0.0045250000000000    0.7111900000000000    0.7908299999999999 C
   0.0008900000000000    0.5392700000000000    0.7689500000000000 C
   0.0060550000000000    0.6826600000000000    0.8407500000000000 C
   0.2696350000000000    0.0026100000000000    0.7688750000000000 C
   0.3413150000000000    0.0117200000000000    0.8409050000000000 C
   0.2319250000000000    0.9997200000000001    0.7310000000000000 C
   0.1599900000000000    0.9913200000000000    0.6592200000000000 C
   0.4989450000000000    0.4638600000000000    0.7312149999999999 C
   0.4938250000000000    0.3203200000000000    0.6594599999999999 C
   0.2303200000000000    0.4637200000000000    0.9991650000000001 C
   0.1586050000000000    0.3194400000000000    0.9940249999999999 C
   0.5032250000000000    0.5514800000000000    0.9084600000000000 C
   0.5011500000000000    0.5122800000000000    0.8194500000000000 C
   0.5037900000000000    0.5827500000000000    0.8549800000000001 C
   0.9091700000000000    0.0072900000000000    0.7755250000000000 C
   0.8202150000000000    0.0034300000000000    0.7556000000000000 C
   0.8556500000000000    0.0080000000000000    0.7910150000000000 C
   0.7747800000000000    0.8184000000000000    0.5040100000000000 C
   0.7547550000000001    0.6404100000000000    0.5018150000000000 C
   0.7901899999999999    0.7114300000000000    0.5042500000000000 C
   0.7253800000000000    0.9953200000000000    0.5915800000000000 C
   0.7453750000000000    0.9988300000000000    0.6805350000000000 C
   0.7099850000000000    0.9946300000000000    0.6450549999999999 C
   0.9965850000000001    0.1848000000000000    0.7248400000000000 C
   0.9986300000000000    0.3627500000000000    0.7446250000000000 C
   0.9960100000000001    0.2918200000000000    0.7093500000000000 C
   0.5907800000000000    0.4499200000000000    0.9965300000000000 C
   0.6797600000000000    0.4901400000000000    0.9985999999999999 C
   0.6443099999999999    0.4192000000000000    0.9960800000000001 C
   0.9955849999999999    0.4513600000000000    0.5918200000000000 C
   0.9979050000000000    0.4908900000000000    0.6807449999999999 C
   0.9954250000000000    0.4203000000000000    0.6452800000000000 C
   0.5923650000000000    0.9953400000000000    0.7247399999999999 C
   0.6813850000000000    0.9987900000000000    0.7444500000000001 C
   0.6458349999999999    0.9946100000000000    0.7091499999999999 C
   0.7243900000000000    0.1847500000000000    0.9960700000000000 C
   0.7438450000000000    0.3628300000000000    0.9983550000000000 C
   0.7086150000000000    0.2915200000000000    0.9958250000000000 C
   0.7755200000000000    0.0078600000000000    0.9083500000000000 C
   0.7560500000000000    0.0037200000000000    0.8193349999999999 C
   0.7912800000000000    0.0082700000000000    0.8549400000000000 C
   0.5044950000000000    0.8181800000000000    0.7752200000000000 C
   0.5020150000000000    0.6402900000000000    0.7555250000000000 C
   0.5045250000000000    0.7111900000000000    0.7908299999999999 C
   0.9076700000000000    0.5518999999999999    0.5036500000000000 C
   0.8186050000000000    0.5125900000000000    0.5016150000000000 C
   0.8542200000000000    0.5831700000000000    0.5040350000000000 C
   0.5008899999999999    0.5392700000000000    0.7689500000000000 C
   0.5060550000000000    0.6826600000000000    0.8407500000000000 C
   0.7696350000000001    0.0026100000000000    0.7688750000000000 C
   0.8413150000000000    0.0117200000000000    0.8409050000000000 C
   0.7680950000000000    0.5394200000000000    0.5010550000000000 C
   0.8401500000000000    0.6830600000000000    0.5059350000000000 C
   0.7319249999999999    0.9997200000000001    0.7310000000000000 C
   0.6599900000000000    0.9913200000000000    0.6592200000000000 C
   0.9989450000000000    0.4638600000000000    0.7312149999999999 C
   0.9938250000000000    0.3203200000000000    0.6594599999999999 C
   0.7303200000000000    0.4637200000000000    0.9991650000000001 C
   0.6586050000000000    0.3194400000000000    0.9940249999999999 C
   0.0122500000000000    0.6173600000000000    0.4384000000000000 O
   0.4934350000000000    0.4619500000000000    0.4200550000000000 O
   0.4391700000000000    0.0254100000000000    0.3084400000000000 O
   0.4207250000000000    0.9879100000000000    0.2308150000000000 O
   0.3081100000000000    0.8784700000000000    0.0119550000000000 O
   0.1919950000000000    0.9791400000000000    0.0617400000000000 O
   0.2703950000000000    0.0127300000000000    0.0799150000000000 O
   0.4876150000000000    0.1248800000000000    0.1918750000000000 O
   0.0064050000000000    0.1616800000000000    0.2695450000000000 O
   0.0792800000000000    0.5393900000000000    0.0062300000000000 O
   0.4873850000000000    0.3848500000000000    0.0619000000000000 O
   0.0043700000000000    0.5413700000000000    0.0802350000000000 O
   0.0623000000000000    0.9791900000000000    0.1915650000000000 O
   0.0809300000000000    0.0127200000000000    0.2697150000000000 O
   0.2691900000000000    0.1620800000000000    0.0057300000000000 O
   0.3084350000000000    0.0263000000000000    0.4383000000000000 O
   0.2307400000000000    0.9883800000000000    0.4199000000000000 O
   0.0126500000000000    0.8782400000000000    0.3083750000000000 O
   0.4958550000000000    0.8412300000000000    0.2302200000000000 O
   0.4378200000000000    0.6181500000000000    0.0118500000000000 O
   0.5122500000000000    0.6173600000000000    0.4384000000000000 O
   0.9934350000000001    0.4619500000000000    0.4200550000000000 O
   0.9391700000000001    0.0254100000000000    0.3084400000000000 O
   0.9207250000000000    0.9879100000000000    0.2308150000000000 O
   0.8081100000000000    0.8784700000000000    0.0119550000000000 O
   0.7297400000000001    0.8413800000000000    0.4954200000000000 O
   0.6919950000000000    0.9791400000000000    0.0617400000000000 O
   0.7703949999999999    0.0127300000000000    0.0799150000000000 O
   0.9876150000000000    0.1248800000000000    0.1918750000000000 O
   0.5064050000000000    0.1616800000000000    0.2695450000000000 O
   0.5607400000000000    0.3838900000000000    0.4876100000000000 O
   0.5792800000000000    0.5393900000000000    0.0062300000000000 O
   0.9873850000000000    0.3848500000000000    0.0619000000000000 O
   0.5043700000000000    0.5413700000000000    0.0802350000000000 O
   0.5623000000000000    0.9791900000000000    0.1915650000000000 O
   0.5809299999999999    0.0127200000000000    0.2697150000000000 O
   0.6915000000000000    0.1244800000000000    0.4870750000000000 O
   0.7691900000000000    0.1620800000000000    0.0057300000000000 O
   0.8084350000000000    0.0263000000000000    0.4383000000000000 O
   0.7307399999999999    0.9883800000000000    0.4199000000000000 O
   0.5126500000000001    0.8782400000000000    0.3083750000000000 O
   0.9958549999999999    0.8412300000000000    0.2302200000000000 O
   0.9378200000000000    0.6181500000000000    0.0118500000000000 O
   0.9190199999999999    0.4619800000000000    0.4947600000000000 O
   0.0122500000000000    0.6173600000000000    0.9384000000000000 O
   0.4934350000000000    0.4619500000000000    0.9200550000000001 O
   0.4391700000000000    0.0254100000000000    0.8084400000000000 O
   0.4207250000000000    0.9879100000000000    0.7308150000000000 O
   0.2297400000000000    0.8413800000000000    0.9954200000000000 O
   0.1919950000000000    0.9791400000000000    0.5617400000000000 O
   0.2703950000000000    0.0127300000000000    0.5799150000000000 O
   0.4876150000000000    0.1248800000000000    0.6918750000000000 O
   0.0064050000000000    0.1616800000000000    0.7695449999999999 O
   0.0607400000000000    0.3838900000000000    0.9876100000000000 O
   0.4873850000000000    0.3848500000000000    0.5619000000000000 O
   0.0043700000000000    0.5413700000000000    0.5802350000000001 O
   0.0623000000000000    0.9791900000000000    0.6915650000000000 O
   0.0809300000000000    0.0127200000000000    0.7697149999999999 O
   0.1915000000000000    0.1244800000000000    0.9870749999999999 O
   0.3084350000000000    0.0263000000000000    0.9383000000000000 O
   0.2307400000000000    0.9883800000000000    0.9198999999999999 O
   0.0126500000000000    0.8782400000000000    0.8083750000000001 O
   0.4958550000000000    0.8412300000000000    0.7302200000000000 O
   0.4190200000000000    0.4619800000000000    0.9947600000000000 O
   0.5122500000000000    0.6173600000000000    0.9384000000000000 O
   0.9934350000000001    0.4619500000000000    0.9200550000000001 O
   0.9391700000000001    0.0254100000000000    0.8084400000000000 O
   0.9207250000000000    0.9879100000000000    0.7308150000000000 O
   0.8081100000000000    0.8784700000000000    0.5119550000000000 O
   0.7297400000000001    0.8413800000000000    0.9954200000000000 O
   0.6919950000000000    0.9791400000000000    0.5617400000000000 O
   0.7703949999999999    0.0127300000000000    0.5799150000000000 O
   0.9876150000000000    0.1248800000000000    0.6918750000000000 O
   0.5064050000000000    0.1616800000000000    0.7695449999999999 O
   0.5607400000000000    0.3838900000000000    0.9876100000000000 O
   0.5792800000000000    0.5393900000000000    0.5062300000000000 O
   0.9873850000000000    0.3848500000000000    0.5619000000000000 O
   0.5043700000000000    0.5413700000000000    0.5802350000000001 O
   0.5623000000000000    0.9791900000000000    0.6915650000000000 O
   0.5809299999999999    0.0127200000000000    0.7697149999999999 O
   0.6915000000000000    0.1244800000000000    0.9870749999999999 O
   0.7691900000000000    0.1620800000000000    0.5057300000000000 O
   0.8084350000000000    0.0263000000000000    0.9383000000000000 O
   0.7307399999999999    0.9883800000000000    0.9198999999999999 O
   0.5126500000000001    0.8782400000000000    0.8083750000000001 O
   0.9958549999999999    0.8412300000000000    0.7302200000000000 O
   0.9378200000000000    0.6181500000000000    0.5118500000000000 O
   0.9190199999999999    0.4619800000000000    0.9947600000000000 O
