H7 O5
1.0
  21.3078503187301855    0.0000000000000000    6.7551553494046281
  -2.4553563479160885   14.6864369251005318    7.6926845541587028
   0.0000000000000000    0.0000000000000000   18.2620000000000005
H O
7 5
direct
   0.8418834756555340   -0.0348954215364645    0.9650272279820679 H
   0.6766392729748566    0.9654159703547653    0.1833548232335021 H
   0.7113751533959490    0.7600612878946419    0.3849579103599603 H
   0.6979664891075963    0.8543328638571959    0.2871014291608924 H
   0.7640529411761839    0.5807071125589675    0.3298430239882436 H
   0.8258462099297466    0.6363909689964260    0.0838347460185503 H
   0.7986212890715261    0.6213582114255580    0.2015335302253639 H
   0.8409600000000000    0.0269700000000000    0.9568500000000000 O
   0.6718499999999999    0.9271100000000000    0.2445300000000000 O
   0.6926900000000000    0.8121300000000000    0.3545000000000000 O
   0.7683400000000000    0.5590900000000000    0.2878000000000000 O
   0.8043900000000000    0.5922700000000000    0.1449600000000000 O
