H12 C16 N3 O2
1.0
  21.3078503187301855    0.0000000000000000    6.7551553494046281
  -2.4553563479160885   14.6864369251005318    7.6926845541587028
   0.0000000000000000    0.0000000000000000   18.2620000000000005
H C N O
12 16 3 2
direct
   0.0249200000000000    0.6430900000000001    0.3659600000000000 H
   0.1195100000000000    0.6060800000000000    0.2520000000000000 H
   0.0353900000000000    0.3763500000000000    0.6407200000000000 H
   0.0799600000000000    0.2591800000000000    0.7428200000000000 H
   0.1861500000000000    0.2192800000000000    0.6817299999999999 H
   0.2395500000000000    0.2976200000000000    0.5189500000000000 H
   0.9828900000000000    0.5878200000000000    0.5186600000000000 H
   0.9833400000000000    0.4734700000000000    0.5906700000000000 H
   0.0021100000000000    0.4750000000000000    0.7130000000000000 H
   0.0703500000000000    0.5279400000000000    0.7729200000000001 H
   0.1841000000000000    0.7271200000000000    0.5103300000000000 H
   0.1178400000000000    0.6759800000000000    0.4509400000000000 H
   0.0558200000000000    0.5922500000000001    0.3786000000000000 C
   0.1027300000000000    0.5727500000000000    0.3230900000000000 C
   0.0974500000000000    0.4768300000000000    0.4569300000000000 C
   0.1161700000000000    0.4044400000000000    0.5252500000000000 C
   0.0817800000000000    0.3609000000000000    0.6152500000000000 C
   0.1066900000000000    0.2940200000000000    0.6727200000000000 C
   0.1648200000000000    0.2711300000000000    0.6395999999999999 C
   0.1952900000000000    0.3146300000000000    0.5491900000000000 C
   0.0144000000000000    0.5385300000000000    0.5408300000000000 C
   0.0555000000000000    0.5704399999999999    0.5778700000000000 C
   0.0423300000000000    0.5300300000000000    0.6685800000000000 C
   0.0802100000000000    0.5596700000000000    0.7024000000000000 C
   0.1322600000000000    0.6303299999999999    0.6460600000000000 C
   0.1449200000000000    0.6710900000000000    0.5554300000000000 C
   0.1069300000000000    0.6417400000000000    0.5217000000000001 C
   0.1733800000000000    0.6616600000000000    0.6826200000000000 C
   0.0524200000000000    0.5314700000000000    0.4631400000000000 N
   0.1279300000000000    0.5012900000000000    0.3723200000000000 N
   0.1721100000000000    0.3797700000000000    0.4930200000000000 N
   0.2241000000000000    0.7183500000000000    0.6288200000000000 O
   0.1535400000000000    0.6279500000000000    0.7658500000000000 O
