H3 C9 O6
1.0
  21.3078503187301855    0.0000000000000000    6.7551553494046281
  -2.4553563479160885   14.6864369251005318    7.6926845541587028
   0.0000000000000000    0.0000000000000000   18.2620000000000005
H C O
3 9 6
direct
   0.7246600000000000    0.6880900000000000    0.3052700000000000 H
   0.8400000000000000    0.7603000000000000    0.0402900000000000 H
   0.7676800000000000    0.9677600000000000    0.1008300000000000 H
   0.7483100000000000    0.7393999999999999    0.2372600000000000 C
   0.7836100000000000    0.7134500000000000    0.1764600000000000 C
   0.8134200000000000    0.7799199999999999    0.0884800000000000 C
   0.8090700000000000    0.8717300000000000    0.0619600000000000 C
   0.7720500000000000    0.8964299999999999    0.1228800000000000 C
   0.7411000000000000    0.8305000000000000    0.2102000000000000 C
   0.8421999999999999    0.9439000000000000    0.9678300000000000 C
   0.7000800000000000    0.8554900000000000    0.2750600000000000 C
   0.7859000000000000    0.6145000000000000    0.2050900000000000 C
   0.8409600000000000    0.0269700000000000    0.9568500000000000 O
   0.8668500000000000    0.9237200000000000    0.9093900000000000 O
   0.6926900000000000    0.8121300000000000    0.3545000000000000 O
   0.6718499999999999    0.9271100000000000    0.2445300000000000 O
   0.7683400000000000    0.5590900000000000    0.2878000000000000 O
   0.8043900000000000    0.5922700000000000    0.1449600000000000 O
