H2 C6 S1 O4
1.0
  24.1784535837005912    0.0000000000000000   -0.2734635274327247
  -0.0008239264726853   14.0409977859338397   -0.0078419733610293
   0.0000000000000000    0.0000000000000000   31.2669999999999995
H C S O
2 6 1 4
direct
   0.2118700000000000    0.3008200000000000    0.8395100000000000 H
   0.2057775000000000    0.1833400000000000    0.9044650000000001 H
   0.2440425000000000    0.2147800000000000    0.8932850000000000 C
   0.2474100000000000    0.2786400000000000    0.8586849999999999 C
   0.3071250000000000    0.1325000000000000    0.9485300000000000 C
   0.2950600000000000    0.1966200000000000    0.9123350000000000 C
   0.3010150000000000    0.3101400000000000    0.8518749999999999 C
   0.3219100000000000    0.3773300000000000    0.8191800000000000 C
   0.3470575000000000    0.2601500000000000    0.8880300000000000 S
   0.3572175000000000    1.1160399999999999    0.9592800000000000 O
   0.2660525000000000    0.0959100000000000    0.9684400000000000 O
   0.3735875000000000    0.3947200000000000    0.8197850000000000 O
   0.2868400000000000    0.4129000000000000    0.7926200000000000 O
