Sr32 H68 C186 S31 O128
1.0
  24.1784535837005912    0.0000000000000000   -0.2734635274327247
  -0.0008239264726853   14.0409977859338397   -0.0078419733610293
   0.0000000000000000    0.0000000000000000   31.2669999999999995
Sr H C S O
32 68 186 31 128
direct
   0.1833450000000000    0.9915300000000000    0.4693700000000000 Sr
   0.4416675000000000    0.4918200000000000    0.2807150000000000 Sr
   0.4333450000000000    0.9915300000000000    0.4693700000000000 Sr
   0.6916675000000000    0.4918200000000000    0.2807150000000000 Sr
   0.6833450000000000    0.9915300000000000    0.4693700000000000 Sr
   0.9416675000000000    0.4918200000000000    0.2807150000000000 Sr
   0.9333450000000000    0.9915300000000000    0.4693700000000000 Sr
   0.1916675000000000    0.4918200000000000    0.2807150000000000 Sr
   0.8166774999999999    0.0084500000000000    0.5306300000000000 Sr
   0.5583500000000000    0.5081700000000000    0.7192850000000000 Sr
   0.0666775000000000    0.0084500000000000    0.5306300000000000 Sr
   0.8083500000000000    0.5081700000000000    0.7192850000000000 Sr
   0.6833450000000000    0.9915300000000000    0.9693700000000001 Sr
   0.9416675000000000    0.4918200000000000    0.7807150000000000 Sr
   0.0583500000000000    0.5081700000000000    0.7192850000000000 Sr
   0.5666774999999999    0.0084500000000000    0.5306300000000000 Sr
   0.9333450000000000    0.9915300000000000    0.9693700000000001 Sr
   0.1833450000000000    0.9915300000000000    0.9693700000000001 Sr
   0.1916675000000000    0.4918200000000000    0.7807150000000000 Sr
   0.4416675000000000    0.4918200000000000    0.7807150000000000 Sr
   0.3083500000000000    0.5081700000000000    0.7192850000000000 Sr
   0.4333450000000000    0.9915300000000000    0.9693700000000001 Sr
   0.3166775000000000    0.0084500000000000    0.5306300000000000 Sr
   0.6916675000000000    0.4918200000000000    0.7807150000000000 Sr
   0.8166774999999999    0.0084500000000000    0.0306300000000000 Sr
   0.5583500000000000    0.5081700000000000    0.2192850000000000 Sr
   0.5666774999999999    0.0084500000000000    0.0306300000000000 Sr
   0.3083500000000000    0.5081700000000000    0.2192850000000000 Sr
   0.3166775000000000    0.0084500000000000    0.0306300000000000 Sr
   0.0583500000000000    0.5081700000000000    0.2192850000000000 Sr
   0.0666775000000000    0.0084500000000000    0.0306300000000000 Sr
   0.8083500000000000    0.5081700000000000    0.2192850000000000 Sr
   0.4192125000000000    0.6825200000000000    0.3458200000000000 H
   0.4130450000000000    0.7992300000000000    0.4111200000000000 H
   0.2057775000000000    0.1833400000000000    0.4044650000000000 H
   0.2118700000000000    0.3008200000000000    0.3395100000000000 H
   0.6692125000000000    0.6825200000000000    0.3458200000000000 H
   0.6630450000000000    0.7992300000000000    0.4111200000000000 H
   0.4557775000000000    0.1833400000000000    0.4044650000000000 H
   0.4618700000000000    0.3008200000000000    0.3395100000000000 H
   0.9192125000000000    0.6825200000000000    0.3458200000000000 H
   0.9130450000000000    0.7992300000000000    0.4111200000000000 H
   0.7057774999999999    0.1833400000000000    0.4044650000000000 H
   0.7118700000000000    0.3008200000000000    0.3395100000000000 H
   0.1692125000000000    0.6825200000000000    0.3458200000000000 H
   0.1630450000000000    0.7992300000000000    0.4111200000000000 H
   0.9557774999999999    0.1833400000000000    0.4044650000000000 H
   0.9618700000000000    0.3008200000000000    0.3395100000000000 H
   0.5808050000000000    0.3174600000000000    0.6541800000000000 H
   0.5869725000000000    0.2007600000000000    0.5888850000000000 H
   0.7942450000000000    0.8166400000000000    0.5955350000000000 H
   0.7881525000000000    0.6991600000000000    0.6604900000000000 H
   0.8308050000000000    0.3174600000000000    0.6541800000000000 H
   0.8369725000000000    0.2007600000000000    0.5888850000000000 H
   0.0442450000000000    0.8166400000000000    0.5955350000000000 H
   0.0381525000000000    0.6991600000000000    0.6604900000000000 H
   0.9192125000000000    0.6825200000000000    0.8458200000000000 H
   0.9130450000000000    0.7992300000000000    0.9111199999999999 H
   0.7057774999999999    0.1833400000000000    0.9044650000000001 H
   0.7118700000000000    0.3008200000000000    0.8395100000000000 H
   0.2942450000000000    0.8166400000000000    0.5955350000000000 H
   0.2881525000000000    0.6991600000000000    0.6604900000000000 H
   0.3308050000000000    0.3174600000000000    0.6541800000000000 H
   0.3369725000000000    0.2007600000000000    0.5888850000000000 H
   0.1692125000000000    0.6825200000000000    0.8458200000000000 H
   0.1630450000000000    0.7992300000000000    0.9111199999999999 H
   0.4192125000000000    0.6825200000000000    0.8458200000000000 H
   0.4130450000000000    0.7992300000000000    0.9111199999999999 H
   0.9557774999999999    0.1833400000000000    0.9044650000000001 H
   0.9618700000000000    0.3008200000000000    0.8395100000000000 H
   0.5442450000000000    0.8166400000000000    0.5955350000000000 H
   0.5381525000000000    0.6991600000000000    0.6604900000000000 H
   0.6692125000000000    0.6825200000000000    0.8458200000000000 H
   0.6630450000000000    0.7992300000000000    0.9111199999999999 H
   0.2646655097092783    0.0781864368169276    0.9384578120998603 H
   0.3741752571381504    1.1048579755963857    0.9317622932757851 H
   0.0808050000000000    0.3174600000000000    0.6541800000000000 H
   0.0869725000000000    0.2007600000000000    0.5888850000000000 H
   0.4557775000000000    0.1833400000000000    0.9044650000000001 H
   0.4618700000000000    0.3008200000000000    0.8395100000000000 H
   0.3461403976274733    0.4163865553666335    0.8025603575740590 H
   0.4128632424352127    0.3970292096519529    0.8263686813817885 H
   0.2573522328177230    0.4361774422458783    0.7741147225116732 H
   0.5808050000000000    0.3174600000000000    0.1541800000000000 H
   0.5869725000000000    0.2007600000000000    0.0888850000000000 H
   0.7942450000000000    0.8166400000000000    0.0955350000000000 H
   0.7881525000000000    0.6991600000000000    0.1604900000000000 H
   0.3308050000000000    0.3174600000000000    0.1541800000000000 H
   0.3369725000000000    0.2007600000000000    0.0888850000000000 H
   0.5442450000000000    0.8166400000000000    0.0955350000000000 H
   0.5381525000000000    0.6991600000000000    0.1604900000000000 H
   0.0808050000000000    0.3174600000000000    0.1541800000000000 H
   0.0869725000000000    0.2007600000000000    0.0888850000000000 H
   0.2942450000000000    0.8166400000000000    0.0955350000000000 H
   0.2881525000000000    0.6991600000000000    0.1604900000000000 H
   0.8308050000000000    0.3174600000000000    0.1541800000000000 H
   0.8369725000000000    0.2007600000000000    0.0888850000000000 H
   0.0442450000000000    0.8166400000000000    0.0955350000000000 H
   0.0381525000000000    0.6991600000000000    0.1604900000000000 H
   0.3512459570664607    0.0397330357832969    0.8301947976847277 H
   0.3030150000000000    0.8756699999999999    0.4314900000000000 C
   0.3179000000000000    0.6323800000000001    0.3014700000000000 C
   0.3809300000000000    0.7137900000000000    0.3570650000000000 C
   0.3299450000000000    0.6958600000000000    0.3379250000000000 C
   0.3775375000000000    0.7772600000000000    0.3918450000000000 C
   0.3239150000000000    0.8086100000000001    0.3987200000000000 C
   0.3219100000000000    0.3773300000000000    0.3191800000000000 C
   0.3071250000000000    0.1325000000000000    0.4485300000000000 C
   0.2440425000000000    0.2147800000000000    0.3932850000000000 C
   0.2950600000000000    0.1966200000000000    0.4123350000000000 C
   0.2474100000000000    0.2786400000000000    0.3586850000000000 C
   0.3010150000000000    0.3101400000000000    0.3518750000000000 C
   0.5530150000000000    0.8756699999999999    0.4314900000000000 C
   0.5679000000000000    0.6323800000000001    0.3014700000000000 C
   0.6309300000000000    0.7137900000000000    0.3570650000000000 C
   0.5799450000000000    0.6958600000000000    0.3379250000000000 C
   0.6275375000000000    0.7772600000000000    0.3918450000000000 C
   0.5739150000000000    0.8086100000000001    0.3987200000000000 C
   0.5719100000000000    0.3773300000000000    0.3191800000000000 C
   0.5571250000000000    0.1325000000000000    0.4485300000000000 C
   0.4940425000000000    0.2147800000000000    0.3932850000000000 C
   0.5450600000000000    0.1966200000000000    0.4123350000000000 C
   0.4974100000000000    0.2786400000000000    0.3586850000000000 C
   0.5510150000000000    0.3101400000000000    0.3518750000000000 C
   0.8030150000000000    0.8756699999999999    0.4314900000000000 C
   0.8179000000000000    0.6323800000000001    0.3014700000000000 C
   0.8809300000000000    0.7137900000000000    0.3570650000000000 C
   0.8299450000000000    0.6958600000000000    0.3379250000000000 C
   0.8775375000000000    0.7772600000000000    0.3918450000000000 C
   0.8239150000000000    0.8086100000000001    0.3987200000000000 C
   0.8219100000000000    0.3773300000000000    0.3191800000000000 C
   0.8071250000000000    0.1325000000000000    0.4485300000000000 C
   0.7440424999999999    0.2147800000000000    0.3932850000000000 C
   0.7950600000000000    0.1966200000000000    0.4123350000000000 C
   0.7474100000000000    0.2786400000000000    0.3586850000000000 C
   0.8010150000000000    0.3101400000000000    0.3518750000000000 C
   0.0530150000000000    0.8756699999999999    0.4314900000000000 C
   0.0679000000000000    0.6323800000000001    0.3014700000000000 C
   0.1309300000000000    0.7137900000000000    0.3570650000000000 C
   0.0799450000000000    0.6958600000000000    0.3379250000000000 C
   0.1275375000000000    0.7772600000000000    0.3918450000000000 C
   0.0739150000000000    0.8086100000000001    0.3987200000000000 C
   0.0719100000000000    0.3773300000000000    0.3191800000000000 C
   0.0571250000000000    0.1325000000000000    0.4485300000000000 C
   0.9940424999999999    0.2147800000000000    0.3932850000000000 C
   0.0450600000000000    0.1966200000000000    0.4123350000000000 C
   0.9974100000000000    0.2786400000000000    0.3586850000000000 C
   0.0510150000000000    0.3101400000000000    0.3518750000000000 C
   0.6970025000000000    0.1243200000000000    0.5685100000000000 C
   0.6821174999999999    0.3676100000000000    0.6985300000000000 C
   0.6190850000000000    0.2861900000000000    0.6429350000000000 C
   0.6700699999999999    0.3041200000000000    0.6620750000000000 C
   0.6224800000000000    0.2227300000000000    0.6081550000000000 C
   0.6761025000000001    0.1913800000000000    0.6012800000000000 C
   0.6781100000000000    0.6226600000000000    0.6808250000000000 C
   0.6928950000000000    0.8674900000000000    0.5514700000000000 C
   0.7559800000000000    0.7852100000000000    0.6067150000000000 C
   0.7049600000000000    0.8033600000000000    0.5876650000000000 C
   0.7526075000000000    0.7213500000000000    0.6413150000000000 C
   0.6990025000000000    0.6898400000000000    0.6481250000000001 C
   0.9470025000000000    0.1243200000000000    0.5685100000000000 C
   0.9321174999999999    0.3676100000000000    0.6985300000000000 C
   0.8690850000000000    0.2861900000000000    0.6429350000000000 C
   0.9200699999999999    0.3041200000000000    0.6620750000000000 C
   0.8724800000000000    0.2227300000000000    0.6081550000000000 C
   0.9261025000000001    0.1913800000000000    0.6012800000000000 C
   0.9281100000000000    0.6226600000000000    0.6808250000000000 C
   0.9428950000000000    0.8674900000000000    0.5514700000000000 C
   0.0059800000000000    0.7852100000000000    0.6067150000000000 C
   0.9549600000000000    0.8033600000000000    0.5876650000000000 C
   0.0026075000000000    0.7213500000000000    0.6413150000000000 C
   0.9490025000000000    0.6898400000000000    0.6481250000000001 C
   0.8030150000000000    0.8756699999999999    0.9314899999999999 C
   0.8179000000000000    0.6323800000000001    0.8014700000000000 C
   0.8809300000000000    0.7137900000000000    0.8570650000000000 C
   0.8299450000000000    0.6958600000000000    0.8379250000000000 C
   0.8775375000000000    0.7772600000000000    0.8918450000000000 C
   0.8239150000000000    0.8086100000000001    0.8987200000000000 C
   0.8219100000000000    0.3773300000000000    0.8191800000000000 C
   0.8071250000000000    0.1325000000000000    0.9485300000000000 C
   0.7440424999999999    0.2147800000000000    0.8932850000000000 C
   0.7950600000000000    0.1966200000000000    0.9123350000000000 C
   0.7474100000000000    0.2786400000000000    0.8586849999999999 C
   0.8010150000000000    0.3101400000000000    0.8518749999999999 C
   0.1781100000000000    0.6226600000000000    0.6808250000000000 C
   0.1928950000000000    0.8674900000000000    0.5514700000000000 C
   0.2559800000000000    0.7852100000000000    0.6067150000000000 C
   0.2049600000000000    0.8033600000000000    0.5876650000000000 C
   0.2526075000000000    0.7213500000000000    0.6413150000000000 C
   0.1990025000000000    0.6898400000000000    0.6481250000000001 C
   0.4470025000000000    0.1243200000000000    0.5685100000000000 C
   0.4321175000000000    0.3676100000000000    0.6985300000000000 C
   0.3690850000000000    0.2861900000000000    0.6429350000000000 C
   0.4200700000000000    0.3041200000000000    0.6620750000000000 C
   0.3724800000000000    0.2227300000000000    0.6081550000000000 C
   0.4261025000000000    0.1913800000000000    0.6012800000000000 C
   0.0530150000000000    0.8756699999999999    0.9314899999999999 C
   0.0679000000000000    0.6323800000000001    0.8014700000000000 C
   0.1309300000000000    0.7137900000000000    0.8570650000000000 C
   0.0799450000000000    0.6958600000000000    0.8379250000000000 C
   0.1275375000000000    0.7772600000000000    0.8918450000000000 C
   0.0739150000000000    0.8086100000000001    0.8987200000000000 C
   0.3030150000000000    0.8756699999999999    0.9314899999999999 C
   0.3179000000000000    0.6323800000000001    0.8014700000000000 C
   0.3809300000000000    0.7137900000000000    0.8570650000000000 C
   0.3299450000000000    0.6958600000000000    0.8379250000000000 C
   0.3775375000000000    0.7772600000000000    0.8918450000000000 C
   0.3239150000000000    0.8086100000000001    0.8987200000000000 C
   0.0719100000000000    0.3773300000000000    0.8191800000000000 C
   0.0571250000000000    0.1325000000000000    0.9485300000000000 C
   0.9940424999999999    0.2147800000000000    0.8932850000000000 C
   0.0450600000000000    0.1966200000000000    0.9123350000000000 C
   0.9974100000000000    0.2786400000000000    0.8586849999999999 C
   0.0510150000000000    0.3101400000000000    0.8518749999999999 C
   0.4281100000000000    0.6226600000000000    0.6808250000000000 C
   0.4428950000000000    0.8674900000000000    0.5514700000000000 C
   0.5059800000000000    0.7852100000000000    0.6067150000000000 C
   0.4549600000000000    0.8033600000000000    0.5876650000000000 C
   0.5026075000000000    0.7213500000000000    0.6413150000000000 C
   0.4490025000000000    0.6898400000000000    0.6481250000000001 C
   0.5530150000000000    0.8756699999999999    0.9314899999999999 C
   0.5679000000000000    0.6323800000000001    0.8014700000000000 C
   0.6309300000000000    0.7137900000000000    0.8570650000000000 C
   0.5799450000000000    0.6958600000000000    0.8379250000000000 C
   0.6275375000000000    0.7772600000000000    0.8918450000000000 C
   0.5739150000000000    0.8086100000000001    0.8987200000000000 C
   0.1970025000000000    0.1243200000000000    0.5685100000000000 C
   0.1821175000000000    0.3676100000000000    0.6985300000000000 C
   0.1190850000000000    0.2861900000000000    0.6429350000000000 C
   0.1700700000000000    0.3041200000000000    0.6620750000000000 C
   0.1224800000000000    0.2227300000000000    0.6081550000000000 C
   0.1761025000000000    0.1913800000000000    0.6012800000000000 C
   0.5719100000000000    0.3773300000000000    0.8191800000000000 C
   0.5571250000000000    0.1325000000000000    0.9485300000000000 C
   0.4940425000000000    0.2147800000000000    0.8932850000000000 C
   0.5450600000000000    0.1966200000000000    0.9123350000000000 C
   0.4974100000000000    0.2786400000000000    0.8586849999999999 C
   0.5510150000000000    0.3101400000000000    0.8518749999999999 C
   0.6970025000000000    0.1243200000000000    0.0685100000000000 C
   0.6821174999999999    0.3676100000000000    0.1985300000000000 C
   0.6190850000000000    0.2861900000000000    0.1429350000000000 C
   0.6700699999999999    0.3041200000000000    0.1620750000000000 C
   0.6224800000000000    0.2227300000000000    0.1081550000000000 C
   0.6761025000000001    0.1913800000000000    0.1012800000000000 C
   0.6781100000000000    0.6226600000000000    0.1808250000000000 C
   0.6928950000000000    0.8674900000000000    0.0514700000000000 C
   0.7559800000000000    0.7852100000000000    0.1067150000000000 C
   0.7049600000000000    0.8033600000000000    0.0876650000000000 C
   0.7526075000000000    0.7213500000000000    0.1413150000000000 C
   0.6990025000000000    0.6898400000000000    0.1481250000000000 C
   0.4470025000000000    0.1243200000000000    0.0685100000000000 C
   0.4321175000000000    0.3676100000000000    0.1985300000000000 C
   0.3690850000000000    0.2861900000000000    0.1429350000000000 C
   0.4200700000000000    0.3041200000000000    0.1620750000000000 C
   0.3724800000000000    0.2227300000000000    0.1081550000000000 C
   0.4261025000000000    0.1913800000000000    0.1012800000000000 C
   0.4281100000000000    0.6226600000000000    0.1808250000000000 C
   0.4428950000000000    0.8674900000000000    0.0514700000000000 C
   0.5059800000000000    0.7852100000000000    0.1067150000000000 C
   0.4549600000000000    0.8033600000000000    0.0876650000000000 C
   0.5026075000000000    0.7213500000000000    0.1413150000000000 C
   0.4490025000000000    0.6898400000000000    0.1481250000000000 C
   0.1970025000000000    0.1243200000000000    0.0685100000000000 C
   0.1821175000000000    0.3676100000000000    0.1985300000000000 C
   0.1190850000000000    0.2861900000000000    0.1429350000000000 C
   0.1700700000000000    0.3041200000000000    0.1620750000000000 C
   0.1224800000000000    0.2227300000000000    0.1081550000000000 C
   0.1761025000000000    0.1913800000000000    0.1012800000000000 C
   0.1781100000000000    0.6226600000000000    0.1808250000000000 C
   0.1928950000000000    0.8674900000000000    0.0514700000000000 C
   0.2559800000000000    0.7852100000000000    0.1067150000000000 C
   0.2049600000000000    0.8033600000000000    0.0876650000000000 C
   0.2526075000000000    0.7213500000000000    0.1413150000000000 C
   0.1990025000000000    0.6898400000000000    0.1481250000000000 C
   0.9470025000000000    0.1243200000000000    0.0685100000000000 C
   0.9321174999999999    0.3676100000000000    0.1985300000000000 C
   0.8690850000000000    0.2861900000000000    0.1429350000000000 C
   0.9200699999999999    0.3041200000000000    0.1620750000000000 C
   0.8724800000000000    0.2227300000000000    0.1081550000000000 C
   0.9261025000000001    0.1913800000000000    0.1012800000000000 C
   0.9281100000000000    0.6226600000000000    0.1808250000000000 C
   0.9428950000000000    0.8674900000000000    0.0514700000000000 C
   0.0059800000000000    0.7852100000000000    0.1067150000000000 C
   0.9549600000000000    0.8033600000000000    0.0876650000000000 C
   0.0026075000000000    0.7213500000000000    0.1413150000000000 C
   0.9490025000000000    0.6898400000000000    0.1481250000000000 C
   0.2778975000000000    0.7589100000000000    0.3624400000000000 S
   0.3470575000000000    0.2601500000000000    0.3880300000000000 S
   0.5278975000000000    0.7589100000000000    0.3624400000000000 S
   0.5970575000000000    0.2601500000000000    0.3880300000000000 S
   0.7778975000000000    0.7589100000000000    0.3624400000000000 S
   0.8470575000000000    0.2601500000000000    0.3880300000000000 S
   0.0278975000000000    0.7589100000000000    0.3624400000000000 S
   0.0970575000000000    0.2601500000000000    0.3880300000000000 S
   0.7221200000000000    0.2410800000000000    0.6375649999999999 S
   0.6529600000000000    0.7398400000000001    0.6119700000000000 S
   0.9721200000000000    0.2410800000000000    0.6375649999999999 S
   0.9029600000000000    0.7398400000000001    0.6119700000000000 S
   0.7778975000000000    0.7589100000000000    0.8624400000000000 S
   0.8470575000000000    0.2601500000000000    0.8880300000000000 S
   0.1529600000000000    0.7398400000000001    0.6119700000000000 S
   0.4721200000000000    0.2410800000000000    0.6375649999999999 S
   0.0278975000000000    0.7589100000000000    0.8624400000000000 S
   0.2778975000000000    0.7589100000000000    0.8624400000000000 S
   0.0970575000000000    0.2601500000000000    0.8880300000000000 S
   0.4029600000000000    0.7398400000000001    0.6119700000000000 S
   0.5278975000000000    0.7589100000000000    0.8624400000000000 S
   0.2221200000000000    0.2410800000000000    0.6375649999999999 S
   0.5970575000000000    0.2601500000000000    0.8880300000000000 S
   0.7221200000000000    0.2410800000000000    0.1375650000000000 S
   0.6529600000000000    0.7398400000000001    0.1119700000000000 S
   0.4721200000000000    0.2410800000000000    0.1375650000000000 S
   0.4029600000000000    0.7398400000000001    0.1119700000000000 S
   0.2221200000000000    0.2410800000000000    0.1375650000000000 S
   0.1529600000000000    0.7398400000000001    0.1119700000000000 S
   0.9721200000000000    0.2410800000000000    0.1375650000000000 S
   0.9029600000000000    0.7398400000000001    0.1119700000000000 S
   0.2511900000000000    0.8916600000000000    0.4314400000000000 O
   0.3382425000000000    0.9127300000000000    0.4575150000000000 O
   0.2678000000000000    0.6160600000000001    0.2906850000000000 O
   0.3589550000000000    0.5962300000000000    0.2813700000000000 O
   0.3735875000000000    0.3947200000000000    0.3197850000000000 O
   0.2868400000000000    0.4129000000000000    0.2926200000000000 O
   0.3572175000000000    0.1160400000000000    0.4592800000000000 O
   0.2660525000000000    0.0959100000000000    0.4684400000000000 O
   0.5011900000000000    0.8916600000000000    0.4314400000000000 O
   0.5882425000000000    0.9127300000000000    0.4575150000000000 O
   0.5178000000000000    0.6160600000000001    0.2906850000000000 O
   0.6089550000000000    0.5962300000000000    0.2813700000000000 O
   0.6235875000000000    0.3947200000000000    0.3197850000000000 O
   0.5368400000000000    0.4129000000000000    0.2926200000000000 O
   0.6072175000000000    0.1160400000000000    0.4592800000000000 O
   0.5160525000000000    0.0959100000000000    0.4684400000000000 O
   0.7511900000000000    0.8916600000000000    0.4314400000000000 O
   0.8382425000000000    0.9127300000000000    0.4575150000000000 O
   0.7678000000000000    0.6160600000000001    0.2906850000000000 O
   0.8589550000000000    0.5962300000000000    0.2813700000000000 O
   0.8735875000000000    0.3947200000000000    0.3197850000000000 O
   0.7868400000000000    0.4129000000000000    0.2926200000000000 O
   0.8572175000000000    0.1160400000000000    0.4592800000000000 O
   0.7660525000000000    0.0959100000000000    0.4684400000000000 O
   0.0011900000000000    0.8916600000000000    0.4314400000000000 O
   0.0882425000000000    0.9127300000000000    0.4575150000000000 O
   0.0178000000000000    0.6160600000000001    0.2906850000000000 O
   0.1089550000000000    0.5962300000000000    0.2813700000000000 O
   0.1235875000000000    0.3947200000000000    0.3197850000000000 O
   0.0368400000000000    0.4129000000000000    0.2926200000000000 O
   0.1072175000000000    0.1160400000000000    0.4592800000000000 O
   0.0160525000000000    0.0959100000000000    0.4684400000000000 O
   0.7488325000000000    0.1083300000000000    0.5685550000000000 O
   0.6617775000000000    0.0872600000000000    0.5424850000000000 O
   0.7322175000000000    0.3839300000000000    0.7093150000000000 O
   0.6410600000000000    0.4037600000000000    0.7186300000000000 O
   0.6264300000000000    0.6052700000000000    0.6802150000000000 O
   0.7131775000000000    0.5870900000000000    0.7073800000000000 O
   0.6428024999999999    0.8839500000000000    0.5407200000000000 O
   0.7339625000000000    0.9040800000000000    0.5315600000000000 O
   0.9988325000000000    0.1083300000000000    0.5685550000000000 O
   0.9117775000000000    0.0872600000000000    0.5424850000000000 O
   0.9822175000000000    0.3839300000000000    0.7093150000000000 O
   0.8910600000000000    0.4037600000000000    0.7186300000000000 O
   0.8764300000000000    0.6052700000000000    0.6802150000000000 O
   0.9631775000000000    0.5870900000000000    0.7073800000000000 O
   0.8928024999999999    0.8839500000000000    0.5407200000000000 O
   0.9839625000000000    0.9040800000000000    0.5315600000000000 O
   0.7511900000000000    0.8916600000000000    0.9314400000000000 O
   0.8382425000000000    0.9127300000000000    0.9575150000000000 O
   0.7678000000000000    0.6160600000000001    0.7906850000000001 O
   0.8589550000000000    0.5962300000000000    0.7813700000000000 O
   0.8735875000000000    0.3947200000000000    0.8197850000000000 O
   0.7868400000000000    0.4129000000000000    0.7926200000000000 O
   0.8572175000000000    0.1160400000000000    0.9592800000000000 O
   0.7660525000000000    0.0959100000000000    0.9684400000000000 O
   0.1264300000000000    0.6052700000000000    0.6802150000000000 O
   0.2131775000000000    0.5870900000000000    0.7073800000000000 O
   0.1428025000000000    0.8839500000000000    0.5407200000000000 O
   0.2339625000000000    0.9040800000000000    0.5315600000000000 O
   0.4988325000000000    0.1083300000000000    0.5685550000000000 O
   0.4117775000000000    0.0872600000000000    0.5424850000000000 O
   0.4822175000000000    0.3839300000000000    0.7093150000000000 O
   0.3910600000000000    0.4037600000000000    0.7186300000000000 O
   0.0011900000000000    0.8916600000000000    0.9314400000000000 O
   0.0882425000000000    0.9127300000000000    0.9575150000000000 O
   0.0178000000000000    0.6160600000000001    0.7906850000000001 O
   0.1089550000000000    0.5962300000000000    0.7813700000000000 O
   0.2511900000000000    0.8916600000000000    0.9314400000000000 O
   0.3382425000000000    0.9127300000000000    0.9575150000000000 O
   0.2678000000000000    0.6160600000000001    0.7906850000000001 O
   0.3589550000000000    0.5962300000000000    0.7813700000000000 O
   0.1235875000000000    0.3947200000000000    0.8197850000000000 O
   0.0368400000000000    0.4129000000000000    0.7926200000000000 O
   0.1072175000000000    0.1160400000000000    0.9592800000000000 O
   0.0160525000000000    0.0959100000000000    0.9684400000000000 O
   0.3764300000000000    0.6052700000000000    0.6802150000000000 O
   0.4631775000000000    0.5870900000000000    0.7073800000000000 O
   0.3928025000000000    0.8839500000000000    0.5407200000000000 O
   0.4839625000000000    0.9040800000000000    0.5315600000000000 O
   0.5011900000000000    0.8916600000000000    0.9314400000000000 O
   0.5882425000000000    0.9127300000000000    0.9575150000000000 O
   0.5178000000000000    0.6160600000000001    0.7906850000000001 O
   0.6089550000000000    0.5962300000000000    0.7813700000000000 O
   0.2660525000000000    0.0959100000000000    0.9684400000000000 O
   0.3572175000000000    1.1160399999999999    0.9592800000000000 O
   0.2488325000000000    0.1083300000000000    0.5685550000000000 O
   0.1617775000000000    0.0872600000000000    0.5424850000000000 O
   0.2322175000000000    0.3839300000000000    0.7093150000000000 O
   0.1410600000000000    0.4037600000000000    0.7186300000000000 O
   0.6235875000000000    0.3947200000000000    0.8197850000000000 O
   0.5368400000000000    0.4129000000000000    0.7926200000000000 O
   0.6072175000000000    0.1160400000000000    0.9592800000000000 O
   0.5160525000000000    0.0959100000000000    0.9684400000000000 O
   0.3735875000000000    0.3947200000000000    0.8197850000000000 O
   0.2868400000000000    0.4129000000000000    0.7926200000000000 O
   0.7488325000000000    0.1083300000000000    0.0685550000000000 O
   0.6617775000000000    0.0872600000000000    0.0424850000000000 O
   0.7322175000000000    0.3839300000000000    0.2093150000000000 O
   0.6410600000000000    0.4037600000000000    0.2186300000000000 O
   0.6264300000000000    0.6052700000000000    0.1802150000000000 O
   0.7131775000000000    0.5870900000000000    0.2073800000000000 O
   0.6428024999999999    0.8839500000000000    0.0407200000000000 O
   0.7339625000000000    0.9040800000000000    0.0315600000000000 O
   0.4988325000000000    0.1083300000000000    0.0685550000000000 O
   0.4117775000000000    0.0872600000000000    0.0424850000000000 O
   0.4822175000000000    0.3839300000000000    0.2093150000000000 O
   0.3910600000000000    0.4037600000000000    0.2186300000000000 O
   0.3764300000000000    0.6052700000000000    0.1802150000000000 O
   0.4631775000000000    0.5870900000000000    0.2073800000000000 O
   0.3928025000000000    0.8839500000000000    0.0407200000000000 O
   0.4839625000000000    0.9040800000000000    0.0315600000000000 O
   0.2488325000000000    0.1083300000000000    0.0685550000000000 O
   0.1617775000000000    0.0872600000000000    0.0424850000000000 O
   0.2322175000000000    0.3839300000000000    0.2093150000000000 O
   0.1410600000000000    0.4037600000000000    0.2186300000000000 O
   0.1264300000000000    0.6052700000000000    0.1802150000000000 O
   0.2131775000000000    0.5870900000000000    0.2073800000000000 O
   0.1428025000000000    0.8839500000000000    0.0407200000000000 O