Zn24 H50 C47 O96
1.0
  10.1179999244880836    0.0000000000000000   -0.0012361468929430
  -0.0115635515294296   11.5932431679516768   -0.2284718429430017
   0.0000000000000000    0.0000000000000000   29.5979999999999990
Zn H C O
24 50 47 96
direct
   0.5000000000000000    0.4999900000000000    0.7499950000000000 Zn
   0.4280100000000000    0.2548700000000000    0.8147949999999999 Zn
   0.1173300000000000    0.2594400000000000    0.8454650000000000 Zn
   0.0000000000000000    0.4999900000000000    0.0000000000000000 Zn
   0.5719900000000000    0.7451100000000001    0.1851900000000000 Zn
   0.8826700000000000    0.7405500000000000    0.1545200000000000 Zn
   0.5000000000000000    0.4999900000000000    0.2499950000000000 Zn
   0.0000000000000000    0.0000000000000000    0.5000000000000000 Zn
   0.0000000000000000    0.0000000000000000    0.0000000000000000 Zn
   0.0719700000000000    0.7549000000000000    0.5648200000000000 Zn
   0.3826500000000000    0.7594700000000000    0.5954800000000000 Zn
   0.5000000000000000    0.0000000000000000    0.7499950000000000 Zn
   0.9280300000000000    0.2450900000000000    0.9351650000000000 Zn
   0.6173500000000000    0.2405200000000000    0.9045050000000000 Zn
   0.0719700000000000    0.7549000000000000    0.0648200000000000 Zn
   0.3826500000000000    0.7594700000000000    0.0954800000000000 Zn
   0.5000000000000000    0.0000000000000000    0.2499950000000000 Zn
   0.4280100000000000    0.2548700000000000    0.3147950000000000 Zn
   0.1173300000000000    0.2594400000000000    0.3454650000000000 Zn
   0.9280300000000000    0.2450900000000000    0.4351650000000000 Zn
   0.6173500000000000    0.2405200000000000    0.4045050000000000 Zn
   0.0000000000000000    0.4999900000000000    0.5000000000000000 Zn
   0.5719900000000000    0.7451100000000001    0.6851900000000000 Zn
   0.8826700000000000    0.7405500000000000    0.6545200000000000 Zn
   0.2950900000000000    0.5184800000000001    0.6328750000000000 H
   0.7049200000000000    0.4815000000000000    0.8671100000000000 H
   0.0505100000000000    0.5245200000000000    0.8642150000000000 H
   0.6626200000000000    0.1910800000000000    0.7097850000000000 H
   0.2091100000000000    0.5029800000000000    0.7560400000000000 H
   0.7575300000000000    0.1440200000000000    0.8137650000000001 H
   0.3899200000000000    0.5628100000000000    0.0216300000000000 H
   0.6100800000000000    0.4371700000000000    0.9783550000000000 H
   0.9494800000000000    0.4754600000000000    0.1357650000000000 H
   0.3373800000000000    0.8089100000000000    0.2902000000000000 H
   0.7908900000000000    0.4970000000000000    0.2439450000000000 H
   0.2424700000000000    0.8559600000000001    0.1862150000000000 H
   0.2950900000000000    0.5184800000000001    0.1328750000000000 H
   0.7049200000000000    0.4815000000000000    0.3671100000000000 H
   0.2046800000000000    0.0186500000000000    0.3828450000000000 H
   0.7953300000000000    0.9813400000000000    0.6171400000000000 H
   0.1110187021583567    0.1340659108579212    0.4856926574170434 H
   0.2046800000000000    0.0186500000000000    0.8828450000000000 H
   0.7953300000000000    0.9813400000000000    0.1171400000000000 H
   0.4498900000000000    0.0245400000000000    0.6142350000000000 H
   0.8376200000000000    0.6908500000000000    0.4596900000000000 H
   0.2911200000000000    0.0033100000000000    0.5000000000000000 H
   0.7422200000000000    0.6440200000000000    0.5638000000000000 H
   0.8900000000000000    0.9375700000000000    0.7284200000000001 H
   0.1100000000000000    0.0624200000000000    0.7715650000000001 H
   0.5501200000000001    0.9754500000000000    0.8857500000000000 H
   0.1623700000000000    0.3091400000000000    0.0402950000000000 H
   0.7088800000000000    0.9966800000000000    0.9938350000000000 H
   0.2577800000000000    0.3559700000000000    0.9361800000000000 H
   0.4498900000000000    0.0245400000000000    0.1142350000000000 H
   0.8376200000000000    0.6908500000000000    0.9596899999999999 H
   0.2911200000000000    0.0033100000000000    0.0000000000000000 H
   0.7422200000000000    0.6440200000000000    0.0638000000000000 H
   0.8900000000000000    0.9375700000000000    0.2284200000000000 H
   0.1100000000000000    0.0624200000000000    0.2715650000000000 H
   0.6626200000000000    0.1910800000000000    0.2097850000000000 H
   0.7575300000000000    0.1440200000000000    0.3137650000000000 H
   0.0242806941470483    0.2436590845551157    0.3386635440252092 H
   0.2091100000000000    0.5029800000000000    0.2560400000000000 H
   0.5501200000000001    0.9754500000000000    0.3857500000000000 H
   0.0505100000000000    0.5245200000000000    0.3642150000000000 H
   0.0120419925809895    0.3310965227927877    0.4583771190185782 H
   0.7088800000000000    0.9966800000000000    0.4938350000000000 H
   0.2577800000000000    0.3559700000000000    0.4361800000000000 H
   0.3899200000000000    0.5628100000000000    0.5216300000000000 H
   0.6100800000000000    0.4371700000000000    0.4783550000000000 H
   0.9494800000000000    0.4754600000000000    0.6357650000000000 H
   0.3373800000000000    0.8089100000000000    0.7902000000000000 H
   0.7908900000000000    0.4970000000000000    0.7439450000000000 H
   0.2424700000000000    0.8559600000000001    0.6862150000000000 H
   0.3665800000000000    0.5477900000000000    0.6590100000000000 C
   0.6334200000000000    0.4521900000000000    0.8409750000000000 C
   0.0241500000000000    0.4801300000000000    0.8956850000000001 C
   0.6018600000000000    0.2437700000000000    0.7332050000000000 C
   0.2268200000000000    0.4300800000000000    0.7785900000000000 C
   0.8392100000000000    0.1761700000000000    0.8352800000000000 C
   0.2824000000000000    0.5773800000000000    0.0251600000000000 C
   0.7176000000000000    0.4226100000000000    0.9748250000000001 C
   0.9758500000000000    0.5198600000000000    0.1043000000000000 C
   0.3981400000000000    0.7562100000000000    0.2667800000000000 C
   0.7731800000000000    0.5699100000000000    0.2213950000000000 C
   0.1607900000000000    0.8238200000000000    0.1647050000000000 C
   0.3665800000000000    0.5477900000000000    0.1590100000000000 C
   0.6334200000000000    0.4521900000000000    0.3409750000000000 C
   0.1332700000000000    0.0478800000000000    0.4089950000000000 C
   0.8667300000000000    0.9521100000000000    0.5909900000000000 C
   0.1332700000000000    0.0478800000000000    0.9089950000000000 C
   0.8667300000000000    0.9521100000000000    0.0909900000000000 C
   0.4760900000000000    0.9801400000000000    0.6457100000000000 C
   0.8982400000000000    0.7436300000000000    0.4831700000000000 C
   0.2733000000000000    0.9302600000000000    0.5286500000000000 C
   0.6606400000000000    0.6761900000000000    0.5853150000000000 C
   0.7824900000000000    0.9227700000000000    0.7248749999999999 C
   0.2175100000000000    0.0772100000000000    0.7751100000000000 C
   0.5239100000000000    0.0198500000000000    0.8542750000000000 C
   0.1017600000000000    0.2563500000000000    0.0168150000000000 C
   0.7267000000000000    0.0697300000000000    0.9713350000000001 C
   0.3393600000000000    0.3238000000000000    0.9146700000000000 C
   0.4760900000000000    0.9801400000000000    0.1457100000000000 C
   0.8982400000000000    0.7436300000000000    0.9831700000000000 C
   0.2733000000000000    0.9302600000000000    0.0286500000000000 C
   0.6606400000000000    0.6761900000000000    0.0853150000000000 C
   0.7824900000000000    0.9227700000000000    0.2248750000000000 C
   0.2175100000000000    0.0772100000000000    0.2751100000000000 C
   0.6018600000000000    0.2437700000000000    0.2332050000000000 C
   0.8392100000000000    0.1761700000000000    0.3352800000000000 C
   0.2268200000000000    0.4300800000000000    0.2785900000000000 C
   0.5239100000000000    0.0198500000000000    0.3542750000000000 C
   0.0241500000000000    0.4801300000000000    0.3956850000000000 C
   0.7267000000000000    0.0697300000000000    0.4713350000000000 C
   0.3393600000000000    0.3238000000000000    0.4146700000000000 C
   0.2824000000000000    0.5773800000000000    0.5251600000000000 C
   0.7176000000000000    0.4226100000000000    0.4748250000000000 C
   0.9758500000000000    0.5198600000000000    0.6043000000000001 C
   0.3981400000000000    0.7562100000000000    0.7667800000000000 C
   0.7731800000000000    0.5699100000000000    0.7213950000000000 C
   0.1607900000000000    0.8238200000000000    0.6647050000000000 C
   0.3937400000000000    0.4791500000000000    0.6897500000000000 O
   0.4122100000000000    0.6503000000000000    0.6542250000000001 O
   0.6062600000000000    0.5208300000000000    0.8102300000000000 O
   0.5877900000000000    0.3496900000000000    0.8457600000000001 O
   0.9997800000000000    0.5401300000000000    0.9302550000000001 O
   0.0211100000000000    0.3692500000000000    0.8928900000000000 O
   0.6116700000000000    0.3509400000000000    0.7319350000000000 O
   0.5274700000000000    0.1855400000000000    0.7600600000000000 O
   0.1289000000000000    0.3892600000000000    0.7987900000000000 O
   0.3479200000000000    0.3964100000000000    0.7813550000000000 O
   0.9508799999999999    0.1853300000000000    0.8169150000000001 O
   0.8108000000000000    0.1997300000000000    0.8767100000000000 O
   0.2063900000000000    0.5196900000000000    0.0000000000000000 O
   0.2486700000000000    0.6530400000000000    0.0554900000000000 O
   0.7936100000000000    0.4803000000000000    0.9999400000000001 O
   0.7513300000000001    0.3469600000000000    0.9444900000000001 O
   0.0002200000000000    0.4598600000000000    0.0697300000000000 O
   0.9788900000000000    0.6307400000000000    0.1070900000000000 O
   0.3883300000000000    0.6490500000000000    0.2680500000000000 O
   0.4725300000000000    0.8144400000000001    0.2399250000000000 O
   0.8711000000000000    0.6107300000000000    0.2011900000000000 O
   0.6520800000000000    0.6035700000000001    0.2186300000000000 O
   0.0491200000000000    0.8146600000000001    0.1830700000000000 O
   0.1892000000000000    0.8002600000000000    0.1232700000000000 O
   0.3937400000000000    0.4791500000000000    0.1897500000000000 O
   0.4122100000000000    0.6503000000000000    0.1542250000000000 O
   0.6062600000000000    0.5208300000000000    0.3102300000000000 O
   0.5877900000000000    0.3496900000000000    0.3457600000000000 O
   0.1061800000000000    0.9792100000000000    0.4397550000000000 O
   0.0876500000000000    0.1503000000000000    0.4042100000000000 O
   0.8938199999999999    0.0207800000000000    0.5602300000000000 O
   0.9123500000000000    0.8496800000000000    0.5957749999999999 O
   0.1116900000000000    0.1492100000000000    0.5180400000000001 O
   0.1061800000000000    0.9792100000000000    0.9397550000000000 O
   0.0876500000000000    0.1503000000000000    0.9042100000000000 O
   0.8938199999999999    0.0207800000000000    0.0602300000000000 O
   0.9123500000000000    0.8496800000000000    0.0957750000000000 O
   0.5002799999999999    0.0401600000000000    0.6803049999999999 O
   0.4791400000000000    0.8692600000000000    0.6429000000000000 O
   0.8883000000000000    0.8507800000000000    0.4819450000000000 O
   0.9725800000000000    0.6855100000000000    0.5100500000000000 O
   0.3711700000000000    0.8893400000000000    0.5488100000000000 O
   0.1521400000000000    0.8965500000000000    0.5313900000000000 O
   0.5489700000000000    0.6853800000000000    0.5669550000000000 O
   0.6891400000000000    0.6997500000000000    0.6267450000000000 O
   0.7064300000000000    0.9803800000000000    0.7499300000000000 O
   0.7488300000000000    0.8469600000000000    0.6945650000000000 O
   0.2935700000000000    0.0196100000000000    0.7500550000000000 O
   0.2511700000000000    0.1530200000000000    0.8054250000000001 O
   0.4997200000000000    0.9598300000000000    0.8196800000000000 O
   0.5208700000000001    0.1307200000000000    0.8570850000000000 O
   0.1116900000000000    0.1492100000000000    0.0180400000000000 O
   0.0274200000000000    0.3144800000000000    0.9899350000000000 O
   0.6288300000000000    0.1106500000000000    0.9511750000000000 O
   0.8478599999999999    0.1034400000000000    0.9685950000000000 O
   0.4510300000000000    0.3146100000000000    0.9330300000000000 O
   0.3108600000000000    0.3002300000000000    0.8732400000000000 O
   0.5002799999999999    0.0401600000000000    0.1803050000000000 O
   0.4791400000000000    0.8692600000000000    0.1429000000000000 O
   0.8883000000000000    0.8507800000000000    0.9819450000000001 O
   0.9725800000000000    0.6855100000000000    0.0100500000000000 O
   0.3711700000000000    0.8893400000000000    0.0488100000000000 O
   0.1521400000000000    0.8965500000000000    0.0313900000000000 O
   0.5489700000000000    0.6853800000000000    0.0669550000000000 O
   0.6891400000000000    0.6997500000000000    0.1267450000000000 O
   0.7064300000000000    0.9803800000000000    0.2499300000000000 O
   0.7488300000000000    0.8469600000000000    0.1945650000000000 O
   0.2935700000000000    0.0196100000000000    0.2500550000000000 O
   0.2511700000000000    0.1530200000000000    0.3054250000000000 O
   0.6116700000000000    0.3509400000000000    0.2319350000000000 O
   0.5274700000000000    0.1855400000000000    0.2600600000000000 O
   0.9508799999999999    0.1853300000000000    0.3169150000000000 O
   0.8108000000000000    0.1997300000000000    0.3767100000000000 O
   0.1289000000000000    0.3892600000000000    0.2987900000000000 O
   0.3479200000000000    0.3964100000000000    0.2813550000000000 O
   0.4997200000000000    0.9598300000000000    0.3196800000000000 O
   0.5208700000000001    0.1307200000000000    0.3570850000000000 O
   0.9997800000000000    0.5401300000000000    0.4302550000000000 O
   0.0211100000000000    0.3692500000000000    0.3928900000000000 O
   0.0274200000000000    0.3144800000000000    0.4899350000000000 O
   0.6288300000000000    0.1106500000000000    0.4511750000000000 O
   0.8478599999999999    0.1034400000000000    0.4685950000000000 O
   0.4510300000000000    0.3146100000000000    0.4330300000000000 O
   0.3108600000000000    0.3002300000000000    0.3732400000000000 O
   0.2063900000000000    0.5196900000000000    0.5000000000000000 O
   0.2486700000000000    0.6530400000000000    0.5554900000000000 O
   0.7936100000000000    0.4803000000000000    0.4999400000000000 O
   0.7513300000000001    0.3469600000000000    0.4444900000000000 O
   0.0002200000000000    0.4598600000000000    0.5697300000000000 O
   0.9788900000000000    0.6307400000000000    0.6070900000000000 O
   0.3883300000000000    0.6490500000000000    0.7680500000000000 O
   0.4725300000000000    0.8144400000000001    0.7399249999999999 O
   0.8711000000000000    0.6107300000000000    0.7011900000000000 O
   0.6520800000000000    0.6035700000000001    0.7186300000000000 O
   0.0491200000000000    0.8146600000000001    0.6830700000000001 O
   0.1892000000000000    0.8002600000000000    0.6232700000000000 O
