H1 C1 O2
1.0
  10.1179999244880836    0.0000000000000000   -0.0012361468929430
  -0.0115635515294296   11.5932431679516768   -0.2284718429430017
   0.0000000000000000    0.0000000000000000   29.5979999999999990
H C O
1 1 2
direct
   0.1623700000000000    0.3091400000000000    0.5402950000000000 H
   0.1017600000000000    0.2563500000000000    0.5168150000000000 C
   0.0274200000000000    0.3144800000000000    0.4899350000000000 O
   0.1116900000000000    0.1492100000000000    0.5180400000000001 O
