H2 C8 O4
1.0
  16.3423192276004166    0.0000000000000000    9.2833521565866359
   5.3662014942962868   15.3422865696917192    9.2995268877545296
   0.0000000000000000    0.0000000000000000   37.4480000000000004
H C O
2 8 4
direct
   0.3181600000000000    0.7967700000000000    0.8983000000000000 H
   0.0904400000000000    0.7937600000000000    0.8969150000000000 H
   0.3245900000000000    0.7279400000000000    0.8639300000000000 C
   0.2835900000000000    0.7789400000000000    0.8894100000000000 C
   0.2213700000000000    0.7265900000000000    0.8633150000000001 C
   0.1596300000000000    0.7773200000000000    0.8886650000000000 C
   0.3087000000000000    0.6918900000000000    0.8459400000000000 C
   0.1920200000000000    0.8074100000000000    0.9035000000000000 C
   0.1355200000000000    0.8635800000000000    0.9317500000000001 C
   0.3649400000000000    0.6358800000000000    0.8179400000000000 C
   0.1743500000000000    0.8854800000000000    0.9427300000000001 O
   0.4462000000000000    0.6154900000000000    0.8077099999999999 O
   1.0538099999999999    0.8844900000000000    0.9422650000000000 O
   0.3253700000000000    0.6145800000000000    0.8073000000000000 O
