Zn16 H28 C88 O52
1.0
  16.3423192276004166    0.0000000000000000    9.2833521565866359
   5.3662014942962868   15.3422865696917192    9.2995268877545296
   0.0000000000000000    0.0000000000000000   37.4480000000000004
Zn H C O
16 28 88 52
direct
   0.5424900000000000    0.5428100000000000    0.6855550000000000 Zn
   0.5424900000000000    0.5428100000000000    0.1855550000000000 Zn
   0.5424300000000000    0.3710800000000000    0.2714050000000000 Zn
   0.3721000000000000    0.5424700000000000    0.7712450000000000 Zn
   0.1273100000000000    0.9576700000000000    0.9788000000000000 Zn
   0.9576200000000000    0.1284700000000000    0.9786049999999999 Zn
   0.9576100000000000    0.9572400000000000    0.0641900000000000 Zn
   0.1273100000000000    0.9576700000000000    0.4788000000000000 Zn
   0.9576200000000000    0.1284700000000000    0.4786050000000000 Zn
   0.9576100000000000    0.9572400000000000    0.5641900000000000 Zn
   0.3721000000000000    0.5424700000000000    0.2712450000000000 Zn
   0.9572800000000000    0.9565600000000000    0.4783300000000000 Zn
   0.9572800000000000    0.9565600000000000    0.9783299999999999 Zn
   0.5424300000000000    0.3710800000000000    0.7714050000000000 Zn
   0.5427600000000000    0.5434700000000000    0.2716800000000000 Zn
   0.5427600000000000    0.5434700000000000    0.7716799999999999 Zn
   0.7948200000000000    0.7942100000000000    0.5447149999999999 H
   0.7959000000000001    0.7960700000000001    0.6597200000000000 H
   0.7948200000000000    0.7942100000000000    0.0447150000000000 H
   0.7959000000000001    0.7960700000000001    0.1597200000000000 H
   0.7956500000000000    0.3201400000000000    0.0446850000000000 H
   0.7954599999999999    0.0893000000000000    0.1599500000000000 H
   0.7949900000000000    0.0893900000000000    0.3971100000000000 H
   0.7958600000000000    0.3194200000000000    0.3980500000000000 H
   0.0903500000000000    0.3204600000000000    0.8974650000000000 H
   0.3186500000000000    0.0892500000000000    0.8980100000000000 H
   0.0903400000000000    0.7947900000000000    0.6601300000000000 H
   0.3186200000000000    0.7961800000000000    0.5446400000000000 H
   0.2625812011619877    0.6337513634533395    0.8169045521376282 H
   0.4701446557799645    0.6352533048201245    0.8175782352729367 H
   0.3588032370416334    0.6421749364588553    0.8210787342651535 H
   0.2371344168906345    0.8663408085461178    0.9331489316092733 H
   1.0299115475261935    0.8647056604715997    0.9323829170967843 H
   1.1410351551894942    0.8579002978502721    0.9289542101790474 H
   0.0903500000000000    0.3204600000000000    0.3974650000000000 H
   0.3186500000000000    0.0892500000000000    0.3980100000000000 H
   0.0903400000000000    0.7947900000000000    0.1601300000000000 H
   0.3186200000000000    0.7961800000000000    0.0446400000000000 H
   0.0904400000000000    0.7937600000000000    0.3969150000000000 H
   0.3181600000000000    0.7967700000000000    0.3983000000000000 H
   0.7956500000000000    0.3201400000000000    0.5446850000000000 H
   0.7954599999999999    0.0893000000000000    0.6599500000000000 H
   0.7949900000000000    0.0893900000000000    0.8971100000000001 H
   0.7958600000000000    0.3194200000000000    0.8980500000000000 H
   0.8640000000000000    0.8632600000000000    0.5679149999999999 C
   0.6354200000000000    0.6362100000000001    0.6822800000000000 C
   0.7778900000000000    0.7775600000000000    0.5795350000000000 C
   0.7784700000000000    0.7785600000000000    0.6421300000000000 C
   0.7269099999999999    0.7269500000000000    0.6103600000000000 C
   0.6916200000000000    0.6920700000000000    0.6540000000000000 C
   0.7273900000000000    0.7277800000000000    0.6624450000000000 C
   0.8076100000000001    0.8072700000000000    0.5960950000000000 C
   0.8640000000000000    0.8632600000000000    0.0679150000000000 C
   0.6354200000000000    0.6362100000000001    0.1822800000000000 C
   0.7778900000000000    0.7775600000000000    0.0795350000000000 C
   0.7784700000000000    0.7785600000000000    0.1421300000000000 C
   0.7269099999999999    0.7269500000000000    0.1103600000000000 C
   0.6916200000000000    0.6920700000000000    0.1540000000000000 C
   0.7273900000000000    0.7277800000000000    0.1624450000000000 C
   0.8076100000000001    0.8072700000000000    0.0960950000000000 C
   0.8644500000000001    0.1364500000000000    0.0681400000000000 C
   0.6349700000000000    0.3639700000000000    0.1820500000000000 C
   0.7783400000000000    0.2846600000000000    0.0795250000000000 C
   0.7782300000000000    0.1590200000000000    0.1422700000000000 C
   0.7270300000000000    0.3249500000000000    0.1102250000000000 C
   0.6913000000000000    0.3079900000000000    0.1540400000000000 C
   0.7269200000000000    0.2203400000000000    0.1624650000000000 C
   0.8078600000000000    0.1925800000000000    0.0962400000000000 C
   0.8639700000000000    0.1358900000000000    0.4316000000000000 C
   0.6354200000000000    0.3645400000000000    0.3180900000000000 C
   0.7779300000000000    0.1590600000000000    0.3887550000000000 C
   0.7783900000000000    0.2843300000000000    0.3892650000000000 C
   0.7268900000000000    0.2205900000000000    0.3634300000000000 C
   0.6916400000000000    0.3083500000000000    0.3460350000000000 C
   0.7272800000000000    0.3251300000000000    0.3638550000000000 C
   0.8075800000000000    0.1922500000000000    0.4036000000000000 C
   0.1359700000000000    0.1367300000000000    0.9320200000000001 C
   0.3644700000000000    0.3636800000000000    0.8177050000000000 C
   0.1595800000000000    0.2848400000000000    0.8889800000000000 C
   0.2838600000000000    0.1590000000000000    0.8892700000000000 C
   0.3245500000000000    0.2201700000000000    0.8637049999999999 C
   0.3083600000000000    0.3077700000000000    0.8458100000000000 C
   0.2210900000000000    0.3249200000000000    0.8634649999999999 C
   0.1922900000000000    0.1927500000000000    0.9038500000000000 C
   0.1360000000000000    0.8640500000000000    0.5683300000000000 C
   0.3644400000000000    0.6354400000000000    0.6818600000000000 C
   0.1596000000000000    0.7778400000000000    0.6423900000000000 C
   0.2839000000000000    0.7786000000000000    0.5795050000000000 C
   0.2210300000000000    0.7267700000000000    0.6625099999999999 C
   0.3083300000000000    0.6916099999999999    0.6538850000000000 C
   0.3247000000000000    0.7274200000000000    0.6100650000000000 C
   0.1923300000000000    0.8076600000000000    0.5963650000000000 C
   0.1359700000000000    0.1367300000000000    0.4320200000000000 C
   0.3644700000000000    0.3636800000000000    0.3177050000000000 C
   0.1595800000000000    0.2848400000000000    0.3889800000000000 C
   0.2838600000000000    0.1590000000000000    0.3892700000000000 C
   0.3245500000000000    0.2201700000000000    0.3637050000000000 C
   0.3083600000000000    0.3077700000000000    0.3458100000000000 C
   0.2210900000000000    0.3249200000000000    0.3634650000000000 C
   0.1922900000000000    0.1927500000000000    0.4038500000000000 C
   0.1360000000000000    0.8640500000000000    0.0683300000000000 C
   0.3644400000000000    0.6354400000000000    0.1818600000000000 C
   0.1596000000000000    0.7778400000000000    0.1423900000000000 C
   0.2839000000000000    0.7786000000000000    0.0795050000000000 C
   0.2210300000000000    0.7267700000000000    0.1625100000000000 C
   0.3083300000000000    0.6916099999999999    0.1538850000000000 C
   0.3247000000000000    0.7274200000000000    0.1100650000000000 C
   0.1923300000000000    0.8076600000000000    0.0963650000000000 C
   0.1355200000000000    0.8635800000000000    0.4317500000000000 C
   0.3649400000000000    0.6358800000000000    0.3179400000000000 C
   0.1596300000000000    0.7773200000000000    0.3886650000000000 C
   0.2835900000000000    0.7789400000000000    0.3894100000000000 C
   0.3245900000000000    0.7279400000000000    0.3639300000000000 C
   0.3087000000000000    0.6918900000000000    0.3459400000000000 C
   0.2213700000000000    0.7265900000000000    0.3633150000000000 C
   0.1920200000000000    0.8074100000000000    0.4035000000000000 C
   0.8644500000000001    0.1364500000000000    0.5681400000000000 C
   0.6349700000000000    0.3639700000000000    0.6820500000000000 C
   0.7783400000000000    0.2846600000000000    0.5795250000000000 C
   0.7782300000000000    0.1590200000000000    0.6422700000000000 C
   0.7270300000000000    0.3249500000000000    0.6102250000000000 C
   0.6913000000000000    0.3079900000000000    0.6540400000000000 C
   0.7269200000000000    0.2203400000000000    0.6624650000000000 C
   0.8078600000000000    0.1925800000000000    0.5962400000000000 C
   0.8639700000000000    0.1358900000000000    0.9316000000000000 C
   0.6354200000000000    0.3645400000000000    0.8180900000000000 C
   0.7779300000000000    0.1590600000000000    0.8887550000000000 C
   0.7783900000000000    0.2843300000000000    0.8892650000000000 C
   0.7268900000000000    0.2205900000000000    0.8634299999999999 C
   0.6916400000000000    0.3083500000000000    0.8460350000000000 C
   0.7272800000000000    0.3251300000000000    0.8638550000000000 C
   0.8075800000000000    0.1922500000000000    0.9036000000000000 C
   0.8856100000000000    0.8849600000000000    0.5875700000000000 O
   0.8853600000000000    0.8842400000000000    0.5268300000000000 O
   0.6145699999999999    0.6158000000000000    0.7231000000000000 O
   0.6144500000000001    0.6150300000000000    0.6622749999999999 O
   0.8856100000000000    0.8849600000000000    0.0875700000000000 O
   0.8853600000000000    0.8842400000000000    0.0268300000000000 O
   0.6145699999999999    0.6158000000000000    0.2231000000000000 O
   0.6144500000000001    0.6150300000000000    0.1622750000000000 O
   0.8860900000000000    0.0542600000000000    0.0878000000000000 O
   0.8860500000000000    0.1758300000000000    0.0270550000000000 O
   0.6139400000000000    0.3239400000000000    0.2229050000000000 O
   0.6141799999999999    0.4457100000000000    0.1620000000000000 O
   0.8852200000000000    0.0537000000000000    0.4422000000000000 O
   0.8857100000000000    0.1752300000000000    0.4424000000000000 O
   0.6143700000000000    0.3245300000000000    0.3075400000000000 O
   0.6146700000000000    0.4462700000000000    0.3078200000000000 O
   0.1748100000000000    0.0545500000000000    0.9428250000000000 O
   0.0542700000000000    0.1760800000000000    0.9426900000000000 O
   0.3249100000000000    0.4454000000000000    0.8071999999999999 O
   0.4457100000000000    0.3237000000000000    0.8072900000000001 O
   0.1748200000000000    0.8857900000000000    0.5272550000000000 O
   0.0543100000000000    0.8854000000000000    0.5879850000000000 O
   0.3248900000000000    0.6143600000000000    0.7227000000000000 O
   0.4456800000000000    0.6148000000000000    0.6618999999999999 O
   0.3253700000000000    0.6145800000000000    0.8073000000000000 O
   0.4462000000000000    0.6154900000000000    0.8077099999999999 O
   0.1743500000000000    0.8854800000000000    0.9427300000000001 O
   1.0538099999999999    0.8844900000000000    0.9422650000000000 O
   0.9996699999999999    0.0000200000000000    0.9999800000000000 O
   0.1748100000000000    0.0545500000000000    0.4428250000000000 O
   0.0542700000000000    0.1760800000000000    0.4426900000000000 O
   0.3249100000000000    0.4454000000000000    0.3072000000000000 O
   0.4457100000000000    0.3237000000000000    0.3072900000000000 O
   0.1748200000000000    0.8857900000000000    0.0272550000000000 O
   0.0543100000000000    0.8854000000000000    0.0879850000000000 O
   0.3248900000000000    0.6143600000000000    0.2227000000000000 O
   0.4456800000000000    0.6148000000000000    0.1619000000000000 O
   0.9996699999999999    0.0000200000000000    0.4999800000000000 O
   0.0538100000000000    0.8844900000000000    0.4422650000000000 O
   0.1743500000000000    0.8854800000000000    0.4427300000000000 O
   0.3253700000000000    0.6145800000000000    0.3073000000000000 O
   0.4462000000000000    0.6154900000000000    0.3077100000000000 O
   0.8860900000000000    0.0542600000000000    0.5878000000000000 O
   0.8860500000000000    0.1758300000000000    0.5270550000000001 O
   0.6139400000000000    0.3239400000000000    0.7229050000000000 O
   0.6141799999999999    0.4457100000000000    0.6620000000000000 O
   0.8852200000000000    0.0537000000000000    0.9421999999999999 O
   0.8857100000000000    0.1752300000000000    0.9424000000000000 O
   0.6143700000000000    0.3245300000000000    0.8075399999999999 O
   0.6146700000000000    0.4462700000000000    0.8078200000000000 O
   0.5001700000000000    0.4999500000000000    0.7499500000000000 O
   0.5001700000000000    0.4999500000000000    0.2499500000000000 O
