H8 C12 N5
1.0
  31.1774285783713196    0.0000000000000000    9.8020952474741616
 -15.4737115241633489   29.9336027936761369   13.1072503393121522
   0.0000000000000000    0.0000000000000000   36.1319999999999979
H C N
8 12 5
direct
   0.8193300000000000    0.4927500000000000    0.2874650000000000 H
   0.0000000000000000    0.6217800000000000    0.4066600000000000 H
   0.0476700000000000    0.7041250000000000    0.3768800000000000 H
   0.0490000000000000    0.7587150000000000    0.3092500000000000 H
   0.9559299999999999    0.5979950000000001    0.3664050000000000 H
   0.8637049999999999    0.6523700000000000    0.2168850000000000 H
   0.8011349999999999    0.5987300000000000    0.2116700000000000 H
   0.8810850000000000    0.5423249999999999    0.2973500000000000 H
   0.0000000000000000    0.6463800000000000    0.3774950000000000 C
   0.0276900000000000    0.6920300000000000    0.3609800000000000 C
   0.0285400000000000    0.7227450000000000    0.3234700000000000 C
   0.9531149999999999    0.6560450000000000    0.2938550000000000 C
   0.9107250000000000    0.6317050000000000    0.2664350000000000 C
   0.9782950000000000    0.6652800000000000    0.3185000000000000 C
   0.9764500000000000    0.6329549999999999    0.3557450000000000 C
   0.8773100000000000    0.6019500000000000    0.2587700000000000 C
   0.8548150000000000    0.6171550000000000    0.2331950000000000 C
   0.8197550000000000    0.5872200000000000    0.2301100000000000 C
   0.8296700000000000    0.5282600000000000    0.2725800000000000 C
   0.8643400000000000    0.5561150000000000    0.2778800000000000 C
   0.0042650000000000    0.7102349999999999    0.3021550000000000 N
   0.9572600000000000    0.6924399999999999    0.2603750000000000 N
   0.9297200000000000    0.6770300000000000    0.2425250000000000 N
   0.9244500000000000    0.6172600000000000    0.2988000000000000 N
   0.8058799999999999    0.5426200000000000    0.2500650000000000 N
