Fe48 H763 C1140 N475 O3
1.0
  31.1774285783713196    0.0000000000000000    9.8020952474741616
 -15.4737115241633489   29.9336027936761369   13.1072503393121522
   0.0000000000000000    0.0000000000000000   36.1319999999999979
Fe H C N O
48 763 1140 475 3
direct
   0.0000050000000000    0.5000150000000000    0.7499950000000000 Fe
   0.5000050000000000    0.5000150000000000    0.2499950000000000 Fe
   0.2500000000000000    0.2500250000000000    0.7499899999999999 Fe
   0.0000000000000000    0.2500150000000000    0.0000000000000000 Fe
   0.7500000000000000    0.2500250000000000    0.2499900000000000 Fe
   0.5000000000000000    0.2500150000000000    0.5000000000000000 Fe
   0.0000050000000000    0.0000150000000000    0.2499950000000000 Fe
   0.5000050000000000    0.0000150000000000    0.7499950000000000 Fe
   0.7500000000000000    0.7500249999999999    0.7499899999999999 Fe
   0.5000000000000000    0.7500150000000000    0.0000000000000000 Fe
   0.2500000000000000    0.7500249999999999    0.2499900000000000 Fe
   0.0000000000000000    0.7500150000000000    0.5000000000000000 Fe
   0.0000050000000000    0.5000150000000000    0.2499950000000000 Fe
   0.5000050000000000    0.5000150000000000    0.7499950000000000 Fe
   0.2500000000000000    0.2500250000000000    0.2499900000000000 Fe
   0.0000000000000000    0.2500150000000000    0.5000000000000000 Fe
   0.7500000000000000    0.2500250000000000    0.7499899999999999 Fe
   0.5000000000000000    0.2500150000000000    0.0000000000000000 Fe
   0.0000050000000000    0.0000150000000000    0.7499950000000000 Fe
   0.5000050000000000    0.0000150000000000    0.2499950000000000 Fe
   0.2500000000000000    0.7500249999999999    0.7499899999999999 Fe
   0.0000000000000000    0.7500150000000000    0.0000000000000000 Fe
   0.7500000000000000    0.7500249999999999    0.2499900000000000 Fe
   0.5000000000000000    0.7500150000000000    0.5000000000000000 Fe
   0.5000000000000000    0.7500200000000000    0.2499950000000000 Fe
   0.2500000000000000    0.5000150000000000    0.7499950000000000 Fe
   0.2500050000000000    0.7500200000000000    0.4999950000000000 Fe
   0.5000000000000000    0.2500200000000000    0.7499950000000000 Fe
   0.2500000000000000    0.0000150000000000    0.2499950000000000 Fe
   0.2500050000000000    0.2500200000000000    0.9999950000000000 Fe
   0.0000000000000000    0.7500200000000000    0.7499950000000000 Fe
   0.7500000000000000    0.5000150000000000    0.2499950000000000 Fe
   0.7500050000000000    0.7500200000000000    0.9999950000000000 Fe
   0.0000000000000000    0.2500200000000000    0.2499950000000000 Fe
   0.7500000000000000    0.0000150000000000    0.7499950000000000 Fe
   0.7500050000000000    0.2500200000000000    0.4999950000000000 Fe
   0.5000000000000000    0.7500200000000000    0.7499950000000000 Fe
   0.2500000000000000    0.5000150000000000    0.2499950000000000 Fe
   0.2500050000000000    0.7500200000000000    0.9999950000000000 Fe
   0.5000000000000000    0.2500200000000000    0.2499950000000000 Fe
   0.2500000000000000    0.0000150000000000    0.7499950000000000 Fe
   0.2500050000000000    0.2500200000000000    0.4999950000000000 Fe
   0.0000000000000000    0.2500200000000000    0.7499950000000000 Fe
   0.7500000000000000    0.0000150000000000    0.2499950000000000 Fe
   0.7500050000000000    0.2500200000000000    0.9999950000000000 Fe
   0.0000000000000000    0.7500200000000000    0.2499950000000000 Fe
   0.7500000000000000    0.5000150000000000    0.7499950000000000 Fe
   0.7500050000000000    0.7500200000000000    0.4999950000000000 Fe
   0.0719500000000000    0.6604900000000000    0.7949999999999999 H
   0.1692800000000000    0.6305250000000000    0.7169050000000000 H
   0.1434950000000000    0.7201100000000000    0.7873800000000000 H
   0.2370000000000000    0.6895550000000000    0.7114900000000000 H
   0.9286500000000000    0.5362400000000000    0.8665000000000000 H
   0.8441550000000000    0.4728200000000000    0.9064749999999999 H
   0.8262149999999999    0.4204000000000000    0.8763350000000000 H
   0.8920500000000000    0.4329650000000000    0.8087500000000001 H
   0.9280500000000000    0.3395350000000000    0.7025049999999999 H
   0.8307350000000000    0.3695300000000000    0.7830650000000000 H
   0.8565000000000000    0.2799250000000000    0.7126200000000000 H
   0.7630049999999999    0.3105200000000000    0.7884700000000000 H
   0.0713600000000000    0.4638000000000000    0.6333950000000000 H
   0.1558600000000000    0.5272100000000000    0.5935250000000000 H
   0.1738000000000000    0.5796250000000001    0.6236750000000000 H
   0.1079550000000000    0.5670600000000000    0.6912550000000000 H
   0.5719500000000000    0.6604900000000000    0.2950000000000000 H
   0.6692800000000000    0.6305250000000000    0.2169050000000000 H
   0.6434950000000000    0.7201100000000000    0.2873800000000000 H
   0.7370000000000000    0.6895550000000000    0.2114900000000000 H
   0.4286500000000000    0.5362400000000000    0.3665000000000000 H
   0.3441550000000000    0.4728200000000000    0.4064750000000000 H
   0.3262150000000000    0.4204000000000000    0.3763350000000000 H
   0.3920500000000000    0.4329650000000000    0.3087500000000000 H
   0.4280500000000000    0.3395350000000000    0.2025050000000000 H
   0.3307350000000000    0.3695300000000000    0.2830650000000000 H
   0.3565000000000000    0.2799250000000000    0.2126200000000000 H
   0.2630050000000000    0.3105200000000000    0.2884700000000000 H
   0.5713600000000000    0.4638000000000000    0.1333950000000000 H
   0.6558600000000000    0.5272100000000000    0.0935250000000000 H
   0.6738000000000000    0.5796250000000001    0.1236750000000000 H
   0.6079550000000000    0.5670600000000000    0.1912550000000000 H
   0.3686400000000000    0.2971000000000000    0.5420900000000000 H
   0.3864350000000000    0.2174100000000000    0.6522500000000000 H
   0.4304700000000000    0.2871550000000000    0.4925900000000000 H
   0.4490100000000000    0.2120500000000000    0.5986950000000000 H
   0.2936400000000000    0.3663300000000000    0.5979800000000000 H
   0.2491700000000000    0.4064400000000000    0.6219749999999999 H
   0.2018500000000000    0.3765350000000000    0.7044000000000000 H
   0.2006700000000000    0.3089650000000000    0.7589049999999999 H
   0.1313600000000000    0.2029400000000000    0.9579050000000000 H
   0.1135450000000000    0.2826200000000000    0.8477399999999999 H
   0.0695200000000000    0.2128700000000000    0.0074100000000000 H
   0.0509700000000000    0.2879800000000000    0.9013150000000000 H
   0.2063850000000000    0.1337650000000000    0.9020000000000000 H
   0.2508250000000000    0.0936250000000000    0.8780350000000000 H
   0.2981100000000000    0.1234800000000000    0.7956000000000000 H
   0.2993050000000000    0.1910450000000000    0.7410900000000000 H
   0.9107000000000001    0.0425850000000000    0.1609050000000000 H
   0.0390850000000000    0.1521100000000000    0.1300050000000000 H
   0.9229100000000000    0.9930800000000000    0.2204650000000000 H
   0.0479200000000000    0.0985200000000000    0.1891050000000000 H
   0.9062350000000000    0.2045150000000000    0.9190199999999999 H
   0.9597650000000000    0.2589450000000000    0.9320250000000000 H
   0.8913500000000000    0.0981700000000000    0.0357400000000000 H
   0.8708100000000000    0.1221550000000000    0.9716800000000000 H
   0.0893000000000000    0.4574450000000000    0.8390949999999999 H
   0.9609200000000000    0.3479200000000000    0.8699800000000000 H
   0.0770950000000000    0.5069550000000000    0.7795350000000000 H
   0.9520950000000000    0.4015150000000000    0.8108800000000000 H
   0.1086800000000000    0.4018550000000000    0.9642400000000000 H
   0.1291850000000000    0.3778650000000000    0.0283250000000000 H
   0.0937200000000000    0.2955050000000000    0.0810100000000000 H
   0.0401850000000000    0.2410800000000000    0.0680000000000000 H
   0.8686400000000001    0.2971000000000000    0.0420900000000000 H
   0.8864350000000000    0.2174100000000000    0.1522500000000000 H
   0.9304700000000000    0.2871550000000000    0.9925900000000000 H
   0.9490100000000000    0.2120500000000000    0.0986950000000000 H
   0.7936400000000000    0.3663300000000000    0.0979800000000000 H
   0.7491700000000000    0.4064400000000000    0.1219750000000000 H
   0.7018500000000000    0.3765350000000000    0.2044000000000000 H
   0.7006700000000000    0.3089650000000000    0.2589050000000000 H
   0.6313600000000000    0.2029400000000000    0.4579050000000000 H
   0.6135450000000000    0.2826200000000000    0.3477400000000000 H
   0.5695200000000000    0.2128700000000000    0.5074100000000000 H
   0.5509700000000000    0.2879800000000000    0.4013150000000000 H
   0.7063850000000000    0.1337650000000000    0.4020000000000000 H
   0.7508250000000001    0.0936250000000000    0.3780350000000000 H
   0.7981100000000000    0.1234800000000000    0.2956000000000000 H
   0.7993049999999999    0.1910450000000000    0.2410900000000000 H
   0.4107000000000000    0.0425850000000000    0.6609050000000000 H
   0.5390850000000000    0.1521100000000000    0.6300050000000000 H
   0.4229100000000000    0.9930800000000000    0.7204650000000000 H
   0.5479200000000000    0.0985200000000000    0.6891050000000000 H
   0.4062350000000000    0.2045150000000000    0.4190200000000000 H
   0.4597650000000000    0.2589450000000000    0.4320250000000000 H
   0.3913500000000000    0.0981700000000000    0.5357400000000000 H
   0.3708100000000000    0.1221550000000000    0.4716800000000000 H
   0.5893000000000000    0.4574450000000000    0.3390950000000000 H
   0.4609200000000000    0.3479200000000000    0.3699800000000000 H
   0.5770950000000000    0.5069550000000000    0.2795350000000000 H
   0.4520950000000000    0.4015150000000000    0.3108800000000000 H
   0.6086800000000000    0.4018550000000000    0.4642400000000000 H
   0.6291850000000000    0.3778650000000000    0.5283250000000000 H
   0.5937200000000000    0.2955050000000000    0.5810100000000000 H
   0.5401850000000000    0.2410800000000000    0.5680000000000001 H
   0.0719500000000000    0.1604900000000000    0.2950000000000000 H
   0.1692800000000000    0.1305250000000000    0.2169050000000000 H
   0.1434950000000000    0.2201100000000000    0.2873800000000000 H
   0.2370000000000000    0.1895550000000000    0.2114900000000000 H
   0.9286500000000000    0.0362400000000000    0.3665000000000000 H
   0.8441550000000000    0.9728200000000000    0.4064750000000000 H
   0.8262149999999999    0.9204000000000000    0.3763350000000000 H
   0.8920500000000000    0.9329650000000000    0.3087500000000000 H
   0.9280500000000000    0.8395349999999999    0.2025050000000000 H
   0.8307350000000000    0.8695300000000000    0.2830650000000000 H
   0.8565000000000000    0.7799250000000000    0.2126200000000000 H
   0.7630049999999999    0.8105200000000000    0.2884700000000000 H
   0.0713600000000000    0.9638000000000000    0.1333950000000000 H
   0.1558600000000000    0.0272100000000000    0.0935250000000000 H
   0.1738000000000000    0.0796250000000000    0.1236750000000000 H
   0.1079550000000000    0.0670600000000000    0.1912550000000000 H
   0.5719500000000000    0.1604900000000000    0.7949999999999999 H
   0.6692800000000000    0.1305250000000000    0.7169050000000000 H
   0.6434950000000000    0.2201100000000000    0.7873800000000000 H
   0.7370000000000000    0.1895550000000000    0.7114900000000000 H
   0.4286500000000000    0.0362400000000000    0.8665000000000000 H
   0.3441550000000000    0.9728200000000000    0.9064749999999999 H
   0.3262150000000000    0.9204000000000000    0.8763350000000000 H
   0.3920500000000000    0.9329650000000000    0.8087500000000001 H
   0.4280500000000000    0.8395349999999999    0.7025049999999999 H
   0.3307350000000000    0.8695300000000000    0.7830650000000000 H
   0.3565000000000000    0.7799250000000000    0.7126200000000000 H
   0.2630050000000000    0.8105200000000000    0.7884700000000000 H
   0.5713600000000000    0.9638000000000000    0.6333950000000000 H
   0.6558600000000000    0.0272100000000000    0.5935250000000000 H
   0.6738000000000000    0.0796250000000000    0.6236750000000000 H
   0.6079550000000000    0.0670600000000000    0.6912550000000000 H
   0.8686400000000001    0.7970999999999999    0.5420900000000000 H
   0.8864350000000000    0.7174100000000000    0.6522500000000000 H
   0.9304700000000000    0.7871550000000000    0.4925900000000000 H
   0.9490100000000000    0.7120500000000000    0.5986950000000000 H
   0.7936400000000000    0.8663300000000000    0.5979800000000000 H
   0.7491700000000000    0.9064400000000000    0.6219749999999999 H
   0.7018500000000000    0.8765350000000001    0.7044000000000000 H
   0.7006700000000000    0.8089649999999999    0.7589049999999999 H
   0.6313600000000000    0.7029400000000000    0.9579050000000000 H
   0.6135450000000000    0.7826200000000000    0.8477399999999999 H
   0.5695200000000000    0.7128700000000000    0.0074100000000000 H
   0.5509700000000000    0.7879800000000000    0.9013150000000000 H
   0.7063850000000000    0.6337650000000000    0.9020000000000000 H
   0.7508250000000001    0.5936250000000000    0.8780350000000000 H
   0.7981100000000000    0.6234800000000000    0.7956000000000000 H
   0.7993049999999999    0.6910450000000000    0.7410900000000000 H
   0.4107000000000000    0.5425850000000000    0.1609050000000000 H
   0.5390850000000000    0.6521100000000000    0.1300050000000000 H
   0.4229100000000000    0.4930800000000000    0.2204650000000000 H
   0.5479200000000000    0.5985199999999999    0.1891050000000000 H
   0.4062350000000000    0.7045150000000000    0.9190199999999999 H
   0.4597650000000000    0.7589450000000000    0.9320250000000000 H
   0.3913500000000000    0.5981700000000000    0.0357400000000000 H
   0.3708100000000000    0.6221550000000000    0.9716800000000000 H
   0.5893000000000000    0.9574450000000000    0.8390949999999999 H
   0.4609200000000000    0.8479200000000000    0.8699800000000000 H
   0.5770950000000000    0.0069550000000000    0.7795350000000000 H
   0.4520950000000000    0.9015150000000001    0.8108800000000000 H
   0.6086800000000000    0.9018550000000001    0.9642400000000000 H
   0.6291850000000000    0.8778650000000000    0.0283250000000000 H
   0.5937200000000000    0.7955050000000000    0.0810100000000000 H
   0.5401850000000000    0.7410800000000000    0.0680000000000000 H
   0.3686400000000000    0.7970999999999999    0.0420900000000000 H
   0.3864350000000000    0.7174100000000000    0.1522500000000000 H
   0.4304700000000000    0.7871550000000000    0.9925900000000000 H
   0.4490100000000000    0.7120500000000000    0.0986950000000000 H
   0.2936400000000000    0.8663300000000000    0.0979800000000000 H
   0.2491700000000000    0.9064400000000000    0.1219750000000000 H
   0.2018500000000000    0.8765350000000001    0.2044000000000000 H
   0.2006700000000000    0.8089649999999999    0.2589050000000000 H
   0.1313600000000000    0.7029400000000000    0.4579050000000000 H
   0.1135450000000000    0.7826200000000000    0.3477400000000000 H
   0.0695200000000000    0.7128700000000000    0.5074100000000000 H
   0.0509700000000000    0.7879800000000000    0.4013150000000000 H
   0.2063850000000000    0.6337650000000000    0.4020000000000000 H
   0.2508250000000000    0.5936250000000000    0.3780350000000000 H
   0.2981100000000000    0.6234800000000000    0.2956000000000000 H
   0.2993050000000000    0.6910450000000000    0.2410900000000000 H
   0.9107000000000001    0.5425850000000000    0.6609050000000000 H
   0.0390850000000000    0.6521100000000000    0.6300050000000000 H
   0.9229100000000000    0.4930800000000000    0.7204650000000000 H
   0.0479200000000000    0.5985199999999999    0.6891050000000000 H
   0.9062350000000000    0.7045150000000000    0.4190200000000000 H
   0.9597650000000000    0.7589450000000000    0.4320250000000000 H
   0.8913500000000000    0.5981700000000000    0.5357400000000000 H
   0.8708100000000000    0.6221550000000000    0.4716800000000000 H
   0.0893000000000000    0.9574450000000000    0.3390950000000000 H
   0.9609200000000000    0.8479200000000000    0.3699800000000000 H
   0.0770950000000000    0.0069550000000000    0.2795350000000000 H
   0.9520950000000000    0.9015150000000001    0.3108800000000000 H
   0.1086800000000000    0.9018550000000001    0.4642400000000000 H
   0.1291850000000000    0.8778650000000000    0.5283250000000000 H
   0.0937200000000000    0.7955050000000000    0.5810100000000000 H
   0.0401850000000000    0.7410800000000000    0.5680000000000001 H
   0.0719500000000000    0.6604900000000000    0.2950000000000000 H
   0.1692800000000000    0.6305250000000000    0.2169050000000000 H
   0.1434950000000000    0.7201100000000000    0.2873800000000000 H
   0.2370000000000000    0.6895550000000000    0.2114900000000000 H
   0.9286500000000000    0.5362400000000000    0.3665000000000000 H
   0.8441550000000000    0.4728200000000000    0.4064750000000000 H
   0.8262149999999999    0.4204000000000000    0.3763350000000000 H
   0.8920500000000000    0.4329650000000000    0.3087500000000000 H
   0.9280500000000000    0.3395350000000000    0.2025050000000000 H
   0.8307350000000000    0.3695300000000000    0.2830650000000000 H
   0.8565000000000000    0.2799250000000000    0.2126200000000000 H
   0.7630049999999999    0.3105200000000000    0.2884700000000000 H
   0.0713600000000000    0.4638000000000000    0.1333950000000000 H
   0.1558600000000000    0.5272100000000000    0.0935250000000000 H
   0.1738000000000000    0.5796250000000001    0.1236750000000000 H
   0.1079550000000000    0.5670600000000000    0.1912550000000000 H
   0.5719500000000000    0.6604900000000000    0.7949999999999999 H
   0.6692800000000000    0.6305250000000000    0.7169050000000000 H
   0.6434950000000000    0.7201100000000000    0.7873800000000000 H
   0.7370000000000000    0.6895550000000000    0.7114900000000000 H
   0.4286500000000000    0.5362400000000000    0.8665000000000000 H
   0.3441550000000000    0.4728200000000000    0.9064749999999999 H
   0.3262150000000000    0.4204000000000000    0.8763350000000000 H
   0.3920500000000000    0.4329650000000000    0.8087500000000001 H
   0.4280500000000000    0.3395350000000000    0.7025049999999999 H
   0.3307350000000000    0.3695300000000000    0.7830650000000000 H
   0.3565000000000000    0.2799250000000000    0.7126200000000000 H
   0.2630050000000000    0.3105200000000000    0.7884700000000000 H
   0.5713600000000000    0.4638000000000000    0.6333950000000000 H
   0.6558600000000000    0.5272100000000000    0.5935250000000000 H
   0.6738000000000000    0.5796250000000001    0.6236750000000000 H
   0.6079550000000000    0.5670600000000000    0.6912550000000000 H
   0.3686400000000000    0.2971000000000000    0.0420900000000000 H
   0.3864350000000000    0.2174100000000000    0.1522500000000000 H
   0.4304700000000000    0.2871550000000000    0.9925900000000000 H
   0.4490100000000000    0.2120500000000000    0.0986950000000000 H
   0.2936400000000000    0.3663300000000000    0.0979800000000000 H
   0.2491700000000000    0.4064400000000000    0.1219750000000000 H
   0.2018500000000000    0.3765350000000000    0.2044000000000000 H
   0.2006700000000000    0.3089650000000000    0.2589050000000000 H
   0.1313600000000000    0.2029400000000000    0.4579050000000000 H
   0.1135450000000000    0.2826200000000000    0.3477400000000000 H
   0.0695200000000000    0.2128700000000000    0.5074100000000000 H
   0.0509700000000000    0.2879800000000000    0.4013150000000000 H
   0.2063850000000000    0.1337650000000000    0.4020000000000000 H
   0.2508250000000000    0.0936250000000000    0.3780350000000000 H
   0.2981100000000000    0.1234800000000000    0.2956000000000000 H
   0.2993050000000000    0.1910450000000000    0.2410900000000000 H
   0.9107000000000001    0.0425850000000000    0.6609050000000000 H
   0.0390850000000000    0.1521100000000000    0.6300050000000000 H
   0.9229100000000000    0.9930800000000000    0.7204650000000000 H
   0.0479200000000000    0.0985200000000000    0.6891050000000000 H
   0.9062350000000000    0.2045150000000000    0.4190200000000000 H
   0.9597650000000000    0.2589450000000000    0.4320250000000000 H
   0.8913500000000000    0.0981700000000000    0.5357400000000000 H
   0.8708100000000000    0.1221550000000000    0.4716800000000000 H
   0.0893000000000000    0.4574450000000000    0.3390950000000000 H
   0.9609200000000000    0.3479200000000000    0.3699800000000000 H
   0.0770950000000000    0.5069550000000000    0.2795350000000000 H
   0.9520950000000000    0.4015150000000000    0.3108800000000000 H
   0.1086800000000000    0.4018550000000000    0.4642400000000000 H
   0.1291850000000000    0.3778650000000000    0.5283250000000000 H
   0.0937200000000000    0.2955050000000000    0.5810100000000000 H
   0.0401850000000000    0.2410800000000000    0.5680000000000001 H
   0.8686400000000001    0.2971000000000000    0.5420900000000000 H
   0.8864350000000000    0.2174100000000000    0.6522500000000000 H
   0.9304700000000000    0.2871550000000000    0.4925900000000000 H
   0.9490100000000000    0.2120500000000000    0.5986950000000000 H
   0.7936400000000000    0.3663300000000000    0.5979800000000000 H
   0.7491700000000000    0.4064400000000000    0.6219749999999999 H
   0.7018500000000000    0.3765350000000000    0.7044000000000000 H
   0.7006700000000000    0.3089650000000000    0.7589049999999999 H
   0.6313600000000000    0.2029400000000000    0.9579050000000000 H
   0.6135450000000000    0.2826200000000000    0.8477399999999999 H
   0.5695200000000000    0.2128700000000000    0.0074100000000000 H
   0.5509700000000000    0.2879800000000000    0.9013150000000000 H
   0.7063850000000000    0.1337650000000000    0.9020000000000000 H
   0.7508250000000001    0.0936250000000000    0.8780350000000000 H
   0.7981100000000000    0.1234800000000000    0.7956000000000000 H
   0.7993049999999999    0.1910450000000000    0.7410900000000000 H
   0.4107000000000000    0.0425850000000000    0.1609050000000000 H
   0.5390850000000000    0.1521100000000000    0.1300050000000000 H
   0.4229100000000000    0.9930800000000000    0.2204650000000000 H
   0.5479200000000000    0.0985200000000000    0.1891050000000000 H
   0.4062350000000000    0.2045150000000000    0.9190199999999999 H
   0.4597650000000000    0.2589450000000000    0.9320250000000000 H
   0.3913500000000000    0.0981700000000000    0.0357400000000000 H
   0.3708100000000000    0.1221550000000000    0.9716800000000000 H
   0.5893000000000000    0.4574450000000000    0.8390949999999999 H
   0.4609200000000000    0.3479200000000000    0.8699800000000000 H
   0.5770950000000000    0.5069550000000000    0.7795350000000000 H
   0.4520950000000000    0.4015150000000000    0.8108800000000000 H
   0.6086800000000000    0.4018550000000000    0.9642400000000000 H
   0.6291850000000000    0.3778650000000000    0.0283250000000000 H
   0.5937200000000000    0.2955050000000000    0.0810100000000000 H
   0.5401850000000000    0.2410800000000000    0.0680000000000000 H
   0.0719500000000000    0.1604900000000000    0.7949999999999999 H
   0.1692800000000000    0.1305250000000000    0.7169050000000000 H
   0.1434950000000000    0.2201100000000000    0.7873800000000000 H
   0.2370000000000000    0.1895550000000000    0.7114900000000000 H
   0.9286500000000000    0.0362400000000000    0.8665000000000000 H
   0.8441550000000000    0.9728200000000000    0.9064749999999999 H
   0.8262149999999999    0.9204000000000000    0.8763350000000000 H
   0.8920500000000000    0.9329650000000000    0.8087500000000001 H
   0.9280500000000000    0.8395349999999999    0.7025049999999999 H
   0.8307350000000000    0.8695300000000000    0.7830650000000000 H
   0.8565000000000000    0.7799250000000000    0.7126200000000000 H
   0.7630049999999999    0.8105200000000000    0.7884700000000000 H
   0.0713600000000000    0.9638000000000000    0.6333950000000000 H
   0.1558600000000000    0.0272100000000000    0.5935250000000000 H
   0.1738000000000000    0.0796250000000000    0.6236750000000000 H
   0.1079550000000000    0.0670600000000000    0.6912550000000000 H
   0.5719500000000000    0.1604900000000000    0.2950000000000000 H
   0.6692800000000000    0.1305250000000000    0.2169050000000000 H
   0.6434950000000000    0.2201100000000000    0.2873800000000000 H
   0.7370000000000000    0.1895550000000000    0.2114900000000000 H
   0.4286500000000000    0.0362400000000000    0.3665000000000000 H
   0.3441550000000000    0.9728200000000000    0.4064750000000000 H
   0.3262150000000000    0.9204000000000000    0.3763350000000000 H
   0.3920500000000000    0.9329650000000000    0.3087500000000000 H
   0.4280500000000000    0.8395349999999999    0.2025050000000000 H
   0.3307350000000000    0.8695300000000000    0.2830650000000000 H
   0.3565000000000000    0.7799250000000000    0.2126200000000000 H
   0.2630050000000000    0.8105200000000000    0.2884700000000000 H
   0.5713600000000000    0.9638000000000000    0.1333950000000000 H
   0.6558600000000000    0.0272100000000000    0.0935250000000000 H
   0.6738000000000000    0.0796250000000000    0.1236750000000000 H
   0.6079550000000000    0.0670600000000000    0.1912550000000000 H
   0.3686400000000000    0.7970999999999999    0.5420900000000000 H
   0.3864350000000000    0.7174100000000000    0.6522500000000000 H
   0.4304700000000000    0.7871550000000000    0.4925900000000000 H
   0.4490100000000000    0.7120500000000000    0.5986950000000000 H
   0.2936400000000000    0.8663300000000000    0.5979800000000000 H
   0.2491700000000000    0.9064400000000000    0.6219749999999999 H
   0.2018500000000000    0.8765350000000001    0.7044000000000000 H
   0.2006700000000000    0.8089649999999999    0.7589049999999999 H
   0.1313600000000000    0.7029400000000000    0.9579050000000000 H
   0.1135450000000000    0.7826200000000000    0.8477399999999999 H
   0.0695200000000000    0.7128700000000000    0.0074100000000000 H
   0.0509700000000000    0.7879800000000000    0.9013150000000000 H
   0.2063850000000000    0.6337650000000000    0.9020000000000000 H
   0.2508250000000000    0.5936250000000000    0.8780350000000000 H
   0.2981100000000000    0.6234800000000000    0.7956000000000000 H
   0.2993050000000000    0.6910450000000000    0.7410900000000000 H
   0.9107000000000001    0.5425850000000000    0.1609050000000000 H
   0.0390850000000000    0.6521100000000000    0.1300050000000000 H
   0.9229100000000000    0.4930800000000000    0.2204650000000000 H
   0.0479200000000000    0.5985199999999999    0.1891050000000000 H
   0.9062350000000000    0.7045150000000000    0.9190199999999999 H
   0.9597650000000000    0.7589450000000000    0.9320250000000000 H
   0.8913500000000000    0.5981700000000000    0.0357400000000000 H
   0.8708100000000000    0.6221550000000000    0.9716800000000000 H
   0.0893000000000000    0.9574450000000000    0.8390949999999999 H
   0.9609200000000000    0.8479200000000000    0.8699800000000000 H
   0.0770950000000000    0.0069550000000000    0.7795350000000000 H
   0.9520950000000000    0.9015150000000001    0.8108800000000000 H
   0.1086800000000000    0.9018550000000001    0.9642400000000000 H
   0.1291850000000000    0.8778650000000000    0.0283250000000000 H
   0.0937200000000000    0.7955050000000000    0.0810100000000000 H
   0.0401850000000000    0.7410800000000000    0.0680000000000000 H
   0.8686400000000001    0.7970999999999999    0.0420900000000000 H
   0.8864350000000000    0.7174100000000000    0.1522500000000000 H
   0.9304700000000000    0.7871550000000000    0.9925900000000000 H
   0.9490100000000000    0.7120500000000000    0.0986950000000000 H
   0.7936400000000000    0.8663300000000000    0.0979800000000000 H
   0.7491700000000000    0.9064400000000000    0.1219750000000000 H
   0.7018500000000000    0.8765350000000001    0.2044000000000000 H
   0.7006700000000000    0.8089649999999999    0.2589050000000000 H
   0.6313600000000000    0.7029400000000000    0.4579050000000000 H
   0.6135450000000000    0.7826200000000000    0.3477400000000000 H
   0.5695200000000000    0.7128700000000000    0.5074100000000000 H
   0.5509700000000000    0.7879800000000000    0.4013150000000000 H
   0.7063850000000000    0.6337650000000000    0.4020000000000000 H
   0.7508250000000001    0.5936250000000000    0.3780350000000000 H
   0.7981100000000000    0.6234800000000000    0.2956000000000000 H
   0.7993049999999999    0.6910450000000000    0.2410900000000000 H
   0.4107000000000000    0.5425850000000000    0.6609050000000000 H
   0.5390850000000000    0.6521100000000000    0.6300050000000000 H
   0.4229100000000000    0.4930800000000000    0.7204650000000000 H
   0.5479200000000000    0.5985199999999999    0.6891050000000000 H
   0.4062350000000000    0.7045150000000000    0.4190200000000000 H
   0.4597650000000000    0.7589450000000000    0.4320250000000000 H
   0.3913500000000000    0.5981700000000000    0.5357400000000000 H
   0.3708100000000000    0.6221550000000000    0.4716800000000000 H
   0.5893000000000000    0.9574450000000000    0.3390950000000000 H
   0.4609200000000000    0.8479200000000000    0.3699800000000000 H
   0.5770950000000000    0.0069550000000000    0.2795350000000000 H
   0.4520950000000000    0.9015150000000001    0.3108800000000000 H
   0.6086800000000000    0.9018550000000001    0.4642400000000000 H
   0.6291850000000000    0.8778650000000000    0.5283250000000000 H
   0.5937200000000000    0.7955050000000000    0.5810100000000000 H
   0.5401850000000000    0.7410800000000000    0.5680000000000001 H
   0.8229916310762949    0.5322911634192687    0.2662595512266827 H
   0.3810850000000000    0.5423249999999999    0.2973500000000000 H
   0.3637050000000000    0.6523700000000000    0.2168850000000000 H
   0.3193300000000000    0.4927500000000000    0.2874650000000000 H