H18 C26 N4
1.0
  10.3109708039405561    0.0000000000000000   -3.1537576524339088
  -3.4949153032120339   13.0101875696959937   -7.0765581623203113
   0.0000000000000000    0.0000000000000000   15.2300000000000004
H C N
18 26 4
direct
   0.1274300000000000    0.6845100000000000    0.7989200000000000 H
   0.3267400000000000    0.6839300000000000    0.9319100000000000 H
   0.1899500000000000    0.3520500000000000    0.7535800000000000 H
   0.9989000000000000    0.3659400000000000    0.6270000000000000 H
   0.2651100000000000    0.4208400000000000    0.9558500000000000 H
   0.4207400000000000    0.5061900000000000    0.7396500000000000 H
   0.5093100000000000    0.5896400000000001    0.6584600000000000 H
   0.8114600000000000    0.8054000000000000    0.9478300000000000 H
   0.7326400000000000    0.7330100000000001    0.0440200000000000 H
   0.8725600000000000    0.3154900000000000    0.2010800000000000 H
   0.6732200000000000    0.3160100000000000    0.0680800000000000 H
   0.8098400000000000    0.6479100000000000    0.2464300000000000 H
   0.0009100000000000    0.6340600000000000    0.3730500000000000 H
   0.7347800000000000    0.5790500000000000    0.0441100000000000 H
   0.5792200000000000    0.4937600000000000    0.2603100000000000 H
   0.4908300000000000    0.4102500000000000    0.3415300000000000 H
   0.1886300000000000    0.1944500000000000    0.0522100000000000 H
   0.2672800000000000    0.2668800000000000    0.9559800000000001 H
   0.1449200000000000    0.6124800000000000    0.7922600000000000 C
   0.2558800000000000    0.6114800000000000    0.8659900000000000 C
   0.2766300000000000    0.5172600000000001    0.8537200000000000 C
   0.1791300000000000    0.4277500000000000    0.7683600000000000 C
   0.0718900000000000    0.4348400000000000    0.6972000000000000 C
   0.3944300000000000    0.5096800000000000    0.9268500000000000 C
   0.3695200000000000    0.4529500000000000    0.9734300000000000 C
   0.5289100000000000    0.5579100000000000    0.9530300000000000 C
   0.5694500000000000    0.6107200000000000    0.9008100000000000 C
   0.5065000000000000    0.5732200000000000    0.7908400000000000 C
   0.5567200000000000    0.6194400000000000    0.7439600000000000 C
   0.7248000000000000    0.7390600000000001    0.9048700000000000 C
   0.6802200000000000    0.6973900000000000    0.9578700000000000 C
   0.8550000000000000    0.3875000000000000    0.2077400000000000 C
   0.7440500000000000    0.3884700000000000    0.1339900000000000 C
   0.7232600000000000    0.4826900000000000    0.1462600000000000 C
   0.8207200000000000    0.5722200000000000    0.2316400000000000 C
   0.9279400000000000    0.5651600000000000    0.3028300000000000 C
   0.6054600000000000    0.4902300000000000    0.0731200000000000 C
   0.6303700000000000    0.5469400000000000    0.0265200000000000 C
   0.4709700000000000    0.4420100000000000    0.0469500000000000 C
   0.4305100000000000    0.3891800000000000    0.0991700000000000 C
   0.4935100000000000    0.4267000000000000    0.2091400000000000 C
   0.4433500000000000    0.3804700000000000    0.2560400000000000 C
   0.2752500000000000    0.2608200000000000    0.0951500000000000 C
   0.3197600000000000    0.3024900000000000    0.0421300000000000 C
   0.0546800000000000    0.5253900000000000    0.7063400000000000 N
   0.6661400000000000    0.7001400000000000    0.7982800000000000 N
   0.9452000000000000    0.4746000000000000    0.2936700000000000 N
   0.3340400000000000    0.2997000000000000    0.2017300000000000 N
