H5 C9 S1 N2 O2
1.0
   7.5799983329020311    0.0000000000000000   -0.0050272460088906
  -0.0187342310598726   10.5224830086756640   -0.0025711317619902
   0.0000000000000000    0.0000000000000000   39.7800000000000011
H C S N O
5 9 1 2 2
direct
   0.0357700000000000    0.6024000000000000    0.4559900000000000 H
   0.2229500000000000    0.3441900000000000    0.5628266666666666 H
   0.2353700000000000    0.1744800000000000    0.6060133333333333 H
   0.0595600000000000    0.9014100000000000    0.5382433333333333 H
   0.0245700000000000    0.0599000000000000    0.4929400000000000 H
   0.1075400000000000    0.3959300000000000    0.4077433333333333 C
   0.1038800000000000    0.4008000000000000    0.4458799999999999 C
   0.0666000000000000    0.5071900000000000    0.4648700000000000 C
   0.1120800000000000    0.3140100000000000    0.4976500000000000 C
   0.1227300000000000    0.2171100000000000    0.5239233333333333 C
   0.1778900000000000    0.2483100000000000    0.5566566666666666 C
   0.1884200000000000    0.1531900000000000    0.5807400000000000 C
   0.0917700000000000    0.0009800000000000    0.5429700000000000 C
   0.0754100000000000    0.0900700000000000    0.5174033333333333 C
   0.0646200000000000    0.4719200000000000    0.5067633333333333 S
   0.1304400000000000    0.2928500000000000    0.4648933333333333 N
   0.1494700000000000    0.0299200000000000    0.5743166666666666 N
   0.1395600000000000    0.2897600000000000    0.3940300000000000 O
   1.0746899999999999    0.4998300000000000    0.3926633333333333 O
