H7 O4
1.0
   7.5799983329020311    0.0000000000000000   -0.0050272460088906
  -0.0187342310598726   10.5224830086756640   -0.0025711317619902
   0.0000000000000000    0.0000000000000000   39.7800000000000011
H O
7 4
direct
   0.1776198080139287    0.1190092640276507    0.5789589157075602 H
   0.1078175224391701    0.0090287920171505    0.5516881340853815 H
   0.1116038288254456    0.3694074050562178    0.4514092067796613 H
   0.1169246505506725    0.3084265138533644    0.4890065030934171 H
   0.2232039534201228    0.2447650161948267    0.3799583433612929 H
   1.1187973411490399    0.5685976636729060    0.3787590495455212 H
   1.2230943126105263    0.4199981727190806    0.3676968600215125 H
   0.1494700000000000    0.0299199999999999    0.5743166666666666 O
   0.1304400000000000    0.2928500000000000    0.4648933333333333 O
   0.1395600000000000    0.2897600000000000    0.3940300000000000 O
   1.0746899999999999    0.4998300000000000    0.3926633333333333 O
