H3 O3
1.0
  15.5887142891856598    0.0000000000000000    4.9010476237370808
  -7.7368557620816745   14.9668013968380684    6.5536251696560761
   0.0000000000000000    0.0000000000000000   36.1319999999999979
H O
3 3
direct
   1.0179078112772961    0.1493274004300016    0.1893712261527057 H
   0.9238876165496716    0.3325472920477157    0.0491659189187336 H
   0.8845745620130374    0.3566347675898914    1.0079339986746005 H
   0.9732800000000000    0.0853400000000000    0.2073850000000000 O
   0.9705600000000000    0.3847600000000000    0.0469850000000000 O
   0.9118500000000000    0.4207000000000000    0.9875700000000001 O
