H8 C12 N5
1.0
  15.5887142891856598    0.0000000000000000    4.9010476237370808
  -7.7368557620816745   14.9668013968380684    6.5536251696560761
   0.0000000000000000    0.0000000000000000   36.1319999999999979
H C N
8 12 5
direct
   0.7827000000000000    0.1963400000000000    0.0357400000000000 H
   0.0781700000000000    0.3042200000000000    0.1300050000000000 H
   0.0958400000000000    0.1970400000000000    0.1891050000000000 H
   0.8458200000000000    0.9861600000000000    0.2204650000000000 H
   0.8214000000000000    0.0851700000000000    0.1609050000000000 H
   0.7416199999999999    0.2443100000000000    0.9716800000000000 H
   0.8124700000000000    0.4090300000000000    0.9190199999999999 H
   0.9195300000000000    0.5178900000000000    0.9320250000000000 H
   0.9056100000000000    0.3121000000000000    0.0500200000000000 C
   0.9419100000000000    0.2632600000000000    0.1017000000000000 C
   0.8735500000000000    0.3307400000000000    0.0161650000000000 C
   0.8121200000000000    0.2662700000000000    0.0113550000000000 C
   0.9492100000000000    0.2038100000000000    0.1391700000000000 C
   0.0251400000000000    0.2340300000000000    0.1492000000000000 C
   0.0352900000000000    0.1742500000000000    0.1823550000000000 C
   0.8965300000000000    0.0569000000000000    0.1995350000000000 C
   0.8829200000000000    0.1125400000000000    0.1663000000000000 C
   0.7893600000000000    0.2933500000000000    0.9761900000000000 C
   0.8282400000000000    0.3846800000000000    0.9450000000000001 C
   0.8883200000000000    0.4459300000000000    0.9537599999999999 C
   0.9705600000000000    0.3847600000000000    0.0469850000000000 N
   0.9949800000000000    0.3538300000000000    0.0801650000000000 N
   0.8852000000000000    0.2345000000000000    0.0839050000000000 N
   0.9732800000000000    0.0853400000000000    0.2073850000000000 N
   0.9118500000000000    0.4207000000000000    0.9875700000000001 N
