H12 O8
1.0
  38.0705753076474309    0.0000000000000000    3.0804741103840056
   2.5181390003080546   37.8763854982906807    6.2556519692197634
   0.0000000000000000    0.0000000000000000   38.7869999999999990
H O
12 8
direct
   0.9321302565062556    0.8447481851972815    0.6023575797423071 H
   0.0297261647801238    0.8629758162794240    0.5844795613216351 H
   0.9832696728974984    0.8470644124622632    0.5946840243921094 H
   0.9734150951060899    0.7228973558287926    0.7084397943303519 H
   0.9065309378260524    0.7905967583190315    0.6798259653943782 H
   0.9374439179114692    0.7608211009403184    0.6828624061165964 H
   0.1674951704302053    0.7317440503474349    0.4878425070821731 H
   0.0698060479972043    0.7488375358691128    0.4701946225261789 H
   0.1160944021036886    0.7390937857041314    0.4857808009212145 H
   0.1677348148599450    0.6300734372656203    0.5382988261210189 H
   0.1215177163706269    0.6010212980796090    0.6048937380891093 H
   0.1262725825160826    0.6072028357873640    0.5779064612072629 H
   0.9480000000000001    0.8635699999999999    0.5957366666666666 O
   0.0060340000000000    0.8740633333333333    0.5851866666666666 O
   0.9570660000000001    0.7363133333333333    0.7225233333333333 O
   0.9168220000000000    0.7777433333333333    0.7006266666666666 O
   0.1516560000000000    0.7381166666666666    0.4691600000000000 O
   0.0934940000000000    0.7481866666666667    0.4591233333333333 O
   0.1837960000000000    0.6338066666666666    0.5552866666666667 O
   0.1435840000000000    0.6112266666666666    0.5962166666666666 O
