Zn180 H1246 C2136 O890
1.0
  38.0705753076474309    0.0000000000000000    3.0804741103840056
   2.5181390003080546   37.8763854982906807    6.2556519692197634
   0.0000000000000000    0.0000000000000000   38.7869999999999990
Zn H C O
180 1246 2136 890
direct
   0.0135680000000000    0.2579233333333333    0.2386033333333333 Zn
   0.1139440000000000    0.2386433333333333    0.2577433333333333 Zn
   0.1864320000000000    0.0754033333333333    0.0947400000000000 Zn
   0.0860540000000000    0.0946833333333333    0.0756000000000000 Zn
   0.2135680000000000    0.2579233333333333    0.2386033333333333 Zn
   0.3139440000000000    0.2386433333333333    0.2577433333333333 Zn
   0.3864320000000000    0.0754033333333333    0.0947400000000000 Zn
   0.2860540000000000    0.0946833333333333    0.0756000000000000 Zn
   0.4135680000000000    0.2579233333333333    0.2386033333333333 Zn
   0.5139440000000001    0.2386433333333333    0.2577433333333333 Zn
   0.5864320000000001    0.0754033333333333    0.0947400000000000 Zn
   0.4860540000000000    0.0946833333333333    0.0756000000000000 Zn
   0.6135680000000001    0.2579233333333333    0.2386033333333333 Zn
   0.7139440000000001    0.2386433333333333    0.2577433333333333 Zn
   0.7864320000000001    0.0754033333333333    0.0947400000000000 Zn
   0.6860540000000001    0.0946833333333333    0.0756000000000000 Zn
   0.8135680000000001    0.2579233333333333    0.2386033333333333 Zn
   0.9139440000000001    0.2386433333333333    0.2577433333333333 Zn
   0.9864320000000001    0.0754033333333333    0.0947400000000000 Zn
   0.8860540000000000    0.0946833333333333    0.0756000000000000 Zn
   0.0135680000000000    0.5912566666666665    0.2386033333333333 Zn
   0.1139440000000000    0.5719766666666666    0.2577433333333333 Zn
   0.1864320000000000    0.4087366666666666    0.0947400000000000 Zn
   0.0860540000000000    0.4280166666666667    0.0756000000000000 Zn
   0.2135680000000000    0.5912566666666665    0.2386033333333333 Zn
   0.3139440000000000    0.5719766666666666    0.2577433333333333 Zn
   0.3864320000000000    0.4087366666666666    0.0947400000000000 Zn
   0.2860540000000000    0.4280166666666667    0.0756000000000000 Zn
   0.4135680000000000    0.5912566666666665    0.2386033333333333 Zn
   0.5139440000000001    0.5719766666666666    0.2577433333333333 Zn
   0.5864320000000001    0.4087366666666666    0.0947400000000000 Zn
   0.4860540000000000    0.4280166666666667    0.0756000000000000 Zn
   0.6135680000000001    0.5912566666666665    0.2386033333333333 Zn
   0.7139440000000001    0.5719766666666666    0.2577433333333333 Zn
   0.7864320000000001    0.4087366666666666    0.0947400000000000 Zn
   0.6860540000000001    0.4280166666666667    0.0756000000000000 Zn
   0.8135680000000001    0.5912566666666665    0.2386033333333333 Zn
   0.9139440000000001    0.5719766666666666    0.2577433333333333 Zn
   0.9864320000000001    0.4087366666666666    0.0947400000000000 Zn
   0.8860540000000000    0.4280166666666667    0.0756000000000000 Zn
   0.0135680000000000    0.9245899999999999    0.2386033333333333 Zn
   0.1139440000000000    0.9053099999999999    0.2577433333333333 Zn
   0.1864320000000000    0.7420700000000000    0.0947400000000000 Zn
   0.0860540000000000    0.7613500000000000    0.0756000000000000 Zn
   0.2135680000000000    0.9245899999999999    0.2386033333333333 Zn
   0.3139440000000000    0.9053099999999999    0.2577433333333333 Zn
   0.3864320000000000    0.7420700000000000    0.0947400000000000 Zn
   0.2860540000000000    0.7613500000000000    0.0756000000000000 Zn
   0.4135680000000000    0.9245899999999999    0.2386033333333333 Zn
   0.5139440000000001    0.9053099999999999    0.2577433333333333 Zn
   0.5864320000000001    0.7420700000000000    0.0947400000000000 Zn
   0.4860540000000000    0.7613500000000000    0.0756000000000000 Zn
   0.6135680000000001    0.9245899999999999    0.2386033333333333 Zn
   0.7139440000000001    0.9053099999999999    0.2577433333333333 Zn
   0.7864320000000001    0.7420700000000000    0.0947400000000000 Zn
   0.6860540000000001    0.7613500000000000    0.0756000000000000 Zn
   0.8135680000000001    0.9245899999999999    0.2386033333333333 Zn
   0.9139440000000001    0.9053099999999999    0.2577433333333333 Zn
   0.9864320000000001    0.7420700000000000    0.0947400000000000 Zn
   0.8860540000000000    0.7613500000000000    0.0756000000000000 Zn
   0.0135680000000000    0.2579233333333333    0.5719366666666666 Zn
   0.1139440000000000    0.2386433333333333    0.5910766666666667 Zn
   0.1864320000000000    0.0754033333333333    0.4280733333333333 Zn
   0.0860540000000000    0.0946833333333333    0.4089333333333333 Zn
   0.2135680000000000    0.2579233333333333    0.5719366666666666 Zn
   0.3139440000000000    0.2386433333333333    0.5910766666666667 Zn
   0.3864320000000000    0.0754033333333333    0.4280733333333333 Zn
   0.2860540000000000    0.0946833333333333    0.4089333333333333 Zn
   0.4135680000000000    0.2579233333333333    0.5719366666666666 Zn
   0.5139440000000001    0.2386433333333333    0.5910766666666667 Zn
   0.5864320000000001    0.0754033333333333    0.4280733333333333 Zn
   0.4860540000000000    0.0946833333333333    0.4089333333333333 Zn
   0.6135680000000001    0.2579233333333333    0.5719366666666666 Zn
   0.7139440000000001    0.2386433333333333    0.5910766666666667 Zn
   0.7864320000000001    0.0754033333333333    0.4280733333333333 Zn
   0.6860540000000001    0.0946833333333333    0.4089333333333333 Zn
   0.8135680000000001    0.2579233333333333    0.5719366666666666 Zn
   0.9139440000000001    0.2386433333333333    0.5910766666666667 Zn
   0.9864320000000001    0.0754033333333333    0.4280733333333333 Zn
   0.8860540000000000    0.0946833333333333    0.4089333333333333 Zn
   0.0135680000000000    0.5912566666666665    0.5719366666666666 Zn
   0.1139440000000000    0.5719766666666666    0.5910766666666667 Zn
   0.1864320000000000    0.4087366666666666    0.4280733333333333 Zn
   0.0860540000000000    0.4280166666666667    0.4089333333333333 Zn
   0.2135680000000000    0.5912566666666665    0.5719366666666666 Zn
   0.3139440000000000    0.5719766666666666    0.5910766666666667 Zn
   0.3864320000000000    0.4087366666666666    0.4280733333333333 Zn
   0.2860540000000000    0.4280166666666667    0.4089333333333333 Zn
   0.4135680000000000    0.5912566666666665    0.5719366666666666 Zn
   0.5139440000000001    0.5719766666666666    0.5910766666666667 Zn
   0.5864320000000001    0.4087366666666666    0.4280733333333333 Zn
   0.4860540000000000    0.4280166666666667    0.4089333333333333 Zn
   0.6135680000000001    0.5912566666666665    0.5719366666666666 Zn
   0.7139440000000001    0.5719766666666666    0.5910766666666667 Zn
   0.7864320000000001    0.4087366666666666    0.4280733333333333 Zn
   0.6860540000000001    0.4280166666666667    0.4089333333333333 Zn
   0.8135680000000001    0.5912566666666665    0.5719366666666666 Zn
   0.9139440000000001    0.5719766666666666    0.5910766666666667 Zn
   0.9864320000000001    0.4087366666666666    0.4280733333333333 Zn
   0.8860540000000000    0.4280166666666667    0.4089333333333333 Zn
   0.0135680000000000    0.9245899999999999    0.5719366666666666 Zn
   0.1139440000000000    0.9053099999999999    0.5910766666666667 Zn
   0.1864320000000000    0.7420700000000000    0.4280733333333333 Zn
   0.0860540000000000    0.7613500000000000    0.4089333333333333 Zn
   0.2135680000000000    0.9245899999999999    0.5719366666666666 Zn
   0.3139440000000000    0.9053099999999999    0.5910766666666667 Zn
   0.3864320000000000    0.7420700000000000    0.4280733333333333 Zn
   0.2860540000000000    0.7613500000000000    0.4089333333333333 Zn
   0.4135680000000000    0.9245899999999999    0.5719366666666666 Zn
   0.5139440000000001    0.9053099999999999    0.5910766666666667 Zn
   0.5864320000000001    0.7420700000000000    0.4280733333333333 Zn
   0.4860540000000000    0.7613500000000000    0.4089333333333333 Zn
   0.6135680000000001    0.9245899999999999    0.5719366666666666 Zn
   0.7139440000000001    0.9053099999999999    0.5910766666666667 Zn
   0.7864320000000001    0.7420700000000000    0.4280733333333333 Zn
   0.6860540000000001    0.7613500000000000    0.4089333333333333 Zn
   0.8135680000000001    0.9245899999999999    0.5719366666666666 Zn
   0.9139440000000001    0.9053099999999999    0.5910766666666667 Zn
   0.9864320000000001    0.7420700000000000    0.4280733333333333 Zn
   0.8860540000000000    0.7613500000000000    0.4089333333333333 Zn
   0.0135680000000000    0.2579233333333333    0.9052699999999999 Zn
   0.1139440000000000    0.2386433333333333    0.9244100000000000 Zn
   0.1864320000000000    0.0754033333333333    0.7614066666666666 Zn
   0.0860540000000000    0.0946833333333333    0.7422666666666666 Zn
   0.2135680000000000    0.2579233333333333    0.9052699999999999 Zn
   0.3139440000000000    0.2386433333333333    0.9244100000000000 Zn
   0.3864320000000000    0.0754033333333333    0.7614066666666666 Zn
   0.2860540000000000    0.0946833333333333    0.7422666666666666 Zn
   0.4135680000000000    0.2579233333333333    0.9052699999999999 Zn
   0.5139440000000001    0.2386433333333333    0.9244100000000000 Zn
   0.5864320000000001    0.0754033333333333    0.7614066666666666 Zn
   0.4860540000000000    0.0946833333333333    0.7422666666666666 Zn
   0.6135680000000001    0.2579233333333333    0.9052699999999999 Zn
   0.7139440000000001    0.2386433333333333    0.9244100000000000 Zn
   0.7864320000000001    0.0754033333333333    0.7614066666666666 Zn
   0.6860540000000001    0.0946833333333333    0.7422666666666666 Zn
   0.8135680000000001    0.2579233333333333    0.9052699999999999 Zn
   0.9139440000000001    0.2386433333333333    0.9244100000000000 Zn
   0.9864320000000001    0.0754033333333333    0.7614066666666666 Zn
   0.8860540000000000    0.0946833333333333    0.7422666666666666 Zn
   0.0135680000000000    0.5912566666666665    0.9052699999999999 Zn
   0.1139440000000000    0.5719766666666666    0.9244100000000000 Zn
   0.1864320000000000    0.4087366666666666    0.7614066666666666 Zn
   0.0860540000000000    0.4280166666666667    0.7422666666666666 Zn
   0.2135680000000000    0.5912566666666665    0.9052699999999999 Zn
   0.3139440000000000    0.5719766666666666    0.9244100000000000 Zn
   0.3864320000000000    0.4087366666666666    0.7614066666666666 Zn
   0.2860540000000000    0.4280166666666667    0.7422666666666666 Zn
   0.4135680000000000    0.5912566666666665    0.9052699999999999 Zn
   0.5139440000000001    0.5719766666666666    0.9244100000000000 Zn
   0.5864320000000001    0.4087366666666666    0.7614066666666666 Zn
   0.4860540000000000    0.4280166666666667    0.7422666666666666 Zn
   0.6135680000000001    0.5912566666666665    0.9052699999999999 Zn
   0.7139440000000001    0.5719766666666666    0.9244100000000000 Zn
   0.7864320000000001    0.4087366666666666    0.7614066666666666 Zn
   0.6860540000000001    0.4280166666666667    0.7422666666666666 Zn
   0.8135680000000001    0.5912566666666665    0.9052699999999999 Zn
   0.9139440000000001    0.5719766666666666    0.9244100000000000 Zn
   0.9864320000000001    0.4087366666666666    0.7614066666666666 Zn
   0.8860540000000000    0.4280166666666667    0.7422666666666666 Zn
   0.0135680000000000    0.9245899999999999    0.9052699999999999 Zn
   0.1139440000000000    0.9053099999999999    0.9244100000000000 Zn
   0.1864320000000000    0.7420700000000000    0.7614066666666666 Zn
   0.0860540000000000    0.7613500000000000    0.7422666666666666 Zn
   0.2135680000000000    0.9245899999999999    0.9052699999999999 Zn
   0.3139440000000000    0.9053099999999999    0.9244100000000000 Zn
   0.3864320000000000    0.7420700000000000    0.7614066666666666 Zn
   0.2860540000000000    0.7613500000000000    0.7422666666666666 Zn
   0.4135680000000000    0.9245899999999999    0.9052699999999999 Zn
   0.5139440000000001    0.9053099999999999    0.9244100000000000 Zn
   0.5864320000000001    0.7420700000000000    0.7614066666666666 Zn
   0.4860540000000000    0.7613500000000000    0.7422666666666666 Zn
   0.6135680000000001    0.9245899999999999    0.9052699999999999 Zn
   0.7139440000000001    0.9053099999999999    0.9244100000000000 Zn
   0.7864320000000001    0.7420700000000000    0.7614066666666666 Zn
   0.6860540000000001    0.7613500000000000    0.7422666666666666 Zn
   0.8135680000000001    0.9245899999999999    0.9052699999999999 Zn
   0.9139440000000001    0.9053099999999999    0.9244100000000000 Zn
   0.9864320000000001    0.7420700000000000    0.7614066666666666 Zn
   0.8860540000000000    0.7613500000000000    0.7422666666666666 Zn
   0.1390940000000000    0.1547100000000000    0.3171600000000000 H
   0.0428660000000000    0.1494233333333333    0.2654100000000000 H
   0.0132700000000000    0.0674766666666667    0.0169166666666667 H
   0.0980840000000000    0.1231566666666667    0.2863433333333333 H
   0.0820520000000000    0.1014000000000000    0.2539533333333333 H
   0.0993900000000000    0.0398666666666667    0.3321499999999999 H
   0.1609740000000000    0.0168933333333333    0.1780933333333333 H
   0.0569660000000000    0.0682133333333333    0.1836066666666666 H
   0.0873400000000000    0.3170966666666666    0.2654566666666667 H
   0.0019540000000000    0.0468833333333333    0.2103833333333333 H
   0.0179380000000000    0.0799600000000000    0.2314566666666667 H
   0.0012060000000000    0.0009833333333333    0.2927966666666666 H
   0.0609060000000000    0.1786133333333333    0.0161833333333333 H
   0.1571340000000000    0.1839066666666667    0.0679333333333333 H
   0.1867300000000000    0.2658500000000000    0.3164266666666666 H
   0.1019180000000000    0.2101700000000000    0.0470033333333333 H
   0.1179480000000000    0.2319300000000000    0.0793900000000000 H
   0.1006120000000000    0.2934600000000000    0.0011933333333333 H
   0.0390260000000000    0.3164333333333333    0.1552533333333333 H
   0.1430340000000000    0.2651133333333333    0.1497366666666667 H
   0.1126580000000000    0.0162300000000000    0.0678866666666667 H
   0.1980460000000000    0.2864466666666666    0.1229600000000000 H
   0.1820640000000000    0.2533700000000000    0.1018866666666667 H
   0.1987940000000000    0.3323433333333333    0.0405466666666667 H
   0.1504100000000000    0.3288400000000000    0.0038500000000000 H
   0.1500480000000000    0.0953566666666667    0.2383800000000000 H
   0.0495900000000000    0.0044900000000000    0.3294933333333333 H
   0.0499520000000000    0.2379700000000000    0.0949633333333333 H
   0.3390940000000000    0.1547100000000000    0.3171600000000000 H
   0.2428660000000000    0.1494233333333333    0.2654100000000000 H
   0.2132700000000000    0.0674766666666667    0.0169166666666667 H
   0.2980840000000000    0.1231566666666667    0.2863433333333333 H
   0.2820520000000000    0.1014000000000000    0.2539533333333333 H
   0.2993900000000000    0.0398666666666667    0.3321499999999999 H
   0.3609740000000000    0.0168933333333333    0.1780933333333333 H
   0.2569660000000000    0.0682133333333333    0.1836066666666666 H
   0.2873400000000000    0.3170966666666666    0.2654566666666667 H
   0.2019540000000000    0.0468833333333333    0.2103833333333333 H
   0.2179380000000000    0.0799600000000000    0.2314566666666667 H
   0.2012060000000000    0.0009833333333333    0.2927966666666666 H
   0.2609060000000000    0.1786133333333333    0.0161833333333333 H
   0.3571340000000000    0.1839066666666667    0.0679333333333333 H
   0.3867300000000000    0.2658500000000000    0.3164266666666666 H
   0.3019180000000000    0.2101700000000000    0.0470033333333333 H
   0.3179480000000000    0.2319300000000000    0.0793900000000000 H
   0.3006120000000000    0.2934600000000000    0.0011933333333333 H
   0.2390260000000000    0.3164333333333333    0.1552533333333333 H
   0.3430340000000000    0.2651133333333333    0.1497366666666667 H
   0.3126580000000000    0.0162300000000000    0.0678866666666667 H
   0.3980460000000000    0.2864466666666666    0.1229600000000000 H
   0.3820640000000000    0.2533700000000000    0.1018866666666667 H
   0.3987940000000000    0.3323433333333333    0.0405466666666667 H
   0.3504100000000000    0.3288400000000000    0.0038500000000000 H
   0.3500480000000000    0.0953566666666667    0.2383800000000000 H
   0.2495900000000000    0.0044900000000000    0.3294933333333333 H
   0.2499520000000000    0.2379700000000000    0.0949633333333333 H
   0.5390940000000001    0.1547100000000000    0.3171600000000000 H
   0.4428660000000000    0.1494233333333333    0.2654100000000000 H
   0.4132700000000000    0.0674766666666667    0.0169166666666667 H
   0.4980840000000000    0.1231566666666667    0.2863433333333333 H
   0.4820520000000000    0.1014000000000000    0.2539533333333333 H
   0.4993900000000000    0.0398666666666667    0.3321499999999999 H
   0.5609740000000001    0.0168933333333333    0.1780933333333333 H
   0.4569660000000000    0.0682133333333333    0.1836066666666666 H
   0.4873400000000000    0.3170966666666666    0.2654566666666667 H
   0.4019540000000000    0.0468833333333333    0.2103833333333333 H
   0.4179380000000000    0.0799600000000000    0.2314566666666667 H
   0.4012060000000000    0.0009833333333333    0.2927966666666666 H
   0.4609060000000000    0.1786133333333333    0.0161833333333333 H
   0.5571340000000000    0.1839066666666667    0.0679333333333333 H
   0.5867300000000000    0.2658500000000000    0.3164266666666666 H
   0.5019180000000001    0.2101700000000000    0.0470033333333333 H
   0.5179480000000001    0.2319300000000000    0.0793900000000000 H
   0.5006120000000001    0.2934600000000000    0.0011933333333333 H
   0.4390260000000000    0.3164333333333333    0.1552533333333333 H
   0.5430340000000000    0.2651133333333333    0.1497366666666667 H
   0.5126580000000001    0.0162300000000000    0.0678866666666667 H
   0.5980460000000001    0.2864466666666666    0.1229600000000000 H
   0.5820640000000000    0.2533700000000000    0.1018866666666667 H
   0.5987940000000000    0.3323433333333333    0.0405466666666667 H
   0.5504100000000001    0.3288400000000000    0.0038500000000000 H
   0.5500480000000001    0.0953566666666667    0.2383800000000000 H
   0.4495900000000000    0.0044900000000000    0.3294933333333333 H
   0.4499520000000000    0.2379700000000000    0.0949633333333333 H
   0.7390940000000001    0.1547100000000000    0.3171600000000000 H
   0.6428660000000000    0.1494233333333333    0.2654100000000000 H
   0.6132700000000001    0.0674766666666667    0.0169166666666667 H
   0.6980840000000001    0.1231566666666667    0.2863433333333333 H
   0.6820520000000001    0.1014000000000000    0.2539533333333333 H
   0.6993900000000001    0.0398666666666667    0.3321499999999999 H
   0.7609740000000000    0.0168933333333333    0.1780933333333333 H
   0.6569660000000000    0.0682133333333333    0.1836066666666666 H
   0.6873400000000001    0.3170966666666666    0.2654566666666667 H
   0.6019540000000001    0.0468833333333333    0.2103833333333333 H
   0.6179380000000001    0.0799600000000000    0.2314566666666667 H
   0.6012060000000001    0.0009833333333333    0.2927966666666666 H
   0.6609060000000001    0.1786133333333333    0.0161833333333333 H
   0.7571340000000001    0.1839066666666667    0.0679333333333333 H
   0.7867300000000002    0.2658500000000000    0.3164266666666666 H
   0.7019180000000000    0.2101700000000000    0.0470033333333333 H
   0.7179480000000001    0.2319300000000000    0.0793900000000000 H
   0.7006120000000001    0.2934600000000000    0.0011933333333333 H
   0.6390260000000001    0.3164333333333333    0.1552533333333333 H
   0.7430340000000001    0.2651133333333333    0.1497366666666667 H
   0.7126580000000001    0.0162300000000000    0.0678866666666667 H
   0.7980460000000001    0.2864466666666666    0.1229600000000000 H
   0.7820640000000001    0.2533700000000000    0.1018866666666667 H
   0.7987940000000001    0.3323433333333333    0.0405466666666667 H
   0.7504100000000001    0.3288400000000000    0.0038500000000000 H
   0.7500480000000000    0.0953566666666667    0.2383800000000000 H
   0.6495900000000001    0.0044900000000000    0.3294933333333333 H
   0.6499520000000001    0.2379700000000000    0.0949633333333333 H
   0.9390940000000001    0.1547100000000000    0.3171600000000000 H
   0.8428660000000000    0.1494233333333333    0.2654100000000000 H
   0.8132700000000000    0.0674766666666667    0.0169166666666667 H
   0.8980840000000001    0.1231566666666667    0.2863433333333333 H
   0.8820520000000001    0.1014000000000000    0.2539533333333333 H
   0.8993900000000000    0.0398666666666667    0.3321499999999999 H
   0.9609740000000000    0.0168933333333333    0.1780933333333333 H
   0.8569660000000000    0.0682133333333333    0.1836066666666666 H
   0.8873400000000000    0.3170966666666666    0.2654566666666667 H
   0.8019540000000001    0.0468833333333333    0.2103833333333333 H
   0.8179380000000001    0.0799600000000000    0.2314566666666667 H
   0.8012060000000001    0.0009833333333333    0.2927966666666666 H
   0.8609060000000001    0.1786133333333333    0.0161833333333333 H
   0.9571340000000000    0.1839066666666667    0.0679333333333333 H
   0.9867300000000001    0.2658500000000000    0.3164266666666666 H
   0.9019180000000000    0.2101700000000000    0.0470033333333333 H
   0.9179480000000001    0.2319300000000000    0.0793900000000000 H
   0.9006120000000001    0.2934600000000000    0.0011933333333333 H
   0.8390260000000000    0.3164333333333333    0.1552533333333333 H
   0.9430340000000000    0.2651133333333333    0.1497366666666667 H
   0.9126580000000001    0.0162300000000000    0.0678866666666667 H
   0.9980460000000001    0.2864466666666666    0.1229600000000000 H
   0.9820640000000000    0.2533700000000000    0.1018866666666667 H
   0.9987940000000001    0.3323433333333333    0.0405466666666667 H
   0.9504100000000001    0.3288400000000000    0.0038500000000000 H
   0.9500480000000000    0.0953566666666667    0.2383800000000000 H
   0.8495900000000001    0.0044900000000000    0.3294933333333333 H
   0.8499520000000000    0.2379700000000000    0.0949633333333333 H
   0.1390940000000000    0.4880433333333333    0.3171600000000000 H
   0.0428660000000000    0.4827566666666666    0.2654100000000000 H
   0.0132700000000000    0.4008100000000000    0.0169166666666667 H
   0.0980840000000000    0.4564900000000000    0.2863433333333333 H
   0.0820520000000000    0.4347333333333333    0.2539533333333333 H
   0.0993900000000000    0.3732000000000000    0.3321499999999999 H
   0.1609740000000000    0.3502266666666666    0.1780933333333333 H
   0.0569660000000000    0.4015466666666666    0.1836066666666666 H
   0.0873400000000000    0.6504300000000000    0.2654566666666667 H
   0.0019540000000000    0.3802166666666666    0.2103833333333333 H
   0.0179380000000000    0.4132933333333333    0.2314566666666667 H
   0.0012060000000000    0.3343166666666667    0.2927966666666666 H
   0.0609060000000000    0.5119466666666667    0.0161833333333333 H
   0.1571340000000000    0.5172399999999999    0.0679333333333333 H
   0.1867300000000000    0.5991833333333333    0.3164266666666666 H
   0.1019180000000000    0.5435033333333333    0.0470033333333333 H
   0.1179480000000000    0.5652633333333333    0.0793900000000000 H
   0.1006120000000000    0.6267933333333333    0.0011933333333333 H
   0.0390260000000000    0.6497666666666666    0.1552533333333333 H
   0.1430340000000000    0.5984466666666666    0.1497366666666667 H
   0.1126580000000000    0.3495633333333333    0.0678866666666667 H
   0.1980460000000000    0.6197800000000000    0.1229600000000000 H
   0.1820640000000000    0.5867033333333334    0.1018866666666667 H
   0.1987940000000000    0.6656766666666667    0.0405466666666667 H
   0.1504100000000000    0.6621733333333333    0.0038500000000000 H
   0.1500480000000000    0.4286900000000000    0.2383800000000000 H
   0.0495900000000000    0.3378233333333333    0.3294933333333333 H
   0.0499520000000000    0.5713033333333333    0.0949633333333333 H
   0.3390940000000000    0.4880433333333333    0.3171600000000000 H
   0.2428660000000000    0.4827566666666666    0.2654100000000000 H
   0.2132700000000000    0.4008100000000000    0.0169166666666667 H
   0.2980840000000000    0.4564900000000000    0.2863433333333333 H
   0.2820520000000000    0.4347333333333333    0.2539533333333333 H
   0.2993900000000000    0.3732000000000000    0.3321499999999999 H
   0.3609740000000000    0.3502266666666666    0.1780933333333333 H
   0.2569660000000000    0.4015466666666666    0.1836066666666666 H
   0.2873400000000000    0.6504300000000000    0.2654566666666667 H
   0.2019540000000000    0.3802166666666666    0.2103833333333333 H
   0.2179380000000000    0.4132933333333333    0.2314566666666667 H
   0.2012060000000000    0.3343166666666667    0.2927966666666666 H
   0.2609060000000000    0.5119466666666667    0.0161833333333333 H
   0.3571340000000000    0.5172399999999999    0.0679333333333333 H
   0.3867300000000000    0.5991833333333333    0.3164266666666666 H
   0.3019180000000000    0.5435033333333333    0.0470033333333333 H
   0.3179480000000000    0.5652633333333333    0.0793900000000000 H
   0.3006120000000000    0.6267933333333333    0.0011933333333333 H
   0.2390260000000000    0.6497666666666666    0.1552533333333333 H
   0.3430340000000000    0.5984466666666666    0.1497366666666667 H
   0.3126580000000000    0.3495633333333333    0.0678866666666667 H
   0.3980460000000000    0.6197800000000000    0.1229600000000000 H
   0.3820640000000000    0.5867033333333334    0.1018866666666667 H
   0.3987940000000000    0.6656766666666667    0.0405466666666667 H
   0.3504100000000000    0.6621733333333333    0.0038500000000000 H
   0.3500480000000000    0.4286900000000000    0.2383800000000000 H
   0.2495900000000000    0.3378233333333333    0.3294933333333333 H
   0.2499520000000000    0.5713033333333333    0.0949633333333333 H
   0.5390940000000001    0.4880433333333333    0.3171600000000000 H
   0.4428660000000000    0.4827566666666666    0.2654100000000000 H
   0.4132700000000000    0.4008100000000000    0.0169166666666667 H
   0.4980840000000000    0.4564900000000000    0.2863433333333333 H
   0.4820520000000000    0.4347333333333333    0.2539533333333333 H
   0.4993900000000000    0.3732000000000000    0.3321499999999999 H
   0.5609740000000001    0.3502266666666666    0.1780933333333333 H
   0.4569660000000000    0.4015466666666666    0.1836066666666666 H
   0.4873400000000000    0.6504300000000000    0.2654566666666667 H
   0.4019540000000000    0.3802166666666666    0.2103833333333333 H
   0.4179380000000000    0.4132933333333333    0.2314566666666667 H
   0.4012060000000000    0.3343166666666667    0.2927966666666666 H
   0.4609060000000000    0.5119466666666667    0.0161833333333333 H
   0.5571340000000000    0.5172399999999999    0.0679333333333333 H
   0.5867300000000000    0.5991833333333333    0.3164266666666666 H
   0.5019180000000001    0.5435033333333333    0.0470033333333333 H
   0.5179480000000001    0.5652633333333333    0.0793900000000000 H
   0.5006120000000001    0.6267933333333333    0.0011933333333333 H
   0.4390260000000000    0.6497666666666666    0.1552533333333333 H
   0.5430340000000000    0.5984466666666666    0.1497366666666667 H
   0.5126580000000001    0.3495633333333333    0.0678866666666667 H
   0.5980460000000001    0.6197800000000000    0.1229600000000000 H
   0.5820640000000000    0.5867033333333334    0.1018866666666667 H
   0.5987940000000000    0.6656766666666667    0.0405466666666667 H
   0.5504100000000001    0.6621733333333333    0.0038500000000000 H
   0.5500480000000001    0.4286900000000000    0.2383800000000000 H
   0.4495900000000000    0.3378233333333333    0.3294933333333333 H
   0.4499520000000000    0.5713033333333333    0.0949633333333333 H
   0.7390940000000001    0.4880433333333333    0.3171600000000000 H
   0.6428660000000000    0.4827566666666666    0.2654100000000000 H
   0.6132700000000001    0.4008100000000000    0.0169166666666667 H
   0.6980840000000001    0.4564900000000000    0.2863433333333333 H
   0.6820520000000001    0.4347333333333333    0.2539533333333333 H
   0.6993900000000001    0.3732000000000000    0.3321499999999999 H
   0.7609740000000000    0.3502266666666666    0.1780933333333333 H
   0.6569660000000000    0.4015466666666666    0.1836066666666666 H
   0.6873400000000001    0.6504300000000000    0.2654566666666667 H
   0.6019540000000001    0.3802166666666666    0.2103833333333333 H
   0.6179380000000001    0.4132933333333333    0.2314566666666667 H
   0.6012060000000001    0.3343166666666667    0.2927966666666666 H
   0.6609060000000001    0.5119466666666667    0.0161833333333333 H
   0.7571340000000001    0.5172399999999999    0.0679333333333333 H
   0.7867300000000002    0.5991833333333333    0.3164266666666666 H
   0.7019180000000000    0.5435033333333333    0.0470033333333333 H
   0.7179480000000001    0.5652633333333333    0.0793900000000000 H
   0.7006120000000001    0.6267933333333333    0.0011933333333333 H
   0.6390260000000001    0.6497666666666666    0.1552533333333333 H
   0.7430340000000001    0.5984466666666666    0.1497366666666667 H
   0.7126580000000001    0.3495633333333333    0.0678866666666667 H
   0.7980460000000001    0.6197800000000000    0.1229600000000000 H
   0.7820640000000001    0.5867033333333334    0.1018866666666667 H
   0.7987940000000001    0.6656766666666667    0.0405466666666667 H
   0.7504100000000001    0.6621733333333333    0.0038500000000000 H
   0.7500480000000000    0.4286900000000000    0.2383800000000000 H
   0.6495900000000001    0.3378233333333333    0.3294933333333333 H
   0.6499520000000001    0.5713033333333333    0.0949633333333333 H
   0.9390940000000001    0.4880433333333333    0.3171600000000000 H
   0.8428660000000000    0.4827566666666666    0.2654100000000000 H