H14 C20 N2
1.0
  15.2300000000000004    0.0000000000000000    0.0000000000000009
   0.0003115063648822   17.8479999972815939    0.0000000000000011
   0.0000000000000000    0.0000000000000000   35.6959999999999980
H C N
14 20 2
direct
   0.2442900000000000    0.3722200000000000    0.0908700000000000 H
   0.2443200000000000    0.5116200000000000    0.0828900000000000 H
   0.0069700000000000    0.5188199999999999    0.1488650000000000 H
   0.0109500000000000    0.3785300000000000    0.1510000000000000 H
   0.1204600000000000    0.6261700000000000    0.1724000000000000 H
   0.1269300000000000    0.7493200000000000    0.0469950000000000 H
   0.1304700000000000    0.6106700000000000    0.0520750000000000 H
   0.2442900000000000    0.1277800000000000    0.1591250000000000 H
   0.2443200000000000    0.9883800000000000    0.1671050000000000 H
   0.0069700000000000    0.9811900000000000    0.1011350000000000 H
   0.0109600000000000    0.1214700000000000    0.0989950000000000 H
   0.1204700000000000    0.8738300000000000    0.0775700000000000 H
   0.1269300000000000    0.7506900000000000    0.2030000000000000 H
   0.1304700000000000    0.8893300000000000    0.1979200000000000 H
   0.1915400000000000    0.4068000000000000    0.1023000000000000 C
   0.1915600000000000    0.4842900000000000    0.0983250000000000 C
   0.1254500000000000    0.5269600000000000    0.1154500000000000 C
   0.0603800000000000    0.4882900000000000    0.1354750000000000 C
   0.0626700000000000    0.4105100000000000    0.1371300000000000 C
   0.1246000000000000    0.6096200000000001    0.1128300000000000 C
   0.1215200000000000    0.6530600000000000    0.1449500000000000 C
   0.1228700000000000    0.7322200000000000    0.1430200000000000 C
   0.1257800000000000    0.7222200000000000    0.0744000000000000 C
   0.1279900000000000    0.6453500000000000    0.0772000000000000 C
   0.1915400000000000    0.0932000000000000    0.1477000000000000 C
   0.1915700000000000    0.0157100000000000    0.1516650000000000 C
   0.1254400000000000    0.9730500000000000    0.1345150000000000 C
   0.0603900000000000    0.0117100000000000    0.1145200000000000 C
   0.0626700000000000    0.0894900000000000    0.1128700000000000 C
   0.1246000000000000    0.8903799999999999    0.1371650000000000 C
   0.1215100000000000    0.8469500000000000    0.1050300000000000 C
   0.1228800000000000    0.7677900000000000    0.1069750000000000 C
   0.1257800000000000    0.7777900000000000    0.1755950000000000 C
   0.1279800000000000    0.8546600000000000    0.1727650000000000 C
   0.1276100000000000    0.3703500000000000    0.1210950000000000 N
   0.1276200000000000    0.1296500000000000    0.1289000000000000 N
