Zn8 H210 C300 N30
1.0
  15.2300000000000004    0.0000000000000000    0.0000000000000009
   0.0003115063648822   17.8479999972815939    0.0000000000000011
   0.0000000000000000    0.0000000000000000   35.6959999999999980
Zn H C N
8 210 300 30
direct
   0.3716000000000000    0.7500100000000000    0.3750000000000000 Zn
   0.6284100000000000    0.2500000000000000    0.1250000000000000 Zn
   0.1284000000000000    0.2500000000000000    0.1250000000000000 Zn
   0.8716100000000000    0.7500000000000000    0.3750000000000000 Zn
   0.3716000000000000    0.7500100000000000    0.8750000000000000 Zn
   0.6284100000000000    0.2500000000000000    0.6250000000000000 Zn
   0.1284000000000000    0.2500000000000000    0.6250000000000000 Zn
   0.8716100000000000    0.7500000000000000    0.8750000000000000 Zn
   0.7557199999999999    0.8182600000000000    0.4361100000000000 H
   0.7556800000000000    0.8342200000000000    0.0058050000000000 H
   0.9930300000000000    0.7022699999999999    0.0094050000000000 H
   0.9890600000000001    0.6980000000000000    0.4392650000000000 H
   0.8795500000000001    0.6551500000000000    0.0630500000000000 H
   0.8730700000000000    0.9060100000000000    0.1246550000000000 H
   0.8695300000000000    0.8958500000000000    0.0553350000000000 H
   0.7557199999999999    0.6817500000000000    0.3138900000000000 H
   0.7556800000000000    0.6657900000000000    0.2441900000000000 H
   0.9930300000000000    0.7977300000000001    0.2405900000000000 H
   0.9890500000000000    0.8020100000000000    0.3107350000000000 H
   0.8795300000000000    0.8448600000000001    0.1869150000000000 H
   0.8730900000000000    0.5940000000000000    0.1253400000000000 H
   0.8695400000000000    0.6041600000000000    0.1946600000000000 H
   0.7557199999999999    0.6277800000000000    0.4091250000000000 H
   0.7556800000000000    0.4883800000000000    0.4171100000000000 H
   0.9930400000000000    0.4811800000000000    0.3511350000000000 H
   0.9890600000000001    0.6214700000000000    0.3489950000000000 H
   0.8795400000000000    0.3738300000000000    0.3275700000000000 H
   0.8730900000000000    0.2506900000000000    0.4530050000000000 H
   0.8695400000000000    0.3893300000000000    0.4479200000000000 H
   0.7557199999999999    0.8722299999999999    0.3408750000000000 H
   0.7556900000000000    0.0116200000000000    0.3328900000000000 H
   0.9930400000000000    0.0188200000000000    0.3988650000000000 H
   0.9890500000000000    0.8785300000000000    0.4010050000000000 H
   0.8795500000000001    0.1261700000000000    0.4224300000000000 H
   0.8730800000000000    0.2493200000000000    0.2969950000000000 H
   0.8695400000000000    0.1106700000000000    0.3020800000000000 H
   0.2557100000000000    0.8182600000000000    0.3138900000000000 H
   0.2556700000000000    0.8342200000000000    0.2441900000000000 H
   0.4930300000000000    0.7022699999999999    0.2405900000000000 H
   0.4890500000000000    0.6980000000000000    0.3107350000000000 H
   0.3795300000000000    0.6551500000000000    0.1869150000000000 H
   0.3730700000000000    0.9060100000000000    0.1253400000000000 H
   0.3695300000000000    0.8958500000000000    0.1946650000000000 H
   0.2557100000000000    0.6817500000000000    0.4361100000000000 H
   0.2556700000000000    0.6657900000000000    0.0058000000000000 H
   0.4930300000000000    0.7977300000000001    0.0094050000000000 H
   0.4890500000000000    0.8020100000000000    0.4392650000000000 H
   0.3795300000000000    0.8448600000000001    0.0630850000000000 H
   0.3730700000000000    0.5940000000000000    0.1246550000000000 H
   0.3695300000000000    0.6041600000000000    0.0553350000000000 H
   0.2557100000000000    0.6277800000000000    0.3408750000000000 H
   0.2556700000000000    0.4883800000000000    0.3328900000000000 H
   0.4930300000000000    0.4811800000000000    0.3988650000000000 H
   0.4890500000000000    0.6214700000000000    0.4010050000000000 H
   0.3795300000000000    0.3738300000000000    0.4224300000000000 H
   0.3730800000000000    0.2506900000000000    0.2969950000000000 H
   0.3695300000000000    0.3893300000000000    0.3020800000000000 H
   0.2557100000000000    0.8722299999999999    0.4091000000000000 H
   0.2556800000000000    0.0116200000000000    0.4171100000000000 H
   0.4930300000000000    0.0188200000000000    0.3511350000000000 H
   0.4890500000000000    0.8785400000000000    0.3450000000000000 H
   0.3795400000000000    0.1261700000000000    0.3275700000000000 H
   0.3730700000000000    0.2493200000000000    0.4530050000000000 H
   0.3695400000000000    0.1106700000000000    0.4479000000000000 H
   0.7443000000000000    0.1817500000000000    0.1861100000000000 H
   0.7443400000000000    0.1657800000000000    0.2558100000000000 H
   0.5069800000000000    0.2977300000000000    0.2594100000000000 H
   0.5109600000000000    0.3020100000000000    0.1892650000000000 H
   0.6204800000000000    0.3448600000000000    0.3130850000000000 H
   0.6269400000000001    0.0939900000000000    0.3746550000000000 H
   0.6304800000000000    0.1041600000000000    0.3053350000000000 H
   0.7443000000000000    0.3182500000000000    0.0638850000000000 H
   0.7443300000000000    0.3342200000000000    0.4941900000000000 H
   0.5069800000000000    0.2022700000000000    0.4905900000000000 H
   0.5109600000000000    0.1979900000000000    0.0607000000000000 H
   0.6204800000000000    0.1551400000000000    0.4369150000000000 H
   0.6269400000000001    0.4060100000000000    0.3753000000000000 H
   0.6304800000000000    0.3958500000000000    0.4446650000000000 H
   0.7443000000000000    0.3722200000000000    0.1591250000000000 H
   0.7443300000000000    0.5116200000000000    0.1671050000000000 H
   0.5069800000000000    0.5188199999999999    0.1011350000000000 H
   0.5109600000000000    0.3785300000000000    0.0989950000000000 H
   0.6204700000000000    0.6261700000000000    0.0775700000000000 H
   0.6269400000000001    0.7493200000000000    0.2030000000000000 H
   0.6304800000000000    0.6106700000000000    0.1979200000000000 H
   0.7443000000000000    0.1277800000000000    0.0908700000000000 H
   0.7443300000000000    0.9883800000000000    0.0828900000000000 H
   0.5069800000000000    0.9811900000000000    0.1488650000000000 H
   0.5109600000000000    0.1214700000000000    0.1510000000000000 H
   0.6204800000000000    0.8738400000000000    0.1724000000000000 H
   0.6269300000000000    0.7506900000000000    0.0469950000000000 H
   0.6304700000000000    0.8893300000000000    0.0520750000000000 H
   0.2442900000000000    0.1817500000000000    0.0638850000000000 H
   0.2443300000000000    0.1657800000000000    0.4941900000000000 H
   0.0069700000000000    0.2977300000000000    0.4905900000000000 H
   0.0109500000000000    0.3020100000000000    0.0607000000000000 H
   0.1204700000000000    0.3448600000000000    0.4369150000000000 H
   0.1269300000000000    0.0939900000000000    0.3753000000000000 H
   0.1304800000000000    0.1041600000000000    0.4446650000000000 H
   0.2442900000000000    0.3182500000000000    0.1861100000000000 H
   0.2443300000000000    0.3342200000000000    0.2558100000000000 H
   0.0069800000000000    0.2022700000000000    0.2594100000000000 H
   0.0109600000000000    0.1979900000000000    0.1892650000000000 H
   0.1204700000000000    0.1551400000000000    0.3130850000000000 H
   0.1269300000000000    0.4060100000000000    0.3746550000000000 H
   0.1304700000000000    0.3958400000000000    0.3053350000000000 H
   0.7557199999999999    0.8182600000000000    0.9361100000000000 H
   0.7556800000000000    0.8342200000000000    0.5058049999999999 H
   0.9930300000000000    0.7022699999999999    0.5094050000000000 H
   0.9890600000000001    0.6980000000000000    0.9392650000000000 H
   0.8795500000000001    0.6551500000000000    0.5630500000000001 H
   0.8730700000000000    0.9060100000000000    0.6246550000000000 H
   0.8695300000000000    0.8958500000000000    0.5553350000000000 H
   0.7557199999999999    0.6817500000000000    0.8138900000000000 H
   0.7556800000000000    0.6657900000000000    0.7441900000000000 H
   0.9930300000000000    0.7977300000000001    0.7405900000000000 H
   0.9890500000000000    0.8020100000000000    0.8107350000000000 H
   0.8795300000000000    0.8448600000000001    0.6869149999999999 H
   0.8730900000000000    0.5940000000000000    0.6253400000000000 H
   0.8695400000000000    0.6041600000000000    0.6946600000000001 H
   0.7557199999999999    0.6277800000000000    0.9091250000000000 H
   0.7556800000000000    0.4883800000000000    0.9171100000000000 H
   0.9930400000000000    0.4811800000000000    0.8511350000000000 H
   0.9890600000000001    0.6214700000000000    0.8489949999999999 H
   0.8795400000000000    0.3738300000000000    0.8275699999999999 H
   0.8730900000000000    0.2506900000000000    0.9530050000000000 H
   0.8695400000000000    0.3893300000000000    0.9479200000000000 H
   0.7557199999999999    0.8722299999999999    0.8408750000000000 H
   0.7556900000000000    0.0116200000000000    0.8328900000000000 H
   0.9930400000000000    0.0188200000000000    0.8988650000000000 H
   0.9890500000000000    0.8785300000000000    0.9010050000000001 H
   0.8795500000000001    0.1261700000000000    0.9224300000000001 H
   0.8730800000000000    0.2493200000000000    0.7969950000000000 H
   0.8695400000000000    0.1106700000000000    0.8020800000000000 H
   0.2557100000000000    0.8182600000000000    0.8138900000000000 H
   0.2556700000000000    0.8342200000000000    0.7441900000000000 H
   0.4930300000000000    0.7022699999999999    0.7405900000000000 H
   0.4890500000000000    0.6980000000000000    0.8107350000000000 H
   0.3795300000000000    0.6551500000000000    0.6869149999999999 H
   0.3730700000000000    0.9060100000000000    0.6253400000000000 H
   0.3695300000000000    0.8958500000000000    0.6946650000000000 H
   0.2557100000000000    0.6817500000000000    0.9361100000000000 H
   0.2556700000000000    0.6657900000000000    0.5058000000000000 H
   0.4930300000000000    0.7977300000000001    0.5094050000000000 H
   0.4890500000000000    0.8020100000000000    0.9392650000000000 H
   0.3795300000000000    0.8448600000000001    0.5630850000000001 H
   0.3730700000000000    0.5940000000000000    0.6246550000000000 H
   0.3695300000000000    0.6041600000000000    0.5553350000000000 H
   0.2557100000000000    0.6277800000000000    0.8408750000000000 H
   0.2556700000000000    0.4883800000000000    0.8328900000000000 H
   0.4930300000000000    0.4811800000000000    0.8988650000000000 H
   0.4890500000000000    0.6214700000000000    0.9010050000000001 H
   0.3795300000000000    0.3738300000000000    0.9224300000000001 H
   0.3730800000000000    0.2506900000000000    0.7969950000000000 H
   0.3695300000000000    0.3893300000000000    0.8020800000000000 H
   0.2557100000000000    0.8722299999999999    0.9091000000000000 H
   0.2556800000000000    0.0116200000000000    0.9171100000000000 H
   0.4930300000000000    0.0188200000000000    0.8511350000000000 H
   0.4890500000000000    0.8785400000000000    0.8450000000000000 H
   0.3795400000000000    0.1261700000000000    0.8275699999999999 H
   0.3730700000000000    0.2493200000000000    0.9530050000000000 H
   0.3695400000000000    0.1106700000000000    0.9479000000000000 H
   0.7443000000000000    0.1817500000000000    0.6861100000000000 H
   0.7443400000000000    0.1657800000000000    0.7558100000000000 H
   0.5069800000000000    0.2977300000000000    0.7594099999999999 H
   0.5109600000000000    0.3020100000000000    0.6892650000000000 H
   0.6204800000000000    0.3448600000000000    0.8130850000000001 H
   0.6269400000000001    0.0939900000000000    0.8746550000000000 H
   0.6304800000000000    0.1041600000000000    0.8053350000000000 H
   0.7443000000000000    0.3182500000000000    0.5638850000000000 H
   0.7443300000000000    0.3342200000000000    0.9941900000000000 H
   0.5069800000000000    0.2022700000000000    0.9905900000000001 H
   0.5109600000000000    0.1979900000000000    0.5607000000000000 H
   0.6204800000000000    0.1551400000000000    0.9369149999999999 H
   0.6269400000000001    0.4060100000000000    0.8753000000000000 H
   0.6304800000000000    0.3958500000000000    0.9446650000000000 H
   0.7443000000000000    0.3722200000000000    0.6591250000000000 H
   0.7443300000000000    0.5116200000000000    0.6671050000000001 H
   0.5069800000000000    0.5188199999999999    0.6011350000000000 H
   0.5109600000000000    0.3785300000000000    0.5989949999999999 H
   0.6204700000000000    0.6261700000000000    0.5775700000000000 H
   0.6269400000000001    0.7493200000000000    0.7030000000000001 H
   0.6304800000000000    0.6106700000000000    0.6979200000000000 H
   0.7443000000000000    0.1277800000000000    0.5908700000000000 H
   0.7443300000000000    0.9883800000000000    0.5828900000000000 H
   0.5069800000000000    0.9811900000000000    0.6488650000000000 H
   0.5109600000000000    0.1214700000000000    0.6510000000000000 H
   0.6204800000000000    0.8738400000000000    0.6724000000000000 H
   0.6269300000000000    0.7506900000000000    0.5469950000000000 H
   0.6304700000000000    0.8893300000000000    0.5520750000000000 H
   0.2442900000000000    0.1817500000000000    0.5638850000000000 H
   0.2443300000000000    0.1657800000000000    0.9941900000000000 H
   0.0069700000000000    0.2977300000000000    0.9905900000000001 H
   0.0109500000000000    0.3020100000000000    0.5607000000000000 H
   0.1204700000000000    0.3448600000000000    0.9369149999999999 H
   0.1269300000000000    0.0939900000000000    0.8753000000000000 H
   0.1304800000000000    0.1041600000000000    0.9446650000000000 H
   0.2442900000000000    0.3182500000000000    0.6861100000000000 H
   0.2443300000000000    0.3342200000000000    0.7558100000000000 H
   0.0069800000000000    0.2022700000000000    0.7594099999999999 H
   0.0109600000000000    0.1979900000000000    0.6892650000000000 H
   0.1204700000000000    0.1551400000000000    0.8130850000000001 H
   0.1269300000000000    0.4060100000000000    0.8746550000000000 H
   0.1304700000000000    0.3958400000000000    0.8053350000000000 H
   0.2442900000000000    0.3722200000000000    0.5908700000000000 H
   0.2443200000000000    0.5116200000000000    0.5828900000000000 H
   0.0069700000000000    0.5188199999999999    0.6488650000000000 H
   0.0109500000000000    0.3785300000000000    0.6510000000000000 H
   0.1204600000000000    0.6261700000000000    0.6724000000000000 H
   0.1269300000000000    0.7493200000000000    0.5469950000000000 H
   0.1304700000000000    0.6106700000000000    0.5520750000000000 H
   0.2442900000000000    0.1277800000000000    0.6591250000000000 H
   0.2443200000000000    0.9883800000000000    0.6671050000000001 H
   0.0069700000000000    0.9811900000000000    0.6011350000000000 H
   0.0109600000000000    0.1214700000000000    0.5989949999999999 H
   0.1204700000000000    0.8738300000000000    0.5775700000000000 H
   0.1269300000000000    0.7506900000000000    0.7030000000000001 H
   0.1304700000000000    0.8893300000000000    0.6979200000000000 H
   0.3720100000000000    0.1453400000000000    0.4227650000000000 C
   0.6915400000000000    0.2046000000000000    0.2034000000000000 C
   0.6915800000000000    0.1966700000000000    0.2421400000000000 C
   0.6254500000000000    0.2309700000000000    0.2634750000000000 C
   0.8084800000000000    0.7954100000000000    0.4534000000000000 C
   0.8084400000000000    0.8033400000000001    0.4921450000000000 C
   0.8745600000000000    0.7690399999999999    0.0134750000000000 C
   0.9396200000000000    0.7290400000000000    0.4941450000000000 C
   0.9373400000000000    0.7257500000000000    0.4552550000000000 C
   0.8754200000000000    0.7743400000000000    0.0548050000000000 C
   0.8784800000000000    0.7100700000000000    0.0765250000000000 C
   0.8771600000000001    0.7139600000000000    0.1161000000000000 C
   0.1215200000000000    0.2100600000000000    0.3265250000000000 C
   0.1228900000000000    0.2139500000000000    0.3661100000000000 C
   0.1257900000000000    0.3512000000000000    0.3611100000000000 C
   0.1279900000000000    0.3455300000000000    0.3226700000000000 C
   0.8742300000000000    0.8512000000000000    0.1111050000000000 C
   0.8720100000000000    0.8455400000000000    0.0726700000000000 C
   0.8084700000000000    0.7046100000000000    0.2965950000000000 C
   0.8084500000000000    0.6966599999999999    0.2578550000000000 C
   0.8745600000000000    0.7309700000000000    0.2365200000000000 C
   0.9396200000000000    0.7709600000000000    0.2558500000000000 C
   0.9373400000000000    0.7742700000000000    0.2947450000000000 C
   0.8753900000000000    0.7256700000000000    0.1951900000000000 C
   0.8784999999999999    0.7899400000000000    0.1734700000000000 C
   0.8771000000000000    0.7860500000000000    0.1338900000000000 C
   0.8742200000000000    0.6488100000000000    0.1388900000000000 C
   0.8720300000000000    0.6544700000000000    0.1773250000000000 C
   0.8084700000000000    0.5931999999999999    0.3977000000000000 C
   0.8084500000000000    0.5157200000000000    0.4016700000000000 C
   0.8745600000000000    0.4730500000000000    0.3845150000000000 C
   0.9396300000000000    0.5117100000000000    0.3645250000000000 C
   0.9373400000000000    0.5894900000000000    0.3628650000000000 C
   0.8754000000000000    0.3903800000000000    0.3871650000000000 C
   0.8784999999999999    0.3469500000000000    0.3550300000000000 C
   0.8771099999999999    0.2677800000000000    0.3569500000000000 C
   0.8742200000000000    0.2777800000000000    0.4255000000000000 C
   0.8720300000000000    0.3546600000000000    0.4227650000000000 C
   0.8084700000000000    0.9068100000000000    0.3522950000000000 C
   0.8084400000000000    0.9842900000000000    0.3483300000000000 C
   0.8745700000000000    0.0269500000000000    0.3654850000000000 C
   0.9396200000000000    0.9883000000000000    0.3854800000000000 C
   0.9373400000000000    0.9105100000000000    0.3871300000000000 C
   0.8754200000000000    0.1096200000000000    0.3628350000000000 C
   0.8784800000000000    0.1530500000000000    0.3949700000000000 C
   0.8771600000000001    0.2322200000000000    0.3930250000000000 C
   0.8742400000000000    0.2222200000000000    0.3244000000000000 C
   0.8720200000000000    0.1453400000000000    0.3272350000000000 C
   0.3084700000000000    0.7954100000000000    0.2966000000000000 C
   0.3084300000000000    0.8033400000000001    0.2578550000000000 C
   0.3745500000000000    0.7690399999999999    0.2365200000000000 C
   0.4396100000000000    0.7290500000000000    0.2558550000000000 C
   0.4373300000000000    0.7257500000000000    0.2947450000000000 C
   0.3754000000000000    0.7743400000000000    0.1951900000000000 C
   0.3784800000000000    0.7100700000000000    0.1734750000000000 C
   0.3771200000000000    0.7139600000000000    0.1338900000000000 C
   0.3742200000000000    0.8512000000000000    0.1388900000000000 C
   0.3720100000000000    0.8455400000000000    0.1773250000000000 C
   0.3084600000000000    0.7046100000000000    0.4534000000000000 C
   0.3084400000000000    0.6966599999999999    0.4921450000000000 C
   0.3745500000000000    0.7309700000000000    0.0134750000000000 C
   0.4396200000000000    0.7709600000000000    0.4941450000000000 C
   0.4373300000000000    0.7742700000000000    0.4552550000000000 C
   0.3754000000000000    0.7256700000000000    0.0548100000000000 C
   0.3784800000000000    0.7899400000000000    0.0765250000000000 C
   0.3771200000000000    0.7860500000000000    0.1161100000000000 C
   0.3742200000000000    0.6488100000000000    0.1111050000000000 C
   0.3720100000000000    0.6544700000000000    0.0726700000000000 C
   0.3084700000000000    0.5931999999999999    0.3522950000000000 C
   0.3084300000000000    0.5157200000000000    0.3483350000000000 C
   0.3745600000000000    0.4730500000000000    0.3654850000000000 C
   0.4396100000000000    0.5117100000000000    0.3854850000000000 C
   0.4373400000000000    0.5895000000000000    0.3871250000000000 C
   0.3754000000000000    0.3903800000000000    0.3628350000000000 C
   0.3784900000000000    0.3469500000000000    0.3949700000000000 C
   0.3771200000000000    0.2677800000000000    0.3930250000000000 C
   0.3742200000000000    0.2777800000000000    0.3244050000000000 C
   0.3720200000000000    0.3546600000000000    0.3272350000000000 C
   0.3084600000000000    0.9068100000000000    0.3975000000000000 C
   0.3084400000000000    0.9842900000000000    0.4016750000000000 C
   0.3745600000000000    0.0269600000000000    0.3845150000000000 C
   0.4396200000000000    0.9883000000000000    0.3645250000000000 C
   0.4373300000000000    0.9105200000000000    0.3628650000000000 C
   0.3754100000000000    0.1096200000000000    0.3871650000000000 C
   0.3784800000000000    0.1530600000000000    0.3550300000000000 C
   0.3771300000000000    0.2322200000000000    0.3569800000000000 C
   0.3742200000000000    0.2222200000000000    0.4256000000000000 C
   0.5604000000000000    0.2709600000000000    0.2441450000000000 C
   0.5626800000000000    0.2742600000000000    0.2052500000000000 C
   0.6246100000000000    0.2256700000000000    0.3048100000000000 C
   0.6215300000000000    0.2899400000000000    0.3265250000000000 C
   0.6228900000000001    0.2860500000000000    0.3661100000000000 C
   0.6257900000000000    0.1488100000000000    0.3611100000000000 C
   0.6280000000000000    0.1544700000000000    0.3226700000000000 C
   0.6915500000000000    0.2954000000000000    0.0465950000000000 C
   0.6915700000000000    0.3033400000000000    0.0078550000000000 C
   0.6254600000000000    0.2690300000000000    0.4865000000000000 C
   0.5603900000000001    0.2290500000000000    0.0058500000000000 C
   0.5626800000000000    0.2257400000000000    0.0447450000000000 C
   0.6246100000000000    0.2743300000000000    0.4451900000000000 C
   0.6215300000000000    0.2100600000000000    0.4234750000000000 C
   0.6228900000000001    0.2139600000000000    0.3838900000000000 C
   0.6257900000000000    0.3512000000000000    0.3888900000000000 C
   0.6280000000000000    0.3455300000000000    0.4273300000000000 C
   0.6915400000000000    0.4068000000000000    0.1477000000000000 C
   0.6915700000000000    0.4842900000000000    0.1516500000000000 C
   0.6254500000000000    0.5269600000000000    0.1345150000000000 C
   0.5603900000000001    0.4882900000000000    0.1145200000000000 C
   0.5626700000000000    0.4105100000000000    0.1128500000000000 C
   0.6246000000000000    0.6096200000000001    0.1371650000000000 C
   0.6215300000000000    0.6530600000000000    0.1050300000000000 C
   0.6228700000000000    0.7322200000000000    0.1069750000000000 C
   0.6257800000000000    0.7222200000000000    0.1755950000000000 C
   0.6280000000000000    0.6453500000000000    0.1727650000000000 C
   0.6915500000000000    0.0932000000000000    0.1022950000000000 C
   0.6915700000000000    0.0157100000000000    0.0983300000000000 C
   0.6254500000000000    0.9730500000000000    0.1154800000000000 C
   0.5604000000000000    0.0117100000000000    0.1354750000000000 C
   0.5626800000000000    0.0894900000000000    0.1371300000000000 C
   0.6246100000000000    0.8903799999999999    0.1128300000000000 C
   0.6215200000000000    0.8469500000000000    0.1449650000000000 C
   0.6229000000000000    0.7677800000000000    0.1430200000000000 C
   0.6257900000000000    0.7777900000000000    0.0744000000000000 C
   0.6279900000000000    0.8546600000000000    0.0772300000000000 C
   0.1915400000000000    0.2046000000000000    0.0465950000000000 C
   0.1915600000000000    0.1966600000000000    0.0078550000000000 C
   0.1254500000000000    0.2309700000000000    0.4865000000000000 C
   0.0603800000000000    0.2709600000000000    0.0058500000000000 C
   0.0626700000000000    0.2742600000000000    0.0447450000000000 C
   0.1246000000000000    0.2256700000000000    0.4451900000000000 C
   0.1215200000000000    0.2899400000000000    0.4234750000000000 C
   0.1228800000000000    0.2860500000000000    0.3838900000000000 C
   0.1257900000000000    0.1488100000000000    0.3888900000000000 C
   0.1279900000000000    0.1544700000000000    0.4273300000000000 C
   0.1915400000000000    0.2954100000000000    0.2034000000000000 C
   0.1915700000000000    0.3033400000000000    0.2421400000000000 C
   0.1254500000000000    0.2690300000000000    0.2634750000000000 C
   0.0603900000000000    0.2290400000000000    0.2441450000000000 C
   0.0626700000000000    0.2257400000000000    0.2052550000000000 C
   0.1246100000000000    0.2743300000000000    0.3048100000000000 C
   0.3720100000000000    0.1453400000000000    0.9227650000000001 C
   0.6915400000000000    0.2046000000000000    0.7034000000000000 C
   0.6915800000000000    0.1966700000000000    0.7421400000000000 C
   0.6254500000000000    0.2309700000000000    0.7634750000000000 C
   0.8084800000000000    0.7954100000000000    0.9534000000000000 C
   0.8084400000000000    0.8033400000000001    0.9921450000000001 C
   0.8745600000000000    0.7690399999999999    0.5134750000000000 C
   0.9396200000000000    0.7290400000000000    0.9941450000000001 C
   0.9373400000000000    0.7257500000000000    0.9552550000000000 C
   0.8754200000000000    0.7743400000000000    0.5548050000000000 C
   0.8784800000000000    0.7100700000000000    0.5765250000000000 C
   0.8771600000000001    0.7139600000000000    0.6161000000000000 C
   0.1215200000000000    0.2100600000000000    0.8265250000000000 C
   0.1228900000000000    0.2139500000000000    0.8661099999999999 C
   0.1257900000000000    0.3512000000000000    0.8611100000000000 C
   0.1279900000000000    0.3455300000000000    0.8226700000000000 C
   0.1915400000000000    0.4068000000000000    0.6023000000000001 C
   0.8742300000000000    0.8512000000000000    0.6111050000000000 C
   0.8720100000000000    0.8455400000000000    0.5726700000000000 C
   0.8084700000000000    0.7046100000000000    0.7965949999999999 C
   0.8084500000000000    0.6966599999999999    0.7578549999999999 C
   0.8745600000000000    0.7309700000000000    0.7365200000000001 C
   0.9396200000000000    0.7709600000000000    0.7558500000000000 C
   0.9373400000000000    0.7742700000000000    0.7947450000000000 C
   0.8753900000000000    0.7256700000000000    0.6951900000000000 C
   0.8784999999999999    0.7899400000000000    0.6734700000000000 C
   0.8771000000000000    0.7860500000000000    0.6338900000000001 C
   0.8742200000000000    0.6488100000000000    0.6388900000000000 C
   0.8720300000000000    0.6544700000000000    0.6773250000000000 C
   0.8084700000000000    0.5931999999999999    0.8976999999999999 C
   0.8084500000000000    0.5157200000000000    0.9016700000000000 C
   0.8745600000000000    0.4730500000000000    0.8845149999999999 C
   0.9396300000000000    0.5117100000000000    0.8645250000000000 C
   0.9373400000000000    0.5894900000000000    0.8628650000000000 C
   0.8754000000000000    0.3903800000000000    0.8871650000000000 C
   0.8784999999999999    0.3469500000000000    0.8550300000000000 C
   0.8771099999999999    0.2677800000000000    0.8569500000000000 C
   0.8742200000000000    0.2777800000000000    0.9255000000000000 C
   0.8720300000000000    0.3546600000000000    0.9227650000000001 C
   0.8084700000000000    0.9068100000000000    0.8522950000000000 C
   0.8084400000000000    0.9842900000000000    0.8483300000000000 C
   0.8745700000000000    0.0269500000000000    0.8654850000000001 C
   0.9396200000000000    0.9883000000000000    0.8854800000000000 C
   0.9373400000000000    0.9105100000000000    0.8871300000000000 C
   0.8754200000000000    0.1096200000000000    0.8628350000000000 C
   0.8784800000000000    0.1530500000000000    0.8949700000000000 C
   0.8771600000000001    0.2322200000000000    0.8930250000000000 C
   0.8742400000000000    0.2222200000000000    0.8244000000000000 C
   0.8720200000000000    0.1453400000000000    0.8272349999999999 C
   0.3084700000000000    0.7954100000000000    0.7966000000000000 C
   0.3084300000000000    0.8033400000000001    0.7578549999999999 C
   0.3745500000000000    0.7690399999999999    0.7365200000000001 C
   0.4396100000000000    0.7290500000000000    0.7558549999999999 C
   0.4373300000000000    0.7257500000000000    0.7947450000000000 C
   0.3754000000000000    0.7743400000000000    0.6951900000000000 C
   0.3784800000000000    0.7100700000000000    0.6734750000000000 C
   0.3771200000000000    0.7139600000000000    0.6338900000000001 C
   0.3742200000000000    0.8512000000000000    0.6388900000000000 C
   0.3720100000000000    0.8455400000000000    0.6773250000000000 C
   0.3084600000000000    0.7046100000000000    0.9534000000000000 C
   0.3084400000000000    0.6966599999999999    0.9921450000000001 C
   0.3745500000000000    0.7309700000000000    0.5134750000000000 C
   0.4396200000000000    0.7709600000000000    0.9941450000000001 C
   0.4373300000000000    0.7742700000000000    0.9552550000000000 C
   0.3754000000000000    0.7256700000000000    0.5548100000000000 C
   0.3784800000000000    0.7899400000000000    0.5765250000000000 C
   0.3771200000000000    0.7860500000000000    0.6161100000000000 C
   0.3742200000000000    0.6488100000000000    0.6111050000000000 C
   0.3720100000000000    0.6544700000000000    0.5726700000000000 C
   0.3084700000000000    0.5931999999999999    0.8522950000000000 C
   0.3084300000000000    0.5157200000000000    0.8483350000000001 C
   0.3745600000000000    0.4730500000000000    0.8654850000000001 C
   0.4396100000000000    0.5117100000000000    0.8854850000000001 C
   0.4373400000000000    0.5895000000000000    0.8871249999999999 C
   0.3754000000000000    0.3903800000000000    0.8628350000000000 C
   0.3784900000000000    0.3469500000000000    0.8949700000000000 C
   0.3771200000000000    0.2677800000000000    0.8930250000000000 C
   0.3742200000000000    0.2777800000000000    0.8244050000000001 C
   0.3720200000000000    0.3546600000000000    0.8272349999999999 C