H12 O8
1.0
  29.8755320059249385    0.0000000000000000    8.2285315435352473
   3.1368421746768962   14.6135862572483823    4.1801576373540668
   0.0000000000000000    0.0000000000000000   31.0219999999999985
H O
12 8
direct
   0.5927089508520177    0.5386327770831445    0.4690716701073662 H
   0.5833016155578724    0.3783352661869511    0.4601813800398920 H
   0.9071856887364256    0.4613917617457939    0.5308438378363115 H
   0.9165946730199559    0.6216644466855450    0.5397492928550710 H
   0.7703395016564901    0.1257928844046245    0.4666947482873701 H
   0.6895043566157155    1.1097062151732333    0.4618478860481669 H
   0.8104636069833647   -0.1096601679422068    0.5380569555320673 H
   0.7296162543119125    0.8743136409301039    0.5331837676465285 H
   0.7575119551774142   -0.0431569584488387    0.6712438530442240 H
   0.7424617477475419    1.0432342790128657    0.3286382684884592 H
   0.6904734061775526    0.4847651664381654    0.3288018924659017 H
   0.8094148878655292    0.5152574934157266    0.6711368424904902 H
   0.5706150000000000    0.5213400000000000    0.4967850000000000 O
   0.5625750000000000    0.3846600000000000    0.4892300000000000 O
   0.9292800000000000    0.4786800000000000    0.5031300000000000 O
   0.9373199999999999    0.6153400000000000    0.5107000000000000 O
   0.7610200000000000    0.1411400000000000    0.4966000000000000 O
   0.6925000000000000    1.1255100000000000    0.4889600000000000 O
   0.8074650000000000   -0.1254600000000000    0.5109450000000000 O
   0.7389350000000000    0.8589599999999999    0.5032799999999999 O
