H24 C25 N4 O4
1.0
  38.3486015437062804    0.0000000000000000    6.6446338982707402
  14.0896041477610758   37.1040908595017882    2.5498896935415472
   0.0000000000000000    0.0000000000000000   20.9349999999999987
H C N O
24 25 4 4
direct
   0.2300750000000000    0.6259766666666666    0.1381200000000000 H
   0.2199925000000000    0.5842533333333333    0.0653400000000000 H
   0.1107000000000000    0.6518400000000000    0.0621900000000000 H
   0.1752150000000000    0.6259866666666667    0.3622400000000000 H
   0.2166150000000000    0.5835466666666667    0.4336200000000000 H
   0.2756650000000000    0.6514500000000000    0.4383500000000000 H
   0.0974575000000000    0.8817999999999999    0.0467300000000000 H
   0.0925350000000000    0.8320000000000000    0.1231200000000000 H
   0.2111600000000000    0.8010166666666666    0.1254100000000000 H
   0.2112175000000000    0.8503866666666666    0.0489200000000000 H
   0.1906425000000000    0.7770300000000000    0.2280000000000000 H
   0.1964750000000000    0.7469133333333333    0.1627200000000000 H
   0.1284200000000000    0.7050433333333332    0.2428100000000000 H
   0.1331850000000000    0.7328300000000000    0.1730300000000000 H
   0.1160050000000000    0.6966366666666667    0.1317600000000000 H
   0.1159225000000000    0.8811266666666666    0.4556900000000000 H
   0.1586400000000000    0.8316933333333333    0.3802200000000000 H
   0.0634350000000000    0.8011199999999999    0.3699300000000000 H
   0.0258350000000000    0.8499833333333333    0.4460600000000000 H
   0.1027150000000000    0.7764933333333333    0.2713000000000000 H
   0.1189650000000000    0.7465800000000000    0.3371700000000000 H
   0.2180900000000000    0.7054100000000000    0.2583800000000000 H
   0.1927650000000000    0.7334966666666667    0.3274600000000000 H
   0.2367875000000000    0.6969299999999999    0.3699000000000000 H
   0.1734800000000000    0.6642699999999999    0.1434300000000000 C
   0.2030225000000000    0.6321633333333333    0.1230900000000000 C
   0.1974475000000000    0.6090933333333333    0.0824800000000000 C
   0.1365500000000000    0.6470166666666666    0.0806600000000000 C
   0.2033375000000000    0.6644833333333333    0.3577300000000000 C
   0.1977125000000000    0.6321133333333333    0.3773700000000000 C
   0.2206225000000000    0.6086466666666666    0.4172300000000000 C
   0.2533350000000000    0.6467300000000000    0.4198200000000000 C
   0.1215675000000000    0.8635966666666666    0.0666800000000000 C
   0.1189125000000000    0.8362399999999999    0.1088500000000000 C
   0.1508700000000000    0.8135766666666666    0.1334000000000000 C
   0.1849150000000000    0.8182866666666666    0.1108900000000000 C
   0.1851375000000000    0.8463333333333333    0.0679800000000000 C
   0.1768400000000000    0.7632200000000000    0.2029900000000000 C
   0.1474500000000000    0.7161633333333333    0.2112900000000000 C
   0.1395450000000000    0.6715966666666666    0.1212200000000000 C
   0.1056150000000000    0.8631366666666667    0.4342000000000000 C
   0.1290425000000000    0.8359766666666666    0.3924800000000000 C
   0.1142925000000000    0.8135033333333332    0.3660800000000000 C
   0.0765900000000000    0.8181999999999999    0.3863100000000000 C
   0.0550675000000000    0.8460299999999999    0.4289500000000000 C
   0.1265550000000000    0.7629999999999999    0.2968700000000000 C
   0.1908575000000000    0.7165866666666666    0.2896700000000000 C
   0.2319000000000000    0.6717133333333333    0.3799600000000000 C
   0.1606300000000000    0.7393200000000000    0.2502200000000000 C
   0.1645425000000000    0.6158533333333334    0.0612500000000000 N
   0.2486075000000000    0.6152700000000000    0.4384800000000000 N
   0.1540675000000000    0.8694366666666666    0.0469400000000000 N
   0.0686850000000000    0.8689433333333333    0.4517600000000000 N
   0.1455250000000000    0.7892533333333333    0.1778700000000000 O
   0.1797425000000000    0.6864199999999999    0.1826600000000000 O
   0.1381275000000000    0.7893466666666666    0.3221600000000000 O
   0.1804350000000000    0.6869333333333333    0.3191200000000000 O
