H8 O4
1.0
  38.3486015437062804    0.0000000000000000    6.6446338982707402
  14.0896041477610758   37.1040908595017882    2.5498896935415472
   0.0000000000000000    0.0000000000000000   20.9349999999999987
H O
8 4
direct
   0.2520267837493159    0.6380242393978800    0.4249836838154977 H
   0.2284226026605069    0.6104927513532757    0.4231528937479282 H
   0.1442898626787778    0.6384000757722135    0.0752931790802866 H
   0.1882736504922382    0.6109780080840541    0.0765611176097923 H
   0.0952843960023861    0.8647609930647029    0.4391121420578960 H
   0.0588326985417266    0.8523654690106673    0.4352568976491121 H
   0.1306564578777147    0.8652298824822313    0.0611595068151973 H
   0.1765395634116044    0.8527266707964992    0.0621576444860044 H
   0.2486075000000000    0.6152700000000000    0.4384800000000000 O
   0.1645425000000000    0.6158533333333334    0.0612500000000000 O
   0.0686850000000000    0.8689433333333333    0.4517600000000000 O
   0.1540675000000000    0.8694366666666666    0.0469400000000000 O
