H3 O2
1.0
  15.3160000000000007    0.0000000000000000    0.0000000000000009
  -0.0231341591104070   19.2099822781236895    0.0120699981809175
   0.0000000000000000    0.0000000000000000   38.9699999999999989
H O
3 2
direct
   0.8254031916250646    0.8841882342819644    0.2495504733340794 H
   0.1338870425536817    0.6066156885917130    0.2434692714365452 H
   0.1875129124917446    0.6418650820737573    0.2133189251163754 H
   0.8436399999999999    0.9328900000000000    0.2513350000000000 O
   0.1890100000000000    0.5870400000000000    0.2352550000000000 O
