H4 O4
1.0
  20.2832579507102579    0.0000000000000000    2.3418306738423871
   0.5813353144476979   10.1334729539094273    1.1713587813143091
   0.0000000000000000    0.0000000000000000   33.1259999999999977
H O
4 4
direct
   0.0665441662095893    0.0704447532907363    0.6075367935360974 H
   0.9201313738838408    0.1004309316464516    0.4830427118072234 H
   0.7592149937595697    0.7452666708660373    0.5652721573158804 H
   0.8176383352579248    0.5728515827172745    0.4532055754798403 H
   0.0956200000000000    0.0853800000000000    0.6278750000000000 O
   0.9526450000000000    0.1671700000000000    0.4749950000000000 O
   0.7693449999999999    0.8004000000000000    0.5857750000000000 O
   0.8101100000000000    0.5147800000000000    0.4328700000000000 O
