H6 C12 S2 N2 O4
1.0
  22.5992263259282247    0.0000000000000000   -1.9592920837569734
   1.8228753949982592   34.5202865414094759  -17.9913268658343810
   0.0000000000000000    0.0000000000000000   38.9579999999999984
H C S N O
6 12 2 2 4
direct
   0.1236500000000000    0.5657833333333333    0.0678000000000000 H
   0.3079000000000000    0.5372766666666666    0.0842133333333333 H
   0.2915600000000000    0.4694733333333333    0.0332500000000000 H
   0.3445900000000000    0.3436433333333333    0.0604233333333333 H
   0.1728000000000000    0.3978933333333333    0.0980633333333333 H
   0.1671200000000000    0.4185933333333333    0.0451466666666667 H
   0.2248500000000000    0.5971133333333334    0.1123633333333333 C
   0.2164900000000000    0.5565966666666666    0.0808166666666667 C
   0.1619100000000000    0.5453200000000000    0.0610333333333333 C
   0.2641900000000000    0.5289666666666666    0.0701466666666667 C
   0.2552700000000000    0.4914666666666666    0.0418166666666667 C
   0.1988000000000000    0.4820966666666666    0.0237366666666667 C
   0.2531300000000000    0.3907433333333333    0.0257000000000000 C
   0.3043400000000000    0.3599533333333333    0.0578933333333333 C
   0.2584800000000000    0.3688100000000000    0.0830800000000000 C
   0.2085700000000000    0.3904533333333333    0.0785233333333333 C
   0.2603000000000000    0.3550066666666666    0.1133300000000000 C
   0.2053900000000000    0.4020166666666666    0.0496166666666667 C
   0.2574400000000000    0.4015866666666666    0.9859533333333332 S
   0.1819600000000000    0.4346066666666666    0.9873499999999999 S
   0.3017600000000000    0.3705066666666667    0.0294366666666667 N
   0.1526600000000000    0.5088933333333333    0.0328000000000000 N
   0.3099700000000000    0.3424933333333333    0.1222766666666667 O
   0.2107800000000000    0.3569566666666666    0.1275500000000000 O
   0.2781400000000000    0.6064433333333332    0.1224233333333333 O
   0.1783900000000000    0.6182966666666667    0.1263700000000000 O
