H3 C4 O6
1.0
  19.3109976940729844    0.0000000000000000    0.0094371345162463
   0.0096027659064468   14.8709968633257752    0.0010381916514145
   0.0000000000000000    0.0000000000000000   30.8299999999999983
H C O
3 4 6
direct
   0.4857300000000000    0.3172200000000000    0.4736950000000000 H
   0.6488550000000000    0.1965100000000000    0.5344850000000000 H
   0.5377100000000000    0.1790800000000000    0.5035849999999999 H
   0.6034600000000000    0.2362700000000000    0.4534900000000000 C
   0.5697850000000000    0.2391100000000000    0.4985500000000000 C
   0.4792650000000000    0.3217100000000000    0.5425050000000000 C
   0.5232150000000000    0.3237200000000000    0.5005700000000000 C
   0.6638150000000000    0.2695900000000000    0.4482950000000000 O
   0.5668050000000000    0.2036900000000000    0.4232500000000000 O
   0.5635100000000000    0.4023300000000000    0.4963250000000000 O
   0.4790500000000000    0.3881800000000000    0.5686000000000000 O
   0.4428100000000000    0.2518500000000000    0.5481549999999999 O
   0.6195850000000001    0.2498800000000000    0.5329750000000000 O
