H8 C14 O4
1.0
  23.0591695105223131    0.0000000000000000   11.5230198075416883
   5.7822193793430472   12.9859503001024432    2.9055317675804209
   0.0000000000000000    0.0000000000000000   29.0519999999999996
H C O
8 14 4
direct
   0.5670050000000000    0.1948900000000000    0.1135950000000000 H
   0.5775399999999999    0.3375900000000000    0.1382700000000000 H
   0.6132350000000000    0.5688299999999999    0.0128450000000000 H
   0.6199550000000000    0.7120500000000000    0.0411350000000000 H
   0.6384950000000000    0.6940600000000000    0.1198900000000000 H
   0.6494600000000000    0.3853600000000000    0.1403950000000000 H
   0.6647300000000000    0.4083900000000000    0.9778000000000000 H
   0.6506850000000000    0.2692000000000000    0.9538249999999999 H
   0.5994850000000000    0.1380900000000000    0.0190000000000000 C
   0.6081300000000001    0.2227900000000000    0.0322050000000000 C
   0.5882900000000000    0.2422200000000000    0.0841750000000000 C
   0.5949500000000000    0.3215200000000000    0.0977150000000000 C
   0.6223300000000000    0.3832000000000000    0.0599400000000000 C
   0.6422700000000000    0.3630700000000000    0.0078850000000000 C
   0.6286900000000000    0.4674500000000000    0.0753800000000000 C
   0.6222850000000000    0.5596600000000000    0.0470350000000000 C
   0.6257950000000000    0.6405200000000000    0.0628650000000000 C
   0.6360300000000000    0.6310900000000000    0.1071100000000000 C
   0.6445550000000000    0.5385300000000000    0.1349450000000000 C
   0.6409600000000000    0.4574600000000000    0.1190000000000000 C
   0.6613400000000000    0.5243700000000000    0.1795550000000000 C
   0.6349600000000000    0.2843800000000000    0.9941700000000000 C
   0.5857500000000000    1.0753200000000001    0.0555250000000000 O
   0.6880300000000000    0.4312500000000000    0.1927950000000000 O
   0.6498900000000000    0.6051500000000000    0.2001800000000000 O
   0.6051600000000000    0.1343000000000000    0.9732100000000000 O
