Cu16 H120 C210 O60
1.0
  23.0591695105223131    0.0000000000000000   11.5230198075416883
   5.7822193793430472   12.9859503001024432    2.9055317675804209
   0.0000000000000000    0.0000000000000000   29.0519999999999996
Cu H C O
16 120 210 60
direct
   0.1727400000000000    0.5913100000000000    0.2593550000000000 Cu
   0.0933650000000000    0.0210100000000000    0.4542000000000000 Cu
   0.0569150000000000    0.9803500000000001    0.0459400000000000 Cu
   0.2288950000000000    0.4077100000000000    0.2393200000000000 Cu
   0.6727400000000000    0.5913100000000000    0.2593550000000000 Cu
   0.5933650000000000    0.0210100000000000    0.4542000000000000 Cu
   0.5569150000000000    0.9803500000000001    0.0459400000000000 Cu
   0.7288950000000000    0.4077100000000000    0.2393200000000000 Cu
   0.1727400000000000    0.5913100000000000    0.7593550000000000 Cu
   0.0933650000000000    0.0210100000000000    0.9541999999999999 Cu
   0.0569150000000000    0.9803500000000001    0.5459400000000000 Cu
   0.2288950000000000    0.4077100000000000    0.7393200000000000 Cu
   0.6727400000000000    0.5913100000000000    0.7593550000000000 Cu
   0.5933650000000000    0.0210100000000000    0.9541999999999999 Cu
   0.5569150000000000    0.9803500000000001    0.5459400000000000 Cu
   0.7288950000000000    0.4077100000000000    0.7393200000000000 Cu
   0.2901450000000000    0.7257500000000000    0.1513100000000000 H
   0.3721350000000000    0.7757700000000000    0.0799250000000000 H
   0.4951800000000000    0.4549400000000000    0.0447000000000000 H
   0.4114000000000000    0.4062500000000000    0.1143100000000000 H
   0.0249850000000000    0.5249100000000000    0.4646750000000000 H
   0.1038150000000000    0.5820700000000000    0.3934300000000000 H
   0.1124600000000000    0.7405900000000000    0.4024950000000000 H
   0.4672400000000000    0.7813400000000000    0.0562000000000000 H
   0.3065550000000000    0.2731900000000000    0.3470150000000000 H
   0.3414450000000000    0.2245500000000000    0.4185350000000000 H
   0.2676250000000000    0.5459900000000000    0.4527700000000000 H
   0.2298150000000000    0.5932900000000000    0.3830500000000000 H
   0.2514350000000000    0.4772600000000000    0.0330900000000000 H
   0.2865400000000000    0.4213300000000000    0.1046750000000000 H
   0.3835100000000000    0.2628000000000000    0.0964750000000000 H
   0.4150150000000000    0.2197900000000000    0.4426250000000000 H
   0.0670050000000000    0.1948900000000000    0.1135950000000000 H
   0.0775400000000000    0.3375900000000000    0.1382700000000000 H
   0.1647300000000000    0.4083900000000000    0.4778000000000000 H
   0.1506850000000000    0.2692000000000000    0.4538250000000000 H
   0.1132350000000000    0.5688299999999999    0.0128450000000000 H
   0.1199550000000000    0.7120500000000000    0.0411350000000000 H
   0.1384950000000000    0.6940600000000000    0.1198900000000000 H
   0.1494600000000000    0.3853600000000000    0.1403950000000000 H
   0.2780050000000000    0.8043000000000000    0.3872950000000000 H
   0.3849100000000000    0.6613200000000000    0.3625000000000000 H
   0.3467150000000000    0.5919400000000000    0.0229800000000000 H
   0.2386450000000000    0.7311800000000001    0.0470850000000000 H
   0.4113900000000000    0.4317400000000000    0.4886200000000000 H
   0.0187200000000000    0.2890400000000000    0.4603800000000000 H
   0.1070150000000000    0.3061800000000000    0.3808100000000000 H
   0.4828900000000000    0.6135500000000000    0.3595250000000000 H
   0.7901450000000000    0.7257500000000000    0.1513100000000000 H
   0.8721350000000000    0.7757700000000000    0.0799250000000000 H
   0.9951800000000000    0.4549400000000000    0.0447000000000000 H
   0.9114000000000000    0.4062500000000000    0.1143100000000000 H
   0.5249850000000000    0.5249100000000000    0.4646750000000000 H
   0.6038150000000000    0.5820700000000000    0.3934300000000000 H
   0.6124600000000000    0.7405900000000000    0.4024950000000000 H
   0.9672400000000000    0.7813400000000000    0.0562000000000000 H
   0.8065550000000000    0.2731900000000000    0.3470150000000000 H
   0.8414450000000000    0.2245500000000000    0.4185350000000000 H
   0.7676250000000000    0.5459900000000000    0.4527700000000000 H
   0.7298150000000000    0.5932900000000000    0.3830500000000000 H
   0.7514350000000001    0.4772600000000000    0.0330900000000000 H
   0.7865400000000000    0.4213300000000000    0.1046750000000000 H
   0.8835100000000000    0.2628000000000000    0.0964750000000000 H
   0.9150150000000000    0.2197900000000000    0.4426250000000000 H
   0.6647300000000000    0.4083900000000000    0.4778000000000000 H
   0.6506850000000000    0.2692000000000000    0.4538250000000000 H
   0.7780050000000001    0.8043000000000000    0.3872950000000000 H
   0.8849100000000000    0.6613200000000000    0.3625000000000000 H
   0.8467150000000000    0.5919400000000000    0.0229800000000000 H
   0.7386450000000000    0.7311800000000001    0.0470850000000000 H
   0.9113899999999999    0.4317400000000000    0.4886200000000000 H
   0.5187200000000000    0.2890400000000000    0.4603800000000000 H
   0.6070150000000000    0.3061800000000000    0.3808100000000000 H
   0.9828900000000000    0.6135500000000000    0.3595250000000000 H
   0.2901450000000000    0.7257500000000000    0.6513100000000001 H
   0.3721350000000000    0.7757700000000000    0.5799250000000000 H
   0.4951800000000000    0.4549400000000000    0.5447000000000000 H
   0.4114000000000000    0.4062500000000000    0.6143100000000000 H
   0.0249850000000000    0.5249100000000000    0.9646749999999999 H
   0.1038150000000000    0.5820700000000000    0.8934299999999999 H
   0.1124600000000000    0.7405900000000000    0.9024950000000000 H
   0.4672400000000000    0.7813400000000000    0.5562000000000000 H
   0.3065550000000000    0.2731900000000000    0.8470150000000001 H
   0.3414450000000000    0.2245500000000000    0.9185350000000000 H
   0.2676250000000000    0.5459900000000000    0.9527700000000000 H
   0.2298150000000000    0.5932900000000000    0.8830500000000000 H
   0.2514350000000000    0.4772600000000000    0.5330900000000000 H
   0.2865400000000000    0.4213300000000000    0.6046750000000000 H
   0.3835100000000000    0.2628000000000000    0.5964750000000000 H
   0.4150150000000000    0.2197900000000000    0.9426250000000000 H
   0.0670050000000000    0.1948900000000000    0.6135950000000000 H
   0.0775400000000000    0.3375900000000000    0.6382700000000000 H
   0.1647300000000000    0.4083900000000000    0.9778000000000000 H
   0.1506850000000000    0.2692000000000000    0.9538249999999999 H
   0.1132350000000000    0.5688299999999999    0.5128450000000000 H
   0.1199550000000000    0.7120500000000000    0.5411350000000000 H
   0.1384950000000000    0.6940600000000000    0.6198900000000001 H
   0.1494600000000000    0.3853600000000000    0.6403950000000000 H
   0.2780050000000000    0.8043000000000000    0.8872949999999999 H
   0.3849100000000000    0.6613200000000000    0.8625000000000000 H
   0.3467150000000000    0.5919400000000000    0.5229800000000000 H
   0.2386450000000000    0.7311800000000001    0.5470850000000000 H
   0.4113900000000000    0.4317400000000000    0.9886200000000001 H
   0.0187200000000000    0.2890400000000000    0.9603800000000000 H
   0.1070150000000000    0.3061800000000000    0.8808100000000000 H
   0.4828900000000000    0.6135500000000000    0.8595250000000000 H
   0.7901450000000000    0.7257500000000000    0.6513100000000001 H
   0.8721350000000000    0.7757700000000000    0.5799250000000000 H
   0.9951800000000000    0.4549400000000000    0.5447000000000000 H
   0.9114000000000000    0.4062500000000000    0.6143100000000000 H
   0.5249850000000000    0.5249100000000000    0.9646749999999999 H
   0.6038150000000000    0.5820700000000000    0.8934299999999999 H
   0.6124600000000000    0.7405900000000000    0.9024950000000000 H
   0.9672400000000000    0.7813400000000000    0.5562000000000000 H
   0.8065550000000000    0.2731900000000000    0.8470150000000001 H
   0.8414450000000000    0.2245500000000000    0.9185350000000000 H
   0.7676250000000000    0.5459900000000000    0.9527700000000000 H
   0.7298150000000000    0.5932900000000000    0.8830500000000000 H
   0.7514350000000001    0.4772600000000000    0.5330900000000000 H
   0.7865400000000000    0.4213300000000000    0.6046750000000000 H
   0.8835100000000000    0.2628000000000000    0.5964750000000000 H
   0.9150150000000000    0.2197900000000000    0.9426250000000000 H
   0.5670050000000000    0.1948900000000000    0.6135950000000000 H
   0.5775399999999999    0.3375900000000000    0.6382700000000000 H
   0.6132350000000000    0.5688299999999999    0.5128450000000000 H
   0.6199550000000000    0.7120500000000000    0.5411350000000000 H
   0.6384950000000000    0.6940600000000000    0.6198900000000001 H
   0.6494600000000000    0.3853600000000000    0.6403950000000000 H
   0.7780050000000001    0.8043000000000000    0.8872949999999999 H
   0.8849100000000000    0.6613200000000000    0.8625000000000000 H
   0.8467150000000000    0.5919400000000000    0.5229800000000000 H
   0.7386450000000000    0.7311800000000001    0.5470850000000000 H
   0.9113899999999999    0.4317400000000000    0.9886200000000001 H
   0.5187200000000000    0.2890400000000000    0.9603800000000000 H
   0.6070150000000000    0.3061800000000000    0.8808100000000000 H
   0.9828900000000000    0.6135500000000000    0.8595250000000000 H
   0.2943100000000000    0.5364300000000000    0.1799700000000000 C
   0.3454100000000000    0.5629700000000000    0.1374450000000000 C
   0.3352050000000000    0.6670800000000000    0.1276550000000000 C
   0.3815850000000000    0.6945400000000000    0.0879950000000000 C
   0.4399850000000000    0.6192000000000000    0.0572300000000000 C
   0.4499300000000000    0.5149100000000000    0.0673300000000000 C
   0.4031800000000000    0.4870900000000000    0.1066500000000000 C
   0.4885950000000000    0.6505700000000000    0.0152200000000000 C
   0.0290300000000000    0.5937400000000000    0.4692500000000000 C
   0.0732450000000000    0.6257500000000000    0.4290550000000000 C
   0.0782900000000000    0.7147700000000000    0.4338000000000000 C
   0.0397450000000000    0.7706600000000000    0.4799350000000000 C
   0.4953600000000000    0.7383900000000000    0.0202500000000000 C
   0.0488800000000000    0.8604500000000000    0.4871650000000000 C
   0.2441700000000000    0.4623200000000000    0.3179900000000000 C
   0.2659500000000000    0.4362300000000000    0.3603900000000000 C
   0.2981850000000000    0.3323300000000000    0.3704750000000000 C
   0.3182200000000000    0.3056300000000000    0.4102000000000000 C
   0.3075900000000000    0.3815200000000000    0.4408050000000000 C
   0.2753800000000000    0.4855900000000000    0.4303500000000000 C
   0.2545000000000000    0.5126300000000000    0.3909200000000000 C
   0.3293000000000000    0.3510000000000000    0.4830100000000000 C
   0.2946200000000000    0.4084800000000000    0.0287700000000000 C
   0.3139850000000000    0.3771300000000000    0.0692100000000000 C
   0.3683200000000000    0.2880600000000000    0.0649400000000000 C
   0.4045850000000000    0.2315300000000000    0.0190000000000000 C
   0.3851050000000000    0.2632500000000000    0.4784150000000000 C
   0.4658900000000000    0.1415900000000000    0.0122150000000000 C
   0.0994850000000000    0.1380900000000000    0.0190000000000000 C
   0.1081300000000000    0.2227900000000000    0.0322050000000000 C
   0.0882900000000000    0.2422200000000000    0.0841750000000000 C
   0.0949500000000000    0.3215200000000000    0.0977150000000000 C
   0.1223300000000000    0.3832000000000000    0.0599400000000000 C
   0.1422700000000000    0.3630700000000000    0.0078850000000000 C
   0.1349600000000000    0.2843800000000000    0.4941700000000000 C
   0.1286900000000000    0.4674500000000000    0.0753800000000000 C
   0.1222850000000000    0.5596600000000000    0.0470350000000000 C
   0.1257950000000000    0.6405200000000000    0.0628650000000000 C
   0.1360300000000000    0.6310900000000000    0.1071100000000000 C
   0.1445550000000000    0.5385300000000000    0.1349450000000000 C
   0.1409600000000000    0.4574600000000000    0.1190000000000000 C
   0.1613400000000000    0.5243700000000000    0.1795550000000000 C
   0.1871300000000000    0.8622400000000000    0.4818250000000000 C
   0.2514450000000000    0.7770700000000000    0.4686950000000000 C
   0.2935200000000000    0.7571700000000000    0.4167000000000000 C
   0.3535850000000000    0.6777200000000000    0.4031050000000000 C
   0.3740700000000000    0.6164200000000000    0.4408550000000000 C
   0.3316400000000000    0.6369500000000000    0.4929350000000000 C
   0.2710200000000000    0.7157200000000000    0.0067100000000000 C
   0.4383350000000000    0.5322800000000000    0.4253500000000000 C
   0.4500400000000000    0.4406500000000000    0.4540850000000000 C
   0.0102050000000000    0.3600400000000000    0.4382650000000000 C
   0.0600000000000000    0.3689900000000000    0.3935800000000000 C
   0.0497050000000000    0.4609500000000000    0.3652500000000000 C
   0.4892700000000000    0.5418600000000000    0.3812500000000000 C
   0.1039650000000000    0.4748900000000000    0.3201100000000000 C
   0.7943100000000001    0.5364300000000000    0.1799700000000000 C
   0.8454100000000000    0.5629700000000000    0.1374450000000000 C
   0.8352050000000000    0.6670800000000000    0.1276550000000000 C
   0.8815850000000001    0.6945400000000000    0.0879950000000000 C
   0.9399850000000001    0.6192000000000000    0.0572300000000000 C
   0.9499299999999999    0.5149100000000000    0.0673300000000000 C
   0.9031800000000000    0.4870900000000000    0.1066500000000000 C
   0.9885950000000000    0.6505700000000000    0.0152200000000000 C
   0.5290300000000000    0.5937400000000000    0.4692500000000000 C
   0.5732450000000000    0.6257500000000000    0.4290550000000000 C
   0.5782900000000000    0.7147700000000000    0.4338000000000000 C
   0.5397450000000000    0.7706600000000000    0.4799350000000000 C
   0.9953600000000000    0.7383900000000000    0.0202500000000000 C
   0.5488800000000000    0.8604500000000000    0.4871650000000000 C
   0.7441700000000000    0.4623200000000000    0.3179900000000000 C
   0.7659500000000000    0.4362300000000000    0.3603900000000000 C
   0.7981849999999999    0.3323300000000000    0.3704750000000000 C
   0.8182199999999999    0.3056300000000000    0.4102000000000000 C
   0.8075900000000000    0.3815200000000000    0.4408050000000000 C
   0.7753800000000000    0.4855900000000000    0.4303500000000000 C
   0.7544999999999999    0.5126300000000000    0.3909200000000000 C
   0.8292999999999999    0.3510000000000000    0.4830100000000000 C
   0.7946200000000000    0.4084800000000000    0.0287700000000000 C
   0.8139850000000000    0.3771300000000000    0.0692100000000000 C
   0.8683200000000000    0.2880600000000000    0.0649400000000000 C
   0.9045850000000000    0.2315300000000000    0.0190000000000000 C
   0.8851050000000000    0.2632500000000000    0.4784150000000000 C
   0.9658900000000000    0.1415900000000000    0.0122150000000000 C
   0.6349600000000000    0.2843800000000000    0.4941700000000000 C
   0.6871300000000000    0.8622400000000000    0.4818250000000000 C
   0.7514449999999999    0.7770700000000000    0.4686950000000000 C
   0.7935200000000000    0.7571700000000000    0.4167000000000000 C
   0.8535850000000000    0.6777200000000000    0.4031050000000000 C
   0.8740700000000000    0.6164200000000000    0.4408550000000000 C
   0.8316399999999999    0.6369500000000000    0.4929350000000000 C
   0.7710200000000000    0.7157200000000000    0.0067100000000000 C
   0.9383349999999999    0.5322800000000000    0.4253500000000000 C
   0.9500400000000000    0.4406500000000000    0.4540850000000000 C
   0.5102050000000000    0.3600400000000000    0.4382650000000000 C
   0.5600000000000001    0.3689900000000000    0.3935800000000000 C
   0.5497050000000000    0.4609500000000000    0.3652500000000000 C
   0.9892700000000000    0.5418600000000000    0.3812500000000000 C
   0.6039650000000000    0.4748900000000000    0.3201100000000000 C
   0.2943100000000000    0.5364300000000000    0.6799700000000000 C
   0.3454100000000000    0.5629700000000000    0.6374450000000000 C
   0.3352050000000000    0.6670800000000000    0.6276550000000000 C
   0.3815850000000000    0.6945400000000000    0.5879950000000000 C
   0.4399850000000000    0.6192000000000000    0.5572300000000000 C
   0.4499300000000000    0.5149100000000000    0.5673300000000000 C
   0.4031800000000000    0.4870900000000000    0.6066500000000000 C
   0.4885950000000000    0.6505700000000000    0.5152200000000000 C
   0.0290300000000000    0.5937400000000000    0.9692499999999999 C
   0.0732450000000000    0.6257500000000000    0.9290550000000000 C
   0.0782900000000000    0.7147700000000000    0.9338000000000000 C
   0.0397450000000000    0.7706600000000000    0.9799350000000000 C
   0.4953600000000000    0.7383900000000000    0.5202500000000000 C
   0.0488800000000000    0.8604500000000000    0.9871650000000001 C
   0.2441700000000000    0.4623200000000000    0.8179900000000000 C
   0.2659500000000000    0.4362300000000000    0.8603900000000000 C
   0.2981850000000000    0.3323300000000000    0.8704750000000000 C
   0.3182200000000000    0.3056300000000000    0.9102000000000000 C
   0.3075900000000000    0.3815200000000000    0.9408050000000000 C
   0.2753800000000000    0.4855900000000000    0.9303500000000000 C
   0.2545000000000000    0.5126300000000000    0.8909199999999999 C
   0.3293000000000000    0.3510000000000000    0.9830099999999999 C
   0.2946200000000000    0.4084800000000000    0.5287700000000000 C
   0.3139850000000000    0.3771300000000000    0.5692100000000000 C
   0.3683200000000000    0.2880600000000000    0.5649400000000000 C
   0.4045850000000000    0.2315300000000000    0.5190000000000000 C
   0.3851050000000000    0.2632500000000000    0.9784150000000000 C
   0.4658900000000000    0.1415900000000000    0.5122150000000000 C
   0.0994850000000000    0.1380900000000000    0.5190000000000000 C
   0.1081300000000000    0.2227900000000000    0.5322050000000000 C
   0.0882900000000000    0.2422200000000000    0.5841750000000000 C
   0.0949500000000000    0.3215200000000000    0.5977150000000000 C
   0.1223300000000000    0.3832000000000000    0.5599400000000000 C
   0.1422700000000000    0.3630700000000000    0.5078850000000000 C
   0.1349600000000000    0.2843800000000000    0.9941700000000000 C
   0.1286900000000000    0.4674500000000000    0.5753800000000000 C
   0.1222850000000000    0.5596600000000000    0.5470350000000000 C
   0.1257950000000000    0.6405200000000000    0.5628649999999999 C
   0.1360300000000000    0.6310900000000000    0.6071100000000000 C
   0.1445550000000000    0.5385300000000000    0.6349450000000000 C
   0.1409600000000000    0.4574600000000000    0.6190000000000000 C
   0.1613400000000000    0.5243700000000000    0.6795550000000000 C
   0.1871300000000000    0.8622400000000000    0.9818249999999999 C
   0.2514450000000000    0.7770700000000000    0.9686950000000000 C
   0.2935200000000000    0.7571700000000000    0.9167000000000001 C
   0.3535850000000000    0.6777200000000000    0.9031050000000000 C
   0.3740700000000000    0.6164200000000000    0.9408550000000000 C
   0.3316400000000000    0.6369500000000000    0.9929350000000000 C
   0.2710200000000000    0.7157200000000000    0.5067100000000000 C
   0.4383350000000000    0.5322800000000000    0.9253500000000000 C
   0.4500400000000000    0.4406500000000000    0.9540850000000001 C
   0.0102050000000000    0.3600400000000000    0.9382650000000000 C
   0.0600000000000000    0.3689900000000000    0.8935800000000000 C
   0.0497050000000000    0.4609500000000000    0.8652500000000001 C
   0.4892700000000000    0.5418600000000000    0.8812500000000000 C
   0.1039650000000000    0.4748900000000000    0.8201100000000000 C
   0.7943100000000001    0.5364300000000000    0.6799700000000000 C
   0.8454100000000000    0.5629700000000000    0.6374450000000000 C
   0.8352050000000000    0.6670800000000000    0.6276550000000000 C
   0.8815850000000001    0.6945400000000000    0.5879950000000000 C
   0.9399850000000001    0.6192000000000000    0.5572300000000000 C
   0.9499299999999999    0.5149100000000000    0.5673300000000000 C
   0.9031800000000000    0.4870900000000000    0.6066500000000000 C
   0.9885950000000000    0.6505700000000000    0.5152200000000000 C
   0.5290300000000000    0.5937400000000000    0.9692499999999999 C
   0.5732450000000000    0.6257500000000000    0.9290550000000000 C
   0.5782900000000000    0.7147700000000000    0.9338000000000000 C
   0.5397450000000000    0.7706600000000000    0.9799350000000000 C
   0.9953600000000000    0.7383900000000000    0.5202500000000000 C
   0.5488800000000000    0.8604500000000000    0.9871650000000001 C
   0.7441700000000000    0.4623200000000000    0.8179900000000000 C
   0.7659500000000000    0.4362300000000000    0.8603900000000000 C
   0.7981849999999999    0.3323300000000000    0.8704750000000000 C
   0.8182199999999999    0.3056300000000000    0.9102000000000000 C
   0.8075900000000000    0.3815200000000000    0.9408050000000000 C
   0.7753800000000000    0.4855900000000000    0.9303500000000000 C
   0.7544999999999999    0.5126300000000000    0.8909199999999999 C
   0.8292999999999999    0.3510000000000000    0.9830099999999999 C
   0.7946200000000000    0.4084800000000000    0.5287700000000000 C
   0.8139850000000000    0.3771300000000000    0.5692100000000000 C
   0.8683200000000000    0.2880600000000000    0.5649400000000000 C
   0.9045850000000000    0.2315300000000000    0.5190000000000000 C
   0.8851050000000000    0.2632500000000000    0.9784150000000000 C
   0.9658900000000000    0.1415900000000000    0.5122150000000000 C
   0.5994850000000000    0.1380900000000000    0.5190000000000000 C
   0.6081300000000001    0.2227900000000000    0.5322050000000000 C
   0.5882900000000000    0.2422200000000000    0.5841750000000000 C
   0.5949500000000000    0.3215200000000000    0.5977150000000000 C
   0.6223300000000000    0.3832000000000000    0.5599400000000000 C
   0.6422700000000000    0.3630700000000000    0.5078850000000000 C
   0.6286900000000000    0.4674500000000000    0.5753800000000000 C
   0.6222850000000000    0.5596600000000000    0.5470350000000000 C
   0.6257950000000000    0.6405200000000000    0.5628649999999999 C
   0.6360300000000000    0.6310900000000000    0.6071100000000000 C
   0.6445550000000000    0.5385300000000000    0.6349450000000000 C
   0.6409600000000000    0.4574600000000000    0.6190000000000000 C
   0.6613400000000000    0.5243700000000000    0.6795550000000000 C
   0.6871300000000000    0.8622400000000000    0.9818249999999999 C
   0.7514449999999999    0.7770700000000000    0.9686950000000000 C
   0.7935200000000000    0.7571700000000000    0.9167000000000001 C
   0.8535850000000000    0.6777200000000000    0.9031050000000000 C
   0.8740700000000000    0.6164200000000000    0.9408550000000000 C
   0.8316399999999999    0.6369500000000000    0.9929350000000000 C
   0.7710200000000000    0.7157200000000000    0.5067100000000000 C
   0.9383349999999999    0.5322800000000000    0.9253500000000000 C
   0.9500400000000000    0.4406500000000000    0.9540850000000001 C
   0.5102050000000000    0.3600400000000000    0.9382650000000000 C
   0.5600000000000001    0.3689900000000000    0.8935800000000000 C
   0.5497050000000000    0.4609500000000000    0.8652500000000001 C
   0.9892700000000000    0.5418600000000000    0.8812500000000000 C
   0.6039650000000000    0.4748900000000000    0.8201100000000000 C
   0.2977450000000000    0.4449300000000000    0.1820300000000000 O
   0.2494200000000000    0.6095500000000000    0.2113500000000000 O
   0.0284000000000000    0.8868600000000000    0.0337600000000000 O
   0.0779400000000000    0.9022500000000000    0.4469300000000000 O
   0.2036700000000000    0.5537900000000000    0.3159800000000000 O
   0.2673900000000000    0.3891200000000000    0.2867000000000000 O
   0.0059850000000000    0.1150100000000000    0.4657250000000000 O
   0.4748750000000000    0.0998300000000000    0.0526550000000000 O
   0.1051600000000000    0.1343000000000000    0.4732100000000000 O
   0.0857500000000000    0.0753200000000000    0.0555250000000000 O
   0.1880300000000000    0.4312500000000000    0.1927950000000000 O
   0.1498900000000000    0.6051500000000000    0.2001800000000000 O
   0.1445000000000000    0.8662700000000000    0.0274500000000000 O
   0.1791650000000000    0.9253000000000000    0.4452600000000000 O
   0.0970600000000000    0.5680200000000000    0.3066500000000000 O
   0.1536950000000000    0.3941200000000000    0.2992300000000000 O
   0.7977449999999999    0.4449300000000000    0.1820300000000000 O
   0.7494200000000000    0.6095500000000000    0.2113500000000000 O
   0.5284000000000000    0.8868600000000000    0.0337600000000000 O
   0.5779400000000000    0.9022500000000000    0.4469300000000000 O
   0.7036700000000000    0.5537900000000000    0.3159800000000000 O
   0.7673900000000000    0.3891200000000000    0.2867000000000000 O
   0.5059850000000000    0.1150100000000000    0.4657250000000000 O
   0.9748749999999999    0.0998300000000000    0.0526550000000000 O
   0.6051600000000000    0.1343000000000000    0.4732100000000000 O
   0.6445000000000000    0.8662700000000000    0.0274500000000000 O
   0.6791650000000000    0.9253000000000000    0.4452600000000000 O
   0.5970600000000000    0.5680200000000000    0.3066500000000000 O
   0.6536950000000000    0.3941200000000000    0.2992300000000000 O
   0.2977450000000000    0.4449300000000000    0.6820300000000000 O
   0.2494200000000000    0.6095500000000000    0.7113500000000000 O
   0.0284000000000000    0.8868600000000000    0.5337600000000000 O
   0.0779400000000000    0.9022500000000000    0.9469300000000000 O
   0.2036700000000000    0.5537900000000000    0.8159799999999999 O
   0.2673900000000000    0.3891200000000000    0.7867000000000000 O
   0.0059850000000000    0.1150100000000000    0.9657249999999999 O
   0.4748750000000000    0.0998300000000000    0.5526550000000000 O
   0.1051600000000000    0.1343000000000000    0.9732100000000000 O
   0.0857500000000000    0.0753200000000000    0.5555250000000000 O
   0.1880300000000000    0.4312500000000000    0.6927950000000000 O
   0.1498900000000000    0.6051500000000000    0.7001800000000000 O
   0.1445000000000000    0.8662700000000000    0.5274500000000000 O
   0.1791650000000000    0.9253000000000000    0.9452600000000000 O
   0.0970600000000000    0.5680200000000000    0.8066500000000000 O
   0.1536950000000000    0.3941200000000000    0.7992300000000000 O
   0.7977449999999999    0.4449300000000000    0.6820300000000000 O
   0.7494200000000000    0.6095500000000000    0.7113500000000000 O
   0.5284000000000000    0.8868600000000000    0.5337600000000000 O
   0.5779400000000000    0.9022500000000000    0.9469300000000000 O
   0.7036700000000000    0.5537900000000000    0.8159799999999999 O
   0.7673900000000000    0.3891200000000000    0.7867000000000000 O
   0.5059850000000000    0.1150100000000000    0.9657249999999999 O
   0.9748749999999999    0.0998300000000000    0.5526550000000000 O
   0.5857500000000000    0.0753200000000000    0.5555250000000000 O
   0.6880300000000000    0.4312500000000000    0.6927950000000000 O
   0.6498900000000000    0.6051500000000000    0.7001800000000000 O
   0.6445000000000000    0.8662700000000000    0.5274500000000000 O
   0.6791650000000000    0.9253000000000000    0.9452600000000000 O
   0.5970600000000000    0.5680200000000000    0.8066500000000000 O
   0.6536950000000000    0.3941200000000000    0.7992300000000000 O
