H3 O2
1.0
  13.1440000000000001    0.0000000000000000    0.0000000000000008
   0.0000000000000063   39.0390000000000015    0.0000000000000024
   0.0000000000000000    0.0000000000000000   23.5109999999999992
H O
3 2
direct
   0.1339740548932022    0.2176524793809912    0.4255259808532629 H
   0.1344985030906254    0.1156607508116952    0.4257283765989638 H
   0.1425732131980342    0.1666472389451937    0.4210088106983024 H
   0.1091200000000000    0.1958000000000000    0.4394000000000000 O
   0.1094300000000000    0.1375066666666667    0.4395100000000000 O
