Ag4 H22 C27 S3 N6 O10
1.0
   7.5799983329020311    0.0000000000000000   -0.0050272460088906
  -0.0187342310598726   10.5224830086756640   -0.0025711317619902
   0.0000000000000000    0.0000000000000000   13.2599999999999998
Ag H C S N O
4 22 27 3 6 10
direct
   0.2888000000000000    0.8791800000000000    0.8059900000000000 Ag
   0.2132800000000000    0.1217200000000000    0.3067500000000000 Ag
   0.7871899999999999    0.6214100000000000    0.1951800000000000 Ag
   0.7115899999999999    0.3793500000000000    0.6948800000000001 Ag
   0.0357700000000000    0.6024000000000000    0.3679700000000000 H
   0.0245700000000000    0.0599000000000000    0.4788200000000000 H
   0.2229500000000000    0.3441900000000000    0.6884800000000000 H
   0.0595600000000000    0.9014100000000000    0.6147300000000000 H
   0.2353700000000000    0.1744800000000000    0.8180400000000000 H
   0.4617800000000000    0.3981500000000000    0.8681800000000000 H
   0.4768100000000000    0.9405000000000000    0.9789099999999999 H
   0.2771000000000000    0.6569900000000000    0.1885000000000000 H
   0.4429500000000000    0.0990300000000000    0.1157700000000000 H
   0.2665000000000000    0.8267500000000000    0.3182200000000000 H
   0.6175557259639195    0.1916233205758077    0.5338191704006127 H
   0.6125185305545842    0.1306808883732503    0.6465559530855766 H
   0.6762979775043370    0.3815021578733458    0.2641779080133283 H
   0.6059048779318585    0.4909746128812503    0.3461179771332071 H
   0.5984226904911086    1.0876754591879521    0.8413332429334062 H
   0.6673867853024937    0.1235973826309582    0.8340665502701610 H
   0.9649700000000000    0.1027500000000000    0.1343200000000000 H
   0.9757700000000000    0.5603500000000000    0.0230900000000000 H
   0.7777300000000000    0.8443700000000000    0.8136300000000000 H
   0.9405000000000000    0.4019000000000000    0.8865800000000000 H
   0.7653000000000000    0.6747200000000000    0.6839300000000000 H
   0.7244394847063450    0.5792070599922016    0.8973295954058897 H
   0.1075400000000000    0.3959300000000000    0.2232300000000000 C
   0.0666000000000000    0.5071900000000000    0.3946100000000000 C
   0.1120800000000000    0.3140100000000000    0.4929500000000000 C
   0.1038800000000000    0.4008000000000000    0.3376400000000000 C
   0.0754100000000000    0.0900700000000000    0.5522100000000000 C
   0.1778900000000000    0.2483100000000000    0.6699700000000000 C
   0.0917700000000000    0.0009800000000000    0.6289100000000000 C
   0.1884200000000000    0.1531900000000000    0.7422200000000000 C
   0.1227300000000000    0.2171100000000000    0.5717700000000000 C
   0.3923600000000000    0.6042800000000000    0.7234200000000000 C
   0.4315700000000000    0.4934600000000000    0.8948400000000000 C
   0.3875300000000000    0.6868900000000000    0.9930200000000000 C
   0.3952600000000000    0.5999700000000000    0.8378100000000001 C
   0.4260900000000000    0.9106000000000000    0.0523300000000000 C
   0.3227100000000000    0.7527199999999999    0.1700400000000000 C
   0.4107100000000000    0.9997200000000001    0.1290700000000000 C
   0.3132500000000000    0.8478400000000000    0.2423600000000000 C
   0.3777700000000000    0.7837700000000000    0.0718400000000000 C
   0.8926200000000000    0.8958900000000000    0.2789700000000000 C
   0.9338100000000000    0.0073900000000000    0.1077300000000000 C
   0.8883400000000000    0.8142200000000001    0.0091700000000000 C
   0.8964000000000000    0.9008600000000000    0.1645600000000000 C
   0.9250400000000000    0.5904600000000000    0.9497100000000001 C
   0.8227100000000001    0.7485800000000000    0.8320800000000000 C
   0.9087100000000000    0.5014000000000000    0.8729400000000000 C
   0.8121800000000000    0.6534799999999999    0.7597400000000000 C
   0.8777600000000000    0.7174000000000000    0.9302600000000000 C
   0.0646200000000000    0.4719200000000000    0.5202900000000000 S
   0.4337100000000000    0.5288200000000000    0.0204700000000000 S
   0.9359700000000000    0.9722700000000000    0.9820200000000000 S
   0.1304400000000000    0.2928500000000000    0.3946800000000000 N
   0.1494700000000000    0.0299200000000000    0.7229500000000000 N
   0.3695300000000000    0.7081000000000000    0.8947300000000000 N
   0.3531000000000000    0.9709500000000000    0.2231100000000000 N
   0.8698500000000000    0.7929000000000000    0.1074000000000000 N
   0.8510600000000000    0.5302900000000000    0.7789199999999999 N
   0.1395600000000000    0.2897600000000000    0.1820900000000000 O
   0.0746900000000000    0.4998300000000000    0.1779900000000000 O
   0.3634200000000000    0.7104000000000000    0.6814800000000000 O
   0.4229600000000000    0.4994600000000000    0.6790400000000000 O
   0.6308900000000000    0.2073800000000000    0.6061600000000000 O
   0.6475200000000000    0.4703800000000000    0.2782200000000000 O
   0.5775400000000001    0.9998300000000000    0.8225400000000000 O
   0.6368900000000000    0.2109200000000000    0.8185400000000000 O
   0.8604200000000000    0.7896700000000000    0.3200600000000000 O
   0.9255200000000000    0.9998700000000000    0.3242500000000000 O
