H7 O4
1.0
   7.5799983329020311    0.0000000000000000   -0.0050272460088906
  -0.0187342310598726   10.5224830086756640   -0.0025711317619902
   0.0000000000000000    0.0000000000000000   13.2599999999999998
H O
7 4
direct
   0.6762979775043370    0.3815021578733458    0.2641779080133283 H
   0.6059048779318585    0.4909746128812503    0.3461179771332071 H
   0.5984226904911086    1.0876754591879521    0.8413332429334062 H
   0.6673867853024937    0.1235973826309582    0.8340665502701610 H
   0.6175557259639195    0.1916233205758077    0.5338191704006127 H
   0.6125185305545842    0.1306808883732503    0.6465559530855766 H
   0.7244394847063450    0.5792070599922016    0.8973295954058897 H
   0.6475200000000000    0.4703800000000000    0.2782200000000000 O
   0.5775400000000001    0.9998300000000000    0.8225400000000000 O
   0.6368900000000000    0.2109200000000000    0.8185400000000000 O
   0.6308900000000000    0.2073800000000000    0.6061600000000000 O
