H14 C28 O8
1.0
  35.2287234774498899    0.0000000000000000   -4.1982765689471622
  -4.6218217796359333   34.8882069698464505   -4.1597622367679703
   0.0000000000000000    0.0000000000000000   35.4260000000000019
H C O
14 28 8
direct
   0.9097900000000000    0.1053950000000000    0.7387400000000000 H
   0.9093850000000000    0.0900000000000000    0.8052349999999999 H
   0.9747200000000000    0.2154750000000000    0.7826750000000000 H
   0.9718850000000000    0.2005950000000000    0.8491000000000000 H
   0.9466150000000000    0.1123200000000000    0.6932750000000000 H
   0.9467050000000000    0.0710350000000000    0.6524449999999999 H
   0.9107900000000000    0.2392550000000000    0.6045900000000000 H
   0.9102049999999999    0.3057600000000000    0.5893200000000000 H
   0.9750150000000000    0.2830000000000000    0.7152050000000000 H
   0.9720350000000000    0.3494300000000000    0.7004049999999999 H
   0.9474300000000000    0.1936550000000000    0.6119650000000000 H
   0.9466749999999999    0.1526700000000000    0.5706150000000000 H
   0.9397650000000000    0.2306450000000000    0.7300949999999999 H
   0.9365250000000001    0.0323750000000000    0.5321000000000000 H
   0.9406150000000000    0.1443150000000000    0.8312900000000000 C
   0.9241900000000001    0.1261350000000000    0.7627500000000000 C
   0.9234899999999999    0.1174700000000000    0.7999400000000000 C
   0.9425200000000000    0.1615300000000000    0.7556900000000000 C
   0.9596500000000000    0.1881900000000000    0.7874050000000000 C
   0.9585399999999999    0.1798800000000000    0.8246700000000000 C
   0.9400250000000000    0.1351000000000000    0.8711700000000000 C
   0.9409650000000001    0.0082750000000000    0.6027000000000000 C
   0.9438100000000000    0.1704450000000000    0.7160550000000000 C
   0.9454250000000000    0.1412300000000000    0.6861800000000000 C
   0.9419750000000000    0.0484400000000000    0.5935600000000000 C
   0.9451450000000000    0.0785850000000000    0.6234950000000000 C
   0.9410149999999999    0.3317050000000000    0.6439250000000000 C
   0.9250000000000000    0.2632250000000000    0.6254750000000000 C
   0.9241800000000000    0.3004150000000000    0.6168800000000000 C
   0.9431000000000000    0.2561200000000000    0.6610000000000000 C
   0.9600700000000000    0.2877700000000000    0.6878250000000000 C
   0.9588650000000001    0.3250350000000000    0.6795750000000000 C
   0.9401200000000001    0.3715750000000000    0.6348450000000000 C
   0.9410900000000000    0.1028500000000000    0.5079200000000000 C
   0.9441900000000000    0.2164900000000000    0.6699850000000001 C
   0.9458599999999999    0.1865700000000000    0.6408350000000000 C
   0.9419999999999999    0.0937950000000000    0.5481150000000000 C
   0.9451550000000000    0.1237550000000000    0.5782000000000000 C
   0.9429900000000000    0.2080200000000000    0.7075400000000001 C
   0.9460450000000000    0.1485100000000000    0.6481399999999999 C
   0.9458500000000001    0.1168400000000000    0.6165150000000000 C
   0.9396300000000000    0.0557750000000000    0.5555050000000000 C
   0.9298100000000000    0.0751800000000000    0.4809650000000000 O
   0.9516150000000000    0.1625700000000000    0.8984150000000000 O
   0.9515300000000000    0.0042150000000000    0.6376400000000000 O
   0.9281850000000000    0.1004500000000000    0.8751800000000001 O
   0.9517100000000001    0.3987600000000000    0.6623749999999999 O
   0.9517100000000001    0.1377300000000000    0.5038350000000000 O
   0.9279999999999999    0.3756200000000000    0.6002300000000000 O
   0.9297350000000000    0.9813300000000000    0.5750150000000001 O
