H10 O7
1.0
  11.3465402122414325    0.0000000000000000    4.4555723775950637
  -0.0023572543632022   36.9839241274528590    0.0748770870319780
   0.0000000000000000    0.0000000000000000   14.1170000000000009
H O
10 7
direct
   0.1905566130862230    0.9713398347732535    0.3496373658803031 H
   0.3205489367189702    0.9310968056411904    0.6049044322481130 H
   0.1980462884768565    0.9383623254897844    0.5675160324017106 H
   0.1503108007873661    0.9515885623024485    0.4746326748868351 H
   0.5545551694114305    0.9402732259715531    0.6758569135070023 H
   0.4401658031241754    0.8897305978076729    0.7830010797463181 H
   0.4966771564639881    0.8478804978074119    0.7409417275252220 H
   0.6803567802177233    0.8563480070194809    0.9254278116102469 H
   0.6471036404288706    0.9157323913059384    0.7592325850477416 H
   0.7043904006126743    0.8891109698979351    0.8255204807531323 H
   0.2735800000000000    0.9784599999999999    0.3213300000000000 O
   0.3988700000000000    0.9319200000000000    0.5512400000000000 O
   0.2152900000000000    0.9474433333333333    0.4984100000000000 O
   0.5365400000000000    0.9658133333333333    0.6872800000000000 O
   0.4489100000000000    0.9156000000000000    0.7712300000000000 O
   0.6064000000000001    0.8429099999999999    0.9431500000000000 O
   0.6354700000000000    0.8969933333333333    0.8110400000000000 O
