H5 C14 N2 O8
1.0
  11.3465402122414325    0.0000000000000000    4.4555723775950637
  -0.0023572543632022   36.9839241274528590    0.0748770870319780
   0.0000000000000000    0.0000000000000000   14.1170000000000009
H C N O
5 14 2 8
direct
   0.3522700000000000    0.9236233333333332    0.7342700000000000 H
   0.7688500000000000    0.9562866666666666    0.6222100000000000 H
   0.9166100000000000    0.8861300000000000    0.7932800000000000 H
   0.9411200000000000    0.9502833333333333    0.4956100000000000 H
   0.0661800000000000    0.9167033333333333    0.7348700000000000 H
   0.5391899999999999    0.9362666666666666    0.7305199999999999 C
   0.7045100000000000    0.8607366666666666    0.9196400000000000 C
   0.1633900000000000    0.9690099999999999    0.3589000000000000 C
   0.2989700000000000    0.9308700000000000    0.6196900000000000 C
   0.6515100000000000    0.9228299999999999    0.7396100000000000 C
   0.7624400000000000    0.9358700000000000    0.6794800000000000 C
   0.8627600000000000    0.9218999999999999    0.6935500000000000 C
   0.8445100000000000    0.8975700000000000    0.7744700000000000 C
   0.7302800000000000    0.8861500000000000    0.8309600000000000 C
   0.1262000000000000    0.9531266666666667    0.4658100000000000 C
   0.0093500000000000    0.9455366666666666    0.5271400000000001 C
   0.0000000000000000    0.9319733333333333    0.6260500000000000 C
   0.0782600000000000    0.9270566666666666    0.6595400000000000 C
   0.1916300000000000    0.9349833333333333    0.5932300000000000 C
   0.6354700000000000    0.8969933333333333    0.8110400000000000 N
   0.2152900000000000    0.9474433333333333    0.4984100000000000 N
   0.4489100000000000    0.9156000000000000    0.7712300000000000 O
   0.5365400000000000    0.9658133333333333    0.6872800000000000 O
   0.6064000000000001    0.8429099999999999    0.9431500000000000 O
   0.7725800000000000    0.8581466666666666    0.9670299999999999 O
   0.2735800000000000    0.9784599999999999    0.3213300000000000 O
   0.0895600000000000    0.9718933333333333    0.3178400000000000 O
   0.3988700000000000    0.9319200000000000    0.5512400000000000 O
   0.2766400000000000    0.9272966666666667    0.7168099999999999 O
