H5 C8 N1 O4
1.0
  23.6737386560723486    0.0000000000000000   -1.4151869289906218
   0.6051736916883190   14.3852627578073644    0.0196008093904284
   0.0000000000000000    0.0000000000000000   17.4619999999999997
H C N O
5 8 1 4
direct
   0.0171400000000000    0.0957300000000000    0.7143600000000000 H
   0.0200100000000000    0.9821800000000001    0.9440000000000000 H
   0.0043700000000000    0.8008900000000000    0.7503300000000001 H
   0.0183900000000000    0.1462800000000000    0.9209800000000000 H
   0.0173100000000000    0.1945100000000000    0.8323500000000000 H
   0.0081400000000000    0.9287400000000000    0.6390000000000000 C
   0.0107300000000000    0.9466900000000000    0.7235000000000000 C
   0.0111800000000000    0.8838200000000001    0.8523200000000000 C
   0.0199600000000000    0.0508000000000000    0.8335200000000000 C
   0.0075300000000000    0.8015300000000000    0.9042700000000000 C
   0.0160600000000000    0.0366000000000000    0.7533200000000000 C
   0.0172100000000000    0.9729800000000000    0.8820000000000000 C
   0.0084000000000000    0.8705000000000001    0.7729000000000000 C
   0.0286500000000000    0.1374700000000000    0.8651600000000000 N
   1.0075200000000000   -0.0045400000000000    0.5904700000000001 O
   0.0075100000000000    0.8439200000000000    0.6168400000000001 O
   0.0048800000000000    0.7209400000000000    0.8728300000000000 O
   0.0072700000000000    0.8123700000000000    0.9764900000000000 O
