H8 C10 N2
1.0
  23.6737386560723486    0.0000000000000000   -1.4151869289906218
   0.6051736916883190   14.3852627578073644    0.0196008093904284
   0.0000000000000000    0.0000000000000000   17.4619999999999997
H C N
8 10 2
direct
   0.9039300000000000    0.4550000000000000    0.1150000000000000 H
   0.7928100000000000    0.2821600000000000    0.9210000000000000 H
   0.8979800000000000    0.2890100000000000    0.9219900000000000 H
   0.7987700000000000    0.4577600000000000    0.1218900000000000 H
   0.6132600000000000    0.3701200000000000    0.1376300000000000 H
   0.7104400000000000    0.3693800000000000    0.8969900000000000 H
   0.6055300000000000    0.3655600000000000    0.9005000000000000 H
   0.7189000000000000    0.3713000000000000    0.1450900000000000 H
   0.8772700000000000    0.4180400000000000    0.0732400000000000 C
   0.8154300000000000    0.3229400000000000    0.9644200000000001 C
   0.8739600000000000    0.3257000000000000    0.9648500000000000 C
   0.7864000000000000    0.3705800000000000    0.0212100000000000 C
   0.8188299999999999    0.4184700000000000    0.0768900000000000 C
   0.6368400000000000    0.3705400000000000    0.0858000000000000 C
   0.6909600000000000    0.3688000000000000    0.9519300000000001 C
   0.6324900000000000    0.3678700000000000    0.9532100000000000 C
   0.7240799999999999    0.3704800000000000    0.0211900000000000 C
   0.6955700000000000    0.3716100000000000    0.0894100000000000 C
   0.9045000000000000    0.3730600000000000    0.0179200000000000 N
   0.6056100000000000    0.3688400000000000    0.0189500000000000 N
