H8 C10 N2
1.0
  23.2849999432558690    0.0000000000000000    0.0016255996639894
   0.0057133820942591   13.8978221009786704   -1.4761721467409747
   0.0000000000000000    0.0000000000000000   31.5640000000000001
H C N
8 10 2
direct
   0.6375999999999999    0.5571700000000001    0.0000000000000000 H
   0.6405000000000000    0.7340200000000000    0.0064350000000000 H
   0.4739000000000000    0.0561400000000000    0.0306600000000000 H
   0.4706900000000000    0.8780400000000000    0.0358650000000000 H
   0.4552800000000000    0.7282400000000000    0.9951700000000000 H
   0.4597800000000000    0.5517500000000000    0.9975700000000001 H
   0.6227400000000000    0.8520900000000000    0.9567600000000001 H
   0.6178200000000000    0.0307500000000000    0.9537650000000000 H
   0.5982000000000000    0.5974900000000000    0.0056700000000000 C
   0.5995800000000000    0.6962400000000000    0.0038450000000000 C
   0.5053600000000000    0.0073300000000000    0.0145700000000000 C
   0.5042100000000000    0.9089500000000000    0.0174300000000000 C
   0.5479100000000000    0.7458200000000000    0.9998450000000000 C
   0.4966200000000000    0.6932900000000000    0.9982000000000000 C
   0.4988700000000000    0.5944800000000000    0.9993600000000000 C
   0.5472500000000000    0.8505100000000000    0.9971749999999999 C
   0.5892400000000000    0.8946900000000000    0.9739249999999999 C
   0.5868400000000000    0.9933999999999999    0.9720000000000000 C
   0.5487600000000000    0.5469300000000000    0.0030100000000000 N
   0.5459400000000000    0.0493100000000000    0.9922500000000001 N
