Ca32 Cd32 H258 C504 O319
1.0
  25.5489879138537326    0.0000000000000000   12.8889360529779911
  12.7422892236335805   28.2914872050848842    6.4307978560820569
   0.0000000000000000    0.0000000000000000   31.6900000000000013
Ca Cd H C O
32 32 258 504 319
direct
   0.4826800000000000    0.4998000000000000    0.7847299999999999 Ca
   0.9826800000000000    0.4998000000000000    0.7847299999999999 Ca
   0.4826800000000000    0.4998000000000000    0.2847300000000000 Ca
   0.9826800000000000    0.4998000000000000    0.2847300000000000 Ca
   0.0175500000000000    0.7148950000000001    0.9997250000000000 Ca
   0.5175500000000000    0.7148950000000001    0.9997250000000000 Ca
   0.2675500000000000    0.9997700000000000    0.7148250000000000 Ca
   0.7675500000000000    0.9997700000000000    0.7148250000000000 Ca
   0.5175500000000000    0.2148950000000000    0.9997250000000000 Ca
   0.0175500000000000    0.2148950000000000    0.9997250000000000 Ca
   0.2675500000000000    0.4997700000000000    0.7148250000000000 Ca
   0.7675500000000000    0.4997700000000000    0.7148250000000000 Ca
   0.2326900000000000    0.7847850000000001    0.9997500000000000 Ca
   0.7326900000000001    0.7847850000000001    0.9997500000000000 Ca
   0.2326900000000000    0.2847850000000000    0.9997500000000000 Ca
   0.7326900000000001    0.2847850000000000    0.9997500000000000 Ca
   0.4826800000000000    0.9998000000000000    0.7847299999999999 Ca
   0.9826800000000000    0.9998000000000000    0.7847299999999999 Ca
   0.9826800000000000    0.9998000000000000    0.2847300000000000 Ca
   0.4826800000000000    0.9998000000000000    0.2847300000000000 Ca
   0.0175500000000000    0.2148950000000000    0.4997250000000000 Ca
   0.5175500000000000    0.2148950000000000    0.4997250000000000 Ca
   0.2675500000000000    0.4997700000000000    0.2148250000000000 Ca
   0.7675500000000000    0.4997700000000000    0.2148250000000000 Ca
   0.2326900000000000    0.7847850000000001    0.4997500000000000 Ca
   0.7326900000000001    0.7847850000000001    0.4997500000000000 Ca
   0.5175500000000000    0.7148950000000001    0.4997250000000000 Ca
   0.0175500000000000    0.7148950000000001    0.4997250000000000 Ca
   0.2675500000000000    0.9997700000000000    0.2148250000000000 Ca
   0.7675500000000000    0.9997700000000000    0.2148250000000000 Ca
   0.7326900000000001    0.2847850000000000    0.4997500000000000 Ca
   0.2326900000000000    0.2847850000000000    0.4997500000000000 Ca
   0.1314650000000000    0.2499650000000000    0.9867250000000001 Cd
   0.1183000000000000    0.0133900000000000    0.2499700000000000 Cd
   0.6183000000000000    0.0133900000000000    0.2499700000000000 Cd
   0.1183000000000000    0.5133900000000000    0.2499700000000000 Cd
   0.1183000000000000    0.5133900000000000    0.7499700000000000 Cd
   0.1183000000000000    0.0133900000000000    0.7499700000000000 Cd
   0.6183000000000000    0.5133900000000000    0.2499700000000000 Cd
   0.6183000000000000    0.5133900000000000    0.7499700000000000 Cd
   0.6183000000000000    0.0133900000000000    0.7499700000000000 Cd
   0.8814949999999999    0.9867750000000000    0.7498850000000000 Cd
   0.8814949999999999    0.4867750000000000    0.2498850000000000 Cd
   0.3814950000000000    0.4867750000000000    0.7498850000000000 Cd
   0.3814950000000000    0.9867750000000000    0.2498850000000000 Cd
   0.8814949999999999    0.9867750000000000    0.2498850000000000 Cd
   0.8814949999999999    0.4867750000000000    0.7498850000000000 Cd
   0.3814950000000000    0.4867750000000000    0.2498850000000000 Cd
   0.3814950000000000    0.9867750000000000    0.7498850000000000 Cd
   0.3682900000000000    0.2500350000000000    0.0133600000000000 Cd
   0.3682900000000000    0.7500350000000000    0.0133600000000000 Cd
   0.8682900000000000    0.7500350000000000    0.0133600000000000 Cd
   0.3682900000000000    0.7500350000000000    0.5133600000000000 Cd
   0.8682900000000000    0.2500350000000000    0.5133600000000000 Cd
   0.8682900000000000    0.7500350000000000    0.5133600000000000 Cd
   0.8682900000000000    0.2500350000000000    0.0133600000000000 Cd
   0.3682900000000000    0.2500350000000000    0.5133600000000000 Cd
   0.6314649999999999    0.2499650000000000    0.9867250000000001 Cd
   0.1314650000000000    0.7499650000000000    0.9867250000000001 Cd
   0.1314650000000000    0.2499650000000000    0.4867250000000000 Cd
   0.6314649999999999    0.2499650000000000    0.4867250000000000 Cd
   0.1314650000000000    0.7499650000000000    0.4867250000000000 Cd
   0.6314649999999999    0.7499650000000000    0.4867250000000000 Cd
   0.6314649999999999    0.7499650000000000    0.9867250000000001 Cd
   0.7302299999999999    0.6034600000000000    0.7004350000000000 H
   0.8083500000000000    0.6714249999999999    0.6312200000000000 H
   0.7532550000000000    0.7018800000000001    0.5860750000000000 H
   0.6363150000000000    0.6395350000000000    0.6130700000000000 H
   0.4802600000000000    0.7004750000000000    0.6034100000000000 H
   0.5583750000000000    0.6312550000000000    0.6713850000000000 H
   0.5000000000000000    0.5861149999999999    0.7018400000000000 H
   0.3863150000000000    0.6131300000000000    0.6395000000000000 H
   0.2302300000000000    0.6034600000000000    0.7004350000000000 H
   0.3083500000000000    0.6714249999999999    0.6312200000000000 H
   0.2532550000000000    0.7018800000000001    0.5860750000000000 H
   0.1363150000000000    0.6395350000000000    0.6130700000000000 H
   0.9802600000000000    0.7004750000000000    0.6034100000000000 H
   0.0583750000000000    0.6312550000000000    0.6713850000000000 H
   0.0000000000000000    0.5861149999999999    0.7018400000000000 H
   0.8863150000000000    0.6131300000000000    0.6395000000000000 H
   0.7302299999999999    0.6034600000000000    0.2004350000000000 H
   0.8083500000000000    0.6714249999999999    0.1312200000000000 H
   0.7532550000000000    0.7018800000000001    0.0860750000000000 H
   0.6363150000000000    0.6395350000000000    0.1130700000000000 H
   0.4802600000000000    0.7004750000000000    0.1034100000000000 H
   0.5583750000000000    0.6312550000000000    0.1713850000000000 H
   0.5000000000000000    0.5861149999999999    0.2018400000000000 H
   0.3863150000000000    0.6131300000000000    0.1395000000000000 H
   0.2302300000000000    0.6034600000000000    0.2004350000000000 H
   0.3083500000000000    0.6714249999999999    0.1312200000000000 H
   0.2532550000000000    0.7018800000000001    0.0860750000000000 H
   0.1363150000000000    0.6395350000000000    0.1130700000000000 H
   0.9802600000000000    0.7004750000000000    0.1034100000000000 H
   0.0583750000000000    0.6312550000000000    0.1713850000000000 H
   0.0000000000000000    0.5861149999999999    0.2018400000000000 H
   0.8863150000000000    0.6131300000000000    0.1395000000000000 H
   0.3196950000000000    0.8960650000000000    0.2006750000000000 H
   0.3105600000000000    0.8278650000000001    0.1317500000000000 H
   0.4106350000000000    0.7975800000000000    0.0864000000000000 H
   0.5000000000000000    0.8608050000000000    0.1125000000000000 H
   0.6664350000000000    0.7994950000000001    0.1032000000000000 H
   0.5204350000000000    0.8689050000000000    0.1708300000000000 H
   0.5450400000000000    0.9140500000000000    0.2013250000000000 H
   0.7242800000000000    0.8866350000000001    0.1397250000000000 H
   0.8196950000000001    0.8960650000000000    0.2006750000000000 H
   0.8105599999999999    0.8278650000000001    0.1317500000000000 H
   0.9106350000000000    0.7975800000000000    0.0864000000000000 H
   0.0000000000000000    0.8608050000000000    0.1125000000000000 H
   0.1664350000000000    0.7994950000000001    0.1032000000000000 H
   0.0204350000000000    0.8689050000000000    0.1708300000000000 H
   0.0450400000000000    0.9140500000000000    0.2013250000000000 H
   0.2242800000000000    0.8866350000000001    0.1397250000000000 H
   0.9802600000000000    0.2004750000000000    0.6034100000000000 H
   0.2204191163429709    0.0398915875112823    0.7081263474347831 H
   0.0803871940276058    0.1098476279848935    0.6782138535358119 H
   0.0583750000000000    0.1312550000000000    0.6713850000000000 H
   0.1495987281569749    0.0772790010989433    0.6913496815953954 H
   0.0000000000000000    0.0861150000000000    0.7018400000000000 H
   0.8863150000000000    0.1131300000000000    0.6395000000000000 H
   0.7302299999999999    0.1034600000000000    0.7004350000000000 H
   0.8083500000000000    0.1714250000000000    0.6312200000000000 H
   0.7532550000000000    0.2018800000000000    0.5860750000000000 H
   0.6363150000000000    0.1395350000000000    0.6130700000000000 H
   0.4802600000000000    0.2004750000000000    0.6034100000000000 H
   0.5583750000000000    0.1312550000000000    0.6713850000000000 H
   0.5000000000000000    0.0861150000000000    0.7018400000000000 H
   0.3863150000000000    0.1131300000000000    0.6395000000000000 H
   0.2837850000000000    0.7992950000000000    0.8965000000000001 H
   0.3607500000000000    0.8685499999999999    0.8287599999999999 H
   0.2911700000000000    0.9137450000000000    0.7982800000000000 H
   0.1387650000000000    0.8870600000000000    0.8604550000000000 H
   0.0337950000000000    0.8965300000000000    0.7992550000000000 H
   0.1107250000000000    0.8288150000000001    0.8685350000000001 H
   0.0411250000000000    0.7983600000000000    0.9137500000000001 H
   0.8887499999999999    0.8605100000000000    0.8870100000000001 H
   0.7837850000000000    0.7992950000000000    0.8965000000000001 H
   0.8607500000000000    0.8685499999999999    0.8287599999999999 H
   0.7911699999999999    0.9137450000000000    0.7982800000000000 H
   0.6387650000000000    0.8870600000000000    0.8604550000000000 H
   0.5337950000000000    0.8965300000000000    0.7992550000000000 H
   0.6107250000000000    0.8288150000000001    0.8685350000000001 H
   0.5411250000000000    0.7983600000000000    0.9137500000000001 H
   0.3887500000000000    0.8605100000000000    0.8870100000000001 H
   0.9164500000000000    0.6032450000000000    0.7994600000000001 H
   0.7704550000000000    0.6708499999999999    0.8688800000000000 H
   0.7950600000000000    0.7013650000000000    0.9140100000000000 H
   0.9742999999999999    0.6397600000000000    0.8865000000000001 H
   0.5696950000000000    0.7007150000000000    0.8960250000000001 H
   0.5605599999999999    0.6317850000000000    0.8278300000000001 H
   0.6606300000000001    0.5864300000000000    0.7975550000000000 H
   0.7504050000000000    0.6125450000000000    0.8607700000000000 H
   0.4164500000000000    0.6032450000000000    0.7994600000000001 H
   0.2704550000000000    0.6708499999999999    0.8688800000000000 H
   0.2950600000000000    0.7013650000000000    0.9140100000000000 H
   0.4743000000000000    0.6397600000000000    0.8865000000000001 H
   0.0696950000000000    0.7007150000000000    0.8960250000000001 H
   0.0605600000000000    0.6317850000000000    0.8278300000000001 H
   0.1606300000000000    0.5864300000000000    0.7975550000000000 H
   0.2504050000000000    0.6125450000000000    0.8607700000000000 H
   0.3196950000000000    0.3960650000000000    0.2006750000000000 H
   0.3105600000000000    0.3278650000000000    0.1317500000000000 H
   0.4106350000000000    0.2975800000000000    0.0864000000000000 H
   0.5000000000000000    0.3608050000000000    0.1125000000000000 H
   0.6664350000000000    0.2994950000000000    0.1032000000000000 H
   0.5204350000000000    0.3689050000000000    0.1708300000000000 H
   0.5450400000000000    0.4140500000000000    0.2013250000000000 H
   0.7242800000000000    0.3866350000000000    0.1397250000000000 H
   0.8196950000000001    0.3960650000000000    0.2006750000000000 H
   0.8105599999999999    0.3278650000000000    0.1317500000000000 H
   0.9106350000000000    0.2975800000000000    0.0864000000000000 H
   0.0000000000000000    0.3608050000000000    0.1125000000000000 H
   0.1664350000000000    0.2994950000000000    0.1032000000000000 H
   0.0204350000000000    0.3689050000000000    0.1708300000000000 H
   0.0450400000000000    0.4140500000000000    0.2013250000000000 H
   0.2242800000000000    0.3866350000000000    0.1397250000000000 H
   0.0337950000000000    0.3965300000000000    0.7992550000000000 H
   0.1107250000000000    0.3288150000000000    0.8685350000000001 H
   0.0411250000000000    0.2983600000000000    0.9137500000000001 H
   0.8887499999999999    0.3605100000000000    0.8870100000000001 H
   0.2837850000000000    0.2992950000000000    0.8965000000000001 H
   0.3607500000000000    0.3685500000000000    0.8287599999999999 H
   0.2911700000000000    0.4137450000000000    0.7982800000000000 H
   0.1387650000000000    0.3870600000000000    0.8604550000000000 H
   0.1802303427077511    0.2580189006116740    0.9132245378945880 H
   0.7837850000000000    0.2992950000000000    0.8965000000000001 H
   0.8607500000000000    0.3685500000000000    0.8287599999999999 H
   0.7911699999999999    0.4137450000000000    0.7982800000000000 H
   0.6387650000000000    0.3870600000000000    0.8604550000000000 H
   0.5337950000000000    0.3965300000000000    0.7992550000000000 H
   0.6107250000000000    0.3288150000000000    0.8685350000000001 H
   0.5411250000000000    0.2983600000000000    0.9137500000000001 H
   0.3887500000000000    0.3605100000000000    0.8870100000000001 H
   0.4164500000000000    0.1032450000000000    0.7994600000000001 H
   0.2704550000000000    0.1708500000000000    0.8688800000000000 H
   0.2950600000000000    0.2013650000000000    0.9140100000000000 H
   0.4743000000000000    0.1397600000000000    0.8865000000000001 H
   0.0696950000000000    0.2007150000000000    0.8960250000000001 H
   0.0605600000000000    0.1317850000000000    0.8278300000000001 H
   0.1606300000000000    0.0864300000000000    0.7975550000000000 H
   0.2504050000000000    0.1125450000000000    0.8607700000000000 H
   0.9164500000000000    0.1032450000000000    0.7994600000000001 H
   0.7704550000000000    0.1708500000000000    0.8688800000000000 H
   0.7950600000000000    0.2013650000000000    0.9140100000000000 H
   0.9742999999999999    0.1397600000000000    0.8865000000000001 H
   0.5696950000000000    0.2007150000000000    0.8960250000000001 H
   0.5605599999999999    0.1317850000000000    0.8278300000000001 H
   0.6606300000000001    0.0864300000000000    0.7975550000000000 H
   0.7504050000000000    0.1125450000000000    0.8607700000000000 H
   0.7302299999999999    0.1034600000000000    0.2004350000000000 H
   0.8083500000000000    0.1714250000000000    0.1312200000000000 H
   0.7532550000000000    0.2018800000000000    0.0860750000000000 H
   0.6363150000000000    0.1395350000000000    0.1130700000000000 H
   0.4802600000000000    0.2004750000000000    0.1034100000000000 H
   0.5583750000000000    0.1312550000000000    0.1713850000000000 H
   0.5000000000000000    0.0861150000000000    0.2018400000000000 H
   0.3863150000000000    0.1131300000000000    0.1395000000000000 H
   0.2302300000000000    0.1034600000000000    0.2004350000000000 H
   0.3083500000000000    0.1714250000000000    0.1312200000000000 H
   0.2532550000000000    0.2018800000000000    0.0860750000000000 H
   0.1363150000000000    0.1395350000000000    0.1130700000000000 H
   0.9802600000000000    0.2004750000000000    0.1034100000000000 H
   0.0583750000000000    0.1312550000000000    0.1713850000000000 H
   0.0000000000000000    0.0861150000000000    0.2018400000000000 H
   0.8863150000000000    0.1131300000000000    0.1395000000000000 H
   0.9164500000000000    0.6032450000000000    0.2994600000000000 H
   0.7704550000000000    0.6708499999999999    0.3688800000000000 H
   0.7950600000000000    0.7013650000000000    0.4140100000000000 H
   0.9742999999999999    0.6397600000000000    0.3865000000000000 H
   0.5696950000000000    0.7007150000000000    0.3960250000000000 H
   0.5605599999999999    0.6317850000000000    0.3278300000000000 H
   0.6606300000000001    0.5864300000000000    0.2975550000000000 H
   0.7504050000000000    0.6125450000000000    0.3607700000000000 H
   0.4164500000000000    0.6032450000000000    0.2994600000000000 H
   0.2704550000000000    0.6708499999999999    0.3688800000000000 H
   0.2950600000000000    0.7013650000000000    0.4140100000000000 H
   0.4743000000000000    0.6397600000000000    0.3865000000000000 H
   0.0696950000000000    0.7007150000000000    0.3960250000000000 H
   0.0605600000000000    0.6317850000000000    0.3278300000000000 H
   0.1606300000000000    0.5864300000000000    0.2975550000000000 H
   0.2504050000000000    0.6125450000000000    0.3607700000000000 H
   0.1494945302358978    0.1939310768013620    0.5716138188030231 H
   0.1949942067482528    0.2417786805082532    0.5691626751753749 H
   0.3196950000000000    0.3960650000000000    0.7006749999999999 H
   0.3105600000000000    0.3278650000000000    0.6317500000000000 H
   0.4106350000000000    0.2975800000000000    0.5864000000000000 H
   0.5000000000000000    0.3608050000000000    0.6125000000000000 H
   0.6664350000000000    0.2994950000000000    0.6032000000000000 H
   0.5204350000000000    0.3689050000000000    0.6708300000000000 H
   0.5450400000000000    0.4140500000000000    0.7013250000000000 H
   0.7242800000000000    0.3866350000000000    0.6397250000000000 H
   0.8196950000000001    0.3960650000000000    0.7006749999999999 H
   0.8105599999999999    0.3278650000000000    0.6317500000000000 H
   0.9106350000000000    0.2975800000000000    0.5864000000000000 H
   0.0000000000000000    0.3608050000000000    0.6125000000000000 H
   0.1664350000000000    0.2994950000000000    0.6032000000000000 H
   0.0204350000000000    0.3689050000000000    0.6708300000000000 H
   0.0450400000000000    0.4140500000000000    0.7013250000000000 H
   0.2242800000000000    0.3866350000000000    0.6397250000000000 H
   0.7837850000000000    0.2992950000000000    0.3965000000000000 H
   0.8607500000000000    0.3685500000000000    0.3287600000000000 H
   0.7911699999999999    0.4137450000000000    0.2982800000000000 H
   0.6387650000000000    0.3870600000000000    0.3604550000000000 H
   0.5337950000000000    0.3965300000000000    0.2992550000000000 H
   0.6107250000000000    0.3288150000000000    0.3685350000000000 H
   0.5411250000000000    0.2983600000000000    0.4137500000000000 H
   0.3887500000000000    0.3605100000000000    0.3870100000000000 H
   0.2837850000000000    0.2992950000000000    0.3965000000000000 H
   0.3607500000000000    0.3685500000000000    0.3287600000000000 H
   0.2911700000000000    0.4137450000000000    0.2982800000000000 H
   0.1387650000000000    0.3870600000000000    0.3604550000000000 H
   0.0337950000000000    0.3965300000000000    0.2992550000000000 H
   0.1107250000000000    0.3288150000000000    0.3685350000000000 H
   0.0411250000000000    0.2983600000000000    0.4137500000000000 H
   0.8887499999999999    0.3605100000000000    0.3870100000000000 H
   0.4164500000000000    0.1032450000000000    0.2994600000000000 H
   0.2704550000000000    0.1708500000000000    0.3688800000000000 H
   0.2950600000000000    0.2013650000000000    0.4140100000000000 H
   0.4743000000000000    0.1397600000000000    0.3865000000000000 H
   0.0696950000000000    0.2007150000000000    0.3960250000000000 H
   0.0605600000000000    0.1317850000000000    0.3278300000000000 H
   0.1606300000000000    0.0864300000000000    0.2975550000000000 H
   0.2504050000000000    0.1125450000000000    0.3607700000000000 H
   0.9164500000000000    0.1032450000000000    0.2994600000000000 H
   0.7704550000000000    0.1708500000000000    0.3688800000000000 H
   0.7950600000000000    0.2013650000000000    0.4140100000000000 H
   0.9742999999999999    0.1397600000000000    0.3865000000000000 H
   0.5696950000000000    0.2007150000000000    0.3960250000000000 H
   0.5605599999999999    0.1317850000000000    0.3278300000000000 H
   0.6606300000000001    0.0864300000000000    0.2975550000000000 H
   0.7504050000000000    0.1125450000000000    0.3607700000000000 H
   0.3196950000000000    0.8960650000000000    0.7006749999999999 H
   0.3105600000000000    0.8278650000000001    0.6317500000000000 H
   0.4106350000000000    0.7975800000000000    0.5864000000000000 H
   0.5000000000000000    0.8608050000000000    0.6125000000000000 H
   0.6664350000000000    0.7994950000000001    0.6032000000000000 H
   0.5204350000000000    0.8689050000000000    0.6708300000000000 H
   0.5450400000000000    0.9140500000000000    0.7013250000000000 H
   0.7242800000000000    0.8866350000000001    0.6397250000000000 H
   0.8196950000000001    0.8960650000000000    0.7006749999999999 H
   0.8105599999999999    0.8278650000000001    0.6317500000000000 H
   0.9106350000000000    0.7975800000000000    0.5864000000000000 H
   0.0000000000000000    0.8608050000000000    0.6125000000000000 H
   0.1664350000000000    0.7994950000000001    0.6032000000000000 H
   0.0204350000000000    0.8689050000000000    0.6708300000000000 H
   0.0450400000000000    0.9140500000000000    0.7013250000000000 H
   0.2242800000000000    0.8866350000000001    0.6397250000000000 H
   0.2837850000000000    0.7992950000000000    0.3965000000000000 H
   0.3607500000000000    0.8685499999999999    0.3287600000000000 H
   0.2911700000000000    0.9137450000000000    0.2982800000000000 H
   0.1387650000000000    0.8870600000000000    0.3604550000000000 H
   0.0337950000000000    0.8965300000000000    0.2992550000000000 H
   0.1107250000000000    0.8288150000000001    0.3685350000000000 H
   0.0411250000000000    0.7983600000000000    0.4137500000000000 H
   0.8887499999999999    0.8605100000000000    0.3870100000000000 H
   0.7837850000000000    0.7992950000000000    0.3965000000000000 H
   0.8607500000000000    0.8685499999999999    0.3287600000000000 H
   0.7911699999999999    0.9137450000000000    0.2982800000000000 H
   0.6387650000000000    0.8870600000000000    0.3604550000000000 H
   0.5337950000000000    0.8965300000000000    0.2992550000000000 H
   0.6107250000000000    0.8288150000000001    0.3685350000000000 H
   0.5411250000000000    0.7983600000000000    0.4137500000000000 H
   0.3887500000000000    0.8605100000000000    0.3870100000000000 H
   0.6778649999999999    0.7020450000000000    0.5569600000000000 C
   0.6544449999999999    0.5833600000000000    0.6874200000000000 C
   0.7208100000000000    0.6215300000000000    0.6702049999999999 C
   0.7477600000000000    0.6516500000000001    0.6435900000000000 C
   0.7334150000000000    0.6777550000000000    0.6065300000000000 C
   0.6671700000000000    0.6425350000000000    0.6220100000000000 C
   0.6934150000000000    0.6731199999999999    0.5959250000000000 C
   0.6809700000000000    0.6167700000000000    0.6593599999999999 C
   0.4278550000000000    0.5570050000000000    0.7019500000000000 C
   0.4044500000000000    0.6874750000000001    0.5833000000000000 C
   0.4708300000000000    0.6702500000000000    0.6214900000000000 C
   0.4977700000000000    0.6436350000000000    0.6516150000000001 C
   0.4834200000000000    0.6065750000000000    0.6777200000000000 C
   0.4171750000000000    0.6220650000000000    0.6424950000000000 C
   0.4434200000000000    0.5959750000000000    0.6730500000000000 C
   0.4309800000000000    0.6594150000000000    0.6167300000000000 C
   0.1778650000000000    0.7020450000000000    0.5569600000000000 C
   0.1544450000000000    0.5833600000000000    0.6874200000000000 C
   0.2208100000000000    0.6215300000000000    0.6702049999999999 C
   0.2477600000000000    0.6516500000000001    0.6435900000000000 C
   0.2334150000000000    0.6777550000000000    0.6065300000000000 C
   0.1671700000000000    0.6425350000000000    0.6220100000000000 C
   0.1934150000000000    0.6731199999999999    0.5959250000000000 C
   0.1809700000000000    0.6167700000000000    0.6593599999999999 C
   0.9278550000000000    0.5570050000000000    0.7019500000000000 C
   0.9044500000000000    0.6874750000000001    0.5833000000000000 C
   0.9708300000000001    0.6702500000000000    0.6214900000000000 C
   0.9977700000000000    0.6436350000000000    0.6516150000000001 C
   0.9834200000000000    0.6065750000000000    0.6777200000000000 C
   0.9171750000000001    0.6220650000000000    0.6424950000000000 C
   0.9434199999999999    0.5959750000000000    0.6730500000000000 C
   0.9309799999999999    0.6594150000000000    0.6167300000000000 C
   0.6778649999999999    0.7020450000000000    0.0569600000000000 C
   0.6544449999999999    0.5833600000000000    0.1874200000000000 C
   0.7208100000000000    0.6215300000000000    0.1702050000000000 C
   0.7477600000000000    0.6516500000000001    0.1435900000000000 C
   0.7334150000000000    0.6777550000000000    0.1065300000000000 C
   0.6671700000000000    0.6425350000000000    0.1220100000000000 C
   0.6934150000000000    0.6731199999999999    0.0959250000000000 C
   0.6809700000000000    0.6167700000000000    0.1593600000000000 C
   0.4278550000000000    0.5570050000000000    0.2019500000000000 C
   0.4044500000000000    0.6874750000000001    0.0833000000000000 C
   0.4708300000000000    0.6702500000000000    0.1214900000000000 C
   0.4977700000000000    0.6436350000000000    0.1516150000000000 C
   0.4834200000000000    0.6065750000000000    0.1777200000000000 C
   0.4171750000000000    0.6220650000000000    0.1424950000000000 C
   0.4434200000000000    0.5959750000000000    0.1730500000000000 C
   0.4309800000000000    0.6594150000000000    0.1167300000000000 C
   0.1778650000000000    0.7020450000000000    0.0569600000000000 C
   0.1544450000000000    0.5833600000000000    0.1874200000000000 C
   0.2208100000000000    0.6215300000000000    0.1702050000000000 C
   0.2477600000000000    0.6516500000000001    0.1435900000000000 C
   0.2334150000000000    0.6777550000000000    0.1065300000000000 C
   0.1671700000000000    0.6425350000000000    0.1220100000000000 C
   0.1934150000000000    0.6731199999999999    0.0959250000000000 C
   0.1809700000000000    0.6167700000000000    0.1593600000000000 C
   0.9278550000000000    0.5570050000000000    0.2019500000000000 C
   0.9044500000000000    0.6874750000000001    0.0833000000000000 C
   0.9708300000000001    0.6702500000000000    0.1214900000000000 C
   0.9977700000000000    0.6436350000000000    0.1516150000000000 C
   0.9834200000000000    0.6065750000000000    0.1777200000000000 C
   0.9171750000000001    0.6220650000000000    0.1424950000000000 C
   0.9434199999999999    0.5959750000000000    0.1730500000000000 C
   0.9309799999999999    0.6594150000000000    0.1167300000000000 C
   0.5149400000000000    0.7979400000000000    0.0567800000000000 C
   0.4082800000000000    0.9166950000000000    0.1871150000000000 C
   0.3591800000000000    0.8781150000000000    0.1703250000000000 C
   0.3587950000000000    0.8478150000000000    0.1438900000000000 C
   0.4100450000000000    0.8218600000000000    0.1066950000000000 C
   0.4607100000000000    0.8575699999999999    0.1216850000000000 C
   0.4605200000000000    0.8268000000000000    0.0957850000000000 C
   0.4097350000000000    0.8831850000000000    0.1591750000000000 C
   0.6201600000000000    0.9429950000000000    0.2019150000000000 C
   0.7622500000000000    0.8123549999999999    0.0834150000000000 C
   0.6577800000000000    0.8297300000000001    0.1213000000000000 C
   0.6007450000000000    0.8564200000000000    0.1512550000000000 C
   0.5889950000000000    0.8934949999999999    0.1773700000000000 C
   0.6904200000000000    0.8778049999999999    0.1425550000000000 C
   0.6336050000000000    0.9039950000000000    0.1729550000000000 C
   0.7023650000000000    0.8404700000000001    0.1167350000000000 C
   0.0149400000000000    0.7979400000000000    0.0567800000000000 C
   0.9082800000000000    0.9166950000000000    0.1871150000000000 C
   0.8591800000000001    0.8781150000000000    0.1703250000000000 C
   0.8587950000000000    0.8478150000000000    0.1438900000000000 C
   0.9100450000000000    0.8218600000000000    0.1066950000000000 C
   0.9607100000000000    0.8575699999999999    0.1216850000000000 C
   0.9605200000000000    0.8268000000000000    0.0957850000000000 C
   0.9097350000000000    0.8831850000000000    0.1591750000000000 C
   0.1201600000000000    0.9429950000000000    0.2019150000000000 C
   0.2622500000000000    0.8123549999999999    0.0834150000000000 C
   0.1577800000000000    0.8297300000000001    0.1213000000000000 C
   0.1007450000000000    0.8564200000000000    0.1512550000000000 C
   0.0889950000000000    0.8934949999999999    0.1773700000000000 C
   0.1904200000000000    0.8778049999999999    0.1425550000000000 C
   0.1336050000000000    0.9039950000000000    0.1729550000000000 C
   0.2023650000000000    0.8404700000000001    0.1167350000000000 C
   0.9278550000000000    0.0570050000000000    0.7019500000000000 C
   0.9044500000000000    0.1874750000000000    0.5833000000000000 C
   0.9708300000000001    0.1702500000000000    0.6214900000000000 C
   0.9977700000000000    0.1436350000000000    0.6516150000000001 C
   0.9834200000000000    0.1065750000000000    0.6777200000000000 C
   0.9171750000000001    0.1220650000000000    0.6424950000000000 C
   0.9434199999999999    0.0959750000000000    0.6730500000000000 C
   0.9309799999999999    0.1594150000000000    0.6167300000000000 C
   0.6778649999999999    0.2020450000000000    0.5569600000000000 C
   0.6544449999999999    0.0833600000000000    0.6874200000000000 C
   0.7208100000000000    0.1215300000000000    0.6702049999999999 C
   0.7477600000000000    0.1516500000000000    0.6435900000000000 C
   0.7334150000000000    0.1777550000000000    0.6065300000000000 C
   0.6671700000000000    0.1425350000000000    0.6220100000000000 C
   0.6934150000000000    0.1731200000000000    0.5959250000000000 C
   0.6809700000000000    0.1167700000000000    0.6593599999999999 C
   0.4278550000000000    0.0570050000000000    0.7019500000000000 C
   0.4044500000000000    0.1874750000000000    0.5833000000000000 C