H4 C8 O5
1.0
  25.5489879138537326    0.0000000000000000   12.8889360529779911
  12.7422892236335805   28.2914872050848842    6.4307978560820569
   0.0000000000000000    0.0000000000000000   31.6900000000000013
H C O
4 8 5
direct
   0.3083500000000000    0.1714250000000000    0.6312200000000000 H
   0.2302300000000000    0.1034600000000000    0.7004350000000000 H
   0.2532550000000000    0.2018800000000000    0.5860750000000000 H
   0.1363150000000000    0.1395350000000000    0.6130700000000000 H
   0.1544450000000000    0.0833600000000000    0.6874200000000000 C
   0.1778650000000000    0.2020450000000000    0.5569600000000000 C
   0.1809700000000000    0.1167700000000000    0.6593599999999999 C
   0.2208100000000000    0.1215300000000000    0.6702049999999999 C
   0.2477600000000000    0.1516500000000000    0.6435900000000000 C
   0.2334150000000000    0.1777550000000000    0.6065300000000000 C
   0.1934150000000000    0.1731200000000000    0.5959250000000000 C
   0.1671700000000000    0.1425350000000000    0.6220100000000000 C
   0.1832050000000000    0.0485850000000000    0.7083050000000000 O
   0.1068300000000000    0.0872700000000000    0.6915550000000000 O
   0.1505250000000000    0.1921850000000000    0.5409800000000000 O
   0.1927500000000000    0.2368050000000000    0.5410400000000000 O
   0.2860400000000000    0.1542950000000000    0.6556649999999999 O
