H12 O8
1.0
  32.1917482212686963    0.0000000000000000    3.1138899239445808
   2.8507371046334509   32.0969429518582459    3.0993443024974505
   0.0000000000000000    0.0000000000000000   26.8230000000000004
H O
12 8
direct
   0.3741761828938808    0.6565864348562163    0.0761503220182422 H
   0.3863206578162702    0.5332221247958184    0.1106574500586385 H
   0.3825783425600037    0.5932476834848635    0.0978796119361146 H
   0.5339823495063231    0.8022177645506181    0.4567936617415366 H
   0.6584510952569447    0.7907476085274259    0.4329863491177458 H
   0.5972780123979518    0.7941083542815663    0.4408125574649748 H
   0.7801948006795972    0.5359295832369073    0.0878643315335691 H
   0.7652029455373898    0.6604800444605443    0.0602560057319245 H
   0.7692355856694945    0.5988615265333912    0.0767698173625449 H
   0.5294083326613933    0.4108632562584510    0.4840855296679782 H
   0.6517730958543360    0.4024236986305331    0.4442908490945027 H
   0.5909398743313178    0.4104588935257131    0.4609038572971328 H
   0.3696200000000000    0.6282950000000000    0.0704700000000000 O
   0.3769800000000000    0.5584850000000000    0.0909000000000000 O
   0.5616750000000000    0.8072650000000000    0.4644300000000000 O
   0.6321550000000000    0.8004650000000000    0.4504300000000000 O
   0.7883050000000000    0.5626050000000000    0.0724000000000000 O
   0.7796300000000000    0.6330500000000000    0.0569500000000000 O
   0.5572050000000000    0.3967350000000000    0.4851300000000000 O
   0.6267650000000000    0.3922500000000000    0.4622500000000000 O
