H24 C33 O12
1.0
  32.1917482212686963    0.0000000000000000    3.1138899239445808
   2.8507371046334509   32.0969429518582459    3.0993443024974505
   0.0000000000000000    0.0000000000000000   26.8230000000000004
H C O
24 33 12
direct
   0.6463350000000000    0.4487250000000000    0.3956400000000000 H
   0.5200100000000000    0.4629450000000000    0.4607000000000000 H
   0.4573100000000000    0.6823000000000000    0.1792600000000000 H
   0.4032850000000000    0.6694900000000000    0.1230600000000000 H
   0.4325500000000000    0.5378600000000000    0.1502800000000000 H
   0.4860700000000000    0.5496250000000000    0.2061900000000000 H
   0.7190449999999999    0.6646900000000000    0.1125700000000000 H
   0.6517950000000000    0.6639050000000000    0.1652700000000000 H
   0.6600300000000000    0.5298900000000000    0.1673000000000000 H
   0.7282000000000000    0.5316800000000000    0.1151000000000000 H
   0.5806300000000000    0.6501100000000000    0.2004200000000000 H
   0.6221650000000000    0.6422600000000001    0.2410000000000000 H
   0.5371850000000000    0.6747750000000000    0.2786700000000000 H
   0.5308200000000000    0.6391800000000000    0.3336500000000000 H
   0.6553700000000000    0.6886700000000000    0.3409400000000000 H
   0.6596600000000000    0.7470950000000001    0.3946300000000000 H
   0.5263949999999999    0.7661100000000001    0.4108000000000000 H
   0.5210050000000001    0.7087400000000000    0.3573900000000000 H
   0.5420650000000000    0.5706400000000000    0.2246200000000000 H
   0.5097200000000000    0.5802849999999999    0.2811900000000000 H
   0.5987650000000000    0.5497600000000000    0.2796600000000000 H
   0.6171700000000000    0.5871250000000000    0.3153800000000000 H
   0.6351599999999999    0.5154500000000000    0.3424900000000000 H
   0.5080900000000000    0.5305750000000000    0.4086100000000000 H
   0.6161400000000000    0.4668800000000000    0.3982300000000000 C
   0.5839650000000000    0.4515000000000000    0.4313300000000000 C
   0.5450550000000000    0.4749850000000000    0.4350000000000000 C
   0.5900500000000000    0.4104250000000000    0.4617900000000000 C
   0.4381150000000000    0.5695000000000000    0.1566900000000000 C
   0.4683550000000000    0.5762150000000000    0.1881100000000000 C
   0.3848050000000000    0.5956399999999999    0.0955000000000000 C
   0.4757400000000000    0.6171150000000000    0.1953100000000000 C
   0.4517350000000000    0.6507700000000000    0.1723000000000000 C
   0.4218700000000000    0.6435200000000000    0.1411900000000000 C
   0.4148900000000000    0.6027650000000000    0.1322800000000000 C
   0.5892200000000000    0.5762800000000000    0.3021700000000000 C
   0.5706050000000000    0.5271100000000000    0.3721000000000000 C
   0.7685000000000000    0.5983350000000001    0.0776000000000000 C
   0.7280350000000000    0.5982650000000000    0.1100600000000000 C
   0.7060100000000000    0.6351950000000000    0.1246000000000000 C
   0.6682100000000000    0.6347000000000000    0.1545000000000000 C
   0.6518500000000000    0.5965050000000000    0.1700900000000000 C
   0.6732850000000000    0.5592800000000000    0.1551800000000000 C
   0.7109950000000000    0.5603950000000000    0.1260200000000000 C
   0.5974450000000000    0.6272650000000000    0.2261400000000000 C
   0.5668150000000000    0.6119050000000000    0.2699500000000000 C
   0.5526500000000000    0.6488400000000000    0.3015000000000000 C
   0.5883100000000000    0.6949550000000000    0.3461100000000000 C
   0.6273150000000001    0.7062150000000000    0.3562900000000000 C
   0.6295850000000001    0.7385400000000000    0.3859500000000000 C
   0.5931200000000000    0.7602200000000000    0.4063300000000000 C
   0.5545350000000000    0.7493350000000000    0.3940000000000000 C
   0.5515550000000000    0.7171000000000000    0.3646000000000000 C
   0.5956000000000000    0.7919550000000000    0.4426500000000000 C
   0.5296700000000000    0.5945800000000000    0.2500000000000000 C
   0.6097950000000000    0.5044000000000000    0.3684400000000000 C
   0.5383550000000000    0.5125200000000000    0.4060800000000000 C
   0.6267650000000000    0.3922500000000000    0.4622500000000000 O
   0.5572050000000000    0.3967350000000000    0.4851300000000000 O
   0.3769800000000000    0.5584850000000000    0.0909000000000000 O
   0.3696200000000000    0.6282950000000000    0.0704700000000000 O
   0.7796300000000000    0.6330500000000000    0.0569500000000000 O
   0.7883050000000000    0.5626050000000000    0.0724000000000000 O
   0.6154450000000000    0.5921800000000000    0.2000700000000000 O
   0.5900550000000000    0.6612950000000000    0.3180000000000000 O
   0.6321550000000000    0.8004650000000000    0.4504300000000000 O
   0.5616750000000000    0.8072650000000000    0.4644300000000000 O
   0.5057900000000000    0.6276950000000000    0.2233800000000000 O
   0.5606700000000000    0.5639750000000000    0.3441500000000000 O
