H6 O4
1.0
  14.7119789166401880    0.0000000000000000   -0.0249069535388512
  -0.0148517879930221   18.1299899294322060    0.0120242704671732
   0.0000000000000000    0.0000000000000000   25.1200000000000010
H O
6 4
direct
  -0.1383364270989201    0.2348557621937201    0.3070184705972028 H
   0.7917571166139409    0.0427941014810507    0.3603318628409538 H
  -0.1894205459911778    0.1304485283921751    0.3342673338239500 H
   0.1477935177136226    0.2596017785168392    0.3993713810752799 H
   0.2097091050648584    0.4436422335733859    0.3331065457352487 H
   0.1958437550293829    0.3599455482050142    0.3649883595742431 H
  -0.1146399999999999    0.1911100000000000    0.3244100000000000 O
   0.8378200000000000    0.0801600000000000    0.3542600000000000 O
   0.1204500000000000    0.3000600000000000    0.3798000000000000 O
   0.1638800000000000    0.4072400000000000    0.3421100000000000 O
