H4 O2
1.0
  37.5277631443810264    0.0000000000000000    5.3556939213548311
  14.9577721227082527   34.4261978089284923    5.3454049000668213
   0.0000000000000000    0.0000000000000000   23.8099999999999987
H O
4 2
direct
   0.2382388169258313    0.2841978067568581    0.7122232517427473 H
   0.2759990126041340    0.2814071238944667    0.6644077794201151 H
   0.3820342570772756    0.4283978082381906    0.7885632956652366 H
   0.3848701099933108    0.3904515174447779    0.8359465701630611 H
   0.2576166666666667    0.2702366666666667    0.6825800000000000 O
   0.3959733333333333    0.4089633333333333    0.8181500000000000 O
