H10 C8 N4
1.0
  13.2169972441151824    0.0000000000000000   -0.0085351655945115
  -0.0165390842791033   29.6579699793144229    0.0388222201299288
   0.0000000000000000    0.0000000000000000   21.9420000000000002
H C N
10 8 4
direct
   0.4113500000000000    0.4476800000000000    0.7855600000000000 H
   0.5445900000000000    0.4008450000000000    0.6230300000000000 H
   0.4080300000000000    0.3362000000000000    0.6645200000000000 H
   0.3217400000000000    0.3718550000000000    0.8203400000000000 H
   0.3190000000000000    0.3267150000000000    0.7677000000000000 H
   0.1886600000000000    0.4127700000000000    0.7594200000000000 H
   0.1922600000000000    0.3708650000000000    0.7030500000000000 H
   0.0966800000000000    0.2959850000000000    0.7220000000000000 H
   0.1083600000000000    0.3910800000000000    0.8664700000000000 H
   0.9713300000000000    0.3222350000000000    0.8952900000000000 H
   0.2020400000000000    0.3766950000000000    0.7519900000000000 C
   0.0821200000000000    0.3117300000000000    0.7661200000000000 C
   0.0866100000000000    0.3608050000000000    0.8422100000000000 C
   0.4275600000000000    0.4268550000000000    0.7462200000000000 C
   0.4938700000000000    0.4011500000000000    0.6617000000000000 C
   0.4269100000000000    0.3692550000000000    0.6818500000000000 C
   0.3088500000000000    0.3632600000000000    0.7723200000000000 C
   0.0192200000000000    0.3270900000000000    0.8557399999999999 C
   0.4939700000000000    0.4368950000000000    0.7024200000000000 N
   0.3858300000000000    0.3857450000000000    0.7355000000000000 N
   0.1257600000000000    0.3507450000000000    0.7851500000000000 N
   0.0167300000000000    0.2967450000000000    0.8077200000000000 N
