Zn16 H340 C248 N64 O60
1.0
  13.2169972441151824    0.0000000000000000   -0.0085351655945115
  -0.0165390842791033   29.6579699793144229    0.0388222201299288
   0.0000000000000000    0.0000000000000000   21.9420000000000002
Zn H C N O
16 340 248 64 60
direct
   0.9197400000000000    0.2423000000000000    0.8025099999999999 Zn
   0.3331700000000000    0.2577500000000000    0.3012000000000000 Zn
   0.8311400000000000    0.2577250000000000    0.3010400000000000 Zn
   0.0805400000000000    0.4922900000000000    0.6986900000000000 Zn
   0.5828000000000000    0.4922650000000000    0.6987500000000000 Zn
   0.1685400000000000    0.0075800000000000    0.1974700000000000 Zn
   0.6671200000000000    0.0077900000000000    0.1978400000000000 Zn
   0.4171300000000000    0.2423000000000000    0.8004500000000000 Zn
   0.9197400000000000    0.7423000000000000    0.8025099999999999 Zn
   0.3331700000000000    0.7577499999999999    0.3012000000000000 Zn
   0.8311400000000000    0.7577250000000000    0.3010400000000000 Zn
   0.0805400000000000    0.9922900000000000    0.6986900000000000 Zn
   0.5828000000000000    0.9922650000000000    0.6987500000000000 Zn
   0.1685400000000000    0.5075800000000000    0.1974700000000000 Zn
   0.6671200000000000    0.5077900000000000    0.1978400000000000 Zn
   0.4171300000000000    0.7423000000000000    0.8004500000000000 Zn
   0.0941200000000000    0.1985400000000000    0.7169300000000000 H
   0.5899900000000000    0.1982300000000000    0.7139000000000000 H
   0.4545900000000000    0.1506800000000000    0.8756400000000000 H
   0.9539900000000000    0.1498850000000000    0.8765700000000000 H
   0.0879900000000000    0.0847100000000000    0.8342200000000000 H
   0.5909500000000000    0.0860850000000000    0.8342000000000001 H
   0.1795600000000000    0.1221300000000000    0.6803300000000000 H
   0.6799600000000000    0.1229000000000000    0.6790800000000000 H
   0.1799700000000000    0.0763350000000000    0.7321299999999999 H
   0.6804200000000000    0.0770750000000000    0.7308200000000000 H
   0.3126900000000000    0.1615200000000000    0.7430600000000001 H
   0.8124600000000000    0.1624900000000000    0.7420000000000000 H
   0.3073400000000000    0.1186500000000000    0.7981800000000000 H
   0.8066800000000000    0.1198200000000000    0.7973900000000000 H
   0.4056900000000000    0.0451950000000000    0.7788600000000000 H
   0.9020300000000000    0.0452950000000000    0.7777400000000000 H
   0.3901000000000000    0.1399800000000000    0.6343200000000000 H
   0.8939100000000000    0.1415300000000000    0.6347600000000000 H
   0.0307200000000000    0.0726850000000000    0.6060500000000000 H
   0.5286700000000000    0.0718950000000000    0.6054600000000000 H
   0.0348700000000000    0.2412950000000000    0.1415600000000000 H
   0.5365100000000000    0.2407550000000000    0.1414500000000000 H
   0.4703200000000000    0.2853000000000000    0.1066200000000000 H
   0.9680800000000001    0.2855750000000000    0.1065100000000000 H
   0.4215600000000000    0.1851200000000000    0.0860000000000000 H
   0.9212700000000000    0.1852150000000000    0.0858700000000000 H
   0.3560400000000000    0.2309300000000000    0.0536900000000000 H
   0.8554500000000000    0.2307950000000000    0.0531900000000000 H
   0.0179700000000000    0.2546850000000000    0.0002000000000000 H
   0.5184000000000000    0.2543800000000000    0.0002000000000000 H
   0.4718600000000000    0.2012550000000000    0.9783600000000000 H
   0.9724900000000000    0.2013800000000000    0.9784100000000000 H
   0.1495300000000000    0.2189950000000000    0.0663300000000000 H
   0.6497500000000000    0.2181900000000000    0.0659100000000000 H
   0.0932400000000000    0.1656100000000000    0.0557200000000000 H
   0.5927700000000000    0.1649600000000000    0.0551000000000000 H
   0.1390600000000000    0.1666850000000000    0.9453500000000000 H
   0.6382400000000000    0.1661850000000000    0.9447000000000000 H
   0.2450300000000000    0.1708650000000000    0.9933500000000000 H
   0.7446100000000000    0.1704100000000000    0.9924300000000000 H
   0.1451800000000000    0.2494400000000000    0.9241900000000000 H
   0.6437900000000000    0.2487600000000000    0.9233300000000000 H
   0.2462100000000000    0.2561850000000000    0.9754200000000000 H
   0.7439200000000000    0.2559750000000000    0.9750500000000000 H
   0.1600900000000000    0.3019600000000000    0.2144000000000000 H
   0.6591399999999999    0.3024500000000000    0.2144500000000000 H
   0.2955700000000000    0.3493850000000000    0.3760900000000000 H
   0.7945100000000000    0.3492200000000000    0.3765200000000000 H
   0.1590100000000000    0.4139550000000000    0.3345200000000000 H
   0.6590500000000000    0.4142400000000000    0.3349800000000000 H
   0.0703500000000000    0.3773650000000000    0.1793000000000000 H
   0.5711900000000000    0.3787500000000000    0.1794400000000000 H
   0.0701900000000000    0.4231950000000000    0.2309400000000000 H
   0.5687300000000000    0.4237450000000000    0.2323100000000000 H
   0.4385200000000000    0.3375850000000000    0.2404000000000000 H
   0.9371400000000000    0.3381100000000000    0.2421200000000000 H
   0.4421000000000000    0.3795250000000000    0.2967800000000000 H
   0.9431200000000000    0.3808300000000000    0.2972700000000000 H
   0.3454500000000000    0.4540200000000000    0.2775800000000000 H
   0.8445800000000000    0.4543300000000000    0.2783400000000000 H
   0.3588200000000000    0.3594300000000000    0.1330600000000000 H
   0.8598000000000000    0.3602100000000000    0.1333400000000000 H
   0.2214700000000000    0.4281300000000000    0.1042200000000000 H
   0.7212499999999999    0.4284650000000000    0.1048000000000000 H
   0.2105700000000000    0.2596700000000000    0.6419200000000000 H
   0.7163800000000000    0.2589050000000000    0.6426600000000000 H
   0.2764700000000000    0.2149900000000000    0.6074600000000000 H
   0.7823900000000000    0.2142450000000000    0.6081800000000001 H
   0.3261400000000000    0.3150750000000000    0.5864300000000000 H
   0.8305500000000000    0.3143550000000000    0.5861200000000000 H
   0.3915200000000000    0.2691400000000000    0.5545300000000000 H
   0.8955200000000000    0.2684150000000000    0.5539900000000000 H
   0.2292900000000000    0.2458150000000000    0.5008200000000000 H
   0.7325800000000000    0.2447350000000000    0.5014000000000000 H
   0.2762100000000000    0.2988700000000000    0.4787000000000000 H
   0.7783700000000000    0.2978900000000000    0.4790000000000000 H
   0.0979700000000000    0.2823000000000000    0.5661000000000000 H
   0.6015200000000001    0.2807750000000000    0.5672000000000000 H
   0.1550600000000000    0.3354600000000000    0.5547600000000000 H
   0.6582800000000000    0.3340550000000000    0.5562800000000000 H
   0.1098200000000000    0.3338100000000000    0.4443900000000000 H
   0.6121500000000000    0.3329400000000000    0.4459500000000000 H
   0.0033300000000000    0.3297750000000000    0.4919200000000000 H
   0.5063000000000000    0.3290450000000000    0.4939800000000000 H
   0.1044300000000000    0.2510400000000000    0.4241100000000000 H
   0.6050300000000000    0.2500500000000000    0.4254200000000000 H
   0.0032300000000000    0.2442750000000000    0.4751600000000000 H
   0.5035800000000000    0.2438100000000000    0.4764000000000000 H
   0.4113500000000000    0.4476800000000000    0.7855600000000000 H
   0.9081100000000000    0.4476350000000000    0.7849000000000000 H
   0.0451800000000000    0.4005300000000000    0.6236800000000000 H
   0.5445900000000000    0.4008450000000000    0.6230300000000000 H
   0.4080300000000000    0.3362000000000000    0.6645200000000000 H
   0.9102200000000000    0.3353050000000000    0.6653400000000000 H
   0.3217400000000000    0.3718550000000000    0.8203400000000000 H
   0.8213700000000000    0.3706900000000000    0.8202700000000001 H
   0.3190000000000000    0.3267150000000000    0.7677000000000000 H
   0.8183000000000000    0.3260000000000000    0.7669600000000000 H
   0.1886600000000000    0.4127700000000000    0.7594200000000000 H
   0.6886800000000000    0.4123550000000000    0.7599800000000000 H
   0.1922600000000000    0.3708650000000000    0.7030500000000000 H
   0.6920100000000000    0.3709650000000000    0.7029200000000000 H
   0.0966800000000000    0.2959850000000000    0.7220000000000000 H
   0.5936200000000000    0.2967850000000000    0.7203700000000000 H
   0.1083600000000000    0.3910800000000000    0.8664700000000000 H
   0.6101000000000000    0.3891750000000000    0.8673000000000000 H
   0.4712500000000000    0.3206450000000000    0.8945600000000000 H
   0.9713300000000000    0.3222350000000000    0.8952900000000000 H
   0.4638100000000000    0.4905050000000000    0.3576600000000000 H
   0.9656100000000000    0.4902750000000000    0.3574000000000000 H
   0.0318500000000000    0.0350800000000000    0.3915400000000000 H
   0.5288700000000000    0.0358000000000000    0.3913000000000000 H
   0.0797300000000000    0.4350250000000000    0.4140000000000000 H
   0.5795700000000000    0.4361300000000000    0.4147800000000000 H
   0.1458100000000000    0.4809800000000000    0.4454600000000000 H
   0.6440500000000000    0.4826100000000000    0.4459900000000000 H
   0.4815700000000000    0.0000000000000000    0.4988200000000000 H
   0.9843400000000000    0.0000000000000000    0.4988600000000000 H
   0.0291700000000000    0.4517600000000000    0.5210900000000001 H
   0.5278700000000000    0.4531050000000000    0.5216600000000000 H
   0.3501000000000000    0.4696550000000000    0.4338600000000000 H
   0.8514900000000000    0.4697500000000000    0.4337600000000000 H
   0.4073000000000000    0.4164950000000000    0.4446700000000000 H
   0.9072600000000000    0.4162350000000000    0.4440200000000000 H
   0.3623400000000000    0.4175400000000000    0.5550900000000000 H
   0.8627899999999999    0.4170250000000000    0.5545400000000000 H
   0.2559500000000000    0.4213050000000000    0.5074000000000000 H
   0.7563500000000000    0.4215400000000000    0.5070100000000000 H
   0.3547900000000000    0.0000000000000000    0.5762000000000000 H
   0.8573700000000000    0.4996250000000000    0.5764000000000000 H
   0.2539300000000000    0.0000000000000000    0.5248800000000000 H
   0.7565200000000000    0.0000000000000000    0.5251700000000000 H
   0.3415700000000000    0.0520600000000000    0.2837200000000000 H
   0.8404400000000000    0.0517800000000000    0.2844800000000000 H
   0.2029700000000000    0.0996750000000000    0.1229500000000000 H
   0.7043600000000000    0.0998050000000000    0.1231700000000000 H
   0.3380600000000000    0.1648000000000000    0.1644400000000000 H
   0.8402100000000000    0.1644650000000000    0.1651000000000000 H
   0.4282500000000000    0.1287200000000000    0.3191600000000000 H
   0.9291900000000000    0.1274600000000000    0.3200900000000000 H
   0.4304600000000000    0.1737850000000000    0.2662400000000000 H
   0.9298200000000000    0.1732950000000000    0.2683700000000000 H
   0.0625000000000000    0.0881350000000000    0.2575000000000000 H
   0.5609000000000000    0.0877800000000000    0.2579500000000000 H
   0.0568500000000000    0.1308300000000000    0.2022800000000000 H
   0.5571600000000000    0.1299050000000000    0.2017500000000000 H
   0.1548700000000000    0.2045300000000000    0.2212400000000000 H
   0.6543900000000000    0.2041550000000000    0.2207700000000000 H
   0.1408000000000000    0.1099200000000000    0.3660300000000000 H
   0.6400200000000000    0.1096150000000000    0.3656400000000000 H
   0.2795800000000000    0.1781450000000000    0.3943500000000000 H
   0.7779500000000000    0.1781350000000000    0.3942700000000000 H
   0.2836600000000000    0.0084300000000000    0.8587300000000000 H
   0.7856600000000000    0.0087000000000000    0.8590200000000000 H
   0.2160700000000000    0.4644500000000000    0.8940000000000000 H
   0.7172300000000000    0.4652200000000000    0.8948700000000001 H
   0.1700800000000000    0.0649650000000000    0.9136200000000000 H
   0.6727000000000000    0.0660550000000000    0.9125900000000000 H
   0.1040400000000000    0.0195700000000000    0.9466599999999999 H
   0.6050700000000000    0.0212150000000000    0.9458000000000000 H
   0.2666400000000000    0.4958850000000000    0.9998100000000000 H
   0.7665700000000000    0.4973000000000000    0.0000000000000000 H
   0.2210900000000000    0.0491950000000000    0.0213600000000000 H
   0.7213000000000001    0.0508800000000000    0.0209300000000000 H
   0.3978500000000000    0.0316150000000000    0.9333700000000000 H
   0.8988800000000000    0.0324850000000000    0.9338300000000000 H
   0.3417400000000000    0.0849850000000000    0.9442000000000000 H
   0.8436000000000000    0.0860400000000000    0.9445700000000000 H
   0.3881400000000000    0.0836450000000000    0.0545600000000000 H
   0.8892300000000000    0.0844500000000000    0.0551000000000000 H
   0.4939000000000000    0.0795100000000000    0.0064800000000000 H
   0.9952100000000000    0.0799950000000000    0.0072000000000000 H
   0.3936700000000000    0.0007750000000000    0.0751600000000000 H
   0.8930500000000000    0.0016800000000000    0.0756700000000000 H
   0.4946500000000000    0.4941700000000000    0.0239500000000000 H
   0.9938900000000001    0.4945600000000000    0.0244100000000000 H
   0.0941200000000000    0.6985399999999999    0.7169300000000000 H
   0.5899900000000000    0.6982300000000000    0.7139000000000000 H
   0.4545900000000000    0.6506800000000000    0.8756400000000000 H
   0.9539900000000000    0.6498850000000000    0.8765700000000000 H
   0.0879900000000000    0.5847100000000000    0.8342200000000000 H
   0.5909500000000000    0.5860850000000000    0.8342000000000001 H
   0.1795600000000000    0.6221300000000000    0.6803300000000000 H
   0.6799600000000000    0.6229000000000000    0.6790800000000000 H
   0.1799700000000000    0.5763350000000000    0.7321299999999999 H
   0.6804200000000000    0.5770750000000000    0.7308200000000000 H
   0.3126900000000000    0.6615200000000000    0.7430600000000001 H
   0.8124600000000000    0.6624900000000000    0.7420000000000000 H
   0.3073400000000000    0.6186500000000000    0.7981800000000000 H
   0.8066800000000000    0.6198200000000000    0.7973900000000000 H
   0.4056900000000000    0.5451950000000000    0.7788600000000000 H
   0.9020300000000000    0.5452950000000000    0.7777400000000000 H
   0.3901000000000000    0.6399800000000000    0.6343200000000000 H
   0.8939100000000000    0.6415299999999999    0.6347600000000000 H
   0.0307200000000000    0.5726850000000000    0.6060500000000000 H
   0.5286700000000000    0.5718950000000000    0.6054600000000000 H
   0.5365100000000000    0.7407550000000001    0.1414500000000000 H
   0.4703200000000000    0.7853000000000000    0.1066200000000000 H
   0.4215600000000000    0.6851200000000000    0.0860000000000000 H
   0.3560400000000000    0.7309300000000000    0.0536900000000000 H
   0.5184000000000000    0.7543800000000001    0.0002000000000000 H
   0.4718600000000000    0.7012550000000000    0.9783600000000000 H
   0.6497500000000000    0.7181900000000000    0.0659100000000000 H
   0.5927700000000000    0.6649600000000000    0.0551000000000000 H
   0.6382400000000000    0.6661850000000000    0.9447000000000000 H
   0.7446100000000000    0.6704100000000000    0.9924300000000000 H
   0.6437900000000000    0.7487600000000000    0.9233300000000000 H
   0.7439200000000000    0.7559750000000001    0.9750500000000000 H
   0.1600900000000000    0.8019600000000000    0.2144000000000000 H
   0.6591399999999999    0.8024500000000000    0.2144500000000000 H
   0.2955700000000000    0.8493850000000001    0.3760900000000000 H
   0.7945100000000000    0.8492200000000000    0.3765200000000000 H
   0.1590100000000000    0.9139550000000001    0.3345200000000000 H
   0.6590500000000000    0.9142399999999999    0.3349800000000000 H
   0.0703500000000000    0.8773650000000000    0.1793000000000000 H
   0.5711900000000000    0.8787499999999999    0.1794400000000000 H
   0.0701900000000000    0.9231950000000000    0.2309400000000000 H
   0.5687300000000000    0.9237450000000000    0.2323100000000000 H
   0.4385200000000000    0.8375850000000000    0.2404000000000000 H
   0.9371400000000000    0.8381100000000000    0.2421200000000000 H
   0.4421000000000000    0.8795250000000000    0.2967800000000000 H
   0.9431200000000000    0.8808300000000000    0.2972700000000000 H
   0.3454500000000000    0.9540200000000000    0.2775800000000000 H
   0.8445800000000000    0.9543300000000000    0.2783400000000000 H
   0.3588200000000000    0.8594300000000000    0.1330600000000000 H
   0.8598000000000000    0.8602099999999999    0.1333400000000000 H
   0.2214700000000000    0.9281300000000000    0.1042200000000000 H
   0.7212499999999999    0.9284650000000000    0.1048000000000000 H
   0.2105700000000000    0.7596700000000001    0.6419200000000000 H
   0.7163800000000000    0.7589049999999999    0.6426600000000000 H
   0.2764700000000000    0.7149900000000000    0.6074600000000000 H
   0.7823900000000000    0.7142450000000000    0.6081800000000001 H
   0.3261400000000000    0.8150750000000000    0.5864300000000000 H
   0.8305500000000000    0.8143549999999999    0.5861200000000000 H
   0.3915200000000000    0.7691399999999999    0.5545300000000000 H
   0.8955200000000000    0.7684150000000001    0.5539900000000000 H
   0.2292900000000000    0.7458150000000000    0.5008200000000000 H
   0.7325800000000000    0.7447350000000000    0.5014000000000000 H
   0.2762100000000000    0.7988700000000000    0.4787000000000000 H
   0.7783700000000000    0.7978900000000000    0.4790000000000000 H
   0.0979700000000000    0.7823000000000000    0.5661000000000000 H
   0.6015200000000001    0.7807750000000000    0.5672000000000000 H
   0.1550600000000000    0.8354600000000000    0.5547600000000000 H
   0.6582800000000000    0.8340550000000000    0.5562800000000000 H
   0.1098200000000000    0.8338099999999999    0.4443900000000000 H
   0.6121500000000000    0.8329400000000000    0.4459500000000000 H
   0.0033300000000000    0.8297749999999999    0.4919200000000000 H
   0.5063000000000000    0.8290450000000000    0.4939800000000000 H
   0.1044300000000000    0.7510399999999999    0.4241100000000000 H
   0.6050300000000000    0.7500500000000000    0.4254200000000000 H
   0.0032300000000000    0.7442750000000000    0.4751600000000000 H
   0.5035800000000000    0.7438100000000000    0.4764000000000000 H
   0.4113500000000000    0.9476800000000001    0.7855600000000000 H
   0.9081100000000000    0.9476350000000000    0.7849000000000000 H
   0.0451800000000000    0.9005300000000001    0.6236800000000000 H
   0.5445900000000000    0.9008450000000000    0.6230300000000000 H
   0.4080300000000000    0.8362000000000001    0.6645200000000000 H
   0.9102200000000000    0.8353050000000000    0.6653400000000000 H
   0.3217400000000000    0.8718550000000000    0.8203400000000000 H
   0.8213700000000000    0.8706900000000000    0.8202700000000001 H
   0.3190000000000000    0.8267150000000000    0.7677000000000000 H
   0.8183000000000000    0.8260000000000001    0.7669600000000000 H
   0.1886600000000000    0.9127700000000001    0.7594200000000000 H
   0.6886800000000000    0.9123550000000000    0.7599800000000000 H
   0.1922600000000000    0.8708650000000000    0.7030500000000000 H
   0.6920100000000000    0.8709650000000000    0.7029200000000000 H
   0.0966800000000000    0.7959849999999999    0.7220000000000000 H
   0.5936200000000000    0.7967850000000001    0.7203700000000000 H
   0.1083600000000000    0.8910800000000000    0.8664700000000000 H
   0.6101000000000000    0.8891750000000000    0.8673000000000000 H
   0.4712500000000000    0.8206450000000001    0.8945600000000000 H
   0.9713300000000000    0.8222350000000000    0.8952900000000000 H
   0.4638100000000000    0.9905050000000000    0.3576600000000000 H
   0.9656100000000000    0.9902750000000000    0.3574000000000000 H
   0.0318500000000000    0.5350800000000000    0.3915400000000000 H
   0.5288700000000000    0.5358000000000001    0.3913000000000000 H
   0.0797300000000000    0.9350250000000000    0.4140000000000000 H
   0.5795700000000000    0.9361300000000000    0.4147800000000000 H
   0.1458100000000000    0.9809800000000000    0.4454600000000000 H
   0.6440500000000000    0.9826100000000000    0.4459900000000000 H
   0.4815700000000000    0.5000000000000000    0.4988200000000000 H
   0.9843400000000000    0.5000000000000000    0.4988600000000000 H
   0.0291700000000000    0.9517599999999999    0.5210900000000001 H
   0.5278700000000000    0.9531050000000000    0.5216600000000000 H
   0.3501000000000000    0.9696549999999999    0.4338600000000000 H
   0.8514900000000000    0.9697500000000000    0.4337600000000000 H
   0.4073000000000000    0.9164950000000001    0.4446700000000000 H
   0.9072600000000000    0.9162350000000000    0.4440200000000000 H
   0.3623400000000000    0.9175400000000000    0.5550900000000000 H
   0.8627899999999999    0.9170250000000000    0.5545400000000000 H
   0.2559500000000000    0.9213050000000000    0.5074000000000000 H
   0.7563500000000000    0.9215400000000000    0.5070100000000000 H
   0.3547900000000000    0.5000000000000000    0.5762000000000000 H
   0.8573700000000000    0.9996250000000000    0.5764000000000000 H
   0.2539300000000000    0.5000000000000000    0.5248800000000000 H
   0.7565200000000000    0.5000000000000000    0.5251700000000000 H
   0.3415700000000000    0.5520600000000000    0.2837200000000000 H
   0.8404400000000000    0.5517800000000000    0.2844800000000000 H
   0.2029700000000000    0.5996750000000000    0.1229500000000000 H
   0.7043600000000000    0.5998050000000000    0.1231700000000000 H
   0.3380600000000000    0.6648000000000001    0.1644400000000000 H
   0.8402100000000000    0.6644650000000000    0.1651000000000000 H
   0.4282500000000000    0.6287199999999999    0.3191600000000000 H
   0.9291900000000000    0.6274600000000000    0.3200900000000000 H
   0.4304600000000000    0.6737850000000000    0.2662400000000000 H
   0.9298200000000000    0.6732950000000000    0.2683700000000000 H
   0.0625000000000000    0.5881350000000000    0.2575000000000000 H
   0.5609000000000000    0.5877800000000000    0.2579500000000000 H
   0.0568500000000000    0.6308300000000000    0.2022800000000000 H
   0.5571600000000000    0.6299049999999999    0.2017500000000000 H
   0.1548700000000000    0.7045300000000000    0.2212400000000000 H
   0.6543900000000000    0.7041550000000000    0.2207700000000000 H
   0.1408000000000000    0.6099200000000000    0.3660300000000000 H
   0.6400200000000000    0.6096150000000000    0.3656400000000000 H
   0.2795800000000000    0.6781450000000000    0.3943500000000000 H
   0.7779500000000000    0.6781349999999999    0.3942700000000000 H
   0.2836600000000000    0.5084300000000000    0.8587300000000000 H
   0.7856600000000000    0.5087000000000000    0.8590200000000000 H
   0.2160700000000000    0.9644500000000000    0.8940000000000000 H
   0.7172300000000000    0.9652200000000000    0.8948700000000001 H
   0.1700800000000000    0.5649649999999999    0.9136200000000000 H
   0.6727000000000000    0.5660550000000000    0.9125900000000000 H
   0.1040400000000000    0.5195700000000000    0.9466599999999999 H
   0.6050700000000000    0.5212150000000000    0.9458000000000000 H
   0.2666400000000000    0.9958850000000000    0.9998100000000000 H
   0.7665700000000000    0.9973000000000001    0.0000000000000000 H
   0.2210900000000000    0.5491950000000000    0.0213600000000000 H
   0.7213000000000001    0.5508800000000000    0.0209300000000000 H
   0.3978500000000000    0.5316149999999999    0.9333700000000000 H
   0.8988800000000000    0.5324850000000000    0.9338300000000000 H
   0.3417400000000000    0.5849850000000000    0.9442000000000000 H
   0.8436000000000000    0.5860400000000000    0.9445700000000000 H
   0.3881400000000000    0.5836450000000000    0.0545600000000000 H
   0.8892300000000000    0.5844500000000000    0.0551000000000000 H
   0.4939000000000000    0.5795100000000000    0.0064800000000000 H
   0.9952100000000000    0.5799950000000000    0.0072000000000000 H
   0.3936700000000000    0.5007750000000000    0.0751600000000000 H
   0.8930500000000000    0.5016800000000000    0.0756700000000000 H
   0.4946500000000000    0.9941700000000000    0.0239500000000000 H
   0.9938900000000001    0.9945600000000000    0.0244100000000000 H
   0.9821500000000000    0.0773050000000000    0.6453200000000000 C
   0.3858200000000000    0.2513350000000000    0.1756500000000000 C
   0.8839100000000000    0.2513800000000000    0.1755000000000000 C
   0.4621000000000000    0.2502500000000000    0.1231900000000000 C
   0.2020400000000000    0.3766950000000000    0.7519900000000000 C
   0.7017400000000000    0.3763200000000000    0.7519700000000000 C
   0.0821200000000000    0.3117300000000000    0.7661200000000000 C
   0.5800900000000000    0.3118250000000000    0.7645700000000000 C
   0.0866100000000000    0.3608050000000000    0.8422100000000000 C
   0.0754900000000000    0.1771200000000000    0.7553600000000000 C
   0.5730300000000000    0.1772100000000000    0.7530500000000000 C
   0.5056800000000000    0.1511300000000000    0.8371000000000000 C
   0.0000000000000000    0.1504550000000000    0.8383000000000000 C
   0.0714600000000000    0.1182950000000000    0.8178299999999999 C
   0.5725300000000000    0.1192600000000000    0.8170300000000000 C
   0.1914300000000000    0.1128600000000000    0.7282400000000000 C
   0.6915300000000000    0.1136250000000000    0.7270200000000000 C
   0.2983400000000000    0.1253950000000000    0.7493800000000000 C
   0.7981400000000000    0.1263700000000000    0.7485100000000000 C
   0.4192800000000000    0.0609300000000000    0.7350000000000000 C
   0.9175100000000000    0.0613350000000000    0.7343700000000000 C
   0.4128500000000000    0.1098650000000000    0.6586900000000000 C
   0.9148700000000000    0.1110100000000000    0.6588000000000001 C
   0.4810000000000000    0.0765200000000000    0.6451300000000000 C
   0.9604300000000000    0.2505100000000000    0.1231200000000000 C
   0.4309600000000000    0.2200750000000000    0.0697400000000000 C
   0.9303399999999999    0.2201900000000000    0.0695900000000000 C
   0.5065100000000000    0.2196250000000000    0.0167600000000000 C
   0.0000000000000000    0.2199150000000000    0.0168700000000000 C
   0.1084400000000000    0.1981300000000000    0.0328600000000000 C
   0.6082300000000000    0.1975150000000000    0.0324100000000000 C
   0.1772200000000000    0.1892350000000000    0.9778900000000000 C
   0.6765600000000001    0.1887250000000000    0.9772400000000000 C
   0.2108800000000000    0.2318300000000000    0.9440900000000000 C
   0.7096100000000000    0.2314450000000000    0.9435600000000000 C
   0.2835900000000000    0.2231300000000000    0.8915800000000000 C
   0.7833599999999999    0.2231050000000000    0.8915400000000000 C
   0.1770200000000000    0.3229350000000000    0.2535000000000000 C
   0.6762100000000000    0.3233250000000000    0.2536300000000000 C
   0.2444600000000000    0.3489600000000000    0.3375000000000000 C
   0.7435700000000000    0.3489850000000000    0.3378700000000000 C
   0.1775000000000000    0.3808200000000000    0.3173800000000000 C
   0.6771700000000000    0.3810800000000000    0.3177500000000000 C
   0.0586900000000000    0.3866650000000000    0.2271800000000000 C
   0.5585000000000000    0.3872100000000000    0.2275200000000000 C
   0.4517800000000000    0.3736750000000000    0.2478500000000000 C
   0.9518100000000000    0.3742050000000000    0.2484600000000000 C
   0.3313500000000000    0.4383950000000000    0.2338000000000000 C
   0.8308100000000000    0.4387950000000000    0.2344000000000000 C
   0.3366900000000000    0.3895800000000000    0.1574300000000000 C
   0.8371000000000000    0.3902050000000000    0.1578700000000000 C
   0.2691600000000000    0.4232150000000000    0.1438800000000000 C
   0.7689600000000000    0.4236250000000000    0.1444700000000000 C
   0.3609900000000000    0.2487900000000000    0.6765200000000000 C
   0.8672400000000000    0.2485800000000000    0.6767100000000000 C
   0.2849700000000000    0.2500300000000000    0.6238899999999999 C
   0.7906400000000000    0.2493850000000000    0.6242900000000000 C
   0.3165900000000000    0.2801100000000000    0.5703500000000000 C
   0.8208700000000000    0.2793250000000000    0.5703300000000000 C
   0.2412700000000000    0.2805850000000000    0.5171800000000000 C
   0.7444200000000000    0.2795350000000000    0.5177100000000000 C
   0.1395800000000000    0.3028100000000000    0.5324300000000000 C
   0.6427200000000000    0.3015350000000000    0.5336100000000000 C
   0.0714000000000000    0.3113900000000000    0.4770300000000000 C
   0.5738500000000000    0.3104950000000000    0.4786100000000000 C
   0.0384100000000000    0.2685800000000000    0.4436400000000000 C
   0.5395799999999999    0.2679650000000000    0.4450100000000000 C
   0.4673200000000000    0.2768900000000000    0.3922500000000000 C
   0.9658700000000000    0.2768850000000000    0.3909000000000000 C
   0.4275600000000000    0.4268550000000000    0.7462200000000000 C
   0.9256600000000000    0.4266400000000000    0.7459400000000000 C
   0.9938900000000001    0.4007800000000000    0.6621200000000000 C
   0.4938700000000000    0.4011500000000000    0.6617000000000000 C
   0.4269100000000000    0.3692550000000000    0.6818500000000000 C
   0.9277400000000000    0.3686000000000000    0.6823100000000000 C
   0.3088500000000000    0.3632600000000000    0.7723200000000000 C
   0.8084000000000000    0.3625200000000000    0.7721000000000000 C
   0.5870100000000000    0.3595050000000000    0.8421900000000000 C
   0.0192200000000000    0.3270900000000000    0.8557399999999999 C
   0.5187900000000000    0.3259650000000000    0.8549000000000000 C
   0.1163200000000000    0.0000000000000000    0.3230900000000000 C