H4 C7 O2
1.0
  32.6337766086899066    0.0000000000000000   -0.1207487230729446
  -0.1348545538455943   18.0654014814939607   -0.0586477769652553
   0.0000000000000000    0.0000000000000000   18.0670000000000002
H C O
4 7 2
direct
   0.6325799999999999    0.1107500000000000    0.9268600000000000 H
   0.6375433333333334    0.2487300000000000    0.9217500000000000 H
   0.6038266666666666    0.3168300000000000    0.8198700000000000 H
   0.5602900000000000    0.1106300000000000    0.7275400000000000 H
   0.5538600000000000    0.2574400000000000    0.7108300000000000 C
   0.5970866666666665    0.1022200000000000    0.8263700000000000 C
   0.6181733333333332    0.1413300000000000    0.8820500000000000 C
   0.6205600000000000    0.2183600000000000    0.8792700000000000 C
   0.6010566666666666    0.2568300000000000    0.8225400000000000 C
   0.5785466666666667    0.2182300000000000    0.7681600000000000 C
   0.5773400000000000    0.1408900000000000    0.7698500000000000 C
   0.5466066666666667    0.3270700000000000    0.7214500000000000 O
   0.5397233333333333    0.2217900000000000    0.6559800000000000 O
