H7 O5
1.0
   6.5067145173078567    0.0000000000000000   -2.3022315674699616
  -2.4298853860033405    7.4940805173075189   -0.5303114283128935
   0.0000000000000000    0.0000000000000000   20.1859999999999999
H O
7 5
direct
   0.2203938050491037    0.6187866567584029    0.2086471870205799 H
   0.0951691284757050    0.0098131808669165    0.0502359887927737 H
   0.5950104718455614    0.4722903131047481    0.0972776271451042 H
   0.3500388610250503    0.2556076335511860    0.0761967514803543 H
   0.7908791375317810   -0.0206020508976167    0.1233858665543350 H
   0.8481067182160902    0.2512599214360285    0.2815670226457024 H
   0.8949746772771784    0.1486848998525621    0.2227586097530103 H
   0.2662000000000000    0.7415800000000000    0.2335850000000000 O
   0.2329200000000000    0.0914800000000000    0.0541400000000000 O
   0.5066400000000000    0.3484500000000000    0.0806350000000000 O
   0.6728499999999999    0.0015100000000000    0.1346850000000000 O
   0.7377500000000000    0.1781400000000000    0.2378100000000000 O
