Cd4 H6 C21 O18
1.0
   6.5067145173078567    0.0000000000000000   -2.3022315674699616
  -2.4298853860033405    7.4940805173075189   -0.5303114283128935
   0.0000000000000000    0.0000000000000000   20.1859999999999999
Cd H C O
4 6 21 18
direct
   0.4805000000000000    0.0200700000000000    0.2679700000000000 Cd
   0.4805000000000000    0.0200600000000000    0.0179800000000000 Cd
   0.4805000000000000    0.0200700000000000    0.7679700000000000 Cd
   0.4805000000000000    0.0200600000000000    0.5179800000000000 Cd
   0.4451700000000000    0.6020200000000000    0.3990850000000000 H
   0.9413600000000000    0.4931000000000000    0.0000000000000000 H
   0.4451700000000000    0.6020200000000000    0.8990850000000000 H
   0.4451800000000000    0.6020200000000000    0.6490950000000000 H
   0.9413600000000000    0.4931000000000000    0.7399450000000000 H
   0.9413600000000000    0.4931000000000000    0.5000000000000000 H
   0.2317400000000000    0.3395300000000000    0.3773750000000000 C
   0.3328000000000000    0.2554500000000000    0.3336800000000000 C
   0.3070700000000000    0.5153700000000000    0.4077450000000000 C
   0.2068700000000000    0.5825600000000000    0.4512850000000000 C
   0.0265700000000000    0.4530100000000000    0.4581950000000000 C
   0.9623699999999999    0.2803000000000000    0.4260150000000000 C
   0.7751400000000001    0.1387700000000000    0.4319050000000000 C
   0.2317400000000000    0.3395300000000000    0.8773750000000000 C
   0.2317500000000000    0.3395200000000000    0.6273850000000000 C
   0.3328000000000000    0.2554500000000000    0.8336800000000000 C
   0.3328100000000000    0.2554400000000000    0.5836850000000000 C
   0.3070700000000000    0.5153700000000000    0.9077450000000000 C
   0.3070800000000000    0.5153700000000000    0.6577500000000001 C
   0.2068700000000000    0.5825600000000000    0.9512849999999999 C
   0.2068800000000000    0.5825600000000000    0.7012900000000000 C
   0.0265700000000000    0.4530100000000000    0.9581950000000000 C
   0.0265600000000000    0.4530100000000000    0.7081999999999999 C
   0.9623699999999999    0.2803000000000000    0.9260150000000000 C
   0.9623699999999999    0.2803000000000000    0.6760200000000001 C
   0.7751400000000001    0.1387700000000000    0.9319050000000000 C
   0.7751500000000000    0.1387700000000000    0.6819100000000000 C
   0.0611900000000000    0.2215000000000000    0.3857100000000000 O
   0.2329100000000000    0.0914800000000000    0.3041300000000000 O
   0.5066400000000000    0.3484500000000000    0.3306300000000000 O
   0.2662200000000000    0.7415800000000000    0.0000000000000000 O
   0.6728499999999999    0.0015000000000000    0.3846800000000000 O
   0.7377400000000000    0.1781400000000000    0.4878050000000000 O
   0.0611900000000000    0.2215000000000000    0.8857100000000000 O
   0.0612000000000000    0.2215000000000000    0.6357150000000000 O
   0.2329100000000000    0.0914800000000000    0.8041300000000000 O
   0.2329200000000000    0.0914800000000000    0.5541400000000000 O
   0.5066400000000000    0.3484500000000000    0.8306300000000000 O
   0.5066400000000000    0.3484500000000000    0.5806350000000000 O
   0.2662000000000000    0.7415800000000000    0.7335849999999999 O
   0.2662200000000000    0.7415800000000000    0.5000000000000000 O
   0.6728499999999999    0.0015000000000000    0.8846800000000000 O
   0.6728499999999999    0.0015100000000000    0.6346849999999999 O
   0.7377400000000000    0.1781400000000000    0.9878050000000000 O
   0.7377500000000000    0.1781400000000000    0.7378100000000000 O
