Ag32 H186 C180 S60 O64
1.0
  26.2879820265337081    0.0000000000000000    0.0307404072963221
   0.0025020639425359   13.1259907871031718    0.0153491549821791
   0.0000000000000000    0.0000000000000000   27.3200000000000003
Ag H C S O
32 186 180 60 64
direct
   0.5870800000000000    0.6670400000000000    0.6247600000000000 Ag
   0.5870800000000000    0.6670400000000000    0.1247600000000000 Ag
   0.0870800000000000    0.6670400000000000    0.6247600000000000 Ag
   0.0870800000000000    0.6670400000000000    0.1247600000000000 Ag
   0.4129000000000000    0.3329200000000000    0.3752200000000000 Ag
   0.4129000000000000    0.3329200000000000    0.8752200000000000 Ag
   0.9129000000000000    0.3329200000000000    0.3752200000000000 Ag
   0.9129000000000000    0.3329200000000000    0.8752200000000000 Ag
   0.3377700000000000    0.1685200000000000    0.3756850000000000 Ag
   0.3377700000000000    0.1685200000000000    0.8756850000000000 Ag
   0.8377700000000000    0.1685200000000000    0.3756850000000000 Ag
   0.8377700000000000    0.1685200000000000    0.8756850000000000 Ag
   0.6622100000000000    0.8314500000000000    0.1242850000000000 Ag
   0.1622100000000000    0.8314500000000000    0.1242850000000000 Ag
   0.6622100000000000    0.8314500000000000    0.6242850000000000 Ag
   0.1622100000000000    0.8314500000000000    0.6242850000000000 Ag
   0.4155750000000000    0.1742200000000000    0.6255100000000000 Ag
   0.4155750000000000    0.1742200000000000    0.1255100000000000 Ag
   0.9155750000000000    0.1742200000000000    0.1255100000000000 Ag
   0.9155750000000000    0.1742200000000000    0.6255100000000000 Ag
   0.0844250000000000    0.8257800000000000    0.3744850000000000 Ag
   0.5844250000000000    0.8257800000000000    0.3744850000000000 Ag
   0.5844250000000000    0.8257800000000000    0.8744850000000000 Ag
   0.0844250000000000    0.8257800000000000    0.8744850000000000 Ag
   0.3337150000000000    0.3251000000000000    0.1253500000000000 Ag
   0.3337150000000000    0.3251000000000000    0.6253500000000000 Ag
   0.8337150000000000    0.3251000000000000    0.1253500000000000 Ag
   0.8337150000000000    0.3251000000000000    0.6253500000000000 Ag
   0.1662450000000000    0.6748300000000000    0.8746250000000000 Ag
   0.6662450000000000    0.6748300000000000    0.8746250000000000 Ag
   0.1662450000000000    0.6748300000000000    0.3746250000000000 Ag
   0.6662450000000000    0.6748300000000000    0.3746250000000000 Ag
   0.6053400000000000    0.5050400000000000    0.3029800000000000 H
   0.6030250000000000    0.5401899999999999    0.2386450000000000 H
   0.5719500000000000    0.6170099999999999    0.2843550000000000 H
   0.8946450000000000    0.4949300000000000    0.1969750000000000 H
   0.8969700000000000    0.4598000000000000    0.2613100000000000 H
   0.9280300000000000    0.3829600000000000    0.2156050000000000 H
   0.6557450000000000    0.4168100000000000    0.3528700000000000 H
   0.7109099999999999    0.3409900000000000    0.3672000000000000 H
   0.6784200000000000    0.4135700000000000    0.4142500000000000 H
   0.8442400000000000    0.5831200000000000    0.1471000000000000 H
   0.7890850000000000    0.6589600000000000    0.1327700000000000 H
   0.8215650000000000    0.5863600000000000    0.0857150000000000 H
   0.7527950000000000    0.2890000000000000    0.9472750000000000 H
   0.7701000000000000    0.2937100000000000    0.0116450000000000 H
   0.8085200000000000    0.3562000000000000    0.9659750000000000 H
   0.7472000000000000    0.7109000000000000    0.0527200000000000 H
   0.7299000000000000    0.7061600000000000    0.9883500000000001 H
   0.6914700000000000    0.6437000000000000    0.0340250000000000 H
   0.7086200000000000    0.1885400000000000    0.8964200000000000 H
   0.6711750000000000    0.0776100000000000    0.8819950000000000 H
   0.7078250000000000    0.1425400000000000    0.8351250000000000 H
   0.7913950000000001    0.8113800000000000    0.1035700000000000 H
   0.8288350000000000    0.9223200000000000    0.1180000000000000 H
   0.7921700000000000    0.8573900000000000    0.1648600000000000 H
   0.6053400000000000    0.5050400000000000    0.8029800000000000 H
   0.6030250000000000    0.5401899999999999    0.7386450000000000 H
   0.5719500000000000    0.6170099999999999    0.7843550000000000 H
   0.8946450000000000    0.4949300000000000    0.6969750000000000 H
   0.8969700000000000    0.4598000000000000    0.7613099999999999 H
   0.9280300000000000    0.3829600000000000    0.7156050000000000 H
   0.6557450000000000    0.4168100000000000    0.8528700000000000 H
   0.7109099999999999    0.3409900000000000    0.8672000000000000 H
   0.6784200000000000    0.4135700000000000    0.9142500000000000 H
   0.8442400000000000    0.5831200000000000    0.6471000000000000 H
   0.7890850000000000    0.6589600000000000    0.6327700000000001 H
   0.8215650000000000    0.5863600000000000    0.5857150000000000 H
   0.7527950000000000    0.2890000000000000    0.4472750000000000 H
   0.7701000000000000    0.2937100000000000    0.5116450000000000 H
   0.8085200000000000    0.3562000000000000    0.4659750000000000 H
   0.7472000000000000    0.7109000000000000    0.5527200000000000 H
   0.7299000000000000    0.7061600000000000    0.4883500000000000 H
   0.6914700000000000    0.6437000000000000    0.5340250000000000 H
   0.7086200000000000    0.1885400000000000    0.3964200000000000 H
   0.6711750000000000    0.0776100000000000    0.3819950000000000 H
   0.7078250000000000    0.1425400000000000    0.3351250000000000 H
   0.7913950000000001    0.8113800000000000    0.6035699999999999 H
   0.8288350000000000    0.9223200000000000    0.6180000000000000 H
   0.7921700000000000    0.8573900000000000    0.6648600000000000 H
   0.0029050000000000    0.7896500000000000    0.0529100000000000 H
   0.0204850000000000    0.7938600000000000    0.9884999999999999 H
   0.0589300000000000    0.8559700000000000    0.0341450000000000 H
   0.9970900000000000    0.2103700000000000    0.9470799999999999 H
   0.9795000000000000    0.2061500000000000    0.0114450000000000 H
   0.9410750000000000    0.1440200000000000    0.9658400000000000 H
   0.0414050000000000    0.3112900000000000    0.8971600000000000 H
   0.0795400000000000    0.4213700000000000    0.8827300000000000 H
   0.0430950000000000    0.3567700000000000    0.8357450000000000 H
   0.9585850000000000    0.6887300000000000    0.1028300000000000 H
   0.9204300000000001    0.5786800000000000    0.1172600000000000 H
   0.9568950000000001    0.6432600000000001    0.1642400000000000 H
   0.1447600000000000    0.9945800000000000    0.3017500000000000 H
   0.1464600000000000    0.9589200000000000    0.2375000000000000 H
   0.1779350000000000    0.8823900000000000    0.2830700000000000 H
   0.8552350000000000    0.0053900000000000    0.1982400000000000 H
   0.8535450000000000    0.0410400000000000    0.2624950000000000 H
   0.8220600000000000    0.1175800000000000    0.2169000000000000 H
   0.0948350000000000    0.0831800000000000    0.3526350000000000 H
   0.0397900000000000    0.1592800000000000    0.3671150000000000 H
   0.0721650000000000    0.0861800000000000    0.4140650000000000 H
   0.9051650000000000    0.9168200000000000    0.1473400000000000 H
   0.9602150000000000    0.8407200000000000    0.1328600000000000 H
   0.9278450000000000    0.9138300000000000    0.0859150000000000 H
   0.0029050000000000    0.7896500000000000    0.5529100000000000 H
   0.0204850000000000    0.7938600000000000    0.4885000000000000 H
   0.0589300000000000    0.8559700000000000    0.5341450000000000 H
   0.9970900000000000    0.2103700000000000    0.4470800000000000 H
   0.9795000000000000    0.2061500000000000    0.5114450000000000 H
   0.9410750000000000    0.1440200000000000    0.4658400000000000 H
   0.0414050000000000    0.3112900000000000    0.3971600000000000 H
   0.0795400000000000    0.4213700000000000    0.3827300000000000 H
   0.0430950000000000    0.3567700000000000    0.3357450000000000 H
   0.9585850000000000    0.6887300000000000    0.6028300000000000 H
   0.9204300000000001    0.5786800000000000    0.6172600000000000 H
   0.9568950000000001    0.6432600000000001    0.6642399999999999 H
   0.2396113639347940    0.7553046982273913    0.9243297085299769 H
   0.1304967284115454    0.9835833128283146    0.9208984024213739 H
   0.1864121645386536    0.8723279557691253    0.9237400242067096 H
   0.1447600000000000    0.9945800000000000    0.8017500000000000 H
   0.1464600000000000    0.9589200000000000    0.7375000000000000 H
   0.1779350000000000    0.8823900000000000    0.7830699999999999 H
   0.8552350000000000    0.0053900000000000    0.6982400000000000 H
   0.8535450000000000    0.0410400000000000    0.7624949999999999 H
   0.8220600000000000    0.1175800000000000    0.7169000000000000 H
   0.0948350000000000    0.0831800000000000    0.8526350000000000 H
   0.0397900000000000    0.1592800000000000    0.8671150000000001 H
   0.0721650000000000    0.0861800000000000    0.9140650000000000 H
   0.9051650000000000    0.9168200000000000    0.6473400000000000 H
   0.9602150000000000    0.8407200000000000    0.6328600000000000 H
   0.9278450000000000    0.9138300000000000    0.5859150000000000 H
   0.1053400000000000    0.5050400000000000    0.3029800000000000 H
   0.1030250000000000    0.5401899999999999    0.2386450000000000 H
   0.0719500000000000    0.6170099999999999    0.2843550000000000 H
   0.3946450000000000    0.4949300000000000    0.1969750000000000 H
   0.3969700000000000    0.4598000000000000    0.2613100000000000 H
   0.4280300000000000    0.3829600000000000    0.2156050000000000 H
   0.1557450000000000    0.4168100000000000    0.3528700000000000 H
   0.2109100000000000    0.3409900000000000    0.3672000000000000 H
   0.1784200000000000    0.4135700000000000    0.4142500000000000 H
   0.3442400000000000    0.5831200000000000    0.1471000000000000 H
   0.2890850000000000    0.6589600000000000    0.1327700000000000 H
   0.3215650000000000    0.5863600000000000    0.0857150000000000 H
   0.1053400000000000    0.5050400000000000    0.8029800000000000 H
   0.1030250000000000    0.5401899999999999    0.7386450000000000 H
   0.0719500000000000    0.6170099999999999    0.7843550000000000 H
   0.3946450000000000    0.4949300000000000    0.6969750000000000 H
   0.3969700000000000    0.4598000000000000    0.7613099999999999 H
   0.4280300000000000    0.3829600000000000    0.7156050000000000 H
   0.1557450000000000    0.4168100000000000    0.8528700000000000 H
   0.2109100000000000    0.3409900000000000    0.8672000000000000 H
   0.1784200000000000    0.4135700000000000    0.9142500000000000 H
   0.3442400000000000    0.5831200000000000    0.6471000000000000 H
   0.2890850000000000    0.6589600000000000    0.6327700000000001 H
   0.3215650000000000    0.5863600000000000    0.5857150000000000 H
   0.2527950000000000    0.2890000000000000    0.4472750000000000 H
   0.2701000000000000    0.2937100000000000    0.5116450000000000 H
   0.3085200000000000    0.3562000000000000    0.4659750000000000 H
   0.2472000000000000    0.7109000000000000    0.5527200000000000 H
   0.2299000000000000    0.7061600000000000    0.4883500000000000 H
   0.1914700000000000    0.6437000000000000    0.5340250000000000 H
   0.2086200000000000    0.1885400000000000    0.3964200000000000 H
   0.1711750000000000    0.0776100000000000    0.3819950000000000 H
   0.2078250000000000    0.1425400000000000    0.3351250000000000 H
   0.2913950000000000    0.8113800000000000    0.6035699999999999 H
   0.3288350000000000    0.9223200000000000    0.6180000000000000 H
   0.2921700000000000    0.8573900000000000    0.6648600000000000 H
   0.5029050000000000    0.7896500000000000    0.0529100000000000 H
   0.5204850000000000    0.7938600000000000    0.9884999999999999 H
   0.5589300000000000    0.8559700000000000    0.0341450000000000 H
   0.4970900000000000    0.2103700000000000    0.9470799999999999 H
   0.4795000000000000    0.2061500000000000    0.0114450000000000 H
   0.4410750000000000    0.1440200000000000    0.9658400000000000 H
   0.5414050000000000    0.3112900000000000    0.8971600000000000 H
   0.5795399999999999    0.4213700000000000    0.8827300000000000 H
   0.5430950000000000    0.3567700000000000    0.8357450000000000 H
   0.4585850000000000    0.6887300000000000    0.1028300000000000 H
   0.4204300000000000    0.5786800000000000    0.1172600000000000 H
   0.4568950000000000    0.6432600000000001    0.1642400000000000 H
   0.2603609496338406    0.2445893721135873    0.0756428996557316 H
   0.3695225974285452    0.0164128754623874    0.0790826813937279 H
   0.3135827537417171    0.1276211848319094    0.0762369224171497 H
   0.6447600000000000    0.9945800000000000    0.3017500000000000 H
   0.6464600000000000    0.9589200000000000    0.2375000000000000 H
   0.6779350000000000    0.8823900000000000    0.2830700000000000 H
   0.3552350000000000    0.0053900000000000    0.1982400000000000 H
   0.3535450000000000    0.0410400000000000    0.2624950000000000 H
   0.3220600000000000    0.1175800000000000    0.2169000000000000 H
   0.5948350000000000    0.0831800000000000    0.3526350000000000 H
   0.5397900000000000    0.1592800000000000    0.3671150000000000 H
   0.5721650000000000    0.0861800000000000    0.4140650000000000 H
   0.4051650000000000    0.9168200000000000    0.1473400000000000 H
   0.4602150000000000    0.8407200000000000    0.1328600000000000 H
   0.4278450000000000    0.9138300000000000    0.0859150000000000 H
   0.5029050000000000    0.7896500000000000    0.5529100000000000 H
   0.5204850000000000    0.7938600000000000    0.4885000000000000 H
   0.5589300000000000    0.8559700000000000    0.5341450000000000 H
   0.4970900000000000    0.2103700000000000    0.4470800000000000 H
   0.4795000000000000    0.2061500000000000    0.5114450000000000 H
   0.4410750000000000    0.1440200000000000    0.4658400000000000 H
   0.5414050000000000    0.3112900000000000    0.3971600000000000 H
   0.5795399999999999    0.4213700000000000    0.3827300000000000 H
   0.5430950000000000    0.3567700000000000    0.3357450000000000 H
   0.4585850000000000    0.6887300000000000    0.6028300000000000 H
   0.4204300000000000    0.5786800000000000    0.6172600000000000 H
   0.4568950000000000    0.6432600000000001    0.6642399999999999 H
   0.6447600000000000    0.9945800000000000    0.8017500000000000 H
   0.6464600000000000    0.9589200000000000    0.7375000000000000 H
   0.6779350000000000    0.8823900000000000    0.7830699999999999 H
   0.3552350000000000    0.0053900000000000    0.6982400000000000 H
   0.3535450000000000    0.0410400000000000    0.7624949999999999 H
   0.3220600000000000    0.1175800000000000    0.7169000000000000 H
   0.5948350000000000    0.0831800000000000    0.8526350000000000 H
   0.5397900000000000    0.1592800000000000    0.8671150000000001 H
   0.5721650000000000    0.0861800000000000    0.9140650000000000 H
   0.4051650000000000    0.9168200000000000    0.6473400000000000 H
   0.4602150000000000    0.8407200000000000    0.6328600000000000 H
   0.4278450000000000    0.9138300000000000    0.5859150000000000 H
   0.6045850000000000    0.5675400000000000    0.2764900000000000 C
   0.8953949999999999    0.4324400000000000    0.2234700000000000 C
   0.6898050000000000    0.4107100000000000    0.3756450000000000 C
   0.8101800000000000    0.5892300000000000    0.1243300000000000 C
   0.8105050000000000    0.3807300000000000    0.3197550000000000 C
   0.6894899999999999    0.6192800000000001    0.1802300000000000 C
   0.7208050000000000    0.5557500000000000    0.2159900000000000 C
   0.7598150000000000    0.4910200000000000    0.1992250000000000 C
   0.7106700000000000    0.5639500000000000    0.2665350000000000 C
   0.7791750000000000    0.4442200000000000    0.2839850000000000 C
   0.7401700000000000    0.5089700000000000    0.3007550000000000 C
   0.7893200000000000    0.4360400000000000    0.2334400000000000 C
   0.7839000000000000    0.2906800000000000    0.9738050000000000 C
   0.7160950000000000    0.7092000000000001    0.0261900000000000 C
   0.7059900000000000    0.1200900000000000    0.8737500000000000 C
   0.7940150000000000    0.8798400000000000    0.1262100000000000 C
   0.8097000000000000    0.1198500000000000    0.0698900000000000 C
   0.6903000000000000    0.8800900000000000    0.9300800000000000 C
   0.7779450000000000    0.0577000000000000    0.0340500000000000 C
   0.7453600000000000    0.9799400000000000    0.0507500000000000 C
   0.7822000000000000    0.0784200000000000    0.9835450000000000 C
   0.7220700000000000    0.9421900000000000    0.9659150000000001 C
   0.7546550000000001    0.0199500000000000    0.9492350000000001 C
   0.7178100000000001    0.9215100000000001    0.0164350000000000 C
   0.6045850000000000    0.5675400000000000    0.7764900000000000 C
   0.8953949999999999    0.4324400000000000    0.7234700000000001 C
   0.6898050000000000    0.4107100000000000    0.8756450000000000 C
   0.8101800000000000    0.5892300000000000    0.6243300000000001 C
   0.8105050000000000    0.3807300000000000    0.8197550000000000 C
   0.6894899999999999    0.6192800000000001    0.6802300000000000 C
   0.7208050000000000    0.5557500000000000    0.7159900000000000 C
   0.7598150000000000    0.4910200000000000    0.6992250000000000 C
   0.7106700000000000    0.5639500000000000    0.7665350000000000 C
   0.7791750000000000    0.4442200000000000    0.7839849999999999 C
   0.7401700000000000    0.5089700000000000    0.8007550000000000 C
   0.7893200000000000    0.4360400000000000    0.7334400000000000 C
   0.7839000000000000    0.2906800000000000    0.4738050000000000 C
   0.7160950000000000    0.7092000000000001    0.5261900000000000 C
   0.7059900000000000    0.1200900000000000    0.3737500000000000 C
   0.7940150000000000    0.8798400000000000    0.6262099999999999 C
   0.8097000000000000    0.1198500000000000    0.5698900000000000 C
   0.6903000000000000    0.8800900000000000    0.4300800000000000 C
   0.7779450000000000    0.0577000000000000    0.5340500000000000 C
   0.7453600000000000    0.9799400000000000    0.5507500000000000 C
   0.7822000000000000    0.0784200000000000    0.4835450000000000 C
   0.7220700000000000    0.9421900000000000    0.4659150000000000 C
   0.7546550000000001    0.0199500000000000    0.4492350000000000 C
   0.7178100000000001    0.9215100000000001    0.5164350000000000 C
   0.0341100000000000    0.7907700000000000    0.0264150000000000 C
   0.9658800000000001    0.2092400000000000    0.9735750000000001 C
   0.0446150000000000    0.3795100000000000    0.8743400000000000 C
   0.9553650000000000    0.6205200000000000    0.1255000000000000 C
   0.9396500000000000    0.3794800000000000    0.0696100000000000 C
   0.0603250000000000    0.6205000000000001    0.9303750000000000 C
   0.0282150000000000    0.5581199999999999    0.9660500000000001 C
   0.9956849999999999    0.4804800000000000    0.9492149999999999 C
   0.0320450000000000    0.5783300000000000    0.0166150000000000 C
   0.0042700000000000    0.5195200000000000    0.0507700000000000 C
   0.9717350000000000    0.4419100000000000    0.0339300000000000 C
   0.9679150000000001    0.4216500000000000    0.9833650000000000 C
   0.1452450000000000    0.9318700000000000    0.2754350000000000 C
   0.8547549999999999    0.0681000000000000    0.2245600000000000 C
   0.0607800000000000    0.0893700000000000    0.3754750000000000 C
   0.9392250000000000    0.9106300000000001    0.1245000000000000 C
   0.0596400000000000    0.8790900000000000    0.1801500000000000 C
   0.9403600000000000    0.1209100000000000    0.3197900000000000 C
   0.0101400000000000    0.9914700000000000    0.3007200000000000 C
   0.9713350000000001    0.0567300000000000    0.2840200000000000 C
   0.9608150000000000    0.0643400000000000    0.2335400000000000 C
   0.0286650000000000    0.9432600000000000    0.2159650000000000 C
   0.9898650000000000    0.0085200000000000    0.1992700000000000 C
   0.0391800000000000    0.9356500000000000    0.2664500000000000 C
   0.0341100000000000    0.7907700000000000    0.5264150000000000 C
   0.9658800000000001    0.2092400000000000    0.4735750000000000 C
   0.0446150000000000    0.3795100000000000    0.3743400000000000 C
   0.9553650000000000    0.6205200000000000    0.6254999999999999 C
   0.9396500000000000    0.3794800000000000    0.5696099999999999 C
   0.0603250000000000    0.6205000000000001    0.4303750000000000 C
   0.0282150000000000    0.5581199999999999    0.4660500000000000 C
   0.9956849999999999    0.4804800000000000    0.4492150000000000 C
   0.0320450000000000    0.5783300000000000    0.5166150000000000 C
   0.0042700000000000    0.5195200000000000    0.5507700000000000 C
   0.9717350000000000    0.4419100000000000    0.5339300000000000 C
   0.9679150000000001    0.4216500000000000    0.4833650000000000 C
   0.1452450000000000    0.9318700000000000    0.7754350000000000 C
   0.8547549999999999    0.0681000000000000    0.7245600000000000 C
   0.0607800000000000    0.0893700000000000    0.8754750000000000 C
   0.9392250000000000    0.9106300000000001    0.6245000000000001 C
   0.0596400000000000    0.8790900000000000    0.6801500000000000 C
   0.9403600000000000    0.1209100000000000    0.8197900000000000 C
   0.0101400000000000    0.9914700000000000    0.8007200000000000 C
   0.9713350000000001    0.0567300000000000    0.7840199999999999 C
   0.9608150000000000    0.0643400000000000    0.7335400000000000 C
   0.0286650000000000    0.9432600000000000    0.7159650000000000 C
   0.9898650000000000    0.0085200000000000    0.6992700000000001 C
   0.0391800000000000    0.9356500000000000    0.7664500000000001 C
   0.1045850000000000    0.5675400000000000    0.2764900000000000 C
   0.3953950000000000    0.4324400000000000    0.2234700000000000 C
   0.1898050000000000    0.4107100000000000    0.3756450000000000 C
   0.3101800000000000    0.5892300000000000    0.1243300000000000 C
   0.3105050000000000    0.3807300000000000    0.3197550000000000 C
   0.1894900000000000    0.6192800000000001    0.1802300000000000 C
   0.2208050000000000    0.5557500000000000    0.2159900000000000 C
   0.2598150000000000    0.4910200000000000    0.1992250000000000 C
   0.2106700000000000    0.5639500000000000    0.2665350000000000 C
   0.2791750000000000    0.4442200000000000    0.2839850000000000 C
   0.2401700000000000    0.5089700000000000    0.3007550000000000 C
   0.2893200000000000    0.4360400000000000    0.2334400000000000 C
   0.1045850000000000    0.5675400000000000    0.7764900000000000 C
   0.3953950000000000    0.4324400000000000    0.7234700000000001 C
   0.1898050000000000    0.4107100000000000    0.8756450000000000 C
   0.3101800000000000    0.5892300000000000    0.6243300000000001 C
   0.3105050000000000    0.3807300000000000    0.8197550000000000 C
   0.1894900000000000    0.6192800000000001    0.6802300000000000 C
   0.2208050000000000    0.5557500000000000    0.7159900000000000 C
   0.2598150000000000    0.4910200000000000    0.6992250000000000 C
   0.2106700000000000    0.5639500000000000    0.7665350000000000 C
   0.2791750000000000    0.4442200000000000    0.7839849999999999 C
   0.2401700000000000    0.5089700000000000    0.8007550000000000 C
   0.2893200000000000    0.4360400000000000    0.7334400000000000 C
   0.2839000000000000    0.2906800000000000    0.4738050000000000 C
   0.2160950000000000    0.7092000000000001    0.5261900000000000 C
   0.2059900000000000    0.1200900000000000    0.3737500000000000 C
   0.2940150000000000    0.8798400000000000    0.6262099999999999 C
   0.3097000000000000    0.1198500000000000    0.5698900000000000 C
   0.1903000000000000    0.8800900000000000    0.4300800000000000 C
   0.2779450000000000    0.0577000000000000    0.5340500000000000 C
   0.2453600000000000    0.9799400000000000    0.5507500000000000 C
   0.2822000000000000    0.0784200000000000    0.4835450000000000 C
   0.2220700000000000    0.9421900000000000    0.4659150000000000 C
   0.2546550000000000    0.0199500000000000    0.4492350000000000 C
   0.2178100000000000    0.9215100000000001    0.5164350000000000 C
   0.5341100000000000    0.7907700000000000    0.0264150000000000 C
   0.4658800000000000    0.2092400000000000    0.9735750000000001 C
   0.5446150000000000    0.3795100000000000    0.8743400000000000 C
   0.4553650000000000    0.6205200000000000    0.1255000000000000 C
   0.4396500000000000    0.3794800000000000    0.0696100000000000 C
   0.5603250000000000    0.6205000000000001    0.9303750000000000 C
   0.4956850000000000    0.4804800000000000    0.9492149999999999 C
   0.5282150000000000    0.5581199999999999    0.9660500000000001 C
   0.5320450000000000    0.5783300000000000    0.0166150000000000 C
   0.4717350000000000    0.4419100000000000    0.0339300000000000 C
   0.5042700000000000    0.5195200000000000    0.0507700000000000 C
   0.4679150000000000    0.4216500000000000    0.9833650000000000 C
   0.6452450000000001    0.9318700000000000    0.2754350000000000 C
   0.3547550000000000    0.0681000000000000    0.2245600000000000 C
   0.5607800000000001    0.0893700000000000    0.3754750000000000 C
   0.4392250000000000    0.9106300000000001    0.1245000000000000 C
   0.5596400000000000    0.8790900000000000    0.1801500000000000 C
   0.4403600000000000    0.1209100000000000    0.3197900000000000 C
   0.4713350000000000    0.0567300000000000    0.2840200000000000 C
   0.5101400000000000    0.9914700000000000    0.3007200000000000 C
   0.4608150000000000    0.0643400000000000    0.2335400000000000 C
   0.4898650000000000    0.0085200000000000    0.1992700000000000 C
   0.5286650000000001    0.9432600000000000    0.2159650000000000 C
   0.5391800000000000    0.9356500000000000    0.2664500000000000 C
   0.5341100000000000    0.7907700000000000    0.5264150000000000 C
   0.4658800000000000    0.2092400000000000    0.4735750000000000 C
   0.5446150000000000    0.3795100000000000    0.3743400000000000 C
   0.4553650000000000    0.6205200000000000    0.6254999999999999 C
   0.4396500000000000    0.3794800000000000    0.5696099999999999 C
   0.5603250000000000    0.6205000000000001    0.4303750000000000 C
   0.4956850000000000    0.4804800000000000    0.4492150000000000 C
   0.5282150000000000    0.5581199999999999    0.4660500000000000 C
   0.5320450000000000    0.5783300000000000    0.5166150000000000 C
   0.4717350000000000    0.4419100000000000    0.5339300000000000 C
   0.5042700000000000    0.5195200000000000    0.5507700000000000 C
   0.4679150000000000    0.4216500000000000    0.4833650000000000 C
   0.6452450000000001    0.9318700000000000    0.7754350000000000 C
   0.3547550000000000    0.0681000000000000    0.7245600000000000 C
   0.5607800000000001    0.0893700000000000    0.8754750000000000 C
   0.4392250000000000    0.9106300000000001    0.6245000000000001 C
   0.5596400000000000    0.8790900000000000    0.6801500000000000 C
   0.4403600000000000    0.1209100000000000    0.8197900000000000 C
   0.4713350000000000    0.0567300000000000    0.7840199999999999 C
   0.5101400000000000    0.9914700000000000    0.8007200000000000 C
   0.4608150000000000    0.0643400000000000    0.7335400000000000 C
   0.4898650000000000    0.0085200000000000    0.6992700000000001 C
   0.5286650000000001    0.9432600000000000    0.7159650000000000 C
   0.5391800000000000    0.9356500000000000    0.7664500000000001 C
   0.6602500000000000    0.6487000000000001    0.2831300000000000 S
   0.8397350000000000    0.3512600000000000    0.2168500000000000 S
   0.7684599999999999    0.4808700000000000    0.1344500000000000 S
   0.7315150000000000    0.5190900000000001    0.3655300000000000 S
   0.6753950000000000    0.8205000000000000    0.0328000000000000 S
   0.8246249999999999    0.1794200000000000    0.9671750000000000 S
   0.7398000000000000    0.9627700000000000    0.1155050000000000 S
   0.7602000000000000    0.0371500000000000    0.8844799999999999 S
   0.6602500000000000    0.6487000000000001    0.7831300000000000 S
   0.8397350000000000    0.3512600000000000    0.7168500000000000 S
   0.7684599999999999    0.4808700000000000    0.6344500000000000 S
   0.7315150000000000    0.5190900000000001    0.8655300000000000 S
   0.6753950000000000    0.8205000000000000    0.5328000000000001 S
   0.8246249999999999    0.1794200000000000    0.4671750000000000 S
   0.7398000000000000    0.9627700000000000    0.6155050000000000 S
   0.7602000000000000    0.0371500000000000    0.3844800000000000 S
   0.0744550000000000    0.6790100000000000    0.0332900000000000 S
   0.9255100000000001    0.3209600000000000    0.9666900000000000 S
   0.9907000000000000    0.4635300000000000    0.8844300000000000 S
   0.0092650000000000    0.5364600000000000    0.1155550000000000 S
   0.9103800000000000    0.1491700000000000    0.2170900000000000 S
   0.0896150000000000    0.8508100000000000    0.2829000000000000 S
   0.0189300000000000    0.9812900000000000    0.3654700000000000 S
   0.9810700000000000    0.0187100000000000    0.1345200000000000 S
   0.0744550000000000    0.6790100000000000    0.5332900000000000 S
   0.9255100000000001    0.3209600000000000    0.4666900000000000 S
   0.9907000000000000    0.4635300000000000    0.3844300000000000 S
   0.0092650000000000    0.5364600000000000    0.6155550000000000 S
   0.9103800000000000    0.1491700000000000    0.7170900000000000 S
   0.0896150000000000    0.8508100000000000    0.7828999999999999 S
   0.0189300000000000    0.9812900000000000    0.8654700000000000 S
   0.9810700000000000    0.0187100000000000    0.6345200000000000 S
   0.1602500000000000    0.6487000000000001    0.2831300000000000 S
   0.3397350000000000    0.3512600000000000    0.2168500000000000 S
   0.2684600000000000    0.4808700000000000    0.1344500000000000 S
   0.2315150000000000    0.5190900000000001    0.3655300000000000 S
   0.1602500000000000    0.6487000000000001    0.7831300000000000 S
   0.3397350000000000    0.3512600000000000    0.7168500000000000 S