H12 O6
1.0
  26.7020440587815244    0.0000000000000000   15.3946915228233863
   8.8872199144524924   25.1905166467463850   15.4130072750956817
   0.0000000000000000    0.0000000000000000   30.8219999999999992
H O
12 6
direct
   0.5615591096104483    0.6622154340387223    0.0614758486198113 H
   0.5615496681644749    0.7146590888945896    0.0615763261058572 H
   0.5723946312576353    0.7040745175783940    0.0724629498191196 H
   0.5601222368461797    0.7000962577777314    0.0599074893157681 H
   0.5354148113856178    0.7414336569243707    0.0354476890092162 H
   0.5354050064482009    0.6877141059089384    0.0353448775289685 H
   0.4384616405320165    0.8377922153257510    0.9385106218416311 H
   0.4384640210408818    0.7853408390211731    0.9384286972305216 H
   0.4276216900111337    0.7959230224682938    0.9275382996717083 H
   0.4399039200546439    0.7999117167528755    0.9400085730697332 H
   0.4645982101684645    0.7585675036548958    0.9645588927520192 H
   0.4645986471696940    0.8122968974222772    0.9646422815691951 H
   0.5569600000000000    0.6572500000000000    0.0568500000000000 O
   0.5569600000000000    0.7287950000000000    0.0570000000000000 O
   0.5741600000000000    0.6758200000000000    0.0741500000000000 O
   0.4430550000000000    0.8427500000000000    0.9431200000000000 O
   0.4430550000000000    0.7712049999999999    0.9430050000000000 O
   0.4258500000000000    0.8241800000000000    0.9258550000000000 O
