H12 O6
1.0
  26.7020440587815244    0.0000000000000000   15.3946915228233863
   8.8872199144524924   25.1905166467463850   15.4130072750956817
   0.0000000000000000    0.0000000000000000   30.8219999999999992
H O
12 6
direct
   0.2147040927791810    0.0615714234054136    0.1622120817618763 H
   0.1622186164588162    0.0616122411317427    0.2147222199706139 H
   0.1937482899593397    0.0671681778112202    0.1719294995998165 H
   0.1719157760533585    0.0672737599595949    0.1937811950337938 H
   0.1877087256422289    0.0354666680264203    0.2414987672359333 H
   0.2414750159416671    0.0354166582569903    0.1877052993932521 H
   0.2853109072208191    0.9384285765945864    0.3377929182381237 H
   0.3377963835411838    0.9383877588682572    0.2852827800293862 H
   0.3062661122001624    0.9328314058481273    0.3280776725331960 H
   0.3280922957692902    0.9327271379518501    0.3062225549489883 H
   0.3123044396002349    0.9645346308068496    0.2585090334358317 H
   0.2585371844288048    0.9645820416911657    0.3123015379073794 H
   0.2288500000000000    0.0569700000000000    0.1572450000000000 O
   0.1572550000000000    0.0570250000000000    0.2288750000000000 O
   0.1758500000000000    0.0742100000000000    0.1758550000000000 O
   0.2711650000000000    0.9430300000000000    0.3427600000000000 O
   0.3427600000000000    0.9429750000000000    0.2711300000000000 O
   0.3241650000000000    0.9257900000000000    0.3241500000000000 O
