H1 C5 N6
1.0
  26.7020440587815244    0.0000000000000000   15.3946915228233863
   8.8872199144524924   25.1905166467463850   15.4130072750956817
   0.0000000000000000    0.0000000000000000   30.8219999999999992
H C N
1 5 6
direct
   0.1663450000000000    0.9999600000000000    0.4999400000000000 H
   0.2534200000000000    0.9732900000000000    0.4733150000000000 C
   0.3000000000000000    0.9733100000000000    0.4733000000000000 C
   0.2017000000000000    0.9999800000000000    0.4999650000000000 C
   0.2000150000000000    0.0266900000000000    0.5266700000000000 C
   0.2465950000000000    0.0267100000000000    0.5266950000000000 C
   0.2711300000000000    0.9430450000000000    0.4430950000000000 N
   0.3427450000000000    0.9430700000000001    0.4431300000000000 N
   0.3241300000000000    0.9258649999999999    0.4259150000000000 N
   0.1572650000000000    0.0569300000000000    0.5568800000000000 N
   0.2288850000000000    0.0569550000000000    0.5569100000000000 N
   0.1758800000000000    0.0741350000000000    0.5740950000000000 N
