Zn80 H98 C283 N282 Cl64 O6
1.0
  26.7020440587815244    0.0000000000000000   15.3946915228233863
   8.8872199144524924   25.1905166467463850   15.4130072750956817
   0.0000000000000000    0.0000000000000000   30.8219999999999992
Zn H C N Cl O
80 98 283 282 64 6
direct
   0.2687750000000000    0.0771400000000000    0.5770550000000000 Zn
   0.7312400000000000    0.4228600000000000    0.9229550000000000 Zn
   0.7687750000000000    0.5771400000000000    0.0770550000000000 Zn
   0.2312400000000000    0.4228600000000000    0.9229550000000000 Zn
   0.2687750000000000    0.5771400000000000    0.0770550000000000 Zn
   0.7312400000000000    0.4228600000000000    0.4229550000000000 Zn
   0.7687750000000000    0.5771400000000000    0.5770550000000000 Zn
   0.2312400000000000    0.4228600000000000    0.4229550000000000 Zn
   0.2687750000000000    0.5771400000000000    0.5770550000000000 Zn
   0.5771400000000000    0.2686950000000000    0.0771100000000000 Zn
   0.4228750000000000    0.2313050000000000    0.4229000000000000 Zn
   0.5771400000000000    0.2686950000000000    0.5771100000000000 Zn
   0.4228750000000000    0.2313050000000000    0.9229000000000001 Zn
   0.0771400000000000    0.2686950000000000    0.5771100000000000 Zn
   0.9228750000000000    0.2313050000000000    0.9229000000000001 Zn
   0.0771400000000000    0.2686950000000000    0.0771100000000000 Zn
   0.9228750000000000    0.2313050000000000    0.4229000000000000 Zn
   0.9229400000000000    0.4228750000000000    0.7312000000000000 Zn
   0.9229400000000000    0.4228750000000000    0.2312000000000000 Zn
   0.4229400000000000    0.4228750000000000    0.2312000000000000 Zn
   0.4229400000000000    0.4228750000000000    0.7312000000000000 Zn
   0.5770750000000000    0.0771250000000000    0.2688100000000000 Zn
   0.0770750000000000    0.0771250000000000    0.2688100000000000 Zn
   0.0770750000000000    0.0771250000000000    0.7688100000000000 Zn
   0.5770750000000000    0.0771250000000000    0.7688100000000000 Zn
   0.7312400000000000    0.9228600000000000    0.9229550000000000 Zn
   0.7687750000000000    0.0771400000000000    0.0770550000000000 Zn
   0.2312400000000000    0.9228600000000000    0.9229550000000000 Zn
   0.2687750000000000    0.0771400000000000    0.0770550000000000 Zn
   0.7312400000000000    0.9228600000000000    0.4229550000000000 Zn
   0.7687750000000000    0.0771400000000000    0.5770550000000000 Zn
   0.2312400000000000    0.9228600000000000    0.4229550000000000 Zn
   0.0771400000000000    0.7686950000000000    0.5771100000000000 Zn
   0.9228750000000000    0.7313050000000000    0.9229000000000001 Zn
   0.0771400000000000    0.7686950000000000    0.0771100000000000 Zn
   0.9228750000000000    0.7313050000000000    0.4229000000000000 Zn
   0.5771400000000000    0.7686950000000000    0.0771100000000000 Zn
   0.4228750000000000    0.7313050000000000    0.4229000000000000 Zn
   0.5771400000000000    0.7686950000000000    0.5771100000000000 Zn
   0.4228750000000000    0.7313050000000000    0.9229000000000001 Zn
   0.9229400000000000    0.9228750000000000    0.7312000000000000 Zn
   0.4229400000000000    0.9228750000000000    0.2312000000000000 Zn
   0.9229400000000000    0.9228750000000000    0.2312000000000000 Zn
   0.4229400000000000    0.9228750000000000    0.7312000000000000 Zn
   0.0770750000000000    0.5771250000000000    0.2688100000000000 Zn
   0.5770750000000000    0.5771250000000000    0.2688100000000000 Zn
   0.0770750000000000    0.5771250000000000    0.7688100000000000 Zn
   0.5770750000000000    0.5771250000000000    0.7688100000000000 Zn
   0.9229400000000000    0.4229050000000000    0.9229849999999999 Zn
   0.9229400000000000    0.4229050000000000    0.4229850000000000 Zn
   0.4229400000000000    0.9229050000000000    0.9229849999999999 Zn
   0.4229400000000000    0.9229050000000000    0.4229850000000000 Zn
   0.4229400000000000    0.4229050000000000    0.9229849999999999 Zn
   0.4229400000000000    0.4229050000000000    0.4229850000000000 Zn
   0.9229400000000000    0.9229050000000000    0.9229849999999999 Zn
   0.9229400000000000    0.9229050000000000    0.4229850000000000 Zn
   0.0770700000000000    0.5770950000000000    0.0770200000000000 Zn
   0.0770700000000000    0.5770950000000000    0.5770200000000000 Zn
   0.0770700000000000    0.0770950000000000    0.0770200000000000 Zn
   0.5770700000000000    0.5770950000000000    0.0770200000000000 Zn
   0.0770700000000000    0.0770950000000000    0.5770200000000000 Zn
   0.5770700000000000    0.5770950000000000    0.5770200000000000 Zn
   0.5770700000000000    0.0770950000000000    0.0770200000000000 Zn
   0.5770700000000000    0.0770950000000000    0.5770200000000000 Zn
   0.1250150000000000    0.1249950000000000    0.6250100000000001 Zn
   0.1250150000000000    0.6249950000000000    0.6250100000000001 Zn
   0.1250150000000000    0.1249950000000000    0.1250100000000000 Zn
   0.6250150000000000    0.1249950000000000    0.6250100000000001 Zn
   0.6250150000000000    0.1249950000000000    0.1250100000000000 Zn
   0.1250150000000000    0.6249950000000000    0.1250100000000000 Zn
   0.6250150000000000    0.6249950000000000    0.1250100000000000 Zn
   0.6250150000000000    0.6249950000000000    0.6250100000000001 Zn
   0.8750000000000000    0.8750050000000000    0.8750000000000000 Zn
   0.8750000000000000    0.3750050000000000    0.8750000000000000 Zn
   0.3750000000000000    0.3750050000000000    0.3750000000000000 Zn
   0.3750000000000000    0.8750050000000000    0.3750000000000000 Zn
   0.8750000000000000    0.8750050000000000    0.3750000000000000 Zn
   0.8750000000000000    0.3750050000000000    0.3750000000000000 Zn
   0.3750000000000000    0.3750050000000000    0.8750000000000000 Zn
   0.3750000000000000    0.8750050000000000    0.8750000000000000 Zn
   0.5000700000000000    0.9999000000000000    0.6663100000000000 H
   0.4999350000000000    0.0001000000000000    0.8337000000000000 H
   0.5000700000000000    0.4999000000000000    0.6663100000000000 H
   0.4999350000000000    0.5001000000000000    0.8337000000000000 H
   0.5000700000000000    0.4999000000000000    0.1663100000000000 H
   0.4999350000000000    0.5001000000000000    0.3337000000000000 H
   0.5000700000000000    0.9999000000000000    0.1663100000000000 H
   0.4999350000000000    0.0001000000000000    0.3337000000000000 H
   0.0000700000000000    0.4999000000000000    0.1663100000000000 H
   0.9999350000000000    0.5001000000000000    0.3337000000000000 H
   0.0000700000000000    0.4999000000000000    0.6663100000000000 H
   0.9999350000000000    0.5001000000000000    0.8337000000000000 H
   0.0000700000000000    0.9999000000000000    0.6663100000000000 H
   0.9999350000000000    0.0001000000000000    0.8337000000000000 H
   0.0000700000000000    0.9999000000000000    0.1663100000000000 H
   0.9999350000000000    0.0001000000000000    0.3337000000000000 H
   0.8336450000000000    0.9999350000000000    0.6663100000000000 H
   0.6663650000000000    0.0000600000000000    0.8337000000000000 H
   0.3336450000000000    0.4999350000000000    0.1663100000000000 H
   0.1663650000000000    0.5000599999999999    0.3337000000000000 H
   0.8336450000000000    0.9999350000000000    0.1663100000000000 H
   0.6663650000000000    0.0000600000000000    0.3337000000000000 H
   0.3336450000000000    0.9999350000000000    0.1663100000000000 H
   0.1663650000000000    0.0000600000000000    0.3337000000000000 H
   0.8336450000000000    0.4999350000000000    0.1663100000000000 H
   0.6663650000000000    0.5000599999999999    0.3337000000000000 H
   0.3336450000000000    0.4999350000000000    0.6663100000000000 H
   0.1663650000000000    0.5000599999999999    0.8337000000000000 H
   0.3336450000000000    0.9999350000000000    0.6663100000000000 H
   0.1663650000000000    0.0000600000000000    0.8337000000000000 H
   0.8336450000000000    0.4999350000000000    0.6663100000000000 H
   0.6663650000000000    0.5000599999999999    0.8337000000000000 H
   0.1622334302563257    0.0615220946849360    0.5614747637315417 H
   0.2147346120112440    0.0615414289340030    0.5614977637503400 H
   0.2041523968538020    0.0723667359096606    0.5723125180777855 H
   0.2000901232746919    0.0600413358437284    0.5599928128137416 H
   0.1877083480396709    0.0353953369656223    0.5353667007186326 H
   0.2414998395941578    0.0354114752385487    0.5353878442497190 H
   0.6663450000000000    0.4999600000000000    0.9999400000000001 H
   0.1663450000000000    0.4999600000000000    0.9999400000000001 H
   0.6663450000000000    0.4999600000000000    0.4999400000000000 H
   0.1663450000000000    0.4999600000000000    0.4999400000000000 H
   0.8336800000000000    0.1664250000000000    0.4998700000000000 H
   0.6663300000000000    0.3335800000000000    0.5001250000000000 H
   0.8336800000000000    0.1664250000000000    0.9998700000000000 H
   0.6663300000000000    0.3335800000000000    0.0001250000000000 H
   0.4999350000000000    0.1664100000000000    0.3337450000000000 H
   0.5000700000000000    0.3335900000000000    0.1662600000000000 H
   0.4999900000000000    0.1664350000000000    0.4998250000000000 H
   0.5000100000000000    0.3335700000000000    0.5001700000000000 H
   0.4999350000000000    0.1664100000000000    0.8337450000000000 H
   0.5000700000000000    0.3335900000000000    0.6662600000000000 H
   0.4999900000000000    0.1664350000000000    0.9998250000000000 H
   0.5000100000000000    0.3335700000000000    0.0001700000000000 H
   0.3336800000000000    0.1664250000000000    0.4998700000000000 H
   0.1663300000000000    0.3335800000000000    0.5001250000000000 H
   0.3336800000000000    0.1664250000000000    0.9998700000000000 H
   0.1663300000000000    0.3335800000000000    0.0001250000000000 H
   0.9999350000000000    0.1664100000000000    0.8337450000000000 H
   0.0000700000000000    0.3335900000000000    0.6662600000000000 H
   0.9999899999999999    0.1664350000000000    0.9998250000000000 H
   0.0000100000000000    0.3335700000000000    0.0001700000000000 H
   0.9999350000000000    0.1664100000000000    0.3337450000000000 H
   0.0000700000000000    0.3335900000000000    0.1662600000000000 H
   0.9999899999999999    0.1664350000000000    0.4998250000000000 H
   0.0000100000000000    0.3335700000000000    0.5001700000000000 H
   0.6663450000000000    0.9999600000000000    0.9999400000000001 H
   0.1663450000000000    0.9999600000000000    0.9999400000000001 H
   0.6663450000000000    0.9999600000000000    0.4999400000000000 H
   0.3377765697436743    0.9384779053150640    0.4385352362684584 H
   0.3122895607874775    0.9646157359173396    0.4646258615286420 H
   0.2852754139341374    0.9384597507285193    0.4385097507285192 H
   0.2999129876207183    0.9399523638563215    0.4400439609330688 H
   0.2585163189545033    0.9645865462010754    0.4646187403272111 H
   0.3336800000000000    0.6664250000000000    0.9998700000000000 H
   0.1663300000000000    0.8335800000000000    0.0001250000000000 H
   0.3336800000000000    0.6664250000000000    0.4998700000000000 H
   0.1663300000000000    0.8335800000000000    0.5001250000000000 H
   0.9999350000000000    0.6664099999999999    0.8337450000000000 H
   0.0000700000000000    0.8335900000000001    0.6662600000000000 H
   0.9999899999999999    0.6664350000000000    0.9998250000000000 H
   0.0000100000000000    0.8335699999999999    0.0001700000000000 H
   0.9999350000000000    0.6664099999999999    0.3337450000000000 H
   0.0000700000000000    0.8335900000000001    0.1662600000000000 H
   0.9999899999999999    0.6664350000000000    0.4998250000000000 H
   0.0000100000000000    0.8335699999999999    0.5001700000000000 H
   0.8336800000000000    0.6664250000000000    0.4998700000000000 H
   0.6663300000000000    0.8335800000000000    0.5001250000000000 H
   0.8336800000000000    0.6664250000000000    0.9998700000000000 H
   0.6663300000000000    0.8335800000000000    0.0001250000000000 H
   0.4999350000000000    0.6664099999999999    0.3337450000000000 H
   0.5000700000000000    0.8335900000000001    0.1662600000000000 H
   0.4999900000000000    0.6664350000000000    0.4998250000000000 H
   0.5000100000000000    0.8335699999999999    0.5001700000000000 H
   0.4999350000000000    0.6664099999999999    0.8337450000000000 H
   0.5000700000000000    0.8335900000000001    0.6662600000000000 H
   0.4999900000000000    0.6664350000000000    0.9998250000000000 H
   0.5000100000000000    0.8335699999999999    0.0001700000000000 H
   0.5266900000000000    0.0267250000000000    0.7465950000000000 C
   0.5267250000000000    0.0266750000000000    0.7000050000000000 C
   0.5000450000000000    0.9999350000000000    0.7016850000000000 C
   0.4999550000000000    0.0000600000000000    0.7983250000000000 C
   0.4733250000000000    0.9732750000000000    0.7534100000000000 C
   0.4732850000000000    0.9733250000000000    0.8000050000000001 C
   0.5266900000000000    0.5267250000000000    0.7465950000000000 C
   0.5267250000000000    0.5266750000000000    0.7000050000000000 C
   0.5000450000000000    0.4999350000000000    0.7016850000000000 C
   0.4999550000000000    0.5000599999999999    0.7983250000000000 C
   0.4733250000000000    0.4732750000000000    0.7534100000000000 C
   0.4732850000000000    0.4733250000000000    0.8000050000000001 C
   0.5266900000000000    0.5267250000000000    0.2465950000000000 C
   0.5267250000000000    0.5266750000000000    0.2000050000000000 C
   0.5000450000000000    0.4999350000000000    0.2016850000000000 C
   0.4999550000000000    0.5000599999999999    0.2983250000000000 C
   0.4733250000000000    0.4732750000000000    0.2534100000000000 C
   0.4732850000000000    0.4733250000000000    0.3000050000000000 C
   0.5266900000000000    0.0267250000000000    0.2465950000000000 C
   0.5267250000000000    0.0266750000000000    0.2000050000000000 C
   0.5000450000000000    0.9999350000000000    0.2016850000000000 C
   0.4999550000000000    0.0000600000000000    0.2983250000000000 C
   0.4733250000000000    0.9732750000000000    0.2534100000000000 C
   0.4732850000000000    0.9733250000000000    0.3000050000000000 C
   0.0266900000000000    0.5267250000000000    0.2465950000000000 C
   0.0267250000000000    0.5266750000000000    0.2000050000000000 C
   0.0000450000000000    0.4999350000000000    0.2016850000000000 C
   0.9999549999999999    0.5000599999999999    0.2983250000000000 C
   0.9733250000000000    0.4732750000000000    0.2534100000000000 C
   0.9732850000000000    0.4733250000000000    0.3000050000000000 C
   0.0266900000000000    0.5267250000000000    0.7465950000000000 C
   0.0267250000000000    0.5266750000000000    0.7000050000000000 C
   0.0000450000000000    0.4999350000000000    0.7016850000000000 C
   0.9999549999999999    0.5000599999999999    0.7983250000000000 C
   0.9733250000000000    0.4732750000000000    0.7534100000000000 C
   0.9732850000000000    0.4733250000000000    0.8000050000000001 C
   0.0266900000000000    0.0267250000000000    0.7465950000000000 C
   0.0267250000000000    0.0266750000000000    0.7000050000000000 C
   0.0000450000000000    0.9999350000000000    0.7016850000000000 C
   0.9999549999999999    0.0000600000000000    0.7983250000000000 C
   0.9733250000000000    0.9732750000000000    0.7534100000000000 C
   0.9732850000000000    0.9733250000000000    0.8000050000000001 C
   0.0266900000000000    0.0267250000000000    0.2465950000000000 C
   0.0267250000000000    0.0266750000000000    0.2000050000000000 C
   0.0000450000000000    0.9999350000000000    0.2016850000000000 C
   0.9999549999999999    0.0000600000000000    0.2983250000000000 C
   0.9733250000000000    0.9732750000000000    0.2534100000000000 C
   0.9732850000000000    0.9733250000000000    0.3000050000000000 C
   0.7982950000000000    0.9999650000000000    0.7016850000000000 C
   0.8000000000000000    0.9732450000000000    0.7534100000000000 C
   0.7534350000000001    0.9732900000000000    0.7999950000000000 C
   0.7017150000000000    0.0000350000000000    0.7983250000000000 C
   0.7465750000000000    0.0267100000000000    0.7000100000000000 C
   0.7000150000000001    0.0267550000000000    0.7466000000000000 C
   0.7983050000000000    0.0000200000000000    0.6500000000000000 C
   0.2982950000000000    0.4999650000000000    0.2016850000000000 C
   0.3000000000000000    0.4732450000000000    0.2534100000000000 C
   0.2534350000000000    0.4732900000000000    0.2999950000000000 C
   0.2017150000000000    0.5000350000000000    0.2983250000000000 C
   0.2465750000000000    0.5267100000000000    0.2000100000000000 C
   0.2000150000000000    0.5267550000000000    0.2466000000000000 C
   0.2983050000000000    0.5000200000000000    0.1500000000000000 C
   0.7982950000000000    0.9999650000000000    0.2016850000000000 C
   0.8000000000000000    0.9732450000000000    0.2534100000000000 C
   0.7534350000000001    0.9732900000000000    0.2999950000000000 C
   0.7017150000000000    0.0000350000000000    0.2983250000000000 C
   0.7465750000000000    0.0267100000000000    0.2000100000000000 C
   0.7000150000000001    0.0267550000000000    0.2466000000000000 C
   0.7983050000000000    0.0000200000000000    0.1500000000000000 C
   0.2982950000000000    0.9999650000000000    0.2016850000000000 C
   0.3000000000000000    0.9732450000000000    0.2534100000000000 C
   0.2534350000000000    0.9732900000000000    0.2999950000000000 C
   0.2017150000000000    0.0000350000000000    0.2983250000000000 C
   0.2465750000000000    0.0267100000000000    0.2000100000000000 C
   0.2000150000000000    0.0267550000000000    0.2466000000000000 C
   0.2983050000000000    0.0000200000000000    0.1500000000000000 C
   0.7982950000000000    0.4999650000000000    0.2016850000000000 C
   0.8000000000000000    0.4732450000000000    0.2534100000000000 C
   0.7534350000000001    0.4732900000000000    0.2999950000000000 C
   0.7017150000000000    0.5000350000000000    0.2983250000000000 C
   0.7465750000000000    0.5267100000000000    0.2000100000000000 C
   0.7000150000000001    0.5267550000000000    0.2466000000000000 C
   0.7983050000000000    0.5000200000000000    0.1500000000000000 C
   0.2982950000000000    0.4999650000000000    0.7016850000000000 C
   0.3000000000000000    0.4732450000000000    0.7534100000000000 C
   0.2534350000000000    0.4732900000000000    0.7999950000000000 C
   0.2017150000000000    0.5000350000000000    0.7983250000000000 C
   0.2465750000000000    0.5267100000000000    0.7000100000000000 C
   0.2000150000000000    0.5267550000000000    0.7466000000000000 C
   0.2983050000000000    0.5000200000000000    0.6500000000000000 C
   0.2982950000000000    0.9999650000000000    0.7016850000000000 C
   0.3000000000000000    0.9732450000000000    0.7534100000000000 C
   0.2534350000000000    0.9732900000000000    0.7999950000000000 C
   0.2017150000000000    0.0000350000000000    0.7983250000000000 C
   0.2465750000000000    0.0267100000000000    0.7000100000000000 C
   0.2000150000000000    0.0267550000000000    0.7466000000000000 C
   0.2983050000000000    0.0000200000000000    0.6500000000000000 C
   0.7982950000000000    0.4999650000000000    0.7016850000000000 C
   0.8000000000000000    0.4732450000000000    0.7534100000000000 C
   0.7534350000000001    0.4732900000000000    0.7999950000000000 C
   0.7017150000000000    0.5000350000000000    0.7983250000000000 C
   0.7465750000000000    0.5267100000000000    0.7000100000000000 C
   0.7000150000000001    0.5267550000000000    0.7466000000000000 C
   0.7983050000000000    0.5000200000000000    0.6500000000000000 C
   0.7465950000000000    0.5267100000000000    0.0266950000000000 C
   0.7000150000000001    0.5266900000000000    0.0266700000000000 C
   0.7017000000000000    0.4999800000000000    0.9999650000000000 C
   0.8000000000000000    0.4733100000000000    0.9733000000000001 C
   0.7534200000000000    0.4732900000000000    0.9733149999999999 C
   0.2465950000000000    0.5267100000000000    0.0266950000000000 C
   0.2000150000000000    0.5266900000000000    0.0266700000000000 C
   0.2017000000000000    0.4999800000000000    0.9999650000000000 C
   0.3000000000000000    0.4733100000000000    0.9733000000000001 C
   0.2534200000000000    0.4732900000000000    0.9733149999999999 C
   0.7465950000000000    0.5267100000000000    0.5266950000000000 C
   0.7000150000000001    0.5266900000000000    0.5266700000000000 C
   0.7017000000000000    0.4999800000000000    0.4999650000000000 C
   0.8000000000000000    0.4733100000000000    0.4733000000000000 C
   0.7534200000000000    0.4732900000000000    0.4733150000000000 C
   0.2465950000000000    0.5267100000000000    0.5266950000000000 C
   0.2000150000000000    0.5266900000000000    0.5266700000000000 C
   0.2017000000000000    0.4999800000000000    0.4999650000000000 C
   0.3000000000000000    0.4733100000000000    0.4733000000000000 C
   0.2534200000000000    0.4732900000000000    0.4733150000000000 C
   0.7983100000000001    0.2017450000000000    0.4999250000000000 C
   0.7999800000000000    0.2534500000000000    0.4732550000000000 C
   0.7534100000000000    0.2999800000000000    0.4733000000000000 C
   0.7017000000000000    0.2982600000000000    0.5000700000000000 C
   0.7000350000000000    0.2465500000000000    0.5267550000000000 C
   0.7466000000000000    0.2000200000000000    0.5266900000000000 C
   0.7983100000000001    0.2017450000000000    0.9999250000000000 C
   0.7999800000000000    0.2534500000000000    0.9732550000000000 C
   0.7534100000000000    0.2999800000000000    0.9733000000000001 C
   0.7017000000000000    0.2982600000000000    0.0000700000000000 C
   0.7000350000000000    0.2465500000000000    0.0267550000000000 C
   0.7466000000000000    0.2000200000000000    0.0266900000000000 C
   0.4999650000000000    0.2017350000000000    0.2983450000000000 C
   0.4732750000000000    0.2534400000000000    0.2999750000000000 C
   0.4733050000000000    0.2999850000000000    0.2533700000000000 C
   0.5000350000000000    0.2982650000000000    0.2016600000000000 C
   0.5267050000000000    0.2000150000000000    0.2466350000000000 C
   0.5267350000000000    0.2465600000000000    0.2000300000000000 C
   0.5267050000000000    0.2000100000000000    0.5266650000000000 C
   0.5267100000000000    0.2465400000000000    0.5267400000000000 C
   0.5000100000000000    0.2017500000000000    0.4998950000000000 C
   0.4999900000000000    0.2982550000000000    0.5001000000000000 C
   0.4733050000000000    0.2999900000000000    0.4733400000000000 C
   0.4733050000000000    0.2534600000000000    0.4732700000000000 C
   0.4999650000000000    0.2017350000000000    0.7983450000000001 C
   0.4732750000000000    0.2534400000000000    0.7999750000000000 C
   0.4733050000000000    0.2999850000000000    0.7533700000000000 C
   0.5000350000000000    0.2982650000000000    0.7016600000000000 C
   0.5267050000000000    0.2000150000000000    0.7466349999999999 C
   0.5267350000000000    0.2465600000000000    0.7000300000000000 C
   0.5267050000000000    0.2000100000000000    0.0266650000000000 C
   0.5267100000000000    0.2465400000000000    0.0267400000000000 C
   0.5000100000000000    0.2017500000000000    0.9998950000000000 C
   0.4999900000000000    0.2982550000000000    0.0001000000000000 C
   0.4733050000000000    0.2999900000000000    0.9733400000000000 C
   0.4733050000000000    0.2534600000000000    0.9732700000000001 C
   0.2983100000000000    0.2017450000000000    0.4999250000000000 C
   0.2999800000000000    0.2534500000000000    0.4732550000000000 C
   0.2534100000000000    0.2999800000000000    0.4733000000000000 C
   0.2017000000000000    0.2982600000000000    0.5000700000000000 C
   0.2000350000000000    0.2465500000000000    0.5267550000000000 C
   0.2466000000000000    0.2000200000000000    0.5266900000000000 C
   0.2983100000000000    0.2017450000000000    0.9999250000000000 C
   0.2999800000000000    0.2534500000000000    0.9732550000000000 C
   0.2534100000000000    0.2999800000000000    0.9733000000000001 C
   0.2017000000000000    0.2982600000000000    0.0000700000000000 C
   0.2000350000000000    0.2465500000000000    0.0267550000000000 C
   0.2466000000000000    0.2000200000000000    0.0266900000000000 C
   0.9999650000000000    0.2017350000000000    0.7983450000000001 C
   0.9732750000000000    0.2534400000000000    0.7999750000000000 C
   0.9733050000000000    0.2999850000000000    0.7533700000000000 C
   0.0000350000000000    0.2982650000000000    0.7016600000000000 C
   0.0267050000000000    0.2000150000000000    0.7466349999999999 C
   0.0267350000000000    0.2465600000000000    0.7000300000000000 C
   0.0267050000000000    0.2000100000000000    0.0266650000000000 C
   0.0267100000000000    0.2465400000000000    0.0267400000000000 C
   0.0000100000000000    0.2017500000000000    0.9998950000000000 C
   0.9999899999999999    0.2982550000000000    0.0001000000000000 C
   0.9733050000000000    0.2999900000000000    0.9733400000000000 C
   0.9733050000000000    0.2534600000000000    0.9732700000000001 C
   0.9999650000000000    0.2017350000000000    0.2983450000000000 C
   0.9732750000000000    0.2534400000000000    0.2999750000000000 C
   0.9733050000000000    0.2999850000000000    0.2533700000000000 C
   0.0000350000000000    0.2982650000000000    0.2016600000000000 C
   0.0267050000000000    0.2000150000000000    0.2466350000000000 C
   0.0267350000000000    0.2465600000000000    0.2000300000000000 C
   0.0267050000000000    0.2000100000000000    0.5266650000000000 C
   0.0267100000000000    0.2465400000000000    0.5267400000000000 C
   0.0000100000000000    0.2017500000000000    0.4998950000000000 C
   0.9999899999999999    0.2982550000000000    0.5001000000000000 C
   0.9733050000000000    0.2999900000000000    0.4733400000000000 C
   0.9733050000000000    0.2534600000000000    0.4732700000000000 C
   0.7465950000000000    0.0267100000000000    0.0266950000000000 C
   0.7000150000000001    0.0266900000000000    0.0266700000000000 C
   0.7017000000000000    0.9999800000000000    0.9999650000000000 C
   0.8000000000000000    0.9733100000000000    0.9733000000000001 C
   0.7534200000000000    0.9732900000000000    0.9733149999999999 C
   0.2465950000000000    0.0267100000000000    0.0266950000000000 C
   0.2000150000000000    0.0266900000000000    0.0266700000000000 C
   0.2017000000000000    0.9999800000000000    0.9999650000000000 C
   0.3000000000000000    0.9733100000000000    0.9733000000000001 C
   0.2534200000000000    0.9732900000000000    0.9733149999999999 C
   0.7465950000000000    0.0267100000000000    0.5266950000000000 C
   0.7000150000000001    0.0266900000000000    0.5266700000000000 C
   0.7017000000000000    0.9999800000000000    0.4999650000000000 C
   0.8000000000000000    0.9733100000000000    0.4733000000000000 C
   0.7534200000000000    0.9732900000000000    0.4733150000000000 C
   0.2983100000000000    0.7017450000000001    0.9999250000000000 C
   0.2999800000000000    0.7534500000000000    0.9732550000000000 C
   0.2534100000000000    0.7999800000000000    0.9733000000000001 C
   0.2017000000000000    0.7982600000000000    0.0000700000000000 C
   0.2000350000000000    0.7465500000000000    0.0267550000000000 C
   0.2466000000000000    0.7000200000000000    0.0266900000000000 C
   0.2983100000000000    0.7017450000000001    0.4999250000000000 C
   0.2999800000000000    0.7534500000000000    0.4732550000000000 C
   0.2534100000000000    0.7999800000000000    0.4733000000000000 C
   0.2017000000000000    0.7982600000000000    0.5000700000000000 C
   0.2000350000000000    0.7465500000000000    0.5267550000000000 C
   0.2466000000000000    0.7000200000000000    0.5266900000000000 C
   0.9999650000000000    0.7017350000000000    0.7983450000000001 C
   0.9732750000000000    0.7534400000000000    0.7999750000000000 C
   0.9733050000000000    0.7999849999999999    0.7533700000000000 C
   0.0000350000000000    0.7982650000000000    0.7016600000000000 C
   0.0267050000000000    0.7000150000000001    0.7466349999999999 C
   0.0267350000000000    0.7465600000000000    0.7000300000000000 C
   0.0267050000000000    0.7000100000000000    0.0266650000000000 C
   0.0267100000000000    0.7465400000000000    0.0267400000000000 C
   0.0000100000000000    0.7017500000000000    0.9998950000000000 C
   0.9999899999999999    0.7982549999999999    0.0001000000000000 C
   0.9733050000000000    0.7999900000000000    0.9733400000000000 C
   0.9733050000000000    0.7534600000000000    0.9732700000000001 C
   0.9999650000000000    0.7017350000000000    0.2983450000000000 C
   0.9732750000000000    0.7534400000000000    0.2999750000000000 C
   0.9733050000000000    0.7999849999999999    0.2533700000000000 C
   0.0000350000000000    0.7982650000000000    0.2016600000000000 C
   0.0267050000000000    0.7000150000000001    0.2466350000000000 C
   0.0267350000000000    0.7465600000000000    0.2000300000000000 C
   0.0267050000000000    0.7000100000000000    0.5266650000000000 C
   0.0267100000000000    0.7465400000000000    0.5267400000000000 C
   0.0000100000000000    0.7017500000000000    0.4998950000000000 C
   0.9999899999999999    0.7982549999999999    0.5001000000000000 C
   0.9733050000000000    0.7999900000000000    0.4733400000000000 C
   0.9733050000000000    0.7534600000000000    0.4732700000000000 C
   0.7983100000000001    0.7017450000000001    0.4999250000000000 C
   0.7999800000000000    0.7534500000000000    0.4732550000000000 C
   0.7534100000000000    0.7999800000000000    0.4733000000000000 C
   0.7017000000000000    0.7982600000000000    0.5000700000000000 C
   0.7000350000000000    0.7465500000000000    0.5267550000000000 C
   0.7466000000000000    0.7000200000000000    0.5266900000000000 C
   0.7983100000000001    0.7017450000000001    0.9999250000000000 C
   0.7999800000000000    0.7534500000000000    0.9732550000000000 C
   0.7534100000000000    0.7999800000000000    0.9733000000000001 C
   0.7017000000000000    0.7982600000000000    0.0000700000000000 C
   0.7000350000000000    0.7465500000000000    0.0267550000000000 C