Zn32 H98 C184 O104
1.0
  31.9860590625235623    0.0000000000000000   18.3341607293258555
   5.3047141730999225   15.0744754978147562    9.1666310609457469
   0.0000000000000000    0.0000000000000000   36.8419999999999987
Zn H C O
32 98 184 104
direct
   0.6466400000000000    0.2933900000000000    0.5597450000000000 Zn
   0.6466400000000000    0.2933900000000000    0.0597450000000000 Zn
   0.4401450000000000    0.7067500000000000    0.8533550000000000 Zn
   0.3533550000000000    0.8804900000000000    0.8532999999999999 Zn
   0.3533500000000000    0.7066400000000000    0.9402550000000001 Zn
   0.3531750000000000    0.7063100000000000    0.8531400000000000 Zn
   0.5598450000000000    0.2932800000000000    0.1466400000000000 Zn
   0.4401450000000000    0.7067500000000000    0.3533550000000000 Zn
   0.3533550000000000    0.8804900000000000    0.3533000000000000 Zn
   0.3533500000000000    0.7066400000000000    0.4402550000000000 Zn
   0.3531750000000000    0.7063100000000000    0.3531400000000000 Zn
   0.5598450000000000    0.2932800000000000    0.6466400000000000 Zn
   0.6466300000000000    0.1195300000000000    0.6466850000000000 Zn
   0.6466300000000000    0.1195300000000000    0.1466850000000000 Zn
   0.1466400000000000    0.2933900000000000    0.5597450000000000 Zn
   0.1466400000000000    0.2933900000000000    0.0597450000000000 Zn
   0.9401450000000000    0.7067500000000000    0.3533550000000000 Zn
   0.8533550000000000    0.8804900000000000    0.3533000000000000 Zn
   0.8533500000000001    0.7066400000000000    0.4402550000000000 Zn
   0.8531750000000000    0.7063100000000000    0.3531400000000000 Zn
   0.0598450000000000    0.2932800000000000    0.6466400000000000 Zn
   0.9401450000000000    0.7067500000000000    0.8533550000000000 Zn
   0.8533550000000000    0.8804900000000000    0.8532999999999999 Zn
   0.8533500000000001    0.7066400000000000    0.9402550000000001 Zn
   0.8531750000000000    0.7063100000000000    0.8531400000000000 Zn
   0.0598450000000000    0.2932800000000000    0.1466400000000000 Zn
   0.1466300000000000    0.1195300000000000    0.6466850000000000 Zn
   0.1466300000000000    0.1195300000000000    0.1466850000000000 Zn
   0.1468200000000000    0.2937200000000000    0.6468500000000000 Zn
   0.1468200000000000    0.2937200000000000    0.1468500000000000 Zn
   0.6468200000000000    0.2937200000000000    0.6468500000000000 Zn
   0.6468200000000000    0.2937200000000000    0.1468500000000000 Zn
   0.8068108273828031    0.6131739987893586    0.4963863713475996 H
   0.8064549144879802    0.6129778492426812    0.3902410796273064 H
   0.8027467169979848    0.6052919933437868    0.4471926320039902 H
   0.7262100000000000    0.4521400000000000    0.0821900000000000 H
   0.7743700000000000    0.5482000000000000    0.0340050000000000 H
   0.7737800000000000    0.5478900000000000    0.9178100000000000 H
   0.7256199999999999    0.4518200000000000    0.9659900000000000 H
   0.2262100000000000    0.4521400000000000    0.5821900000000000 H
   0.2743700000000000    0.5482000000000000    0.5340050000000000 H
   0.2737800000000000    0.5478900000000000    0.4178100000000000 H
   0.2256200000000000    0.4518200000000000    0.4659900000000000 H
   0.6931807452101535    0.3868455559696500    0.5035985575161839 H
   0.6935400438458167    0.3870656443097659    0.6097128107204721 H
   0.6972457204548647    0.3947378916933226    0.5527714533553448 H
   0.2262100000000000    0.4521400000000000    0.0821900000000000 H
   0.2743700000000000    0.5482000000000000    0.0340050000000000 H
   0.2737800000000000    0.5478900000000000    0.9178100000000000 H
   0.2256200000000000    0.4518200000000000    0.9659900000000000 H
   0.2743700000000000    0.0679900000000000    0.7741100000000001 H
   0.2262100000000000    0.1643600000000000    0.7260750000000000 H
   0.2256250000000000    0.9320300000000000    0.7258900000000000 H
   0.2737800000000000    0.8356600000000000    0.7739199999999999 H
   0.2743700000000000    0.0679900000000000    0.2741100000000000 H
   0.2262100000000000    0.1643600000000000    0.2260750000000000 H
   0.2256250000000000    0.9320300000000000    0.2258900000000000 H
   0.2737800000000000    0.8356600000000000    0.2739200000000000 H
   0.7259000000000000    0.1643800000000000    0.9658949999999999 H
   0.7741300000000000    0.0681600000000000    0.9177999999999999 H
   0.7258599999999999    0.9318700000000000    0.0820000000000000 H
   0.7740950000000000    0.8356400000000000    0.0341050000000000 H
   0.7259000000000000    0.1643800000000000    0.4658950000000000 H
   0.7741300000000000    0.0681600000000000    0.4178000000000000 H
   0.7258599999999999    0.9318700000000000    0.5820000000000000 H
   0.7740950000000000    0.8356400000000000    0.5341050000000001 H
   0.4660150000000000    0.1643900000000000    0.7257500000000000 H
   0.4178750000000000    0.0682600000000000    0.7739350000000000 H
   0.5339700000000001    0.8356400000000000    0.7742450000000001 H
   0.5821149999999999    0.9317700000000000    0.7260600000000000 H
   0.5821100000000000    0.4521600000000000    0.9658650000000000 H
   0.5339700000000001    0.5485400000000000    0.9177999999999999 H
   0.4178800000000000    0.5478600000000000    0.0341350000000000 H
   0.4660200000000000    0.4514900000000000    0.0822000000000000 H
   0.4661000000000000    0.4514000000000000    0.2257200000000000 H
   0.4178850000000000    0.5476000000000000    0.2738050000000000 H
   0.5821050000000000    0.4524200000000000    0.2261950000000000 H
   0.5338900000000000    0.5486200000000000    0.2742800000000000 H
   0.4660150000000000    0.1643900000000000    0.2257500000000000 H
   0.4178750000000000    0.0682600000000000    0.2739350000000000 H
   0.5339700000000001    0.8356400000000000    0.2742450000000000 H
   0.5821149999999999    0.9317700000000000    0.2260600000000000 H
   0.5821100000000000    0.4521600000000000    0.4658650000000000 H
   0.5339700000000001    0.5485400000000000    0.4178000000000000 H
   0.4178800000000000    0.5478600000000000    0.5341350000000000 H
   0.4660200000000000    0.4514900000000000    0.5822000000000001 H
   0.4661000000000000    0.4514000000000000    0.7257200000000000 H
   0.4178850000000000    0.5476000000000000    0.7738050000000001 H
   0.5821050000000000    0.4524200000000000    0.7261950000000000 H
   0.5338900000000000    0.5486200000000000    0.7742800000000001 H
   0.7743700000000000    0.0679900000000000    0.2741100000000000 H
   0.7262100000000000    0.1643600000000000    0.2260750000000000 H
   0.7256250000000000    0.9320300000000000    0.2258900000000000 H
   0.7737800000000000    0.8356600000000000    0.2739200000000000 H
   0.7743700000000000    0.0679900000000000    0.7741100000000001 H
   0.7262100000000000    0.1643600000000000    0.7260750000000000 H
   0.7256250000000000    0.9320300000000000    0.7258900000000000 H
   0.7737800000000000    0.8356600000000000    0.7739199999999999 H
   0.2259000000000000    0.1643800000000000    0.9658949999999999 H
   0.2741300000000000    0.0681600000000000    0.9177999999999999 H
   0.2258600000000000    0.9318700000000000    0.0820000000000000 H
   0.2740950000000000    0.8356400000000000    0.0341050000000000 H
   0.2259000000000000    0.1643800000000000    0.4658950000000000 H
   0.2741300000000000    0.0681600000000000    0.4178000000000000 H
   0.2258600000000000    0.9318700000000000    0.5820000000000000 H
   0.2740950000000000    0.8356400000000000    0.5341050000000001 H
   0.9660150000000001    0.1643900000000000    0.2257500000000000 H
   0.9178750000000000    0.0682600000000000    0.2739350000000000 H
   0.0339700000000000    0.8356400000000000    0.2742450000000000 H
   0.0821150000000000    0.9317700000000000    0.2260600000000000 H
   0.0821100000000000    0.4521600000000000    0.4658650000000000 H
   0.0339700000000000    0.5485400000000000    0.4178000000000000 H
   0.9178800000000000    0.5478600000000000    0.5341350000000000 H
   0.9660200000000000    0.4514900000000000    0.5822000000000001 H
   0.9661000000000000    0.4514000000000000    0.7257200000000000 H
   0.9178850000000001    0.5476000000000000    0.7738050000000001 H
   0.0821050000000000    0.4524200000000000    0.7261950000000000 H
   0.0338900000000000    0.5486200000000000    0.7742800000000001 H
   0.9660150000000001    0.1643900000000000    0.7257500000000000 H
   0.9178750000000000    0.0682600000000000    0.7739350000000000 H
   0.0339700000000000    0.8356400000000000    0.7742450000000001 H
   0.0821150000000000    0.9317700000000000    0.7260600000000000 H
   0.0821100000000000    0.4521600000000000    0.9658650000000000 H
   0.0339700000000000    0.5485400000000000    0.9177999999999999 H
   0.9178800000000000    0.5478600000000000    0.0341350000000000 H
   0.9660200000000000    0.4514900000000000    0.0822000000000000 H
   0.9661000000000000    0.4514000000000000    0.2257200000000000 H
   0.9178850000000001    0.5476000000000000    0.2738050000000000 H
   0.0821050000000000    0.4524200000000000    0.2261950000000000 H
   0.0338900000000000    0.5486200000000000    0.2742800000000000 H
   0.6944800000000000    0.3891200000000000    0.0555500000000000 C
   0.8055099999999999    0.6109000000000000    0.9444450000000000 C
   0.7368250000000001    0.4734900000000000    0.0461850000000000 C
   0.7634950000000000    0.5267100000000000    0.0194900000000000 C
   0.7631650000000000    0.5265400000000000    0.9538150000000001 C
   0.7364900000000000    0.4733200000000000    0.9805050000000000 C
   0.7768400000000000    0.5535900000000000    0.9731000000000001 C
   0.7231500000000000    0.4464400000000000    0.0268600000000000 C
   0.1944800000000000    0.3891200000000000    0.5555500000000000 C
   0.3055100000000000    0.6109000000000000    0.4444450000000000 C
   0.2368250000000000    0.4734900000000000    0.5461850000000000 C
   0.2634950000000000    0.5267100000000000    0.5194900000000000 C
   0.2631650000000000    0.5265400000000000    0.4538150000000000 C
   0.2364900000000000    0.4733200000000000    0.4805050000000000 C
   0.2768400000000000    0.5535900000000000    0.4731000000000000 C
   0.2231500000000000    0.4464400000000000    0.5268600000000000 C
   0.1944800000000000    0.3891200000000000    0.0555500000000000 C
   0.3055100000000000    0.6109000000000000    0.9444450000000000 C
   0.2368250000000000    0.4734900000000000    0.0461850000000000 C
   0.2634950000000000    0.5267100000000000    0.0194900000000000 C
   0.2631650000000000    0.5265400000000000    0.9538150000000001 C
   0.2364900000000000    0.4733200000000000    0.9805050000000000 C
   0.2768400000000000    0.5535900000000000    0.9731000000000001 C
   0.2231500000000000    0.4464400000000000    0.0268600000000000 C
   0.1944750000000000    0.1111200000000000    0.6945550000000000 C
   0.3055150000000000    0.8889000000000000    0.8054399999999999 C
   0.2634950000000000    0.0389800000000000    0.7633600000000000 C
   0.2368250000000000    0.0923600000000000    0.7367450000000000 C
   0.2768450000000000    0.9462900000000000    0.7767850000000001 C
   0.2364950000000000    0.9610500000000000    0.7366400000000000 C
   0.2631650000000000    0.9076600000000000    0.7632550000000000 C
   0.2231500000000000    0.0537400000000000    0.7232100000000000 C
   0.1944750000000000    0.1111200000000000    0.1945550000000000 C
   0.3055150000000000    0.8889000000000000    0.3054400000000000 C
   0.2634950000000000    0.0389800000000000    0.2633600000000000 C
   0.2368250000000000    0.0923600000000000    0.2367450000000000 C
   0.2768450000000000    0.9462900000000000    0.2767850000000000 C
   0.2364950000000000    0.9610500000000000    0.2366400000000000 C
   0.2631650000000000    0.9076600000000000    0.2632550000000000 C
   0.2231500000000000    0.0537400000000000    0.2232100000000000 C
   0.8056250000000000    0.8890800000000000    0.9445500000000000 C
   0.6943650000000000    0.1109500000000000    0.0554500000000000 C
   0.7366450000000000    0.0923800000000000    0.9804450000000000 C
   0.7633650000000001    0.0390800000000000    0.9538100000000000 C
   0.7768800000000000    0.9464000000000000    0.9732000000000001 C
   0.7366300000000000    0.9609400000000000    0.0461900000000000 C
   0.7633449999999999    0.9076500000000000    0.0195550000000000 C
   0.7231100000000000    0.0536300000000000    0.0268000000000000 C
   0.8056250000000000    0.8890800000000000    0.4445500000000000 C
   0.6943650000000000    0.1109500000000000    0.5554500000000000 C
   0.7366450000000000    0.0923800000000000    0.4804450000000000 C
   0.7633650000000001    0.0390800000000000    0.4538100000000000 C
   0.7768800000000000    0.9464000000000000    0.4732000000000000 C
   0.7366300000000000    0.9609400000000000    0.5461900000000000 C
   0.7633449999999999    0.9076500000000000    0.5195550000000000 C
   0.7231100000000000    0.0536300000000000    0.5268000000000000 C
   0.4444950000000000    0.8891800000000000    0.8056000000000000 C
   0.5554950000000000    0.1108500000000000    0.6944000000000000 C
   0.4805100000000000    0.0923800000000000    0.7365600000000000 C
   0.4538500000000000    0.0391400000000000    0.7632600000000000 C
   0.4731650000000000    0.9464600000000000    0.7768600000000000 C
   0.5194750000000000    0.9076500000000000    0.7634350000000000 C
   0.5461400000000000    0.9608800000000000    0.7367400000000000 C
   0.5268250000000000    0.0535700000000000    0.7231350000000000 C
   0.4444900000000000    0.6112200000000000    0.9445800000000000 C
   0.5555000000000000    0.3888000000000000    0.0554150000000000 C
   0.5461400000000000    0.4735100000000000    0.9804250000000000 C
   0.5194750000000000    0.5269000000000000    0.9538100000000000 C
   0.5268300000000000    0.4462800000000000    0.0267800000000000 C
   0.4538500000000000    0.5265100000000000    0.0195750000000000 C
   0.4805150000000000    0.4731200000000000    0.0461900000000000 C
   0.4731600000000000    0.5537500000000000    0.9732200000000000 C
   0.5555900000000000    0.3890400000000000    0.1945000000000000 C
   0.4444000000000000    0.6109900000000000    0.3054750000000000 C
   0.4805700000000000    0.4730700000000000    0.2365000000000000 C
   0.4538550000000000    0.5263700000000000    0.2631850000000000 C
   0.4731050000000000    0.5536500000000000    0.2768200000000000 C
   0.5461350000000000    0.4736500000000000    0.2368150000000000 C
   0.5194200000000000    0.5269400000000000    0.2634550000000000 C
   0.5268850000000000    0.4463600000000000    0.2231850000000000 C
   0.4444950000000000    0.8891800000000000    0.3056000000000000 C
   0.5554950000000000    0.1108500000000000    0.1944000000000000 C
   0.4805100000000000    0.0923800000000000    0.2365600000000000 C
   0.4538500000000000    0.0391400000000000    0.2632600000000000 C
   0.4731650000000000    0.9464600000000000    0.2768600000000000 C
   0.5194750000000000    0.9076500000000000    0.2634350000000000 C
   0.5461400000000000    0.9608800000000000    0.2367400000000000 C
   0.5268250000000000    0.0535700000000000    0.2231350000000000 C
   0.4444900000000000    0.6112200000000000    0.4445800000000000 C
   0.5555000000000000    0.3888000000000000    0.5554150000000000 C
   0.5461400000000000    0.4735100000000000    0.4804250000000000 C
   0.5194750000000000    0.5269000000000000    0.4538100000000000 C
   0.5268300000000000    0.4462800000000000    0.5267800000000000 C
   0.4538500000000000    0.5265100000000000    0.5195750000000000 C
   0.4805150000000000    0.4731200000000000    0.5461900000000000 C
   0.4731600000000000    0.5537500000000000    0.4732200000000000 C
   0.5555900000000000    0.3890400000000000    0.6945000000000000 C
   0.4444000000000000    0.6109900000000000    0.8054749999999999 C
   0.4805700000000000    0.4730700000000000    0.7364999999999999 C
   0.4538550000000000    0.5263700000000000    0.7631850000000000 C
   0.4731050000000000    0.5536500000000000    0.7768200000000001 C
   0.5461350000000000    0.4736500000000000    0.7368150000000000 C
   0.5194200000000000    0.5269400000000000    0.7634550000000000 C
   0.5268850000000000    0.4463600000000000    0.7231850000000000 C
   0.6944750000000000    0.1111200000000000    0.1945550000000000 C
   0.8055150000000000    0.8889000000000000    0.3054400000000000 C
   0.7634950000000000    0.0389800000000000    0.2633600000000000 C
   0.7368250000000001    0.0923600000000000    0.2367450000000000 C
   0.7768450000000000    0.9462900000000000    0.2767850000000000 C
   0.7364950000000000    0.9610500000000000    0.2366400000000000 C
   0.7631650000000000    0.9076600000000000    0.2632550000000000 C
   0.7231500000000000    0.0537400000000000    0.2232100000000000 C
   0.6944750000000000    0.1111200000000000    0.6945550000000000 C
   0.8055150000000000    0.8889000000000000    0.8054399999999999 C
   0.7634950000000000    0.0389800000000000    0.7633600000000000 C
   0.7368250000000001    0.0923600000000000    0.7367450000000000 C
   0.7768450000000000    0.9462900000000000    0.7767850000000001 C
   0.7364950000000000    0.9610500000000000    0.7366400000000000 C
   0.7631650000000000    0.9076600000000000    0.7632550000000000 C
   0.7231500000000000    0.0537400000000000    0.7232100000000000 C
   0.3056250000000000    0.8890800000000000    0.9445500000000000 C
   0.1943650000000000    0.1109500000000000    0.0554500000000000 C
   0.2366450000000000    0.0923800000000000    0.9804450000000000 C
   0.2633650000000000    0.0390800000000000    0.9538100000000000 C
   0.2768800000000000    0.9464000000000000    0.9732000000000001 C
   0.2366300000000000    0.9609400000000000    0.0461900000000000 C
   0.2633450000000000    0.9076500000000000    0.0195550000000000 C
   0.2231100000000000    0.0536300000000000    0.0268000000000000 C
   0.3056250000000000    0.8890800000000000    0.4445500000000000 C
   0.1943650000000000    0.1109500000000000    0.5554500000000000 C
   0.2366450000000000    0.0923800000000000    0.4804450000000000 C
   0.2633650000000000    0.0390800000000000    0.4538100000000000 C
   0.2768800000000000    0.9464000000000000    0.4732000000000000 C
   0.2366300000000000    0.9609400000000000    0.5461900000000000 C
   0.2633450000000000    0.9076500000000000    0.5195550000000000 C
   0.2231100000000000    0.0536300000000000    0.5268000000000000 C
   0.9444950000000000    0.8891800000000000    0.3056000000000000 C
   0.0554950000000000    0.1108500000000000    0.1944000000000000 C
   0.9805100000000000    0.0923800000000000    0.2365600000000000 C
   0.9538500000000000    0.0391400000000000    0.2632600000000000 C
   0.9731650000000001    0.9464600000000000    0.2768600000000000 C
   0.0194750000000000    0.9076500000000000    0.2634350000000000 C
   0.0461400000000000    0.9608800000000000    0.2367400000000000 C
   0.0268250000000000    0.0535700000000000    0.2231350000000000 C
   0.9444900000000001    0.6112200000000000    0.4445800000000000 C
   0.0555000000000000    0.3888000000000000    0.5554150000000000 C
   0.0461400000000000    0.4735100000000000    0.4804250000000000 C
   0.0194750000000000    0.5269000000000000    0.4538100000000000 C
   0.0268300000000000    0.4462800000000000    0.5267800000000000 C
   0.9538500000000000    0.5265100000000000    0.5195750000000000 C
   0.9805150000000000    0.4731200000000000    0.5461900000000000 C
   0.9731600000000000    0.5537500000000000    0.4732200000000000 C
   0.0555900000000000    0.3890400000000000    0.6945000000000000 C
   0.9444000000000000    0.6109900000000000    0.8054749999999999 C
   0.9805699999999999    0.4730700000000000    0.7364999999999999 C
   0.9538550000000000    0.5263700000000000    0.7631850000000000 C
   0.9731050000000000    0.5536500000000000    0.7768200000000001 C
   0.0461350000000000    0.4736500000000000    0.7368150000000000 C
   0.0194200000000000    0.5269400000000000    0.7634550000000000 C
   0.0268850000000000    0.4463600000000000    0.7231850000000000 C
   0.9444950000000000    0.8891800000000000    0.8056000000000000 C
   0.0554950000000000    0.1108500000000000    0.6944000000000000 C
   0.9805100000000000    0.0923800000000000    0.7365600000000000 C
   0.9538500000000000    0.0391400000000000    0.7632600000000000 C
   0.9731650000000001    0.9464600000000000    0.7768600000000000 C
   0.0194750000000000    0.9076500000000000    0.7634350000000000 C
   0.0461400000000000    0.9608800000000000    0.7367400000000000 C
   0.0268250000000000    0.0535700000000000    0.7231350000000000 C
   0.9444900000000001    0.6112200000000000    0.9445800000000000 C
   0.0555000000000000    0.3888000000000000    0.0554150000000000 C
   0.0461400000000000    0.4735100000000000    0.9804250000000000 C
   0.0194750000000000    0.5269000000000000    0.9538100000000000 C
   0.0268300000000000    0.4462800000000000    0.0267800000000000 C
   0.9538500000000000    0.5265100000000000    0.0195750000000000 C
   0.9805150000000000    0.4731200000000000    0.0461900000000000 C
   0.9731600000000000    0.5537500000000000    0.9732200000000000 C
   0.0555900000000000    0.3890400000000000    0.1945000000000000 C
   0.9444000000000000    0.6109900000000000    0.3054750000000000 C
   0.9805699999999999    0.4730700000000000    0.2365000000000000 C
   0.9538550000000000    0.5263700000000000    0.2631850000000000 C
   0.9731050000000000    0.5536500000000000    0.2768200000000000 C
   0.0461350000000000    0.4736500000000000    0.2368150000000000 C
   0.0194200000000000    0.5269400000000000    0.2634550000000000 C
   0.0268850000000000    0.4463600000000000    0.2231850000000000 C
   0.8166750000000000    0.6330400000000000    0.4642500000000000 O
   0.8164650000000000    0.6329200000000000    0.4025000000000000 O
   0.6833150000000000    0.3669800000000000    0.0357350000000000 O
   0.6835249999999999    0.3671100000000000    0.0974650000000000 O
   0.8166750000000000    0.6330400000000000    0.9642500000000001 O
   0.8164650000000000    0.6329200000000000    0.9025000000000001 O
   0.1833150000000000    0.3669800000000000    0.5357350000000000 O
   0.1835250000000000    0.3671100000000000    0.5974650000000000 O
   0.3166750000000000    0.6330400000000000    0.4642500000000000 O
   0.3164650000000000    0.6329200000000000    0.4025000000000000 O
   0.6833150000000000    0.3669800000000000    0.5357350000000000 O
   0.6835249999999999    0.3671100000000000    0.5974650000000000 O
   0.1833150000000000    0.3669800000000000    0.0357350000000000 O
   0.1835250000000000    0.3671100000000000    0.0974650000000000 O
   0.3166750000000000    0.6330400000000000    0.9642500000000001 O
   0.3164650000000000    0.6329200000000000    0.9025000000000001 O
   0.6250300000000000    0.2500100000000000    0.6000000000000000 O
   0.6250300000000000    0.2500100000000000    0.1000000000000000 O
   0.1833050000000000    0.0715000000000000    0.6834850000000000 O
   0.1835300000000000    0.1949400000000000    0.6835500000000000 O
   0.3166800000000000    0.9285200000000000    0.8165150000000000 O
   0.3164600000000000    0.8050900000000000    0.8164500000000000 O
   0.1833050000000000    0.0715000000000000    0.1834850000000000 O
   0.1835300000000000    0.1949400000000000    0.1835500000000000 O
   0.3166800000000000    0.9285200000000000    0.3165150000000000 O
   0.3164600000000000    0.8050900000000000    0.3164500000000000 O
   0.8166949999999999    0.8052800000000000    0.9643600000000000 O
   0.8167200000000000    0.9286799999999999    0.9026400000000000 O
   0.6832700000000000    0.0713400000000000    0.0973550000000000 O
   0.6832950000000000    0.1947500000000000    0.0356400000000000 O
   0.8166949999999999    0.8052800000000000    0.4643600000000000 O
   0.8167200000000000    0.9286799999999999    0.4026400000000000 O
   0.6832700000000000    0.0713400000000000    0.5973550000000000 O
   0.6832950000000000    0.1947500000000000    0.5356400000000000 O
   0.4642550000000000    0.8053800000000000    0.8167400000000000 O
   0.4026300000000000    0.9288000000000000    0.8166100000000001 O
   0.5357350000000000    0.1946400000000000    0.6832600000000000 O
   0.5973600000000000    0.0712300000000000    0.6833850000000000 O
   0.3749600000000000    0.7500100000000000    0.8750000000000000 O
   0.4642550000000000    0.6335200000000000    0.9026750000000000 O
   0.4026250000000000    0.6332400000000000    0.9643999999999999 O
   0.5357350000000000    0.3665100000000000    0.0973200000000000 O
   0.5973650000000000    0.3667800000000000    0.0356000000000000 O
   0.5974600000000000    0.3671200000000000    0.1835600000000000 O
   0.5358200000000000    0.3667500000000000    0.1833500000000000 O
   0.4641700000000000    0.6332800000000000    0.3166150000000000 O
   0.4025300000000000    0.6329000000000000    0.3164400000000000 O
   0.4642550000000000    0.8053800000000000    0.3167400000000000 O
   0.4026300000000000    0.9288000000000000    0.3166100000000000 O
   0.5357350000000000    0.1946400000000000    0.1832600000000000 O
   0.5973600000000000    0.0712300000000000    0.1833850000000000 O
   0.3749600000000000    0.7500100000000000    0.3750000000000000 O
   0.4642550000000000    0.6335200000000000    0.4026750000000000 O
   0.4026250000000000    0.6332400000000000    0.4644000000000000 O
   0.5357350000000000    0.3665100000000000    0.5973200000000000 O
   0.5973650000000000    0.3667800000000000    0.5356000000000000 O
   0.5974600000000000    0.3671200000000000    0.6835599999999999 O
   0.5358200000000000    0.3667500000000000    0.6833500000000000 O
   0.4641700000000000    0.6332800000000000    0.8166150000000000 O
   0.4025300000000000    0.6329000000000000    0.8164400000000001 O
   0.1250300000000000    0.2500100000000000    0.6000000000000000 O
   0.1250300000000000    0.2500100000000000    0.1000000000000000 O
   0.6833050000000001    0.0715000000000000    0.1834850000000000 O
   0.6835300000000000    0.1949400000000000    0.1835500000000000 O
   0.8166800000000001    0.9285200000000000    0.3165150000000000 O
   0.8164600000000000    0.8050900000000000    0.3164500000000000 O
   0.6833050000000001    0.0715000000000000    0.6834850000000000 O
   0.6835300000000000    0.1949400000000000    0.6835500000000000 O
   0.8166800000000001    0.9285200000000000    0.8165150000000000 O
   0.8164600000000000    0.8050900000000000    0.8164500000000000 O
   0.3166950000000000    0.8052800000000000    0.9643600000000000 O
   0.3167200000000000    0.9286799999999999    0.9026400000000000 O
   0.1832700000000000    0.0713400000000000    0.0973550000000000 O
   0.1832950000000000    0.1947500000000000    0.0356400000000000 O
   0.3166950000000000    0.8052800000000000    0.4643600000000000 O
   0.3167200000000000    0.9286799999999999    0.4026400000000000 O
   0.1832700000000000    0.0713400000000000    0.5973550000000000 O
   0.1832950000000000    0.1947500000000000    0.5356400000000000 O
   0.9642550000000000    0.8053800000000000    0.3167400000000000 O
   0.9026300000000000    0.9288000000000000    0.3166100000000000 O
   0.0357350000000000    0.1946400000000000    0.1832600000000000 O
   0.0973600000000000    0.0712300000000000    0.1833850000000000 O
   0.8749600000000000    0.7500100000000000    0.3750000000000000 O
   0.9642550000000000    0.6335200000000000    0.4026750000000000 O
   0.9026250000000000    0.6332400000000000    0.4644000000000000 O
   0.0357350000000000    0.3665100000000000    0.5973200000000000 O
   0.0973650000000000    0.3667800000000000    0.5356000000000000 O
   0.0974600000000000    0.3671200000000000    0.6835599999999999 O
   0.0358200000000000    0.3667500000000000    0.6833500000000000 O
   0.9641700000000000    0.6332800000000000    0.8166150000000000 O
   0.9025300000000001    0.6329000000000000    0.8164400000000001 O
   0.9642550000000000    0.8053800000000000    0.8167400000000000 O
   0.9026300000000000    0.9288000000000000    0.8166100000000001 O
   0.0357350000000000    0.1946400000000000    0.6832600000000000 O
   0.0973600000000000    0.0712300000000000    0.6833850000000000 O
   0.8749600000000000    0.7500100000000000    0.8750000000000000 O
   0.9642550000000000    0.6335200000000000    0.9026750000000000 O
   0.9026250000000000    0.6332400000000000    0.9643999999999999 O
   0.0357350000000000    0.3665100000000000    0.0973200000000000 O
   0.0973650000000000    0.3667800000000000    0.0356000000000000 O
   0.0974600000000000    0.3671200000000000    0.1835600000000000 O
   0.0358200000000000    0.3667500000000000    0.1833500000000000 O
   0.9641700000000000    0.6332800000000000    0.3166150000000000 O
   0.9025300000000001    0.6329000000000000    0.3164400000000000 O
