H6 O4
1.0
  31.9860590625235623    0.0000000000000000   18.3341607293258555
   5.3047141730999225   15.0744754978147562    9.1666310609457469
   0.0000000000000000    0.0000000000000000   36.8419999999999987
H O
6 4
direct
   0.6931807452101535    0.3868455559696500    0.5035985575161839 H
   0.6935400438458167    0.3870656443097659    0.6097128107204721 H
   0.6972457204548647    0.3947378916933226    0.5527714533553448 H
   0.8068108273828031    0.6131739987893586    0.4963863713475996 H
   0.8064549144879802    0.6129778492426812    0.3902410796273064 H
   0.8027467169979848    0.6052919933437868    0.4471926320039902 H
   0.6833150000000000    0.3669800000000000    0.5357350000000000 O
   0.6835249999999999    0.3671100000000000    0.5974650000000000 O
   0.8166750000000000    0.6330400000000000    0.4642500000000000 O
   0.8164650000000000    0.6329200000000000    0.4025000000000000 O
