H8 C10 N2
1.0
  38.8832753341735184    0.0000000000000000    8.0212033565328369
   0.2492946002964812   39.5948667174029936    4.2679042671263883
   0.0000000000000000    0.0000000000000000   28.0060000000000002
H C N
8 10 2
direct
   0.7052466666666666    0.3894400000000000    0.0256700000000000 H
   0.7078033333333333    0.3873000000000000    0.1140500000000000 H
   0.7156966666666666    0.4962600000000000    0.0937750000000000 H
   0.7099933333333333    0.4938300000000000    0.0074400000000000 H
   0.7376333333333333    0.3929233333333333    0.1724450000000000 H
   0.7382366666666667    0.3955066666666667    0.2609700000000000 H
   0.6959833333333333    0.4915200000000000    0.2588700000000000 H
   0.6908233333333333    0.4925700000000000    0.1715200000000000 H
   0.7074133333333333    0.4123966666666666    0.0427150000000000 C
   0.7094066666666666    0.4115466666666666    0.0917350000000000 C
   0.7120366666666667    0.4418933333333333    0.1119400000000000 C
   0.7138399999999999    0.4424833333333333    0.1640150000000000 C
   0.7126933333333333    0.4719766666666667    0.0808100000000000 C
   0.7100666666666666    0.4709166666666667    0.0323900000000000 C
   0.7273666666666666    0.4151000000000000    0.1902100000000000 C
   0.7282833333333333    0.4163933333333333    0.2392700000000000 C
   0.7043400000000000    0.4701266666666666    0.2381050000000000 C
   0.7021400000000000    0.4705966666666667    0.1892150000000000 C
   0.7074366666666666    0.4415866666666666    0.0134050000000000 N
   0.7168733333333333    0.4434466666666667    0.2631050000000000 N
