H6 O4
1.0
  38.8832753341735184    0.0000000000000000    8.0212033565328369
   0.2492946002964812   39.5948667174029936    4.2679042671263883
   0.0000000000000000    0.0000000000000000   28.0060000000000002
H O
6 4
direct
   0.1022946205606543    0.7770071940307354    0.9481288214813781 H
   0.1146580253009981    0.7742530015153123    0.8037552148789139 H
   0.1122748487273751    0.7756134870208702    0.8741936527702766 H
   0.2970246402239310    0.7717677876201078    0.9553352165724647 H
   0.3151676236222194    0.7804205068918806    0.8377251505371567 H
   0.2767781229891396    0.7759526674932856    0.8938571392892199 H
   0.0932300000000000    0.7763899999999999    0.9185650000000001 O
   0.1006700000000000    0.7748233333333333    0.8363450000000000 O
   0.3210933333333333    0.7731866666666667    0.9393899999999999 O
   0.3333333333333333    0.7792866666666667    0.8563900000000000 O
