K120 H796 C874 Cl119 O199
1.0
  36.5674989083684494    0.0000000000000000   -0.0089351257502092
  -1.1113141154996495   38.5559872601708022   -0.0033660419911214
   0.0000000000000000    0.0000000000000000   21.7450000000000010
K H C Cl O
120 796 874 119 199
direct
   0.0798500000000000    0.3041250000000000    0.6654700000000000 K
   0.1064920000000000    0.3736800000000000    0.7690600000000000 K
   0.0166020000000000    0.0572550000000000    0.1654600000000000 K
   0.0203140000000000    0.1957450000000000    0.1645900000000000 K
   0.1935320000000000    0.1263850000000000    0.2683400000000000 K
   0.1167180000000000    0.0574950000000000    0.3351200000000000 K
   0.1201940000000000    0.1959000000000000    0.3348800000000000 K
   0.0934880000000000    0.1262950000000000    0.2314900000000000 K
   0.1835360000000000    0.4426200000000000    0.8354500000000000 K
   0.1798340000000000    0.3042350000000000    0.8356500000000000 K
   0.0064960000000000    0.3736450000000000    0.7317600000000000 K
   0.0833980000000000    0.4424950000000000    0.6652500000000000 K
   0.2798500000000000    0.3041250000000000    0.6654700000000000 K
   0.3064920000000000    0.3736800000000000    0.7690600000000000 K
   0.2166020000000000    0.0572550000000000    0.1654600000000000 K
   0.2203140000000000    0.1957450000000000    0.1645900000000000 K
   0.3935320000000000    0.1263850000000000    0.2683400000000000 K
   0.3167180000000001    0.0574950000000000    0.3351200000000000 K
   0.3201940000000000    0.1959000000000000    0.3348800000000000 K
   0.2934880000000000    0.1262950000000000    0.2314900000000000 K
   0.3835360000000000    0.4426200000000000    0.8354500000000000 K
   0.3798340000000000    0.3042350000000000    0.8356500000000000 K
   0.2064960000000000    0.3736450000000000    0.7317600000000000 K
   0.2833980000000000    0.4424950000000000    0.6652500000000000 K
   0.4798500000000000    0.3041250000000000    0.6654700000000000 K
   0.5064920000000001    0.3736800000000000    0.7690600000000000 K
   0.4166020000000000    0.0572550000000000    0.1654600000000000 K
   0.4203140000000000    0.1957450000000000    0.1645900000000000 K
   0.5935320000000001    0.1263850000000000    0.2683400000000000 K
   0.5167180000000000    0.0574950000000000    0.3351200000000000 K
   0.5201940000000000    0.1959000000000000    0.3348800000000000 K
   0.4934880000000000    0.1262950000000000    0.2314900000000000 K
   0.5835360000000001    0.4426200000000000    0.8354500000000000 K
   0.5798340000000001    0.3042350000000000    0.8356500000000000 K
   0.4064960000000000    0.3736450000000000    0.7317600000000000 K
   0.4833980000000000    0.4424950000000000    0.6652500000000000 K
   0.6798500000000001    0.3041250000000000    0.6654700000000000 K
   0.7064920000000001    0.3736800000000000    0.7690600000000000 K
   0.6166020000000001    0.0572550000000000    0.1654600000000000 K
   0.6203140000000000    0.1957450000000000    0.1645900000000000 K
   0.7935320000000001    0.1263850000000000    0.2683400000000000 K
   0.7167180000000001    0.0574950000000000    0.3351200000000000 K
   0.7201940000000001    0.1959000000000000    0.3348800000000000 K
   0.6934880000000001    0.1262950000000000    0.2314900000000000 K
   0.7835360000000001    0.4426200000000000    0.8354500000000000 K
   0.7798340000000001    0.3042350000000000    0.8356500000000000 K
   0.6064960000000000    0.3736450000000000    0.7317600000000000 K
   0.6833980000000001    0.4424950000000000    0.6652500000000000 K
   0.8798500000000000    0.3041250000000000    0.6654700000000000 K
   0.9064920000000001    0.3736800000000000    0.7690600000000000 K
   0.8166020000000001    0.0572550000000000    0.1654600000000000 K
   0.8203140000000000    0.1957450000000000    0.1645900000000000 K
   0.9935320000000001    0.1263850000000000    0.2683400000000000 K
   0.9167180000000000    0.0574950000000000    0.3351200000000000 K
   0.9201940000000001    0.1959000000000000    0.3348800000000000 K
   0.8934880000000001    0.1262950000000000    0.2314900000000000 K
   0.9835360000000001    0.4426200000000000    0.8354500000000000 K
   0.9798340000000001    0.3042350000000000    0.8356500000000000 K
   0.8064960000000000    0.3736450000000000    0.7317600000000000 K
   0.8833980000000000    0.4424950000000000    0.6652500000000000 K
   0.0798500000000000    0.8041250000000000    0.6654700000000000 K
   0.1064920000000000    0.8736800000000000    0.7690600000000000 K
   0.0166020000000000    0.5572550000000001    0.1654600000000000 K
   0.0203140000000000    0.6957450000000001    0.1645900000000000 K
   0.1935320000000000    0.6263850000000000    0.2683400000000000 K
   0.1167180000000000    0.5574950000000000    0.3351200000000000 K
   0.1201940000000000    0.6959000000000000    0.3348800000000000 K
   0.0934880000000000    0.6262950000000000    0.2314900000000000 K
   0.1835360000000000    0.9426200000000000    0.8354500000000000 K
   0.1798340000000000    0.8042350000000000    0.8356500000000000 K
   0.0064960000000000    0.8736450000000000    0.7317600000000000 K
   0.0833980000000000    0.9424950000000001    0.6652500000000000 K
   0.2798500000000000    0.8041250000000000    0.6654700000000000 K
   0.3064920000000000    0.8736800000000000    0.7690600000000000 K
   0.2166020000000000    0.5572550000000001    0.1654600000000000 K
   0.2203140000000000    0.6957450000000001    0.1645900000000000 K
   0.3935320000000000    0.6263850000000000    0.2683400000000000 K
   0.3167180000000001    0.5574950000000000    0.3351200000000000 K
   0.3201940000000000    0.6959000000000000    0.3348800000000000 K
   0.2934880000000000    0.6262950000000000    0.2314900000000000 K
   0.3835360000000000    0.9426200000000000    0.8354500000000000 K
   0.3798340000000000    0.8042350000000000    0.8356500000000000 K
   0.2064960000000000    0.8736450000000000    0.7317600000000000 K
   0.2833980000000000    0.9424950000000001    0.6652500000000000 K
   0.4798500000000000    0.8041250000000000    0.6654700000000000 K
   0.5064920000000001    0.8736800000000000    0.7690600000000000 K
   0.4166020000000000    0.5572550000000001    0.1654600000000000 K
   0.4203140000000000    0.6957450000000001    0.1645900000000000 K
   0.5935320000000001    0.6263850000000000    0.2683400000000000 K
   0.5167180000000000    0.5574950000000000    0.3351200000000000 K
   0.5201940000000000    0.6959000000000000    0.3348800000000000 K
   0.4934880000000000    0.6262950000000000    0.2314900000000000 K
   0.5835360000000001    0.9426200000000000    0.8354500000000000 K
   0.5798340000000001    0.8042350000000000    0.8356500000000000 K
   0.4064960000000000    0.8736450000000000    0.7317600000000000 K
   0.4833980000000000    0.9424950000000001    0.6652500000000000 K
   0.6798500000000001    0.8041250000000000    0.6654700000000000 K
   0.7064920000000001    0.8736800000000000    0.7690600000000000 K
   0.6166020000000001    0.5572550000000001    0.1654600000000000 K
   0.6203140000000000    0.6957450000000001    0.1645900000000000 K
   0.7935320000000001    0.6263850000000000    0.2683400000000000 K
   0.7167180000000001    0.5574950000000000    0.3351200000000000 K
   0.7201940000000001    0.6959000000000000    0.3348800000000000 K
   0.6934880000000001    0.6262950000000000    0.2314900000000000 K
   0.7835360000000001    0.9426200000000000    0.8354500000000000 K
   0.7798340000000001    0.8042350000000000    0.8356500000000000 K
   0.6064960000000000    0.8736450000000000    0.7317600000000000 K
   0.6833980000000001    0.9424950000000001    0.6652500000000000 K
   0.8798500000000000    0.8041250000000000    0.6654700000000000 K
   0.9064920000000001    0.8736800000000000    0.7690600000000000 K
   0.8166020000000001    0.5572550000000001    0.1654600000000000 K
   0.8203140000000000    0.6957450000000001    0.1645900000000000 K
   0.9935320000000001    0.6263850000000000    0.2683400000000000 K
   0.9167180000000000    0.5574950000000000    0.3351200000000000 K
   0.9201940000000001    0.6959000000000000    0.3348800000000000 K
   0.8934880000000001    0.6262950000000000    0.2314900000000000 K
   0.9835360000000001    0.9426200000000000    0.8354500000000000 K
   0.9798340000000001    0.8042350000000000    0.8356500000000000 K
   0.8064960000000000    0.8736450000000000    0.7317600000000000 K
   0.8833980000000000    0.9424950000000001    0.6652500000000000 K
   0.1318300000000000    0.3635050000000000    0.6161900000000000 H
   0.1522740000000000    0.3614800000000000    0.5070500000000000 H
   0.0425780000000000    0.3808100000000000    0.4468700000000000 H
   0.0216840000000000    0.3821400000000000    0.5555500000000000 H
   0.1914000000000000    0.3178450000000000    0.6218100000000000 H
   0.0134500000000000    0.2635250000000000    0.5770300000000000 H
   0.1526480000000000    0.2047750000000000    0.7152700000000000 H
   0.1299300000000000    0.2593400000000000    0.7586800000000000 H
   0.1928800000000000    0.4275150000000000    0.6217400000000000 H
   0.0178040000000000    0.4820700000000000    0.5721200000000000 H
   0.1620040000000000    0.0425700000000000    0.7079500000000000 H
   0.1375000000000000    0.4890150000000000    0.7573700000000000 H
   0.0852020000000000    0.0308900000000000    0.5924100000000000 H
   0.1300120000000000    0.0250550000000000    0.5611900000000000 H
   0.1419400000000000    0.4700100000000000    0.5119500000000000 H
   0.1053880000000000    0.4380550000000000    0.5094500000000000 H
   0.0501120000000000    0.2620800000000000    0.4836600000000000 H
   0.0697820000000000    0.3041850000000000    0.5009000000000000 H
   0.1067400000000000    0.2214650000000000    0.5985700000000000 H
   0.0718140000000000    0.2129700000000000    0.5422700000000000 H
   0.1682380000000000    0.1363350000000000    0.1153600000000000 H
   0.1477720000000000    0.1383000000000000    0.0000000000000000 H
   0.0573340000000000    0.1185600000000000    0.9461700000000000 H
   0.0782740000000000    0.1173050000000000    0.0548500000000000 H
   0.1085580000000000    0.1819500000000000    0.1206400000000000 H
   0.0862820000000000    0.2370400000000000    0.0774200000000000 H
   0.1474580000000000    0.2950250000000000    0.2140100000000000 H
   0.1701080000000000    0.2404550000000000    0.2574900000000000 H
   0.1066900000000000    0.0721900000000000    0.1212100000000000 H
   0.0821680000000000    0.0180900000000000    0.0727500000000000 H
   0.1378600000000000    0.4573750000000000    0.2081100000000000 H
   0.1625820000000000    0.0110700000000000    0.2568100000000000 H
   0.0134360000000000    0.4679350000000000    0.0919000000000000 H
   0.1692000000000000    0.4736700000000000    0.0587000000000000 H
   0.1573760000000000    0.0291650000000000    0.0109200000000000 H
   0.1934580000000000    0.0616050000000000    0.0116300000000000 H
   0.0504620000000000    0.2378300000000000    0.9819099999999999 H
   0.0310700000000000    0.1957950000000000    0.0003700000000000 H
   0.1946240000000000    0.2788050000000000    0.0976700000000000 H
   0.0290320000000000    0.2872900000000000    0.0404100000000000 H
   0.0682220000000000    0.1364000000000000    0.3841700000000000 H
   0.0478880000000000    0.1383850000000000    0.4933600000000000 H
   0.1576540000000000    0.1190950000000000    0.5532100000000000 H
   0.1784520000000000    0.1178600000000000    0.4444600000000000 H
   0.0088180000000000    0.1817050000000000    0.3786200000000000 H
   0.1862780000000000    0.2373150000000000    0.4214400000000000 H
   0.0471500000000000    0.2953400000000000    0.2868900000000000 H
   0.0698200000000000    0.2410550000000000    0.2422600000000000 H
   0.0066940000000000    0.0721150000000000    0.3798000000000000 H
   0.1823000000000000    0.0179100000000000    0.4279500000000000 H
   0.0380640000000000    0.4574900000000000    0.2923200000000000 H
   0.0626720000000000    0.0112900000000000    0.2439000000000000 H
   0.1147920000000000    0.4689000000000000    0.4076400000000000 H
   0.0699880000000000    0.4747500000000000    0.4388900000000000 H
   0.0580720000000000    0.0298000000000000    0.4880900000000000 H
   0.0946340000000000    0.0617400000000000    0.4906100000000000 H
   0.1512180000000000    0.2376150000000000    0.5178000000000000 H
   0.1314820000000000    0.1955600000000000    0.5003900000000000 H
   0.0944740000000000    0.2782350000000000    0.4027500000000000 H
   0.1294340000000000    0.2868900000000000    0.4589000000000000 H
   0.0317560000000000    0.3635750000000000    0.8846100000000000 H
   0.0522300000000000    0.3616150000000000    0.9937700000000000 H
   0.1426360000000000    0.3814150000000000    0.0541900000000000 H
   0.1217340000000000    0.3826150000000000    0.9454900000000001 H
   0.0913440000000000    0.3179400000000000    0.8794800000000000 H
   0.1136300000000000    0.2628500000000000    0.9226799999999999 H
   0.0524860000000000    0.2048800000000000    0.7860300000000000 H
   0.0298340000000000    0.2594600000000000    0.7425500000000000 H
   0.0931520000000000    0.4277800000000000    0.8790400000000000 H
   0.1176400000000000    0.4818550000000000    0.9276300000000000 H
   0.0621400000000000    0.0426300000000000    0.7921300000000000 H
   0.0374460000000000    0.4889600000000000    0.7433100000000000 H
   0.1865260000000000    0.0319550000000000    0.9082000000000000 H
   0.0308160000000000    0.0263750000000000    0.9416000000000000 H
   0.0426100000000000    0.4708200000000000    0.9892200000000000 H
   0.0065160000000000    0.4383950000000000    0.9883900000000000 H
   0.1495480000000000    0.2620950000000000    0.0181700000000000 H
   0.1689300000000000    0.3041500000000000    0.9997700000000000 H
   0.0053880000000000    0.2210850000000000    0.9024200000000000 H
   0.1709980000000000    0.2126700000000000    0.9595600000000000 H
   0.3318300000000000    0.3635050000000000    0.6161900000000000 H
   0.3522740000000000    0.3614800000000000    0.5070500000000000 H
   0.2425780000000000    0.3808100000000000    0.4468700000000000 H
   0.2216840000000000    0.3821400000000000    0.5555500000000000 H
   0.3914000000000000    0.3178450000000000    0.6218100000000000 H
   0.2134500000000000    0.2635250000000000    0.5770300000000000 H
   0.3526480000000000    0.2047750000000000    0.7152700000000000 H
   0.3299300000000000    0.2593400000000000    0.7586800000000000 H
   0.3928800000000000    0.4275150000000000    0.6217400000000000 H
   0.2178040000000000    0.4820700000000000    0.5721200000000000 H
   0.3620040000000000    0.0425700000000000    0.7079500000000000 H
   0.3375000000000000    0.4890150000000000    0.7573700000000000 H
   0.2852020000000000    0.0308900000000000    0.5924100000000000 H
   0.3300120000000000    0.0250550000000000    0.5611900000000000 H
   0.3419400000000000    0.4700100000000000    0.5119500000000000 H
   0.3053880000000000    0.4380550000000000    0.5094500000000000 H
   0.2501120000000000    0.2620800000000000    0.4836600000000000 H
   0.2697820000000000    0.3041850000000000    0.5009000000000000 H
   0.3067400000000000    0.2214650000000000    0.5985700000000000 H
   0.2718140000000000    0.2129700000000000    0.5422700000000000 H
   0.3682380000000000    0.1363350000000000    0.1153600000000000 H
   0.3477720000000000    0.1383000000000000    0.0000000000000000 H
   0.2573340000000000    0.1185600000000000    0.9461700000000000 H
   0.2782740000000000    0.1173050000000000    0.0548500000000000 H
   0.3085580000000000    0.1819500000000000    0.1206400000000000 H
   0.2862820000000000    0.2370400000000000    0.0774200000000000 H
   0.3474580000000000    0.2950250000000000    0.2140100000000000 H
   0.3701080000000000    0.2404550000000000    0.2574900000000000 H
   0.3066900000000000    0.0721900000000000    0.1212100000000000 H
   0.2821680000000000    0.0180900000000000    0.0727500000000000 H
   0.3378600000000000    0.4573750000000000    0.2081100000000000 H
   0.3625820000000000    0.0110700000000000    0.2568100000000000 H
   0.2134360000000000    0.4679350000000000    0.0919000000000000 H
   0.3692000000000000    0.4736700000000000    0.0587000000000000 H
   0.3573760000000000    0.0291650000000000    0.0109200000000000 H
   0.3934580000000000    0.0616050000000000    0.0116300000000000 H
   0.2504620000000000    0.2378300000000000    0.9819099999999999 H
   0.2310700000000000    0.1957950000000000    0.0003700000000000 H
   0.3946240000000000    0.2788050000000000    0.0976700000000000 H
   0.2290320000000000    0.2872900000000000    0.0404100000000000 H
   0.2682220000000000    0.1364000000000000    0.3841700000000000 H
   0.2478880000000000    0.1383850000000000    0.4933600000000000 H
   0.3576540000000000    0.1190950000000000    0.5532100000000000 H
   0.3784520000000000    0.1178600000000000    0.4444600000000000 H
   0.2088180000000000    0.1817050000000000    0.3786200000000000 H
   0.3862780000000000    0.2373150000000000    0.4214400000000000 H
   0.2471500000000000    0.2953400000000000    0.2868900000000000 H
   0.2698200000000000    0.2410550000000000    0.2422600000000000 H
   0.2066940000000000    0.0721150000000000    0.3798000000000000 H
   0.3823000000000000    0.0179100000000000    0.4279500000000000 H
   0.2380640000000000    0.4574900000000000    0.2923200000000000 H
   0.2626720000000000    0.0112900000000000    0.2439000000000000 H
   0.3147920000000000    0.4689000000000000    0.4076400000000000 H
   0.2699880000000000    0.4747500000000000    0.4388900000000000 H
   0.2580720000000000    0.0298000000000000    0.4880900000000000 H
   0.2946340000000000    0.0617400000000000    0.4906100000000000 H
   0.3512180000000000    0.2376150000000000    0.5178000000000000 H
   0.3314820000000001    0.1955600000000000    0.5003900000000000 H
   0.2944740000000000    0.2782350000000000    0.4027500000000000 H
   0.3294340000000000    0.2868900000000000    0.4589000000000000 H
   0.2317560000000000    0.3635750000000000    0.8846100000000000 H
   0.2522300000000000    0.3616150000000000    0.9937700000000000 H
   0.3426360000000001    0.3814150000000000    0.0541900000000000 H
   0.3217340000000000    0.3826150000000000    0.9454900000000001 H
   0.2913440000000000    0.3179400000000000    0.8794800000000000 H
   0.3136300000000000    0.2628500000000000    0.9226799999999999 H
   0.2524860000000000    0.2048800000000000    0.7860300000000000 H
   0.2298340000000000    0.2594600000000000    0.7425500000000000 H
   0.2931520000000000    0.4277800000000000    0.8790400000000000 H
   0.3176400000000000    0.4818550000000000    0.9276300000000000 H
   0.2621400000000000    0.0426300000000000    0.7921300000000000 H
   0.2374460000000000    0.4889600000000000    0.7433100000000000 H
   0.3865260000000000    0.0319550000000000    0.9082000000000000 H
   0.2308160000000000    0.0263750000000000    0.9416000000000000 H
   0.2426100000000000    0.4708200000000000    0.9892200000000000 H
   0.2065160000000000    0.4383950000000000    0.9883900000000000 H
   0.3495480000000000    0.2620950000000000    0.0181700000000000 H
   0.3689300000000000    0.3041500000000000    0.9997700000000000 H
   0.2053880000000000    0.2210850000000000    0.9024200000000000 H
   0.3709980000000000    0.2126700000000000    0.9595600000000000 H
   0.5318300000000000    0.3635050000000000    0.6161900000000000 H
   0.5522740000000000    0.3614800000000000    0.5070500000000000 H
   0.4425780000000000    0.3808100000000000    0.4468700000000000 H
   0.4216840000000000    0.3821400000000000    0.5555500000000000 H
   0.5914000000000000    0.3178450000000000    0.6218100000000000 H
   0.4134500000000000    0.2635250000000000    0.5770300000000000 H
   0.5526480000000000    0.2047750000000000    0.7152700000000000 H
   0.5299300000000000    0.2593400000000000    0.7586800000000000 H
   0.5928800000000001    0.4275150000000000    0.6217400000000000 H
   0.4178040000000000    0.4820700000000000    0.5721200000000000 H
   0.5620040000000001    0.0425700000000000    0.7079500000000000 H
   0.5375000000000001    0.4890150000000000    0.7573700000000000 H
   0.4852020000000000    0.0308900000000000    0.5924100000000000 H
   0.5300120000000000    0.0250550000000000    0.5611900000000000 H
   0.5419400000000001    0.4700100000000000    0.5119500000000000 H
   0.5053880000000001    0.4380550000000000    0.5094500000000000 H
   0.4501120000000000    0.2620800000000000    0.4836600000000000 H
   0.4697820000000000    0.3041850000000000    0.5009000000000000 H
   0.5067400000000000    0.2214650000000000    0.5985700000000000 H
   0.4718140000000000    0.2129700000000000    0.5422700000000000 H
   0.5682380000000000    0.1363350000000000    0.1153600000000000 H
   0.5477720000000000    0.1383000000000000    0.0000000000000000 H
   0.4573340000000000    0.1185600000000000    0.9461700000000000 H
   0.4782740000000000    0.1173050000000000    0.0548500000000000 H
   0.5085580000000001    0.1819500000000000    0.1206400000000000 H
   0.4862820000000000    0.2370400000000000    0.0774200000000000 H
   0.5474580000000000    0.2950250000000000    0.2140100000000000 H
   0.5701080000000001    0.2404550000000000    0.2574900000000000 H
   0.5066900000000001    0.0721900000000000    0.1212100000000000 H
   0.4821680000000000    0.0180900000000000    0.0727500000000000 H
   0.5378600000000000    0.4573750000000000    0.2081100000000000 H
   0.5625820000000000    0.0110700000000000    0.2568100000000000 H
   0.4134360000000000    0.4679350000000000    0.0919000000000000 H
   0.5692000000000000    0.4736700000000000    0.0587000000000000 H
   0.5573760000000001    0.0291650000000000    0.0109200000000000 H
   0.5934580000000000    0.0616050000000000    0.0116300000000000 H
   0.4504620000000000    0.2378300000000000    0.9819099999999999 H
   0.4310700000000000    0.1957950000000000    0.0003700000000000 H
   0.5946240000000000    0.2788050000000000    0.0976700000000000 H
   0.4290320000000000    0.2872900000000000    0.0404100000000000 H
   0.4682220000000000    0.1364000000000000    0.3841700000000000 H
   0.4478880000000000    0.1383850000000000    0.4933600000000000 H
   0.5576540000000001    0.1190950000000000    0.5532100000000000 H
   0.5784520000000001    0.1178600000000000    0.4444600000000000 H
   0.4088180000000000    0.1817050000000000    0.3786200000000000 H
   0.5862780000000001    0.2373150000000000    0.4214400000000000 H
   0.4471500000000000    0.2953400000000000    0.2868900000000000 H
   0.4698200000000000    0.2410550000000000    0.2422600000000000 H
   0.4066940000000000    0.0721150000000000    0.3798000000000000 H
   0.5823000000000000    0.0179100000000000    0.4279500000000000 H
   0.4380640000000000    0.4574900000000000    0.2923200000000000 H
   0.4626720000000000    0.0112900000000000    0.2439000000000000 H
   0.5147920000000000    0.4689000000000000    0.4076400000000000 H
   0.4699880000000000    0.4747500000000000    0.4388900000000000 H
   0.4580720000000000    0.0298000000000000    0.4880900000000000 H
   0.4946340000000000    0.0617400000000000    0.4906100000000000 H
   0.5512180000000000    0.2376150000000000    0.5178000000000000 H
   0.5314820000000000    0.1955600000000000    0.5003900000000000 H
   0.4944740000000000    0.2782350000000000    0.4027500000000000 H
   0.5294340000000001    0.2868900000000000    0.4589000000000000 H
   0.4317560000000000    0.3635750000000000    0.8846100000000000 H
   0.4522300000000000    0.3616150000000000    0.9937700000000000 H
   0.5426360000000000    0.3814150000000000    0.0541900000000000 H
   0.5217340000000000    0.3826150000000000    0.9454900000000001 H
   0.4913440000000000    0.3179400000000000    0.8794800000000000 H
   0.5136300000000000    0.2628500000000000    0.9226799999999999 H
   0.4524860000000001    0.2048800000000000    0.7860300000000000 H
   0.4298340000000000    0.2594600000000000    0.7425500000000000 H
   0.4931520000000000    0.4277800000000000    0.8790400000000000 H
   0.5176400000000000    0.4818550000000000    0.9276300000000000 H
   0.4621400000000000    0.0426300000000000    0.7921300000000000 H
   0.4374460000000000    0.4889600000000000    0.7433100000000000 H
   0.5865260000000000    0.0319550000000000    0.9082000000000000 H
   0.4308160000000000    0.0263750000000000    0.9416000000000000 H
   0.4426100000000000    0.4708200000000000    0.9892200000000000 H
   0.4065160000000000    0.4383950000000000    0.9883900000000000 H
   0.5495480000000000    0.2620950000000000    0.0181700000000000 H
   0.5689300000000000    0.3041500000000000    0.9997700000000000 H
   0.4053880000000000    0.2210850000000000    0.9024200000000000 H
   0.5709980000000000    0.2126700000000000    0.9595600000000000 H
   0.7318300000000001    0.3635050000000000    0.6161900000000000 H
   0.7522740000000001    0.3614800000000000    0.5070500000000000 H
   0.6425780000000001    0.3808100000000000    0.4468700000000000 H
   0.6216840000000001    0.3821400000000000    0.5555500000000000 H
   0.7914000000000001    0.3178450000000000    0.6218100000000000 H
   0.6134500000000001    0.2635250000000000    0.5770300000000000 H
   0.7526480000000001    0.2047750000000000    0.7152700000000000 H
   0.7299300000000001    0.2593400000000000    0.7586800000000000 H
   0.7928800000000001    0.4275150000000000    0.6217400000000000 H
   0.6178040000000001    0.4820700000000000    0.5721200000000000 H
   0.7620040000000001    0.0425700000000000    0.7079500000000000 H
   0.7375000000000000    0.4890150000000000    0.7573700000000000 H
   0.6852020000000001    0.0308900000000000    0.5924100000000000 H
   0.7300120000000001    0.0250550000000000    0.5611900000000000 H
   0.7419400000000000    0.4700100000000000    0.5119500000000000 H
   0.7053880000000001    0.4380550000000000    0.5094500000000000 H
   0.6501120000000001    0.2620800000000000    0.4836600000000000 H
   0.6697820000000001    0.3041850000000000    0.5009000000000000 H
   0.7067400000000001    0.2214650000000000    0.5985700000000000 H
   0.6718140000000001    0.2129700000000000    0.5422700000000000 H
   0.7682380000000001    0.1363350000000000    0.1153600000000000 H
   0.7477720000000001    0.1383000000000000    0.0000000000000000 H
   0.6573340000000001    0.1185600000000000    0.9461700000000000 H
   0.6782740000000000    0.1173050000000000    0.0548500000000000 H
   0.7085580000000001    0.1819500000000000    0.1206400000000000 H
   0.6862820000000001    0.2370400000000000    0.0774200000000000 H
   0.7474580000000001    0.2950250000000000    0.2140100000000000 H
   0.7701080000000001    0.2404550000000000    0.2574900000000000 H
   0.7066900000000000    0.0721900000000000    0.1212100000000000 H
   0.6821680000000001    0.0180900000000000    0.0727500000000000 H
   0.7378600000000001    0.4573750000000000    0.2081100000000000 H
   0.7625820000000001    0.0110700000000000    0.2568100000000000 H
   0.6134360000000001    0.4679350000000000    0.0919000000000000 H
   0.7692000000000001    0.4736700000000000    0.0587000000000000 H
   0.7573760000000000    0.0291650000000000    0.0109200000000000 H
   0.7934580000000001    0.0616050000000000    0.0116300000000000 H
   0.6504620000000001    0.2378300000000000    0.9819099999999999 H
   0.6310700000000001    0.1957950000000000    0.0003700000000000 H
   0.7946240000000001    0.2788050000000000    0.0976700000000000 H
   0.6290320000000000    0.2872900000000000    0.0404100000000000 H
   0.6682220000000001    0.1364000000000000    0.3841700000000000 H
   0.6478880000000001    0.1383850000000000    0.4933600000000000 H
   0.7576540000000000    0.1190950000000000    0.5532100000000000 H
   0.7784520000000001    0.1178600000000000    0.4444600000000000 H
   0.6088180000000001    0.1817050000000000    0.3786200000000000 H
   0.7862780000000001    0.2373150000000000    0.4214400000000000 H
   0.6471500000000001    0.2953400000000000    0.2868900000000000 H
   0.6698200000000001    0.2410550000000000    0.2422600000000000 H
   0.6066940000000001    0.0721150000000000    0.3798000000000000 H
   0.7823000000000001    0.0179100000000000    0.4279500000000000 H
   0.6380640000000001    0.4574900000000000    0.2923200000000000 H
   0.6626720000000001    0.0112900000000000    0.2439000000000000 H
   0.7147920000000001    0.4689000000000000    0.4076400000000000 H
   0.6699880000000000    0.4747500000000000    0.4388900000000000 H
   0.6580720000000001    0.0298000000000000    0.4880900000000000 H
   0.6946340000000001    0.0617400000000000    0.4906100000000000 H
   0.7512180000000002    0.2376150000000000    0.5178000000000000 H
   0.7314820000000001    0.1955600000000000    0.5003900000000000 H
   0.6944740000000000    0.2782350000000000    0.4027500000000000 H
   0.7294340000000001    0.2868900000000000    0.4589000000000000 H
   0.6317560000000001    0.3635750000000000    0.8846100000000000 H
   0.6522300000000001    0.3616150000000000    0.9937700000000000 H
   0.7426360000000001    0.3814150000000000    0.0541900000000000 H
   0.7217340000000001    0.3826150000000000    0.9454900000000001 H
   0.6913440000000001    0.3179400000000000    0.8794800000000000 H
   0.7136300000000001    0.2628500000000000    0.9226799999999999 H
   0.6524860000000001    0.2048800000000000    0.7860300000000000 H
   0.6298340000000001    0.2594600000000000    0.7425500000000000 H
   0.6931520000000001    0.4277800000000000    0.8790400000000000 H
   0.7176400000000001    0.4818550000000000    0.9276300000000000 H
   0.6621400000000001    0.0426300000000000    0.7921300000000000 H
   0.6374460000000001    0.4889600000000000    0.7433100000000000 H
   0.7865260000000001    0.0319550000000000    0.9082000000000000 H
   0.6308160000000000    0.0263750000000000    0.9416000000000000 H
   0.6426100000000001    0.4708200000000000    0.9892200000000000 H
   0.6065160000000001    0.4383950000000000    0.9883900000000000 H
   0.7495480000000001    0.2620950000000000    0.0181700000000000 H