H6 O4
1.0
  30.6582608289668279    0.0000000000000000    1.3954006388984703
   4.6590361529561015   30.2339249969984039    3.0452791992398858
   0.0000000000000000    0.0000000000000000   22.3829999999999991
H O
6 4
direct
   0.6476275445323678    0.0317993546807361    0.2071665177639279 H
   0.6613550441611765    1.0170540016590415    0.3148638104772725 H
   0.6313870219832671    0.6353582399690693    0.3448099095090273 H
   0.6615638139252533    0.6443813722307931    0.1694670050349534 H
   0.6462006314921132    0.6447150681806976    0.2570439547922781 H
   0.6528223701215071    0.3936452142606652    0.2593479054134710 H
   0.6482650000000000    0.0000000000000000    0.2112000000000000 O
   0.6609950000000000    0.9859550000000000    0.3110600000000000 O
   0.6387600000000000    0.6223800000000000    0.3071800000000000 O
   0.6559550000000001    0.6275450000000000    0.2072600000000000 O
