Zn16 H216 C392 N28 O94
1.0
  30.6582608289668279    0.0000000000000000    1.3954006388984703
   4.6590361529561015   30.2339249969984039    3.0452791992398858
   0.0000000000000000    0.0000000000000000   22.3829999999999991
Zn H C N O
16 216 392 28 94
direct
   0.1500200000000000    0.0535800000000000    0.3205700000000000 Zn
   0.1525150000000000    0.0628250000000000    0.1950600000000000 Zn
   0.1525150000000000    0.5628250000000000    0.1950600000000000 Zn
   0.1500200000000000    0.5535800000000000    0.3205700000000000 Zn
   0.6500200000000000    0.0535800000000000    0.3205700000000000 Zn
   0.6525150000000000    0.5628250000000000    0.1950600000000000 Zn
   0.6525150000000000    0.0628250000000000    0.1950600000000000 Zn
   0.6500200000000000    0.5535800000000000    0.3205700000000000 Zn
   0.8475200000000001    0.9371800000000000    0.8049400000000000 Zn
   0.8499900000000000    0.9464300000000000    0.6794300000000000 Zn
   0.3475200000000000    0.9371800000000000    0.8049400000000000 Zn
   0.3499900000000000    0.9464300000000000    0.6794300000000000 Zn
   0.8475200000000001    0.4371800000000000    0.8049400000000000 Zn
   0.8499900000000000    0.4464300000000000    0.6794300000000000 Zn
   0.3475200000000000    0.4371800000000000    0.8049400000000000 Zn
   0.3499900000000000    0.4464300000000000    0.6794300000000000 Zn
   0.1318312286917817    0.0721920845070459    0.4343245319281270 H
   0.1704193501869565    0.0265976402500235    0.4360717998694283 H
   0.7858450000000000    0.0628000000000000    0.3505700000000000 H
   0.8660150000000000    0.0675550000000000    0.3511400000000000 H
   0.7948649999999999    0.0525750000000000    0.1609400000000000 H
   0.8753900000000000    0.0557000000000000    0.1605000000000000 H
   0.0099200000000000    0.0937050000000000    0.1650600000000000 H
   0.9290250000000000    0.0937300000000000    0.1649500000000000 H
   0.9335249999999999    0.0324650000000000    0.3471800000000000 H
   0.0136250000000000    0.0351950000000000    0.3470800000000000 H
   0.1746348899126486    0.0380353183249944    0.0844711262378512 H
   0.1389717844551978    0.0856925936357249    0.0768163003576757 H
   0.1713300000000000    0.7005900000000000    0.1664000000000000 H
   0.1738650000000000    0.7810000000000000    0.1671900000000000 H
   0.1232000000000000    0.6946050000000000    0.3492800000000000 H
   0.1233600000000000    0.7753900000000000    0.3502400000000000 H
   0.1358800000000000    0.9289950000000000    0.1677300000000000 H
   0.1329450000000000    0.8487350000000000    0.1663700000000000 H
   0.1679300000000000    0.9082300000000000    0.3539200000000000 H
   0.1672300000000000    0.8276399999999999    0.3527700000000000 H
   0.1713300000000000    0.2005900000000000    0.1664000000000000 H
   0.1738650000000000    0.2810000000000000    0.1671900000000000 H
   0.1232000000000000    0.1946050000000000    0.3492800000000000 H
   0.1233600000000000    0.2753900000000000    0.3502400000000000 H
   0.1358800000000000    0.4289950000000000    0.1677300000000000 H
   0.1329450000000000    0.3487350000000000    0.1663700000000000 H
   0.1679300000000000    0.4082300000000000    0.3539200000000000 H
   0.1672300000000000    0.3276400000000000    0.3527700000000000 H
   0.2038000000000000    0.5000000000000000    0.0000000000000000 H
   0.1125600000000000    0.6197650000000000    0.9776300000000000 H
   0.2004250000000000    0.5037250000000000    0.1079100000000000 H
   0.1126000000000000    0.6209150000000000    0.0896000000000000 H
   0.2653150000000000    0.5536600000000000    0.6921400000000000 H
   0.2666950000000000    0.5557850000000000    0.8036200000000000 H
   0.0474350000000000    0.5518250000000000    0.8242800000000000 H
   0.0463700000000000    0.5483700000000000    0.7124400000000000 H
   0.2028200000000000    0.4902800000000000    0.5310000000000000 H
   0.1039950000000000    0.6070650000000000    0.5264000000000000 H
   0.1984250000000000    0.4935750000000000    0.4192700000000000 H
   0.1036150000000000    0.6056950000000000    0.4144500000000000 H
   0.7858450000000000    0.5628000000000000    0.3505700000000000 H
   0.8660150000000000    0.5675550000000000    0.3511400000000000 H
   0.7948649999999999    0.5525750000000000    0.1609400000000000 H
   0.8753900000000000    0.5557000000000000    0.1605000000000000 H
   0.0099200000000000    0.5937050000000000    0.1650600000000000 H
   0.9290250000000000    0.5937300000000000    0.1649500000000000 H
   0.9335249999999999    0.5324650000000000    0.3471800000000000 H
   0.0136250000000000    0.5351950000000000    0.3470800000000000 H
   0.7038000000000000    0.0000000000000000    0.0000000000000000 H
   0.6125600000000000    0.1197650000000000    0.9776300000000000 H
   0.7004250000000000    0.0037250000000000    0.1079100000000000 H
   0.6126000000000000    0.1209150000000000    0.0896000000000000 H
   0.7653150000000000    0.0536600000000000    0.6921400000000000 H
   0.7666950000000000    0.0557850000000000    0.8036200000000000 H
   0.5474350000000000    0.0518250000000000    0.8242800000000000 H
   0.5463700000000000    0.0483700000000000    0.7124400000000000 H
   0.7028200000000000    0.9902800000000000    0.5310000000000000 H
   0.6039950000000001    0.1070650000000000    0.5264000000000000 H
   0.6984250000000000    0.9935750000000000    0.4192700000000000 H
   0.6036150000000000    0.1056950000000000    0.4144500000000000 H
   0.2858450000000000    0.0628000000000000    0.3505700000000000 H
   0.3660150000000000    0.0675550000000000    0.3511400000000000 H
   0.2948650000000000    0.0525750000000000    0.1609400000000000 H
   0.3753900000000000    0.0557000000000000    0.1605000000000000 H
   0.5099200000000000    0.0937050000000000    0.1650600000000000 H
   0.4290250000000000    0.0937300000000000    0.1649500000000000 H
   0.4335250000000000    0.0324650000000000    0.3471800000000000 H
   0.5136250000000000    0.0351950000000000    0.3470800000000000 H
   0.6713300000000000    0.2005900000000000    0.1664000000000000 H
   0.6738649999999999    0.2810000000000000    0.1671900000000000 H
   0.6232000000000000    0.1946050000000000    0.3492800000000000 H
   0.6233600000000000    0.2753900000000000    0.3502400000000000 H
   0.6358800000000000    0.4289950000000000    0.1677300000000000 H
   0.6329450000000000    0.3487350000000000    0.1663700000000000 H
   0.6679300000000000    0.4082300000000000    0.3539200000000000 H
   0.6672300000000000    0.3276400000000000    0.3527700000000000 H
   0.6713300000000000    0.7005900000000000    0.1664000000000000 H
   0.6738649999999999    0.7810000000000000    0.1671900000000000 H
   0.6232000000000000    0.6946050000000000    0.3492800000000000 H
   0.6233600000000000    0.7753900000000000    0.3502400000000000 H
   0.6358800000000000    0.9289950000000000    0.1677300000000000 H
   0.6329450000000000    0.8487350000000000    0.1663700000000000 H
   0.6679300000000000    0.9082300000000000    0.3539200000000000 H
   0.6672300000000000    0.8276399999999999    0.3527700000000000 H
   0.7038000000000000    0.5000000000000000    0.0000000000000000 H
   0.6125600000000000    0.6197650000000000    0.9776300000000000 H
   0.7004250000000000    0.5037250000000000    0.1079100000000000 H
   0.6126000000000000    0.6209150000000000    0.0896000000000000 H
   0.7653150000000000    0.5536600000000000    0.6921400000000000 H
   0.7666950000000000    0.5557850000000000    0.8036200000000000 H
   0.5474350000000000    0.5518250000000000    0.8242800000000000 H
   0.5463700000000000    0.5483700000000000    0.7124400000000000 H
   0.7028200000000000    0.4902800000000000    0.5310000000000000 H
   0.6039950000000001    0.6070650000000000    0.5264000000000000 H
   0.6984250000000000    0.4935750000000000    0.4192700000000000 H
   0.6036150000000000    0.6056950000000000    0.4144500000000000 H
   0.2858450000000000    0.5628000000000000    0.3505700000000000 H
   0.3660150000000000    0.5675550000000000    0.3511400000000000 H
   0.2948650000000000    0.5525750000000000    0.1609400000000000 H
   0.3753900000000000    0.5557000000000000    0.1605000000000000 H
   0.5099200000000000    0.5937050000000000    0.1650600000000000 H
   0.4290250000000000    0.5937300000000000    0.1649500000000000 H
   0.4335250000000000    0.5324650000000000    0.3471800000000000 H
   0.5136250000000000    0.5351950000000000    0.3470800000000000 H
   0.8286750000000001    0.7994250000000001    0.8336000000000000 H
   0.8261350000000001    0.7190150000000000    0.8328100000000001 H
   0.8768100000000000    0.8054049999999999    0.6507200000000000 H
   0.8766400000000000    0.7246200000000000    0.6497600000000000 H
   0.8320700000000000    0.5917800000000000    0.6460900000000001 H
   0.8327650000000000    0.6723700000000000    0.6472400000000000 H
   0.8641250000000000    0.5710200000000000    0.8322800000000000 H
   0.8670550000000000    0.6512850000000000    0.8336300000000000 H
   0.7961950000000000    0.0025950000000000    0.0022900000000000 H
   0.8874400000000000    0.8802400000000000    0.0223700000000000 H
   0.7995800000000000    0.9962700000000000    0.8920800000000000 H
   0.8874150000000001    0.8790800000000000    0.9104100000000001 H
   0.7346800000000000    0.9463650000000000    0.3078500000000000 H
   0.7333000000000001    0.9442300000000000    0.1963800000000000 H
   0.9525600000000001    0.9481850000000001    0.1757200000000000 H
   0.9536300000000000    0.9516300000000000    0.2875600000000000 H
   0.7971750000000000    0.0097250000000000    0.4690000000000000 H
   0.8960100000000000    0.8929400000000001    0.4736100000000000 H
   0.8015749999999999    0.0064400000000000    0.5807300000000000 H
   0.8963900000000000    0.8943200000000000    0.5855500000000000 H
   0.2141600000000000    0.9372350000000000    0.6494300000000000 H
   0.1339900000000000    0.9324800000000000    0.6488600000000000 H
   0.2051550000000000    0.9474350000000000    0.8390700000000000 H
   0.1246250000000000    0.9443100000000000    0.8395100000000000 H
   0.0000000000000000    0.9063150000000000    0.8349299999999999 H
   0.0709800000000000    0.9062950000000001    0.8350600000000000 H
   0.9863950000000000    0.9648150000000000    0.6529199999999999 H
   0.0664850000000000    0.9675600000000000    0.6528300000000000 H
   0.3286750000000000    0.7994250000000001    0.8336000000000000 H
   0.3261350000000000    0.7190150000000000    0.8328100000000001 H
   0.3768100000000000    0.8054049999999999    0.6507200000000000 H
   0.3766400000000000    0.7246200000000000    0.6497600000000000 H
   0.3320700000000000    0.5917800000000000    0.6460900000000001 H
   0.3327650000000000    0.6723700000000000    0.6472400000000000 H
   0.3641250000000000    0.5710200000000000    0.8322800000000000 H
   0.3670550000000000    0.6512850000000000    0.8336300000000000 H
   0.2961950000000000    0.0025950000000000    0.0022900000000000 H
   0.3874400000000000    0.8802400000000000    0.0223700000000000 H
   0.2995800000000000    0.9962700000000000    0.8920800000000000 H
   0.3874150000000000    0.8790800000000000    0.9104100000000001 H
   0.2346800000000000    0.9463650000000000    0.3078500000000000 H
   0.2333000000000000    0.9442300000000000    0.1963800000000000 H
   0.4525600000000000    0.9481850000000001    0.1757200000000000 H
   0.4536300000000000    0.9516300000000000    0.2875600000000000 H
   0.2971750000000000    0.0097250000000000    0.4690000000000000 H
   0.3960100000000000    0.8929400000000001    0.4736100000000000 H
   0.3015750000000000    0.0064400000000000    0.5807300000000000 H
   0.3963900000000000    0.8943200000000000    0.5855500000000000 H
   0.7141600000000000    0.9372350000000000    0.6494300000000000 H
   0.6339900000000001    0.9324800000000000    0.6488600000000000 H
   0.7051550000000000    0.9474350000000000    0.8390700000000000 H
   0.6246250000000000    0.9443100000000000    0.8395100000000000 H
   0.5000000000000000    0.9063150000000000    0.8349299999999999 H
   0.5709800000000000    0.9062950000000001    0.8350600000000000 H
   0.4863950000000000    0.9648150000000000    0.6529199999999999 H
   0.5664850000000000    0.9675600000000000    0.6528300000000000 H
   0.8286750000000001    0.2994250000000000    0.8336000000000000 H
   0.8261350000000001    0.2190150000000000    0.8328100000000001 H
   0.8768100000000000    0.3054050000000000    0.6507200000000000 H
   0.8766400000000000    0.2246200000000000    0.6497600000000000 H
   0.8320700000000000    0.0917800000000000    0.6460900000000001 H
   0.8327650000000000    0.1723700000000000    0.6472400000000000 H
   0.8641250000000000    0.0710200000000000    0.8322800000000000 H
   0.8670550000000000    0.1512850000000000    0.8336300000000000 H
   0.7961950000000000    0.5025950000000000    0.0022900000000000 H
   0.8874400000000000    0.3802400000000000    0.0223700000000000 H
   0.7995800000000000    0.4962700000000000    0.8920800000000000 H
   0.8874150000000001    0.3790800000000000    0.9104100000000001 H
   0.7346800000000000    0.4463650000000000    0.3078500000000000 H
   0.7333000000000001    0.4442300000000000    0.1963800000000000 H
   0.9525600000000001    0.4481850000000000    0.1757200000000000 H
   0.9536300000000000    0.4516300000000000    0.2875600000000000 H
   0.7971750000000000    0.5097250000000000    0.4690000000000000 H
   0.8960100000000000    0.3929400000000000    0.4736100000000000 H
   0.8015749999999999    0.5064400000000000    0.5807300000000000 H
   0.8963900000000000    0.3943200000000000    0.5855500000000000 H
   0.2141600000000000    0.4372350000000000    0.6494300000000000 H
   0.1339900000000000    0.4324800000000000    0.6488600000000000 H
   0.2051550000000000    0.4474350000000000    0.8390700000000000 H
   0.1246250000000000    0.4443100000000000    0.8395100000000000 H
   0.0000000000000000    0.4063150000000000    0.8349299999999999 H
   0.0709800000000000    0.4062950000000000    0.8350600000000000 H
   0.9863950000000000    0.4648150000000000    0.6529199999999999 H
   0.0664850000000000    0.4675600000000000    0.6528300000000000 H
   0.3286750000000000    0.2994250000000000    0.8336000000000000 H
   0.3261350000000000    0.2190150000000000    0.8328100000000001 H
   0.3768100000000000    0.3054050000000000    0.6507200000000000 H
   0.3766400000000000    0.2246200000000000    0.6497600000000000 H
   0.3320700000000000    0.0917800000000000    0.6460900000000001 H
   0.3327650000000000    0.1723700000000000    0.6472400000000000 H
   0.3641250000000000    0.0710200000000000    0.8322800000000000 H
   0.3670550000000000    0.1512850000000000    0.8336300000000000 H
   0.2961950000000000    0.5025950000000000    0.0022900000000000 H
   0.3874400000000000    0.3802400000000000    0.0223700000000000 H
   0.2995800000000000    0.4962700000000000    0.8920800000000000 H
   0.3874150000000000    0.3790800000000000    0.9104100000000001 H
   0.2346800000000000    0.4463650000000000    0.3078500000000000 H
   0.2333000000000000    0.4442300000000000    0.1963800000000000 H
   0.4525600000000000    0.4481850000000000    0.1757200000000000 H
   0.4536300000000000    0.4516300000000000    0.2875600000000000 H
   0.2971750000000000    0.5097250000000000    0.4690000000000000 H
   0.3960100000000000    0.3929400000000000    0.4736100000000000 H
   0.3015750000000000    0.5064400000000000    0.5807300000000000 H
   0.3963900000000000    0.3943200000000000    0.5855500000000000 H
   0.7141600000000000    0.4372350000000000    0.6494300000000000 H
   0.6339900000000001    0.4324800000000000    0.6488600000000000 H
   0.7051550000000000    0.4474350000000000    0.8390700000000000 H
   0.6246250000000000    0.4443100000000000    0.8395100000000000 H
   0.5000000000000000    0.4063150000000000    0.8349299999999999 H
   0.5709800000000000    0.4062950000000000    0.8350600000000000 H
   0.4863950000000000    0.4648150000000000    0.6529199999999999 H
   0.5664850000000000    0.4675600000000000    0.6528300000000000 H
   0.0656450000000000    0.0647050000000000    0.2560500000000000 C
   0.7373350000000000    0.0536000000000000    0.2563300000000000 C
   0.8060650000000000    0.0609750000000000    0.3093400000000000 C
   0.8509200000000000    0.0633650000000000    0.3093400000000000 C
   0.8110400000000000    0.0555400000000000    0.2023600000000000 C
   0.8559600000000001    0.0577950000000000    0.2024000000000000 C
   0.7856000000000001    0.0567250000000000    0.2559000000000000 C
   0.8769899999999999    0.0615950000000000    0.2558700000000000 C
   0.9925850000000001    0.0807100000000000    0.2047900000000000 C
   0.9473650000000000    0.0801250000000000    0.2048600000000000 C
   0.9495100000000001    0.0470600000000000    0.3073400000000000 C
   0.9946600000000000    0.0479900000000000    0.3074500000000000 C
   0.0167650000000000    0.0647400000000000    0.2561600000000000 C
   0.9248449999999999    0.0631300000000000    0.2560500000000000 C
   0.1470750000000000    0.6438900000000000    0.2574300000000000 C
   0.1536750000000000    0.9720949999999999    0.2611500000000000 C
   0.1608250000000000    0.7174600000000000    0.2063600000000000 C
   0.1618250000000000    0.7624850000000001    0.2069900000000000 C
   0.1339800000000000    0.7140100000000000    0.3095400000000000 C
   0.1346250000000000    0.7591100000000000    0.3099800000000000 C
   0.1470250000000000    0.6926400000000000    0.2577100000000000 C
   0.1487450000000000    0.7842750000000001    0.2587900000000000 C
   0.1427250000000000    0.9063650000000000    0.2079600000000000 C
   0.1414800000000000    0.8613900000000000    0.2074200000000000 C
   0.1605500000000000    0.8947700000000001    0.3129400000000000 C
   0.1596200000000000    0.8497399999999999    0.3121900000000000 C
   0.1522200000000000    0.9236300000000000    0.2607700000000000 C
   0.1499650000000000    0.8320850000000000    0.2594800000000000 C
   0.1470750000000000    0.1438900000000000    0.2574300000000000 C
   0.1536750000000000    0.4720950000000000    0.2611500000000000 C
   0.1608250000000000    0.2174600000000000    0.2063600000000000 C
   0.1618250000000000    0.2624850000000000    0.2069900000000000 C
   0.1339800000000000    0.2140100000000000    0.3095400000000000 C
   0.1346250000000000    0.2591100000000000    0.3099800000000000 C
   0.1470250000000000    0.1926400000000000    0.2577100000000000 C
   0.1487450000000000    0.2842750000000000    0.2587900000000000 C
   0.1427250000000000    0.4063650000000000    0.2079600000000000 C
   0.1414800000000000    0.3613900000000000    0.2074200000000000 C
   0.1605500000000000    0.3947700000000000    0.3129400000000000 C
   0.1596200000000000    0.3497400000000000    0.3121900000000000 C
   0.1522200000000000    0.4236300000000000    0.2607700000000000 C
   0.1499650000000000    0.3320850000000000    0.2594800000000000 C
   0.1833050000000000    0.5254150000000000    0.0159800000000000 C
   0.1325400000000000    0.5936200000000000    0.0050900000000000 C
   0.1815100000000000    0.5287900000000000    0.0775700000000000 C
   0.1324050000000000    0.5944100000000000    0.0670400000000000 C
   0.1582500000000000    0.5583750000000000    0.9792600000000000 C
   0.1165250000000000    0.5554000000000000    0.8899100000000000 C
   0.1991850000000000    0.5548200000000000    0.8828100000000000 C
   0.2350300000000000    0.5543450000000000    0.7194600000000000 C
   0.1957750000000000    0.5526150000000000    0.6918800000000001 C
   0.2358000000000000    0.5552400000000000    0.7819400000000000 C
   0.1972400000000000    0.5549550000000000    0.8169700000000000 C
   0.0774950000000000    0.5521500000000000    0.7965400000000000 C
   0.1168250000000000    0.5539250000000000    0.8241700000000000 C
   0.0768650000000000    0.5503400000000001    0.7343100000000000 C
   0.1156400000000000    0.5503450000000000    0.6995300000000000 C
   0.1559550000000000    0.5525400000000000    0.7264200000000000 C
   0.1566300000000000    0.5541050000000000    0.7897600000000000 C
   0.1803000000000000    0.5162500000000000    0.5069100000000000 C
   0.1253000000000000    0.5814350000000000    0.5042100000000000 C
   0.1779100000000000    0.5179200000000000    0.4447700000000000 C
   0.1247600000000000    0.5807200000000000    0.4423500000000000 C
   0.1535650000000000    0.5486300000000000    0.5369699999999999 C
   0.1143000000000000    0.5474950000000000    0.6342400000000000 C
   0.1962050000000000    0.5508450000000000    0.6261200000000000 C
   0.0656450000000000    0.5647050000000000    0.2560500000000000 C
   0.7373350000000000    0.5536000000000000    0.2563300000000000 C
   0.8060650000000000    0.5609750000000000    0.3093400000000000 C
   0.8509200000000000    0.5633650000000000    0.3093400000000000 C
   0.8110400000000000    0.5555400000000000    0.2023600000000000 C
   0.8559600000000001    0.5577950000000000    0.2024000000000000 C
   0.7856000000000001    0.5567250000000000    0.2559000000000000 C
   0.8769899999999999    0.5615950000000000    0.2558700000000000 C
   0.9925850000000001    0.5807100000000001    0.2047900000000000 C
   0.9473650000000000    0.5801250000000000    0.2048600000000000 C
   0.9495100000000001    0.5470600000000000    0.3073400000000000 C
   0.9946600000000000    0.5479900000000000    0.3074500000000000 C
   0.0167650000000000    0.5647400000000000    0.2561600000000000 C
   0.9248449999999999    0.5631300000000000    0.2560500000000000 C
   0.6833050000000001    0.0254150000000000    0.0159800000000000 C
   0.6325400000000000    0.0936200000000000    0.0050900000000000 C
   0.6815100000000001    0.0287900000000000    0.0775700000000000 C
   0.6324050000000000    0.0944100000000000    0.0670400000000000 C
   0.6582500000000000    0.0583750000000000    0.9792600000000000 C
   0.6165250000000000    0.0554000000000000    0.8899100000000000 C
   0.6991849999999999    0.0548200000000000    0.8828100000000000 C
   0.7350300000000000    0.0543450000000000    0.7194600000000000 C
   0.6957750000000000    0.0526150000000000    0.6918800000000001 C
   0.7358000000000000    0.0552400000000000    0.7819400000000000 C
   0.6972400000000000    0.0549550000000000    0.8169700000000000 C
   0.5774950000000000    0.0521500000000000    0.7965400000000000 C
   0.6168250000000000    0.0539250000000000    0.8241700000000000 C
   0.5768650000000000    0.0503400000000000    0.7343100000000000 C
   0.6156400000000000    0.0503450000000000    0.6995300000000000 C
   0.6559550000000001    0.0525400000000000    0.7264200000000000 C
   0.6566300000000000    0.0541050000000000    0.7897600000000000 C
   0.6803000000000000    0.0162500000000000    0.5069100000000000 C
   0.6253000000000000    0.0814350000000000    0.5042100000000000 C
   0.6779100000000000    0.0179200000000000    0.4447700000000000 C
   0.6247600000000000    0.0807200000000000    0.4423500000000000 C
   0.6535650000000000    0.0486300000000000    0.5369699999999999 C
   0.6143000000000000    0.0474950000000000    0.6342400000000000 C
   0.6962050000000000    0.0508450000000000    0.6261200000000000 C
   0.5656450000000000    0.0647050000000000    0.2560500000000000 C
   0.2373350000000000    0.0536000000000000    0.2563300000000000 C
   0.3060650000000000    0.0609750000000000    0.3093400000000000 C
   0.3509200000000000    0.0633650000000000    0.3093400000000000 C
   0.3110400000000000    0.0555400000000000    0.2023600000000000 C
   0.3559600000000000    0.0577950000000000    0.2024000000000000 C
   0.2856000000000000    0.0567250000000000    0.2559000000000000 C
   0.3769900000000000    0.0615950000000000    0.2558700000000000 C
   0.4925850000000000    0.0807100000000000    0.2047900000000000 C
   0.4473650000000000    0.0801250000000000    0.2048600000000000 C
   0.4495100000000000    0.0470600000000000    0.3073400000000000 C
   0.4946600000000000    0.0479900000000000    0.3074500000000000 C
   0.5167650000000000    0.0647400000000000    0.2561600000000000 C
   0.4248450000000000    0.0631300000000000    0.2560500000000000 C
   0.6470750000000001    0.1438900000000000    0.2574300000000000 C
   0.6536750000000000    0.4720950000000000    0.2611500000000000 C
   0.6608250000000000    0.2174600000000000    0.2063600000000000 C
   0.6618250000000000    0.2624850000000000    0.2069900000000000 C
   0.6339800000000000    0.2140100000000000    0.3095400000000000 C
   0.6346250000000000    0.2591100000000000    0.3099800000000000 C
   0.6470250000000000    0.1926400000000000    0.2577100000000000 C
   0.6487450000000000    0.2842750000000000    0.2587900000000000 C
   0.6427250000000000    0.4063650000000000    0.2079600000000000 C
   0.6414800000000001    0.3613900000000000    0.2074200000000000 C
   0.6605500000000000    0.3947700000000000    0.3129400000000000 C
   0.6596200000000000    0.3497400000000000    0.3121900000000000 C
   0.6522200000000000    0.4236300000000000    0.2607700000000000 C
   0.6499650000000000    0.3320850000000000    0.2594800000000000 C
   0.6470750000000001    0.6438900000000000    0.2574300000000000 C
   0.6536750000000000    0.9720949999999999    0.2611500000000000 C
   0.6608250000000000    0.7174600000000000    0.2063600000000000 C
   0.6618250000000000    0.7624850000000001    0.2069900000000000 C
   0.6339800000000000    0.7140100000000000    0.3095400000000000 C
   0.6346250000000000    0.7591100000000000    0.3099800000000000 C
   0.6470250000000000    0.6926400000000000    0.2577100000000000 C
   0.6487450000000000    0.7842750000000001    0.2587900000000000 C
   0.6427250000000000    0.9063650000000000    0.2079600000000000 C
   0.6414800000000001    0.8613900000000000    0.2074200000000000 C
   0.6605500000000000    0.8947700000000001    0.3129400000000000 C
   0.6596200000000000    0.8497399999999999    0.3121900000000000 C
   0.6522200000000000    0.9236300000000000    0.2607700000000000 C
   0.6499650000000000    0.8320850000000000    0.2594800000000000 C
   0.6833050000000001    0.5254150000000000    0.0159800000000000 C
   0.6325400000000000    0.5936200000000000    0.0050900000000000 C
   0.6815100000000001    0.5287900000000000    0.0775700000000000 C
   0.6324050000000000    0.5944100000000000    0.0670400000000000 C
   0.6582500000000000    0.5583750000000000    0.9792600000000000 C
   0.6165250000000000    0.5554000000000000    0.8899100000000000 C
   0.6991849999999999    0.5548200000000000    0.8828100000000000 C
   0.7350300000000000    0.5543450000000000    0.7194600000000000 C
   0.6957750000000000    0.5526150000000000    0.6918800000000001 C
   0.7358000000000000    0.5552400000000000    0.7819400000000000 C
   0.6972400000000000    0.5549550000000000    0.8169700000000000 C
   0.5774950000000000    0.5521500000000000    0.7965400000000000 C
   0.6168250000000000    0.5539250000000000    0.8241700000000000 C
   0.5768650000000000    0.5503400000000001    0.7343100000000000 C
   0.6156400000000000    0.5503450000000000    0.6995300000000000 C
   0.6559550000000001    0.5525400000000000    0.7264200000000000 C
   0.6566300000000000    0.5541050000000000    0.7897600000000000 C
   0.6803000000000000    0.5162500000000000    0.5069100000000000 C
   0.6253000000000000    0.5814350000000000    0.5042100000000000 C
   0.6779100000000000    0.5179200000000000    0.4447700000000000 C
   0.6247600000000000    0.5807200000000000    0.4423500000000000 C
   0.6535650000000000    0.5486300000000000    0.5369699999999999 C
   0.6143000000000000    0.5474950000000000    0.6342400000000000 C
   0.6962050000000000    0.5508450000000000    0.6261200000000000 C
   0.5656450000000000    0.5647050000000000    0.2560500000000000 C
   0.2373350000000000    0.5536000000000000    0.2563300000000000 C
   0.3060650000000000    0.5609750000000000    0.3093400000000000 C
   0.3509200000000000    0.5633650000000000    0.3093400000000000 C
   0.3110400000000000    0.5555400000000000    0.2023600000000000 C
   0.3559600000000000    0.5577950000000000    0.2024000000000000 C
   0.2856000000000000    0.5567250000000000    0.2559000000000000 C
   0.3769900000000000    0.5615950000000000    0.2558700000000000 C
   0.4925850000000000    0.5807100000000001    0.2047900000000000 C
   0.4473650000000000    0.5801250000000000    0.2048600000000000 C
   0.4495100000000000    0.5470600000000000    0.3073400000000000 C
   0.4946600000000000    0.5479900000000000    0.3074500000000000 C
   0.5167650000000000    0.5647400000000000    0.2561600000000000 C
   0.4248450000000000    0.5631300000000000    0.2560500000000000 C
   0.8529450000000001    0.8561200000000000    0.7425700000000000 C
   0.8463300000000000    0.5279150000000000    0.7388700000000000 C
   0.8391750000000000    0.7825550000000000    0.7936400000000000 C
   0.8381750000000000    0.7375300000000000    0.7930199999999999 C
   0.8660250000000000    0.7860000000000000    0.6904600000000000 C
   0.8653800000000000    0.7409000000000000    0.6900200000000000 C
   0.8529750000000000    0.8073750000000000    0.7422800000000001 C
   0.8512550000000000    0.7157400000000000    0.7412100000000000 C
   0.8394500000000000    0.6052400000000000    0.6870700000000000 C
   0.8403750000000000    0.6502700000000000    0.6878200000000000 C
   0.8572800000000000    0.5936500000000000    0.7920500000000000 C
   0.8585199999999999    0.6386250000000000    0.7925900000000000 C
   0.8477850000000000    0.5763800000000000    0.7392500000000000 C
   0.8500300000000001    0.6679300000000000    0.7405300000000000 C
   0.8167000000000000    0.9745800000000000    0.9840200000000000 C
   0.8674649999999999    0.9063800000000000    0.9949100000000000 C
   0.8184950000000000    0.9712100000000000    0.9224300000000000 C
   0.8676100000000000    0.9055900000000000    0.9329700000000000 C
   0.8417500000000000    0.9416249999999999    0.0207400000000000 C
   0.8834750000000000    0.9446150000000000    0.1100800000000000 C
   0.8008100000000000    0.9451750000000000    0.1171900000000000 C