H8 C14 O4
1.0
  30.6582608289668279    0.0000000000000000    1.3954006388984703
   4.6590361529561015   30.2339249969984039    3.0452791992398858
   0.0000000000000000    0.0000000000000000   22.3829999999999991
H C O
8 14 4
direct
   0.6358800000000000    0.9289950000000000    0.1677300000000000 H
   0.6329450000000000    0.8487350000000000    0.1663700000000000 H
   0.6672300000000000    0.8276399999999999    0.3527700000000000 H
   0.6679300000000000    0.9082300000000000    0.3539200000000000 H
   0.6738649999999999    0.7810000000000000    0.1671900000000000 H
   0.6713300000000000    0.7005900000000000    0.1664000000000000 H
   0.6232000000000000    0.6946050000000000    0.3492800000000000 H
   0.6233600000000000    0.7753900000000000    0.3502400000000000 H
   0.6536750000000000    0.9720949999999999    0.2611500000000000 C
   0.6522200000000000    0.9236300000000000    0.2607700000000000 C
   0.6427250000000000    0.9063650000000000    0.2079600000000000 C
   0.6414800000000001    0.8613900000000000    0.2074200000000000 C
   0.6499650000000000    0.8320850000000000    0.2594800000000000 C
   0.6596200000000000    0.8497399999999999    0.3121900000000000 C
   0.6605500000000000    0.8947700000000001    0.3129400000000000 C
   0.6487450000000000    0.7842750000000001    0.2587900000000000 C
   0.6618250000000000    0.7624850000000001    0.2069900000000000 C
   0.6608250000000000    0.7174600000000000    0.2063600000000000 C
   0.6470250000000000    0.6926400000000000    0.2577100000000000 C
   0.6339800000000000    0.7140100000000000    0.3095400000000000 C
   0.6346250000000000    0.7591100000000000    0.3099800000000000 C
   0.6470750000000001    0.6438900000000000    0.2574300000000000 C
   0.6482650000000000    0.0000000000000000    0.2112000000000000 O
   0.6609950000000000    0.9859550000000000    0.3110600000000000 O
   0.6387600000000000    0.6223800000000000    0.3071800000000000 O
   0.6559550000000001    0.6275450000000000    0.2072600000000000 O
