H12 C24 N4 O4
1.0
  30.6582608289668279    0.0000000000000000    1.3954006388984703
   4.6590361529561015   30.2339249969984039    3.0452791992398858
   0.0000000000000000    0.0000000000000000   22.3829999999999991
H C N O
12 24 4 4
direct
   0.1126000000000000    0.1209150000000000    0.0896000000000000 H
   0.1125600000000000    0.1197650000000000    0.9776300000000000 H
   0.2038000000000000    0.0000000000000000    0.0000000000000000 H
   0.2004250000000000    0.0037250000000000    0.1079100000000000 H
   0.2666950000000000    0.0557850000000000    0.8036200000000000 H
   0.2653150000000000    0.0536600000000000    0.6921400000000000 H
   0.0463700000000000    0.0483700000000000    0.7124400000000000 H
   0.0474350000000000    0.0518250000000000    0.8242800000000000 H
   0.1039950000000000    0.1070650000000000    0.5264000000000000 H
   0.1036150000000000    0.1056950000000000    0.4144500000000000 H
   0.1984250000000000    0.9935750000000000    0.4192700000000000 H
   0.2028200000000000    0.9902800000000000    0.5310000000000000 H
   0.1324050000000000    0.0944100000000000    0.0670400000000000 C
   0.1325400000000000    0.0936200000000000    0.0050900000000000 C
   0.1582500000000000    0.0583750000000000    0.9792600000000000 C
   0.1833050000000000    0.0254150000000000    0.0159800000000000 C
   0.1815100000000000    0.0287900000000000    0.0775700000000000 C
   0.1165250000000000    0.0554000000000000    0.8899100000000000 C
   0.1168250000000000    0.0539250000000000    0.8241700000000000 C
   0.1566300000000000    0.0541050000000000    0.7897600000000000 C
   0.1972400000000000    0.0549550000000000    0.8169700000000000 C
   0.1991850000000000    0.0548200000000000    0.8828100000000000 C
   0.2358000000000000    0.0552400000000000    0.7819400000000000 C
   0.2350300000000000    0.0543450000000000    0.7194600000000000 C
   0.1957750000000000    0.0526150000000000    0.6918800000000001 C
   0.1559550000000000    0.0525400000000000    0.7264200000000000 C
   0.1156400000000000    0.0503450000000000    0.6995300000000000 C
   0.0768650000000000    0.0503400000000000    0.7343100000000000 C
   0.0774950000000000    0.0521500000000000    0.7965400000000000 C
   0.1143000000000000    0.0474950000000000    0.6342400000000000 C
   0.1962050000000000    0.0508450000000000    0.6261200000000000 C
   0.1535650000000000    0.0486300000000000    0.5369699999999999 C
   0.1253000000000000    0.0814350000000000    0.5042100000000000 C
   0.1247600000000000    0.0807200000000000    0.4423500000000000 C
   0.1779100000000000    0.0179200000000000    0.4447700000000000 C
   0.1803000000000000    0.0162500000000000    0.5069100000000000 C
   0.1564050000000000    0.0625500000000000    0.1027700000000000 N
   0.1581650000000000    0.0562400000000000    0.9153600000000000 N
   0.1548750000000000    0.0488250000000000    0.6010500000000000 N
   0.1505850000000000    0.0495750000000000    0.4130400000000000 N
   0.0831250000000000    0.0555200000000000    0.9220200000000000 O
   0.2336150000000000    0.0538250000000000    0.9091000000000000 O
   0.0806550000000000    0.0439900000000000    0.6087800000000000 O
   0.2294900000000000    0.0516600000000000    0.5937900000000000 O
