H23 C33 O12
1.0
  13.2977256409141660    0.0000000000000000   -2.1030600987546513
   2.0213038348030530   13.0607389171363284   -0.4534376978274069
   0.0000000000000000    0.0000000000000000   26.4759999999999991
H C O
23 33 12
direct
   0.9935200000000000    0.7887700000000000    0.4881800000000000 H
   0.2014900000000000    0.8679500000000000    0.4893400000000000 H
   0.8208400000000000    0.8889600000000000    0.4730950000000000 H
   0.0000000000000000    0.1076300000000000    0.4373850000000000 H
   0.6687600000000000    0.9948600000000000    0.4251350000000000 H
   0.8560300000000000    0.2094100000000000    0.3882900000000000 H
   0.1459100000000000    0.5631900000000000    0.4251900000000000 H
   0.5136800000000000    0.5892800000000000    0.4702450000000000 H
   0.2756400000000000    0.4352300000000000    0.3909100000000000 H
   0.9500300000000000    0.8694700000000000    0.5384650000000000 H
   0.1288900000000000    0.9883700000000000    0.5579700000000000 H
   0.0753800000000000    0.9343300000000000    0.6068300000000000 H
   0.0989600000000000    0.6681900000000000    0.5532750000000000 H
   0.1963700000000000    0.7111100000000000    0.5991050000000000 H
   0.2725900000000000    0.7856700000000000    0.5390500000000000 H
   0.1257300000000000    0.0833100000000000    0.6344950000000000 H
   0.4041800000000000    0.8700300000000000    0.6678900000000000 H
   0.1898400000000000    0.1995400000000000    0.7016850000000000 H
   0.4723100000000000    0.9926400000000000    0.7337700000000000 H
   0.9504300000000000    0.7710900000000001    0.6916400000000000 H
   0.1626300000000000    0.5610400000000000    0.6171900000000000 H
   0.9568400000000000    0.6389100000000000    0.7580000000000000 H
   0.3858300000000000    0.7203400000000000    0.5000000000000000 H
   0.9236500000000000    0.9926800000000000    0.4587250000000000 C
   0.8284800000000000    0.9599800000000001    0.4554950000000000 C
   0.9329000000000000    0.0827600000000000    0.4345000000000000 C
   0.7432900000000000    0.0190200000000000    0.4284050000000000 C
   0.8477000000000000    0.1403700000000000    0.4074000000000000 C
   0.7514300000000000    0.1096300000000000    0.4042200000000000 C
   0.6597800000000000    0.1692100000000000    0.3752900000000000 C
   0.2570700000000000    0.6495300000000001    0.4659550000000000 C
   0.3607300000000000    0.6575299999999999    0.4788000000000000 C
   0.2267500000000000    0.5683900000000000    0.4346000000000000 C
   0.4329700000000000    0.5841800000000000    0.4604000000000000 C
   0.2992300000000000    0.4972700000000000    0.4157050000000000 C
   0.4034900000000000    0.5041700000000000    0.4283000000000000 C
   0.4800500000000000    0.4319500000000000    0.4050000000000000 C
   0.1144400000000000    0.8274899999999999    0.5468700000000000 C
   0.0096000000000000    0.8534500000000000    0.5138200000000001 C
   0.1335800000000000    0.9201400000000000    0.5813850000000000 C
   0.1183200000000000    0.7319900000000000    0.5787500000000000 C
   0.1995500000000000    0.8025500000000000    0.5136150000000000 C
   0.2615000000000000    0.9685500000000000    0.6472599999999999 C
   0.2008100000000000    0.0614100000000000    0.6565600000000000 C
   0.3591500000000000    0.9431800000000000    0.6755249999999999 C
   0.2374600000000000    0.1272900000000000    0.6948750000000000 C
   0.3960900000000000    0.0109800000000000    0.7121550000000000 C
   0.3350800000000000    0.1032900000000000    0.7227950000000000 C
   0.3764500000000000    0.1741900000000000    0.7624200000000000 C
   0.0558500000000000    0.6750600000000000    0.6503550000000000 C
   0.9972000000000000    0.6962400000000000    0.6900150000000000 C
   0.1171500000000000    0.5796200000000000    0.6476800000000000 C
   0.0000000000000000    0.6229100000000000    0.7269900000000000 C
   0.1205700000000000    0.5071700000000000    0.6500000000000000 C
   0.0634200000000000    0.5274400000000000    0.7250600000000000 C
   0.0716800000000000    0.4478600000000000    0.7646100000000000 C
   0.0123700000000000    0.9422600000000000    0.4846700000000000 O
   0.1789300000000000    0.7155700000000000    0.4820450000000000 O
   0.5736700000000000    0.1431100000000000    0.3713250000000000 O
   0.6701900000000000    0.2527000000000000    0.3509000000000000 O
   0.5747600000000000    0.4351700000000000    0.4218000000000000 O
   0.4463000000000000    0.3731700000000000    0.3693400000000000 O
   0.2328800000000000    0.8977600000000000    0.6111800000000001 O
   0.0493400000000000    0.7515600000000000    0.6155100000000000 O
   0.3217200000000000    0.2224900000000000    0.7938050000000000 O
   0.4691100000000000    0.1857400000000000    0.7645550000000000 O
   0.0226600000000000    0.4674300000000000    0.8021050000000001 O
   0.1299100000000000    0.3636900000000000    0.7575499999999999 O
