Zn8 H72 C99 O36
1.0
  13.2977256409141660    0.0000000000000000   -2.1030600987546513
   2.0213038348030530   13.0607389171363284   -0.4534376978274069
   0.0000000000000000    0.0000000000000000   26.4759999999999991
Zn H C O
8 72 99 36
direct
   0.1787700000000000    0.2444700000000000    0.3020950000000000 Zn
   0.5129200000000000    0.2874300000000000    0.3174600000000000 Zn
   0.6787700000000000    0.3957300000000000    0.3777350000000000 Zn
   0.0129000000000000    0.3650700000000000    0.3560800000000000 Zn
   0.1787700000000000    0.2444700000000000    0.8020950000000000 Zn
   0.5129200000000000    0.2874300000000000    0.8174600000000001 Zn
   0.6787700000000000    0.3957300000000000    0.8777349999999999 Zn
   0.0129000000000000    0.3650700000000000    0.8560800000000000 Zn
   0.4935200000000000    0.0000000000000000    0.1055200000000000 H
   0.4500000000000000    0.9231000000000000    0.0652500000000000 H
   0.6289000000000000    0.8840700000000000    0.0058750000000000 H
   0.5754500000000000    0.7862100000000000    0.0328500000000000 H
   0.5989700000000000    0.8935400000000000    0.1657950000000000 H
   0.6964000000000000    0.8017700000000000    0.1443750000000000 H
   0.7013900000000000    0.0000000000000000    0.0660550000000000 H
   0.7725800000000000    0.9219400000000000    0.1070500000000000 H
   0.3206200000000000    0.0541100000000000    0.0553750000000000 H
   0.1685900000000000    0.1498000000000000    0.0000000000000000 H
   0.9042400000000000    0.6638500000000001    0.0648950000000000 H
   0.9723600000000000    0.5321500000000000    0.0035650000000000 H
   0.4505500000000000    0.6164300000000000    0.1146050000000000 H
   0.6627100000000000    0.7657000000000000    0.2193900000000000 H
   0.4569600000000000    0.4833500000000000    0.1807150000000000 H
   0.6689500000000000    0.6329200000000000    0.2832600000000000 H
   0.8858600000000000    0.9946800000000000    0.1398650000000000 H
   0.6459200000000000    0.1497100000000000    0.2183250000000000 H
   0.0000000000000000    0.0591900000000000    0.2053800000000000 H
   0.7756500000000000    0.2181500000000000    0.2822950000000000 H
   0.9935200000000000    0.7887700000000000    0.4881800000000000 H
   0.9500300000000000    0.8694700000000000    0.0384650000000000 H
   0.1288900000000000    0.9883700000000000    0.0579700000000000 H
   0.0753800000000000    0.9343300000000000    0.1068300000000000 H
   0.0989600000000000    0.6681900000000000    0.0532750000000000 H
   0.1963700000000000    0.7111100000000000    0.0991050000000000 H
   0.2014900000000000    0.8679500000000000    0.4893400000000000 H
   0.2725900000000000    0.7856700000000000    0.0390500000000000 H
   0.8208400000000000    0.8889600000000000    0.4730950000000000 H
   0.0000000000000000    0.1076300000000000    0.4373850000000000 H
   0.6687600000000000    0.9948600000000000    0.4251350000000000 H
   0.8560300000000000    0.2094100000000000    0.3882900000000000 H
   0.1257300000000000    0.0833100000000000    0.1344950000000000 H
   0.4041800000000000    0.8700300000000000    0.1678900000000000 H
   0.1898400000000000    0.1995400000000000    0.2016850000000000 H
   0.4723100000000000    0.9926400000000000    0.2337700000000000 H
   0.9504300000000000    0.7710900000000001    0.1916400000000000 H
   0.1626300000000000    0.5610400000000000    0.1171900000000000 H
   0.9568400000000000    0.6389100000000000    0.2580000000000000 H
   0.1688800000000000    0.4333500000000000    0.1836000000000000 H
   0.3858300000000000    0.7203400000000000    0.0000000000000000 H
   0.1459100000000000    0.5631900000000000    0.4251900000000000 H
   0.5136800000000000    0.5892800000000000    0.4702450000000000 H
   0.2756400000000000    0.4352300000000000    0.3909100000000000 H
   0.5069399999999999    0.1251000000000000    0.9461600000000000 H
   0.3560800000000000    0.2232000000000000    0.8952000000000000 H
   0.6258700000000000    0.7311299999999999    0.9583900000000001 H
   0.6899700000000000    0.5967800000000000    0.9002450000000000 H
   0.9935200000000000    0.7887700000000000    0.9881800000000001 H
   0.9500300000000000    0.8694700000000000    0.5384650000000000 H
   0.1288900000000000    0.9883700000000000    0.5579700000000000 H
   0.0753800000000000    0.9343300000000000    0.6068300000000000 H
   0.0989600000000000    0.6681900000000000    0.5532750000000000 H
   0.1963700000000000    0.7111100000000000    0.5991050000000000 H
   0.2014900000000000    0.8679500000000000    0.9893400000000000 H
   0.2725900000000000    0.7856700000000000    0.5390500000000000 H
   0.8208400000000000    0.8889600000000000    0.9730950000000000 H
   0.0000000000000000    0.1076300000000000    0.9373850000000000 H
   0.6687600000000000    0.9948600000000000    0.9251350000000000 H
   0.8560300000000000    0.2094100000000000    0.8882900000000000 H
   0.1257300000000000    0.0833100000000000    0.6344950000000000 H
   0.4041800000000000    0.8700300000000000    0.6678900000000000 H
   0.1898400000000000    0.1995400000000000    0.7016850000000000 H
   0.4723100000000000    0.9926400000000000    0.7337700000000000 H
   0.9504300000000000    0.7710900000000001    0.6916400000000000 H
   0.1626300000000000    0.5610400000000000    0.6171900000000000 H
   0.9568400000000000    0.6389100000000000    0.7580000000000000 H
   0.1688800000000000    0.4333500000000000    0.6836000000000000 H
   0.3858300000000000    0.7203400000000000    0.5000000000000000 H
   0.1459100000000000    0.5631900000000000    0.9251900000000000 H
   0.5136800000000000    0.5892800000000000    0.9702450000000000 H
   0.2756400000000000    0.4352300000000000    0.8909100000000000 H
   0.6144300000000000    0.9062800000000000    0.0862200000000000 C
   0.5095499999999999    0.9724500000000000    0.0732350000000000 C
   0.6336200000000000    0.8371700000000000    0.0399450000000000 C
   0.6183300000000000    0.8424400000000000    0.1339450000000000 C
   0.6995200000000000    0.9728700000000000    0.0986850000000000 C
   0.4235400000000000    0.0826100000000000    0.0035800000000000 C
   0.3283200000000000    0.0891700000000000    0.0198500000000000 C
   0.7615800000000000    0.7053800000000000    0.0157000000000000 C
   0.8592100000000000    0.6487100000000000    0.0283400000000000 C
   0.5559300000000000    0.6991900000000000    0.1624900000000000 C
   0.4973100000000000    0.6197700000000000    0.1519800000000000 C
   0.6172299999999999    0.7046500000000000    0.2101550000000000 C
   0.5013300000000001    0.5458400000000000    0.1886550000000000 C
   0.6206500000000000    0.6300300000000000    0.2463950000000000 C
   0.5635200000000000    0.5498000000000000    0.2363350000000000 C
   0.5717800000000000    0.4706800000000000    0.2761150000000000 C
   0.7570800000000000    0.0680500000000000    0.1752050000000000 C
   0.8607600000000000    0.0421500000000000    0.1712400000000000 C
   0.7267600000000000    0.1307700000000000    0.2155000000000000 C
   0.9330000000000001    0.0789600000000000    0.2079050000000000 C
   0.7992400000000000    0.1685100000000000    0.2513050000000000 C
   0.9035100000000000    0.1432300000000000    0.2478750000000000 C
   0.9800500000000000    0.1897900000000000    0.2839650000000000 C
   0.1144400000000000    0.8274899999999999    0.0468700000000000 C
   0.0096000000000000    0.8534500000000000    0.0138200000000000 C
   0.1335800000000000    0.9201400000000000    0.0813850000000000 C
   0.1183200000000000    0.7319900000000000    0.0787500000000000 C
   0.1995500000000000    0.8025500000000000    0.0136150000000000 C
   0.9236500000000000    0.9926800000000000    0.4587250000000000 C
   0.8284800000000000    0.9599800000000001    0.4554950000000000 C
   0.9329000000000000    0.0827600000000000    0.4345000000000000 C
   0.7432900000000000    0.0190200000000000    0.4284050000000000 C
   0.8477000000000000    0.1403700000000000    0.4074000000000000 C
   0.7514300000000000    0.1096300000000000    0.4042200000000000 C
   0.6597800000000000    0.1692100000000000    0.3752900000000000 C
   0.2615000000000000    0.9685500000000000    0.1472600000000000 C
   0.2008100000000000    0.0614100000000000    0.1565600000000000 C
   0.3591500000000000    0.9431800000000000    0.1755250000000000 C
   0.2374600000000000    0.1272900000000000    0.1948750000000000 C
   0.3960900000000000    0.0109800000000000    0.2121550000000000 C
   0.3350800000000000    0.1032900000000000    0.2227950000000000 C
   0.3764500000000000    0.1741900000000000    0.2624200000000000 C
   0.0558500000000000    0.6750600000000000    0.1503550000000000 C
   0.9972000000000000    0.6962400000000000    0.1900150000000000 C
   0.1171500000000000    0.5796200000000000    0.1476800000000000 C
   0.0000000000000000    0.6229100000000000    0.2269900000000000 C
   0.1205700000000000    0.5071700000000000    0.1500000000000000 C
   0.0634200000000000    0.5274400000000000    0.2250600000000000 C
   0.0716800000000000    0.4478600000000000    0.2646100000000000 C
   0.2570700000000000    0.6495300000000001    0.4659550000000000 C
   0.3607300000000000    0.6575299999999999    0.4788000000000000 C
   0.2267500000000000    0.5683900000000000    0.4346000000000000 C
   0.4329700000000000    0.5841800000000000    0.4604000000000000 C
   0.2992300000000000    0.4972700000000000    0.4157050000000000 C
   0.4034900000000000    0.5041700000000000    0.4283000000000000 C
   0.4800500000000000    0.4319500000000000    0.4050000000000000 C
   0.4328700000000000    0.1309400000000000    0.9585600000000001 C
   0.2431500000000000    0.1432400000000000    0.9903050000000000 C
   0.3476800000000000    0.1850800000000000    0.9297150000000001 C
   0.2513400000000000    0.1914900000000000    0.9450100000000000 C
   0.1597600000000000    0.2492100000000000    0.9150700000000001 C
   0.7009300000000001    0.6869100000000000    0.9693100000000000 C
   0.7375800000000000    0.6102900000000000    0.9363500000000000 C
   0.8961600000000000    0.5754600000000000    0.9944400000000000 C
   0.8351800000000000    0.5543200000000000    0.9483050000000000 C
   0.8765100000000000    0.4750700000000000    0.9128350000000001 C
   0.1144400000000000    0.8274899999999999    0.5468700000000000 C
   0.0096000000000000    0.8534500000000000    0.5138200000000001 C
   0.1335800000000000    0.9201400000000000    0.5813850000000000 C
   0.1183200000000000    0.7319900000000000    0.5787500000000000 C
   0.1995500000000000    0.8025500000000000    0.5136150000000000 C
   0.9236500000000000    0.9926800000000000    0.9587250000000000 C
   0.8284800000000000    0.9599800000000001    0.9554950000000000 C
   0.9329000000000000    0.0827600000000000    0.9345000000000000 C
   0.7432900000000000    0.0190200000000000    0.9284049999999999 C
   0.8477000000000000    0.1403700000000000    0.9074000000000000 C
   0.7514300000000000    0.1096300000000000    0.9042200000000000 C
   0.6597800000000000    0.1692100000000000    0.8752900000000000 C
   0.2615000000000000    0.9685500000000000    0.6472599999999999 C
   0.2008100000000000    0.0614100000000000    0.6565600000000000 C
   0.3591500000000000    0.9431800000000000    0.6755249999999999 C
   0.2374600000000000    0.1272900000000000    0.6948750000000000 C
   0.3960900000000000    0.0109800000000000    0.7121550000000000 C
   0.3350800000000000    0.1032900000000000    0.7227950000000000 C
   0.3764500000000000    0.1741900000000000    0.7624200000000000 C
   0.0558500000000000    0.6750600000000000    0.6503550000000000 C
   0.9972000000000000    0.6962400000000000    0.6900150000000000 C
   0.1171500000000000    0.5796200000000000    0.6476800000000000 C
   0.0000000000000000    0.6229100000000000    0.7269900000000000 C
   0.1205700000000000    0.5071700000000000    0.6500000000000000 C
   0.0634200000000000    0.5274400000000000    0.7250600000000000 C
   0.0716800000000000    0.4478600000000000    0.7646100000000000 C
   0.2570700000000000    0.6495300000000001    0.9659550000000000 C
   0.3607300000000000    0.6575299999999999    0.9788000000000000 C
   0.2267500000000000    0.5683900000000000    0.9346000000000000 C
   0.4329700000000000    0.5841800000000000    0.9603999999999999 C
   0.2992300000000000    0.4972700000000000    0.9157050000000000 C
   0.4034900000000000    0.5041700000000000    0.9283000000000000 C
   0.4800500000000000    0.4319500000000000    0.9050000000000000 C
   0.5122500000000000    0.0307400000000000    0.0288250000000000 O
   0.7329400000000000    0.7775400000000000    0.0511000000000000 O
   0.5493900000000000    0.7688600000000000    0.1242300000000000 O
   0.6789300000000000    0.0359800000000000    0.1421850000000000 O
   0.5227900000000000    0.3956100000000000    0.2663550000000000 O
   0.6299700000000000    0.4848600000000000    0.3181500000000000 O
   0.0747900000000000    0.1562400000000000    0.2823500000000000 O
   0.9462500000000000    0.2612000000000000    0.3133300000000000 O
   0.0123700000000000    0.9422600000000000    0.4846700000000000 O
   0.2328800000000000    0.8977600000000000    0.1111800000000000 O
   0.0493400000000000    0.7515600000000000    0.1155100000000000 O
   0.1789300000000000    0.7155700000000000    0.4820450000000000 O
   0.5736700000000000    0.1431100000000000    0.3713250000000000 O
   0.6701900000000000    0.2527000000000000    0.3509000000000000 O
   0.3217200000000000    0.2224900000000000    0.2938050000000000 O
   0.4691100000000000    0.1857400000000000    0.2645550000000000 O
   0.0226600000000000    0.4674300000000000    0.3021050000000000 O
   0.1299100000000000    0.3636900000000000    0.2575500000000000 O
   0.5747600000000000    0.4351700000000000    0.4218000000000000 O
   0.4463000000000000    0.3731700000000000    0.3693400000000000 O
   0.0733900000000000    0.2568200000000000    0.9278000000000000 O
   0.1704700000000000    0.2981900000000000    0.8734999999999999 O
   0.8217500000000000    0.4122600000000000    0.8887200000000000 O
   0.9691400000000000    0.4708400000000000    0.9070050000000001 O
   0.0123700000000000    0.9422600000000000    0.9846699999999999 O
   0.2328800000000000    0.8977600000000000    0.6111800000000001 O
   0.0493400000000000    0.7515600000000000    0.6155100000000000 O
   0.1789300000000000    0.7155700000000000    0.9820450000000001 O
   0.5736700000000000    0.1431100000000000    0.8713250000000000 O
   0.6701900000000000    0.2527000000000000    0.8509000000000000 O
   0.3217200000000000    0.2224900000000000    0.7938050000000000 O
   0.4691100000000000    0.1857400000000000    0.7645550000000000 O
   0.0226600000000000    0.4674300000000000    0.8021050000000001 O
   0.1299100000000000    0.3636900000000000    0.7575499999999999 O
   0.5747600000000000    0.4351700000000000    0.9218000000000000 O
   0.4463000000000000    0.3731700000000000    0.8693400000000000 O
