Cu4 H48 C48 S6 I4
1.0
   7.3994999988729910    0.0000000000000000   -0.0001291456379956
  -0.0125975052844402   12.8889938436970546    0.0000000000000008
   0.0000000000000000    0.0000000000000000   20.8500000000000014
Cu H C S I
4 48 48 6 4
direct
   0.2417000000000000    0.6620300000000000    0.7500100000000000 Cu
   0.7416400000000000    0.8394200000000001    0.7500100000000000 Cu
   0.7583200000000000    0.3379800000000000    0.2500200000000000 Cu
   0.2582400000000000    0.1606800000000000    0.2500200000000000 Cu
   0.3815100000000000    0.8373500000000000    0.1085300000000000 H
   0.5207400000000000    0.7559900000000001    0.0131700000000000 H
   0.2814000000000000    0.9891100000000000    0.8925800000000000 H
   0.1482800000000000    0.0731000000000000    0.9883000000000000 H
   0.1027500000000000    0.0858400000000000    0.0996400000000000 H
   0.1223000000000000    0.9738700000000000    0.1478700000000000 H
   0.3824800000000000    0.2315900000000000    0.0957900000000000 H
   0.5754300000000000    0.2147600000000000    0.1448300000000000 H
   0.1179100000000000    0.3375900000000000    0.8913400000000000 H
   0.9790300000000000    0.2558500000000000    0.9866300000000000 H
   0.2185800000000000    0.4890100000000000    0.1073700000000000 H
   0.3516200000000000    0.5732500000000000    0.0117000000000000 H
   0.3970800000000000    0.5862400000000000    0.9003400000000000 H
   0.3771600000000000    0.4743800000000000    0.8520300000000000 H
   0.1175100000000000    0.7320000000000000    0.9042900000000000 H
   0.9245000000000000    0.7150600000000000    0.8553700000000000 H
   0.8819600000000000    0.6624700000000000    0.3913300000000000 H
   0.0210700000000000    0.7441200000000000    0.4866400000000000 H
   0.7814500000000000    0.5109700000000000    0.6073300000000000 H
   0.6482800000000000    0.4267800000000000    0.5116500000000000 H
   0.6025500000000000    0.4138900000000000    0.4003800000000000 H
   0.6227000000000000    0.5256700000000000    0.3520200000000000 H
   0.8825200000000000    0.2679900000000000    0.4044100000000000 H
   0.0754700000000000    0.2849700000000000    0.3554000000000000 H
   0.6184800000000000    0.1626800000000000    0.8914800000000001 H
   0.4792300000000000    0.2440500000000000    0.9868200000000000 H
   0.7184600000000000    0.0109100000000000    0.1074300000000000 H
   0.8516800000000000    0.9269500000000001    0.0117200000000000 H
   0.8971600000000000    0.9141700000000000    0.9003700000000000 H
   0.8776900000000000    0.0261500000000000    0.8521500000000000 H
   0.6173600000000000    0.7684299999999999    0.9041800000000000 H
   0.4244100000000000    0.7853500000000000    0.8551600000000000 H
   0.8819100000000000    0.6624700000000000    0.1087200000000000 H
   0.0210800000000000    0.7441500000000000    0.0133800000000000 H
   0.7813700000000000    0.5110400000000000    0.8926900000000000 H
   0.6482599999999999    0.4268100000000000    0.9883600000000000 H
   0.6027900000000000    0.4138200000000000    0.0997100000000000 H
   0.6228100000000000    0.5256400000000000    0.1480500000000000 H
   0.8823100000000000    0.2680900000000000    0.0956500000000000 H
   0.0755600000000000    0.2849400000000000    0.1446900000000000 H
   0.1179200000000000    0.3375700000000000    0.6087200000000000 H
   0.9788100000000000    0.2559600000000000    0.5133700000000000 H
   0.2184700000000000    0.4890800000000000    0.3927200000000000 H
   0.3516300000000000    0.5732600000000000    0.4883900000000000 H
   0.3973200000000000    0.5861900000000000    0.5996300000000000 H
   0.3772900000000000    0.4744300000000000    0.6480300000000000 H
   0.1174800000000000    0.7320700000000000    0.5956200000000000 H
   0.9245300000000000    0.7150900000000000    0.6446200000000000 H
   0.3564700000000000    0.8702600000000000    0.0611100000000000 C
   0.4347600000000000    0.8241600000000000    0.0072800000000000 C
   0.4135000000000000    0.8680400000000000    0.9461300000000000 C
   0.3015300000000000    0.9550200000000000    0.9399000000000000 C
   0.2271300000000000    0.0022400000000000    0.9938000000000000 C
   0.2577200000000000    0.9626600000000000    0.0554700000000000 C
   0.1948800000000000    0.0227900000000000    0.1131100000000000 C
   0.4850900000000000    0.1749400000000000    0.1106600000000000 C
   0.1431300000000000    0.3704200000000000    0.9387799999999999 C
   0.0650000000000000    0.3241000000000000    0.9925900000000000 C
   0.0863700000000000    0.3678800000000000    0.0537800000000000 C
   0.1983500000000000    0.4549800000000000    0.0600400000000000 C
   0.2727300000000000    0.5023300000000001    0.0061600000000000 C
   0.2418600000000000    0.4629400000000000    0.9444500000000000 C
   0.3047600000000000    0.5232100000000000    0.8868400000000000 C
   0.0148500000000000    0.6752700000000000    0.8894500000000000 C
   0.8568100000000000    0.6296100000000000    0.4387700000000000 C
   0.9350200000000000    0.6758900000000000    0.4925800000000000 C
   0.9136700000000000    0.6320900000000000    0.5537500000000000 C
   0.8016700000000000    0.5450100000000000    0.5600000000000001 C
   0.7272300000000000    0.4976800000000000    0.5061300000000000 C
   0.7580000000000000    0.5371300000000000    0.4444500000000000 C
   0.6950100000000000    0.4768400000000000    0.3868500000000000 C
   0.9850600000000000    0.3247700000000000    0.3895100000000000 C
   0.6435100000000000    0.1297800000000000    0.9389000000000000 C
   0.5652100000000000    0.1758900000000000    0.9927200000000000 C
   0.5864100000000000    0.1319900000000000    0.0538800000000000 C
   0.6983600000000000    0.0450000000000000    0.0601100000000000 C
   0.7728400000000000    0.9978100000000000    0.0062200000000000 C
   0.7422600000000000    0.0373800000000000    0.9445500000000000 C
   0.8050700000000000    0.9772300000000000    0.8869100000000000 C
   0.5148000000000000    0.8251200000000000    0.8893400000000000 C
   0.8567700000000000    0.6296300000000000    0.0612800000000000 C
   0.9349700000000000    0.6759300000000000    0.0074700000000000 C
   0.9136300000000001    0.6321400000000000    0.9462800000000000 C
   0.8016100000000000    0.5450500000000000    0.9400300000000000 C
   0.7272100000000000    0.4977100000000000    0.9939000000000000 C
   0.7580100000000000    0.5371300000000000    0.0556100000000000 C
   0.6951600000000000    0.4768300000000000    0.1132200000000000 C
   0.9850300000000000    0.3247800000000000    0.1105400000000000 C
   0.1431100000000000    0.3704100000000000    0.5612800000000000 C
   0.0649500000000000    0.3241300000000000    0.5074500000000000 C
   0.0862800000000000    0.3679400000000000    0.4462900000000000 C
   0.1982600000000000    0.4550400000000000    0.4400500000000000 C
   0.2727300000000000    0.5023400000000000    0.4939200000000000 C
   0.2418900000000000    0.4629100000000000    0.5556000000000000 C
   0.3049300000000000    0.5232100000000000    0.6131799999999999 C
   0.0149100000000000    0.6753000000000000    0.6105100000000000 C
   0.3796500000000000    0.0766600000000000    0.1624300000000000 S
   0.1201700000000000    0.5772100000000000    0.8375500000000000 S
   0.8795800000000000    0.4227400000000000    0.3375900000000000 S
   0.6202500000000000    0.9234400000000000    0.8375800000000000 S
   0.8797800000000000    0.4227900000000000    0.1624700000000000 S
   0.1203900000000000    0.5773300000000000    0.6624400000000000 S
   0.8945100000000000    0.1447500000000000    0.2499900000000000 I
   0.6055900000000000    0.6457100000000000    0.7500400000000000 I
   0.1055500000000000    0.8552900000000000    0.7500599999999999 I
   0.3945000000000000    0.3543500000000000    0.2500500000000000 I
