H8 O4
1.0
  35.2045903036118375    0.0000000000000000   18.2569019977333440
  11.6846255766072797   25.4555969776523519    6.0727018406827247
   0.0000000000000000    0.0000000000000000   28.6739999999999995
H O
8 4
direct
   0.1782040739831470    0.8056660807823386    0.2011480155383159 H
   0.1924630581888802    0.7991735539377769    0.2123064354255707 H
   0.1551261393417010    0.7989354689746190    0.1944450061964941 H
   0.1408881403085983    0.7876179767477428    0.2007627186959502 H
   0.1550815297367102    0.6944097794552627    0.2988535747393336 H
   0.1408718194246981    0.7008170024766520    0.2876923166275176 H
   0.1781617863617724    0.7011262578031552    0.3056243955394430 H
   0.1924438937079067    0.7123546791068275    0.2991279783548231 H
   0.1817400000000000    0.8202050000000001    0.1864850000000000 O
   0.1516133333333333    0.8134950000000001    0.1798150000000000 O
   0.1515766666666667    0.6798050000000000    0.3135350000000000 O
   0.1817133333333333    0.6865050000000000    0.3201500000000000 O
