Cu96 H572 C564 I96 N188 O4
1.0
  35.2045903036118375    0.0000000000000000   18.2569019977333440
  11.6846255766072797   25.4555969776523519    6.0727018406827247
   0.0000000000000000    0.0000000000000000   28.6739999999999995
Cu H C I N O
96 572 564 96 188 4
direct
   0.3809900000000000    0.6073050000000000    0.3749800000000000 Cu
   0.2856566666666667    0.3927050000000000    0.6250500000000000 Cu
   0.3809833333333333    0.3750150000000000    0.6072250000000000 Cu
   0.2856700000000000    0.6250050000000000    0.3927750000000000 Cu
   0.3809900000000000    0.6073050000000000    0.8749800000000000 Cu
   0.2856566666666667    0.3927050000000000    0.1250500000000000 Cu
   0.3809833333333333    0.3750150000000000    0.1072250000000000 Cu
   0.2856700000000000    0.6250050000000000    0.8927750000000000 Cu
   0.3809900000000000    0.1073050000000000    0.3749800000000000 Cu
   0.2856566666666667    0.8927050000000001    0.6250500000000000 Cu
   0.3809833333333333    0.8750150000000000    0.6072250000000000 Cu
   0.2856700000000000    0.1250050000000000    0.3927750000000000 Cu
   0.1310200000000000    0.8572450000000000    0.6249350000000000 Cu
   0.1310200000000000    0.3572450000000000    0.6249350000000000 Cu
   0.1309766666666667    0.1248900000000000    0.8573200000000001 Cu
   0.2023600000000000    0.8750950000000000    0.6426499999999999 Cu
   0.2023233333333333    0.1427550000000000    0.8750000000000000 Cu
   0.1309766666666667    0.6248899999999999    0.8573200000000001 Cu
   0.2023600000000000    0.3750950000000000    0.6426499999999999 Cu
   0.2023233333333333    0.6427550000000000    0.8750000000000000 Cu
   0.1310200000000000    0.8572450000000000    0.1249350000000000 Cu
   0.1310200000000000    0.3572450000000000    0.1249350000000000 Cu
   0.1309766666666667    0.1248900000000000    0.3573200000000000 Cu
   0.2023600000000000    0.8750950000000000    0.1426500000000000 Cu
   0.2023233333333333    0.1427550000000000    0.3750000000000000 Cu
   0.1309766666666667    0.6248899999999999    0.3573200000000000 Cu
   0.2023600000000000    0.3750950000000000    0.1426500000000000 Cu
   0.2023233333333333    0.6427550000000000    0.3750000000000000 Cu
   0.3809900000000000    0.1073050000000000    0.8749800000000000 Cu
   0.2856566666666667    0.8927050000000001    0.1250500000000000 Cu
   0.3809833333333333    0.8750150000000000    0.1072250000000000 Cu
   0.2856700000000000    0.1250050000000000    0.8927750000000000 Cu
   0.7143233333333333    0.6073050000000000    0.3749800000000000 Cu
   0.6189899999999999    0.3927050000000000    0.6250500000000000 Cu
   0.7143166666666666    0.3750150000000000    0.6072250000000000 Cu
   0.6190033333333333    0.6250050000000000    0.3927750000000000 Cu
   0.7143233333333333    0.1073050000000000    0.3749800000000000 Cu
   0.6189899999999999    0.8927050000000001    0.6250500000000000 Cu
   0.7143166666666666    0.8750150000000000    0.6072250000000000 Cu
   0.6190033333333333    0.1250050000000000    0.3927750000000000 Cu
   0.7143233333333333    0.1073050000000000    0.8749800000000000 Cu
   0.6189899999999999    0.8927050000000001    0.1250500000000000 Cu
   0.7143166666666666    0.8750150000000000    0.1072250000000000 Cu
   0.6190033333333333    0.1250050000000000    0.8927750000000000 Cu
   0.4643533333333333    0.3572450000000000    0.1249350000000000 Cu
   0.4643533333333333    0.8572450000000000    0.1249350000000000 Cu
   0.4643100000000000    0.1248900000000000    0.3573200000000000 Cu
   0.5356933333333334    0.8750950000000000    0.1426500000000000 Cu
   0.5356566666666667    0.1427550000000000    0.3750000000000000 Cu
   0.4643100000000000    0.6248899999999999    0.3573200000000000 Cu
   0.5356933333333334    0.3750950000000000    0.1426500000000000 Cu
   0.5356566666666667    0.6427550000000000    0.3750000000000000 Cu
   0.4643533333333333    0.8572450000000000    0.6249350000000000 Cu
   0.4643533333333333    0.3572450000000000    0.6249350000000000 Cu
   0.4643100000000000    0.1248900000000000    0.8573200000000001 Cu
   0.5356933333333334    0.8750950000000000    0.6426499999999999 Cu
   0.5356566666666667    0.1427550000000000    0.8750000000000000 Cu
   0.4643100000000000    0.6248899999999999    0.8573200000000001 Cu
   0.5356933333333334    0.3750950000000000    0.6426499999999999 Cu
   0.5356566666666667    0.6427550000000000    0.8750000000000000 Cu
   0.7143233333333333    0.6073050000000000    0.8749800000000000 Cu
   0.6189899999999999    0.3927050000000000    0.1250500000000000 Cu
   0.7143166666666666    0.3750150000000000    0.1072250000000000 Cu
   0.6190033333333333    0.6250050000000000    0.8927750000000000 Cu
   0.0476566666666667    0.6073050000000000    0.8749800000000000 Cu
   0.9523233333333333    0.3927050000000000    0.1250500000000000 Cu
   0.0476500000000000    0.3750150000000000    0.1072250000000000 Cu
   0.9523366666666666    0.6250050000000000    0.8927750000000000 Cu
   0.0476566666666667    0.1073050000000000    0.8749800000000000 Cu
   0.9523233333333333    0.8927050000000001    0.1250500000000000 Cu
   0.0476500000000000    0.8750150000000000    0.1072250000000000 Cu
   0.9523366666666666    0.1250050000000000    0.8927750000000000 Cu
   0.0476566666666667    0.6073050000000000    0.3749800000000000 Cu
   0.9523233333333333    0.3927050000000000    0.6250500000000000 Cu
   0.0476500000000000    0.3750150000000000    0.6072250000000000 Cu
   0.9523366666666666    0.6250050000000000    0.3927750000000000 Cu
   0.7976866666666667    0.3572450000000000    0.1249350000000000 Cu
   0.7976866666666667    0.8572450000000000    0.1249350000000000 Cu
   0.7976433333333333    0.6248899999999999    0.3573200000000000 Cu
   0.8690266666666666    0.3750950000000000    0.1426500000000000 Cu
   0.8689899999999999    0.6427550000000000    0.3750000000000000 Cu
   0.7976433333333333    0.1248900000000000    0.3573200000000000 Cu
   0.8690266666666666    0.8750950000000000    0.1426500000000000 Cu
   0.8689899999999999    0.1427550000000000    0.3750000000000000 Cu
   0.7976866666666667    0.8572450000000000    0.6249350000000000 Cu
   0.7976866666666667    0.3572450000000000    0.6249350000000000 Cu
   0.7976433333333333    0.6248899999999999    0.8573200000000001 Cu
   0.8690266666666666    0.3750950000000000    0.6426499999999999 Cu
   0.8689899999999999    0.6427550000000000    0.8750000000000000 Cu
   0.7976433333333333    0.1248900000000000    0.8573200000000001 Cu
   0.8690266666666666    0.8750950000000000    0.6426499999999999 Cu
   0.8689899999999999    0.1427550000000000    0.8750000000000000 Cu
   0.0476566666666667    0.1073050000000000    0.3749800000000000 Cu
   0.9523233333333333    0.8927050000000001    0.6250500000000000 Cu
   0.0476500000000000    0.8750150000000000    0.6072250000000000 Cu
   0.9523366666666666    0.1250050000000000    0.3927750000000000 Cu
   0.2127033333333333    0.5081599999999999    0.5083250000000000 H
   0.2654300000000000    0.4693550000000000    0.4694500000000000 H
   0.4539533333333333    0.4918400000000000    0.4916750000000000 H
   0.4012233333333333    0.5306400000000000    0.5305350000000000 H
   0.4168300000000000    0.5589200000000000    0.4383500000000000 H
   0.4380166666666666    0.4940000000000000    0.4172050000000000 H
   0.2498200000000000    0.4410900000000000    0.5616449999999999 H
   0.2286333333333333    0.5060100000000000    0.5828000000000000 H
   0.2498533333333333    0.5615250000000001    0.4411950000000000 H
   0.2286466666666667    0.5826900000000000    0.5061150000000000 H
   0.4168100000000000    0.4384600000000000    0.5588000000000000 H
   0.4380100000000000    0.4173100000000000    0.4938700000000000 H
   0.2127033333333333    0.5081599999999999    0.0083250000000000 H
   0.2654300000000000    0.4693550000000000    0.9694499999999999 H
   0.4539533333333333    0.4918400000000000    0.9916750000000000 H
   0.4012233333333333    0.5306400000000000    0.0305350000000000 H
   0.4168300000000000    0.5589200000000000    0.9383500000000000 H
   0.4380166666666666    0.4940000000000000    0.9172050000000000 H
   0.2498200000000000    0.4410900000000000    0.0616450000000000 H
   0.2286333333333333    0.5060100000000000    0.0828000000000000 H
   0.2498533333333333    0.5615250000000001    0.9411950000000000 H
   0.2286466666666667    0.5826900000000000    0.0061150000000000 H
   0.4168100000000000    0.4384600000000000    0.0588000000000000 H
   0.4380100000000000    0.4173100000000000    0.9938700000000000 H
   0.2127033333333333    0.0081600000000000    0.5083250000000000 H
   0.2654300000000000    0.9693550000000000    0.4694500000000000 H
   0.4539533333333333    0.9918400000000001    0.4916750000000000 H
   0.4012233333333333    0.0306400000000000    0.5305350000000000 H
   0.4168300000000000    0.0589200000000000    0.4383500000000000 H
   0.4380166666666666    0.9940000000000000    0.4172050000000000 H
   0.2498200000000000    0.9410900000000000    0.5616449999999999 H
   0.2286333333333333    0.0060100000000000    0.5828000000000000 H
   0.2498533333333333    0.0615250000000000    0.4411950000000000 H
   0.2286466666666667    0.0826900000000000    0.5061150000000000 H
   0.4168100000000000    0.9384600000000001    0.5588000000000000 H
   0.4380100000000000    0.9173100000000001    0.4938700000000000 H
   0.0516333333333333    0.7580500000000000    0.4916350000000000 H
   0.0784966666666667    0.7192499999999999    0.5305200000000000 H
   0.2816933333333334    0.7419600000000000    0.5083650000000000 H
   0.2548333333333333    0.7807550000000000    0.4694750000000000 H
   0.2090833333333333    0.8089900000000000    0.5616000000000000 H
   0.2162033333333333    0.7440500000000000    0.5828250000000000 H
   0.1242466666666667    0.6910250000000000    0.4383750000000000 H
   0.1171200000000000    0.7559650000000000    0.4171700000000000 H
   0.2892600000000000    0.6885749999999999    0.4412450000000000 H
   0.2672633333333333    0.6673800000000000    0.5061800000000000 H
   0.0440666666666667    0.8114300000000000    0.5587550000000000 H
   0.0660566666666667    0.8326300000000000    0.4938000000000000 H
   0.0516333333333333    0.2580500000000000    0.4916350000000000 H
   0.0784966666666667    0.2192500000000000    0.5305200000000000 H
   0.2816933333333334    0.2419600000000000    0.5083650000000000 H
   0.2548333333333333    0.2807550000000000    0.4694750000000000 H
   0.2090833333333333    0.3089900000000000    0.5616000000000000 H
   0.2162033333333333    0.2440500000000000    0.5828250000000000 H
   0.1242466666666667    0.1910250000000000    0.4383750000000000 H
   0.1171200000000000    0.2559650000000000    0.4171700000000000 H
   0.2892600000000000    0.1885750000000000    0.4412450000000000 H
   0.2672633333333333    0.1673800000000000    0.5061800000000000 H
   0.0440666666666667    0.3114300000000000    0.5587550000000000 H
   0.0660566666666667    0.3326300000000000    0.4938000000000000 H
   0.2817000000000000    0.0083850000000000    0.7419450000000000 H
   0.2547966666666667    0.9694950000000000    0.7807550000000000 H
   0.0516200000000000    0.9916000000000000    0.7580850000000000 H
   0.0785266666666667    0.0304850000000000    0.7192650000000000 H
   0.1242433333333333    0.9383550000000001    0.6910450000000000 H
   0.1170566666666667    0.9171600000000000    0.7559899999999999 H
   0.0440566666666667    0.0587500000000000    0.8114350000000000 H
   0.0659766666666667    0.9938350000000000    0.8326549999999999 H
   0.2892633333333333    0.9412499999999999    0.6885749999999999 H
   0.2673333333333333    0.0061750000000000    0.6673750000000001 H
   0.2090766666666666    0.0616250000000000    0.8089900000000000 H
   0.2162633333333333    0.0828300000000000    0.7440500000000000 H
   0.0570000000000000    0.2416750000000000    0.7418450000000000 H
   0.0580933333333333    0.2805200000000000    0.7806600000000000 H
   0.2763366666666667    0.2583150000000000    0.7581550000000000 H
   0.2752500000000000    0.2194650000000000    0.7193350000000001 H
   0.0849733333333333    0.1883550000000000    0.8089250000000000 H
   0.1210066666666667    0.1671950000000000    0.7439950000000000 H
   0.2483600000000000    0.3116350000000000    0.6910750000000000 H
   0.2123233333333333    0.3327900000000000    0.7560050000000000 H
   0.2483400000000000    0.1911650000000000    0.8115049999999999 H
   0.2123166666666667    0.2560850000000000    0.8325000000000000 H
   0.0850000000000000    0.3088200000000000    0.6884900000000000 H
   0.1210166666666667    0.2439000000000000    0.6673000000000000 H
   0.2817000000000000    0.5083850000000000    0.7419450000000000 H
   0.2547966666666667    0.4694950000000000    0.7807550000000000 H
   0.0516200000000000    0.4916000000000000    0.7580850000000000 H
   0.0785266666666667    0.5304850000000000    0.7192650000000000 H
   0.1242433333333333    0.4383550000000000    0.6910450000000000 H
   0.1170566666666667    0.4171600000000000    0.7559899999999999 H
   0.0440566666666667    0.5587500000000000    0.8114350000000000 H
   0.0659766666666667    0.4938350000000000    0.8326549999999999 H
   0.2892633333333333    0.4412500000000000    0.6885749999999999 H
   0.2673333333333333    0.5061750000000000    0.6673750000000001 H
   0.2090766666666666    0.5616250000000000    0.8089900000000000 H
   0.2162633333333333    0.5828300000000000    0.7440500000000000 H
   0.0570000000000000    0.7416750000000000    0.7418450000000000 H
   0.0580933333333333    0.7805200000000000    0.7806600000000000 H
   0.2763366666666667    0.7583150000000001    0.7581550000000000 H
   0.2752500000000000    0.7194650000000000    0.7193350000000001 H
   0.0849733333333333    0.6883550000000001    0.8089250000000000 H
   0.1210066666666667    0.6671950000000000    0.7439950000000000 H
   0.2483600000000000    0.8116350000000000    0.6910750000000000 H
   0.2123233333333333    0.8327899999999999    0.7560050000000000 H
   0.2483400000000000    0.6911650000000000    0.8115049999999999 H
   0.2123166666666667    0.7560850000000000    0.8325000000000000 H
   0.0850000000000000    0.8088200000000000    0.6884900000000000 H
   0.1210166666666667    0.7439000000000000    0.6673000000000000 H
   0.0516333333333333    0.7580500000000000    0.9916350000000000 H
   0.0784966666666667    0.7192499999999999    0.0305200000000000 H
   0.2816933333333334    0.7419600000000000    0.0083650000000000 H
   0.2548333333333333    0.7807550000000000    0.9694750000000000 H
   0.2090833333333333    0.8089900000000000    0.0616000000000000 H
   0.2162033333333333    0.7440500000000000    0.0828250000000000 H
   0.1242466666666667    0.6910250000000000    0.9383750000000000 H
   0.1171200000000000    0.7559650000000000    0.9171700000000000 H
   0.2892600000000000    0.6885749999999999    0.9412450000000000 H
   0.2672633333333333    0.6673800000000000    0.0061800000000000 H
   0.0440666666666667    0.8114300000000000    0.0587550000000000 H
   0.0660566666666667    0.8326300000000000    0.9938000000000000 H
   0.0516333333333333    0.2580500000000000    0.9916350000000000 H
   0.0784966666666667    0.2192500000000000    0.0305200000000000 H
   0.2816933333333334    0.2419600000000000    0.0083650000000000 H
   0.2548333333333333    0.2807550000000000    0.9694750000000000 H
   0.2090833333333333    0.3089900000000000    0.0616000000000000 H
   0.2162033333333333    0.2440500000000000    0.0828250000000000 H
   0.1242466666666667    0.1910250000000000    0.9383750000000000 H
   0.1171200000000000    0.2559650000000000    0.9171700000000000 H
   0.2892600000000000    0.1885750000000000    0.9412450000000000 H
   0.2672633333333333    0.1673800000000000    0.0061800000000000 H
   0.0440666666666667    0.3114300000000000    0.0587550000000000 H
   0.0660566666666667    0.3326300000000000    0.9938000000000000 H
   0.1782040739831470    0.8056660807823386    0.2011480155383159 H
   0.1924630581888802    0.7991735539377769    0.2123064354255707 H
   0.1551261393417010    0.7989354689746190    0.1944450061964941 H
   0.1408881403085983    0.7876179767477428    0.2007627186959502 H
   0.2817000000000000    0.0083850000000000    0.2419450000000000 H
   0.2547966666666667    0.9694950000000000    0.2807550000000000 H
   0.0516200000000000    0.9916000000000000    0.2580850000000000 H
   0.0785266666666667    0.0304850000000000    0.2192650000000000 H
   0.1242433333333333    0.9383550000000001    0.1910450000000000 H
   0.1170566666666667    0.9171600000000000    0.2559900000000000 H
   0.0440566666666667    0.0587500000000000    0.3114350000000000 H
   0.0659766666666667    0.9938350000000000    0.3326550000000000 H
   0.2892633333333333    0.9412499999999999    0.1885750000000000 H
   0.2673333333333333    0.0061750000000000    0.1673750000000000 H
   0.2090766666666666    0.0616250000000000    0.3089900000000000 H
   0.2162633333333333    0.0828300000000000    0.2440500000000000 H
   0.0570000000000000    0.2416750000000000    0.2418450000000000 H
   0.0580933333333333    0.2805200000000000    0.2806600000000000 H
   0.2763366666666667    0.2583150000000000    0.2581550000000000 H
   0.2752500000000000    0.2194650000000000    0.2193350000000000 H
   0.0849733333333333    0.1883550000000000    0.3089250000000000 H
   0.1210066666666667    0.1671950000000000    0.2439950000000000 H
   0.2483600000000000    0.3116350000000000    0.1910750000000000 H
   0.2123233333333333    0.3327900000000000    0.2560050000000000 H
   0.2483400000000000    0.1911650000000000    0.3115050000000000 H
   0.2123166666666667    0.2560850000000000    0.3325000000000000 H
   0.0850000000000000    0.3088200000000000    0.1884900000000000 H
   0.1210166666666667    0.2439000000000000    0.1673000000000000 H
   0.2817000000000000    0.5083850000000000    0.2419450000000000 H
   0.2547966666666667    0.4694950000000000    0.2807550000000000 H
   0.0516200000000000    0.4916000000000000    0.2580850000000000 H
   0.0785266666666667    0.5304850000000000    0.2192650000000000 H
   0.1242433333333333    0.4383550000000000    0.1910450000000000 H
   0.1170566666666667    0.4171600000000000    0.2559900000000000 H
   0.0440566666666667    0.5587500000000000    0.3114350000000000 H
   0.0659766666666667    0.4938350000000000    0.3326550000000000 H
   0.2892633333333333    0.4412500000000000    0.1885750000000000 H
   0.2673333333333333    0.5061750000000000    0.1673750000000000 H
   0.2090766666666666    0.5616250000000000    0.3089900000000000 H
   0.2162633333333333    0.5828300000000000    0.2440500000000000 H
   0.1550815297367102    0.6944097794552627    0.2988535747393336 H
   0.1408718194246981    0.7008170024766520    0.2876923166275176 H
   0.1781617863617724    0.7011262578031552    0.3056243955394430 H
   0.1924438937079067    0.7123546791068275    0.2991279783548231 H
   0.2127033333333333    0.0081600000000000    0.0083250000000000 H
   0.2654300000000000    0.9693550000000000    0.9694499999999999 H
   0.4539533333333333    0.9918400000000001    0.9916750000000000 H
   0.4012233333333333    0.0306400000000000    0.0305350000000000 H
   0.4168300000000000    0.0589200000000000    0.9383500000000000 H
   0.4380166666666666    0.9940000000000000    0.9172050000000000 H
   0.2498200000000000    0.9410900000000000    0.0616450000000000 H
   0.2286333333333333    0.0060100000000000    0.0828000000000000 H
   0.2498533333333333    0.0615250000000000    0.9411950000000000 H
   0.2286466666666667    0.0826900000000000    0.0061150000000000 H
   0.4168100000000000    0.9384600000000001    0.0588000000000000 H
   0.4380100000000000    0.9173100000000001    0.9938700000000000 H
   0.5460366666666666    0.5081599999999999    0.5083250000000000 H
   0.5987633333333333    0.4693550000000000    0.4694500000000000 H
   0.7872866666666667    0.4918400000000000    0.4916750000000000 H
   0.7345566666666666    0.5306400000000000    0.5305350000000000 H
   0.5831533333333333    0.4410900000000000    0.5616449999999999 H
   0.5619666666666666    0.5060100000000000    0.5828000000000000 H
   0.7501633333333333    0.5589200000000000    0.4383500000000000 H
   0.7713500000000000    0.4940000000000000    0.4172050000000000 H
   0.5831866666666666    0.5615250000000001    0.4411950000000000 H
   0.5619799999999999    0.5826900000000000    0.5061150000000000 H
   0.7501433333333333    0.4384600000000000    0.5588000000000000 H
   0.7713433333333333    0.4173100000000000    0.4938700000000000 H
   0.5460366666666666    0.0081600000000000    0.5083250000000000 H
   0.5987633333333333    0.9693550000000000    0.4694500000000000 H
   0.7872866666666667    0.9918400000000001    0.4916750000000000 H
   0.7345566666666666    0.0306400000000000    0.5305350000000000 H
   0.5831533333333333    0.9410900000000000    0.5616449999999999 H
   0.5619666666666666    0.0060100000000000    0.5828000000000000 H
   0.7501633333333333    0.0589200000000000    0.4383500000000000 H
   0.7713500000000000    0.9940000000000000    0.4172050000000000 H
   0.5831866666666666    0.0615250000000000    0.4411950000000000 H
   0.5619799999999999    0.0826900000000000    0.5061150000000000 H
   0.7501433333333333    0.9384600000000001    0.5588000000000000 H
   0.7713433333333333    0.9173100000000001    0.4938700000000000 H
   0.5460366666666666    0.0081600000000000    0.0083250000000000 H
   0.5987633333333333    0.9693550000000000    0.9694499999999999 H
   0.7872866666666667    0.9918400000000001    0.9916750000000000 H
   0.7345566666666666    0.0306400000000000    0.0305350000000000 H
   0.5831533333333333    0.9410900000000000    0.0616450000000000 H
   0.5619666666666666    0.0060100000000000    0.0828000000000000 H
   0.7501633333333333    0.0589200000000000    0.9383500000000000 H
   0.7713500000000000    0.9940000000000000    0.9172050000000000 H
   0.5831866666666666    0.0615250000000000    0.9411950000000000 H
   0.5619799999999999    0.0826900000000000    0.0061150000000000 H
   0.7501433333333333    0.9384600000000001    0.0588000000000000 H
   0.7713433333333333    0.9173100000000001    0.9938700000000000 H
   0.3849666666666667    0.2580500000000000    0.9916350000000000 H
   0.4118300000000000    0.2192500000000000    0.0305200000000000 H
   0.6150266666666666    0.2419600000000000    0.0083650000000000 H
   0.5881666666666666    0.2807550000000000    0.9694750000000000 H
   0.5424166666666667    0.3089900000000000    0.0616000000000000 H
   0.5495366666666667    0.2440500000000000    0.0828250000000000 H
   0.4575800000000000    0.1910250000000000    0.9383750000000000 H
   0.4504533333333333    0.2559650000000000    0.9171700000000000 H
   0.6225933333333333    0.1885750000000000    0.9412450000000000 H
   0.6005966666666667    0.1673800000000000    0.0061800000000000 H
   0.3774000000000000    0.3114300000000000    0.0587550000000000 H
   0.3993900000000000    0.3326300000000000    0.9938000000000000 H
   0.3849666666666667    0.7580500000000000    0.9916350000000000 H
   0.4118300000000000    0.7192499999999999    0.0305200000000000 H
   0.6150266666666666    0.7419600000000000    0.0083650000000000 H
   0.5881666666666666    0.7807550000000000    0.9694750000000000 H
   0.5424166666666667    0.8089900000000000    0.0616000000000000 H
   0.5495366666666667    0.7440500000000000    0.0828250000000000 H
   0.4575800000000000    0.6910250000000000    0.9383750000000000 H
   0.4504533333333333    0.7559650000000000    0.9171700000000000 H
   0.6225933333333333    0.6885749999999999    0.9412450000000000 H
   0.6005966666666667    0.6673800000000000    0.0061800000000000 H
   0.3774000000000000    0.8114300000000000    0.0587550000000000 H
   0.3993900000000000    0.8326300000000000    0.9938000000000000 H
   0.6150333333333333    0.0083850000000000    0.2419450000000000 H
   0.5881300000000000    0.9694950000000000    0.2807550000000000 H
   0.3849533333333333    0.9916000000000000    0.2580850000000000 H
   0.4118600000000000    0.0304850000000000    0.2192650000000000 H
   0.4575766666666666    0.9383550000000001    0.1910450000000000 H
   0.4503900000000000    0.9171600000000000    0.2559900000000000 H
   0.3773900000000000    0.0587500000000000    0.3114350000000000 H
   0.3993099999999999    0.9938350000000000    0.3326550000000000 H
   0.6225966666666667    0.9412499999999999    0.1885750000000000 H
   0.6006666666666667    0.0061750000000000    0.1673750000000000 H
   0.5424099999999999    0.0616250000000000    0.3089900000000000 H
   0.5495966666666666    0.0828300000000000    0.2440500000000000 H
   0.3903333333333333    0.2416750000000000    0.2418450000000000 H
   0.3914266666666666    0.2805200000000000    0.2806600000000000 H
   0.6096699999999999    0.2583150000000000    0.2581550000000000 H
   0.6085833333333333    0.2194650000000000    0.2193350000000000 H
   0.4183066666666666    0.1883550000000000    0.3089250000000000 H
   0.4543400000000000    0.1671950000000000    0.2439950000000000 H
   0.5816933333333333    0.3116350000000000    0.1910750000000000 H
   0.5456566666666667    0.3327900000000000    0.2560050000000000 H
   0.5816733333333333    0.1911650000000000    0.3115050000000000 H
   0.5456500000000000    0.2560850000000000    0.3325000000000000 H
   0.4183333333333333    0.3088200000000000    0.1884900000000000 H
   0.4543500000000000    0.2439000000000000    0.1673000000000000 H
   0.6150333333333333    0.5083850000000000    0.2419450000000000 H
   0.5881300000000000    0.4694950000000000    0.2807550000000000 H
   0.3849533333333333    0.4916000000000000    0.2580850000000000 H
   0.4118600000000000    0.5304850000000000    0.2192650000000000 H
   0.4575766666666666    0.4383550000000000    0.1910450000000000 H
   0.4503900000000000    0.4171600000000000    0.2559900000000000 H
   0.3773900000000000    0.5587500000000000    0.3114350000000000 H
   0.3993099999999999    0.4938350000000000    0.3326550000000000 H
   0.6225966666666667    0.4412500000000000    0.1885750000000000 H
   0.6006666666666667    0.5061750000000000    0.1673750000000000 H
   0.5424099999999999    0.5616250000000000    0.3089900000000000 H
   0.5495966666666666    0.5828300000000000    0.2440500000000000 H
   0.3903333333333333    0.7416750000000000    0.2418450000000000 H
   0.3914266666666666    0.7805200000000000    0.2806600000000000 H
   0.6096699999999999    0.7583150000000001    0.2581550000000000 H
   0.6085833333333333    0.7194650000000000    0.2193350000000000 H
   0.4183066666666666    0.6883550000000001    0.3089250000000000 H
   0.4543400000000000    0.6671950000000000    0.2439950000000000 H
   0.5816933333333333    0.8116350000000000    0.1910750000000000 H
   0.5456566666666667    0.8327899999999999    0.2560050000000000 H
   0.5816733333333333    0.6911650000000000    0.3115050000000000 H
   0.5456500000000000    0.7560850000000000    0.3325000000000000 H
   0.4183333333333333    0.8088200000000000    0.1884900000000000 H
   0.4543500000000000    0.7439000000000000    0.1673000000000000 H
   0.3849666666666667    0.7580500000000000    0.4916350000000000 H
   0.4118300000000000    0.7192499999999999    0.5305200000000000 H
   0.6150266666666666    0.7419600000000000    0.5083650000000000 H
   0.5881666666666666    0.7807550000000000    0.4694750000000000 H
   0.5424166666666667    0.8089900000000000    0.5616000000000000 H
   0.5495366666666667    0.7440500000000000    0.5828250000000000 H
   0.4575800000000000    0.6910250000000000    0.4383750000000000 H
   0.4504533333333333    0.7559650000000000    0.4171700000000000 H
   0.6225933333333333    0.6885749999999999    0.4412450000000000 H
   0.6005966666666667    0.6673800000000000    0.5061800000000000 H
   0.3774000000000000    0.8114300000000000    0.5587550000000000 H
   0.3993900000000000    0.8326300000000000    0.4938000000000000 H
   0.3849666666666667    0.2580500000000000    0.4916350000000000 H
   0.4118300000000000    0.2192500000000000    0.5305200000000000 H
   0.6150266666666666    0.2419600000000000    0.5083650000000000 H
   0.5881666666666666    0.2807550000000000    0.4694750000000000 H
   0.5424166666666667    0.3089900000000000    0.5616000000000000 H
   0.5495366666666667    0.2440500000000000    0.5828250000000000 H
   0.4575800000000000    0.1910250000000000    0.4383750000000000 H
   0.4504533333333333    0.2559650000000000    0.4171700000000000 H
   0.6225933333333333    0.1885750000000000    0.4412450000000000 H
   0.6005966666666667    0.1673800000000000    0.5061800000000000 H
   0.3774000000000000    0.3114300000000000    0.5587550000000000 H
   0.3993900000000000    0.3326300000000000    0.4938000000000000 H
   0.6150333333333333    0.0083850000000000    0.7419450000000000 H
   0.5881300000000000    0.9694950000000000    0.7807550000000000 H
   0.3849533333333333    0.9916000000000000    0.7580850000000000 H
   0.4118600000000000    0.0304850000000000    0.7192650000000000 H
   0.4575766666666666    0.9383550000000001    0.6910450000000000 H
   0.4503900000000000    0.9171600000000000    0.7559899999999999 H
   0.3773900000000000    0.0587500000000000    0.8114350000000000 H
   0.3993099999999999    0.9938350000000000    0.8326549999999999 H
   0.6225966666666667    0.9412499999999999    0.6885749999999999 H
   0.6006666666666667    0.0061750000000000    0.6673750000000001 H
   0.5424099999999999    0.0616250000000000    0.8089900000000000 H
   0.5495966666666666    0.0828300000000000    0.7440500000000000 H
   0.3903333333333333    0.2416750000000000    0.7418450000000000 H
   0.3914266666666666    0.2805200000000000    0.7806600000000000 H
   0.6096699999999999    0.2583150000000000    0.7581550000000000 H
   0.6085833333333333    0.2194650000000000    0.7193350000000001 H
   0.4183066666666666    0.1883550000000000    0.8089250000000000 H
   0.4543400000000000    0.1671950000000000    0.7439950000000000 H
   0.5816933333333333    0.3116350000000000    0.6910750000000000 H