H6 C16 O8
1.0
  14.2729393720840108    0.0000000000000000    0.0416014520668284
  -7.1665898618756287   13.0709999220818975   -5.6455779853436159
   0.0000000000000000    0.0000000000000000   39.4600000000000009
H C O
6 16 8
direct
   0.0195200000000000    0.2476300000000000    0.4969000000000000 H
   0.2571700000000000    0.7791900000000000    0.6096600000000000 H
   0.4561100000000000    0.8535800000000000    0.6203750000000000 H
   0.5346000000000000    0.7354700000000000    0.6089100000000001 H
   0.0872800000000000    0.2490700000000000    0.6035950000000000 H
   0.9847900000000001    0.1542800000000000    0.5387999999999999 H
   0.1091700000000000    0.5839200000000000    0.5878400000000000 C
   0.2277000000000000    0.6247700000000000    0.5944350000000000 C
   0.2938200000000000    0.7301400000000000    0.6055500000000000 C
   0.4045000000000000    0.7713200000000000    0.6114100000000000 C
   0.4484500000000000    0.7062000000000000    0.6052649999999999 C
   0.3833300000000000    0.6001300000000001    0.5934100000000000 C
   0.2709900000000000    0.5576500000000000    0.5878850000000000 C
   0.4361900000000000    0.5345100000000000    0.5865000000000000 C
   0.2286300000000000    0.4424800000000000    0.6374299999999999 C
   0.1743700000000000    0.3921000000000000    0.5977450000000000 C
   0.1007100000000000    0.2877200000000000    0.5847249999999999 C
   0.0438200000000000    0.2350900000000000    0.5486100000000000 C
   0.0628900000000000    0.2866300000000000    0.5252350000000000 C
   0.1388800000000000    0.3904300000000000    0.5372749999999999 C
   0.1954700000000000    0.4450300000000000    0.5741150000000000 C
   0.1582000000000000    0.4398500000000000    0.5096900000000000 C
   0.0801400000000000    0.3896100000000000    0.4810950000000000 O
   1.0716600000000001    0.6071900000000000    0.5654250000000000 O
   0.0504000000000000    0.5288500000000000    0.6041350000000000 O
   0.2217200000000000    0.5191800000000000    0.6600950000000000 O
   0.2790600000000000    0.4032600000000000    0.6469350000000000 O
   0.5391600000000000    0.5810700000000000    0.5978500000000000 O
   0.3825700000000000    0.4388800000000000    0.5718100000000000 O
   0.2405500000000000    0.5206499999999999    0.5145100000000000 O
