H8 C10 N4
1.0
  14.2729393720840108    0.0000000000000000    0.0416014520668284
  -7.1665898618756287   13.0709999220818975   -5.6455779853436159
   0.0000000000000000    0.0000000000000000   39.4600000000000009
H C N
8 10 4
direct
   0.1561000000000000    0.6329399999999999    0.0206900000000000 H
   0.2467900000000000    0.8233300000000000    0.0442900000000000 H
   0.3405100000000000    0.3035300000000000    0.0901300000000000 H
   0.2348000000000000    0.1116200000000000    0.0678000000000000 H
   0.5021600000000001    0.0953000000000000    0.0202100000000000 H
   0.6000100000000000    0.2880800000000000    0.0467650000000000 H
   0.2491600000000000    0.7950400000000000    0.9312450000000000 H
   0.1498300000000000    0.6051299999999999    0.9117450000000000 H
   0.1769100000000000    0.6713100000000000    0.0017200000000000 C
   0.2273600000000000    0.7772900000000000    0.0147950000000000 C
   0.3731100000000000    0.2543200000000000    0.0748600000000000 C
   0.3149300000000000    0.1485700000000000    0.0622500000000000 C
   0.3599100000000000    0.0895700000000000    0.0415650000000000 C
   0.4639900000000000    0.1390200000000000    0.0353450000000000 C
   0.5182000000000000    0.2452600000000000    0.0499250000000000 C
   0.2552900000000000    0.8234600000000000    0.9894149999999999 C
   0.2287300000000000    0.7615499999999999    0.9516850000000000 C
   0.1749800000000000    0.6561100000000000    0.9407400000000000 C
   0.2967600000000000    0.9820900000000000    0.0295000000000000 N
   0.4735900000000000    0.3019500000000000    0.0690150000000000 N
   0.1517300000000000    0.6115900000000000    0.9652750000000000 N
   0.3141300000000000    0.9309300000000000    0.9997000000000000 N
