Cd8 Hg8 H1 C29 S31 N29 O1
1.0
  12.3159934702221765    0.0000000000000000    0.0126823280485284
  -0.0167267271676867   16.2019380411214584    0.0415683564711619
   0.0000000000000000    0.0000000000000000   17.1340000000000003
Cd Hg H C S N O
8 8 1 29 31 29 1
direct
   0.2565700000000000    0.4701600000000000    0.0358000000000000 Cd
   0.2578900000000000    0.7798800000000000    0.5358000000000001 Cd
   0.7575400000000000    0.2211200000000000    0.4647000000000000 Cd
   0.7566500000000000    0.5294500000000000    0.9641000000000000 Cd
   0.2578800000000000    0.2798800000000000    0.5358000000000001 Cd
   0.2565800000000000    0.9701500000000000    0.0358000000000000 Cd
   0.7566600000000000    0.0000000000000000    0.9641000000000000 Cd
   0.7575499999999999    0.7211200000000000    0.4646900000000000 Cd
   0.4394200000000000    0.5017900000000000    0.3612200000000000 Hg
   0.4381900000000000    0.7492100000000000    0.8616500000000000 Hg
   0.9379700000000000    0.2501900000000000    0.1384200000000000 Hg
   0.9387700000000000    0.4993100000000000    0.6387699999999999 Hg
   0.4381800000000000    0.2492000000000000    0.8616400000000000 Hg
   0.4394300000000000    0.0000000000000000    0.3612300000000000 Hg
   0.9387700000000000    0.9993000000000000    0.6387699999999999 Hg
   0.9379700000000000    0.7502000000000000    0.1384200000000000 Hg
   0.7067951791016327    0.5721467957573610    0.5703713265506092 H
   0.0728400000000000    0.6208300000000000    0.0285000000000000 C
   0.4044400000000000    0.4216200000000000    0.1923500000000000 C
   0.2086300000000000    0.3120800000000000    0.9228200000000000 C
   0.4387700000000000    0.6902600000000000    0.4122500000000000 C
   0.0739800000000000    0.6291800000000000    0.5287600000000000 C
   0.4043600000000000    0.8295900000000000    0.6925900000000000 C
   0.2098800000000000    0.9382400000000000    0.4224400000000000 C
   0.9383200000000000    0.3108000000000000    0.5881999999999999 C
   0.5741700000000000    0.3719400000000000    0.4714000000000000 C
   0.9041200000000000    0.1709100000000000    0.3079300000000000 C
   0.7092400000000000    0.0627500000000000    0.5780999999999999 C
   0.9372000000000000    0.4390200000000000    0.0875500000000000 C
   0.5730499999999999    0.3785400000000000    0.9713800000000000 C
   0.9037700000000000    0.5797200000000000    0.8074100000000000 C
   0.7083300000000000    0.6868400000000000    0.0778400000000000 C
   0.4387700000000000    0.1902500000000000    0.4122500000000000 C
   0.0739800000000000    0.1291700000000000    0.5287600000000000 C
   0.4043400000000000    0.3295900000000000    0.6925900000000000 C
   0.2098700000000000    0.4382300000000000    0.4224400000000000 C
   0.0728400000000000    0.1208200000000000    0.0285100000000000 C
   0.4044500000000000    0.9216299999999999    0.1923600000000000 C
   0.2086400000000000    0.8120900000000000    0.9228200000000000 C
   0.7083400000000000    0.1868300000000000    0.0778300000000000 C
   0.9037800000000000    0.0797100000000000    0.8074000000000000 C
   0.9372100000000000    0.9390300000000000    0.0875500000000000 C
   0.5730600000000000    0.8785500000000001    0.9713800000000000 C
   0.9383200000000000    0.8108100000000000    0.5881999999999999 C
   0.5741700000000000    0.8719400000000000    0.4714000000000000 C
   0.9041200000000000    0.6709100000000000    0.3079300000000000 C
   0.9818500000000000    0.6886900000000000    0.0010000000000000 S
   0.4979900000000000    0.3962100000000000    0.2563900000000000 S
   0.2251000000000000    0.2362500000000000    0.8607300000000000 S
   0.5200900000000001    0.6485900000000000    0.3469400000000000 S
   0.9831600000000000    0.5612300000000000    0.5011800000000000 S
   0.4968900000000000    0.8557300000000000    0.7570600000000000 S
   0.2263900000000000    0.0000000000000000    0.3605800000000000 S
   0.5185999999999999    0.6026500000000000    0.8465900000000000 S
   0.0192700000000000    0.3527000000000000    0.6535600000000000 S
   0.4832200000000000    0.4398000000000000    0.4987900000000000 S
   0.9966300000000000    0.1444100000000000    0.2435100000000000 S
   0.7257300000000000    0.9861600000000000    0.6397000000000000 S
   0.0181200000000000    0.3970200000000000    0.1530000000000000 S
   0.4822200000000000    0.3104600000000000    0.0000000000000000 S
   0.9969400000000000    0.6056400000000000    0.7430800000000000 S
   0.7248599999999999    0.7628100000000000    0.1397700000000000 S
   0.5200900000000001    0.1485900000000000    0.3469500000000000 S
   0.9831600000000000    0.0612200000000000    0.5011800000000000 S
   0.4968700000000000    0.3557300000000000    0.7570600000000000 S
   0.2263800000000000    0.5146400000000000    0.3605800000000000 S
   0.5185900000000000    0.1026500000000000    0.8465900000000000 S
   0.9818500000000000    0.1886800000000000    0.0010100000000000 S
   0.4980000000000000    0.8962200000000000    0.2563900000000000 S
   0.2251100000000000    0.7362600000000000    0.8607300000000000 S
   0.7248599999999999    0.2628000000000000    0.1397700000000000 S
   0.9969500000000000    0.1056300000000000    0.7430800000000000 S
   0.0181200000000000    0.8970200000000000    0.1530000000000000 S
   0.4822300000000000    0.8104700000000000    0.0000000000000000 S
   0.0192700000000000    0.8527100000000000    0.6535600000000000 S
   0.4832300000000000    0.9398000000000000    0.4988000000000000 S
   0.9966300000000000    0.6444100000000000    0.2435000000000000 S
   0.1384800000000000    0.5714800000000000    0.0470700000000000 N
   0.3373500000000000    0.4374200000000000    0.1455200000000000 N
   0.1945000000000000    0.3660300000000000    0.0000000000000000 N
   0.3822200000000000    0.7217100000000000    0.4589900000000000 N
   0.1395100000000000    0.6785800000000000    0.5474400000000000 N
   0.3379700000000000    0.8132400000000000    0.6454700000000000 N
   0.1957000000000000    0.8838500000000000    0.4674500000000000 N
   0.8820200000000000    0.2792000000000000    0.5414099999999999 N
   0.6397900000000000    0.3226000000000000    0.4529100000000000 N
   0.8377400000000000    0.1875500000000000    0.3550400000000000 N
   0.6950499999999999    0.1172900000000000    0.5333000000000000 N
   0.8809500000000000    0.4707300000000000    0.0407000000000000 N
   0.6385600000000000    0.4280200000000000    0.9525300000000000 N
   0.8369100000000000    0.5635500000000000    0.8544300000000000 N
   0.6941500000000000    0.6327500000000000    0.0327900000000000 N
   0.3822200000000000    0.2217000000000000    0.4590000000000000 N
   0.1395000000000000    0.1785700000000000    0.5474400000000000 N
   0.3379600000000000    0.3132300000000000    0.6454700000000000 N
   0.1957000000000000    0.3838400000000000    0.4674500000000000 N
   0.1384900000000000    0.0714700000000000    0.0470700000000000 N
   0.3373600000000000    0.9374300000000000    0.1455200000000000 N
   0.1945100000000000    0.8660400000000000    0.0000000000000000 N
   0.6941500000000000    0.1327400000000000    0.0327800000000000 N
   0.8369200000000000    0.0635500000000000    0.8544300000000000 N
   0.8809600000000000    0.9707300000000000    0.0407000000000000 N
   0.6385600000000000    0.9280400000000000    0.9525200000000000 N
   0.8820300000000000    0.7792100000000000    0.5414099999999999 N
   0.6397900000000000    0.8226000000000000    0.4529100000000000 N
   0.8377500000000000    0.6875599999999999    0.3550400000000000 N
   0.6950499999999999    0.6172900000000000    0.5332900000000000 O
