H6 O4
1.0
  29.0532100615580262    0.0000000000000000   -0.4026426691044150
  -0.0213026867472787   15.8099851762076327   -0.0038631117279226
   0.0000000000000000    0.0000000000000000   37.9099999999999966
H O
6 4
direct
   0.3307890514325533    0.1969804824845866    0.1731476582732366 H
   0.2063552934272470    0.0999565000961430    0.1683815817593114 H
   0.2664883863031087    0.1508534653798398    0.1659019935442269 H
   0.1959175314382888    0.2882406187917413    0.0424851380833194 H
   0.2729378863415606    0.3464979419494333    0.0426067003847031 H
   0.2212492284750155    0.3841568975331589    0.4122218557984052 H
   0.3064550000000000    0.1671000000000000    0.1852250000000000 O
   0.2342850000000000    0.1113100000000000    0.1818850000000000 O
   0.1991500000000000    0.2854100000000000    0.0170800000000000 O
   0.2715150000000000    0.3401400000000000    0.0171650000000000 O
