H4 C8 O4
1.0
  29.0532100615580262    0.0000000000000000   -0.4026426691044150
  -0.0213026867472787   15.8099851762076327   -0.0038631117279226
   0.0000000000000000    0.0000000000000000   37.9099999999999966
H C O
4 8 4
direct
   0.3301400000000000    0.2408900000000000    0.1307150000000000 H
   0.1942250000000000    0.1329800000000000    0.1264250000000000 H
   0.1818250000000000    0.1943100000000000    0.0663600000000000 H
   0.3177700000000000    0.3023700000000000    0.0703050000000000 H
   0.2686600000000000    0.1519500000000000    0.1690550000000000 C
   0.2626950000000000    0.1842600000000000    0.1323000000000000 C
   0.2978850000000000    0.2309500000000000    0.1163350000000000 C
   0.2210750000000000    0.1700600000000000    0.1139750000000000 C
   0.2395500000000000    0.2955000000000000    0.0305050000000000 C
   0.2488900000000000    0.2528200000000000    0.0649800000000000 C
   0.2141900000000000    0.2041800000000000    0.0805650000000000 C
   0.2910500000000000    0.2649800000000000    0.0828150000000000 C
   0.2342850000000000    0.1113100000000000    0.1818850000000000 O
   0.3064550000000000    0.1671000000000000    0.1852250000000000 O
   0.2715150000000000    0.3401400000000000    0.0171650000000000 O
   0.1991500000000000    0.2854100000000000    0.0170800000000000 O
