H10 C12 N4
1.0
  36.7058569953696718    0.0000000000000000   -9.9019385089724370
 -10.1079256264280808   35.0153561640961328  -14.3487593969685392
   0.0000000000000000    0.0000000000000000   25.7639999999999993
H C N
10 12 4
direct
   0.4030300000000000    0.0185366666666667    0.3961850000000000 H
   0.4278050000000000    0.0812200000000000    0.4825000000000000 H
   0.3416000000000000    0.8830333333333333    0.2733750000000000 H
   0.3915650000000000    0.9498599999999999    0.3677100000000000 H
   0.2788000000000000    0.9588833333333333    0.3350800000000000 H
   0.3056950000000000    0.9935533333333333    0.4464500000000000 H
   0.3301550000000000    0.0564733333333333    0.5322600000000000 H
   0.4562000000000000    0.1168233333333333    0.5847500000000000 H
   0.3441200000000000    0.1229500000000000    0.5761700000000000 H
   0.3966650000000000    0.1864533333333333    0.6725000000000000 H
   0.3529750000000000    0.0000000000000000    0.4160250000000000 C
   0.3874300000000000    0.0264633333333333    0.4266300000000000 C
   0.4013600000000000    0.0619066666666667    0.4753950000000000 C
   0.3322500000000000    0.0128233333333333    0.4538600000000000 C
   0.3361400000000000    0.9088166666666666    0.3003700000000000 C
   0.3610550000000000    0.9413499999999999    0.3467950000000000 C
   0.3021400000000000    0.9465366666666666    0.3313100000000000 C
   0.3808400000000000    0.0728733333333333    0.5136900000000000 C
   0.3461400000000000    0.0483533333333333    0.5000000000000000 C
   0.4331650000000000    0.1272733333333333    0.5959900000000000 C
   0.3748350000000000    0.1309433333333333    0.5926750000000000 C
   0.4011100000000000    0.1621566666666667    0.6400950000000000 C
   0.3391850000000000    0.9652099999999999    0.3667300000000000 N
   0.2996100000000000    0.9123866666666667    0.2910300000000000 N
   0.3954900000000000    0.1087700000000000    0.5644850000000000 N
   0.4372500000000000    0.1594533333333333    0.6417650000000000 N
