Cd48 H956 C1234 N192 O286
1.0
  36.7058569953696718    0.0000000000000000   -9.9019385089724370
 -10.1079256264280808   35.0153561640961328  -14.3487593969685392
   0.0000000000000000    0.0000000000000000   25.7639999999999993
Cd H C N O
48 956 1234 192 286
direct
   0.7452550000000000    0.8681033333333332    0.7124600000000000 Cd
   0.4952600000000000    0.5347700000000000    0.2124600000000000 Cd
   0.2452550000000000    0.2014366666666667    0.7124600000000000 Cd
   0.9952600000000000    0.8681033333333332    0.2124600000000000 Cd
   0.7452550000000000    0.5347700000000000    0.7124600000000000 Cd
   0.4952600000000000    0.2014366666666667    0.2124600000000000 Cd
   0.2452550000000000    0.5347700000000000    0.7124600000000000 Cd
   0.9952600000000000    0.2014366666666667    0.2124600000000000 Cd
   0.2452550000000000    0.8681033333333332    0.7124600000000000 Cd
   0.9952600000000000    0.5347700000000000    0.2124600000000000 Cd
   0.7452550000000000    0.2014366666666667    0.7124600000000000 Cd
   0.4952600000000000    0.8681033333333332    0.2124600000000000 Cd
   0.2452550000000000    0.5347700000000000    0.2124600000000000 Cd
   0.9952600000000000    0.2014366666666667    0.7124600000000000 Cd
   0.2452550000000000    0.8681033333333332    0.2124600000000000 Cd
   0.9952600000000000    0.5347700000000000    0.7124600000000000 Cd
   0.7452550000000000    0.2014366666666667    0.2124600000000000 Cd
   0.4952600000000000    0.8681033333333332    0.7124600000000000 Cd
   0.7452550000000000    0.8681033333333332    0.2124600000000000 Cd
   0.4952600000000000    0.5347700000000000    0.7124600000000000 Cd
   0.2452550000000000    0.2014366666666667    0.2124600000000000 Cd
   0.9952600000000000    0.8681033333333332    0.7124600000000000 Cd
   0.7452550000000000    0.5347700000000000    0.2124600000000000 Cd
   0.4952600000000000    0.2014366666666667    0.7124600000000000 Cd
   0.7547500000000000    0.1318866666666667    0.7875449999999999 Cd
   0.0047450000000000    0.4652200000000000    0.2875000000000000 Cd
   0.2547500000000000    0.7985533333333332    0.7875449999999999 Cd
   0.5047450000000000    0.1318866666666667    0.2875000000000000 Cd
   0.7547500000000000    0.4652200000000000    0.7875449999999999 Cd
   0.0047450000000000    0.7985533333333332    0.2875000000000000 Cd
   0.2547500000000000    0.1318866666666667    0.7875449999999999 Cd
   0.5047450000000000    0.4652200000000000    0.2875000000000000 Cd
   0.7547500000000000    0.7985533333333332    0.7875449999999999 Cd
   0.0047450000000000    0.1318866666666667    0.2875000000000000 Cd
   0.2547500000000000    0.4652200000000000    0.7875449999999999 Cd
   0.5047450000000000    0.7985533333333332    0.2875000000000000 Cd
   0.7547500000000000    0.1318866666666667    0.2875450000000000 Cd
   0.0047450000000000    0.4652200000000000    0.7875000000000000 Cd
   0.2547500000000000    0.7985533333333332    0.2875450000000000 Cd
   0.5047450000000000    0.1318866666666667    0.7875000000000000 Cd
   0.7547500000000000    0.4652200000000000    0.2875450000000000 Cd
   0.0047450000000000    0.7985533333333332    0.7875000000000000 Cd
   0.2547500000000000    0.1318866666666667    0.2875450000000000 Cd
   0.5047450000000000    0.4652200000000000    0.7875000000000000 Cd
   0.2547500000000000    0.4652200000000000    0.2875450000000000 Cd
   0.5047450000000000    0.7985533333333332    0.7875000000000000 Cd
   0.7547500000000000    0.7985533333333332    0.2875450000000000 Cd
   0.0047450000000000    0.1318866666666667    0.7875000000000000 Cd
   0.7061999999999999    0.7834900000000000    0.5847700000000000 H
   0.5941200000000000    0.7896166666666666    0.5761700000000000 H
   0.6466650000000000    0.8531199999999999    0.6726449999999999 H
   0.6415600000000000    0.6165266666666667    0.3677100000000000 H
   0.5915950000000000    0.5497000000000000    0.2733750000000000 H
   0.5287950000000000    0.6255500000000001    0.3350800000000000 H
   0.5556900000000000    0.6602200000000000    0.4464800000000000 H
   0.5801499999999999    0.7231433333333332    0.5322600000000000 H
   0.6530250000000000    0.6851999999999999    0.3961850000000000 H
   0.6778000000000000    0.7478833333333332    0.4800000000000000 H
   0.3966650000000000    0.5197866666666666    0.1725000000000000 H
   0.3441200000000000    0.4562833333333333    0.0761700000000000 H
   0.4562000000000000    0.4501566666666666    0.0847500000000000 H
   0.3915650000000000    0.2831933333333333    0.8677100000000000 H
   0.3416000000000000    0.2163666666666667    0.7733749999999999 H
   0.2788000000000000    0.2922166666666667    0.8350800000000000 H
   0.3056950000000000    0.3268866666666667    0.9464500000000000 H
   0.3301550000000000    0.3898066666666666    0.0322600000000000 H
   0.4030300000000000    0.3518700000000000    0.8961850000000000 H
   0.4278050000000000    0.4145533333333333    0.9824999999999999 H
   0.2062000000000000    0.1168233333333333    0.5847700000000000 H
   0.0941200000000000    0.1229500000000000    0.5761700000000000 H
   0.1466650000000000    0.1864533333333333    0.6726449999999999 H
   0.1415600000000000    0.9498599999999999    0.3677100000000000 H
   0.0915950000000000    0.8830333333333333    0.2733750000000000 H
   0.0287950000000000    0.9588833333333333    0.3350800000000000 H
   0.0556900000000000    0.9935533333333333    0.4464800000000000 H
   0.0801500000000000    0.0564766666666667    0.5322600000000000 H
   0.1530250000000000    0.0185333333333333    0.3961850000000000 H
   0.1778000000000000    0.0812166666666667    0.4800000000000000 H
   0.8966650000000000    0.8531199999999999    0.1725000000000000 H
   0.8441200000000000    0.7896166666666666    0.0761700000000000 H
   0.9561999999999999    0.7834900000000000    0.0847500000000000 H
   0.8915649999999999    0.6165266666666667    0.8677100000000000 H
   0.8416000000000000    0.5497000000000000    0.7733749999999999 H
   0.7787999999999999    0.6255500000000001    0.8350800000000000 H
   0.8056950000000001    0.6602200000000000    0.9464500000000000 H
   0.8301550000000000    0.7231400000000000    0.0322600000000000 H
   0.9030300000000000    0.6852033333333333    0.8961850000000000 H
   0.9278050000000000    0.7478866666666666    0.9824999999999999 H
   0.7061999999999999    0.4501566666666666    0.5847700000000000 H
   0.5941200000000000    0.4562833333333333    0.5761700000000000 H
   0.6466650000000000    0.5197866666666666    0.6726449999999999 H
   0.6415600000000000    0.2831933333333333    0.3677100000000000 H
   0.5915950000000000    0.2163666666666667    0.2733750000000000 H
   0.5287950000000000    0.2922166666666667    0.3350800000000000 H
   0.5556900000000000    0.3268866666666667    0.4464800000000000 H
   0.5801499999999999    0.3898100000000000    0.5322600000000000 H
   0.6530250000000000    0.3518666666666667    0.3961850000000000 H
   0.6778000000000000    0.4145500000000000    0.4800000000000000 H
   0.3966650000000000    0.1864533333333333    0.1725000000000000 H
   0.3441200000000000    0.1229500000000000    0.0761700000000000 H
   0.4562000000000000    0.1168233333333333    0.0847500000000000 H
   0.3915650000000000    0.9498599999999999    0.8677100000000000 H
   0.3416000000000000    0.8830333333333333    0.7733749999999999 H
   0.2788000000000000    0.9588833333333333    0.8350800000000000 H
   0.3056950000000000    0.9935533333333333    0.9464500000000000 H
   0.3301550000000000    0.0564733333333333    0.0322600000000000 H
   0.4030300000000000    0.0185366666666667    0.8961850000000000 H
   0.4278050000000000    0.0812200000000000    0.9824999999999999 H
   0.2062000000000000    0.4501566666666666    0.5847700000000000 H
   0.0941200000000000    0.4562833333333333    0.5761700000000000 H
   0.1466650000000000    0.5197866666666666    0.6726449999999999 H
   0.1415600000000000    0.2831933333333333    0.3677100000000000 H
   0.0915950000000000    0.2163666666666667    0.2733750000000000 H
   0.0287950000000000    0.2922166666666667    0.3350800000000000 H
   0.0556900000000000    0.3268866666666667    0.4464800000000000 H
   0.0801500000000000    0.3898100000000000    0.5322600000000000 H
   0.1530250000000000    0.3518666666666667    0.3961850000000000 H
   0.1778000000000000    0.4145500000000000    0.4800000000000000 H
   0.8966650000000000    0.1864533333333333    0.1725000000000000 H
   0.8441200000000000    0.1229500000000000    0.0761700000000000 H
   0.9561999999999999    0.1168233333333333    0.0847500000000000 H
   0.8915649999999999    0.9498599999999999    0.8677100000000000 H
   0.8416000000000000    0.8830333333333333    0.7733749999999999 H
   0.7787999999999999    0.9588833333333333    0.8350800000000000 H
   0.8056950000000001    0.9935533333333333    0.9464500000000000 H
   0.8301550000000000    0.0564733333333333    0.0322600000000000 H
   0.9030300000000000    0.0185366666666667    0.8961850000000000 H
   0.9278050000000000    0.0812200000000000    0.9824999999999999 H
   0.2062000000000000    0.7834900000000000    0.5847700000000000 H
   0.0941200000000000    0.7896166666666666    0.5761700000000000 H
   0.1466650000000000    0.8531199999999999    0.6726449999999999 H
   0.1415600000000000    0.6165266666666667    0.3677100000000000 H
   0.0915950000000000    0.5497000000000000    0.2733750000000000 H
   0.0287950000000000    0.6255500000000001    0.3350800000000000 H
   0.0556900000000000    0.6602200000000000    0.4464800000000000 H
   0.0801500000000000    0.7231433333333332    0.5322600000000000 H
   0.1530250000000000    0.6851999999999999    0.3961850000000000 H
   0.1778000000000000    0.7478833333333332    0.4800000000000000 H
   0.8966650000000000    0.5197866666666666    0.1725000000000000 H
   0.8441200000000000    0.4562833333333333    0.0761700000000000 H
   0.9561999999999999    0.4501566666666666    0.0847500000000000 H
   0.8915649999999999    0.2831933333333333    0.8677100000000000 H
   0.8416000000000000    0.2163666666666667    0.7733749999999999 H
   0.7787999999999999    0.2922166666666667    0.8350800000000000 H
   0.8056950000000001    0.3268866666666667    0.9464500000000000 H
   0.8301550000000000    0.3898066666666666    0.0322600000000000 H
   0.9030300000000000    0.3518700000000000    0.8961850000000000 H
   0.9278050000000000    0.4145533333333333    0.9824999999999999 H
   0.7061999999999999    0.1168233333333333    0.5847700000000000 H
   0.5941200000000000    0.1229500000000000    0.5761700000000000 H
   0.6466650000000000    0.1864533333333333    0.6726449999999999 H
   0.6415600000000000    0.9498599999999999    0.3677100000000000 H
   0.5915950000000000    0.8830333333333333    0.2733750000000000 H
   0.5287950000000000    0.9588833333333333    0.3350800000000000 H
   0.5556900000000000    0.9935533333333333    0.4464800000000000 H
   0.5801499999999999    0.0564766666666667    0.5322600000000000 H
   0.6530250000000000    0.0185333333333333    0.3961850000000000 H
   0.6778000000000000    0.0812166666666667    0.4800000000000000 H
   0.3966650000000000    0.8531199999999999    0.1725000000000000 H
   0.3441200000000000    0.7896166666666666    0.0761700000000000 H
   0.4562000000000000    0.7834900000000000    0.0847500000000000 H
   0.3915650000000000    0.6165266666666667    0.8677100000000000 H
   0.3416000000000000    0.5497000000000000    0.7733749999999999 H
   0.2788000000000000    0.6255500000000001    0.8350800000000000 H
   0.3056950000000000    0.6602200000000000    0.9464500000000000 H
   0.3301550000000000    0.7231400000000000    0.0322600000000000 H
   0.4030300000000000    0.6852033333333333    0.8961850000000000 H
   0.4278050000000000    0.7478866666666666    0.9824999999999999 H
   0.2062000000000000    0.4501566666666666    0.0847700000000000 H
   0.0941200000000000    0.4562833333333333    0.0761700000000000 H
   0.1466650000000000    0.5197866666666666    0.1726450000000000 H
   0.1415600000000000    0.2831933333333333    0.8677100000000000 H
   0.0915950000000000    0.2163666666666667    0.7733749999999999 H
   0.0287950000000000    0.2922166666666667    0.8350800000000000 H
   0.0556900000000000    0.3268866666666667    0.9464800000000000 H
   0.0801500000000000    0.3898100000000000    0.0322600000000000 H
   0.1530250000000000    0.3518666666666667    0.8961850000000000 H
   0.1778000000000000    0.4145500000000000    0.9800000000000000 H
   0.8966650000000000    0.1864533333333333    0.6725000000000000 H
   0.8441200000000000    0.1229500000000000    0.5761700000000000 H
   0.9561999999999999    0.1168233333333333    0.5847500000000000 H
   0.8915649999999999    0.9498599999999999    0.3677100000000000 H
   0.8416000000000000    0.8830333333333333    0.2733750000000000 H
   0.7787999999999999    0.9588833333333333    0.3350800000000000 H
   0.8056950000000001    0.9935533333333333    0.4464500000000000 H
   0.8301550000000000    0.0564733333333333    0.5322600000000000 H
   0.9030300000000000    0.0185366666666667    0.3961850000000000 H
   0.9278050000000000    0.0812200000000000    0.4825000000000000 H
   0.2062000000000000    0.7834900000000000    0.0847700000000000 H
   0.0941200000000000    0.7896166666666666    0.0761700000000000 H
   0.1466650000000000    0.8531199999999999    0.1726450000000000 H
   0.1415600000000000    0.6165266666666667    0.8677100000000000 H
   0.0915950000000000    0.5497000000000000    0.7733749999999999 H
   0.0287950000000000    0.6255500000000001    0.8350800000000000 H
   0.0556900000000000    0.6602200000000000    0.9464800000000000 H
   0.0801500000000000    0.7231433333333332    0.0322600000000000 H
   0.1530250000000000    0.6851999999999999    0.8961850000000000 H
   0.1778000000000000    0.7478833333333332    0.9800000000000000 H
   0.8966650000000000    0.5197866666666666    0.6725000000000000 H
   0.8441200000000000    0.4562833333333333    0.5761700000000000 H
   0.9561999999999999    0.4501566666666666    0.5847500000000000 H
   0.8915649999999999    0.2831933333333333    0.3677100000000000 H
   0.8416000000000000    0.2163666666666667    0.2733750000000000 H
   0.7787999999999999    0.2922166666666667    0.3350800000000000 H
   0.8056950000000001    0.3268866666666667    0.4464500000000000 H
   0.8301550000000000    0.3898066666666666    0.5322600000000000 H
   0.9030300000000000    0.3518700000000000    0.3961850000000000 H
   0.9278050000000000    0.4145533333333333    0.4825000000000000 H
   0.7061999999999999    0.1168233333333333    0.0847700000000000 H
   0.5941200000000000    0.1229500000000000    0.0761700000000000 H
   0.6466650000000000    0.1864533333333333    0.1726450000000000 H
   0.6415600000000000    0.9498599999999999    0.8677100000000000 H
   0.5915950000000000    0.8830333333333333    0.7733749999999999 H
   0.5287950000000000    0.9588833333333333    0.8350800000000000 H
   0.5556900000000000    0.9935533333333333    0.9464800000000000 H
   0.5801499999999999    0.0564766666666667    0.0322600000000000 H
   0.6530250000000000    0.0185333333333333    0.8961850000000000 H
   0.6778000000000000    0.0812166666666667    0.9800000000000000 H
   0.3966650000000000    0.8531199999999999    0.6725000000000000 H
   0.3441200000000000    0.7896166666666666    0.5761700000000000 H
   0.4562000000000000    0.7834900000000000    0.5847500000000000 H
   0.3915650000000000    0.6165266666666667    0.3677100000000000 H
   0.3416000000000000    0.5497000000000000    0.2733750000000000 H
   0.2788000000000000    0.6255500000000001    0.3350800000000000 H
   0.3056950000000000    0.6602200000000000    0.4464500000000000 H
   0.3301550000000000    0.7231400000000000    0.5322600000000000 H
   0.4030300000000000    0.6852033333333333    0.3961850000000000 H
   0.4278050000000000    0.7478866666666666    0.4825000000000000 H
   0.7061999999999999    0.7834900000000000    0.0847700000000000 H
   0.5941200000000000    0.7896166666666666    0.0761700000000000 H
   0.6466650000000000    0.8531199999999999    0.1726450000000000 H
   0.6415600000000000    0.6165266666666667    0.8677100000000000 H
   0.5915950000000000    0.5497000000000000    0.7733749999999999 H
   0.5287950000000000    0.6255500000000001    0.8350800000000000 H
   0.5556900000000000    0.6602200000000000    0.9464800000000000 H
   0.5801499999999999    0.7231433333333332    0.0322600000000000 H
   0.6530250000000000    0.6851999999999999    0.8961850000000000 H
   0.6778000000000000    0.7478833333333332    0.9800000000000000 H
   0.3966650000000000    0.5197866666666666    0.6725000000000000 H
   0.3441200000000000    0.4562833333333333    0.5761700000000000 H
   0.4562000000000000    0.4501566666666666    0.5847500000000000 H
   0.3915650000000000    0.2831933333333333    0.3677100000000000 H
   0.3416000000000000    0.2163666666666667    0.2733750000000000 H
   0.2788000000000000    0.2922166666666667    0.3350800000000000 H
   0.3056950000000000    0.3268866666666667    0.4464500000000000 H
   0.3301550000000000    0.3898066666666666    0.5322600000000000 H
   0.4030300000000000    0.3518700000000000    0.3961850000000000 H
   0.4278050000000000    0.4145533333333333    0.4825000000000000 H
   0.2062000000000000    0.1168233333333333    0.0847700000000000 H
   0.0941200000000000    0.1229500000000000    0.0761700000000000 H
   0.1466650000000000    0.1864533333333333    0.1726450000000000 H
   0.1415600000000000    0.9498599999999999    0.8677100000000000 H
   0.0915950000000000    0.8830333333333333    0.7733749999999999 H
   0.0287950000000000    0.9588833333333333    0.8350800000000000 H
   0.0556900000000000    0.9935533333333333    0.9464800000000000 H
   0.0801500000000000    0.0564766666666667    0.0322600000000000 H
   0.1530250000000000    0.0185333333333333    0.8961850000000000 H
   0.1778000000000000    0.0812166666666667    0.9800000000000000 H
   0.8966650000000000    0.8531199999999999    0.6725000000000000 H
   0.8441200000000000    0.7896166666666666    0.5761700000000000 H
   0.9561999999999999    0.7834900000000000    0.5847500000000000 H
   0.8915649999999999    0.6165266666666667    0.3677100000000000 H
   0.8416000000000000    0.5497000000000000    0.2733750000000000 H
   0.7787999999999999    0.6255500000000001    0.3350800000000000 H
   0.8056950000000001    0.6602200000000000    0.4464500000000000 H
   0.8301550000000000    0.7231400000000000    0.5322600000000000 H
   0.9030300000000000    0.6852033333333333    0.3961850000000000 H
   0.9278050000000000    0.7478866666666666    0.4825000000000000 H
   0.7061999999999999    0.4501566666666666    0.0847700000000000 H
   0.5941200000000000    0.4562833333333333    0.0761700000000000 H
   0.6466650000000000    0.5197866666666666    0.1726450000000000 H
   0.6415600000000000    0.2831933333333333    0.8677100000000000 H
   0.5915950000000000    0.2163666666666667    0.7733749999999999 H
   0.5287950000000000    0.2922166666666667    0.8350800000000000 H
   0.5556900000000000    0.3268866666666667    0.9464800000000000 H
   0.5801499999999999    0.3898100000000000    0.0322600000000000 H
   0.6530250000000000    0.3518666666666667    0.8961850000000000 H
   0.6778000000000000    0.4145500000000000    0.9800000000000000 H
   0.3966650000000000    0.1864533333333333    0.6725000000000000 H
   0.3441200000000000    0.1229500000000000    0.5761700000000000 H
   0.4562000000000000    0.1168233333333333    0.5847500000000000 H
   0.3915650000000000    0.9498599999999999    0.3677100000000000 H
   0.3416000000000000    0.8830333333333333    0.2733750000000000 H
   0.2788000000000000    0.9588833333333333    0.3350800000000000 H
   0.3056950000000000    0.9935533333333333    0.4464500000000000 H
   0.3301550000000000    0.0564733333333333    0.5322600000000000 H
   0.4030300000000000    0.0185366666666667    0.3961850000000000 H
   0.4278050000000000    0.0812200000000000    0.4825000000000000 H
   0.2374050000000000    0.9813866666666666    0.1896900000000000 H
   0.1918100000000000    0.9507200000000000    0.1400100000000000 H
   0.0517750000000000    0.9503966666666666    0.2027500000000000 H
   0.0779900000000000    0.9021100000000000    0.1454500000000000 H
   0.1457800000000000    0.9175399999999999    0.1549850000000000 H
   0.0125950000000000    0.0186033333333333    0.3103000000000000 H
   0.0581900000000000    0.0492700000000000    0.3600000000000000 H
   0.1982300000000000    0.0495966666666667    0.2972600000000000 H
   0.1720100000000000    0.0978800000000000    0.3545550000000000 H
   0.1042200000000000    0.0824500000000000    0.3450200000000000 H
   0.2804300000000000    0.0873033333333333    0.6796500000000000 H
   0.3238350000000000    0.1113833333333333    0.6797450000000000 H
   0.2195700000000000    0.9126900000000000    0.3203550000000000 H
   0.1761700000000000    0.8886066666666665    0.3202600000000000 H
   0.2448450000000000    0.9295899999999999    0.5055150000000000 H
   0.2758000000000000    0.9672033333333333    0.6145650000000000 H
   0.2939500000000000    0.0375633333333333    0.6597100000000000 H
   0.2551600000000000    0.0704033333333333    0.4944900000000000 H
   0.2242050000000000    0.0327900000000000    0.3854400000000000 H
   0.2060550000000000    0.9624299999999999    0.3402900000000000 H
   0.5304300000000000    0.0873033333333333    0.1796500000000000 H
   0.5738300000000001    0.1113866666666667    0.1797450000000000 H
   0.4695750000000000    0.9126900000000000    0.8203549999999999 H
   0.4261700000000000    0.8886066666666665    0.8202650000000000 H
   0.4948500000000000    0.9295899999999999    0.0055150000000000 H
   0.5257950000000000    0.9672033333333333    0.1145650000000000 H
   0.5439450000000000    0.0375633333333333    0.1597150000000000 H
   0.5051550000000000    0.0704033333333333    0.9944900000000000 H
   0.4742100000000000    0.0327900000000000    0.8854400000000000 H
   0.4560600000000000    0.9624299999999999    0.8402950000000000 H
   0.4874100000000000    0.9813900000000000    0.6896900000000000 H
   0.4418150000000000    0.9507200000000000    0.6400100000000000 H
   0.3017750000000000    0.9503966666666666    0.7027450000000000 H
   0.3279950000000000    0.9021133333333333    0.6454500000000000 H
   0.3957850000000000    0.9175433333333333    0.6549850000000000 H
   0.2626000000000000    0.0186033333333333    0.8103150000000000 H
   0.3081900000000000    0.0492700000000000    0.8600000000000000 H
   0.4482350000000000    0.0495966666666667    0.7972600000000001 H
   0.4220150000000000    0.0978800000000000    0.8545499999999999 H
   0.3542250000000000    0.0824500000000000    0.8450200000000000 H
   0.7374050000000000    0.9813866666666666    0.1896900000000000 H
   0.6918100000000000    0.9507200000000000    0.1400100000000000 H
   0.5517750000000000    0.9503966666666666    0.2027500000000000 H
   0.5779900000000000    0.9021100000000000    0.1454500000000000 H
   0.6457800000000000    0.9175399999999999    0.1549850000000000 H
   0.5125950000000000    0.0186033333333333    0.3103000000000000 H
   0.5581900000000000    0.0492700000000000    0.3600000000000000 H
   0.6982300000000000    0.0495966666666667    0.2972600000000000 H
   0.6720100000000000    0.0978800000000000    0.3545550000000000 H
   0.6042200000000000    0.0824500000000000    0.3450200000000000 H
   0.7804300000000000    0.0873033333333333    0.6796500000000000 H
   0.8238350000000000    0.1113833333333333    0.6797450000000000 H
   0.7195700000000000    0.9126900000000000    0.3203550000000000 H
   0.6761699999999999    0.8886066666666665    0.3202600000000000 H
   0.7448450000000000    0.9295899999999999    0.5055150000000000 H
   0.7758000000000000    0.9672033333333333    0.6145650000000000 H
   0.7939499999999999    0.0375633333333333    0.6597100000000000 H
   0.7551600000000001    0.0704033333333333    0.4944900000000000 H
   0.7242050000000000    0.0327900000000000    0.3854400000000000 H
   0.7060550000000000    0.9624299999999999    0.3402900000000000 H
   0.0304300000000000    0.0873033333333333    0.1796500000000000 H
   0.0738300000000000    0.1113866666666667    0.1797450000000000 H
   0.9695750000000001    0.9126900000000000    0.8203549999999999 H
   0.9261699999999999    0.8886066666666665    0.8202650000000000 H
   0.9948500000000000    0.9295899999999999    0.0055150000000000 H
   0.0257950000000000    0.9672033333333333    0.1145650000000000 H
   0.0439450000000000    0.0375633333333333    0.1597150000000000 H
   0.0051550000000000    0.0704033333333333    0.9944900000000000 H
   0.9742100000000000    0.0327900000000000    0.8854400000000000 H
   0.9560600000000000    0.9624299999999999    0.8402950000000000 H
   0.9874100000000000    0.9813900000000000    0.6896900000000000 H
   0.9418150000000001    0.9507200000000000    0.6400100000000000 H
   0.8017750000000000    0.9503966666666666    0.7027450000000000 H
   0.8279950000000000    0.9021133333333333    0.6454500000000000 H
   0.8957850000000001    0.9175433333333333    0.6549850000000000 H
   0.7625999999999999    0.0186033333333333    0.8103150000000000 H
   0.8081900000000000    0.0492700000000000    0.8600000000000000 H
   0.9482349999999999    0.0495966666666667    0.7972600000000001 H
   0.9220150000000000    0.0978800000000000    0.8545499999999999 H
   0.8542250000000000    0.0824500000000000    0.8450200000000000 H
   0.2374050000000000    0.3147200000000000    0.1896900000000000 H
   0.1918100000000000    0.2840533333333333    0.1400100000000000 H
   0.0517750000000000    0.2837300000000000    0.2027500000000000 H
   0.0779900000000000    0.2354433333333333    0.1454500000000000 H
   0.1457800000000000    0.2508733333333333    0.1549850000000000 H
   0.0125950000000000    0.3519366666666667    0.3103000000000000 H
   0.0581900000000000    0.3826033333333333    0.3600000000000000 H
   0.1982300000000000    0.3829300000000000    0.2972600000000000 H
   0.1720100000000000    0.4312133333333333    0.3545550000000000 H
   0.1042200000000000    0.4157833333333333    0.3450200000000000 H
   0.2804300000000000    0.4206366666666667    0.6796500000000000 H
   0.3238350000000000    0.4447166666666666    0.6797450000000000 H
   0.2195700000000000    0.2460233333333333    0.3203550000000000 H
   0.1761700000000000    0.2219400000000000    0.3202600000000000 H
   0.2448450000000000    0.2629233333333333    0.5055150000000000 H
   0.2758000000000000    0.3005366666666667    0.6145650000000000 H
   0.2939500000000000    0.3708966666666667    0.6597100000000000 H
   0.2551600000000000    0.4037366666666666    0.4944900000000000 H
   0.2242050000000000    0.3661233333333333    0.3854400000000000 H
   0.2060550000000000    0.2957633333333333    0.3402900000000000 H
   0.5304300000000000    0.4206366666666667    0.1796500000000000 H
   0.5738300000000001    0.4447200000000000    0.1797450000000000 H
   0.4695750000000000    0.2460233333333333    0.8203549999999999 H
   0.4261700000000000    0.2219400000000000    0.8202650000000000 H
   0.4948500000000000    0.2629233333333333    0.0055150000000000 H
   0.5257950000000000    0.3005366666666667    0.1145650000000000 H
   0.5439450000000000    0.3708966666666667    0.1597150000000000 H
   0.5051550000000000    0.4037366666666666    0.9944900000000000 H
   0.4742100000000000    0.3661233333333333    0.8854400000000000 H
   0.4560600000000000    0.2957633333333333    0.8402950000000000 H
   0.4874100000000000    0.3147233333333333    0.6896900000000000 H
   0.4418150000000000    0.2840533333333333    0.6400100000000000 H
   0.3017750000000000    0.2837300000000000    0.7027450000000000 H
   0.3279950000000000    0.2354466666666666    0.6454500000000000 H
   0.3957850000000000    0.2508766666666666    0.6549850000000000 H
   0.2626000000000000    0.3519366666666667    0.8103150000000000 H
   0.3081900000000000    0.3826033333333333    0.8600000000000000 H
   0.4482350000000000    0.3829300000000000    0.7972600000000001 H
   0.4220150000000000    0.4312133333333333    0.8545499999999999 H
   0.3542250000000000    0.4157833333333333    0.8450200000000000 H
   0.7374050000000000    0.3147200000000000    0.1896900000000000 H
   0.6918100000000000    0.2840533333333333    0.1400100000000000 H
   0.5517750000000000    0.2837300000000000    0.2027500000000000 H
   0.5779900000000000    0.2354433333333333    0.1454500000000000 H
   0.6457800000000000    0.2508733333333333    0.1549850000000000 H
   0.5125950000000000    0.3519366666666667    0.3103000000000000 H
   0.5581900000000000    0.3826033333333333    0.3600000000000000 H
   0.6982300000000000    0.3829300000000000    0.2972600000000000 H
   0.6720100000000000    0.4312133333333333    0.3545550000000000 H
   0.6042200000000000    0.4157833333333333    0.3450200000000000 H
   0.7804300000000000    0.4206366666666667    0.6796500000000000 H
   0.8238350000000000    0.4447166666666666    0.6797450000000000 H
   0.7195700000000000    0.2460233333333333    0.3203550000000000 H
   0.6761699999999999    0.2219400000000000    0.3202600000000000 H
   0.7448450000000000    0.2629233333333333    0.5055150000000000 H
   0.7758000000000000    0.3005366666666667    0.6145650000000000 H
   0.7939499999999999    0.3708966666666667    0.6597100000000000 H
   0.7551600000000001    0.4037366666666666    0.4944900000000000 H
   0.7242050000000000    0.3661233333333333    0.3854400000000000 H
   0.7060550000000000    0.2957633333333333    0.3402900000000000 H
   0.0304300000000000    0.4206366666666667    0.1796500000000000 H
   0.0738300000000000    0.4447200000000000    0.1797450000000000 H
   0.9695750000000001    0.2460233333333333    0.8203549999999999 H
   0.9261699999999999    0.2219400000000000    0.8202650000000000 H
   0.9948500000000000    0.2629233333333333    0.0055150000000000 H
   0.0257950000000000    0.3005366666666667    0.1145650000000000 H
   0.0439450000000000    0.3708966666666667    0.1597150000000000 H
   0.0051550000000000    0.4037366666666666    0.9944900000000000 H