Zn4 P6 H18 C18 O24
1.0
   9.2627924915496251    0.0000000000000000   -1.5219869442580374
  -1.8123302258589966   10.3802471012707311   -0.1909195354028790
   0.0000000000000000    0.0000000000000000   21.1389999999999993
Zn P H C O
4 6 18 18 24
direct
   0.2498600000000000    0.0203400000000000    0.4894900000000000 Zn
   0.7501200000000000    0.9796600000000000    0.0105150000000000 Zn
   0.2498600000000000    0.0203400000000000    0.9894900000000000 Zn
   0.7501200000000000    0.9796600000000000    0.5105150000000001 Zn
   0.9892700000000000    0.7986000000000000    0.0211350000000000 P
   0.5086000000000001    0.9594200000000001    0.1008250000000000 P
   0.4913800000000000    0.0405800000000000    0.3991850000000000 P
   0.5086000000000001    0.9594200000000001    0.6008249999999999 P
   0.0107300000000000    0.2014000000000000    0.9788749999999999 P
   0.4913800000000000    0.0405800000000000    0.8991850000000000 P
   0.0019200000000000    0.8045400000000000    0.1256250000000000 H
   0.2240500000000000    0.6584300000000000    0.0409650000000000 H
   0.5002100000000000    0.7501300000000000    0.0970750000000000 H
   0.7663200000000000    0.0440100000000000    0.1671950000000000 H
   0.2748300000000000    0.9203000000000000    0.1715250000000000 H
   0.2673500000000000    0.3360800000000000    0.0210800000000000 H
   0.4997800000000000    0.2498700000000000    0.4029350000000000 H
   0.2336700000000000    0.9560000000000000    0.3328150000000000 H
   0.7251600000000000    0.0797100000000000    0.3284800000000000 H
   0.7326500000000000    0.6639200000000000    0.9789300000000001 H
   0.5002100000000000    0.7501300000000000    0.5970750000000000 H
   0.7663200000000000    0.0440100000000000    0.6671950000000000 H
   0.2748300000000000    0.9203000000000000    0.6715250000000000 H
   0.9980800000000000    0.1954600000000000    0.8743799999999999 H
   0.7759500000000000    0.3415700000000000    0.9590400000000000 H
   0.4997800000000000    0.2498700000000000    0.9029350000000000 H
   0.2336700000000000    0.9560000000000000    0.8328150000000001 H
   0.7251600000000000    0.0797100000000000    0.8284800000000000 H
   0.9896500000000000    0.6302300000000000    0.0088700000000000 C
   0.1253500000000000    0.5890300000000001    0.0231200000000000 C
   0.6385100000000000    0.0296500000000000    0.2295600000000000 C
   0.5094900000000000    0.9833400000000000    0.1848950000000000 C
   0.3740000000000000    0.9549600000000000    0.2059250000000000 C
   0.1386700000000000    0.4599800000000000    0.0148350000000000 C
   0.3614800000000000    0.9703500000000000    0.2704500000000000 C
   0.4905000000000000    0.0166600000000000    0.3151100000000000 C
   0.6259900000000000    0.0450400000000000    0.2940850000000000 C
   0.8613300000000000    0.5400199999999999    0.9851750000000000 C
   0.6385100000000000    0.0296500000000000    0.7295600000000000 C
   0.5094900000000000    0.9833400000000000    0.6848950000000000 C
   0.3740000000000000    0.9549600000000000    0.7059250000000000 C
   0.0103500000000000    0.3697700000000000    0.9911350000000000 C
   0.8746500000000000    0.4109700000000000    0.9768900000000000 C
   0.3614800000000000    0.9703500000000000    0.7704500000000001 C
   0.4905000000000000    0.0166600000000000    0.8151100000000000 C
   0.6259900000000000    0.0450400000000000    0.7940849999999999 C
   0.0631300000000000    0.8397700000000000    0.0947450000000000 O
   0.8276700000000000    0.8153300000000000    0.0105700000000000 O
   0.4372100000000000    0.8109600000000000    0.0802750000000000 O
   0.6698300000000000    0.9838800000000000    0.0916800000000000 O
   0.4072400000000000    0.0381200000000000    0.0625150000000000 O
   0.7748000000000000    0.0609200000000000    0.2140300000000000 O
   0.9122200000000000    0.1229500000000000    0.0191000000000000 O
   0.2750300000000000    0.4296400000000000    0.0304600000000000 O
   0.5627799999999999    0.1890400000000000    0.4197350000000000 O
   0.3301600000000000    0.0161200000000000    0.4083250000000000 O
   0.5927500000000000    0.9618800000000000    0.4374900000000000 O
   0.2251900000000000    0.9390900000000000    0.2859800000000000 O
   0.0877600000000000    0.8770500000000000    0.9809050000000000 O
   0.7249700000000000    0.5703500000000000    0.9695500000000000 O
   0.4372100000000000    0.8109600000000000    0.5802750000000000 O
   0.6698300000000000    0.9838800000000000    0.5916800000000000 O
   0.4072400000000000    0.0381200000000000    0.5625150000000000 O
   0.7748000000000000    0.0609200000000000    0.7140299999999999 O
   0.9368700000000000    0.1602300000000000    0.9052650000000000 O
   0.1723200000000000    0.1846700000000000    0.9894350000000001 O
   0.5627799999999999    0.1890400000000000    0.9197350000000000 O
   0.3301600000000000    0.0161200000000000    0.9083250000000000 O
   0.5927500000000000    0.9618800000000000    0.9374899999999999 O
   0.2251900000000000    0.9390900000000000    0.7859800000000000 O
