H4 C6 N5
1.0
   5.7154999573444982    0.0000000000000000   -0.0006982800520474
  -0.5371199749708176   10.6029040525770064   -0.0001852928800298
   0.0000000000000000    0.0000000000000000   32.3900000000000006
H C N
4 6 5
direct
   0.4104500000000000    0.6964800000000000    0.2140050000000000 H
   0.2206900000000000    0.8290900000000000    0.1612100000000000 H
   0.7383000000000000    0.7137300000000000    0.0738000000000000 H
   0.9029100000000000    0.5828400000000000    0.1296550000000000 H
   0.4779600000000000    0.7030800000000000    0.1825400000000000 C
   0.3734800000000000    0.7769300000000000    0.1532200000000000 C
   0.4636900000000000    0.7822700000000000    0.1128100000000000 C
   0.6601700000000000    0.7124900000000000    0.1044150000000000 C
   0.7530100000000000    0.6399100000000000    0.1354950000000000 C
   0.3443600000000000    0.8516600000000000    0.0809050000000000 C
   0.6643400000000000    0.6332500000000000    0.1742050000000000 N
   0.4350800000000000    0.8915100000000000    0.0440700000000000 N
   0.2530700000000000    0.9401100000000000    0.0237600000000000 N
   0.0621200000000000    0.9304900000000000    0.0481650000000000 N
   0.1162400000000000    0.8767700000000000    0.0841500000000000 N
