H3 C4 O6
1.0
  38.6219953881459688    0.0000000000000000    0.0188742690324926
   0.0096027659064468   14.8709968633257752    0.0010381916514145
   0.0000000000000000    0.0000000000000000   30.8299999999999983
H C O
3 4 6
direct
   0.4254825000000000    0.6967000000000000    0.7145900000000001 H
   0.4812200000000000    0.6791100000000000    0.7451700000000000 H
   0.5072825000000000    0.8171800000000000    0.7748600000000000 H
   0.4483325000000000    0.7362600000000000    0.7953150000000000 C
   0.4651600000000000    0.7391400000000000    0.7502850000000000 C
   0.4884150000000000    0.8237200000000000    0.7481150000000000 C
   0.5101550000000000    0.8215600000000000    0.7059950000000000 C
   0.4181100000000000    0.7695300000000000    0.8003400000000001 O
   0.4665950000000000    0.7036500000000000    0.8256300000000000 O
   0.4401650000000000    0.7499300000000000    0.7159900000000000 O
   0.4683025000000000    0.9024400000000000    0.7525100000000000 O
   0.5101075000000000    0.8879200000000000    0.6798400000000000 O
   0.5283650000000000    0.7516300000000000    0.7002650000000000 O
