H2 O2
1.0
  17.5549999973262203    0.0000000000000000    0.0003063925501723
  -0.7965054319384351   17.5269108543659975    0.0000000000000011
   0.0000000000000000    0.0000000000000000   15.9130000000000003
H O
2 2
direct
   0.2528971590429883    0.5212733033769174    0.2177264821139915 H
   0.3278680777960887    0.4492706763127005    0.2492061657731713 H
   0.2971200000000000    0.5516600000000000    0.2384000000000000 O
   0.3507500000000000    0.5000900000000000    0.2607500000000000 O
