H2 C2 N3
1.0
  17.5549999973262203    0.0000000000000000    0.0003063925501723
  -0.7965054319384351   17.5269108543659975    0.0000000000000011
   0.0000000000000000    0.0000000000000000   15.9130000000000003
H C N
2 2 3
direct
   0.3475300000000000    0.3783200000000000    0.2576100000000000 H
   0.1849100000000000    0.5345000000000000    0.1879200000000000 H
   0.3196100000000000    0.4309300000000000    0.2450400000000000 C
   0.2368400000000000    0.5102400000000000    0.2102200000000000 C
   0.3507500000000000    0.5000900000000000    0.2607500000000000 N
   0.2971200000000000    0.5516600000000000    0.2384000000000000 N
   0.2483600000000000    0.4343900000000000    0.2133300000000000 N
