H6 O4
1.0
  33.8224979394154843    0.0000000000000000   -0.0118062794853529
  -2.1398493557971578   20.1890802246343242   -0.1165790194411749
   0.0000000000000000    0.0000000000000000   27.8730000000000011
H O
6 4
direct
   0.1151738546579761    0.7818145320139650    0.2787704686164565 H
   0.1243147485981101    0.8049516026390930    0.2302448555032457 H
   0.1020632987303543    0.7297296785320726    0.3539791359245757 H
   0.2489785081379549    0.7403657238374340    0.3240610272696853 H
   0.2196081084670558    0.8060213878564223    0.2257913869080428 H
   0.2556059706670841    0.8103372559430687    0.2666798658812104 H
   0.1215420000000000    0.7693433333333333    0.2534500000000000 O
   0.1099200000000000    0.7143433333333333    0.3227400000000000 O
   0.2237220000000000    0.7191700000000000    0.3124200000000000 O
   0.2067900000000000    0.7693700000000000    0.2441800000000000 O
