H4 O2
1.0
  33.8224979394154843    0.0000000000000000   -0.0118062794853529
  -2.1398493557971578   20.1890802246343242   -0.1165790194411749
   0.0000000000000000    0.0000000000000000   27.8730000000000011
H O
4 2
direct
   0.1572646731969942    0.3921658327092684    0.6238916553564402 H
   0.1295568788287184    0.4463422615371179    0.6499553961360555 H
   0.0682353258332014    0.5502363420656916    0.3500741439002870 H
   0.0353348204489560    0.5960938471281074    0.3756689962470969 H
   0.1533740000000000    0.4228466666666666    0.6502599999999999 O
   0.0539600000000000    0.5897200000000000    0.3496100000000000 O
