Zn60 H526 C557 N58 O240
1.0
  33.8224979394154843    0.0000000000000000   -0.0118062794853529
  -2.1398493557971578   20.1890802246343242   -0.1165790194411749
   0.0000000000000000    0.0000000000000000   27.8730000000000011
Zn H C N O
60 526 557 58 240
direct
   0.1930920000000000    0.1057166666666667    0.7083900000000000 Zn
   0.0930880000000000    0.2724500000000000    0.7915500000000000 Zn
   0.1634520000000000    0.1548100000000000    0.2084700000000000 Zn
   0.0634600000000000    0.3219733333333333    0.2915700000000000 Zn
   0.3930920000000000    0.1057166666666667    0.7083900000000000 Zn
   0.2930880000000000    0.2724500000000000    0.7915500000000000 Zn
   0.3634520000000000    0.1548100000000000    0.2084700000000000 Zn
   0.2634600000000000    0.3219733333333333    0.2915700000000000 Zn
   0.5930920000000001    0.1057166666666667    0.7083900000000000 Zn
   0.4930880000000000    0.2724500000000000    0.7915500000000000 Zn
   0.5634520000000001    0.1548100000000000    0.2084700000000000 Zn
   0.4634600000000000    0.3219733333333333    0.2915700000000000 Zn
   0.7930920000000001    0.1057166666666667    0.7083900000000000 Zn
   0.6930880000000001    0.2724500000000000    0.7915500000000000 Zn
   0.7634520000000001    0.1548100000000000    0.2084700000000000 Zn
   0.6634600000000000    0.3219733333333333    0.2915700000000000 Zn
   0.9930920000000001    0.1057166666666667    0.7083900000000000 Zn
   0.8930880000000001    0.2724500000000000    0.7915500000000000 Zn
   0.9634520000000001    0.1548100000000000    0.2084700000000000 Zn
   0.8634600000000000    0.3219733333333333    0.2915700000000000 Zn
   0.1930920000000000    0.4390499999999999    0.7083900000000000 Zn
   0.0930880000000000    0.6057833333333333    0.7915500000000000 Zn
   0.1634520000000000    0.4881433333333333    0.2084700000000000 Zn
   0.0634600000000000    0.6553066666666667    0.2915700000000000 Zn
   0.3930920000000000    0.4390499999999999    0.7083900000000000 Zn
   0.2930880000000000    0.6057833333333333    0.7915500000000000 Zn
   0.3634520000000000    0.4881433333333333    0.2084700000000000 Zn
   0.2634600000000000    0.6553066666666667    0.2915700000000000 Zn
   0.5930920000000001    0.4390499999999999    0.7083900000000000 Zn
   0.4930880000000000    0.6057833333333333    0.7915500000000000 Zn
   0.5634520000000001    0.4881433333333333    0.2084700000000000 Zn
   0.4634600000000000    0.6553066666666667    0.2915700000000000 Zn
   0.7930920000000001    0.4390499999999999    0.7083900000000000 Zn
   0.6930880000000001    0.6057833333333333    0.7915500000000000 Zn
   0.7634520000000001    0.4881433333333333    0.2084700000000000 Zn
   0.6634600000000000    0.6553066666666667    0.2915700000000000 Zn
   0.9930920000000001    0.4390499999999999    0.7083900000000000 Zn
   0.8930880000000001    0.6057833333333333    0.7915500000000000 Zn
   0.9634520000000001    0.4881433333333333    0.2084700000000000 Zn
   0.8634600000000000    0.6553066666666667    0.2915700000000000 Zn
   0.1930920000000000    0.7723833333333333    0.7083900000000000 Zn
   0.0930880000000000    0.9391166666666666    0.7915500000000000 Zn
   0.1634520000000000    0.8214766666666666    0.2084700000000000 Zn
   0.0634600000000000    0.9886400000000000    0.2915700000000000 Zn
   0.3930920000000000    0.7723833333333333    0.7083900000000000 Zn
   0.2930880000000000    0.9391166666666666    0.7915500000000000 Zn
   0.3634520000000000    0.8214766666666666    0.2084700000000000 Zn
   0.2634600000000000    0.9886400000000000    0.2915700000000000 Zn
   0.5930920000000001    0.7723833333333333    0.7083900000000000 Zn
   0.4930880000000000    0.9391166666666666    0.7915500000000000 Zn
   0.5634520000000001    0.8214766666666666    0.2084700000000000 Zn
   0.4634600000000000    0.9886400000000000    0.2915700000000000 Zn
   0.7930920000000001    0.7723833333333333    0.7083900000000000 Zn
   0.6930880000000001    0.9391166666666666    0.7915500000000000 Zn
   0.7634520000000001    0.8214766666666666    0.2084700000000000 Zn
   0.6634600000000000    0.9886400000000000    0.2915700000000000 Zn
   0.9930920000000001    0.7723833333333333    0.7083900000000000 Zn
   0.8930880000000001    0.9391166666666666    0.7915500000000000 Zn
   0.9634520000000001    0.8214766666666666    0.2084700000000000 Zn
   0.8634600000000000    0.9886400000000000    0.2915700000000000 Zn
   0.0723700000000000    0.2747433333333333    0.1454500000000000 H
   0.0732200000000000    0.0059800000000000    0.1902300000000000 H
   0.0842420000000000    0.1110533333333333    0.3837100000000000 H
   0.0932640000000000    0.1963866666666667    0.3198400000000000 H
   0.0124380000000000    0.3090833333333333    0.3826400000000000 H
   0.0004420000000000    0.2293666666666667    0.4511000000000000 H
   0.0082740000000000    0.1177566666666666    0.4825300000000000 H
   0.0338260000000000    0.0633533333333333    0.4469200000000000 H
   0.0715680000000000    0.1659233333333333    0.5194000000000000 H
   0.1653780000000000    0.1210033333333333    0.8545000000000000 H
   0.0039300000000000    0.1220566666666667    0.8097800000000001 H
   0.0658560000000000    0.1394733333333333    0.6163100000000000 H
   0.1171100000000000    0.1542033333333333    0.6805800000000000 H
   0.1852220000000000    0.0210866666666667    0.6166100000000000 H
   0.1373140000000000    0.0014266666666667    0.5477400000000000 H
   0.0700800000000000    0.0141900000000000    0.5161900000000000 H
   0.0374480000000000    0.0567800000000000    0.5517700000000000 H
   0.0993320000000000    0.1197066666666667    0.4804400000000000 H
   0.0653620000000000    0.2870233333333333    0.6454200000000000 H
   0.1039220000000000    0.2884633333333333    0.6902199999999999 H
   0.1659500000000000    0.3069400000000000    0.8838900000000000 H
   0.0176460000000000    0.3226233333333333    0.8203200000000000 H
   0.0846900000000000    0.1869800000000000    0.8819800000000000 H
   0.0363360000000000    0.1662633333333333    0.9500900000000000 H
   0.1691580000000000    0.1790600000000000    0.9814500000000000 H
   0.1367900000000000    0.2224600000000000    0.9464000000000000 H
   0.1985080000000000    0.2841700000000000    0.0190300000000000 H
   0.1724920000000000    0.1096266666666667    0.3546300000000000 H
   0.1731380000000000    0.1735433333333333    0.3099000000000000 H
   0.1834000000000000    0.2752700000000000    0.1162100000000000 H
   0.1927920000000000    0.0281033333333333    0.1801800000000000 H
   0.1121740000000000    0.1406066666666667    0.1176200000000000 H
   0.0997720000000000    0.0599700000000000    0.0491000000000000 H
   0.1073700000000000    0.2811366666666666    0.0173800000000000 H
   0.1334560000000000    0.2271866666666667    0.0523400000000000 H
   0.1704940000000000    0.3308233333333333    0.9810100000000000 H
   0.2723700000000000    0.2747433333333333    0.1454500000000000 H
   0.2732200000000000    0.0059800000000000    0.1902300000000000 H
   0.2842420000000000    0.1110533333333333    0.3837100000000000 H
   0.2932640000000000    0.1963866666666667    0.3198400000000000 H
   0.2124380000000000    0.3090833333333333    0.3826400000000000 H
   0.2004420000000000    0.2293666666666667    0.4511000000000000 H
   0.2082740000000000    0.1177566666666666    0.4825300000000000 H
   0.2338260000000000    0.0633533333333333    0.4469200000000000 H
   0.2715680000000000    0.1659233333333333    0.5194000000000000 H
   0.3653780000000000    0.1210033333333333    0.8545000000000000 H
   0.2039300000000000    0.1220566666666667    0.8097800000000001 H
   0.2658560000000000    0.1394733333333333    0.6163100000000000 H
   0.3171100000000000    0.1542033333333333    0.6805800000000000 H
   0.3852220000000000    0.0210866666666667    0.6166100000000000 H
   0.3373140000000000    0.0014266666666667    0.5477400000000000 H
   0.2700800000000000    0.0141900000000000    0.5161900000000000 H
   0.2374480000000000    0.0567800000000000    0.5517700000000000 H
   0.2993320000000000    0.1197066666666667    0.4804400000000000 H
   0.2653620000000000    0.2870233333333333    0.6454200000000000 H
   0.3039220000000000    0.2884633333333333    0.6902199999999999 H
   0.3659500000000000    0.3069400000000000    0.8838900000000000 H
   0.2176460000000000    0.3226233333333333    0.8203200000000000 H
   0.2846900000000000    0.1869800000000000    0.8819800000000000 H
   0.2363360000000000    0.1662633333333333    0.9500900000000000 H
   0.3691580000000000    0.1790600000000000    0.9814500000000000 H
   0.3367900000000000    0.2224600000000000    0.9464000000000000 H
   0.3985080000000000    0.2841700000000000    0.0190300000000000 H
   0.3724920000000000    0.1096266666666667    0.3546300000000000 H
   0.3731380000000000    0.1735433333333333    0.3099000000000000 H
   0.3834000000000000    0.2752700000000000    0.1162100000000000 H
   0.3927920000000000    0.0281033333333333    0.1801800000000000 H
   0.3121740000000000    0.1406066666666667    0.1176200000000000 H
   0.2997720000000000    0.0599700000000000    0.0491000000000000 H
   0.3073700000000000    0.2811366666666666    0.0173800000000000 H
   0.3334560000000000    0.2271866666666667    0.0523400000000000 H
   0.3704940000000000    0.3308233333333333    0.9810100000000000 H
   0.4723700000000000    0.2747433333333333    0.1454500000000000 H
   0.4732200000000000    0.0059800000000000    0.1902300000000000 H
   0.4842420000000000    0.1110533333333333    0.3837100000000000 H
   0.4932640000000000    0.1963866666666667    0.3198400000000000 H
   0.4124380000000000    0.3090833333333333    0.3826400000000000 H
   0.4004420000000000    0.2293666666666667    0.4511000000000000 H
   0.4082740000000000    0.1177566666666666    0.4825300000000000 H
   0.4338260000000000    0.0633533333333333    0.4469200000000000 H
   0.4715680000000000    0.1659233333333333    0.5194000000000000 H
   0.5653780000000000    0.1210033333333333    0.8545000000000000 H
   0.4039300000000000    0.1220566666666667    0.8097800000000001 H
   0.4658560000000000    0.1394733333333333    0.6163100000000000 H
   0.5171100000000001    0.1542033333333333    0.6805800000000000 H
   0.5852220000000000    0.0210866666666667    0.6166100000000000 H
   0.5373140000000001    0.0014266666666667    0.5477400000000000 H
   0.4700800000000001    0.0141900000000000    0.5161900000000000 H
   0.4374480000000000    0.0567800000000000    0.5517700000000000 H
   0.4993320000000000    0.1197066666666667    0.4804400000000000 H
   0.4653620000000001    0.2870233333333333    0.6454200000000000 H
   0.5039220000000000    0.2884633333333333    0.6902199999999999 H
   0.5659500000000001    0.3069400000000000    0.8838900000000000 H
   0.4176460000000000    0.3226233333333333    0.8203200000000000 H
   0.4846900000000000    0.1869800000000000    0.8819800000000000 H
   0.4363360000000000    0.1662633333333333    0.9500900000000000 H
   0.5691580000000001    0.1790600000000000    0.9814500000000000 H
   0.5367900000000000    0.2224600000000000    0.9464000000000000 H
   0.5985080000000000    0.2841700000000000    0.0190300000000000 H
   0.5724920000000000    0.1096266666666667    0.3546300000000000 H
   0.5731380000000000    0.1735433333333333    0.3099000000000000 H
   0.5834000000000000    0.2752700000000000    0.1162100000000000 H
   0.5927920000000000    0.0281033333333333    0.1801800000000000 H
   0.5121740000000000    0.1406066666666667    0.1176200000000000 H
   0.4997720000000000    0.0599700000000000    0.0491000000000000 H
   0.5073700000000001    0.2811366666666666    0.0173800000000000 H
   0.5334560000000000    0.2271866666666667    0.0523400000000000 H
   0.5704940000000001    0.3308233333333333    0.9810100000000000 H
   0.6723700000000001    0.2747433333333333    0.1454500000000000 H
   0.6732200000000000    0.0059800000000000    0.1902300000000000 H
   0.6842420000000001    0.1110533333333333    0.3837100000000000 H
   0.6932640000000001    0.1963866666666667    0.3198400000000000 H
   0.6124380000000000    0.3090833333333333    0.3826400000000000 H
   0.6004420000000001    0.2293666666666667    0.4511000000000000 H
   0.6082740000000001    0.1177566666666666    0.4825300000000000 H
   0.6338260000000001    0.0633533333333333    0.4469200000000000 H
   0.6715680000000001    0.1659233333333333    0.5194000000000000 H
   0.7653780000000001    0.1210033333333333    0.8545000000000000 H
   0.6039300000000001    0.1220566666666667    0.8097800000000001 H
   0.6658560000000001    0.1394733333333333    0.6163100000000000 H
   0.7171100000000001    0.1542033333333333    0.6805800000000000 H
   0.7852220000000001    0.0210866666666667    0.6166100000000000 H
   0.7373140000000001    0.0014266666666667    0.5477400000000000 H
   0.6700800000000001    0.0141900000000000    0.5161900000000000 H
   0.6374480000000001    0.0567800000000000    0.5517700000000000 H
   0.6993320000000001    0.1197066666666667    0.4804400000000000 H
   0.6653620000000001    0.2870233333333333    0.6454200000000000 H
   0.7039220000000002    0.2884633333333333    0.6902199999999999 H
   0.7659500000000001    0.3069400000000000    0.8838900000000000 H
   0.6176460000000001    0.3226233333333333    0.8203200000000000 H
   0.6846900000000001    0.1869800000000000    0.8819800000000000 H
   0.6363360000000001    0.1662633333333333    0.9500900000000000 H
   0.7691580000000001    0.1790600000000000    0.9814500000000000 H
   0.7367900000000001    0.2224600000000000    0.9464000000000000 H
   0.7985080000000001    0.2841700000000000    0.0190300000000000 H
   0.7724920000000001    0.1096266666666667    0.3546300000000000 H
   0.7731380000000001    0.1735433333333333    0.3099000000000000 H
   0.7834000000000001    0.2752700000000000    0.1162100000000000 H
   0.7927920000000002    0.0281033333333333    0.1801800000000000 H
   0.7121740000000001    0.1406066666666667    0.1176200000000000 H
   0.6997720000000001    0.0599700000000000    0.0491000000000000 H
   0.7073700000000001    0.2811366666666666    0.0173800000000000 H
   0.7334560000000001    0.2271866666666667    0.0523400000000000 H
   0.7704940000000001    0.3308233333333333    0.9810100000000000 H
   0.8723700000000001    0.2747433333333333    0.1454500000000000 H
   0.8732200000000000    0.0059800000000000    0.1902300000000000 H
   0.8842420000000001    0.1110533333333333    0.3837100000000000 H
   0.8932640000000001    0.1963866666666667    0.3198400000000000 H
   0.8124380000000000    0.3090833333333333    0.3826400000000000 H
   0.8004420000000001    0.2293666666666667    0.4511000000000000 H
   0.8082740000000000    0.1177566666666666    0.4825300000000000 H
   0.8338260000000001    0.0633533333333333    0.4469200000000000 H
   0.8715680000000000    0.1659233333333333    0.5194000000000000 H
   0.9653780000000001    0.1210033333333333    0.8545000000000000 H
   0.8039300000000000    0.1220566666666667    0.8097800000000001 H
   0.8658560000000001    0.1394733333333333    0.6163100000000000 H
   0.9171100000000001    0.1542033333333333    0.6805800000000000 H
   0.9852220000000000    0.0210866666666667    0.6166100000000000 H
   0.9373140000000001    0.0014266666666667    0.5477400000000000 H
   0.8700800000000001    0.0141900000000000    0.5161900000000000 H
   0.8374480000000001    0.0567800000000000    0.5517700000000000 H
   0.8993320000000000    0.1197066666666667    0.4804400000000000 H
   0.8653620000000001    0.2870233333333333    0.6454200000000000 H
   0.9039220000000001    0.2884633333333333    0.6902199999999999 H
   0.9659500000000001    0.3069400000000000    0.8838900000000000 H
   0.8176460000000001    0.3226233333333333    0.8203200000000000 H
   0.8846900000000001    0.1869800000000000    0.8819800000000000 H
   0.8363360000000001    0.1662633333333333    0.9500900000000000 H
   0.9691580000000001    0.1790600000000000    0.9814500000000000 H
   0.9367900000000000    0.2224600000000000    0.9464000000000000 H
   0.9985080000000001    0.2841700000000000    0.0190300000000000 H
   0.9724920000000000    0.1096266666666667    0.3546300000000000 H
   0.9731380000000001    0.1735433333333333    0.3099000000000000 H
   0.9834000000000001    0.2752700000000000    0.1162100000000000 H
   0.9927920000000001    0.0281033333333333    0.1801800000000000 H
   0.9121740000000000    0.1406066666666667    0.1176200000000000 H
   0.8997720000000000    0.0599700000000000    0.0491000000000000 H
   0.9073700000000000    0.2811366666666666    0.0173800000000000 H
   0.9334560000000001    0.2271866666666667    0.0523400000000000 H
   0.9704940000000001    0.3308233333333333    0.9810100000000000 H
   0.0723700000000000    0.6080766666666666    0.1454500000000000 H
   0.0732200000000000    0.3393133333333333    0.1902300000000000 H
   0.1653780000000000    0.4543366666666666    0.8545000000000000 H
   0.0039300000000000    0.4553900000000000    0.8097800000000001 H
   0.0653620000000000    0.6203566666666667    0.6454200000000000 H
   0.1039220000000000    0.6217966666666666    0.6902199999999999 H
   0.1659500000000000    0.6402733333333332    0.8838900000000000 H
   0.0176460000000000    0.6559566666666666    0.8203200000000000 H
   0.0846900000000000    0.5203133333333333    0.8819800000000000 H
   0.0363360000000000    0.4995966666666666    0.9500900000000000 H
   0.1691580000000000    0.5123933333333333    0.9814500000000000 H
   0.1367900000000000    0.5557933333333334    0.9464000000000000 H
   0.1985080000000000    0.6175033333333333    0.0190300000000000 H
   0.1724920000000000    0.4429600000000000    0.3546300000000000 H
   0.1731380000000000    0.5068766666666666    0.3099000000000000 H
   0.1834000000000000    0.6086033333333334    0.1162100000000000 H
   0.1927920000000000    0.3614366666666666    0.1801800000000000 H
   0.1121740000000000    0.4739400000000000    0.1176200000000000 H
   0.0997720000000000    0.3933033333333333    0.0491000000000000 H
   0.1073700000000000    0.6144700000000000    0.0173800000000000 H
   0.1334560000000000    0.5605200000000000    0.0523400000000000 H
   0.1704940000000000    0.6641566666666666    0.9810100000000000 H
   0.2723700000000000    0.6080766666666666    0.1454500000000000 H
   0.2732200000000000    0.3393133333333333    0.1902300000000000 H
   0.2842420000000000    0.4443866666666667    0.3837100000000000 H
   0.2932640000000000    0.5297200000000000    0.3198400000000000 H
   0.2124380000000000    0.6424166666666666    0.3826400000000000 H
   0.2004420000000000    0.5627000000000000    0.4511000000000000 H
   0.2082740000000000    0.4510900000000000    0.4825300000000000 H
   0.2338260000000000    0.3966866666666666    0.4469200000000000 H
   0.2715680000000000    0.4992566666666666    0.5194000000000000 H
   0.3653780000000000    0.4543366666666666    0.8545000000000000 H
   0.2039300000000000    0.4553900000000000    0.8097800000000001 H
   0.2658560000000000    0.4728066666666667    0.6163100000000000 H
   0.3171100000000000    0.4875366666666666    0.6805800000000000 H
   0.3852220000000000    0.3544200000000000    0.6166100000000000 H
   0.3373140000000000    0.3347600000000000    0.5477400000000000 H
   0.2700800000000000    0.3475233333333333    0.5161900000000000 H
   0.2374480000000000    0.3901133333333333    0.5517700000000000 H
   0.2993320000000000    0.4530400000000000    0.4804400000000000 H
   0.2653620000000000    0.6203566666666667    0.6454200000000000 H
   0.3039220000000000    0.6217966666666666    0.6902199999999999 H
   0.3659500000000000    0.6402733333333332    0.8838900000000000 H
   0.2176460000000000    0.6559566666666666    0.8203200000000000 H
   0.2846900000000000    0.5203133333333333    0.8819800000000000 H
   0.2363360000000000    0.4995966666666666    0.9500900000000000 H
   0.3691580000000000    0.5123933333333333    0.9814500000000000 H
   0.3367900000000000    0.5557933333333334    0.9464000000000000 H
   0.3985080000000000    0.6175033333333333    0.0190300000000000 H
   0.3724920000000000    0.4429600000000000    0.3546300000000000 H
   0.3731380000000000    0.5068766666666666    0.3099000000000000 H
   0.3834000000000000    0.6086033333333334    0.1162100000000000 H
   0.3927920000000000    0.3614366666666666    0.1801800000000000 H
   0.3121740000000000    0.4739400000000000    0.1176200000000000 H
   0.2997720000000000    0.3933033333333333    0.0491000000000000 H
   0.3073700000000000    0.6144700000000000    0.0173800000000000 H
   0.3334560000000000    0.5605200000000000    0.0523400000000000 H
   0.3704940000000000    0.6641566666666666    0.9810100000000000 H
   0.4723700000000000    0.6080766666666666    0.1454500000000000 H
   0.4732200000000000    0.3393133333333333    0.1902300000000000 H
   0.4842420000000000    0.4443866666666667    0.3837100000000000 H
   0.4932640000000000    0.5297200000000000    0.3198400000000000 H
   0.4124380000000000    0.6424166666666666    0.3826400000000000 H
   0.4004420000000000    0.5627000000000000    0.4511000000000000 H
   0.4082740000000000    0.4510900000000000    0.4825300000000000 H
   0.4338260000000000    0.3966866666666666    0.4469200000000000 H
   0.4715680000000000    0.4992566666666666    0.5194000000000000 H
   0.5653780000000000    0.4543366666666666    0.8545000000000000 H
   0.4039300000000000    0.4553900000000000    0.8097800000000001 H
   0.4658560000000000    0.4728066666666667    0.6163100000000000 H
   0.5171100000000001    0.4875366666666666    0.6805800000000000 H
   0.5852220000000000    0.3544200000000000    0.6166100000000000 H
   0.5373140000000001    0.3347600000000000    0.5477400000000000 H
   0.4700800000000001    0.3475233333333333    0.5161900000000000 H
   0.4374480000000000    0.3901133333333333    0.5517700000000000 H
   0.4993320000000000    0.4530400000000000    0.4804400000000000 H
   0.4653620000000001    0.6203566666666667    0.6454200000000000 H
   0.5039220000000000    0.6217966666666666    0.6902199999999999 H
   0.5659500000000001    0.6402733333333332    0.8838900000000000 H
   0.4176460000000000    0.6559566666666666    0.8203200000000000 H
   0.4846900000000000    0.5203133333333333    0.8819800000000000 H
   0.4363360000000000    0.4995966666666666    0.9500900000000000 H
   0.5691580000000001    0.5123933333333333    0.9814500000000000 H
   0.5367900000000000    0.5557933333333334    0.9464000000000000 H
   0.5985080000000000    0.6175033333333333    0.0190300000000000 H
   0.5724920000000000    0.4429600000000000    0.3546300000000000 H
   0.5731380000000000    0.5068766666666666    0.3099000000000000 H
   0.5834000000000000    0.6086033333333334    0.1162100000000000 H
   0.5927920000000000    0.3614366666666666    0.1801800000000000 H
   0.5121740000000000    0.4739400000000000    0.1176200000000000 H
   0.4997720000000000    0.3933033333333333    0.0491000000000000 H
   0.5073700000000001    0.6144700000000000    0.0173800000000000 H
   0.5334560000000000    0.5605200000000000    0.0523400000000000 H
   0.5704940000000001    0.6641566666666666    0.9810100000000000 H
   0.6723700000000001    0.6080766666666666    0.1454500000000000 H
   0.6732200000000000    0.3393133333333333    0.1902300000000000 H
   0.6842420000000001    0.4443866666666667    0.3837100000000000 H
   0.6932640000000001    0.5297200000000000    0.3198400000000000 H
   0.6124380000000000    0.6424166666666666    0.3826400000000000 H
   0.6004420000000001    0.5627000000000000    0.4511000000000000 H
   0.6082740000000001    0.4510900000000000    0.4825300000000000 H
   0.6338260000000001    0.3966866666666666    0.4469200000000000 H
   0.6715680000000001    0.4992566666666666    0.5194000000000000 H
   0.7653780000000001    0.4543366666666666    0.8545000000000000 H
   0.6039300000000001    0.4553900000000000    0.8097800000000001 H
   0.6658560000000001    0.4728066666666667    0.6163100000000000 H
   0.7171100000000001    0.4875366666666666    0.6805800000000000 H
   0.7852220000000001    0.3544200000000000    0.6166100000000000 H
   0.7373140000000001    0.3347600000000000    0.5477400000000000 H
   0.6700800000000001    0.3475233333333333    0.5161900000000000 H
   0.6374480000000001    0.3901133333333333    0.5517700000000000 H
   0.6993320000000001    0.4530400000000000    0.4804400000000000 H
   0.6653620000000001    0.6203566666666667    0.6454200000000000 H
   0.7039220000000002    0.6217966666666666    0.6902199999999999 H
   0.7659500000000001    0.6402733333333332    0.8838900000000000 H
   0.6176460000000001    0.6559566666666666    0.8203200000000000 H
   0.6846900000000001    0.5203133333333333    0.8819800000000000 H
   0.6363360000000001    0.4995966666666666    0.9500900000000000 H
   0.7691580000000001    0.5123933333333333    0.9814500000000000 H
   0.7367900000000001    0.5557933333333334    0.9464000000000000 H
   0.7985080000000001    0.6175033333333333    0.0190300000000000 H
   0.7724920000000001    0.4429600000000000    0.3546300000000000 H
   0.7731380000000001    0.5068766666666666    0.3099000000000000 H
   0.7834000000000001    0.6086033333333334    0.1162100000000000 H
   0.7927920000000002    0.3614366666666666    0.1801800000000000 H
   0.7121740000000001    0.4739400000000000    0.1176200000000000 H
   0.6997720000000001    0.3933033333333333    0.0491000000000000 H
   0.7073700000000001    0.6144700000000000    0.0173800000000000 H
   0.7334560000000001    0.5605200000000000    0.0523400000000000 H
   0.7704940000000001    0.6641566666666666    0.9810100000000000 H
   0.8723700000000001    0.6080766666666666    0.1454500000000000 H
   0.8732200000000000    0.3393133333333333    0.1902300000000000 H
   0.8842420000000001    0.4443866666666667    0.3837100000000000 H
   0.8932640000000001    0.5297200000000000    0.3198400000000000 H
   0.8124380000000000    0.6424166666666666    0.3826400000000000 H
   0.8004420000000001    0.5627000000000000    0.4511000000000000 H
   0.8082740000000000    0.4510900000000000    0.4825300000000000 H
   0.8338260000000001    0.3966866666666666    0.4469200000000000 H
   0.8715680000000000    0.4992566666666666    0.5194000000000000 H
   0.9653780000000001    0.4543366666666666    0.8545000000000000 H
   0.8039300000000000    0.4553900000000000    0.8097800000000001 H
   0.8658560000000001    0.4728066666666667    0.6163100000000000 H
   0.9171100000000001    0.4875366666666666    0.6805800000000000 H
   0.9852220000000000    0.3544200000000000    0.6166100000000000 H
   0.9373140000000001    0.3347600000000000    0.5477400000000000 H
   0.8700800000000001    0.3475233333333333    0.5161900000000000 H
   0.8374480000000001    0.3901133333333333    0.5517700000000000 H
   0.8993320000000000    0.4530400000000000    0.4804400000000000 H
   0.8653620000000001    0.6203566666666667    0.6454200000000000 H
   0.9039220000000001    0.6217966666666666    0.6902199999999999 H
   0.9659500000000001    0.6402733333333332    0.8838900000000000 H
   0.8176460000000001    0.6559566666666666    0.8203200000000000 H
   0.8846900000000001    0.5203133333333333    0.8819800000000000 H
   0.8363360000000001    0.4995966666666666    0.9500900000000000 H
   0.9691580000000001    0.5123933333333333    0.9814500000000000 H
   0.9367900000000000    0.5557933333333334    0.9464000000000000 H
   0.9985080000000001    0.6175033333333333    0.0190300000000000 H
   0.9724920000000000    0.4429600000000000    0.3546300000000000 H
   0.9731380000000001    0.5068766666666666    0.3099000000000000 H
   0.9834000000000001    0.6086033333333334    0.1162100000000000 H
   0.9927920000000001    0.3614366666666666    0.1801800000000000 H
   0.9121740000000000    0.4739400000000000    0.1176200000000000 H
   0.8997720000000000    0.3933033333333333    0.0491000000000000 H
   0.9073700000000000    0.6144700000000000    0.0173800000000000 H
   0.9334560000000001    0.5605200000000000    0.0523400000000000 H
   0.9704940000000001    0.6641566666666666    0.9810100000000000 H
   0.0723700000000000    0.9414100000000000    0.1454500000000000 H
   0.0732200000000000    0.6726466666666666    0.1902300000000000 H
   0.0842420000000000    0.7777200000000000    0.3837100000000000 H
   0.0932640000000000    0.8630533333333332    0.3198400000000000 H
   0.0124380000000000    0.9757499999999999    0.3826400000000000 H
   0.0004420000000000    0.8960333333333332    0.4511000000000000 H
   0.0082740000000000    0.7844233333333333    0.4825300000000000 H
   0.0338260000000000    0.7300200000000000    0.4469200000000000 H
   0.0715680000000000    0.8325899999999999    0.5194000000000000 H
   0.1653780000000000    0.7876700000000000    0.8545000000000000 H
   0.0039300000000000    0.7887233333333333    0.8097800000000001 H
   0.0658560000000000    0.8061400000000000    0.6163100000000000 H
   0.1171100000000000    0.8208700000000000    0.6805800000000000 H
   0.1852220000000000    0.6877533333333333    0.6166100000000000 H
   0.1373140000000000    0.6680933333333333    0.5477400000000000 H
   0.0700800000000000    0.6808566666666667    0.5161900000000000 H
   0.0374480000000000    0.7234466666666666    0.5517700000000000 H
   0.0993320000000000    0.7863733333333333    0.4804400000000000 H
   0.0653620000000000    0.9536899999999999    0.6454200000000000 H
   0.1039220000000000    0.9551299999999999    0.6902199999999999 H
   0.1659500000000000    0.9736066666666666    0.8838900000000000 H
   0.0176460000000000    0.9892900000000000    0.8203200000000000 H
   0.0846900000000000    0.8536466666666667    0.8819800000000000 H
   0.0363360000000000    0.8329299999999999    0.9500900000000000 H
   0.1691580000000000    0.8457266666666666    0.9814500000000000 H
   0.1367900000000000    0.8891266666666666    0.9464000000000000 H
   0.1985080000000000    0.9508366666666666    0.0190300000000000 H
   0.1724920000000000    0.7762933333333333    0.3546300000000000 H
   0.1731380000000000    0.8402099999999999    0.3099000000000000 H
   0.1834000000000000    0.9419366666666666    0.1162100000000000 H