Cd48 H122 C160 N288 O48
1.0
  27.7700974615718152    0.0000000000000000   10.4422976027693686
   4.6244508527886250   13.1492988885270954    1.7370563060311630
   0.0000000000000000    0.0000000000000000   28.0954000000000015
Cd H C N O
48 122 160 288 48
direct
   0.1327833333333333    0.4112400000000000    0.0776100000000000 Cd
   0.2300866666666667    0.4112500000000000    0.9224550000000000 Cd
   0.9882733333333333    0.5887400000000000    0.9224200000000000 Cd
   0.7994500000000000    0.4112400000000000    0.0776100000000000 Cd
   0.8967533333333333    0.4112500000000000    0.9224550000000000 Cd
   0.9821366666666667    0.5887700000000000    0.0776100000000000 Cd
   0.6549400000000000    0.5887400000000000    0.9224200000000000 Cd
   0.4661166666666666    0.4112400000000000    0.0776100000000000 Cd
   0.5634200000000000    0.4112500000000000    0.9224550000000000 Cd
   0.6488033333333333    0.5887700000000000    0.0776100000000000 Cd
   0.3216066666666667    0.5887400000000000    0.9224200000000000 Cd
   0.3154700000000000    0.5887700000000000    0.0776100000000000 Cd
   0.9661066666666667    0.1552300000000000    0.2056200000000000 Cd
   0.1549366666666667    0.8448400000000000    0.7943650000000000 Cd
   0.0634133333333333    0.8449300000000000    0.2056150000000000 Cd
   0.1487866666666667    0.1552400000000000    0.7943800000000000 Cd
   0.2994400000000000    0.1552300000000000    0.2056200000000000 Cd
   0.4882700000000000    0.8448400000000000    0.7943650000000000 Cd
   0.3967466666666666    0.8449300000000000    0.2056150000000000 Cd
   0.4821200000000000    0.1552400000000000    0.7943800000000000 Cd
   0.6327733333333333    0.1552300000000000    0.2056200000000000 Cd
   0.8216033333333332    0.8448400000000000    0.7943650000000000 Cd
   0.7300800000000000    0.8449300000000000    0.2056150000000000 Cd
   0.8154533333333333    0.1552400000000000    0.7943800000000000 Cd
   0.9882733333333333    0.5887400000000000    0.4224200000000000 Cd
   0.7994500000000000    0.4112400000000000    0.5776100000000000 Cd
   0.8967533333333333    0.4112500000000000    0.4224550000000000 Cd
   0.9821366666666667    0.5887700000000000    0.5776100000000000 Cd
   0.6549400000000000    0.5887400000000000    0.4224200000000000 Cd
   0.4661166666666666    0.4112400000000000    0.5776100000000000 Cd
   0.5634200000000000    0.4112500000000000    0.4224550000000000 Cd
   0.6488033333333333    0.5887700000000000    0.5776100000000000 Cd
   0.3216066666666667    0.5887400000000000    0.4224200000000000 Cd
   0.1327833333333333    0.4112400000000000    0.5776100000000000 Cd
   0.2300866666666667    0.4112500000000000    0.4224550000000000 Cd
   0.3154700000000000    0.5887700000000000    0.5776100000000000 Cd
   0.9661066666666667    0.1552300000000000    0.7056200000000000 Cd
   0.1549366666666667    0.8448400000000000    0.2943650000000000 Cd
   0.0634133333333333    0.8449300000000000    0.7056150000000000 Cd
   0.1487866666666667    0.1552400000000000    0.2943800000000000 Cd
   0.2994400000000000    0.1552300000000000    0.7056200000000000 Cd
   0.4882700000000000    0.8448400000000000    0.2943650000000000 Cd
   0.3967466666666666    0.8449300000000000    0.7056150000000000 Cd
   0.4821200000000000    0.1552400000000000    0.2943800000000000 Cd
   0.6327733333333333    0.1552300000000000    0.7056200000000000 Cd
   0.8216033333333332    0.8448400000000000    0.2943650000000000 Cd
   0.7300800000000000    0.8449300000000000    0.7056150000000000 Cd
   0.8154533333333333    0.1552400000000000    0.2943800000000000 Cd
   0.1570052130021129    0.2248377309811448    0.0646107262753552 H
   0.2683257363855961    0.2248901860613909    0.9354983228512610 H
   0.2150651053960301    0.2106129983331669    1.0000426349768472 H
   0.9301599999999999    0.0953500000000000    0.9184150000000000 H
   0.9585166666666667    0.9045900000000000    0.9183650000000000 H
   0.8715400000000000    0.0953200000000000    0.0816400000000000 H
   0.9068566666666666    0.9045700000000000    0.0816350000000000 H
   0.5968266666666666    0.0953500000000000    0.9184150000000000 H
   0.6251833333333333    0.9045900000000000    0.9183650000000000 H
   0.5382066666666667    0.0953200000000000    0.0816400000000000 H
   0.5735233333333334    0.9045700000000000    0.0816350000000000 H
   0.2748620574935482    0.7751146415722334    0.9355020274656773 H
   0.3004277904969759    0.7751007551594795    0.0644615395919319 H
   0.2852787045270712    0.7893874082734996    0.9999845857895491 H
   0.0382266666666667    0.1632900000000000    0.0476600000000000 H
   0.0735633333333333    0.1632900000000000    0.9522900000000001 H
   0.0966733333333333    0.8368300000000000    0.0476650000000000 H
   0.1250433333333333    0.8367500000000000    0.9522850000000000 H
   0.3715600000000000    0.1632900000000000    0.0476600000000000 H
   0.4068966666666666    0.1632900000000000    0.9522900000000001 H
   0.4300066666666666    0.8368300000000000    0.0476650000000000 H
   0.4583766666666667    0.8367500000000000    0.9522850000000000 H
   0.7048933333333333    0.1632900000000000    0.0476600000000000 H
   0.7402299999999999    0.1632900000000000    0.9522900000000001 H
   0.7633399999999999    0.8368300000000000    0.0476650000000000 H
   0.7917099999999999    0.8367500000000000    0.9522850000000000 H
   0.2694700000000000    0.3893200000000000    0.6436250000000000 H
   0.2119500000000000    0.5003800000000000    0.6137850000000000 H
   0.1347700000000000    0.6109000000000000    0.6435550000000000 H
   0.1027933333333333    0.2872200000000000    0.6946600000000001 H
   0.0452800000000000    0.2275600000000000    0.7501949999999999 H
   0.9681200000000000    0.2871000000000000    0.8054450000000000 H
   0.7674633333333333    0.3890700000000000    0.8565800000000000 H
   0.7878833333333333    0.5004200000000000    0.8862749999999999 H
   0.8281033333333333    0.6109900000000000    0.8565800000000000 H
   0.9341233333333333    0.7131200000000000    0.6945399999999999 H
   0.9545333333333332    0.7725500000000000    0.7502100000000000 H
   0.9947666666666666    0.7131500000000000    0.8054950000000001 H
   0.6028033333333334    0.3893200000000000    0.6436250000000000 H
   0.5452833333333333    0.5003800000000000    0.6137850000000000 H
   0.4681033333333333    0.6109000000000000    0.6435550000000000 H
   0.4361266666666667    0.2872200000000000    0.6946600000000001 H
   0.3786133333333333    0.2275600000000000    0.7501949999999999 H
   0.3014533333333334    0.2871000000000000    0.8054450000000000 H
   0.1007966666666667    0.3890700000000000    0.8565800000000000 H
   0.1212166666666667    0.5004200000000000    0.8862749999999999 H
   0.1614366666666667    0.6109900000000000    0.8565800000000000 H
   0.2674566666666667    0.7131200000000000    0.6945399999999999 H
   0.2878666666666667    0.7725500000000000    0.7502100000000000 H
   0.3280999999999999    0.7131500000000000    0.8054950000000001 H
   0.9361366666666666    0.3893200000000000    0.6436250000000000 H
   0.8786166666666666    0.5003800000000000    0.6137850000000000 H
   0.8014366666666666    0.6109000000000000    0.6435550000000000 H
   0.7694599999999999    0.2872200000000000    0.6946600000000001 H
   0.7119466666666666    0.2275600000000000    0.7501949999999999 H
   0.6347866666666666    0.2871000000000000    0.8054450000000000 H
   0.4341300000000000    0.3890700000000000    0.8565800000000000 H
   0.4545500000000000    0.5004200000000000    0.8862749999999999 H
   0.4947700000000000    0.6109900000000000    0.8565800000000000 H
   0.6007899999999999    0.7131200000000000    0.6945399999999999 H
   0.6212000000000000    0.7725500000000000    0.7502100000000000 H
   0.6614333333333333    0.7131500000000000    0.8054950000000001 H
   0.9301599999999999    0.0953500000000000    0.4184150000000000 H
   0.9585166666666667    0.9045900000000000    0.4183650000000000 H
   0.8715400000000000    0.0953200000000000    0.5816400000000000 H
   0.9068566666666666    0.9045700000000000    0.5816350000000000 H
   0.5968266666666666    0.0953500000000000    0.4184150000000000 H
   0.6251833333333333    0.9045900000000000    0.4183650000000000 H
   0.5382066666666667    0.0953200000000000    0.5816400000000000 H
   0.5735233333333334    0.9045700000000000    0.5816350000000000 H
   0.2634933333333333    0.0953500000000000    0.4184150000000000 H
   0.2918500000000000    0.9045900000000000    0.4183650000000000 H
   0.2048733333333334    0.0953200000000000    0.5816400000000000 H
   0.2401900000000000    0.9045700000000000    0.5816350000000000 H
   0.0382266666666667    0.1632900000000000    0.5476600000000000 H
   0.0735633333333333    0.1632900000000000    0.4522900000000000 H
   0.0966733333333333    0.8368300000000000    0.5476650000000000 H
   0.1250433333333333    0.8367500000000000    0.4522850000000000 H
   0.3715600000000000    0.1632900000000000    0.5476600000000000 H
   0.4068966666666666    0.1632900000000000    0.4522900000000000 H
   0.4300066666666666    0.8368300000000000    0.5476650000000000 H
   0.4583766666666667    0.8367500000000000    0.4522850000000000 H
   0.7048933333333333    0.1632900000000000    0.5476600000000000 H
   0.7402299999999999    0.1632900000000000    0.4522900000000000 H
   0.7633399999999999    0.8368300000000000    0.5476650000000000 H
   0.7917099999999999    0.8367500000000000    0.4522850000000000 H
   0.2694700000000000    0.3893200000000000    0.1436250000000000 H
   0.2119500000000000    0.5003800000000000    0.1137850000000000 H
   0.1347700000000000    0.6109000000000000    0.1435550000000000 H
   0.1027933333333333    0.2872200000000000    0.1946600000000000 H
   0.0452800000000000    0.2275600000000000    0.2501950000000000 H
   0.9681200000000000    0.2871000000000000    0.3054450000000000 H
   0.7674633333333333    0.3890700000000000    0.3565800000000000 H
   0.7878833333333333    0.5004200000000000    0.3862750000000000 H
   0.8281033333333333    0.6109900000000000    0.3565800000000000 H
   0.9341233333333333    0.7131200000000000    0.1945400000000000 H
   0.9545333333333332    0.7725500000000000    0.2502100000000000 H
   0.9947666666666666    0.7131500000000000    0.3054950000000000 H
   0.6028033333333334    0.3893200000000000    0.1436250000000000 H
   0.5452833333333333    0.5003800000000000    0.1137850000000000 H
   0.4681033333333333    0.6109000000000000    0.1435550000000000 H
   0.4361266666666667    0.2872200000000000    0.1946600000000000 H
   0.3786133333333333    0.2275600000000000    0.2501950000000000 H
   0.3014533333333334    0.2871000000000000    0.3054450000000000 H
   0.1007966666666667    0.3890700000000000    0.3565800000000000 H
   0.1212166666666667    0.5004200000000000    0.3862750000000000 H
   0.1614366666666667    0.6109900000000000    0.3565800000000000 H
   0.2674566666666667    0.7131200000000000    0.1945400000000000 H
   0.2878666666666667    0.7725500000000000    0.2502100000000000 H
   0.3280999999999999    0.7131500000000000    0.3054950000000000 H
   0.9361366666666666    0.3893200000000000    0.1436250000000000 H
   0.8786166666666666    0.5003800000000000    0.1137850000000000 H
   0.8014366666666666    0.6109000000000000    0.1435550000000000 H
   0.7694599999999999    0.2872200000000000    0.1946600000000000 H
   0.7119466666666666    0.2275600000000000    0.2501950000000000 H
   0.6347866666666666    0.2871000000000000    0.3054450000000000 H
   0.4341300000000000    0.3890700000000000    0.3565800000000000 H
   0.4545500000000000    0.5004200000000000    0.3862750000000000 H
   0.4947700000000000    0.6109900000000000    0.3565800000000000 H
   0.6007899999999999    0.7131200000000000    0.1945400000000000 H
   0.6212000000000000    0.7725500000000000    0.2502100000000000 H
   0.6614333333333333    0.7131500000000000    0.3054950000000000 H
   0.8800699999999999    0.2201600000000000    0.0000350000000000 C
   0.9535066666666666    0.7797700000000000    0.0000000000000000 C
   0.9242266666666666    0.0528000000000000    0.9539150000000001 C
   0.9404699999999999    0.9471200000000000    0.9538900000000000 C
   0.8917033333333333    0.0527900000000000    0.0461300000000000 C
   0.9107066666666666    0.9471100000000000    0.0461200000000000 C
   0.9345333333333332    0.8937000000000000    0.0000000000000000 C
   0.8990300000000000    0.1062300000000000    0.0000300000000000 C
   0.5467366666666666    0.2201600000000000    0.0000350000000000 C
   0.6201733333333332    0.7797700000000000    0.0000000000000000 C
   0.5908933333333333    0.0528000000000000    0.9539150000000001 C
   0.6071366666666667    0.9471200000000000    0.9538900000000000 C
   0.5583700000000000    0.0527900000000000    0.0461300000000000 C
   0.5773733333333333    0.9471100000000000    0.0461200000000000 C
   0.6012000000000000    0.8937000000000000    0.0000000000000000 C
   0.5656966666666666    0.1062300000000000    0.0000300000000000 C
   0.0466666666666667    0.0000700000000000    0.1100750000000000 C
   0.1201466666666667    0.0000200000000000    0.8898750000000000 C
   0.0583533333333333    0.0922700000000000    0.0263950000000000 C
   0.0773733333333333    0.0922600000000000    0.9735600000000000 C
   0.0907833333333333    0.9078300000000000    0.0263900000000000 C
   0.1070333333333333    0.9078000000000001    0.9735549999999999 C
   0.1011533333333333    0.0000200000000000    0.9468449999999999 C
   0.0656366666666667    0.0000500000000000    0.0531050000000000 C
   0.3800000000000000    0.0000700000000000    0.1100750000000000 C
   0.4534800000000000    0.0000200000000000    0.8898750000000000 C
   0.3916866666666666    0.0922700000000000    0.0263950000000000 C
   0.4107066666666667    0.0922600000000000    0.9735600000000000 C
   0.4241166666666666    0.9078300000000000    0.0263900000000000 C
   0.4403666666666666    0.9078000000000001    0.9735549999999999 C
   0.4344866666666666    0.0000200000000000    0.9468449999999999 C
   0.3989700000000000    0.0000500000000000    0.0531050000000000 C
   0.7133333333333333    0.0000700000000000    0.1100750000000000 C
   0.7868133333333333    0.0000200000000000    0.8898750000000000 C
   0.7250200000000000    0.0922700000000000    0.0263950000000000 C
   0.7440399999999999    0.0922600000000000    0.9735600000000000 C
   0.7574500000000000    0.9078300000000000    0.0263900000000000 C
   0.7736999999999999    0.9078000000000001    0.9735549999999999 C
   0.7678199999999999    0.0000200000000000    0.9468449999999999 C
   0.7323033333333333    0.0000500000000000    0.0531050000000000 C
   0.3082033333333333    0.3733100000000000    0.6427700000000001 C
   0.2256866666666666    0.5002100000000000    0.5727200000000000 C
   0.0966000000000000    0.6268200000000000    0.6427350000000001 C
   0.1415233333333333    0.2855400000000000    0.6866600000000000 C
   0.0590166666666667    0.1454400000000000    0.7501050000000000 C
   0.9299466666666666    0.2854700000000000    0.8134100000000000 C
   0.7340433333333333    0.3732000000000000    0.8573700000000000 C
   0.7742066666666666    0.5001400000000000    0.9273400000000001 C
   0.8610099999999999    0.6268200000000000    0.8573550000000000 C
   0.9007066666666665    0.7147200000000000    0.6866000000000000 C
   0.9408633333333333    0.8546700000000000    0.7500750000000000 C
   0.0276733333333333    0.7147000000000000    0.8134049999999999 C
   0.6415366666666666    0.3733100000000000    0.6427700000000001 C
   0.5590200000000000    0.5002100000000000    0.5727200000000000 C
   0.4299333333333333    0.6268200000000000    0.6427350000000001 C
   0.4748566666666666    0.2855400000000000    0.6866600000000000 C
   0.3923500000000000    0.1454400000000000    0.7501050000000000 C
   0.2632800000000000    0.2854700000000000    0.8134100000000000 C
   0.0673766666666667    0.3732000000000000    0.8573700000000000 C
   0.1075400000000000    0.5001400000000000    0.9273400000000001 C
   0.1943433333333333    0.6268200000000000    0.8573550000000000 C
   0.2340400000000000    0.7147200000000000    0.6866000000000000 C
   0.2741966666666666    0.8546700000000000    0.7500750000000000 C
   0.3610066666666666    0.7147000000000000    0.8134049999999999 C
   0.9748699999999999    0.3733100000000000    0.6427700000000001 C
   0.8923533333333333    0.5002100000000000    0.5727200000000000 C
   0.7632666666666666    0.6268200000000000    0.6427350000000001 C
   0.8081900000000000    0.2855400000000000    0.6866600000000000 C
   0.7256833333333333    0.1454400000000000    0.7501050000000000 C
   0.5966133333333332    0.2854700000000000    0.8134100000000000 C
   0.4007100000000000    0.3732000000000000    0.8573700000000000 C
   0.4408733333333333    0.5001400000000000    0.9273400000000001 C
   0.5276766666666667    0.6268200000000000    0.8573550000000000 C
   0.5673733333333333    0.7147200000000000    0.6866000000000000 C
   0.6075299999999999    0.8546700000000000    0.7500750000000000 C
   0.6943400000000000    0.7147000000000000    0.8134049999999999 C
   0.8800699999999999    0.2201600000000000    0.5000350000000000 C
   0.9535066666666666    0.7797700000000000    0.5000000000000000 C
   0.9242266666666666    0.0528000000000000    0.4539150000000000 C
   0.9404699999999999    0.9471200000000000    0.4538900000000000 C
   0.8917033333333333    0.0527900000000000    0.5461300000000000 C
   0.9107066666666666    0.9471100000000000    0.5461200000000000 C
   0.9345333333333332    0.8937000000000000    0.5000000000000000 C
   0.8990300000000000    0.1062300000000000    0.5000300000000000 C
   0.5467366666666666    0.2201600000000000    0.5000350000000000 C
   0.6201733333333332    0.7797700000000000    0.5000000000000000 C
   0.5908933333333333    0.0528000000000000    0.4539150000000000 C
   0.6071366666666667    0.9471200000000000    0.4538900000000000 C
   0.5583700000000000    0.0527900000000000    0.5461300000000000 C
   0.5773733333333333    0.9471100000000000    0.5461200000000000 C
   0.6012000000000000    0.8937000000000000    0.5000000000000000 C
   0.5656966666666666    0.1062300000000000    0.5000300000000000 C
   0.2134033333333333    0.2201600000000000    0.5000350000000000 C
   0.2868400000000000    0.7797700000000000    0.5000000000000000 C
   0.2575600000000000    0.0528000000000000    0.4539150000000000 C
   0.2738033333333333    0.9471200000000000    0.4538900000000000 C
   0.2250366666666667    0.0527900000000000    0.5461300000000000 C
   0.2440400000000000    0.9471100000000000    0.5461200000000000 C
   0.2678666666666666    0.8937000000000000    0.5000000000000000 C
   0.2323633333333333    0.1062300000000000    0.5000300000000000 C
   0.0466666666666667    0.0000700000000000    0.6100750000000000 C
   0.1201466666666667    0.0000200000000000    0.3898750000000000 C
   0.0583533333333333    0.0922700000000000    0.5263949999999999 C
   0.0773733333333333    0.0922600000000000    0.4735600000000000 C
   0.0907833333333333    0.9078300000000000    0.5263900000000000 C
   0.1070333333333333    0.9078000000000001    0.4735550000000000 C
   0.1011533333333333    0.0000200000000000    0.4468450000000000 C
   0.0656366666666667    0.0000500000000000    0.5531050000000000 C
   0.3800000000000000    0.0000700000000000    0.6100750000000000 C
   0.4534800000000000    0.0000200000000000    0.3898750000000000 C
   0.3916866666666666    0.0922700000000000    0.5263949999999999 C
   0.4107066666666667    0.0922600000000000    0.4735600000000000 C
   0.4241166666666666    0.9078300000000000    0.5263900000000000 C
   0.4403666666666666    0.9078000000000001    0.4735550000000000 C
   0.4344866666666666    0.0000200000000000    0.4468450000000000 C
   0.3989700000000000    0.0000500000000000    0.5531050000000000 C
   0.7133333333333333    0.0000700000000000    0.6100750000000000 C
   0.7868133333333333    0.0000200000000000    0.3898750000000000 C
   0.7250200000000000    0.0922700000000000    0.5263949999999999 C
   0.7440399999999999    0.0922600000000000    0.4735600000000000 C
   0.7574500000000000    0.9078300000000000    0.5263900000000000 C
   0.7736999999999999    0.9078000000000001    0.4735550000000000 C
   0.7678199999999999    0.0000200000000000    0.4468450000000000 C
   0.7323033333333333    0.0000500000000000    0.5531050000000000 C
   0.3082033333333333    0.3733100000000000    0.1427700000000000 C
   0.2256866666666666    0.5002100000000000    0.0727200000000000 C
   0.0966000000000000    0.6268200000000000    0.1427350000000000 C
   0.1415233333333333    0.2855400000000000    0.1866600000000000 C
   0.0590166666666667    0.1454400000000000    0.2501050000000000 C
   0.9299466666666666    0.2854700000000000    0.3134100000000000 C
   0.7340433333333333    0.3732000000000000    0.3573700000000000 C
   0.7742066666666666    0.5001400000000000    0.4273400000000000 C
   0.8610099999999999    0.6268200000000000    0.3573550000000000 C
   0.9007066666666665    0.7147200000000000    0.1866000000000000 C
   0.9408633333333333    0.8546700000000000    0.2500750000000000 C
   0.0276733333333333    0.7147000000000000    0.3134050000000000 C
   0.6415366666666666    0.3733100000000000    0.1427700000000000 C
   0.5590200000000000    0.5002100000000000    0.0727200000000000 C
   0.4299333333333333    0.6268200000000000    0.1427350000000000 C
   0.4748566666666666    0.2855400000000000    0.1866600000000000 C
   0.3923500000000000    0.1454400000000000    0.2501050000000000 C
   0.2632800000000000    0.2854700000000000    0.3134100000000000 C
   0.0673766666666667    0.3732000000000000    0.3573700000000000 C
   0.1075400000000000    0.5001400000000000    0.4273400000000000 C
   0.1943433333333333    0.6268200000000000    0.3573550000000000 C
   0.2340400000000000    0.7147200000000000    0.1866000000000000 C
   0.2741966666666666    0.8546700000000000    0.2500750000000000 C
   0.3610066666666666    0.7147000000000000    0.3134050000000000 C
   0.9748699999999999    0.3733100000000000    0.1427700000000000 C
   0.8923533333333333    0.5002100000000000    0.0727200000000000 C
   0.7632666666666666    0.6268200000000000    0.1427350000000000 C
   0.8081900000000000    0.2855400000000000    0.1866600000000000 C
   0.7256833333333333    0.1454400000000000    0.2501050000000000 C
   0.5966133333333332    0.2854700000000000    0.3134100000000000 C
   0.4007100000000000    0.3732000000000000    0.3573700000000000 C
   0.4408733333333333    0.5001400000000000    0.4273400000000000 C
   0.5276766666666667    0.6268200000000000    0.3573550000000000 C
   0.5673733333333333    0.7147200000000000    0.1866000000000000 C
   0.6075299999999999    0.8546700000000000    0.2500750000000000 C
   0.6943400000000000    0.7147000000000000    0.3134050000000000 C
   0.3843566666666667    0.3748100000000000    0.6243950000000000 N
   0.3802633333333333    0.2958400000000000    0.6544150000000000 N
   0.3391966666666666    0.4254000000000000    0.6164650000000000 N
   0.3321600000000000    0.2936800000000000    0.6666900000000000 N
   0.2692666666666667    0.5179500000000000    0.4956650000000000 N
   0.2336533333333333    0.4819600000000000    0.4956600000000000 N
   0.2649766666666666    0.5302100000000000    0.5440500000000000 N
   0.2055800000000000    0.4700100000000000    0.5440400000000000 N
   0.0326866666666667    0.6252200000000000    0.6244149999999999 N
   0.0167400000000000    0.7041400000000000    0.6544850000000000 N
   0.0831466666666667    0.5747200000000000    0.6164250000000000 N
   0.0566766666666667    0.7063700000000001    0.6667149999999999 N
   0.2176700000000000    0.2488300000000000    0.6874150000000000 N
   0.2135766666666667    0.3089100000000000    0.6479450000000000 N
   0.1725066666666666    0.2329300000000000    0.7127000000000000 N
   0.1654800000000000    0.3334300000000000    0.6468550000000000 N
   0.0670033333333333    0.9913000000000000    0.7409500000000000 N
   0.1026000000000000    0.9913300000000000    0.7589550000000000 N
   0.0389233333333333    0.0880700000000000    0.7349900000000000 N
   0.0983000000000000    0.0881100000000000    0.7651049999999999 N
   0.8660133333333333    0.2488600000000000    0.8126000000000000 N
   0.8500766666666666    0.3090000000000000    0.8520650000000001 N
   0.9164899999999999    0.2328600000000000    0.7873550000000000 N
   0.8900199999999999    0.3334400000000000    0.8531850000000001 N
   0.6573533333333332    0.3749300000000000    0.8756550000000001 N
   0.6877366666666667    0.2960000000000000    0.8455850000000000 N
   0.6857033333333333    0.4253300000000000    0.8836700000000000 N
   0.7365800000000000    0.2937000000000000    0.8333333333333333 N
   0.7723166666666667    0.4817700000000000    0.0044000000000000 N
   0.7247166666666667    0.5176700000000000    0.0043900000000000 N
   0.7249233333333333    0.5300100000000000    0.9560100000000000 N
   0.8043699999999999    0.4699500000000000    0.9560150000000001 N
   0.9255133333333333    0.6250900000000000    0.8756050000000000 N
   0.9151933333333333    0.7039600000000000    0.8454999999999999 N
   0.8917999999999999    0.5747200000000000    0.8836600000000000 N
   0.8744933333333333    0.7062500000000000    0.8333333333333333 N
   0.8240233333333333    0.7513300000000001    0.6874500000000000 N
   0.8544066666666666    0.6911900000000000    0.6479850000000000 N
   0.8523666666666666    0.7673400000000000    0.7126600000000000 N
   0.9032466666666666    0.6666666666666666    0.6468450000000000 N
   0.8913700000000000    0.0087900000000000    0.7588450000000000 N
   0.9389733333333332    0.0088100000000000    0.7409050000000000 N
   0.9710299999999999    0.9120400000000000    0.7349900000000000 N
   0.8915799999999999    0.9120000000000000    0.7650049999999999 N
   0.0921866666666667    0.7512200000000000    0.8125400000000000 N
   0.0818600000000000    0.6909999999999999    0.8519650000000000 N
   0.0584766666666667    0.7673400000000000    0.7873600000000001 N
   0.0411533333333333    0.6666666666666666    0.8531150000000001 N
   0.7176899999999999    0.3748100000000000    0.6243950000000000 N
   0.7135966666666667    0.2958400000000000    0.6544150000000000 N
   0.6725300000000000    0.4254000000000000    0.6164650000000000 N
   0.6654933333333333    0.2936800000000000    0.6666900000000000 N
   0.6026000000000000    0.5179500000000000    0.4956650000000000 N
   0.5669866666666666    0.4819600000000000    0.4956600000000000 N
   0.5983099999999999    0.5302100000000000    0.5440500000000000 N
   0.5389133333333334    0.4700100000000000    0.5440400000000000 N
   0.3660200000000000    0.6252200000000000    0.6244149999999999 N
   0.3500733333333333    0.7041400000000000    0.6544850000000000 N
   0.4164800000000000    0.5747200000000000    0.6164250000000000 N
   0.3900100000000000    0.7063700000000001    0.6667149999999999 N
   0.5510033333333333    0.2488300000000000    0.6874150000000000 N
   0.5469100000000000    0.3089100000000000    0.6479450000000000 N
   0.5058400000000000    0.2329300000000000    0.7127000000000000 N
   0.4988133333333333    0.3334300000000000    0.6468550000000000 N
   0.4003366666666667    0.9913000000000000    0.7409500000000000 N
   0.4359333333333333    0.9913300000000000    0.7589550000000000 N
   0.3722566666666666    0.0880700000000000    0.7349900000000000 N
   0.4316333333333333    0.0881100000000000    0.7651049999999999 N
   0.1993466666666667    0.2488600000000000    0.8126000000000000 N
   0.1834100000000000    0.3090000000000000    0.8520650000000001 N
   0.2498233333333333    0.2328600000000000    0.7873550000000000 N
   0.2233533333333333    0.3334400000000000    0.8531850000000001 N
   0.0210700000000000    0.2960000000000000    0.8455850000000000 N
   0.9906866666666666    0.3749300000000000    0.8756550000000001 N
   0.0190366666666667    0.4253300000000000    0.8836700000000000 N
   0.0699133333333333    0.2937000000000000    0.8333333333333333 N
   0.1056500000000000    0.4817700000000000    0.0044000000000000 N
   0.0580500000000000    0.5176700000000000    0.0043900000000000 N
   0.0582566666666667    0.5300100000000000    0.9560100000000000 N
   0.1377033333333333    0.4699500000000000    0.9560150000000001 N
   0.2588466666666667    0.6250900000000000    0.8756050000000000 N
   0.2485266666666667    0.7039600000000000    0.8454999999999999 N
   0.2251333333333333    0.5747200000000000    0.8836600000000000 N
   0.2078266666666667    0.7062500000000000    0.8333333333333333 N
   0.1573566666666666    0.7513300000000001    0.6874500000000000 N
   0.1877400000000000    0.6911900000000000    0.6479850000000000 N
   0.1857000000000000    0.7673400000000000    0.7126600000000000 N
   0.2365800000000000    0.6666666666666666    0.6468450000000000 N
   0.2247033333333333    0.0087900000000000    0.7588450000000000 N
   0.2723066666666666    0.0088100000000000    0.7409050000000000 N
   0.3043633333333333    0.9120400000000000    0.7349900000000000 N
   0.2249133333333333    0.9120000000000000    0.7650049999999999 N
   0.4255200000000000    0.7512200000000000    0.8125400000000000 N
   0.4151933333333333    0.6909999999999999    0.8519650000000000 N
   0.3918100000000000    0.7673400000000000    0.7873600000000001 N
   0.3744866666666666    0.6666666666666666    0.8531150000000001 N
   0.0510233333333333    0.3748100000000000    0.6243950000000000 N
   0.0469300000000000    0.2958400000000000    0.6544150000000000 N
   0.0058633333333333    0.4254000000000000    0.6164650000000000 N
   0.9988266666666666    0.2936800000000000    0.6666900000000000 N
   0.9359333333333333    0.5179500000000000    0.4956650000000000 N
   0.9003200000000000    0.4819600000000000    0.4956600000000000 N
   0.9316433333333333    0.5302100000000000    0.5440500000000000 N
   0.8722466666666666    0.4700100000000000    0.5440400000000000 N
   0.6993533333333333    0.6252200000000000    0.6244149999999999 N
   0.6834066666666666    0.7041400000000000    0.6544850000000000 N