Zn24 H102 C210 O96
1.0
  18.5604038277832828    0.0000000000000000    6.0385208246397317
   4.4125359453006192   18.0684821057834739    6.0250379189190459
   0.0000000000000000    0.0000000000000000   39.0840000000000032
Zn H C O
24 102 210 96
direct
   0.1448500000000000    0.3744300000000000    0.3564450000000000 Zn
   0.7122400000000000    0.1424300000000000    0.1885850000000000 Zn
   0.3765700000000000    0.7148300000000000    0.0717950000000000 Zn
   0.4818800000000000    0.8170400000000000    0.5246999999999999 Zn
   0.8160200000000000    0.0486600000000000    0.2405100000000000 Zn
   0.0496400000000000    0.4774400000000000    0.4089400000000000 Zn
   0.1448500000000000    0.3744300000000000    0.8564450000000000 Zn
   0.7122400000000000    0.1424300000000000    0.6885850000000000 Zn
   0.3765700000000000    0.7148300000000000    0.5717950000000001 Zn
   0.4818800000000000    0.8170400000000000    0.0247000000000000 Zn
   0.8160200000000000    0.0486600000000000    0.7405100000000000 Zn
   0.0496400000000000    0.4774400000000000    0.9089400000000001 Zn
   0.5482200000000000    0.3175000000000000    0.9907200000000000 Zn
   0.3164500000000000    0.9775500000000000    0.2751700000000000 Zn
   0.3164500000000000    0.9775500000000000    0.7751700000000000 Zn
   0.5482200000000000    0.3175000000000000    0.4907200000000000 Zn
   0.9813100000000000    0.5492500000000000    0.6584600000000000 Zn
   0.2117200000000000    0.8750500000000000    0.3221750000000000 Zn
   0.6431500000000000    0.2147600000000000    0.4381750000000000 Zn
   0.8768899999999999    0.6431600000000000    0.6065000000000000 Zn
   0.9813100000000000    0.5492500000000000    0.1584600000000000 Zn
   0.2117200000000000    0.8750500000000000    0.8221750000000000 Zn
   0.6431500000000000    0.2147600000000000    0.9381750000000000 Zn
   0.8768899999999999    0.6431600000000000    0.1065000000000000 Zn
  -0.0163058795876373    0.5315503330827591    0.9787290335146178 H
   0.1093345842887708    0.3492134483842412    0.9661324144389554 H
   0.0461370276430134    0.4357842636420812    0.9802836170493433 H
   0.5348520648961060    0.9568536882438784   -0.0075591609123040 H
   0.3521936594927408    0.9308089511519809    0.0546259397290559 H
   0.4386759822808861    0.9595478669643847    0.0234187826494772 H
   0.9563556922068005   -0.0165811909554223    0.2667086326873297 H
   0.9297998728629359    0.1088705694141476    0.1758347371506587 H
   0.9587855899601502    0.0459241534980489    0.2188246166852290 H
   0.3293300000000000    0.4623500000000000    0.3154500000000000 H
   0.3786900000000000    0.6767600000000000    0.2858000000000000 H
   0.1684400000000000    0.6436800000000000    0.3568000000000000 H
   0.4631900000000000    0.6311200000000000    0.1647200000000000 H
   0.6774200000000000    0.5709600000000000    0.1902550000000000 H
   0.6457600000000000    0.7126800000000000    0.0850900000000000 H
   0.6301400000000000    0.3284700000000000    0.2317850000000000 H
   0.5718000000000000    0.3804600000000000    0.3384400000000000 H
   0.7121800000000000    0.1691500000000000    0.3228400000000000 H
   0.6328800000000000    0.4593700000000000    0.2169150000000000 H
   0.4593500000000000    0.4335100000000000    0.3162850000000000 H
   0.4334500000000000    0.6324700000000000    0.2299050000000000 H
   0.8645100000000000    0.5604000000000000    0.3652100000000000 H
   0.8139700000000000    0.6207000000000000    0.2581000000000000 H
   0.0249200000000000    0.4792900000000000    0.2739900000000000 H
   0.7300300000000000    0.8628200000000000    0.2815200000000000 H
   0.5161500000000000    0.8114400000000001    0.3111950000000000 H
   0.5474900000000000    0.0218800000000000    0.2404750000000000 H
   0.7341600000000000    0.5592800000000000    0.3799200000000000 H
   0.5609200000000000    0.7584300000000000    0.3671850000000000 H
   0.7598300000000000    0.7320900000000000    0.2804400000000000 H
   0.6215700000000000    0.5153300000000000    0.4071300000000000 H
   0.4804000000000000    0.5487300000000001    0.5123100000000000 H
   0.5637300000000000    0.7294100000000000    0.4321650000000000 H
   0.3293300000000000    0.4623500000000000    0.8154500000000000 H
   0.3786900000000000    0.6767600000000000    0.7858000000000001 H
   0.1684400000000000    0.6436800000000000    0.8568000000000000 H
   0.4631900000000000    0.6311200000000000    0.6647200000000000 H
   0.6774200000000000    0.5709600000000000    0.6902550000000001 H
   0.6457600000000000    0.7126800000000000    0.5850900000000000 H
   0.6301400000000000    0.3284700000000000    0.7317850000000000 H
   0.5718000000000000    0.3804600000000000    0.8384400000000001 H
   0.7121800000000000    0.1691500000000000    0.8228400000000000 H
   0.6328800000000000    0.4593700000000000    0.7169150000000000 H
   0.4593500000000000    0.4335100000000000    0.8162849999999999 H
   0.4334500000000000    0.6324700000000000    0.7299050000000000 H
   0.8645100000000000    0.5604000000000000    0.8652100000000000 H
   0.8139700000000000    0.6207000000000000    0.7581000000000000 H
   0.0249200000000000    0.4792900000000000    0.7739900000000000 H
   0.7300300000000000    0.8628200000000000    0.7815200000000000 H
   0.5161500000000000    0.8114400000000001    0.8111950000000000 H
   0.5474900000000000    0.0218800000000000    0.7404750000000000 H
   0.7341600000000000    0.5592800000000000    0.8799200000000000 H
   0.5609200000000000    0.7584300000000000    0.8671850000000000 H
   0.7598300000000000    0.7320900000000000    0.7804400000000000 H
   0.6215700000000000    0.5153300000000000    0.9071300000000000 H
   0.4804000000000000    0.5487300000000001    0.0123100000000000 H
   0.5637300000000000    0.7294100000000000    0.9321650000000000 H
   0.5732800297865110    0.1151966888043712    0.9681698408628781 H
   0.4303161545480212    0.2768015752151892    1.0077985075600497 H
   0.4926606058275244    0.1898744458806960    0.9902847590125655 H
   0.1127683120104569    0.9358748375010336    0.2867947077842494 H
   0.2766144592088352    1.0121568200297666    0.2159908007586473 H
   0.1886270309725157    0.9786562867200237    0.2468066124615182 H
   0.2296900000000000    0.0609600000000000    0.6823049999999999 H
   0.0154500000000000    0.1208800000000000    0.6568200000000000 H
   0.0472200000000000    0.9793400000000000    0.7620000000000000 H
   0.1211300000000000    0.3115800000000000    0.5085900000000000 H
   0.9806600000000000    0.5228100000000000    0.5242900000000000 H
   0.0627900000000000    0.3633700000000000    0.6152500000000000 H
   0.3635100000000000    0.2296000000000000    0.5316900000000000 H
   0.3143300000000000    0.0151400000000000    0.5611400000000000 H
   0.5245900000000000    0.0484500000000000    0.4902800000000000 H
   0.2594400000000000    0.0594300000000000    0.6171500000000000 H
   0.2335600000000000    0.2583800000000000    0.5307650000000000 H
   0.0600000000000000    0.2325300000000000    0.6301200000000000 H
   0.8285100000000000    0.1314500000000000    0.4818550000000000 H
   0.8792000000000000    0.0711600000000000    0.5888800000000000 H
   0.6681800000000000    0.2125000000000000    0.5731050000000000 H
   0.9630000000000000    0.8289500000000000    0.5655150000000000 H
   0.1768100000000000    0.8804700000000000    0.5358300000000000 H
   0.1456100000000000    0.6699800000000000    0.6065400000000000 H
   0.9589100000000000    0.1325700000000000    0.4671350000000000 H
   0.1321300000000000    0.9334100000000000    0.4798650000000000 H
   0.9331800000000000    0.9597300000000000    0.5665800000000000 H
   0.1295000000000000    0.9624600000000000    0.4148800000000000 H
   0.0713600000000000    0.1765400000000000    0.4399600000000000 H
   0.2127200000000000    0.1432800000000000    0.3347850000000000 H
   0.9377029327000218    0.5726072826274770    0.0571099285841728 H
   1.0155016016566774    0.4310461055697670    0.1384038912990129 H
   0.9812865425931361    0.4925534855531205    0.0946895010800416 H
   0.8285100000000000    0.1314500000000000    0.9818549999999999 H
   0.8792000000000000    0.0711600000000000    0.0888800000000000 H
   0.6681800000000000    0.2125000000000000    0.0731050000000000 H
   0.9630000000000000    0.8289500000000000    0.0655150000000000 H
   0.1768100000000000    0.8804700000000000    0.0358300000000000 H
   0.1456100000000000    0.6699800000000000    0.1065400000000000 H
   0.9589100000000000    0.1325700000000000    0.9671350000000001 H
   0.1321300000000000    0.9334100000000000    0.9798650000000000 H
   0.9331800000000000    0.9597300000000000    0.0665800000000000 H
   0.1295000000000000    0.9624600000000000    0.9148800000000000 H
   0.0713600000000000    0.1765400000000000    0.9399600000000000 H
   0.2127200000000000    0.1432800000000000    0.8347850000000000 H
   0.6448199999999999    0.2513900000000000    0.3739500000000000 C
   0.1911400000000000    0.4991800000000000    0.3572200000000000 C
   0.5013200000000000    0.7142200000000000    0.0957050000000000 C
   0.7127700000000000    0.1901700000000000    0.2508200000000000 C
   0.7483800000000000    0.6443200000000000    0.1257450000000000 C
   0.2494600000000000    0.7467800000000000    0.3227150000000000 C
   0.3144300000000000    0.5198199999999999    0.3172500000000000 C
   0.3415900000000000    0.6397100000000000    0.3001650000000000 C
   0.2228500000000000    0.6216900000000000    0.3405650000000000 C
   0.2716700000000000    0.6676900000000000    0.3212900000000000 C
   0.2442500000000000    0.5476200000000000    0.3383350000000000 C
   0.3639300000000000    0.5654500000000000    0.2979850000000000 C
   0.5208000000000000    0.6345000000000000    0.1575100000000000 C
   0.6406100000000000    0.5997600000000000    0.1715600000000000 C
   0.6233900000000000    0.6804100000000000    0.1121850000000000 C
   0.6690700000000001    0.6418300000000000    0.1367550000000000 C
   0.5491300000000000    0.6763900000000000    0.1225700000000000 C
   0.5661300000000000    0.5957800000000000    0.1824200000000000 C
   0.6339000000000000    0.3141700000000000    0.2604850000000000 C
   0.6001900000000000    0.3427900000000000    0.3201450000000000 C
   0.6800500000000000    0.2234900000000000    0.3116650000000000 C
   0.6420400000000001    0.2729900000000000    0.3340000000000000 C
   0.6755500000000000    0.2441000000000000    0.2746600000000000 C
   0.5958100000000000    0.3643300000000000    0.2830300000000000 C
   0.5782900000000000    0.4808800000000000    0.2333350000000000 C
   0.5511200000000001    0.4381500000000000    0.2682000000000000 C
   0.4808800000000000    0.4663700000000000    0.2890850000000000 C
   0.4663500000000000    0.5780000000000000    0.2406200000000000 C
   0.4379700000000000    0.5361800000000000    0.2755500000000000 C
   0.5364500000000000    0.5509800000000000    0.2192550000000000 C
   0.0029600000000000    0.4775100000000000    0.3462700000000000 C
   0.6918900000000000    0.0007600000000000    0.2400700000000000 C
   0.4804400000000000    0.6928200000000000    0.5012000000000000 C
   0.4450500000000000    0.9402700000000001    0.2744900000000000 C
   0.5477000000000000    0.4456000000000000    0.4717450000000000 C
   0.9433800000000000    0.5476200000000000    0.2227000000000000 C
   0.8791500000000000    0.5571199999999999    0.3364150000000000 C
   0.8513400000000000    0.5919100000000000    0.2765450000000000 C
   0.9704600000000000    0.5114100000000000    0.2851650000000000 C
   0.9213000000000000    0.5500200000000000    0.2623200000000000 C
   0.9493800000000000    0.5154000000000000    0.3222750000000000 C
   0.8293199999999999    0.5958599999999999    0.3137500000000000 C
   0.6724800000000000    0.8771700000000000    0.2797000000000000 C
   0.5528600000000000    0.8488800000000000    0.2968550000000000 C
   0.5698900000000000    0.9677200000000000    0.2566300000000000 C
   0.5243200000000000    0.9184900000000000    0.2758250000000000 C
   0.6440900000000001    0.9470499999999999    0.2587850000000000 C
   0.6273000000000000    0.8272500000000000    0.2989400000000000 C
   0.7126400000000001    0.6137300000000000    0.3635200000000000 C
   0.7553900000000000    0.6406600000000000    0.3285500000000000 C
   0.6153900000000000    0.7254699999999999    0.3563700000000000 C
   0.6425700000000000    0.6556500000000000    0.3777250000000000 C
   0.7270200000000000    0.7106900000000000    0.3076950000000000 C
   0.6570600000000000    0.7535400000000000    0.3212850000000000 C
   0.5931800000000000    0.5523500000000000    0.4257500000000000 C
   0.5128500000000000    0.5705500000000000    0.4851500000000000 C
   0.5509500000000001    0.5245400000000000    0.4606700000000000 C
   0.5177200000000000    0.6444400000000000    0.4745750000000000 C
   0.5597400000000000    0.6720900000000000    0.4395000000000000 C
   0.5978599999999999    0.6264700000000000    0.4146950000000000 C
   0.6448199999999999    0.2513900000000000    0.8739500000000000 C
   0.1911400000000000    0.4991800000000000    0.8572200000000000 C
   0.5013200000000000    0.7142200000000000    0.5957050000000000 C
   0.7127700000000000    0.1901700000000000    0.7508200000000000 C
   0.7483800000000000    0.6443200000000000    0.6257450000000000 C
   0.2494600000000000    0.7467800000000000    0.8227150000000000 C
   0.3144300000000000    0.5198199999999999    0.8172500000000000 C
   0.3415900000000000    0.6397100000000000    0.8001650000000000 C
   0.2228500000000000    0.6216900000000000    0.8405650000000000 C
   0.2716700000000000    0.6676900000000000    0.8212900000000001 C
   0.2442500000000000    0.5476200000000000    0.8383350000000001 C
   0.3639300000000000    0.5654500000000000    0.7979849999999999 C
   0.5208000000000000    0.6345000000000000    0.6575100000000000 C
   0.6406100000000000    0.5997600000000000    0.6715599999999999 C
   0.6233900000000000    0.6804100000000000    0.6121850000000000 C
   0.6690700000000001    0.6418300000000000    0.6367550000000000 C
   0.5491300000000000    0.6763900000000000    0.6225700000000000 C
   0.5661300000000000    0.5957800000000000    0.6824200000000000 C
   0.6339000000000000    0.3141700000000000    0.7604850000000001 C
   0.6001900000000000    0.3427900000000000    0.8201450000000000 C
   0.6800500000000000    0.2234900000000000    0.8116650000000001 C
   0.6420400000000001    0.2729900000000000    0.8340000000000001 C
   0.6755500000000000    0.2441000000000000    0.7746600000000000 C
   0.5958100000000000    0.3643300000000000    0.7830300000000000 C
   0.5782900000000000    0.4808800000000000    0.7333350000000000 C
   0.5511200000000001    0.4381500000000000    0.7682000000000000 C
   0.4808800000000000    0.4663700000000000    0.7890850000000000 C
   0.4663500000000000    0.5780000000000000    0.7406200000000001 C
   0.4379700000000000    0.5361800000000000    0.7755500000000000 C
   0.5364500000000000    0.5509800000000000    0.7192550000000000 C
   0.0029600000000000    0.4775100000000000    0.8462700000000001 C
   0.6918900000000000    0.0007600000000000    0.7400700000000000 C
   0.4804400000000000    0.6928200000000000    0.0012000000000000 C
   0.4450500000000000    0.9402700000000001    0.7744900000000000 C
   0.5477000000000000    0.4456000000000000    0.9717450000000001 C
   0.9433800000000000    0.5476200000000000    0.7227000000000000 C
   0.8791500000000000    0.5571199999999999    0.8364150000000000 C
   0.8513400000000000    0.5919100000000000    0.7765450000000000 C
   0.9704600000000000    0.5114100000000000    0.7851650000000000 C
   0.9213000000000000    0.5500200000000000    0.7623200000000000 C
   0.9493800000000000    0.5154000000000000    0.8222750000000000 C
   0.8293199999999999    0.5958599999999999    0.8137500000000000 C
   0.6724800000000000    0.8771700000000000    0.7797000000000001 C
   0.5528600000000000    0.8488800000000000    0.7968550000000000 C
   0.5698900000000000    0.9677200000000000    0.7566300000000000 C
   0.5243200000000000    0.9184900000000000    0.7758250000000000 C
   0.6440900000000001    0.9470499999999999    0.7587850000000000 C
   0.6273000000000000    0.8272500000000000    0.7989400000000000 C
   0.7126400000000001    0.6137300000000000    0.8635200000000001 C
   0.7553900000000000    0.6406600000000000    0.8285500000000000 C
   0.6153900000000000    0.7254699999999999    0.8563700000000001 C
   0.6425700000000000    0.6556500000000000    0.8777250000000000 C
   0.7270200000000000    0.7106900000000000    0.8076950000000001 C
   0.6570600000000000    0.7535400000000000    0.8212850000000000 C
   0.5931800000000000    0.5523500000000000    0.9257500000000001 C
   0.5128500000000000    0.5705500000000000    0.9851500000000000 C
   0.5509500000000001    0.5245400000000000    0.9606700000000000 C
   0.5177200000000000    0.6444400000000000    0.9745750000000000 C
   0.5597400000000000    0.6720900000000000    0.9395000000000000 C
   0.5978599999999999    0.6264700000000000    0.9146950000000000 C
   0.5017500000000000    0.1929200000000000    0.4899700000000000 C
   0.1916900000000000    0.9779300000000000    0.7513200000000000 C
   0.9802400000000000    0.5016800000000000    0.5963250000000000 C
   0.9445500000000000    0.0475500000000000    0.7213849999999999 C
   0.0480100000000000    0.4406200000000000    0.4731550000000000 C
   0.4437100000000000    0.9452800000000000    0.5242350000000000 C
   0.1721000000000000    0.0575200000000000    0.6895300000000000 C
   0.0522700000000000    0.0921200000000000    0.6755050000000000 C
   0.0695700000000000    0.0115800000000000    0.7348950000000000 C
   0.0238500000000000    0.0501000000000000    0.7103349999999999 C
   0.1438100000000000    0.0156700000000000    0.7244850000000000 C
   0.1267400000000000    0.0961600000000000    0.6646250000000000 C
   0.0927100000000000    0.3492000000000000    0.5269100000000000 C
   0.0128100000000000    0.4684600000000000    0.5354449999999999 C
   0.0508200000000000    0.4190000000000000    0.5126900000000000 C
   0.0173700000000000    0.4478200000000000    0.5724400000000001 C
   0.0590100000000000    0.3777100000000000    0.5865500000000000 C
   0.0970900000000000    0.3275900000000000    0.5640250000000000 C
   0.3784600000000000    0.1721500000000000    0.5298300000000000 C
   0.3514000000000000    0.0522300000000000    0.5468400000000000 C
   0.4701400000000000    0.0703900000000000    0.5064950000000000 C
   0.4213700000000000    0.0243300000000000    0.5257200000000000 C
   0.4486800000000000    0.1444200000000000    0.5087500000000000 C
   0.3289900000000000    0.1264700000000000    0.5490699999999999 C
   0.2265200000000000    0.1138900000000000    0.6064300000000000 C
   0.1564100000000000    0.1409200000000000    0.6277800000000000 C
   0.2120200000000000    0.2255200000000000    0.5579550000000000 C
   0.2549200000000000    0.1557000000000000    0.5714500000000000 C
   0.1145900000000000    0.2110200000000000    0.6137000000000000 C
   0.1417700000000000    0.2537500000000000    0.5788100000000000 C
   0.6900500000000001    0.2143700000000000    0.5008300000000000 C
   0.0012500000000000    0.6909900000000000    0.6069850000000000 C
   0.2128000000000000    0.9992300000000000    0.3458100000000000 C
   0.1452700000000000    0.2463500000000000    0.3753850000000000 C
   0.2479700000000000    0.7517600000000000    0.5725350000000000 C
   0.7498300000000000    0.1442400000000000    0.6243450000000000 C
   0.8138800000000000    0.1347300000000000    0.5106000000000001 C
   0.8417800000000000    0.0999300000000000    0.5704899999999999 C
   0.7226399999999999    0.1803900000000000    0.5619100000000000 C
   0.7718400000000000    0.1418100000000000    0.5847300000000000 C
   0.7436800000000000    0.1764400000000000    0.5248000000000000 C
   0.8637400000000000    0.0959800000000000    0.5332900000000000 C
   0.0205400000000000    0.8146300000000000    0.5673049999999999 C
   0.1401300000000000    0.8429900000000000    0.5501650000000000 C
   0.1231800000000000    0.7241400000000000    0.5903849999999999 C
   0.1687100000000000    0.7734100000000000    0.5712000000000000 C
   0.0489800000000000    0.7447600000000000    0.5882350000000000 C
   0.0657000000000000    0.8645800000000000    0.5480800000000000 C
   0.9804200000000000    0.0781100000000000    0.4835000000000000 C
   0.0776500000000000    0.9663600000000000    0.4906750000000000 C
   0.0504900000000000    0.0361900000000000    0.4693250000000000 C
   0.9660000000000000    0.9811400000000000    0.5393250000000001 C
   0.0359500000000000    0.9382900000000000    0.5257350000000000 C
   0.9376600000000000    0.0511700000000000    0.5184800000000001 C
   0.1334300000000000    0.0198000000000000    0.4075300000000000 C
   0.0998200000000000    0.1395400000000000    0.4213300000000000 C
   0.1802500000000000    0.1214100000000000    0.3619400000000000 C
   0.1420800000000000    0.1673900000000000    0.3864300000000000 C
   0.1754600000000000    0.0475100000000000    0.3724900000000000 C
   0.0952200000000000    0.0654000000000000    0.4323650000000000 C
   0.6900500000000001    0.2143700000000000    0.0008300000000000 C
   0.0012500000000000    0.6909900000000000    0.1069850000000000 C
   0.2128000000000000    0.9992300000000000    0.8458100000000000 C
   0.1452700000000000    0.2463500000000000    0.8753850000000001 C
   0.2479700000000000    0.7517600000000000    0.0725350000000000 C
   0.7498300000000000    0.1442400000000000    0.1243450000000000 C
   0.8138800000000000    0.1347300000000000    0.0106000000000000 C
   0.8417800000000000    0.0999300000000000    0.0704900000000000 C
   0.7226399999999999    0.1803900000000000    0.0619100000000000 C
   0.7718400000000000    0.1418100000000000    0.0847300000000000 C
   0.7436800000000000    0.1764400000000000    0.0248000000000000 C
   0.8637400000000000    0.0959800000000000    0.0332900000000000 C
   0.0205400000000000    0.8146300000000000    0.0673050000000000 C
   0.1401300000000000    0.8429900000000000    0.0501650000000000 C
   0.1231800000000000    0.7241400000000000    0.0903850000000000 C
   0.1687100000000000    0.7734100000000000    0.0712000000000000 C
   0.0489800000000000    0.7447600000000000    0.0882350000000000 C
   0.0657000000000000    0.8645800000000000    0.0480800000000000 C
   0.9804200000000000    0.0781100000000000    0.9835000000000000 C
   0.0776500000000000    0.9663600000000000    0.9906750000000000 C
   0.0504900000000000    0.0361900000000000    0.9693250000000000 C
   0.9660000000000000    0.9811400000000000    0.0393250000000000 C
   0.0359500000000000    0.9382900000000000    0.0257350000000000 C
   0.9376600000000000    0.0511700000000000    0.0184800000000000 C
   0.1334300000000000    0.0198000000000000    0.9075299999999999 C
   0.0998200000000000    0.1395400000000000    0.9213300000000000 C
   0.1802500000000000    0.1214100000000000    0.8619399999999999 C
   0.1420800000000000    0.1673900000000000    0.8864300000000001 C
   0.1754600000000000    0.0475100000000000    0.8724900000000000 C
   0.0952200000000000    0.0654000000000000    0.9323650000000000 C
   0.0099000000000000    0.5043600000000000    0.9596350000000000 O
   0.0847700000000000    0.3957000000000000    0.9521350000000000 O
   0.5079200000000000    0.9184700000000000    0.0053250000000000 O
   0.3990200000000000    0.9030300000000000    0.0423900000000000 O
   0.9177999999999999    0.0094800000000000    0.2533300000000000 O
   0.9021000000000000    0.0842400000000000    0.1991550000000000 O
   0.6826400000000000    0.1875300000000000    0.3875300000000000 O
   0.6083499999999999    0.2964900000000000    0.3949100000000000 O
   0.1282100000000000    0.5272700000000000    0.3760800000000000 O
   0.2121800000000000    0.4327200000000000    0.3528500000000000 O
   0.5304300000000000    0.7510200000000000    0.0642900000000000 O
   0.4344400000000000    0.7065800000000000    0.1058950000000000 O
   0.7500599999999999    0.1274100000000000    0.2651800000000000 O
   0.7041200000000000    0.2103700000000000    0.2176050000000000 O
   0.7907700000000000    0.6075500000000000    0.1479950000000000 O
   0.7751900000000000    0.6824400000000000    0.0938250000000000 O
   0.1854600000000000    0.7736300000000000    0.3417500000000000 O
   0.2941200000000000    0.7889900000000000    0.3043600000000000 O
   0.0660900000000000    0.4407000000000000    0.3318250000000000 O
   0.9821800000000001    0.4852700000000000    0.3796750000000000 O
   0.6632300000000000    0.0633900000000000    0.2213250000000000 O
   0.7584100000000000    0.9805000000000000    0.2444300000000000 O
   0.4427600000000000    0.6648500000000001    0.5326300000000000 O
   0.4895000000000000    0.7590900000000000    0.4908000000000000 O
   0.4179800000000000    0.0040500000000000    0.2555050000000000 O
   0.4029200000000000    0.8955000000000000    0.2927850000000000 O
   0.5093700000000000    0.4191400000000000    0.5036750000000000 O
   0.5841900000000000    0.4031300000000000    0.4494800000000000 O
   0.8986600000000000    0.5844600000000000    0.2016150000000000 O
   0.0074700000000000    0.5097600000000000    0.2091800000000000 O
   0.6826400000000000    0.1875300000000000    0.8875299999999999 O
   0.6083499999999999    0.2964900000000000    0.8949100000000000 O
   0.1282100000000000    0.5272700000000000    0.8760800000000000 O
   0.2121800000000000    0.4327200000000000    0.8528500000000000 O
   0.5304300000000000    0.7510200000000000    0.5642900000000000 O
   0.4344400000000000    0.7065800000000000    0.6058950000000000 O
   0.7500599999999999    0.1274100000000000    0.7651800000000000 O
   0.7041200000000000    0.2103700000000000    0.7176050000000000 O
   0.7907700000000000    0.6075500000000000    0.6479950000000000 O
   0.7751900000000000    0.6824400000000000    0.5938250000000000 O
   0.1854600000000000    0.7736300000000000    0.8417500000000000 O
   0.2941200000000000    0.7889900000000000    0.8043600000000000 O
   0.0660900000000000    0.4407000000000000    0.8318250000000000 O
   0.9821800000000001    0.4852700000000000    0.8796750000000000 O
   0.6632300000000000    0.0633900000000000    0.7213250000000000 O
   0.7584100000000000    0.9805000000000000    0.7444300000000000 O
   0.4427600000000000    0.6648500000000001    0.0326300000000000 O
   0.4895000000000000    0.7590900000000000    0.9908000000000000 O
   0.4179800000000000    0.0040500000000000    0.7555050000000000 O
   0.4029200000000000    0.8955000000000000    0.7927850000000001 O
   0.5093700000000000    0.4191400000000000    0.0036750000000000 O
   0.5841900000000000    0.4031300000000000    0.9494800000000000 O
   0.8986600000000000    0.5844600000000000    0.7016150000000000 O
   0.0074700000000000    0.5097600000000000    0.7091800000000000 O
   0.5647100000000000    0.1648800000000000    0.9711099999999999 O
   0.4806800000000000    0.2593300000000000    0.9943949999999999 O
   0.1627300000000000    0.9409900000000000    0.2827250000000000 O
   0.2585000000000000    0.9858100000000000    0.2411150000000000 O
   0.5647100000000000    0.1648800000000000    0.4711100000000000 O
   0.4806800000000000    0.2593300000000000    0.4943950000000000 O
   0.1627300000000000    0.9409900000000000    0.7827250000000000 O
   0.2585000000000000    0.9858100000000000    0.7411150000000000 O
   0.9431100000000000    0.5645800000000000    0.5819950000000000 O
   0.9888600000000000    0.4813100000000000    0.6295450000000000 O
   0.9021000000000000    0.0842400000000000    0.6991550000000000 O
   0.9177999999999999    0.0094800000000000    0.7533300000000001 O
   0.0099000000000000    0.5043600000000000    0.4596350000000000 O
   0.0847700000000000    0.3957000000000000    0.4521350000000000 O
   0.3990200000000000    0.9030300000000000    0.5423900000000000 O
   0.5079200000000000    0.9184700000000000    0.5053250000000000 O
   0.6269600000000000    0.2511800000000000    0.5153150000000000 O
   0.7107599999999999    0.2066700000000000    0.4674300000000000 O
   0.0301500000000000    0.6282500000000000    0.6255650000000000 O
   0.9345800000000000    0.7112800000000000    0.6028350000000000 O
   0.2503400000000000    0.0273700000000000    0.3143800000000000 O
   0.2039500000000000    0.9328900000000000    0.3561700000000000 O
   0.1086800000000000    0.2888000000000000    0.3976400000000000 O
   0.1837100000000000    0.2728300000000000    0.3434750000000000 O
   0.2750900000000000    0.6881400000000000    0.5916300000000000 O
   0.2900500000000000    0.7965200000000000    0.5541150000000000 O
   0.6857100000000000    0.1819400000000000    0.6379150000000000 O
   0.7947100000000000    0.1075700000000000    0.6453700000000000 O
   0.9431100000000000    0.5645800000000000    0.0819950000000000 O
   0.9888600000000000    0.4813100000000000    0.1295450000000000 O
   0.6269600000000000    0.2511800000000000    0.0153150000000000 O
   0.7107599999999999    0.2066700000000000    0.9674300000000000 O
   0.0301500000000000    0.6282500000000000    0.1255650000000000 O
   0.9345800000000000    0.7112800000000000    0.1028350000000000 O
   0.2503400000000000    0.0273700000000000    0.8143800000000000 O
   0.2039500000000000    0.9328900000000000    0.8561700000000000 O
   0.1086800000000000    0.2888000000000000    0.8976400000000000 O
   0.1837100000000000    0.2728300000000000    0.8434750000000000 O
   0.2750900000000000    0.6881400000000000    0.0916300000000000 O
   0.2900500000000000    0.7965200000000000    0.0541150000000000 O
   0.6857100000000000    0.1819400000000000    0.1379150000000000 O
   0.7947100000000000    0.1075700000000000    0.1453700000000000 O
