H18 O12
1.0
  18.5604038277832828    0.0000000000000000    6.0385208246397317
   4.4125359453006192   18.0684821057834739    6.0250379189190459
   0.0000000000000000    0.0000000000000000   39.0840000000000032
H O
18 12
direct
   0.1127683120104569    0.9358748375010336    0.2867947077842494 H
   0.2766144592088352    1.0121568200297666    0.2159908007586473 H
   0.1886270309725157    0.9786562867200237    0.2468066124615182 H
   0.9563556922068005   -0.0165811909554223    0.2667086326873297 H
   0.9297998728629359    0.1088705694141476    0.1758347371506587 H
   0.9587855899601502    0.0459241534980489    0.2188246166852290 H
   0.9377029327000218    0.5726072826274770    0.0571099285841728 H
   1.0155016016566774    0.4310461055697670    0.1384038912990129 H
   0.9812865425931361    0.4925534855531205    0.0946895010800416 H
  -0.0163058795876373    0.5315503330827591    0.9787290335146178 H
   0.1093345842887708    0.3492134483842412    0.9661324144389554 H
   0.0461370276430134    0.4357842636420812    0.9802836170493433 H
   0.5732800297865110    0.1151966888043712    0.9681698408628781 H
   0.4303161545480212    0.2768015752151892    1.0077985075600497 H
   0.4926606058275244    0.1898744458806960    0.9902847590125655 H
   0.5348520648961060    0.9568536882438784   -0.0075591609123040 H
   0.3521936594927408    0.9308089511519809    0.0546259397290559 H
   0.4386759822808861    0.9595478669643847    0.0234187826494772 H
   0.1627300000000000    0.9409900000000000    0.2827250000000000 O
   0.2585000000000000    0.9858100000000000    0.2411150000000000 O
   0.9177999999999999    0.0094800000000000    0.2533300000000000 O
   0.9021000000000000    0.0842400000000000    0.1991550000000000 O
   0.9431100000000000    0.5645800000000000    0.0819950000000000 O
   0.9888600000000000    0.4813100000000000    0.1295450000000000 O
   0.0099000000000000    0.5043600000000000    0.9596350000000000 O
   0.0847700000000000    0.3957000000000000    0.9521350000000000 O
   0.5647100000000000    0.1648800000000000    0.9711099999999999 O
   0.4806800000000000    0.2593300000000000    0.9943949999999999 O
   0.5079200000000000    0.9184700000000000    0.0053250000000000 O
   0.3990200000000000    0.9030300000000000    0.0423900000000000 O
