H7 C15 O6
1.0
  38.7451386974606393    0.0000000000000000    3.2950648422357736
   6.6064030118583137   27.5351817957709635   11.4234127439549784
   0.0000000000000000    0.0000000000000000   26.8599999999999994
H C O
7 15 6
direct
   0.3688020000000000    0.2377433333333333    0.1110100000000000 H
   0.3810200000000000    0.2560733333333333    0.0142350000000000 H
   0.3110960000000000    0.3853666666666666    0.0765200000000000 H
   0.3632180000000000    0.2704133333333333    0.9320850000000001 H
   0.3697100000000000    0.3783266666666666    0.7756550000000000 H
   0.3558900000000000    0.4193033333333333    0.9135450000000001 H
   0.3206860000000000    0.4033933333333333    0.9793550000000000 H
   0.3393880000000000    0.3105033333333333    0.1000600000000000 C
   0.3586200000000000    0.2740866666666666    0.0818850000000000 C
   0.3650640000000001    0.2845266666666666    0.0273300000000000 C
   0.3329260000000001    0.3002066666666666    0.1585700000000000 C
   0.3322480000000000    0.3673166666666666    0.0079900000000000 C
   0.3262920000000000    0.3572633333333333    0.0624000000000000 C
   0.3667980000000000    0.3206400000000000    0.8519700000000000 C
   0.3632880000000001    0.3080033333333333    0.9076299999999999 C
   0.3520600000000000    0.3313366666666666    0.9892600000000000 C
   0.3696880000000000    0.2828633333333333    0.8282750000000000 C
   0.3666640000000000    0.3686100000000000    0.8188350000000000 C
   0.3630720000000000    0.4037766666666667    0.8417100000000000 C
   0.3585480000000000    0.3910233333333333    0.8971600000000000 C
   0.3582740000000000    0.3432300000000000    0.9310300000000000 C
   0.3647460000000000    0.4547300000000000    0.8078500000000000 C
   0.3436660000000000    0.2572633333333333    0.1917750000000000 O
   0.3159560000000000    0.3371200000000000    0.1702350000000000 O
   0.3823340000000000    0.2388133333333333    0.8540449999999999 O
   0.3585140000000000    0.2975633333333333    0.7784200000000000 O
   0.3737580000000000    0.4656233333333333    0.7585100000000000 O
   0.3569120000000000    0.4863233333333333    0.8300650000000001 O
