Zn48 H288 C460 O238
1.0
  39.7735431509669084    0.0000000000000000    1.9021109899722386
  -0.2324132518546174   12.9797903730025084    5.7468108506608893
   0.0000000000000000    0.0000000000000000   34.5700000000000003
Zn H C O
48 288 460 238
direct
   0.9270099999999999    0.5886300000000000    0.0822600000000000 Zn
   0.9270099999999999    0.5886300000000000    0.5822600000000000 Zn
   0.0888633333333333    0.8436200000000000    0.1957250000000000 Zn
   0.0888633333333333    0.8436200000000000    0.6957250000000000 Zn
   0.5936766666666666    0.5886300000000000    0.0822600000000000 Zn
   0.5936766666666666    0.5886300000000000    0.5822600000000000 Zn
   0.7555299999999999    0.8436200000000000    0.1957250000000000 Zn
   0.7555299999999999    0.8436200000000000    0.6957250000000000 Zn
   0.2603433333333333    0.5886300000000000    0.0822600000000000 Zn
   0.2603433333333333    0.5886300000000000    0.5822600000000000 Zn
   0.4221966666666667    0.8436200000000000    0.6957250000000000 Zn
   0.4221966666666667    0.8436200000000000    0.1957250000000000 Zn
   0.4681900000000000    0.9843499999999999    0.6290200000000000 Zn
   0.8015233333333333    0.9843499999999999    0.6290200000000000 Zn
   0.4681900000000000    0.9843499999999999    0.1290200000000000 Zn
   0.8015233333333333    0.9843499999999999    0.1290200000000000 Zn
   0.1348566666666667    0.9843499999999999    0.1290200000000000 Zn
   0.1348566666666667    0.9843499999999999    0.6290200000000000 Zn
   0.2992766666666666    0.4437800000000000    0.6471450000000000 Zn
   0.9659433333333333    0.4437800000000000    0.6471450000000000 Zn
   0.2992766666666666    0.4437800000000000    0.1471450000000000 Zn
   0.6326099999999999    0.4437800000000000    0.1471450000000000 Zn
   0.9659433333333333    0.4437800000000000    0.1471450000000000 Zn
   0.6326099999999999    0.4437800000000000    0.6471450000000000 Zn
   0.8651899999999999    0.0155800000000000    0.8716650000000000 Zn
   0.7405933333333333    0.4112800000000000    0.4179400000000000 Zn
   0.7405933333333333    0.4112800000000000    0.9179400000000000 Zn
   0.5778666666666666    0.1561300000000000    0.3048400000000000 Zn
   0.5778666666666666    0.1561300000000000    0.8048400000000000 Zn
   0.0739266666666667    0.4112800000000000    0.4179400000000000 Zn
   0.0739266666666667    0.4112800000000000    0.9179400000000000 Zn
   0.9112000000000000    0.1561300000000000    0.8048400000000000 Zn
   0.9112000000000000    0.1561300000000000    0.3048400000000000 Zn
   0.4072600000000000    0.4112800000000000    0.4179400000000000 Zn
   0.4072600000000000    0.4112800000000000    0.9179400000000000 Zn
   0.2445333333333333    0.1561300000000000    0.8048400000000000 Zn
   0.2445333333333333    0.1561300000000000    0.3048400000000000 Zn
   0.5318566666666666    0.0155800000000000    0.8716650000000000 Zn
   0.1985233333333333    0.0155800000000000    0.8716650000000000 Zn
   0.5318566666666666    0.0155800000000000    0.3716650000000000 Zn
   0.1985233333333333    0.0155800000000000    0.3716650000000000 Zn
   0.8651899999999999    0.0155800000000000    0.3716650000000000 Zn
   0.7006899999999999    0.5561300000000000    0.3530400000000000 Zn
   0.0340233333333333    0.5561300000000000    0.8530400000000000 Zn
   0.7006899999999999    0.5561300000000000    0.8530400000000000 Zn
   0.0340233333333333    0.5561300000000000    0.3530400000000000 Zn
   0.3673566666666667    0.5561300000000000    0.8530400000000000 Zn
   0.3673566666666667    0.5561300000000000    0.3530400000000000 Zn
   0.9009266666666667    0.3724500000000000    0.8158950000000000 H
   0.9260733333333333    0.4809300000000000    0.8114850000000000 H
   0.8307066666666666    0.6402700000000000    0.7790450000000000 H
   0.8562133333333333    0.7005100000000000    0.6482500000000000 H
   0.9094700000000000    0.4702200000000000    0.7471850000000000 H
   0.8835000000000000    0.3383100000000000    0.8915550000000000 H
   0.9414666666666667    0.4964100000000000    0.8733800000000000 H
   0.9514433333333333    0.3954500000000000    0.9473549999999999 H
   0.9161199999999999    0.4736700000000000    0.9452900000000000 H
   0.8893333333333333    0.2089300000000000    0.1282750000000000 H
   0.9330700000000000    0.4166100000000000    0.0074650000000000 H
   0.8678533333333333    0.1667600000000000    0.0152000000000000 H
   0.9009266666666667    0.3724500000000000    0.3158950000000000 H
   0.9260733333333333    0.4809300000000000    0.3114850000000000 H
   0.8307066666666666    0.6402700000000000    0.2790450000000000 H
   0.8562133333333333    0.7005100000000000    0.1482500000000000 H
   0.9094700000000000    0.4702200000000000    0.2471850000000000 H
   0.8835000000000000    0.3383100000000000    0.3915550000000000 H
   0.9414666666666667    0.4964100000000000    0.3733800000000000 H
   0.9514433333333333    0.3954500000000000    0.4473550000000000 H
   0.9161199999999999    0.4736700000000000    0.4452900000000000 H
   0.8893333333333333    0.2089300000000000    0.6282750000000000 H
   0.9330700000000000    0.4166100000000000    0.5074650000000001 H
   0.8678533333333333    0.1667600000000000    0.5152000000000000 H
   0.0680566666666667    0.2838000000000000    0.3127750000000000 H
   0.0347733333333333    0.1895200000000000    0.3267000000000000 H
   0.0506833333333333    0.2151500000000000    0.1476600000000000 H
   0.1000666666666667    0.0449500000000000    0.2641150000000000 H
   0.0349633333333333    0.2957400000000000    0.2543700000000000 H
   0.0254700000000000    0.1103700000000000    0.4009250000000000 H
   0.1010366666666667    0.1459900000000000    0.3743000000000000 H
   0.0894333333333333    0.0391100000000000    0.4519350000000000 H
   0.0552766666666667    0.1004100000000000    0.4681150000000000 H
   0.0780566666666667    0.9807200000000000    0.5302400000000000 H
   0.0000000000000000    0.8124300000000000    0.4990300000000000 H
   0.0267933333333333    0.7221100000000000    0.6290500000000000 H
   0.0680566666666667    0.2838000000000000    0.8127750000000000 H
   0.0347733333333333    0.1895200000000000    0.8267000000000000 H
   0.0506833333333333    0.2151500000000000    0.6476600000000000 H
   0.1000666666666667    0.0449500000000000    0.7641150000000000 H
   0.0349633333333333    0.2957400000000000    0.7543700000000000 H
   0.0254700000000000    0.1103700000000000    0.9009250000000000 H
   0.1010366666666667    0.1459900000000000    0.8743000000000001 H
   0.0894333333333333    0.0391100000000000    0.9519350000000000 H
   0.0552766666666667    0.1004100000000000    0.9681150000000001 H
   0.0780566666666667    0.9807200000000000    0.0302400000000000 H
   0.0000000000000000    0.8124300000000000    0.9990300000000000 H
   0.0267933333333333    0.7221100000000000    0.1290500000000000 H
   0.5675933333333333    0.3724500000000000    0.8158950000000000 H
   0.5927400000000000    0.4809300000000000    0.8114850000000000 H
   0.4973733333333333    0.6402700000000000    0.7790450000000000 H
   0.5228800000000000    0.7005100000000000    0.6482500000000000 H
   0.5761366666666666    0.4702200000000000    0.7471850000000000 H
   0.5501666666666667    0.3383100000000000    0.8915550000000000 H
   0.6081333333333333    0.4964100000000000    0.8733800000000000 H
   0.6181099999999999    0.3954500000000000    0.9473549999999999 H
   0.5827866666666667    0.4736700000000000    0.9452900000000000 H
   0.5560000000000000    0.2089300000000000    0.1282750000000000 H
   0.5997366666666666    0.4166100000000000    0.0074650000000000 H
   0.5345200000000000    0.1667600000000000    0.0152000000000000 H
   0.5675933333333333    0.3724500000000000    0.3158950000000000 H
   0.5927400000000000    0.4809300000000000    0.3114850000000000 H
   0.4973733333333333    0.6402700000000000    0.2790450000000000 H
   0.5228800000000000    0.7005100000000000    0.1482500000000000 H
   0.5761366666666666    0.4702200000000000    0.2471850000000000 H
   0.5501666666666667    0.3383100000000000    0.3915550000000000 H
   0.6081333333333333    0.4964100000000000    0.3733800000000000 H
   0.6181099999999999    0.3954500000000000    0.4473550000000000 H
   0.5827866666666667    0.4736700000000000    0.4452900000000000 H
   0.5560000000000000    0.2089300000000000    0.6282750000000000 H
   0.5997366666666666    0.4166100000000000    0.5074650000000001 H
   0.5345200000000000    0.1667600000000000    0.5152000000000000 H
   0.7347233333333333    0.2838000000000000    0.3127750000000000 H
   0.7014400000000000    0.1895200000000000    0.3267000000000000 H
   0.7173499999999999    0.2151500000000000    0.1476600000000000 H
   0.7667333333333333    0.0449500000000000    0.2641150000000000 H
   0.7016300000000000    0.2957400000000000    0.2543700000000000 H
   0.6921366666666666    0.1103700000000000    0.4009250000000000 H
   0.7677033333333333    0.1459900000000000    0.3743000000000000 H
   0.7561000000000000    0.0391100000000000    0.4519350000000000 H
   0.7219433333333333    0.1004100000000000    0.4681150000000000 H
   0.7447233333333333    0.9807200000000000    0.5302400000000000 H
   0.6666666666666666    0.8124300000000000    0.4990300000000000 H
   0.6934600000000000    0.7221100000000000    0.6290500000000000 H
   0.7347233333333333    0.2838000000000000    0.8127750000000000 H
   0.7014400000000000    0.1895200000000000    0.8267000000000000 H
   0.7173499999999999    0.2151500000000000    0.6476600000000000 H
   0.7667333333333333    0.0449500000000000    0.7641150000000000 H
   0.7016300000000000    0.2957400000000000    0.7543700000000000 H
   0.6921366666666666    0.1103700000000000    0.9009250000000000 H
   0.7677033333333333    0.1459900000000000    0.8743000000000001 H
   0.7561000000000000    0.0391100000000000    0.9519350000000000 H
   0.7219433333333333    0.1004100000000000    0.9681150000000001 H
   0.7447233333333333    0.9807200000000000    0.0302400000000000 H
   0.6666666666666666    0.8124300000000000    0.9990300000000000 H
   0.6934600000000000    0.7221100000000000    0.1290500000000000 H
   0.2342600000000000    0.3724500000000000    0.8158950000000000 H
   0.2594066666666667    0.4809300000000000    0.8114850000000000 H
   0.1640400000000000    0.6402700000000000    0.7790450000000000 H
   0.1895466666666667    0.7005100000000000    0.6482500000000000 H
   0.2428033333333333    0.4702200000000000    0.7471850000000000 H
   0.2168333333333333    0.3383100000000000    0.8915550000000000 H
   0.2748000000000000    0.4964100000000000    0.8733800000000000 H
   0.2847766666666667    0.3954500000000000    0.9473549999999999 H
   0.2494533333333333    0.4736700000000000    0.9452900000000000 H
   0.2226666666666667    0.2089300000000000    0.1282750000000000 H
   0.2664033333333333    0.4166100000000000    0.0074650000000000 H
   0.2011866666666667    0.1667600000000000    0.0152000000000000 H
   0.2342600000000000    0.3724500000000000    0.3158950000000000 H
   0.2594066666666667    0.4809300000000000    0.3114850000000000 H
   0.1640400000000000    0.6402700000000000    0.2790450000000000 H
   0.1895466666666667    0.7005100000000000    0.1482500000000000 H
   0.2428033333333333    0.4702200000000000    0.2471850000000000 H
   0.2168333333333333    0.3383100000000000    0.3915550000000000 H
   0.2748000000000000    0.4964100000000000    0.3733800000000000 H
   0.2847766666666667    0.3954500000000000    0.4473550000000000 H
   0.2494533333333333    0.4736700000000000    0.4452900000000000 H
   0.2226666666666667    0.2089300000000000    0.6282750000000000 H
   0.2664033333333333    0.4166100000000000    0.5074650000000001 H
   0.2011866666666667    0.1667600000000000    0.5152000000000000 H
   0.4013900000000000    0.2838000000000000    0.8127750000000000 H
   0.3681066666666666    0.1895200000000000    0.8267000000000000 H
   0.3840166666666667    0.2151500000000000    0.6476600000000000 H
   0.4334000000000000    0.0449500000000000    0.7641150000000000 H
   0.3682966666666667    0.2957400000000000    0.7543700000000000 H
   0.3588033333333333    0.1103700000000000    0.9009250000000000 H
   0.4343700000000000    0.1459900000000000    0.8743000000000001 H
   0.4227666666666666    0.0391100000000000    0.9519350000000000 H
   0.3886100000000000    0.1004100000000000    0.9681150000000001 H
   0.4113900000000000    0.9807200000000000    0.0302400000000000 H
   0.3333333333333333    0.8124300000000000    0.9990300000000000 H
   0.3601266666666667    0.7221100000000000    0.1290500000000000 H
   0.4013900000000000    0.2838000000000000    0.3127750000000000 H
   0.3681066666666666    0.1895200000000000    0.3267000000000000 H
   0.3840166666666667    0.2151500000000000    0.1476600000000000 H
   0.4334000000000000    0.0449500000000000    0.2641150000000000 H
   0.3682966666666667    0.2957400000000000    0.2543700000000000 H
   0.3588033333333333    0.1103700000000000    0.4009250000000000 H
   0.4343700000000000    0.1459900000000000    0.3743000000000000 H
   0.4227666666666666    0.0391100000000000    0.4519350000000000 H
   0.3886100000000000    0.1004100000000000    0.4681150000000000 H
   0.4113900000000000    0.9807200000000000    0.5302400000000000 H
   0.3333333333333333    0.8124300000000000    0.4990300000000000 H
   0.3601266666666667    0.7221100000000000    0.6290500000000000 H
   0.8267016244422682   -0.0865256298445541    0.9523271319203331 H
   0.8048937269139415   -0.0941168596041944    0.8481416746570145 H
   0.8105829256176996   -0.1009896925028868    0.9017226456990592 H
   0.8284770035028076    0.1618364452413926    0.3541436079219673 H
   0.8826620552064517    0.3169328784997900    0.2491045364411713 H
   0.8552257551674386    0.2549314938663740    0.2956039952028485 H
   0.7345188916504806    0.5384909982548467    0.2936212642543795 H
   0.7896411411594316    0.3551118062047364    0.3845451093813199 H
   0.7659907742821347    0.4413487936530317    0.3369427507125404 H
   0.7658900000000000    0.6264800000000000    0.6840700000000000 H
   0.7406033333333333    0.5180800000000000    0.6886900000000000 H
   0.7574000000000000    0.5298700000000000    0.7527699999999999 H
   0.8359000000000000    0.3582900000000000    0.7213450000000000 H
   0.8108200000000000    0.3009200000000000    0.8519099999999999 H
   0.7831199999999999    0.6602000000000000    0.6084950000000000 H
   0.7253766666666667    0.5013000000000000    0.6268600000000000 H
   0.7153766666666667    0.6021600000000000    0.5528450000000000 H
   0.7508100000000000    0.5244100000000000    0.5548050000000000 H
   0.7770833333333333    0.7914000000000000    0.3718550000000000 H
   0.7333366666666666    0.5829100000000000    0.4925000000000000 H
   0.7989433333333333    0.8314700000000000    0.4852700000000000 H
   0.7315535017958883    0.7155272618359307    0.8581903258574908 H
   0.7449498069741415    0.4968646863463092    0.9682219820301035 H
   0.7398902737482296    0.6164172337318690    0.9161207582614006 H
   0.6418466666666667    0.8870800000000000    0.0998050000000000 H
   0.5661033333333333    0.8557399999999999    0.1257800000000000 H
   0.5782933333333333    0.9609400000000000    0.0481750000000000 H
   0.6121266666666667    0.8977000000000001    0.0324000000000000 H
   0.5893266666666666    0.0186900000000000    0.9702900000000000 H
   0.6668200000000000    0.1849800000000000    0.0000000000000000 H
   0.6405099999999999    0.2771800000000000    0.8713050000000000 H
   0.5985766666666666    0.7165200000000000    0.1876350000000000 H
   0.6320133333333333    0.8101699999999999    0.1740800000000000 H
   0.6152766666666667    0.7838100000000000    0.3530850000000000 H
   0.5667266666666666    0.9557900000000000    0.2361650000000000 H
   0.6312566666666666    0.7034899999999999    0.2463400000000000 H
   0.6418466666666667    0.8870800000000000    0.5998050000000000 H
   0.5661033333333333    0.8557399999999999    0.6257800000000000 H
   0.5782933333333333    0.9609400000000000    0.5481750000000000 H
   0.6121266666666667    0.8977000000000001    0.5324000000000000 H
   0.5893266666666666    0.0186900000000000    0.4702900000000000 H
   0.6668200000000000    0.1849800000000000    0.5000000000000000 H
   0.6405099999999999    0.2771800000000000    0.3713050000000000 H
   0.5985766666666666    0.7165200000000000    0.6876350000000000 H
   0.6320133333333333    0.8101699999999999    0.6740800000000000 H
   0.6152766666666667    0.7838100000000000    0.8530850000000000 H
   0.5667266666666666    0.9557900000000000    0.7361650000000000 H
   0.6312566666666666    0.7034899999999999    0.7463400000000000 H
   0.0992233333333333    0.6264800000000000    0.6840700000000000 H
   0.0739366666666667    0.5180800000000000    0.6886900000000000 H
   0.0907333333333333    0.5298700000000000    0.7527699999999999 H
   0.1692333333333333    0.3582900000000000    0.7213450000000000 H
   0.1441533333333333    0.3009200000000000    0.8519099999999999 H
   0.1164533333333333    0.6602000000000000    0.6084950000000000 H
   0.0587100000000000    0.5013000000000000    0.6268600000000000 H
   0.0487100000000000    0.6021600000000000    0.5528450000000000 H
   0.0841433333333333    0.5244100000000000    0.5548050000000000 H
   0.1104166666666667    0.7914000000000000    0.3718550000000000 H
   0.0666700000000000    0.5829100000000000    0.4925000000000000 H
   0.1322766666666667    0.8314700000000000    0.4852700000000000 H
   0.0992233333333333    0.6264800000000000    0.1840700000000000 H
   0.0739366666666667    0.5180800000000000    0.1886900000000000 H
   0.0907333333333333    0.5298700000000000    0.2527700000000000 H
   0.1692333333333333    0.3582900000000000    0.2213450000000000 H
   0.1441533333333333    0.3009200000000000    0.3519100000000000 H
   0.1164533333333333    0.6602000000000000    0.1084950000000000 H
   0.0587100000000000    0.5013000000000000    0.1268600000000000 H
   0.0487100000000000    0.6021600000000000    0.0528450000000000 H
   0.0841433333333333    0.5244100000000000    0.0548050000000000 H
   0.1104166666666667    0.7914000000000000    0.8718550000000000 H
   0.0666700000000000    0.5829100000000000    0.9924999999999999 H
   0.1322766666666667    0.8314700000000000    0.9852700000000000 H
   0.9751799999999999    0.8870800000000000    0.5998050000000000 H
   0.8994366666666667    0.8557399999999999    0.6257800000000000 H
   0.9116266666666666    0.9609400000000000    0.5481750000000000 H
   0.9454600000000000    0.8977000000000001    0.5324000000000000 H
   0.9226599999999999    0.0186900000000000    0.4702900000000000 H
   0.0001533333333333    0.1849800000000000    0.5000000000000000 H
   0.9738433333333333    0.2771800000000000    0.3713050000000000 H
   0.9319100000000000    0.7165200000000000    0.6876350000000000 H
   0.9653466666666666    0.8101699999999999    0.6740800000000000 H
   0.9486100000000000    0.7838100000000000    0.8530850000000000 H
   0.9000600000000000    0.9557900000000000    0.7361650000000000 H
   0.9645899999999999    0.7034899999999999    0.7463400000000000 H
   0.9751799999999999    0.8870800000000000    0.0998050000000000 H
   0.8994366666666667    0.8557399999999999    0.1257800000000000 H
   0.9116266666666666    0.9609400000000000    0.0481750000000000 H
   0.9454600000000000    0.8977000000000001    0.0324000000000000 H
   0.9226599999999999    0.0186900000000000    0.9702900000000000 H
   0.0001533333333333    0.1849800000000000    0.0000000000000000 H
   0.9738433333333333    0.2771800000000000    0.8713050000000000 H
   0.9319100000000000    0.7165200000000000    0.1876350000000000 H
   0.9653466666666666    0.8101699999999999    0.1740800000000000 H
   0.9486100000000000    0.7838100000000000    0.3530850000000000 H
   0.9000600000000000    0.9557900000000000    0.2361650000000000 H
   0.9645899999999999    0.7034899999999999    0.2463400000000000 H
   0.4325566666666666    0.6264800000000000    0.6840700000000000 H
   0.4072700000000000    0.5180800000000000    0.6886900000000000 H
   0.4240666666666666    0.5298700000000000    0.7527699999999999 H
   0.5025666666666666    0.3582900000000000    0.7213450000000000 H
   0.4774866666666666    0.3009200000000000    0.8519099999999999 H
   0.4497866666666667    0.6602000000000000    0.6084950000000000 H
   0.3920433333333333    0.5013000000000000    0.6268600000000000 H
   0.3820433333333333    0.6021600000000000    0.5528450000000000 H
   0.4174766666666666    0.5244100000000000    0.5548050000000000 H
   0.4437500000000000    0.7914000000000000    0.3718550000000000 H
   0.4000033333333333    0.5829100000000000    0.4925000000000000 H
   0.4656100000000000    0.8314700000000000    0.4852700000000000 H
   0.4325566666666666    0.6264800000000000    0.1840700000000000 H
   0.4072700000000000    0.5180800000000000    0.1886900000000000 H
   0.4240666666666666    0.5298700000000000    0.2527700000000000 H
   0.5025666666666666    0.3582900000000000    0.2213450000000000 H
   0.4774866666666666    0.3009200000000000    0.3519100000000000 H
   0.4497866666666667    0.6602000000000000    0.1084950000000000 H
   0.3920433333333333    0.5013000000000000    0.1268600000000000 H
   0.3820433333333333    0.6021600000000000    0.0528450000000000 H
   0.4174766666666666    0.5244100000000000    0.0548050000000000 H
   0.4437500000000000    0.7914000000000000    0.8718550000000000 H
   0.4000033333333333    0.5829100000000000    0.9924999999999999 H
   0.4656100000000000    0.8314700000000000    0.9852700000000000 H
   0.3085133333333333    0.8870800000000000    0.5998050000000000 H
   0.2327700000000000    0.8557399999999999    0.6257800000000000 H
   0.2449600000000000    0.9609400000000000    0.5481750000000000 H
   0.2787933333333333    0.8977000000000001    0.5324000000000000 H
   0.2559933333333333    0.0186900000000000    0.4702900000000000 H
   0.3334866666666667    0.1849800000000000    0.5000000000000000 H
   0.3071766666666667    0.2771800000000000    0.3713050000000000 H
   0.2652433333333333    0.7165200000000000    0.6876350000000000 H
   0.2986799999999999    0.8101699999999999    0.6740800000000000 H
   0.2819433333333333    0.7838100000000000    0.8530850000000000 H
   0.2333933333333333    0.9557900000000000    0.7361650000000000 H
   0.2979233333333333    0.7034899999999999    0.7463400000000000 H
   0.3085133333333333    0.8870800000000000    0.0998050000000000 H
   0.2327700000000000    0.8557399999999999    0.1257800000000000 H
   0.2449600000000000    0.9609400000000000    0.0481750000000000 H
   0.2787933333333333    0.8977000000000001    0.0324000000000000 H
   0.2559933333333333    0.0186900000000000    0.9702900000000000 H
   0.3334866666666667    0.1849800000000000    0.0000000000000000 H
   0.3071766666666667    0.2771800000000000    0.8713050000000000 H
   0.2652433333333333    0.7165200000000000    0.1876350000000000 H
   0.2986799999999999    0.8101699999999999    0.1740800000000000 H
   0.2819433333333333    0.7838100000000000    0.3530850000000000 H
   0.2333933333333333    0.9557900000000000    0.2361650000000000 H
   0.2979233333333333    0.7034899999999999    0.2463400000000000 H
   0.8510099999999999    0.0971400000000000    0.0986000000000000 C
   0.9051433333333333    0.5575500000000000    0.6635000000000000 C
   0.8144466666666667    0.7579600000000000    0.6989950000000000 C
   0.9027600000000000    0.4363700000000000    0.8260449999999999 C
   0.8710233333333333    0.5503700000000000    0.7685500000000001 C
   0.8459800000000000    0.6248400000000000    0.7553650000000001 C
   0.8411266666666666    0.6794600000000000    0.7122900000000000 C
   0.8603266666666667    0.6586800000000000    0.6817700000000000 C
   0.8902766666666666    0.5286700000000000    0.7380000000000000 C
   0.8844500000000000    0.5820200000000000    0.6951200000000000 C
   0.9267699999999999    0.3896900000000000    0.0870450000000000 C
   0.9020366666666666    0.3980800000000000    0.8731249999999999 C
   0.9231833333333332    0.4360900000000000    0.8922550000000000 C
   0.9249999999999999    0.4078200000000000    0.9384550000000000 C
   0.8935599999999999    0.2316900000000000    0.0943000000000000 C
   0.9133866666666666    0.3179400000000000    0.0695350000000000 C
   0.9179833333333333    0.3479100000000000    0.0255400000000000 C
   0.9024733333333332    0.2919700000000000    0.0059850000000000 C
   0.8814933333333332    0.2075900000000000    0.0304500000000000 C
   0.8768300000000000    0.1784000000000000    0.0741600000000000 C
   0.8510099999999999    0.0971400000000000    0.5986000000000000 C
   0.9051433333333333    0.5575500000000000    0.1635000000000000 C
   0.8144466666666667    0.7579600000000000    0.1989950000000000 C
   0.9027600000000000    0.4363700000000000    0.3260450000000000 C
   0.8710233333333333    0.5503700000000000    0.2685500000000000 C
   0.8459800000000000    0.6248400000000000    0.2553650000000000 C
   0.8411266666666666    0.6794600000000000    0.2122900000000000 C
   0.8603266666666667    0.6586800000000000    0.1817700000000000 C
   0.8902766666666666    0.5286700000000000    0.2380000000000000 C
   0.8844500000000000    0.5820200000000000    0.1951200000000000 C
   0.9267699999999999    0.3896900000000000    0.5870450000000000 C
   0.9020366666666666    0.3980800000000000    0.3731250000000000 C
   0.9231833333333332    0.4360900000000000    0.3922550000000000 C
   0.9249999999999999    0.4078200000000000    0.4384550000000000 C
   0.8935599999999999    0.2316900000000000    0.5943000000000001 C
   0.9133866666666666    0.3179400000000000    0.5695350000000000 C
   0.9179833333333333    0.3479100000000000    0.5255400000000000 C
   0.9024733333333332    0.2919700000000000    0.5059850000000000 C
   0.8814933333333332    0.2075900000000000    0.5304500000000000 C
   0.8768300000000000    0.1784000000000000    0.5741600000000000 C
   0.0896933333333333    0.0446700000000000    0.1880650000000000 C
   0.0143400000000000    0.3364600000000000    0.1767000000000000 C
   0.0621500000000000    0.2004500000000000    0.3271200000000000 C
   0.0565133333333333    0.2030700000000000    0.1797500000000000 C
   0.0408400000000000    0.2626300000000000    0.1990200000000000 C
   0.0844100000000000    0.1080600000000000    0.2449550000000000 C
   0.0774600000000000    0.1232500000000000    0.2036850000000000 C
   0.0478833333333333    0.2483800000000000    0.2404850000000000 C
   0.0705633333333333    0.1727900000000000    0.2629550000000000 C
   0.0525700000000000    0.1079600000000000    0.4049800000000000 C
   0.0738133333333333    0.1495700000000000    0.3711500000000000 C
   0.0734966666666667    0.8738800000000000    0.6141200000000000 C
   0.9848600000000000    0.6770400000000000    0.5782450000000000 C
   0.0622866666666667    0.0546400000000000    0.4497500000000000 C
   0.0592233333333333    0.9192500000000000    0.5392450000000000 C
   0.0404533333333333    0.9029300000000000    0.5092500000000000 C
   0.0164000000000000    0.8229000000000000    0.5225800000000000 C
   0.0117200000000000    0.7577800000000000    0.5653900000000001 C
   0.0305866666666667    0.7725000000000000    0.5956950000000000 C
   0.0538133333333333    0.8544100000000000    0.5824100000000000 C
   0.0896933333333333    0.0446700000000000    0.6880650000000000 C
   0.0143400000000000    0.3364600000000000    0.6767000000000000 C
   0.0621500000000000    0.2004500000000000    0.8271200000000001 C
   0.0565133333333333    0.2030700000000000    0.6797500000000000 C
   0.0408400000000000    0.2626300000000000    0.6990200000000000 C
   0.0844100000000000    0.1080600000000000    0.7449550000000000 C
   0.0774600000000000    0.1232500000000000    0.7036850000000000 C
   0.0478833333333333    0.2483800000000000    0.7404850000000001 C
   0.0705633333333333    0.1727900000000000    0.7629550000000000 C
   0.0525700000000000    0.1079600000000000    0.9049800000000000 C
   0.0738133333333333    0.1495700000000000    0.8711500000000000 C
   0.0734966666666667    0.8738800000000000    0.1141200000000000 C
   0.9848600000000000    0.6770400000000000    0.0782450000000000 C
   0.0622866666666667    0.0546400000000000    0.9497500000000000 C
   0.0592233333333333    0.9192500000000000    0.0392450000000000 C
   0.0404533333333333    0.9029300000000000    0.0092500000000000 C
   0.0164000000000000    0.8229000000000000    0.0225800000000000 C
   0.0117200000000000    0.7577800000000000    0.0653900000000000 C
   0.0305866666666667    0.7725000000000000    0.0956950000000000 C
   0.0538133333333333    0.8544100000000000    0.0824100000000000 C
   0.5176766666666667    0.0971400000000000    0.0986000000000000 C
   0.5718099999999999    0.5575500000000000    0.6635000000000000 C
   0.4811133333333333    0.7579600000000000    0.6989950000000000 C
   0.5694266666666666    0.4363700000000000    0.8260449999999999 C
   0.5376900000000000    0.5503700000000000    0.7685500000000001 C
   0.5126466666666667    0.6248400000000000    0.7553650000000001 C
   0.5077933333333333    0.6794600000000000    0.7122900000000000 C
   0.5269933333333333    0.6586800000000000    0.6817700000000000 C
   0.5569433333333333    0.5286700000000000    0.7380000000000000 C
   0.5511166666666667    0.5820200000000000    0.6951200000000000 C
   0.5934366666666666    0.3896900000000000    0.0870450000000000 C
   0.5687033333333333    0.3980800000000000    0.8731249999999999 C
   0.5898500000000000    0.4360900000000000    0.8922550000000000 C
   0.5916666666666666    0.4078200000000000    0.9384550000000000 C
   0.5602266666666667    0.2316900000000000    0.0943000000000000 C
   0.5800533333333333    0.3179400000000000    0.0695350000000000 C
   0.5846499999999999    0.3479100000000000    0.0255400000000000 C
   0.5691400000000000    0.2919700000000000    0.0059850000000000 C
   0.5481600000000000    0.2075900000000000    0.0304500000000000 C
   0.5434966666666666    0.1784000000000000    0.0741600000000000 C