C1 N1
1.0
   8.7924087739126335    0.0000000000000000   -0.8715550484187008
  -0.4936850450067164    8.7786596678487445   -0.8703273880686958
   0.0000000000000000    0.0000000000000000   27.4059999999999988
C N
1 1
direct
   0.1668500000000000    0.6460800000000000    0.2612750000000000 C
   0.2778900000000000    0.7290900000000000    0.2686750000000000 N
