Ca8 Fe4 H16 C7 N7 O8
1.0
   8.7924087739126335    0.0000000000000000   -0.8715550484187008
  -0.4936850450067164    8.7786596678487445   -0.8703273880686958
   0.0000000000000000    0.0000000000000000   27.4059999999999988
Ca Fe H C N O
8 4 16 7 7 8
direct
   0.8484900000000000    0.5243700000000000    0.0518200000000000 Ca
   0.5243300000000000    0.8484600000000000    0.3018150000000000 Ca
   0.1514400000000000    0.4755800000000000    0.4481850000000000 Ca
   0.4755900000000000    0.1515000000000000    0.1981900000000000 Ca
   0.8484900000000000    0.5243700000000000    0.5518200000000000 Ca
   0.5243300000000000    0.8484600000000000    0.8018149999999999 Ca
   0.1514400000000000    0.4755800000000000    0.9481850000000001 Ca
   0.4755900000000000    0.1515000000000000    0.6981900000000000 Ca
   0.9999700000000000    0.4999800000000000    0.2500050000000000 Fe
   0.4999500000000000    0.9999600000000000    0.0000000000000000 Fe
   0.9999700000000000    0.4999800000000000    0.7500050000000000 Fe
   0.4999500000000000    0.9999600000000000    0.5000000000000000 Fe
   0.3156700000000000    0.1042300000000000    0.2790350000000000 H
   0.4731900000000000    0.1836200000000000    0.3070350000000000 H
   0.8957900000000000    0.6842900000000000    0.4709400000000000 H
   0.8163200000000000    0.5267500000000001    0.4429800000000000 H
   0.6842700000000000    0.8957500000000000    0.2209700000000000 H
   0.5267500000000001    0.8163600000000000    0.1929700000000000 H
   0.1041500000000000    0.3156900000000000    0.0290650000000000 H
   0.1836200000000000    0.4732300000000000    0.0570250000000000 H
   0.3156700000000000    0.1042300000000000    0.7790349999999999 H
   0.4731900000000000    0.1836200000000000    0.8070349999999999 H
   0.8957900000000000    0.6842900000000000    0.9709400000000000 H
   0.8163200000000000    0.5267500000000001    0.9429799999999999 H
   0.6842700000000000    0.8957500000000000    0.7209700000000000 H
   0.5267500000000001    0.8163600000000000    0.6929700000000000 H
   0.1041500000000000    0.3156900000000000    0.5290650000000000 H
   0.1836200000000000    0.4732300000000000    0.5570250000000000 H
   0.8330600000000000    0.3538700000000000    0.2387300000000000 C
   0.6460800000000000    0.1668800000000000    0.0112850000000000 C
   0.3538300000000000    0.8330700000000000    0.4887250000000000 C
   0.8330600000000000    0.3538700000000000    0.7387300000000000 C
   0.6460800000000000    0.1668800000000000    0.5112850000000000 C
   0.1668500000000000    0.6460800000000000    0.7612749999999999 C
   0.3538300000000000    0.8330700000000000    0.9887250000000001 C
   0.7220200000000000    0.2708600000000000    0.2313300000000000 N
   0.7291400000000000    0.2779000000000000    0.0186950000000000 N
   0.2707700000000000    0.7220500000000000    0.4813100000000000 N
   0.7220200000000000    0.2708600000000000    0.7313300000000000 N
   0.7291400000000000    0.2779000000000000    0.5186950000000000 N
   0.2778900000000000    0.7290900000000000    0.7686750000000000 N
   0.2707700000000000    0.7220500000000000    0.9813100000000000 N
   0.4250300000000000    0.0881000000000000    0.2831950000000000 O
   0.9118800000000000    0.5749200000000000    0.4668050000000000 O
   0.5749100000000000    0.9118800000000000    0.2168150000000000 O
   0.0880600000000000    0.4250600000000000    0.0332000000000000 O
   0.4250300000000000    0.0881000000000000    0.7831950000000000 O
   0.9118800000000000    0.5749200000000000    0.9668050000000000 O
   0.5749100000000000    0.9118800000000000    0.7168150000000000 O
   0.0880600000000000    0.4250600000000000    0.5332000000000000 O
