Ba64 H372 C310 N62 O248
1.0
  18.3430000000000000    0.0000000000000000    0.0000000000000011
   0.0003448247003013   19.7569999969908388    0.0000000000000012
   0.0000000000000000    0.0000000000000000   39.5140000000000029
Ba H C N O
64 372 310 62 248
direct
   0.8834400000000000    0.8154200000000000    0.3237150000000000 Ba
   0.3826400000000000    0.6853500000000000    0.4380750000000000 Ba
   0.8826400000000000    0.6853500000000000    0.4380750000000000 Ba
   0.3834500000000000    0.1846000000000000    0.1762850000000000 Ba
   0.8834400000000000    0.1846000000000000    0.1762500000000000 Ba
   0.3826400000000000    0.3146700000000000    0.0619300000000000 Ba
   0.8826400000000000    0.3146700000000000    0.0619300000000000 Ba
   0.3834500000000000    0.3525800000000000    0.4077100000000000 Ba
   0.8834400000000000    0.3525800000000000    0.4077100000000000 Ba
   0.3826500000000000    0.1238600000000000    0.3426750000000000 Ba
   0.8826400000000000    0.1238600000000000    0.3426750000000000 Ba
   0.3834400000000000    0.6474400000000000    0.0923000000000000 Ba
   0.8834400000000000    0.6474400000000000    0.0920000000000000 Ba
   0.3826400000000000    0.8761600000000000    0.1573300000000000 Ba
   0.8826300000000000    0.8761600000000000    0.1573300000000000 Ba
   0.1334500000000000    0.3154100000000000    0.4262950000000000 Ba
   0.6334500000000000    0.3154100000000000    0.4262500000000000 Ba
   0.1326500000000000    0.1853400000000000    0.3119350000000000 Ba
   0.6326400000000000    0.1853400000000000    0.3119350000000000 Ba
   0.1334500000000000    0.6846100000000001    0.0737150000000000 Ba
   0.6334400000000000    0.6846100000000001    0.0737150000000000 Ba
   0.1326400000000000    0.8146800000000000    0.1880700000000000 Ba
   0.6326400000000000    0.8146800000000000    0.1880700000000000 Ba
   0.1334500000000000    0.8525900000000000    0.3423000000000000 Ba
   0.6334400000000000    0.8525900000000000    0.3423000000000000 Ba
   0.1326400000000000    0.6238700000000000    0.4073350000000000 Ba
   0.6326400000000000    0.6238700000000000    0.4073350000000000 Ba
   0.1334500000000000    0.1474300000000000    0.1577000000000000 Ba
   0.6334400000000000    0.1474300000000000    0.1577050000000000 Ba
   0.1326500000000000    0.3761500000000000    0.0926700000000000 Ba
   0.6326400000000000    0.3761500000000000    0.0926700000000000 Ba
   0.3834500000000000    0.8154200000000000    0.3237200000000000 Ba
   0.8834400000000000    0.8154200000000000    0.8237150000000000 Ba
   0.3826400000000000    0.6853500000000000    0.9380750000000000 Ba
   0.8826400000000000    0.6853500000000000    0.9380750000000000 Ba
   0.3834500000000000    0.1846000000000000    0.6762850000000000 Ba
   0.8834400000000000    0.1846000000000000    0.6762500000000000 Ba
   0.3826400000000000    0.3146700000000000    0.5619300000000000 Ba
   0.8826400000000000    0.3146700000000000    0.5619300000000000 Ba
   0.3834500000000000    0.3525800000000000    0.9077100000000000 Ba
   0.8834400000000000    0.3525800000000000    0.9077100000000000 Ba
   0.3826500000000000    0.1238600000000000    0.8426750000000001 Ba
   0.8826400000000000    0.1238600000000000    0.8426750000000001 Ba
   0.3834400000000000    0.6474400000000000    0.5923000000000000 Ba
   0.8834400000000000    0.6474400000000000    0.5920000000000000 Ba
   0.3826400000000000    0.8761600000000000    0.6573300000000000 Ba
   0.8826300000000000    0.8761600000000000    0.6573300000000000 Ba
   0.1334500000000000    0.3154100000000000    0.9262950000000000 Ba
   0.6334500000000000    0.3154100000000000    0.9262500000000000 Ba
   0.1326500000000000    0.1853400000000000    0.8119350000000001 Ba
   0.6326400000000000    0.1853400000000000    0.8119350000000001 Ba
   0.1334500000000000    0.6846100000000001    0.5737150000000000 Ba
   0.6334400000000000    0.6846100000000001    0.5737150000000000 Ba
   0.1326400000000000    0.8146800000000000    0.6880700000000000 Ba
   0.6326400000000000    0.8146800000000000    0.6880700000000000 Ba
   0.1334500000000000    0.8525900000000000    0.8423000000000000 Ba
   0.6334400000000000    0.8525900000000000    0.8423000000000000 Ba
   0.1326400000000000    0.6238700000000000    0.9073350000000000 Ba
   0.6326400000000000    0.6238700000000000    0.9073350000000000 Ba
   0.1334500000000000    0.1474300000000000    0.6577000000000000 Ba
   0.6334400000000000    0.1474300000000000    0.6577050000000000 Ba
   0.1326500000000000    0.3761500000000000    0.5926700000000000 Ba
   0.6326400000000000    0.3761500000000000    0.5926700000000000 Ba
   0.3834500000000000    0.8154200000000000    0.8237200000000000 Ba
   0.3318500000000000    0.8838900000000000    0.0034850000000000 H
   0.8318400000000000    0.8838900000000000    0.0034850000000000 H
   0.3788900000000000    0.8095300000000000    0.0157500000000000 H
   0.8788899999999999    0.8095300000000000    0.0157500000000000 H
   0.2364200000000000    0.7931800000000000    0.0187000000000000 H
   0.7364100000000000    0.7931800000000000    0.0187000000000000 H
   0.2162000000000000    0.7331100000000000    0.4869850000000000 H
   0.7161999999999999    0.7331100000000000    0.4869850000000000 H
   0.2224000000000000    0.8656100000000000    0.4647850000000000 H
   0.7224000000000000    0.8656100000000000    0.4647850000000000 H
   0.2982300000000000    0.8665400000000000    0.4369600000000000 H
   0.7982300000000000    0.8665300000000000    0.4369600000000000 H
   0.4566500000000000    0.8972500000000000    0.4862850000000000 H
   0.9566500000000000    0.8972500000000000    0.4862850000000000 H
   0.4044000000000000    0.8846200000000000    0.4492100000000000 H
   0.9043900000000000    0.8846200000000000    0.4492100000000000 H
   0.0540600000000000    0.7836200000000000    0.4262300000000000 H
   0.5540500000000000    0.7836200000000000    0.4262300000000000 H
   0.0401600000000000    0.8700700000000000    0.4339200000000000 H
   0.5401500000000000    0.8700700000000000    0.4339200000000000 H
   0.9872800000000000    0.7754200000000000    0.0122150000000000 H
   0.4872800000000000    0.7754300000000000    0.0122150000000000 H
   0.0629800000000000    0.8162400000000000    0.4934800000000000 H
   0.5629700000000000    0.8162400000000000    0.4934800000000000 H
   0.3318600000000000    0.1161300000000000    0.4965200000000000 H
   0.8318600000000000    0.1161300000000000    0.4965200000000000 H
   0.3789000000000000    0.1904900000000000    0.4842200000000000 H
   0.8788899999999999    0.1904900000000000    0.4842200000000000 H
   0.2364300000000000    0.2068400000000000    0.4812700000000000 H
   0.7364200000000000    0.2068400000000000    0.4812700000000000 H
   0.2162000000000000    0.2669100000000000    0.0130250000000000 H
   0.7161999999999999    0.2669100000000000    0.0130200000000000 H
   0.2224100000000000    0.1344100000000000    0.0352200000000000 H
   0.7224000000000000    0.1344100000000000    0.0352000000000000 H
   0.2982400000000000    0.1334900000000000    0.0630450000000000 H
   0.7982300000000000    0.1334900000000000    0.0630450000000000 H
   0.4566600000000000    0.1027700000000000    0.0137200000000000 H
   0.9566500000000000    0.1027700000000000    0.0137200000000000 H
   0.4044000000000000    0.1154000000000000    0.0507950000000000 H
   0.9043900000000000    0.1154000000000000    0.0507950000000000 H
   0.0540600000000000    0.2164000000000000    0.0737700000000000 H
   0.5540500000000000    0.2164000000000000    0.0737500000000000 H
   0.0401600000000000    0.1299500000000000    0.0660850000000000 H
   0.5401600000000000    0.1299500000000000    0.0660850000000000 H
   0.9872900000000000    0.2246000000000000    0.4877900000000000 H
   0.4872900000000000    0.2246000000000000    0.4877900000000000 H
   0.0629800000000000    0.1837800000000000    0.0065250000000000 H
   0.5629700000000000    0.1837800000000000    0.0065250000000000 H
   0.3318600000000000    0.9930500000000000    0.4419450000000000 H
   0.8318500000000000    0.9930500000000000    0.4419450000000000 H
   0.3789000000000000    0.9684400000000000    0.4047650000000000 H
   0.8788899999999999    0.9684400000000000    0.4047500000000000 H
   0.2364200000000000    0.9625400000000000    0.3965850000000000 H
   0.7364100000000000    0.9625400000000000    0.3965900000000000 H
   0.2162000000000000    0.0260500000000000    0.3665550000000000 H
   0.7161999999999999    0.0260500000000000    0.3665500000000000 H
   0.2224100000000000    0.0704500000000000    0.4328000000000000 H
   0.7224100000000000    0.0704500000000000    0.4328000000000000 H
   0.2982400000000000    0.1260900000000000    0.4332650000000000 H
   0.7982300000000000    0.1260900000000000    0.4332650000000000 H
   0.4566600000000000    0.0274400000000000    0.4486250000000000 H
   0.9566500000000000    0.0274400000000000    0.4486250000000000 H
   0.4044000000000000    0.1016000000000000    0.4423100000000000 H
   0.9044000000000000    0.1015900000000000    0.4423100000000000 H
   0.0540700000000000    0.1475500000000000    0.3918100000000000 H
   0.5540500000000000    0.1475500000000000    0.3918100000000000 H
   0.0401600000000000    0.1321800000000000    0.4350300000000000 H
   0.5401600000000000    0.1321700000000000    0.4350300000000000 H
   0.8129700000000000    0.5130700000000000    0.3418950000000000 H
   0.0818600000000000    0.5069900000000001    0.1919400000000000 H
   0.5818500000000000    0.5069900000000001    0.1919400000000000 H
   0.1289000000000000    0.5315900000000000    0.1547500000000000 H
   0.9872900000000000    0.9755800000000000    0.3877100000000000 H
   0.4872800000000000    0.9755800000000000    0.3877100000000000 H
   0.0629900000000000    0.0130600000000000    0.4081150000000000 H
   0.5629800000000000    0.0130600000000000    0.4081150000000000 H
   0.3318600000000000    0.0069800000000000    0.0580500000000000 H
   0.8318500000000000    0.0069800000000000    0.0580600000000000 H
   0.3789000000000000    0.0315800000000000    0.0952000000000000 H
   0.8788899999999999    0.0315800000000000    0.0952000000000000 H
   0.2364300000000000    0.0374800000000000    0.1034200000000000 H
   0.7364200000000000    0.0374800000000000    0.1034200000000000 H
   0.2161900000000000    0.9739700000000000    0.1334550000000000 H
   0.7161900000000000    0.9739700000000000    0.1334550000000000 H
   0.2224000000000000    0.9295700000000000    0.0672050000000000 H
   0.7223900000000000    0.9295800000000000    0.0672050000000000 H
   0.2982300000000000    0.8739300000000000    0.0667400000000000 H
   0.7982200000000000    0.8739300000000000    0.0667400000000000 H
   0.4566500000000000    0.9725800000000000    0.0513800000000000 H
   0.9566400000000000    0.9725800000000000    0.0513800000000000 H
   0.4043900000000000    0.8984300000000000    0.0576950000000000 H
   0.9043900000000000    0.8984300000000000    0.0576950000000000 H
   0.0540500000000000    0.8524700000000000    0.1081950000000000 H
   0.5540500000000000    0.8524700000000000    0.1081950000000000 H
   0.0401600000000000    0.8678500000000000    0.0649750000000000 H
   0.5401500000000000    0.8678500000000000    0.0649750000000000 H
   0.9872900000000000    0.0244400000000000    0.1122950000000000 H
   0.4872800000000000    0.0244400000000000    0.1122950000000000 H
   0.0629700000000000    0.9869599999999999    0.0918900000000000 H
   0.5629600000000000    0.9869599999999999    0.0918900000000000 H
   0.0818600000000000    0.3838800000000000    0.2465150000000000 H
   0.5818500000000000    0.3838800000000000    0.2465150000000000 H
   0.1289000000000000    0.3095200000000000    0.2342150000000000 H
   0.6289000000000000    0.3095200000000000    0.2342150000000000 H
   0.4864200000000000    0.2931700000000000    0.2312650000000000 H
   0.9864200000000000    0.2931700000000000    0.2312650000000000 H
   0.4662000000000000    0.2331000000000000    0.2630000000000000 H
   0.9661900000000000    0.2331000000000000    0.2630250000000000 H
   0.4724000000000000    0.3656000000000000    0.2852250000000000 H
   0.9724000000000000    0.3656000000000000    0.2852250000000000 H
   0.0482400000000000    0.3665300000000000    0.3130500000000000 H
   0.5482300000000000    0.3665200000000000    0.3130500000000000 H
   0.2066600000000000    0.3972400000000000    0.2637250000000000 H
   0.7066500000000000    0.3972400000000000    0.2637250000000000 H
   0.1544000000000000    0.3846100000000000    0.3008000000000000 H
   0.6544000000000000    0.3846100000000000    0.3008000000000000 H
   0.3040600000000000    0.2836100000000000    0.3237500000000000 H
   0.8040500000000000    0.2836100000000000    0.3237750000000000 H
   0.2901600000000000    0.3700600000000000    0.3160900000000000 H
   0.7901500000000000    0.3700600000000000    0.3160900000000000 H
   0.2372900000000000    0.2754200000000000    0.2377850000000000 H
   0.7372800000000000    0.2754100000000000    0.2377850000000000 H
   0.3129800000000000    0.3162300000000000    0.2565300000000000 H
   0.8129700000000000    0.3162300000000000    0.2565300000000000 H
   0.0818600000000000    0.6161400000000000    0.2534900000000000 H
   0.5818500000000000    0.6161400000000000    0.2534900000000000 H
   0.1289000000000000    0.6905000000000000    0.2657500000000000 H
   0.6288899999999999    0.6905000000000000    0.2657500000000000 H
   0.4864200000000000    0.7068500000000000    0.2687000000000000 H
   0.9864100000000000    0.7068500000000000    0.2687400000000000 H
   0.4661900000000000    0.7669200000000000    0.2369800000000000 H
   0.9661999999999999    0.7669300000000000    0.2369800000000000 H
   0.4724000000000000    0.6344200000000000    0.2147800000000000 H
   0.9723900000000000    0.6344200000000000    0.2147800000000000 H
   0.0482300000000000    0.6335000000000000    0.1869550000000000 H
   0.5482300000000000    0.6335000000000000    0.1869550000000000 H
   0.2066600000000000    0.6027800000000000    0.2362800000000000 H
   0.7066500000000000    0.6027800000000000    0.2362800000000000 H
   0.1544000000000000    0.6154100000000000    0.1992050000000000 H
   0.6544000000000000    0.6154100000000000    0.1992050000000000 H
   0.3040600000000000    0.7164100000000000    0.1762300000000000 H
   0.8040500000000000    0.7164100000000000    0.1762250000000000 H
   0.2901500000000000    0.6299600000000000    0.1839000000000000 H
   0.7901500000000000    0.6299600000000000    0.1839150000000000 H
   0.2372800000000000    0.7246100000000000    0.2622200000000000 H
   0.7372800000000000    0.7246100000000000    0.2622200000000000 H
   0.3129700000000000    0.6837900000000000    0.2434750000000000 H
   0.8129700000000000    0.6837900000000000    0.2434750000000000 H
   0.0818600000000000    0.4930400000000000    0.3080500000000000 H
   0.5818500000000000    0.4930400000000000    0.3080500000000000 H
   0.1289000000000000    0.4684300000000000    0.3452500000000000 H
   0.6288899999999999    0.4684300000000000    0.3452500000000000 H
   0.4864200000000000    0.4625300000000000    0.3534250000000000 H
   0.9864100000000000    0.4625300000000000    0.3534200000000000 H
   0.4662000000000000    0.5260600000000000    0.3834600000000000 H
   0.9661999999999999    0.5260500000000000    0.3834600000000000 H
   0.4724000000000000    0.5704600000000000    0.3172100000000000 H
   0.9723900000000000    0.5704600000000000    0.3172100000000000 H
   0.0482400000000000    0.6261000000000000    0.3167450000000000 H
   0.5482300000000000    0.6261000000000000    0.3167450000000000 H
   0.2066600000000000    0.5274500000000000    0.3013850000000000 H
   0.7066500000000000    0.5274500000000000    0.3013850000000000 H
   0.1544000000000000    0.6016000000000000    0.3077000000000000 H
   0.6544000000000000    0.6016100000000000    0.3077000000000000 H
   0.3040600000000000    0.6475500000000000    0.3582000000000000 H
   0.8040500000000000    0.6475600000000000    0.3582000000000000 H
   0.2901500000000000    0.6321900000000000    0.3149800000000000 H
   0.7901500000000000    0.6321900000000000    0.3149800000000000 H
   0.2372800000000000    0.4755700000000000    0.3623000000000000 H
   0.7372800000000000    0.4755700000000000    0.3623000000000000 H
   0.3129800000000000    0.5130700000000000    0.3418950000000000 H
   0.6288899999999999    0.5315900000000000    0.1547500000000000 H
   0.4864200000000000    0.5374900000000000    0.1465800000000000 H
   0.9864100000000000    0.5374900000000000    0.1465800000000000 H
   0.4662000000000000    0.4739600000000000    0.1165000000000000 H
   0.9661900000000000    0.4739600000000000    0.1165000000000000 H
   0.4724000000000000    0.4295600000000000    0.1827950000000000 H
   0.9724000000000000    0.4295600000000000    0.1827950000000000 H
   0.0482400000000000    0.3739200000000000    0.1832600000000000 H
   0.5482300000000000    0.3739200000000000    0.1832600000000000 H
   0.2066600000000000    0.4725700000000000    0.1986200000000000 H
   0.7066500000000000    0.4725700000000000    0.1986200000000000 H
   0.1544000000000000    0.3984200000000000    0.1923050000000000 H
   0.6544000000000000    0.3984200000000000    0.1923050000000000 H
   0.3040500000000000    0.3524600000000000    0.1418050000000000 H
   0.8040500000000000    0.3524600000000000    0.1418050000000000 H
   0.2901600000000000    0.3678400000000000    0.1850250000000000 H
   0.7901500000000000    0.3678400000000000    0.1850250000000000 H
   0.2372800000000000    0.5244500000000000    0.1377050000000000 H
   0.7372800000000000    0.5244500000000000    0.1377050000000000 H
   0.3129700000000000    0.4869500000000000    0.1581100000000000 H
   0.8129700000000000    0.4869500000000000    0.1581100000000000 H
   0.3318500000000000    0.8838900000000000    0.5034850000000000 H
   0.8318400000000000    0.8838900000000000    0.5034850000000000 H
   0.3788900000000000    0.8095300000000000    0.5157500000000000 H
   0.8788899999999999    0.8095300000000000    0.5157500000000000 H
   0.2364200000000000    0.7931800000000000    0.5187000000000000 H
   0.7364100000000000    0.7931800000000000    0.5187000000000000 H
   0.2162000000000000    0.7331100000000000    0.9869850000000000 H
   0.7161999999999999    0.7331100000000000    0.9869850000000000 H
   0.2224000000000000    0.8656100000000000    0.9647850000000000 H
   0.7224000000000000    0.8656100000000000    0.9647850000000000 H
   0.2982300000000000    0.8665400000000000    0.9369600000000000 H
   0.7982300000000000    0.8665300000000000    0.9369600000000000 H
   0.4566500000000000    0.8972500000000000    0.9862850000000001 H
   0.9566500000000000    0.8972500000000000    0.9862850000000001 H
   0.4044000000000000    0.8846200000000000    0.9492100000000000 H
   0.9043900000000000    0.8846200000000000    0.9492100000000000 H
   0.0540600000000000    0.7836200000000000    0.9262300000000000 H
   0.5540500000000000    0.7836200000000000    0.9262300000000000 H
   0.0401600000000000    0.8700700000000000    0.9339200000000000 H
   0.5401500000000000    0.8700700000000000    0.9339200000000000 H
   0.9872800000000000    0.7754200000000000    0.5122150000000000 H
   0.4872800000000000    0.7754300000000000    0.5122150000000000 H
   0.0629800000000000    0.8162400000000000    0.9934799999999999 H
   0.5629700000000000    0.8162400000000000    0.9934799999999999 H
   0.3318600000000000    0.1161300000000000    0.9965200000000001 H
   0.8318600000000000    0.1161300000000000    0.9965200000000001 H
   0.3789000000000000    0.1904900000000000    0.9842200000000000 H
   0.8788899999999999    0.1904900000000000    0.9842200000000000 H
   0.2364300000000000    0.2068400000000000    0.9812700000000000 H
   0.7364200000000000    0.2068400000000000    0.9812700000000000 H
   0.2162000000000000    0.2669100000000000    0.5130250000000000 H
   0.7161999999999999    0.2669100000000000    0.5130200000000000 H
   0.2224100000000000    0.1344100000000000    0.5352200000000000 H
   0.7224000000000000    0.1344100000000000    0.5352000000000000 H
   0.2982400000000000    0.1334900000000000    0.5630450000000000 H
   0.7982300000000000    0.1334900000000000    0.5630450000000000 H
   0.4566600000000000    0.1027700000000000    0.5137200000000000 H
   0.9566500000000000    0.1027700000000000    0.5137200000000000 H
   0.4044000000000000    0.1154000000000000    0.5507950000000000 H
   0.9043900000000000    0.1154000000000000    0.5507950000000000 H
   0.0540600000000000    0.2164000000000000    0.5737700000000000 H
   0.5540500000000000    0.2164000000000000    0.5737500000000000 H
   0.0401600000000000    0.1299500000000000    0.5660849999999999 H
   0.5401600000000000    0.1299500000000000    0.5660849999999999 H
   0.9872900000000000    0.2246000000000000    0.9877899999999999 H
   0.4872900000000000    0.2246000000000000    0.9877899999999999 H
   0.0629800000000000    0.1837800000000000    0.5065250000000000 H
   0.5629700000000000    0.1837800000000000    0.5065250000000000 H
   0.3318600000000000    0.9930500000000000    0.9419450000000000 H
   0.8318500000000000    0.9930500000000000    0.9419450000000000 H
   0.3789000000000000    0.9684400000000000    0.9047650000000000 H
   0.8788899999999999    0.9684400000000000    0.9047499999999999 H
   0.2364200000000000    0.9625400000000000    0.8965850000000000 H
   0.7364100000000000    0.9625400000000000    0.8965900000000000 H
   0.2162000000000000    0.0260500000000000    0.8665550000000000 H
   0.7161999999999999    0.0260500000000000    0.8665499999999999 H
   0.2224100000000000    0.0704500000000000    0.9328000000000001 H
   0.7224100000000000    0.0704500000000000    0.9328000000000001 H
   0.2982400000000000    0.1260900000000000    0.9332650000000000 H
   0.7982300000000000    0.1260900000000000    0.9332650000000000 H
   0.4566600000000000    0.0274400000000000    0.9486250000000001 H
   0.9566500000000000    0.0274400000000000    0.9486250000000001 H
   0.4044000000000000    0.1016000000000000    0.9423100000000000 H
   0.9044000000000000    0.1015900000000000    0.9423100000000000 H
   0.0540700000000000    0.1475500000000000    0.8918100000000000 H
   0.5540500000000000    0.1475500000000000    0.8918100000000000 H
   0.0401600000000000    0.1321800000000000    0.9350300000000000 H
   0.5401600000000000    0.1321700000000000    0.9350300000000000 H
   0.8129700000000000    0.5130700000000000    0.8418950000000001 H
   0.0818600000000000    0.5069900000000001    0.6919400000000000 H
   0.5818500000000000    0.5069900000000001    0.6919400000000000 H
   0.1289000000000000    0.5315900000000000    0.6547499999999999 H
   0.9872900000000000    0.9755800000000000    0.8877100000000000 H
   0.4872800000000000    0.9755800000000000    0.8877100000000000 H
   0.0629900000000000    0.0130600000000000    0.9081150000000000 H
   0.5629800000000000    0.0130600000000000    0.9081150000000000 H
   0.8318500000000000    0.0069800000000000    0.5580600000000000 H
   0.8788899999999999    0.0315800000000000    0.5952000000000000 H
   0.7364200000000000    0.0374800000000000    0.6034200000000000 H
   0.7161900000000000    0.9739700000000000    0.6334550000000000 H
   0.7223900000000000    0.9295800000000000    0.5672050000000000 H
   0.7982200000000000    0.8739300000000000    0.5667400000000000 H
   0.9566400000000000    0.9725800000000000    0.5513800000000000 H
   0.9043900000000000    0.8984300000000000    0.5576950000000001 H
   0.0540500000000000    0.8524700000000000    0.6081950000000000 H
   0.0401600000000000    0.8678500000000000    0.5649750000000000 H
   0.9872900000000000    0.0244400000000000    0.6122950000000000 H
   0.0629700000000000    0.9869599999999999    0.5918900000000000 H
   0.0818600000000000    0.3838800000000000    0.7465150000000000 H
   0.5818500000000000    0.3838800000000000    0.7465150000000000 H
   0.1289000000000000    0.3095200000000000    0.7342150000000001 H
   0.6289000000000000    0.3095200000000000    0.7342150000000001 H
   0.4864200000000000    0.2931700000000000    0.7312650000000001 H
   0.9864200000000000    0.2931700000000000    0.7312650000000001 H
   0.4662000000000000    0.2331000000000000    0.7630000000000000 H
   0.9661900000000000    0.2331000000000000    0.7630250000000001 H
   0.4724000000000000    0.3656000000000000    0.7852250000000001 H
   0.9724000000000000    0.3656000000000000    0.7852250000000001 H
   0.0482400000000000    0.3665300000000000    0.8130500000000001 H
   0.5482300000000000    0.3665200000000000    0.8130500000000001 H
   0.2066600000000000    0.3972400000000000    0.7637250000000000 H
   0.7066500000000000    0.3972400000000000    0.7637250000000000 H
   0.1544000000000000    0.3846100000000000    0.8008000000000000 H
   0.6544000000000000    0.3846100000000000    0.8008000000000000 H
   0.3040600000000000    0.2836100000000000    0.8237500000000000 H
   0.8040500000000000    0.2836100000000000    0.8237749999999999 H
   0.2901600000000000    0.3700600000000000    0.8160900000000000 H
   0.7901500000000000    0.3700600000000000    0.8160900000000000 H
   0.2372900000000000    0.2754200000000000    0.7377850000000000 H
   0.7372800000000000    0.2754100000000000    0.7377850000000000 H
   0.3129800000000000    0.3162300000000000    0.7565299999999999 H
   0.8129700000000000    0.3162300000000000    0.7565299999999999 H
   0.0818600000000000    0.6161400000000000    0.7534900000000000 H
   0.5818500000000000    0.6161400000000000    0.7534900000000000 H
   0.1289000000000000    0.6905000000000000    0.7657499999999999 H
   0.6288899999999999    0.6905000000000000    0.7657499999999999 H
   0.4864200000000000    0.7068500000000000    0.7686999999999999 H
   0.9864100000000000    0.7068500000000000    0.7687400000000000 H
   0.4661900000000000    0.7669200000000000    0.7369800000000000 H
   0.9661999999999999    0.7669300000000000    0.7369800000000000 H
   0.4724000000000000    0.6344200000000000    0.7147800000000000 H
   0.9723900000000000    0.6344200000000000    0.7147800000000000 H
   0.0482300000000000    0.6335000000000000    0.6869550000000000 H
   0.5482300000000000    0.6335000000000000    0.6869550000000000 H
   0.2066600000000000    0.6027800000000000    0.7362800000000000 H
   0.7066500000000000    0.6027800000000000    0.7362800000000000 H
   0.1544000000000000    0.6154100000000000    0.6992050000000000 H
   0.6544000000000000    0.6154100000000000    0.6992050000000000 H
   0.3040600000000000    0.7164100000000000    0.6762300000000000 H
   0.8040500000000000    0.7164100000000000    0.6762250000000000 H
   0.2901500000000000    0.6299600000000000    0.6839000000000000 H
   0.7901500000000000    0.6299600000000000    0.6839150000000001 H
   0.2372800000000000    0.7246100000000000    0.7622200000000000 H
   0.7372800000000000    0.7246100000000000    0.7622200000000000 H
   0.3129700000000000    0.6837900000000000    0.7434750000000000 H
   0.8129700000000000    0.6837900000000000    0.7434750000000000 H
   0.0818600000000000    0.4930400000000000    0.8080499999999999 H
   0.5818500000000000    0.4930400000000000    0.8080499999999999 H
   0.1289000000000000    0.4684300000000000    0.8452500000000001 H
   0.6288899999999999    0.4684300000000000    0.8452500000000001 H
   0.4864200000000000    0.4625300000000000    0.8534250000000000 H
   0.9864100000000000    0.4625300000000000    0.8534200000000001 H
   0.4662000000000000    0.5260600000000000    0.8834600000000000 H
   0.9661999999999999    0.5260500000000000    0.8834600000000000 H
   0.4724000000000000    0.5704600000000000    0.8172100000000000 H
   0.9723900000000000    0.5704600000000000    0.8172100000000000 H
   0.0482400000000000    0.6261000000000000    0.8167450000000001 H
   0.5482300000000000    0.6261000000000000    0.8167450000000001 H
   0.2066600000000000    0.5274500000000000    0.8013850000000000 H
   0.7066500000000000    0.5274500000000000    0.8013850000000000 H
   0.1544000000000000    0.6016000000000000    0.8077000000000000 H
   0.6544000000000000    0.6016100000000000    0.8077000000000000 H
   0.3040600000000000    0.6475500000000000    0.8582000000000001 H
   0.8040500000000000    0.6475600000000000    0.8582000000000001 H
   0.2901500000000000    0.6321900000000000    0.8149800000000000 H
   0.7901500000000000    0.6321900000000000    0.8149800000000000 H
   0.2372800000000000    0.4755700000000000    0.8623000000000001 H
   0.7372800000000000    0.4755700000000000    0.8623000000000001 H
   0.3129800000000000    0.5130700000000000    0.8418950000000001 H
   0.6288899999999999    0.5315900000000000    0.6547499999999999 H
   0.4864200000000000    0.5374900000000000    0.6465799999999999 H
   0.9864100000000000    0.5374900000000000    0.6465799999999999 H
   0.4662000000000000    0.4739600000000000    0.6165000000000000 H
   0.9661900000000000    0.4739600000000000    0.6165000000000000 H
   0.4724000000000000    0.4295600000000000    0.6827950000000000 H
   0.9724000000000000    0.4295600000000000    0.6827950000000000 H
   0.0482400000000000    0.3739200000000000    0.6832600000000000 H
   0.5482300000000000    0.3739200000000000    0.6832600000000000 H
   0.2066600000000000    0.4725700000000000    0.6986200000000000 H
   0.7066500000000000    0.4725700000000000    0.6986200000000000 H
   0.1544000000000000    0.3984200000000000    0.6923049999999999 H
   0.6544000000000000    0.3984200000000000    0.6923049999999999 H
   0.3040500000000000    0.3524600000000000    0.6418050000000000 H
   0.8040500000000000    0.3524600000000000    0.6418050000000000 H
   0.2901600000000000    0.3678400000000000    0.6850250000000000 H
   0.7901500000000000    0.3678400000000000    0.6850250000000000 H
   0.2372800000000000    0.5244500000000000    0.6377050000000000 H
   0.7372800000000000    0.5244500000000000    0.6377050000000000 H
   0.3129700000000000    0.4869500000000000    0.6581100000000000 H
   0.8129700000000000    0.4869500000000000    0.6581100000000000 H