H6 O4
1.0
  25.8806259144980295    0.0000000000000000   15.2746818714437733
   9.7413951111736434   22.8166198288771938   12.9853411534888217
   0.0000000000000000    0.0000000000000000   29.4819999999999993
H O
6 4
direct
   0.0977036764797941    0.3228681920380972    0.6820783740272719 H
   0.1004146213094483    0.2665843870685109    0.6442072175246424 H
   0.1067566874970920    0.2233706796564289    0.6102613561474081 H
   0.9023066309968020    0.1771586212238135    0.8178429911417389 H
   0.8996067537870556    0.2334310607207842    0.8557224244003703 H
   0.8932719556775947    0.2766343860971043    0.8896762553960635 H
   0.1124450000000000    0.3043400000000000    0.6537850000000001 O
   0.1147750000000000    0.2485350000000000    0.6166450000000000 O
   0.8875700000000000    0.1956800000000000    0.8461400000000000 O
   0.8852500000000000    0.2514750000000000    0.8832900000000000 O
