H8 C10 N3 O2
1.0
  39.9449999939160278    0.0000000000000000   -0.0006971717696783
  -0.0040594075971909   14.5369985475674248    0.0050743701641994
   0.0000000000000000    0.0000000000000000   29.0740000000000016
H C N O
8 10 3 2
direct
   0.4945400000000000    0.6952199999999999    0.3457100000000000 H
   0.4538066666666666    0.7831500000000000    0.2965350000000000 H
   0.3725300000000000    0.6771300000000000    0.3795000000000000 H
   0.4132000000000000    0.5898000000000000    0.4264000000000000 H
   0.3559433333333333    0.6675200000000000    0.2847000000000000 H
   0.4257200000000000    0.9663100000000000    0.2922500000000000 H
   0.4192500000000000    0.9225800000000000    0.3483800000000000 H
   0.3910300000000000    0.0000000000000000    0.3257150000000000 H
   0.4809866666666667    0.5868900000000000    0.4191000000000000 C
   0.4563433333333333    0.6368400000000000    0.3888000000000000 C
   0.4677300000000000    0.6919000000000000    0.3524050000000000 C
   0.4451900000000000    0.7405500000000000    0.3250500000000000 C
   0.4109833333333333    0.7336100000000000    0.3347200000000000 C
   0.3990733333333333    0.6794900000000000    0.3708950000000000 C
   0.4219466666666666    0.6311200000000000    0.3976650000000000 C
   0.3604433333333333    0.7410000000000000    0.2842550000000000 C
   0.3842833333333333    0.8740400000000000    0.2986850000000000 C
   0.4063833333333333    0.9465700000000000    0.3172950000000000 C
   0.3422733333333333    0.8028000000000000    0.2629200000000000 N
   0.3574133333333333    0.8865700000000000    0.2722000000000000 N
   0.3870100000000000    0.7812700000000000    0.3068000000000000 N
   0.4675066666666666    0.5384400000000000    0.4519500000000000 O
   0.5116666666666667    0.5942600000000000    0.4119700000000000 O
