Ag32 H155 C124 N62
1.0
  20.8477924686622842    0.0000000000000000  -10.3031680673270660
  -1.7044085306903451   11.4622764985619732   -1.0743616853852616
   0.0000000000000000    0.0000000000000000   23.3014000000000010
Ag H C N
32 155 124 62
direct
   0.4699750000000000    0.2479900000000000    0.2801800000000000 Ag
   0.1030350000000000    0.1430700000000000    0.0594600000000000 Ag
   0.0005900000000000    0.5018600000000000    0.2502350000000000 Ag
   0.4997400000000000    0.9981500000000000    0.2493950000000000 Ag
   0.3092350000000000    0.6440900000000001    0.3533250000000000 Ag
   0.0300400000000000    0.7520100000000000    0.2198300000000000 Ag
   0.3969800000000000    0.8569300000000000    0.4405550000000000 Ag
   0.1907800000000000    0.3559100000000000    0.1466850000000000 Ag
   0.9699750000000000    0.2479900000000000    0.2801800000000000 Ag
   0.6030350000000000    0.1430700000000000    0.0594600000000000 Ag
   0.5005900000000000    0.5018600000000000    0.2502350000000000 Ag
   0.9997400000000001    0.9981500000000000    0.2493950000000000 Ag
   0.8092349999999999    0.6440900000000001    0.3533250000000000 Ag
   0.5300400000000000    0.7520100000000000    0.2198300000000000 Ag
   0.8969800000000000    0.8569300000000000    0.4405550000000000 Ag
   0.6907799999999999    0.3559100000000000    0.1466850000000000 Ag
   0.4699750000000000    0.2479900000000000    0.7801800000000000 Ag
   0.1030350000000000    0.1430700000000000    0.5594600000000000 Ag
   0.0005900000000000    0.5018600000000000    0.7502350000000000 Ag
   0.4997400000000000    0.9981500000000000    0.7493950000000000 Ag
   0.3092350000000000    0.6440900000000001    0.8533250000000000 Ag
   0.0300400000000000    0.7520100000000000    0.7198300000000000 Ag
   0.3969800000000000    0.8569300000000000    0.9405550000000000 Ag
   0.1907800000000000    0.3559100000000000    0.6466850000000000 Ag
   0.9699750000000000    0.2479900000000000    0.7801800000000000 Ag
   0.6030350000000000    0.1430700000000000    0.5594600000000000 Ag
   0.5005900000000000    0.5018600000000000    0.7502350000000000 Ag
   0.9997400000000001    0.9981500000000000    0.7493950000000000 Ag
   0.8092349999999999    0.6440900000000001    0.8533250000000000 Ag
   0.5300400000000000    0.7520100000000000    0.7198300000000000 Ag
   0.8969800000000000    0.8569300000000000    0.9405550000000000 Ag
   0.6907799999999999    0.3559100000000000    0.6466850000000000 Ag
   0.2761600000000000    0.3386200000000000    0.0636700000000000 H
   0.4016400000000000    0.2862000000000000    0.1216400000000000 H
   0.2718500000000000    0.2658900000000000    0.2620000000000000 H
   0.3441750000000000    0.2010500000000000    0.2931350000000000 H
   0.3483700000000000    0.3552000000000000    0.3074300000000000 H
   0.1286600000000000    0.2085900000000000    0.3488900000000000 H
   0.1863450000000000    0.1572200000000000    0.4743450000000000 H
   0.4566000000000000    0.2967900000000000    0.4053600000000000 H
   0.4422250000000000    0.1428800000000000    0.4019500000000000 H
   0.4877150000000000    0.2333800000000000    0.4779800000000000 H
   0.4490950000000000    0.5555500000000000    0.4505400000000000 H
   0.0358350000000000    0.5004300000000000    0.4037150000000000 H
   0.3122300000000000    0.5697100000000000    0.2191150000000000 H
   0.3789000000000000    0.5931400000000000    0.2016350000000000 H
   0.3590800000000000    0.7108000000000000    0.2410350000000000 H
   0.0514750000000000    0.4454000000000000    0.0495750000000000 H
   0.4652750000000000    0.5027900000000000    0.0966850000000000 H
   0.1222750000000000    0.4105300000000000    0.2988650000000000 H
   0.1887450000000000    0.4319300000000000    0.2809350000000000 H
   0.1412800000000000    0.2915400000000000    0.2595450000000000 H
   0.0315750000000000    0.9313700000000000    0.4375400000000000 H
   0.0487950000000000    0.9069900000000000    0.3708400000000000 H
   0.0095600000000000    0.7898900000000000    0.3910800000000000 H
   0.2004300000000000    0.0544500000000000    0.1981600000000000 H
   0.1534850000000000    0.9972800000000001    0.2843500000000000 H
   0.4506800000000000    0.0893700000000000    0.1279400000000000 H
   0.4683650000000000    0.0669300000000000    0.0614450000000000 H
   0.4898550000000000    0.2077600000000000    0.1084850000000000 H
   0.2238500000000000    0.6613800000000000    0.4363400000000000 H
   0.0983750000000000    0.7138000000000000    0.3783750000000000 H
   0.2281600000000000    0.7341100000000000    0.2380150000000000 H
   0.1558400000000000    0.7989500000000000    0.2068800000000000 H
   0.1516450000000000    0.6448000000000000    0.1925850000000000 H
   0.3713550000000000    0.7914099999999999    0.1511250000000000 H
   0.3136650000000000    0.8427900000000000    0.0256700000000000 H
   0.0434150000000000    0.7032100000000000    0.0946550000000000 H
   0.0577900000000000    0.8571200000000000    0.0980650000000000 H
   0.0123000000000000    0.7666200000000000    0.0220350000000000 H
   0.7761600000000000    0.3386200000000000    0.0636700000000000 H
   0.9016400000000000    0.2862000000000000    0.1216400000000000 H
   0.7718499999999999    0.2658900000000000    0.2620000000000000 H
   0.8441750000000000    0.2010500000000000    0.2931350000000000 H
   0.8483700000000001    0.3552000000000000    0.3074300000000000 H
   0.6286600000000000    0.2085900000000000    0.3488900000000000 H
   0.6863450000000000    0.1572200000000000    0.4743450000000000 H
   0.9566000000000000    0.2967900000000000    0.4053600000000000 H
   0.9422250000000000    0.1428800000000000    0.4019500000000000 H
   0.9877150000000000    0.2333800000000000    0.4779800000000000 H
   0.9490950000000000    0.5555500000000000    0.4505400000000000 H
   0.5358350000000000    0.5004300000000000    0.4037150000000000 H
   0.8122300000000000    0.5697100000000000    0.2191150000000000 H
   0.8789000000000000    0.5931400000000000    0.2016350000000000 H
   0.8590800000000001    0.7108000000000000    0.2410350000000000 H
   0.5514750000000000    0.4454000000000000    0.0495750000000000 H
   0.9652750000000000    0.5027900000000000    0.0966850000000000 H
   0.6222750000000000    0.4105300000000000    0.2988650000000000 H
   0.6887449999999999    0.4319300000000000    0.2809350000000000 H
   0.6412800000000000    0.2915400000000000    0.2595450000000000 H
   0.7994550000000000    0.9446400000000000    0.3013100000000000 H
   0.8460650000000001    0.9995500000000000    0.2145450000000000 H
   0.7004300000000000    0.0544500000000000    0.1981600000000000 H
   0.6534850000000000    0.9972800000000001    0.2843500000000000 H
   0.9506800000000000    0.0893700000000000    0.1279400000000000 H
   0.9683649999999999    0.0669300000000000    0.0614450000000000 H
   0.9898549999999999    0.2077600000000000    0.1084850000000000 H
   0.7238500000000000    0.6613800000000000    0.4363400000000000 H
   0.5983750000000000    0.7138000000000000    0.3783750000000000 H
   0.7281600000000000    0.7341100000000000    0.2380150000000000 H
   0.6558400000000000    0.7989500000000000    0.2068800000000000 H
   0.6516450000000000    0.6448000000000000    0.1925850000000000 H
   0.8713550000000000    0.7914099999999999    0.1511250000000000 H
   0.8136650000000001    0.8427900000000000    0.0256700000000000 H
   0.5434150000000000    0.7032100000000000    0.0946550000000000 H
   0.5577900000000000    0.8571200000000000    0.0980650000000000 H
   0.5123000000000000    0.7666200000000000    0.0220350000000000 H
   0.2761600000000000    0.3386200000000000    0.5636700000000000 H
   0.4016400000000000    0.2862000000000000    0.6216400000000000 H
   0.2718500000000000    0.2658900000000000    0.7620000000000000 H
   0.3441750000000000    0.2010500000000000    0.7931349999999999 H
   0.3483700000000000    0.3552000000000000    0.8074300000000000 H
   0.1286600000000000    0.2085900000000000    0.8488899999999999 H
   0.1863450000000000    0.1572200000000000    0.9743450000000000 H
   0.4566000000000000    0.2967900000000000    0.9053599999999999 H
   0.4422250000000000    0.1428800000000000    0.9019500000000000 H
   0.4877150000000000    0.2333800000000000    0.9779800000000001 H
   0.4490950000000000    0.5555500000000000    0.9505399999999999 H
   0.0358350000000000    0.5004300000000000    0.9037150000000000 H
   0.3122300000000000    0.5697100000000000    0.7191149999999999 H
   0.3789000000000000    0.5931400000000000    0.7016350000000000 H
   0.3590800000000000    0.7108000000000000    0.7410350000000000 H
   0.0514750000000000    0.4454000000000000    0.5495750000000000 H
   0.4652750000000000    0.5027900000000000    0.5966850000000000 H
   0.1222750000000000    0.4105300000000000    0.7988649999999999 H
   0.1887450000000000    0.4319300000000000    0.7809349999999999 H
   0.1412800000000000    0.2915400000000000    0.7595450000000000 H
   0.2994550000000000    0.9446400000000000    0.8013100000000000 H
   0.3460650000000000    0.9995500000000000    0.7145450000000000 H
   0.0315750000000000    0.9313700000000000    0.9375400000000000 H
   0.0487950000000000    0.9069900000000000    0.8708400000000001 H
   0.0095600000000000    0.7898900000000000    0.8910800000000000 H
   0.2004300000000000    0.0544500000000000    0.6981600000000000 H
   0.1534850000000000    0.9972800000000001    0.7843500000000000 H
   0.4506800000000000    0.0893700000000000    0.6279399999999999 H
   0.4683650000000000    0.0669300000000000    0.5614450000000000 H
   0.4898550000000000    0.2077600000000000    0.6084849999999999 H
   0.2238500000000000    0.6613800000000000    0.9363400000000000 H
   0.0983750000000000    0.7138000000000000    0.8783750000000000 H
   0.2281600000000000    0.7341100000000000    0.7380150000000000 H
   0.1558400000000000    0.7989500000000000    0.7068800000000000 H
   0.1516450000000000    0.6448000000000000    0.6925850000000000 H
   0.3713550000000000    0.7914099999999999    0.6511250000000000 H
   0.3136650000000000    0.8427900000000000    0.5256700000000000 H
   0.0434150000000000    0.7032100000000000    0.5946550000000000 H
   0.0577900000000000    0.8571200000000000    0.5980650000000000 H
   0.0123000000000000    0.7666200000000000    0.5220350000000000 H
   0.7761600000000000    0.3386200000000000    0.5636700000000000 H
   0.9016400000000000    0.2862000000000000    0.6216400000000000 H
   0.7718499999999999    0.2658900000000000    0.7620000000000000 H
   0.8441750000000000    0.2010500000000000    0.7931349999999999 H
   0.8483700000000001    0.3552000000000000    0.8074300000000000 H
   0.6286600000000000    0.2085900000000000    0.8488899999999999 H
   0.6863450000000000    0.1572200000000000    0.9743450000000000 H
   0.9566000000000000    0.2967900000000000    0.9053599999999999 H
   0.9422250000000000    0.1428800000000000    0.9019500000000000 H
   0.9877150000000000    0.2333800000000000    0.9779800000000001 H
   0.9490950000000000    0.5555500000000000    0.9505399999999999 H
   0.5358350000000000    0.5004300000000000    0.9037150000000000 H
   0.8122300000000000    0.5697100000000000    0.7191149999999999 H
   0.8789000000000000    0.5931400000000000    0.7016350000000000 H
   0.8590800000000001    0.7108000000000000    0.7410350000000000 H
   0.5514750000000000    0.4454000000000000    0.5495750000000000 H
   0.9652750000000000    0.5027900000000000    0.5966850000000000 H
   0.6222750000000000    0.4105300000000000    0.7988649999999999 H
   0.6887449999999999    0.4319300000000000    0.7809349999999999 H
   0.6412800000000000    0.2915400000000000    0.7595450000000000 H
   0.7994550000000000    0.9446400000000000    0.8013100000000000 H
   0.8460650000000001    0.9995500000000000    0.7145450000000000 H
   0.5315750000000000    0.9313700000000000    0.9375400000000000 H
   0.5487950000000000    0.9069900000000000    0.8708400000000001 H
   0.5095600000000000    0.7898900000000000    0.8910800000000000 H
   0.7004300000000000    0.0544500000000000    0.6981600000000000 H
   0.6534850000000000    0.9972800000000001    0.7843500000000000 H
   0.9506800000000000    0.0893700000000000    0.6279399999999999 H
   0.9683649999999999    0.0669300000000000    0.5614450000000000 H
   0.9898549999999999    0.2077600000000000    0.6084849999999999 H
   0.7238500000000000    0.6613800000000000    0.9363400000000000 H
   0.5983750000000000    0.7138000000000000    0.8783750000000000 H
   0.7281600000000000    0.7341100000000000    0.7380150000000000 H
   0.6558400000000000    0.7989500000000000    0.7068800000000000 H
   0.6516450000000000    0.6448000000000000    0.6925850000000000 H
   0.8713550000000000    0.7914099999999999    0.6511250000000000 H
   0.8136650000000001    0.8427900000000000    0.5256700000000000 H
   0.5434150000000000    0.7032100000000000    0.5946550000000000 H
   0.5577900000000000    0.8571200000000000    0.5980650000000000 H
   0.5123000000000000    0.7666200000000000    0.5220350000000000 H
   0.3277150000000000    0.2856600000000000    0.2104950000000000 C
   0.3047100000000000    0.3181800000000000    0.1118600000000000 C
   0.3668300000000000    0.2917900000000000    0.1405350000000000 C
   0.3228650000000000    0.2764300000000000    0.2715500000000000 C
   0.0393700000000000    0.2114800000000000    0.4223800000000000 C
   0.1096000000000000    0.2037400000000000    0.3835650000000000 C
   0.1381550000000000    0.1779400000000000    0.4456800000000000 C
   0.4781850000000000    0.2217100000000000    0.4270700000000000 C
   0.4057550000000000    0.5853300000000000    0.3012450000000000 C
   0.4463900000000000    0.5581100000000000    0.4030200000000000 C
   0.4895350000000000    0.5315299999999999    0.3799900000000000 C
   0.3616350000000000    0.6165800000000000    0.2373950000000000 C
   0.0950900000000000    0.4170300000000000    0.1990850000000000 C
   0.0543150000000000    0.4434700000000000    0.0971850000000000 C
   0.0114400000000000    0.4712000000000000    0.1203650000000000 C
   0.1392000000000000    0.3859200000000000    0.2629700000000000 C
   0.0131200000000000    0.8839900000000001    0.3882900000000000 C
   0.0506000000000000    0.0826300000000000    0.1548250000000000 C
   0.1527450000000000    0.0563400000000000    0.1954000000000000 C
   0.1296550000000000    0.0287300000000000    0.2382700000000000 C
   0.4865000000000000    0.1134900000000000    0.1108300000000000 C
   0.1723000000000000    0.7143400000000000    0.2895200000000000 C
   0.1953050000000000    0.6818200000000000    0.3881550000000000 C
   0.1331850000000000    0.7082100000000000    0.3594800000000000 C
   0.1771500000000000    0.7235700000000000    0.2284650000000000 C
   0.4606450000000000    0.7885200000000000    0.0776350000000000 C
   0.3904150000000000    0.7962600000000000    0.1164500000000000 C
   0.3618600000000000    0.8220700000000000    0.0543350000000000 C
   0.0218300000000000    0.7783000000000000    0.0729450000000000 C
   0.8277150000000000    0.2856600000000000    0.2104950000000000 C
   0.8047100000000000    0.3181800000000000    0.1118600000000000 C
   0.8668300000000000    0.2917900000000000    0.1405350000000000 C
   0.8228650000000000    0.2764300000000000    0.2715500000000000 C
   0.5393700000000000    0.2114800000000000    0.4223800000000000 C
   0.6096000000000000    0.2037400000000000    0.3835650000000000 C
   0.6381550000000000    0.1779400000000000    0.4456800000000000 C
   0.9781850000000001    0.2217100000000000    0.4270700000000000 C
   0.9057550000000000    0.5853300000000000    0.3012450000000000 C
   0.9463900000000001    0.5581100000000000    0.4030200000000000 C
   0.9895350000000001    0.5315299999999999    0.3799900000000000 C
   0.8616349999999999    0.6165800000000000    0.2373950000000000 C
   0.5950900000000000    0.4170300000000000    0.1990850000000000 C
   0.5543150000000000    0.4434700000000000    0.0971850000000000 C
   0.5114400000000000    0.4712000000000000    0.1203650000000000 C
   0.6392000000000000    0.3859200000000000    0.2629700000000000 C
   0.9490499999999999    0.9150199999999999    0.3443100000000000 C
   0.8470350000000000    0.9421000000000000    0.3039100000000000 C
   0.8699600000000001    0.9685800000000000    0.2607550000000000 C
   0.5506000000000000    0.0826300000000000    0.1548250000000000 C
   0.6527450000000000    0.0563400000000000    0.1954000000000000 C
   0.6296550000000000    0.0287300000000000    0.2382700000000000 C
   0.9864999999999999    0.1134900000000000    0.1108300000000000 C
   0.6723000000000000    0.7143400000000000    0.2895200000000000 C
   0.6953050000000001    0.6818200000000000    0.3881550000000000 C
   0.6331850000000000    0.7082100000000000    0.3594800000000000 C
   0.6771500000000000    0.7235700000000000    0.2284650000000000 C
   0.9606450000000000    0.7885200000000000    0.0776350000000000 C
   0.8904150000000000    0.7962600000000000    0.1164500000000000 C
   0.8618600000000001    0.8220700000000000    0.0543350000000000 C
   0.5218300000000000    0.7783000000000000    0.0729450000000000 C
   0.3277150000000000    0.2856600000000000    0.7104950000000000 C
   0.3047100000000000    0.3181800000000000    0.6118600000000000 C
   0.3668300000000000    0.2917900000000000    0.6405350000000000 C
   0.3228650000000000    0.2764300000000000    0.7715500000000000 C
   0.0393700000000000    0.2114800000000000    0.9223800000000000 C
   0.1096000000000000    0.2037400000000000    0.8835649999999999 C
   0.1381550000000000    0.1779400000000000    0.9456800000000001 C
   0.4781850000000000    0.2217100000000000    0.9270700000000001 C
   0.4057550000000000    0.5853300000000000    0.8012450000000000 C
   0.4463900000000000    0.5581100000000000    0.9030199999999999 C
   0.4895350000000000    0.5315299999999999    0.8799900000000000 C
   0.3616350000000000    0.6165800000000000    0.7373950000000000 C
   0.0950900000000000    0.4170300000000000    0.6990850000000000 C
   0.0543150000000000    0.4434700000000000    0.5971850000000000 C
   0.0114400000000000    0.4712000000000000    0.6203650000000001 C
   0.1392000000000000    0.3859200000000000    0.7629699999999999 C
   0.4490500000000000    0.9150199999999999    0.8443100000000000 C
   0.3470350000000000    0.9421000000000000    0.8039100000000000 C
   0.3699600000000000    0.9685800000000000    0.7607550000000001 C
   0.0131200000000000    0.8839900000000001    0.8882900000000000 C
   0.0506000000000000    0.0826300000000000    0.6548250000000000 C
   0.1527450000000000    0.0563400000000000    0.6954000000000000 C
   0.1296550000000000    0.0287300000000000    0.7382700000000000 C
   0.4865000000000000    0.1134900000000000    0.6108300000000000 C
   0.1723000000000000    0.7143400000000000    0.7895200000000000 C
   0.1953050000000000    0.6818200000000000    0.8881550000000000 C
   0.1331850000000000    0.7082100000000000    0.8594800000000000 C
   0.1771500000000000    0.7235700000000000    0.7284650000000000 C
   0.4606450000000000    0.7885200000000000    0.5776350000000000 C
   0.3904150000000000    0.7962600000000000    0.6164499999999999 C
   0.3618600000000000    0.8220700000000000    0.5543350000000000 C
   0.0218300000000000    0.7783000000000000    0.5729450000000000 C
   0.8277150000000000    0.2856600000000000    0.7104950000000000 C
   0.8047100000000000    0.3181800000000000    0.6118600000000000 C
   0.8668300000000000    0.2917900000000000    0.6405350000000000 C
   0.8228650000000000    0.2764300000000000    0.7715500000000000 C
   0.5393700000000000    0.2114800000000000    0.9223800000000000 C
   0.6096000000000000    0.2037400000000000    0.8835649999999999 C
   0.6381550000000000    0.1779400000000000    0.9456800000000001 C
   0.9781850000000001    0.2217100000000000    0.9270700000000001 C
   0.9057550000000000    0.5853300000000000    0.8012450000000000 C
   0.9463900000000001    0.5581100000000000    0.9030199999999999 C
   0.9895350000000001    0.5315299999999999    0.8799900000000000 C
   0.8616349999999999    0.6165800000000000    0.7373950000000000 C
   0.5950900000000000    0.4170300000000000    0.6990850000000000 C
   0.5543150000000000    0.4434700000000000    0.5971850000000000 C
   0.5114400000000000    0.4712000000000000    0.6203650000000001 C
   0.6392000000000000    0.3859200000000000    0.7629699999999999 C
   0.9490499999999999    0.9150199999999999    0.8443100000000000 C
   0.8470350000000000    0.9421000000000000    0.8039100000000000 C
   0.8699600000000001    0.9685800000000000    0.7607550000000001 C
   0.5131200000000000    0.8839900000000001    0.8882900000000000 C
   0.5506000000000000    0.0826300000000000    0.6548250000000000 C
   0.6527450000000000    0.0563400000000000    0.6954000000000000 C
   0.6296550000000000    0.0287300000000000    0.7382700000000000 C
   0.9864999999999999    0.1134900000000000    0.6108300000000000 C
   0.6723000000000000    0.7143400000000000    0.7895200000000000 C
   0.6953050000000001    0.6818200000000000    0.8881550000000000 C
   0.6331850000000000    0.7082100000000000    0.8594800000000000 C
   0.6771500000000000    0.7235700000000000    0.7284650000000000 C
   0.9606450000000000    0.7885200000000000    0.5776350000000000 C
   0.8904150000000000    0.7962600000000000    0.6164499999999999 C
   0.8618600000000001    0.8220700000000000    0.5543350000000000 C
   0.5218300000000000    0.7783000000000000    0.5729450000000000 C
   0.2800750000000000    0.3140500000000000    0.1561400000000000 N
   0.3810750000000000    0.2706300000000000    0.2026750000000000 N
   0.0473700000000000    0.2255500000000000    0.3691300000000000 N
   0.0937000000000000    0.1830800000000000    0.4701250000000000 N
   0.3934850000000000    0.5916900000000000    0.3531050000000000 N
   0.4636700000000000    0.5489000000000001    0.3157400000000000 N
   0.0373950000000000    0.4543300000000000    0.1846950000000000 N
   0.1071350000000000    0.4096600000000000    0.1470850000000000 N
   0.0651700000000000    0.0455000000000000    0.2124450000000000 N
   0.1026400000000000    0.0900000000000000    0.1427150000000000 N
   0.2199400000000000    0.6859499999999999    0.3438750000000000 N
   0.1189400000000000    0.7293700000000000    0.2973400000000000 N
   0.4526400000000000    0.7744500000000000    0.1308800000000000 N
   0.4063150000000000    0.8169300000000000    0.0298900000000000 N
   0.7800750000000001    0.3140500000000000    0.1561400000000000 N
   0.8810750000000001    0.2706300000000000    0.2026750000000000 N
   0.5473700000000000    0.2255500000000000    0.3691300000000000 N
   0.5937000000000000    0.1830800000000000    0.4701250000000000 N
   0.8934850000000000    0.5916900000000000    0.3531050000000000 N
   0.9636700000000000    0.5489000000000001    0.3157400000000000 N
   0.5373950000000000    0.4543300000000000    0.1846950000000000 N
   0.6071350000000000    0.4096600000000000    0.1470850000000000 N
   0.8971650000000000    0.9086600000000000    0.3566600000000000 N
   0.9343600000000001    0.9512900000000000    0.2864700000000000 N
   0.5651700000000000    0.0455000000000000    0.2124450000000000 N
   0.6026400000000000    0.0900000000000000    0.1427150000000000 N
   0.7199400000000000    0.6859499999999999    0.3438750000000000 N
   0.6189400000000000    0.7293700000000000    0.2973400000000000 N
   0.9526399999999999    0.7744500000000000    0.1308800000000000 N
   0.9063150000000000    0.8169300000000000    0.0298900000000000 N
   0.2800750000000000    0.3140500000000000    0.6561399999999999 N
   0.3810750000000000    0.2706300000000000    0.7026749999999999 N
   0.0473700000000000    0.2255500000000000    0.8691300000000000 N
   0.0937000000000000    0.1830800000000000    0.9701250000000000 N
   0.3934850000000000    0.5916900000000000    0.8531050000000000 N
   0.4636700000000000    0.5489000000000001    0.8157400000000000 N
   0.0373950000000000    0.4543300000000000    0.6846950000000001 N
   0.1071350000000000    0.4096600000000000    0.6470850000000000 N
   0.3971650000000000    0.9086600000000000    0.8566600000000000 N
   0.4343600000000000    0.9512900000000000    0.7864700000000000 N
   0.0651700000000000    0.0455000000000000    0.7124450000000000 N
   0.1026400000000000    0.0900000000000000    0.6427150000000000 N
   0.2199400000000000    0.6859499999999999    0.8438749999999999 N
   0.1189400000000000    0.7293700000000000    0.7973399999999999 N
   0.4526400000000000    0.7744500000000000    0.6308800000000000 N
   0.4063150000000000    0.8169300000000000    0.5298900000000000 N
   0.7800750000000001    0.3140500000000000    0.6561399999999999 N
   0.8810750000000001    0.2706300000000000    0.7026749999999999 N
   0.5473700000000000    0.2255500000000000    0.8691300000000000 N
   0.5937000000000000    0.1830800000000000    0.9701250000000000 N
   0.8934850000000000    0.5916900000000000    0.8531050000000000 N
   0.9636700000000000    0.5489000000000001    0.8157400000000000 N
   0.5373950000000000    0.4543300000000000    0.6846950000000001 N
   0.6071350000000000    0.4096600000000000    0.6470850000000000 N
   0.8971650000000000    0.9086600000000000    0.8566600000000000 N
   0.9343600000000001    0.9512900000000000    0.7864700000000000 N
   0.5651700000000000    0.0455000000000000    0.7124450000000000 N
   0.6026400000000000    0.0900000000000000    0.6427150000000000 N
   0.7199400000000000    0.6859499999999999    0.8438749999999999 N
   0.6189400000000000    0.7293700000000000    0.7973399999999999 N
   0.9526399999999999    0.7744500000000000    0.6308800000000000 N
   0.9063150000000000    0.8169300000000000    0.5298900000000000 N
