H18 C20 N4
1.0
  37.3949969870359951    0.0000000000000000    0.0150113146938514
  -0.0019506356270032   15.9679998711278444   -0.0005573883498013
   0.0000000000000000    0.0000000000000000   15.9719999999999995
H C N
18 20 4
direct
   0.5817466666666666    0.4044000000000000    0.1767200000000000 H
   0.5801799999999999    0.3757900000000000    0.0705500000000000 H
   0.5436433333333333    0.2795400000000000    0.1613400000000000 H
   0.5778099999999999    0.2248400000000000    0.1076700000000000 H
   0.5795699999999999    0.2826100000000000    0.2903800000000000 H
   0.5821666666666667    0.0548900000000000    0.3580300000000000 H
   0.5796766666666666    0.1552600000000000    0.3991000000000000 H
   0.5444700000000000    0.1526700000000000    0.2699900000000000 H
   0.5800266666666667    0.1078600000000000    0.2119400000000000 H
   0.7537699999999999    0.2903800000000000    0.2825700000000000 H
   0.7511900000000000    0.3580300000000000    0.0549000000000000 H
   0.7536600000000000    0.3991200000000000    0.1552400000000000 H
   0.7888866666666666    0.2699700000000000    0.1526600000000000 H
   0.7533333333333333    0.2119000000000000    0.1078000000000000 H
   0.7515966666666667    0.1766900000000000    0.4043500000000000 H
   0.7531700000000000    0.0705000000000000    0.3757400000000000 H
   0.7897099999999999    0.1613000000000000    0.2795000000000000 H
   0.7555433333333332    0.1076400000000000    0.2248300000000000 H
   0.6474666666666666    0.2915100000000000    0.1848800000000000 C
   0.6298233333333333    0.3497700000000000    0.1312200000000000 C
   0.5898066666666666    0.3549800000000000    0.1321200000000000 C
   0.5727800000000000    0.2715600000000000    0.1571800000000000 C
   0.6301633333333333    0.1260800000000000    0.3455500000000000 C
   0.6476333333333333    0.1837000000000000    0.2907800000000000 C
   0.6281300000000000    0.2379800000000000    0.2384000000000000 C
   0.5877599999999999    0.2386400000000000    0.2401300000000000 C
   0.5901700000000000    0.1198000000000000    0.3451100000000000 C
   0.5737266666666667    0.1515000000000000    0.2634000000000000 C
   0.7031833333333333    0.3455700000000000    0.1260900000000000 C
   0.6857166666666666    0.2907300000000000    0.1836500000000000 C
   0.7052200000000000    0.2384300000000000    0.2380000000000000 C
   0.7455866666666666    0.2401100000000000    0.2386200000000000 C
   0.7431766666666666    0.3451100000000000    0.1190000000000000 C
   0.7596266666666667    0.2634300000000000    0.1515000000000000 C
   0.6858833333333333    0.1848300000000000    0.2914600000000000 C
   0.7035233333333333    0.1312300000000000    0.3497800000000000 C
   0.7435433333333333    0.1320900000000000    0.3549400000000000 C
   0.7605733333333333    0.1571500000000000    0.2715000000000000 C
   0.6478333333333333    0.4013900000000000    0.0811100000000000 N
   0.6483399999999999    0.0774100000000000    0.3982300000000000 N
   0.6850100000000000    0.3982800000000000    0.0774400000000000 N
   0.6855100000000000    0.0811700000000000    0.4014200000000000 N
