H8 O4
1.0
  37.3949969870359951    0.0000000000000000    0.0150113146938514
  -0.0019506356270032   15.9679998711278444   -0.0005573883498013
   0.0000000000000000    0.0000000000000000   15.9719999999999995
H O
8 4
direct
   0.6531151983745416    0.0939070357406529    0.3594892011786751 H
   0.6349878129858296    0.1131619315228132    0.3595324090277009 H
   0.6600595576984728    0.1065658417757548    0.4425760698420049 H
   0.6987501046164724    0.1179649465451855    0.3634637267360492 H
   0.6802043155004109    0.3594039832899988    0.0937475570523199 H
   0.6983594986169894    0.3595610671991097    0.1131765980034778 H
   0.6732915326478675    0.4426478474236712    0.1065714425549761 H
   0.6345978139305043    0.3634545468309809    0.1179357566505143 H
   0.6483399999999999    0.0774100000000000    0.3982300000000000 O
   0.6855100000000000    0.0811700000000000    0.4014200000000000 O
   0.6850100000000000    0.3982800000000000    0.0774400000000000 O
   0.6478333333333333    0.4013900000000000    0.0811100000000000 O
