Cu24 H206 C220 N44 Cl24 O4
1.0
  37.3949969870359951    0.0000000000000000    0.0150113146938514
  -0.0019506356270032   15.9679998711278444   -0.0005573883498013
   0.0000000000000000    0.0000000000000000   15.9719999999999995
Cu H C N Cl O
24 206 220 44 24 4
direct
   0.0414766666666667    0.4784000000000000    0.9974800000000000 Cu
   0.1252066666666667    0.0024600000000000    0.5216400000000000 Cu
   0.2085333333333333    0.9784100000000000    0.5024800000000000 Cu
   0.1248000000000000    0.5024800000000000    0.9783600000000000 Cu
   0.3751900000000000    0.0216600000000000    0.4974000000000000 Cu
   0.2914933333333333    0.4974800000000000    0.0216400000000000 Cu
   0.2918633333333333    0.9975100000000000    0.4783000000000000 Cu
   0.2081466666666666    0.5216800000000000    0.0024800000000000 Cu
   0.3748100000000000    0.4784000000000000    0.9974800000000000 Cu
   0.4585399999999999    0.0024600000000000    0.5216400000000000 Cu
   0.5418666666666667    0.9784100000000000    0.5024800000000000 Cu
   0.4581333333333333    0.5024800000000000    0.9783600000000000 Cu
   0.7085233333333333    0.0216600000000000    0.4974000000000000 Cu
   0.7081433333333333    0.4784000000000000    0.9974800000000000 Cu
   0.7918733333333333    0.0024600000000000    0.5216400000000000 Cu
   0.6251966666666666    0.9975100000000000    0.4783000000000000 Cu
   0.6248266666666666    0.4974800000000000    0.0216400000000000 Cu
   0.5414800000000000    0.5216800000000000    0.0024800000000000 Cu
   0.8752000000000000    0.9784100000000000    0.5024800000000000 Cu
   0.7914666666666667    0.5024800000000000    0.9783600000000000 Cu
   0.0418566666666667    0.0216600000000000    0.4974000000000000 Cu
   0.9581599999999999    0.4974800000000000    0.0216400000000000 Cu
   0.9585299999999999    0.9975100000000000    0.4783000000000000 Cu
   0.8748133333333332    0.5216800000000000    0.0024800000000000 Cu
   0.2063833333333333    0.2204000000000000    0.6612600000000000 H
   0.1722300000000000    0.2751100000000000    0.6076200000000000 H
   0.9603033333333333    0.3387700000000000    0.7795500000000000 H
   0.9944799999999999    0.3924200000000000    0.7248500000000000 H
   0.2055433333333333    0.3472800000000000    0.7699000000000000 H
   0.1700000000000000    0.3921100000000000    0.7118900000000000 H
   0.9611433333333332    0.2300700000000000    0.6527300000000000 H
   0.9967033333333333    0.2881300000000000    0.6079100000000000 H
   0.1704233333333333    0.2173700000000000    0.7903300000000000 H
   0.9962299999999999    0.2096800000000000    0.7825900000000000 H
   0.9988566666666666    0.1420100000000000    0.5549200000000000 H
   0.9963599999999999    0.1009200000000000    0.6552600000000000 H
   0.1678333333333333    0.4450900000000000    0.8579000000000000 H
   0.1703100000000000    0.3447200000000000    0.8990500000000000 H
   0.9968266666666666    0.4295600000000000    0.8757600000000000 H
   0.9983866666666666    0.3233700000000000    0.9043600000000001 H
   0.1698666666666667    0.1241500000000000    0.5705200000000000 H
   0.1682633333333333    0.0955700000000000    0.6766900000000000 H
   0.0436233333333333    0.7204300000000000    0.8387600000000000 H
   0.0777866666666667    0.7751500000000000    0.8923800000000000 H
   0.2897200000000000    0.8387700000000000    0.7203600000000000 H
   0.2555500000000000    0.8924299999999999    0.7750700000000000 H
   0.2888766666666667    0.7301000000000000    0.8472100000000000 H
   0.2533233333333333    0.7881400000000000    0.8920400000000001 H
   0.0444666666666667    0.8472900000000000    0.7301100000000000 H
   0.0800166666666667    0.8921200000000000    0.7881000000000000 H
   0.0795766666666667    0.7173800000000000    0.7096900000000000 H
   0.2537766666666667    0.7096700000000000    0.7173500000000000 H
   0.0821900000000000    0.9451100000000000    0.6420500000000000 H
   0.0796966666666667    0.8447400000000000    0.6009000000000000 H
   0.2532033333333333    0.9295300000000000    0.6241500000000000 H
   0.2516233333333333    0.8233300000000000    0.5955700000000000 H
   0.2511600000000000    0.6420300000000000    0.9450200000000000 H
   0.2536500000000000    0.6009300000000000    0.8446800000000000 H
   0.0801366666666667    0.6241900000000000    0.9295000000000000 H
   0.0817333333333333    0.5955900000000000    0.8233300000000000 H
   0.4555533333333333    0.2699700000000000    0.1526600000000000 H
   0.4200000000000000    0.2119000000000000    0.1078000000000000 H
   0.4563766666666667    0.1613000000000000    0.2795000000000000 H
   0.4222100000000000    0.1076400000000000    0.2248300000000000 H
   0.2103100000000000    0.2795400000000000    0.1613400000000000 H
   0.2444766666666667    0.2248400000000000    0.1076700000000000 H
   0.2111366666666667    0.1526700000000000    0.2699900000000000 H
   0.2466933333333333    0.1078600000000000    0.2119400000000000 H
   0.2462366666666667    0.2826100000000000    0.2903800000000000 H
   0.4204366666666666    0.2903800000000000    0.2825700000000000 H
   0.4178566666666667    0.3580300000000000    0.0549000000000000 H
   0.4203266666666666    0.3991200000000000    0.1552400000000000 H
   0.2488333333333334    0.0548900000000000    0.3580300000000000 H
   0.2463433333333333    0.1552600000000000    0.3991000000000000 H
   0.4198366666666666    0.0705000000000000    0.3757400000000000 H
   0.4182633333333333    0.1766900000000000    0.4043500000000000 H
   0.2468466666666667    0.3757900000000000    0.0705500000000000 H
   0.2484133333333333    0.4044000000000000    0.1767200000000000 H
   0.1269666666666667    0.6613200000000000    0.2204300000000000 H
   0.1611200000000000    0.6076500000000000    0.2751000000000000 H
   0.3730333333333333    0.7795600000000000    0.3386800000000000 H
   0.3388600000000000    0.7248599999999999    0.3923300000000000 H
   0.1277900000000000    0.7699800000000000    0.3472900000000000 H
   0.1633366666666667    0.7119300000000000    0.3920800000000000 H
   0.3722033333333333    0.6526800000000000    0.2300300000000000 H
   0.3366366666666666    0.6078800000000000    0.2880800000000000 H
   0.1629166666666667    0.7904099999999999    0.2173900000000000 H
   0.3371133333333333    0.7826100000000000    0.2096400000000000 H
   0.1654900000000000    0.8580500000000000    0.4450600000000000 H
   0.1630233333333333    0.8991400000000001    0.3447200000000000 H
   0.3365000000000000    0.8758100000000000    0.4294600000000000 H
   0.3349366666666667    0.9044200000000000    0.3232900000000000 H
   0.3345000000000000    0.5548800000000000    0.1420000000000000 H
   0.3370000000000000    0.6552400000000000    0.1009200000000000 H
   0.1635000000000000    0.5705500000000000    0.1241800000000000 H
   0.1650833333333333    0.6767500000000000    0.0956000000000000 H
   0.5397166666666666    0.2204000000000000    0.6612600000000000 H
   0.5055633333333334    0.2751100000000000    0.6076200000000000 H
   0.2936366666666667    0.3387700000000000    0.7795500000000000 H
   0.3278133333333333    0.3924200000000000    0.7248500000000000 H
   0.5388766666666667    0.3472800000000000    0.7699000000000000 H
   0.5033333333333333    0.3921100000000000    0.7118900000000000 H
   0.2944766666666667    0.2300700000000000    0.6527300000000000 H
   0.3300366666666666    0.2881300000000000    0.6079100000000000 H
   0.5037566666666666    0.2173700000000000    0.7903300000000000 H
   0.3295633333333333    0.2096800000000000    0.7825900000000000 H
   0.3321900000000000    0.1420100000000000    0.5549200000000000 H
   0.3296933333333333    0.1009200000000000    0.6552600000000000 H
   0.5011666666666666    0.4450900000000000    0.8579000000000000 H
   0.5036433333333333    0.3447200000000000    0.8990500000000000 H
   0.3301600000000000    0.4295600000000000    0.8757600000000000 H
   0.3317200000000000    0.3233700000000000    0.9043600000000001 H
   0.5032000000000000    0.1241500000000000    0.5705200000000000 H
   0.5015966666666667    0.0955700000000000    0.6766900000000000 H
   0.3769566666666667    0.7204300000000000    0.8387600000000000 H
   0.4111200000000000    0.7751500000000000    0.8923800000000000 H
   0.6230533333333332    0.8387700000000000    0.7203600000000000 H
   0.5888833333333333    0.8924299999999999    0.7750700000000000 H
   0.6222099999999999    0.7301000000000000    0.8472100000000000 H
   0.5866566666666666    0.7881400000000000    0.8920400000000001 H
   0.3778000000000000    0.8472900000000000    0.7301100000000000 H
   0.4133500000000000    0.8921200000000000    0.7881000000000000 H
   0.4129100000000000    0.7173800000000000    0.7096900000000000 H
   0.5871100000000000    0.7096700000000000    0.7173500000000000 H
   0.4155233333333333    0.9451100000000000    0.6420500000000000 H
   0.4130300000000000    0.8447400000000000    0.6009000000000000 H
   0.5865366666666667    0.9295300000000000    0.6241500000000000 H
   0.5849566666666666    0.8233300000000000    0.5955700000000000 H
   0.5844933333333333    0.6420300000000000    0.9450200000000000 H
   0.5869833333333333    0.6009300000000000    0.8446800000000000 H
   0.4134700000000000    0.6241900000000000    0.9295000000000000 H
   0.4150666666666666    0.5955900000000000    0.8233300000000000 H
   0.6531151983745416    0.0939070357406529    0.3594892011786751 H
   0.6349878129858296    0.1131619315228132    0.3595324090277009 H
   0.6600595576984728    0.1065658417757548    0.4425760698420049 H
   0.6987501046164724    0.1179649465451855    0.3634637267360492 H
   0.8730499999999999    0.2204000000000000    0.6612600000000000 H
   0.8388966666666666    0.2751100000000000    0.6076200000000000 H
   0.6269700000000000    0.3387700000000000    0.7795500000000000 H
   0.6611466666666665    0.3924200000000000    0.7248500000000000 H
   0.8722099999999999    0.3472800000000000    0.7699000000000000 H
   0.8366666666666667    0.3921100000000000    0.7118900000000000 H
   0.6278100000000000    0.2300700000000000    0.6527300000000000 H
   0.6633700000000000    0.2881300000000000    0.6079100000000000 H
   0.8370899999999999    0.2173700000000000    0.7903300000000000 H
   0.6628966666666667    0.2096800000000000    0.7825900000000000 H
   0.6655233333333332    0.1420100000000000    0.5549200000000000 H
   0.6630266666666667    0.1009200000000000    0.6552600000000000 H
   0.8344999999999999    0.4450900000000000    0.8579000000000000 H
   0.8369766666666666    0.3447200000000000    0.8990500000000000 H
   0.6634933333333333    0.4295600000000000    0.8757600000000000 H
   0.6650533333333333    0.3233700000000000    0.9043600000000001 H
   0.8365333333333334    0.1241500000000000    0.5705200000000000 H
   0.8349299999999999    0.0955700000000000    0.6766900000000000 H
   0.6802043155004109    0.3594039832899988    0.0937475570523199 H
   0.6983594986169894    0.3595610671991097    0.1131765980034778 H
   0.6732915326478675    0.4426478474236712    0.1065714425549761 H
   0.6345978139305043    0.3634545468309809    0.1179357566505143 H
   0.4603000000000000    0.6613200000000000    0.2204300000000000 H
   0.4944533333333333    0.6076500000000000    0.2751000000000000 H
   0.7063666666666666    0.7795600000000000    0.3386800000000000 H
   0.6721933333333333    0.7248599999999999    0.3923300000000000 H
   0.4611233333333333    0.7699800000000000    0.3472900000000000 H
   0.4966699999999999    0.7119300000000000    0.3920800000000000 H
   0.7055366666666666    0.6526800000000000    0.2300300000000000 H
   0.6699700000000000    0.6078800000000000    0.2880800000000000 H
   0.4962500000000000    0.7904099999999999    0.2173900000000000 H
   0.6704466666666666    0.7826100000000000    0.2096400000000000 H
   0.4988233333333333    0.8580500000000000    0.4450600000000000 H
   0.4963566666666667    0.8991400000000001    0.3447200000000000 H
   0.6698333333333333    0.8758100000000000    0.4294600000000000 H
   0.6682699999999999    0.9044200000000000    0.3232900000000000 H
   0.6678333333333333    0.5548800000000000    0.1420000000000000 H
   0.6703333333333333    0.6552400000000000    0.1009200000000000 H
   0.4968333333333333    0.5705500000000000    0.1241800000000000 H
   0.4984166666666666    0.6767500000000000    0.0956000000000000 H
   0.7102900000000000    0.7204300000000000    0.8387600000000000 H
   0.7444533333333333    0.7751500000000000    0.8923800000000000 H
   0.9563866666666666    0.8387700000000000    0.7203600000000000 H
   0.9222166666666667    0.8924299999999999    0.7750700000000000 H
   0.9555433333333333    0.7301000000000000    0.8472100000000000 H
   0.9199900000000000    0.7881400000000000    0.8920400000000001 H
   0.7111333333333333    0.8472900000000000    0.7301100000000000 H
   0.7466833333333333    0.8921200000000000    0.7881000000000000 H
   0.7462433333333333    0.7173800000000000    0.7096900000000000 H
   0.9204433333333333    0.7096700000000000    0.7173500000000000 H
   0.7488566666666666    0.9451100000000000    0.6420500000000000 H
   0.7463633333333333    0.8447400000000000    0.6009000000000000 H
   0.9198700000000000    0.9295300000000000    0.6241500000000000 H
   0.9182899999999999    0.8233300000000000    0.5955700000000000 H
   0.9178266666666666    0.6420300000000000    0.9450200000000000 H
   0.9203166666666667    0.6009300000000000    0.8446800000000000 H
   0.7468033333333333    0.6241900000000000    0.9295000000000000 H
   0.7484000000000000    0.5955900000000000    0.8233300000000000 H
   0.1222200000000000    0.2699700000000000    0.1526600000000000 H
   0.0866666666666667    0.2119000000000000    0.1078000000000000 H
   0.1230433333333333    0.1613000000000000    0.2795000000000000 H
   0.0888766666666667    0.1076400000000000    0.2248300000000000 H
   0.8769766666666666    0.2795400000000000    0.1613400000000000 H
   0.9111433333333333    0.2248400000000000    0.1076700000000000 H
   0.8778033333333333    0.1526700000000000    0.2699900000000000 H
   0.9133599999999999    0.1078600000000000    0.2119400000000000 H
   0.9129033333333333    0.2826100000000000    0.2903800000000000 H
   0.0871033333333333    0.2903800000000000    0.2825700000000000 H
   0.0845233333333333    0.3580300000000000    0.0549000000000000 H
   0.0869933333333333    0.3991200000000000    0.1552400000000000 H
   0.9155000000000000    0.0548900000000000    0.3580300000000000 H
   0.9130099999999999    0.1552600000000000    0.3991000000000000 H
   0.0865033333333333    0.0705000000000000    0.3757400000000000 H
   0.0849300000000000    0.1766900000000000    0.4043500000000000 H
   0.9135133333333333    0.3757900000000000    0.0705500000000000 H
   0.9150799999999999    0.4044000000000000    0.1767200000000000 H
   0.7936333333333333    0.6613200000000000    0.2204300000000000 H
   0.8277866666666667    0.6076500000000000    0.2751000000000000 H
   0.0397000000000000    0.7795600000000000    0.3386800000000000 H
   0.0055266666666667    0.7248599999999999    0.3923300000000000 H
   0.7944566666666666    0.7699800000000000    0.3472900000000000 H
   0.8300033333333333    0.7119300000000000    0.3920800000000000 H
   0.0388700000000000    0.6526800000000000    0.2300300000000000 H
   0.0033033333333333    0.6078800000000000    0.2880800000000000 H
   0.8295833333333333    0.7904099999999999    0.2173900000000000 H
   0.0037800000000000    0.7826100000000000    0.2096400000000000 H
   0.8321566666666667    0.8580500000000000    0.4450600000000000 H
   0.8296899999999999    0.8991400000000001    0.3447200000000000 H
   0.0031666666666667    0.8758100000000000    0.4294600000000000 H
   0.0016033333333333    0.9044200000000000    0.3232900000000000 H
   0.0011666666666667    0.5548800000000000    0.1420000000000000 H
   0.0036666666666667    0.6552400000000000    0.1009200000000000 H
   0.8301666666666666    0.5705500000000000    0.1241800000000000 H
   0.8317500000000000    0.6767500000000000    0.0956000000000000 H
   0.1772500000000000    0.2283900000000000    0.6571200000000000 C
   0.9894399999999999    0.3429100000000000    0.7715600000000000 C
   0.1762866666666666    0.3484600000000000    0.7633799999999999 C
   0.9903999999999999    0.2366100000000000    0.6515300000000001 C
   0.1622500000000000    0.2613300000000000    0.7400800000000000 C
   0.0044166666666667    0.2599400000000000    0.7386400000000000 C
   0.0068433333333333    0.1549300000000000    0.6198100000000000 C
   0.1598300000000000    0.3801800000000000    0.8450600000000000 C
   0.0064433333333333    0.3679600000000000    0.8549600000000001 C
   0.1602200000000000    0.1449700000000000    0.6320800000000000 C
   0.0464633333333333    0.3688300000000000    0.8497600000000000 C
   0.1198366666666667    0.3739000000000000    0.8455200000000000 C
   0.0642933333333333    0.2092900000000000    0.6836400000000000 C
   0.0447833333333333    0.2616100000000000    0.7379900000000000 C
   0.0641133333333333    0.3151900000000000    0.7914500000000000 C
   0.1202033333333333    0.1502000000000000    0.6311800000000000 C
   0.0468366666666667    0.1544600000000000    0.6260800000000000 C
   0.1023733333333333    0.3163100000000000    0.7907000000000000 C
   0.1218833333333333    0.2620000000000000    0.7383700000000000 C
   0.1025533333333333    0.2084900000000000    0.6848500000000000 C
   0.0727600000000000    0.7284200000000000    0.8428900000000000 C
   0.2605833333333333    0.8429100000000000    0.7283600000000000 C
   0.2596200000000000    0.7366300000000000    0.8484000000000000 C
   0.0737233333333333    0.8484800000000000    0.7366000000000000 C
   0.0877566666666667    0.7613500000000000    0.7599000000000000 C
   0.2455900000000000    0.7599399999999999    0.7613000000000000 C
   0.0901833333333333    0.8801900000000000    0.6549500000000000 C
   0.2435666666666667    0.8679500000000000    0.6449700000000000 C
   0.2431633333333333    0.6549400000000000    0.8801300000000000 C
   0.0897833333333333    0.6450000000000000    0.8679300000000000 C
   0.1301766666666667    0.8739100000000000    0.6544000000000000 C
   0.2035466666666667    0.8688200000000000    0.6501900000000000 C
   0.1857100000000000    0.7092800000000000    0.8163000000000000 C
   0.2052233333333333    0.7616300000000000    0.7619800000000000 C
   0.1858966666666667    0.8151700000000000    0.7084000000000000 C
   0.1298000000000000    0.6502300000000000    0.8688100000000000 C
   0.2031733333333333    0.6544700000000000    0.8738600000000000 C
   0.1474500000000000    0.7085200000000000    0.8151000000000000 C
   0.1281233333333333    0.7620100000000000    0.7616200000000000 C
   0.1476366666666667    0.8163500000000000    0.7092800000000000 C
   0.4262933333333333    0.2634300000000000    0.1515000000000000 C
   0.4272400000000000    0.1571500000000000    0.2715000000000000 C
   0.2394466666666666    0.2715600000000000    0.1571800000000000 C
   0.2403933333333333    0.1515000000000000    0.2634000000000000 C
   0.2544266666666666    0.2386400000000000    0.2401300000000000 C
   0.4122533333333333    0.2401100000000000    0.2386200000000000 C
   0.4098433333333333    0.3451100000000000    0.1190000000000000 C
   0.2568366666666667    0.1198000000000000    0.3451100000000000 C
   0.4102100000000000    0.1320900000000000    0.3549400000000000 C
   0.2564733333333333    0.3549800000000000    0.1321200000000000 C
   0.2964900000000000    0.3497700000000000    0.1312200000000000 C
   0.3698500000000000    0.3455700000000000    0.1260900000000000 C
   0.3141333333333333    0.2915100000000000    0.1848800000000000 C
   0.2947966666666667    0.2379800000000000    0.2384000000000000 C
   0.3143000000000000    0.1837000000000000    0.2907800000000000 C
   0.3701900000000000    0.1312300000000000    0.3497800000000000 C
   0.2968300000000000    0.1260800000000000    0.3455500000000000 C
   0.3523833333333333    0.2907300000000000    0.1836500000000000 C
   0.3718866666666666    0.2384300000000000    0.2380000000000000 C
   0.3525500000000000    0.1848300000000000    0.2914600000000000 C
   0.1561000000000000    0.6571700000000000    0.2284000000000000 C
   0.3438966666666666    0.7715800000000000    0.3428400000000000 C
   0.1570466666666667    0.7634400000000000    0.3484500000000000 C
   0.3429466666666666    0.6515100000000000    0.2365000000000000 C
   0.1710900000000000    0.7401400000000000    0.2613300000000000 C
   0.3289266666666666    0.7386500000000000    0.2598900000000000 C
   0.1735000000000000    0.8451300000000000    0.3801700000000000 C
   0.3268866666666667    0.8550000000000000    0.3678900000000000 C
   0.3265100000000000    0.6197900000000000    0.1549200000000000 C
   0.1731333333333333    0.6321400000000000    0.1449900000000000 C
   0.2131500000000000    0.6312100000000000    0.1502200000000000 C
   0.2865200000000000    0.6261300000000000    0.1544000000000000 C
   0.2309633333333333    0.7907700000000000    0.3163000000000000 C
   0.2114566666666667    0.7384100000000000    0.2620100000000000 C
   0.2307933333333333    0.6849100000000000    0.2084500000000000 C
   0.2868666666666667    0.8497900000000000    0.3687900000000000 C
   0.2134933333333333    0.8456000000000000    0.3738000000000000 C
   0.2690533333333333    0.6836400000000000    0.2092900000000000 C
   0.2885600000000000    0.7380200000000000    0.2615700000000000 C
   0.2692233333333333    0.7915000000000000    0.3151400000000000 C
   0.5105833333333333    0.2283900000000000    0.6571200000000000 C
   0.3227733333333333    0.3429100000000000    0.7715600000000000 C
   0.5096200000000000    0.3484600000000000    0.7633799999999999 C
   0.3237333333333333    0.2366100000000000    0.6515300000000001 C
   0.4955833333333333    0.2613300000000000    0.7400800000000000 C
   0.3377500000000000    0.2599400000000000    0.7386400000000000 C
   0.3401766666666666    0.1549300000000000    0.6198100000000000 C
   0.4931633333333333    0.3801800000000000    0.8450600000000000 C
   0.3397766666666667    0.3679600000000000    0.8549600000000001 C
   0.4935533333333333    0.1449700000000000    0.6320800000000000 C
   0.3797966666666667    0.3688300000000000    0.8497600000000000 C
   0.4531700000000000    0.3739000000000000    0.8455200000000000 C
   0.3976266666666666    0.2092900000000000    0.6836400000000000 C
   0.3781166666666667    0.2616100000000000    0.7379900000000000 C
   0.3974466666666666    0.3151900000000000    0.7914500000000000 C
   0.4535366666666666    0.1502000000000000    0.6311800000000000 C
   0.3801700000000000    0.1544600000000000    0.6260800000000000 C
   0.4357066666666666    0.3163100000000000    0.7907000000000000 C
   0.4552166666666666    0.2620000000000000    0.7383700000000000 C
   0.4358866666666666    0.2084900000000000    0.6848500000000000 C
   0.4060933333333333    0.7284200000000000    0.8428900000000000 C
   0.5939166666666666    0.8429100000000000    0.7283600000000000 C
   0.5929533333333332    0.7366300000000000    0.8484000000000000 C
   0.4070566666666666    0.8484800000000000    0.7366000000000000 C
   0.4210900000000000    0.7613500000000000    0.7599000000000000 C
   0.5789233333333333    0.7599399999999999    0.7613000000000000 C
   0.4235166666666667    0.8801900000000000    0.6549500000000000 C
   0.5769000000000000    0.8679500000000000    0.6449700000000000 C
   0.5764966666666667    0.6549400000000000    0.8801300000000000 C
   0.4231166666666666    0.6450000000000000    0.8679300000000000 C
   0.4635100000000000    0.8739100000000000    0.6544000000000000 C
   0.5368800000000000    0.8688200000000000    0.6501900000000000 C
   0.5190433333333333    0.7092800000000000    0.8163000000000000 C
   0.5385566666666667    0.7616300000000000    0.7619800000000000 C
   0.5192300000000000    0.8151700000000000    0.7084000000000000 C
   0.4631333333333333    0.6502300000000000    0.8688100000000000 C
   0.5365066666666667    0.6544700000000000    0.8738600000000000 C
   0.4807833333333333    0.7085200000000000    0.8151000000000000 C
   0.4614566666666666    0.7620100000000000    0.7616200000000000 C
   0.4809700000000000    0.8163500000000000    0.7092800000000000 C
   0.8439166666666666    0.2283900000000000    0.6571200000000000 C
   0.6561066666666666    0.3429100000000000    0.7715600000000000 C
   0.8429533333333332    0.3484600000000000    0.7633799999999999 C
   0.6570666666666667    0.2366100000000000    0.6515300000000001 C
   0.8289166666666666    0.2613300000000000    0.7400800000000000 C
   0.6710833333333333    0.2599400000000000    0.7386400000000000 C
   0.6735099999999999    0.1549300000000000    0.6198100000000000 C
   0.8264966666666667    0.3801800000000000    0.8450600000000000 C
   0.6731100000000000    0.3679600000000000    0.8549600000000001 C
   0.8268866666666665    0.1449700000000000    0.6320800000000000 C
   0.7131299999999999    0.3688300000000000    0.8497600000000000 C
   0.7865033333333333    0.3739000000000000    0.8455200000000000 C
   0.7309599999999999    0.2092900000000000    0.6836400000000000 C
   0.7114499999999999    0.2616100000000000    0.7379900000000000 C
   0.7307800000000000    0.3151900000000000    0.7914500000000000 C
   0.7868700000000000    0.1502000000000000    0.6311800000000000 C
   0.7135033333333333    0.1544600000000000    0.6260800000000000 C
   0.7690399999999999    0.3163100000000000    0.7907000000000000 C
   0.7885500000000000    0.2620000000000000    0.7383700000000000 C
   0.7692200000000000    0.2084900000000000    0.6848500000000000 C
   0.4894333333333333    0.6571700000000000    0.2284000000000000 C
   0.6772300000000000    0.7715800000000000    0.3428400000000000 C
   0.4903800000000000    0.7634400000000000    0.3484500000000000 C
   0.6762800000000000    0.6515100000000000    0.2365000000000000 C
   0.5044233333333333    0.7401400000000000    0.2613300000000000 C
   0.6622600000000000    0.7386500000000000    0.2598900000000000 C
   0.5068333333333332    0.8451300000000000    0.3801700000000000 C
   0.6602200000000000    0.8550000000000000    0.3678900000000000 C
   0.6598433333333333    0.6197900000000000    0.1549200000000000 C
   0.5064666666666666    0.6321400000000000    0.1449900000000000 C
   0.5464833333333333    0.6312100000000000    0.1502200000000000 C
   0.6198533333333334    0.6261300000000000    0.1544000000000000 C
   0.5642966666666667    0.7907700000000000    0.3163000000000000 C
   0.5447900000000000    0.7384100000000000    0.2620100000000000 C
   0.5641266666666667    0.6849100000000000    0.2084500000000000 C
   0.6202000000000000    0.8497900000000000    0.3687900000000000 C
   0.5468266666666667    0.8456000000000000    0.3738000000000000 C
   0.6023866666666666    0.6836400000000000    0.2092900000000000 C
   0.6218933333333333    0.7380200000000000    0.2615700000000000 C
   0.6025566666666666    0.7915000000000000    0.3151400000000000 C
   0.7394266666666667    0.7284200000000000    0.8428900000000000 C
   0.9272499999999999    0.8429100000000000    0.7283600000000000 C
   0.9262866666666666    0.7366300000000000    0.8484000000000000 C
   0.7403900000000000    0.8484800000000000    0.7366000000000000 C
   0.7544233333333333    0.7613500000000000    0.7599000000000000 C
   0.9122566666666666    0.7599399999999999    0.7613000000000000 C
   0.7568500000000000    0.8801900000000000    0.6549500000000000 C
   0.9102333333333332    0.8679500000000000    0.6449700000000000 C
   0.9098299999999999    0.6549400000000000    0.8801300000000000 C
   0.7564500000000000    0.6450000000000000    0.8679300000000000 C
   0.7968433333333333    0.8739100000000000    0.6544000000000000 C
   0.8702133333333333    0.8688200000000000    0.6501900000000000 C
   0.8523766666666666    0.7092800000000000    0.8163000000000000 C
   0.8718899999999999    0.7616300000000000    0.7619800000000000 C
   0.8525633333333333    0.8151700000000000    0.7084000000000000 C
   0.7964666666666667    0.6502300000000000    0.8688100000000000 C
   0.8698399999999999    0.6544700000000000    0.8738600000000000 C
   0.8141166666666666    0.7085200000000000    0.8151000000000000 C
   0.7947899999999999    0.7620100000000000    0.7616200000000000 C
   0.8143033333333333    0.8163500000000000    0.7092800000000000 C
   0.0929600000000000    0.2634300000000000    0.1515000000000000 C
   0.0939066666666667    0.1571500000000000    0.2715000000000000 C
   0.9061133333333333    0.2715600000000000    0.1571800000000000 C
   0.9070600000000000    0.1515000000000000    0.2634000000000000 C
   0.9210933333333333    0.2386400000000000    0.2401300000000000 C
   0.0789200000000000    0.2401100000000000    0.2386200000000000 C
   0.0765100000000000    0.3451100000000000    0.1190000000000000 C
   0.9235033333333333    0.1198000000000000    0.3451100000000000 C
   0.0768766666666667    0.1320900000000000    0.3549400000000000 C
   0.9231400000000000    0.3549800000000000    0.1321200000000000 C
   0.9631566666666667    0.3497700000000000    0.1312200000000000 C
   0.0365166666666667    0.3455700000000000    0.1260900000000000 C
   0.9807999999999999    0.2915100000000000    0.1848800000000000 C
   0.9614633333333333    0.2379800000000000    0.2384000000000000 C
   0.9809666666666665    0.1837000000000000    0.2907800000000000 C
   0.0368566666666667    0.1312300000000000    0.3497800000000000 C
   0.9634966666666667    0.1260800000000000    0.3455500000000000 C
   0.0190500000000000    0.2907300000000000    0.1836500000000000 C
   0.0385533333333333    0.2384300000000000    0.2380000000000000 C
   0.0192166666666667    0.1848300000000000    0.2914600000000000 C
   0.8227666666666666    0.6571700000000000    0.2284000000000000 C
   0.0105633333333333    0.7715800000000000    0.3428400000000000 C
   0.8237133333333333    0.7634400000000000    0.3484500000000000 C
   0.0096133333333333    0.6515100000000000    0.2365000000000000 C
   0.8377566666666666    0.7401400000000000    0.2613300000000000 C
   0.9955933333333333    0.7386500000000000    0.2598900000000000 C