H8 C14 N2 O5
1.0
  13.8039975695454089    0.0000000000000000    0.0081914580173875
  -0.0348009745658270   13.1055444292139462   -4.4484934647663099
   0.0000000000000000    0.0000000000000000   13.9220000000000006
H C N O
8 14 2 5
direct
   0.1160200000000000    0.4163600000000000    0.8440200000000000 H
   0.0811400000000000    0.2732200000000000    0.8869899999999999 H
   0.2281900000000000    0.9937800000000000    0.7321100000000000 H
   0.3140200000000000    0.2720100000000000    0.6790000000000000 H
   0.9853600000000000    0.7053500000000000    0.8446300000000000 H
   0.0448800000000000    0.5267600000000000    0.7785800000000000 H
   0.3318500000000000    0.6417200000000000    0.8792200000000000 H
   0.2581300000000000    0.8173800000000000    0.9461700000000000 H
   0.1953800000000000    0.2851900000000000    0.7836900000000000 C
   0.1367000000000000    0.2333600000000000    0.8331800000000000 C
   0.1491800000000000    0.1290200000000000    0.8159800000000000 C
   0.2189900000000000    0.0752500000000000    0.7464499999999999 C
   0.2777800000000000    0.1272100000000000    0.6974300000000000 C
   0.2671900000000000    0.2323300000000000    0.7165800000000000 C
   0.2380500000000000    0.4644400000000000    0.7906500000000000 C
   0.0611000000000000    0.6873100000000000    0.8525300000000000 C
   0.0955000000000000    0.5877800000000000    0.8162700000000001 C
   0.1941100000000000    0.5695100000000000    0.8267300000000000 C
   0.2545800000000000    0.6532400000000000    0.8717000000000000 C
   0.2145400000000000    0.7502400000000000    0.9078000000000001 C
   0.0892600000000000    0.0777000000000000    0.8760200000000000 C
   0.3548100000000000    0.0721500000000000    0.6242200000000000 C
   0.1777000000000000    0.3904800000000000    0.8038700000000000 N
   0.1192500000000000    0.7671400000000000    0.8987100000000000 N
   0.3204600000000000    0.4497400000000000    0.7544600000000000 O
   1.0208800000000000    0.1301000000000000   -0.0712000000000000 O
   0.1131100000000000    0.9873700000000000    0.8708900000000001 O
   0.3388300000000000    0.9797400000000001    0.5715000000000000 O
   0.4301400000000000    0.1241800000000000    0.6206199999999999 O
