Zn4 H32 C42 N6 O20
1.0
  13.8039975695454089    0.0000000000000000    0.0081914580173875
  -0.0348009745658270   13.1055444292139462   -4.4484934647663099
   0.0000000000000000    0.0000000000000000   13.9220000000000006
Zn H C N O
4 32 42 6 20
direct
   0.5580200000000000    0.0894100000000000    0.5368800000000000 Zn
   0.9421600000000000    0.0900700000000000    0.0373000000000000 Zn
   0.4419600000000000    0.9106400000000000    0.4630900000000000 Zn
   0.0578100000000000    0.9099800000000000    0.9626200000000000 Zn
   0.0770420314710518    0.7091956813814972    0.8651904129549987 H
   0.1883342426385178    0.7548876786589259    0.9053001539047553 H
   0.4407024737569551    0.1944381064457174    0.6624077432134934 H
   0.2825090300447430    0.9383071947014211    0.5733363714311193 H
   0.3518907035992922    0.0666155108746008    0.6231713547179603 H
   0.5435700000000000    0.4724400000000000    0.7196000000000000 H
   0.8308400000000000    0.3600100000000000    0.6191700000000000 H
   0.7577500000000000    0.1834400000000000    0.5530800000000000 H
   0.4848200000000000    0.2931900000000000    0.6544000000000000 H
   0.6140700000000000    0.5842700000000000    0.6559400000000000 H
   0.7289700000000000    0.0067600000000000    0.7672800000000000 H
   0.5787900000000000    0.7279600000000001    0.6141500000000000 H
   0.8144300000000000    0.7279099999999999    0.8183600000000000 H
   0.9550900000000000    0.4732800000000000    0.2214000000000000 H
   0.6681200000000000    0.3583200000000000    0.1207500000000000 H
   0.7418400000000001    0.1826600000000000    0.0537900000000000 H
   0.0146100000000000    0.2946900000000000    0.1553500000000000 H
   0.8839500000000000    0.5836800000000000    0.1559000000000000 H
   0.7717800000000000    0.0062600000000000    0.2678400000000000 H
   0.9188200000000000    0.7268200000000000    0.1129600000000000 H
   0.6859499999999999    0.7280300000000000    0.3209600000000000 H
   0.4563800000000000    0.5276000000000000    0.2803500000000000 H
   0.1691200000000000    0.6400500000000000    0.3808200000000000 H
   0.2422200000000000    0.8166099999999999    0.4468900000000000 H
   0.5151400000000000    0.7068500000000000    0.3455100000000000 H
   0.3859000000000000    0.4157800000000000    0.3440200000000000 H
   0.2710000000000000    0.9932800000000001    0.2326900000000000 H
   0.4211900000000000    0.2720800000000000    0.3858200000000000 H
   0.1855300000000000    0.2721400000000000    0.1816200000000000 H
   1.0006566024028192    0.1971421794633200   -0.0712762847268750 H
   0.1626327919419564    0.9463348618107805    0.8270717520595353 H
   0.0864427868817290    1.0757739429611446    0.8707894085410491 H
   0.5944500000000000    0.4118800000000000    0.6821000000000000 C
   0.7536700000000000    0.3476600000000000    0.6267800000000000 C
   0.7140100000000000    0.2502700000000000    0.5912100000000000 C
   0.5604300000000000    0.3120000000000000    0.6464900000000000 C
   0.6929700000000000    0.4308800000000000    0.6715000000000000 C
   0.5880300000000001    0.9232800000000000    0.6251000000000000 C
   0.8564300000000000    0.9275500000000000    0.8736699999999999 C
   0.7369599999999999    0.5361100000000000    0.7072300000000000 C
   0.7192600000000000    0.9253000000000000    0.7529000000000000 C
   0.7784900000000000    0.8730300000000000    0.8010000000000000 C
   0.6352100000000001    0.7675100000000000    0.6671700000000000 C
   0.6483200000000000    0.8718500000000000    0.6844500000000000 C
   0.7672300000000000    0.7679000000000000    0.7817000000000000 C
   0.6943800000000000    0.7153800000000000    0.7155700000000000 C
   0.9044600000000000    0.4122600000000000    0.1837000000000000 C
   0.7453900000000000    0.3468000000000000    0.1282700000000000 C
   0.7854300000000000    0.2498000000000000    0.0921300000000000 C
   0.9388700000000000    0.3127400000000000    0.1474500000000000 C
   0.8058500000000000    0.4305300000000000    0.1732400000000000 C
   0.9107000000000000    0.9223400000000000    0.1239400000000000 C
   0.6451700000000000    0.9278900000000000    0.3757600000000000 C
   0.7619200000000000    0.5356000000000000    0.2093300000000000 C
   0.7809700000000001    0.9247900000000000    0.2535000000000000 C
   0.7221800000000000    0.8728300000000000    0.3025200000000000 C
   0.8632600000000000    0.7666800000000000    0.1667800000000000 C
   0.8507900000000000    0.8710200000000000    0.1839800000000000 C
   0.7327800000000000    0.7677100000000000    0.2833000000000000 C
   0.8045800000000000    0.7148500000000000    0.2162600000000000 C
   0.4055100000000000    0.5881700000000000    0.3177900000000000 C
   0.2462900000000000    0.6523800000000000    0.3732000000000000 C
   0.2859500000000000    0.7497800000000000    0.4087700000000000 C
   0.4395400000000000    0.6880500000000001    0.3534900000000000 C
   0.3070000000000000    0.5691600000000000    0.3284000000000000 C
   0.4119500000000000    0.0767600000000000    0.3748500000000000 C
   0.1435300000000000    0.0725000000000000    0.1263100000000000 C
   0.2629900000000000    0.4639400000000000    0.2927900000000000 C
   0.2807000000000000    0.0747500000000000    0.2470100000000000 C
   0.2214800000000000    0.1270200000000000    0.1989700000000000 C
   0.3647700000000000    0.2325300000000000    0.3327900000000000 C
   0.3516500000000000    0.1281900000000000    0.3155000000000000 C
   0.2327300000000000    0.2321500000000000    0.2182800000000000 C
   0.3055800000000000    0.2846700000000000    0.2844100000000000 C
   0.6188200000000000    0.2326500000000000    0.6006100000000000 N
   0.6762800000000000    0.6100700000000000    0.6952000000000000 N
   0.8807199999999999    0.2329100000000000    0.1012600000000000 N
   0.8222600000000000    0.6095500000000000    0.1960800000000000 N
   0.3811400000000000    0.7674000000000000    0.3993000000000000 N
   0.3236800000000000    0.3899800000000000    0.3046900000000000 N
   0.1192500000000000    0.7671400000000000    0.8987100000000000 O
   0.4301400000000000    0.1241800000000000    0.6206199999999999 O
   0.3388300000000000    0.9797400000000001    0.5715000000000000 O
   0.5185300000000000    0.8713700000000000    0.5735400000000000 O
   0.6127300000000000    0.0133100000000000    0.6294999999999999 O
   0.8413600000000000    0.0199800000000000    0.9267100000000000 O
   0.9313700000000000    0.8751500000000000    0.8765200000000000 O
   0.8199500000000000    0.5508700000000000    0.7420000000000000 O
   0.9791000000000000    0.8699500000000000    0.0711800000000000 O
   0.8868500000000000    0.0126600000000000    0.1290600000000000 O
   0.6611500000000000    0.0203000000000000    0.4284400000000000 O
   0.5698299999999999    0.8758700000000000    0.3793300000000000 O
   0.6795000000000000    0.5502899999999999    0.2455000000000000 O
   0.4814500000000000    0.1286700000000000    0.4264000000000000 O
   0.3872300000000000    0.9867400000000000    0.3704700000000000 O
   0.1586100000000000    0.9800800000000000    0.0732400000000000 O
   0.0685800000000000    0.1249000000000000    0.1234800000000000 O
   0.1800000000000000    0.4491800000000000    0.2500000000000000 O
   1.0208800000000000    0.1301000000000000   -0.0712000000000000 O
   0.1131100000000000    0.9873700000000000    0.8708900000000001 O
