H8 O5
1.0
  13.8039975695454089    0.0000000000000000    0.0081914580173875
  -0.0348009745658270   13.1055444292139462   -4.4484934647663099
   0.0000000000000000    0.0000000000000000   13.9220000000000006
H O
8 5
direct
   0.4407024737569551    0.1944381064457174    0.6624077432134934 H
   0.2825090300447430    0.9383071947014211    0.5733363714311193 H
   0.3518907035992922    0.0666155108746008    0.6231713547179603 H
   0.0770420314710518    0.7091956813814972    0.8651904129549987 H
   0.1883342426385178    0.7548876786589259    0.9053001539047553 H
   1.0006566024028192    0.1971421794633200   -0.0712762847268750 H
   0.1626327919419564    0.9463348618107805    0.8270717520595353 H
   0.0864427868817290    1.0757739429611446    0.8707894085410491 H
   0.4301400000000000    0.1241800000000000    0.6206199999999999 O
   0.3388300000000000    0.9797400000000001    0.5715000000000000 O
   0.1192500000000000    0.7671400000000000    0.8987100000000000 O
   1.0208800000000000    0.1301000000000000   -0.0712000000000000 O
   0.1131100000000000    0.9873700000000000    0.8708900000000001 O
