H6 C18 O8
1.0
  15.0881176185867538    0.0000000000000000    3.7244311951883344
   2.9143105305365924   14.7987764491931078    3.7242859367147099
   0.0000000000000000    0.0000000000000000   31.0659999999999989
H C O
6 18 8
direct
   0.4921900000000000    0.0240000000000000    0.3991950000000000 H
   0.5078000000000000    0.2016300000000000    0.4879750000000000 H
   0.4774000000000000    0.7622700000000000    0.3811650000000000 H
   0.5078100000000000    0.9759900000000000    0.6008100000000000 H
   0.4921900000000000    0.7983600000000000    0.5120000000000000 H
   0.5226000000000000    0.2377200000000000    0.6188400000000001 H
   0.4850600000000000    0.6724599999999999    0.4672950000000000 C
   0.4841900000000000    0.7707700000000000    0.4486400000000000 C
   0.4893700000000000    0.8267600000000001    0.4767000000000000 C
   0.4850400000000000    0.9345100000000000    0.3362450000000000 C
   0.4841900000000000    0.8972000000000000    0.3854050000000000 C
   0.4893600000000000    0.9533300000000000    0.4134050000000000 C
   0.4916200000000000    0.9188700000000000    0.4594700000000000 C
   0.4973500000000000    0.9756200000000000    0.4878350000000000 C
   0.4810200000000000    0.8059700000000000    0.4030000000000000 C
   0.5149600000000000    0.0654800000000000    0.6637600000000000 C
   0.5158100000000000    0.1027900000000000    0.6146000000000000 C
   0.5106400000000000    0.0466600000000000    0.5866050000000000 C
   0.5149300000000000    0.3275300000000000    0.5327100000000000 C
   0.5158000000000000    0.2292200000000000    0.5513650000000000 C
   0.5106200000000000    0.1732300000000000    0.5233050000000000 C
   0.5083700000000000    0.0811100000000000    0.5405000000000000 C
   0.5026400000000000    0.0243700000000000    0.5121750000000000 C
   0.5189800000000000    0.1940200000000000    0.5969949999999999 C
   0.4770000000000000    0.6246500000000000    0.4407900000000000 O
   0.4950900000000000    0.0165300000000000    0.3217250000000000 O
   0.4769400000000000    0.8815200000000000    0.3123350000000000 O
   0.5048899999999999    0.3565600000000000    0.4917100000000000 O
   0.5049100000000000    0.9834600000000000    0.6782500000000000 O
   0.5230600000000000    0.1184700000000000    0.6876700000000000 O
   0.4951000000000000    0.6434299999999999    0.5083000000000000 O
   0.5230000000000000    0.3753400000000000    0.5592150000000000 O
