H12 O8
1.0
  15.0881176185867538    0.0000000000000000    3.7244311951883344
   2.9143105305365924   14.7987764491931078    3.7242859367147099
   0.0000000000000000    0.0000000000000000   31.0659999999999989
H O
12 8
direct
   0.4987445889874286    0.6816806786169703    0.5280605072334282 H
   0.4671667465096889    0.6479405373158904    0.4101057840435949 H
   0.4817925954557818    0.6749492324107323    0.4667748552189396 H
   0.4987466621398716    0.0560419383585866    0.3408520042991821 H
   0.4670846973900324    0.8201678760382095    0.3239753860085930 H
   0.4817478887955969    0.9334714788241367    0.3374837575679057 H
   0.5012405116316609    0.3183086586201219    0.4719509197827517 H
   0.5328364219432776    0.3520475738199195    0.5898985977337053 H
   0.5182009654263170    0.3250399329099558    0.5332320403255981 H
   0.5012547120723407    0.9439592882444551    0.6591169559560327 H
   0.5329160280407386    0.1798239299233986    0.6760391993460230 H
   0.5182523504362412    0.0665163417935671    0.6625050957101585 H
   0.4951000000000000    0.6434299999999999    0.5083000000000000 O
   0.4770000000000000    0.6246500000000000    0.4407900000000000 O
   0.4950900000000000    0.0165300000000000    0.3217250000000000 O
   0.4769400000000000    0.8815200000000000    0.3123350000000000 O
   0.5048899999999999    0.3565600000000000    0.4917100000000000 O
   0.5230000000000000    0.3753400000000000    0.5592150000000000 O
   0.5049100000000000    0.9834600000000000    0.6782500000000000 O
   0.5230600000000000    0.1184700000000000    0.6876700000000000 O
