Zn12 H30 C90 O40
1.0
  15.0881176185867538    0.0000000000000000    3.7244311951883344
   2.9143105305365924   14.7987764491931078    3.7242859367147099
   0.0000000000000000    0.0000000000000000   31.0659999999999989
Zn H C O
12 30 90 40
direct
   0.5108300000000000    0.0756200000000000    0.2554000000000000 Zn
   0.5108100000000000    0.5108200000000001    0.0378250000000000 Zn
   0.4891700000000000    0.9243800000000000    0.2445900000000000 Zn
   0.9244400000000000    0.4891500000000000    0.2445850000000000 Zn
   0.4891900000000000    0.4891700000000000    0.4621850000000000 Zn
   0.0755400000000000    0.5108400000000000    0.2554250000000000 Zn
   0.5108300000000000    0.0756200000000000    0.7554000000000001 Zn
   0.5108100000000000    0.5108200000000001    0.5378250000000000 Zn
   0.4891700000000000    0.9243800000000000    0.7445900000000000 Zn
   0.9244400000000000    0.4891500000000000    0.7445850000000001 Zn
   0.4891900000000000    0.4891700000000000    0.9621850000000001 Zn
   0.0755400000000000    0.5108400000000000    0.7554250000000000 Zn
   0.9761300000000001    0.2016300000000000    0.2538700000000000 H
   0.5078100000000000    0.9759900000000000    0.1008100000000000 H
   0.2016800000000000    0.5075300000000000    0.4879750000000000 H
   0.7983400000000000    0.0240200000000000    0.2462000000000000 H
   0.0238700000000000    0.4922300000000000    0.3991900000000000 H
   0.4921900000000000    0.7983600000000000    0.0120000000000000 H
   0.0238700000000000    0.7983600000000000    0.2461400000000000 H
   0.7983200000000000    0.4924600000000000    0.0120350000000000 H
   0.2016600000000000    0.9759800000000000    0.2537650000000000 H
   0.9761300000000001    0.5077600000000000    0.1008200000000000 H
   0.2378700000000000    0.2376600000000000    0.2611350000000000 H
   0.5226000000000000    0.2377200000000000    0.1188400000000000 H
   0.2378800000000000    0.5223100000000001    0.1188250000000000 H
   0.7621200000000000    0.7623300000000000    0.2388700000000000 H
   0.7621200000000000    0.4776800000000000    0.3811850000000000 H
   0.9761300000000001    0.2016300000000000    0.7538700000000000 H
   0.2016800000000000    0.5075300000000000    0.9879750000000000 H
   0.7983400000000000    0.0240200000000000    0.7462000000000000 H
   0.0238700000000000    0.4922300000000000    0.8991899999999999 H
   0.0238700000000000    0.7983600000000000    0.7461400000000000 H
   0.4921900000000000    0.0240000000000000    0.8991950000000000 H
   0.7983200000000000    0.4924600000000000    0.5120350000000000 H
   0.2016600000000000    0.9759800000000000    0.7537650000000000 H
   0.9761300000000001    0.5077600000000000    0.6008200000000000 H
   0.5078000000000000    0.2016300000000000    0.9879750000000000 H
   0.2378700000000000    0.2376600000000000    0.7611350000000000 H
   0.2378800000000000    0.5223100000000001    0.6188250000000000 H
   0.7621200000000000    0.7623300000000000    0.7388700000000000 H
   0.7621200000000000    0.4776800000000000    0.8811850000000000 H
   0.4774000000000000    0.7622700000000000    0.8811650000000000 H
   0.0656300000000000    0.3275200000000000    0.2573850000000000 C
   0.1029300000000000    0.2292100000000000    0.2577950000000000 C
   0.0467900000000000    0.1732100000000000    0.2552500000000000 C
   0.5149600000000000    0.0654800000000000    0.1637600000000000 C
   0.5158100000000000    0.1027900000000000    0.1146000000000000 C
   0.5106400000000000    0.0466600000000000    0.0866050000000000 C
   0.3275800000000000    0.5146300000000000    0.0326950000000000 C
   0.2293000000000000    0.5155200000000000    0.0513600000000000 C
   0.1732900000000000    0.5103900000000000    0.0233000000000000 C
   0.6724200000000000    0.9345700000000000    0.2426900000000000 C
   0.7707000000000001    0.8972400000000000    0.2422500000000000 C
   0.8267099999999999    0.9533500000000000    0.2448000000000000 C
   0.9343600000000000    0.4851700000000000    0.3362450000000000 C
   0.8970700000000000    0.4843600000000000    0.3854100000000000 C
   0.9532100000000000    0.4894700000000000    0.4134050000000000 C
   0.9343600000000000    0.6724700000000000    0.2426250000000000 C
   0.8970700000000000    0.7707900000000000    0.2422100000000000 C
   0.9532100000000000    0.8267800000000000    0.2447500000000000 C
   0.6724200000000000    0.4853600000000000    0.4673150000000000 C
   0.7707000000000001    0.4844700000000000    0.4486500000000000 C
   0.8267099999999999    0.4896100000000000    0.4767050000000000 C
   0.3275800000000000    0.0654300000000000    0.2573200000000000 C
   0.2293000000000000    0.1027500000000000    0.2577550000000000 C
   0.1732900000000000    0.0466500000000000    0.2551850000000000 C
   0.0656300000000000    0.5148200000000001    0.1637500000000000 C
   0.1029300000000000    0.5156300000000000    0.1146000000000000 C
   0.0467900000000000    0.5105200000000000    0.0866000000000000 C
   0.5149300000000000    0.3275300000000000    0.0327100000000000 C
   0.5158000000000000    0.2292200000000000    0.0513650000000000 C
   0.5106200000000000    0.1732300000000000    0.0233050000000000 C
   0.0811800000000000    0.0811000000000000    0.2541000000000000 C
   0.0243900000000000    0.0243500000000000    0.2513000000000000 C
   0.1941500000000000    0.1940000000000000    0.2593400000000000 C
   0.5083700000000000    0.0811100000000000    0.0405000000000000 C
   0.5026400000000000    0.0243700000000000    0.0121750000000000 C
   0.5189800000000000    0.1940200000000000    0.0969950000000000 C
   0.0811900000000000    0.5082200000000000    0.0405350000000000 C
   0.0243900000000000    0.5026000000000000    0.0121700000000000 C
   0.1941500000000000    0.5187200000000000    0.0969900000000000 C
   0.9188200000000000    0.9189000000000001    0.2459050000000000 C
   0.9756100000000000    0.9756400000000000    0.2487050000000000 C
   0.8058500000000000    0.8060000000000000    0.2406500000000000 C
   0.9188100000000000    0.4917700000000000    0.4594700000000000 C
   0.9756100000000000    0.4973900000000000    0.4878350000000000 C
   0.8058400000000000    0.4812800000000000    0.4030200000000000 C
   0.0656300000000000    0.3275200000000000    0.7573850000000000 C
   0.1029300000000000    0.2292100000000000    0.7577950000000000 C
   0.0467900000000000    0.1732100000000000    0.7552500000000000 C
   0.3275800000000000    0.5146300000000000    0.5326950000000000 C
   0.2293000000000000    0.5155200000000000    0.5513600000000000 C
   0.1732900000000000    0.5103900000000000    0.5233000000000000 C
   0.6724200000000000    0.9345700000000000    0.7426900000000000 C
   0.7707000000000001    0.8972400000000000    0.7422500000000000 C
   0.8267099999999999    0.9533500000000000    0.7448000000000000 C
   0.9343600000000000    0.4851700000000000    0.8362450000000000 C
   0.8970700000000000    0.4843600000000000    0.8854100000000000 C
   0.9532100000000000    0.4894700000000000    0.9134050000000000 C
   0.4850600000000000    0.6724599999999999    0.9672950000000000 C
   0.4841900000000000    0.7707700000000000    0.9486399999999999 C
   0.4893700000000000    0.8267600000000001    0.9767000000000000 C
   0.9343600000000000    0.6724700000000000    0.7426250000000000 C
   0.8970700000000000    0.7707900000000000    0.7422100000000000 C
   0.9532100000000000    0.8267800000000000    0.7447500000000000 C
   0.4850400000000000    0.9345100000000000    0.8362450000000000 C
   0.4841900000000000    0.8972000000000000    0.8854050000000000 C
   0.4893600000000000    0.9533300000000000    0.9134050000000000 C
   0.6724200000000000    0.4853600000000000    0.9673149999999999 C
   0.7707000000000001    0.4844700000000000    0.9486500000000000 C
   0.8267099999999999    0.4896100000000000    0.9767049999999999 C
   0.3275800000000000    0.0654300000000000    0.7573200000000000 C
   0.2293000000000000    0.1027500000000000    0.7577550000000000 C
   0.1732900000000000    0.0466500000000000    0.7551850000000000 C
   0.0656300000000000    0.5148200000000001    0.6637500000000001 C
   0.1029300000000000    0.5156300000000000    0.6146000000000000 C
   0.0467900000000000    0.5105200000000000    0.5866000000000000 C
   0.0811800000000000    0.0811000000000000    0.7541000000000000 C
   0.0243900000000000    0.0243500000000000    0.7513000000000001 C
   0.1941500000000000    0.1940000000000000    0.7593400000000000 C
   0.0811900000000000    0.5082200000000000    0.5405350000000000 C
   0.0243900000000000    0.5026000000000000    0.5121700000000000 C
   0.1941500000000000    0.5187200000000000    0.5969900000000000 C
   0.9188200000000000    0.9189000000000001    0.7459050000000000 C
   0.9756100000000000    0.9756400000000000    0.7487050000000000 C
   0.8058500000000000    0.8060000000000000    0.7406500000000000 C
   0.9188100000000000    0.4917700000000000    0.9594700000000000 C
   0.9756100000000000    0.4973900000000000    0.9878350000000000 C
   0.8058400000000000    0.4812800000000000    0.9030199999999999 C
   0.4916200000000000    0.9188700000000000    0.9594700000000000 C
   0.4973500000000000    0.9756200000000000    0.9878350000000000 C
   0.4810200000000000    0.8059700000000000    0.9030000000000000 C
   0.9836400000000000    0.3565500000000000    0.2523550000000000 O
   0.1185600000000000    0.3753500000000000    0.2614750000000000 O
   0.5049100000000000    0.9834600000000000    0.1782500000000000 O
   0.5230600000000000    0.1184700000000000    0.1876700000000000 O
   0.3566100000000000    0.5045700000000000    0.4916950000000000 O
   0.3753800000000000    0.5227400000000000    0.0591950000000000 O
   0.6434100000000000    0.0165700000000000    0.2477250000000000 O
   0.6246100000000000    0.8815900000000000    0.2386300000000000 O
   0.0163500000000000    0.4952400000000000    0.3217250000000000 O
   0.8814300000000000    0.4769900000000000    0.3123000000000000 O
   0.4951000000000000    0.6434299999999999    0.0083000000000000 O
   0.0163500000000000    0.6434400000000000    0.2476550000000000 O
   0.8814400000000000    0.6246500000000000    0.2385000000000000 O
   0.6433800000000000    0.4954300000000000    0.0083000000000000 O
   0.6246200000000000    0.4772500000000000    0.4408150000000000 O
   0.3565900000000000    0.9834200000000000    0.2522850000000000 O
   0.3753800000000000    0.1184100000000000    0.2613750000000000 O
   0.9836500000000000    0.5047500000000000    0.1782850000000000 O
   0.1185600000000000    0.5230100000000000    0.1876750000000000 O
   0.5230000000000000    0.3753400000000000    0.0592150000000000 O
   0.9836400000000000    0.3565500000000000    0.7523550000000000 O
   0.1185600000000000    0.3753500000000000    0.7614750000000000 O
   0.3566100000000000    0.5045700000000000    0.9916950000000000 O
   0.3753800000000000    0.5227400000000000    0.5591950000000000 O
   0.6434100000000000    0.0165700000000000    0.7477250000000000 O
   0.6246100000000000    0.8815900000000000    0.7386300000000000 O
   0.0163500000000000    0.4952400000000000    0.8217250000000000 O
   0.8814300000000000    0.4769900000000000    0.8123000000000000 O
   0.4770000000000000    0.6246500000000000    0.9407900000000000 O
   0.0163500000000000    0.6434400000000000    0.7476550000000000 O
   0.8814400000000000    0.6246500000000000    0.7384999999999999 O
   0.4950900000000000    0.0165300000000000    0.8217250000000000 O
   0.4769400000000000    0.8815200000000000    0.8123350000000000 O
   0.6433800000000000    0.4954300000000000    0.5083000000000000 O
   0.6246200000000000    0.4772500000000000    0.9408150000000000 O
   0.3565900000000000    0.9834200000000000    0.7522850000000000 O
   0.3753800000000000    0.1184100000000000    0.7613750000000000 O
   0.9836500000000000    0.5047500000000000    0.6782850000000000 O
   0.1185600000000000    0.5230100000000000    0.6876750000000000 O
   0.5048899999999999    0.3565600000000000    0.9917100000000000 O
