H1 C6 N9
1.0
  29.8581541499587253    0.0000000000000000    3.8079693745226599
   1.4971345200064763   12.4250712237226164    1.0746693977336244
   0.0000000000000000    0.0000000000000000   25.1340000000000003
H C N
1 6 9
direct
   0.2368425000000000    0.4678700000000000    0.2084350000000000 H
   0.2338375000000000    0.3341300000000000    0.2647450000000000 C
   0.2154125000000000    0.3375600000000000    0.1752450000000000 C
   0.2059600000000000    0.1929600000000000    0.2350550000000000 C
   0.2483800000000000    0.3505800000000000    0.3508300000000000 C
   0.2043925000000000    0.3621400000000000    0.0852950000000000 C
   0.1756525000000000    0.0440300000000000    0.2122200000000000 C
   0.2298700000000000    0.3881000000000000    0.2153550000000000 N
   0.2038925000000000    0.2381000000000000    0.1843200000000000 N
   0.2218475000000000    0.2355800000000000    0.2754700000000000 N
   0.2498875000000000    0.3888000000000000    0.3010250000000000 N
   0.2480325000000000    0.3256300000000000    0.3971300000000000 N
   0.2115725000000000    0.3987200000000000    0.1290350000000000 N
   0.1973050000000000    0.3399600000000000    0.0423200000000000 N
   0.1895625000000000    0.0960900000000000    0.2484700000000000 N
   0.1621650000000000    0.9856700000000000    0.1851750000000000 N
