Cu32 H31 C186 N279
1.0
  29.8581541499587253    0.0000000000000000    3.8079693745226599
   1.4971345200064763   12.4250712237226164    1.0746693977336244
   0.0000000000000000    0.0000000000000000   25.1340000000000003
Cu H C N
32 31 186 279
direct
   0.1016450000000000    0.9405400000000000    0.1781100000000000 Cu
   0.1483375000000000    0.0594900000000000    0.3218850000000000 Cu
   0.0235400000000000    0.6437800000000000    0.0296900000000000 Cu
   0.2265375000000000    0.3562100000000000    0.4702850000000000 Cu
   0.3516450000000000    0.9405400000000000    0.1781100000000000 Cu
   0.3983375000000000    0.0594900000000000    0.3218850000000000 Cu
   0.2735400000000000    0.6437800000000000    0.0296900000000000 Cu
   0.4765375000000000    0.3562100000000000    0.4702850000000000 Cu
   0.6016450000000000    0.9405400000000000    0.1781100000000000 Cu
   0.6483375000000000    0.0594900000000000    0.3218850000000000 Cu
   0.5235400000000000    0.6437800000000000    0.0296900000000000 Cu
   0.7265375000000001    0.3562100000000000    0.4702850000000000 Cu
   0.8516450000000000    0.9405400000000000    0.1781100000000000 Cu
   0.8983375000000000    0.0594900000000000    0.3218850000000000 Cu
   0.7735400000000000    0.6437800000000000    0.0296900000000000 Cu
   0.9765375000000001    0.3562100000000000    0.4702850000000000 Cu
   0.1016450000000000    0.9405400000000000    0.6781100000000000 Cu
   0.1483375000000000    0.0594900000000000    0.8218850000000000 Cu
   0.0235400000000000    0.6437800000000000    0.5296900000000000 Cu
   0.2265375000000000    0.3562100000000000    0.9702850000000001 Cu
   0.3516450000000000    0.9405400000000000    0.6781100000000000 Cu
   0.3983375000000000    0.0594900000000000    0.8218850000000000 Cu
   0.2735400000000000    0.6437800000000000    0.5296900000000000 Cu
   0.4765375000000000    0.3562100000000000    0.9702850000000001 Cu
   0.6016450000000000    0.9405400000000000    0.6781100000000000 Cu
   0.6483375000000000    0.0594900000000000    0.8218850000000000 Cu
   0.5235400000000000    0.6437800000000000    0.5296900000000000 Cu
   0.7265375000000001    0.3562100000000000    0.9702850000000001 Cu
   0.8516450000000000    0.9405400000000000    0.6781100000000000 Cu
   0.8983375000000000    0.0594900000000000    0.8218850000000000 Cu
   0.7735400000000000    0.6437800000000000    0.5296900000000000 Cu
   0.9765375000000001    0.3562100000000000    0.9702850000000001 Cu
   0.1119175000000000    0.4168600000000000    0.2340000000000000 H
   0.0131675000000000    0.5321100000000000    0.2915550000000000 H
   0.1381075000000000    0.5831700000000000    0.2660200000000000 H
   0.3619175000000000    0.4168600000000000    0.2340000000000000 H
   0.4868425000000000    0.4678700000000000    0.2084350000000000 H
   0.2631675000000000    0.5321100000000000    0.2915550000000000 H
   0.3881075000000000    0.5831700000000000    0.2660200000000000 H
   0.6119175000000000    0.4168600000000000    0.2340000000000000 H
   0.7368425000000001    0.4678700000000000    0.2084350000000000 H
   0.5131675000000000    0.5321100000000000    0.2915550000000000 H
   0.6381075000000000    0.5831700000000000    0.2660200000000000 H
   0.8619175000000000    0.4168600000000000    0.2340000000000000 H
   0.9868425000000001    0.4678700000000000    0.2084350000000000 H
   0.7631675000000000    0.5321100000000000    0.2915550000000000 H
   0.8881075000000000    0.5831700000000000    0.2660200000000000 H
   0.1119175000000000    0.4168600000000000    0.7340000000000000 H
   0.2368425000000000    0.4678700000000000    0.7084350000000000 H
   0.0131675000000000    0.5321100000000000    0.7915550000000000 H
   0.1381075000000000    0.5831700000000000    0.7660199999999999 H
   0.3619175000000000    0.4168600000000000    0.7340000000000000 H
   0.4868425000000000    0.4678700000000000    0.7084350000000000 H
   0.2631675000000000    0.5321100000000000    0.7915550000000000 H
   0.3881075000000000    0.5831700000000000    0.7660199999999999 H
   0.6119175000000000    0.4168600000000000    0.7340000000000000 H
   0.7368425000000001    0.4678700000000000    0.7084350000000000 H
   0.5131675000000000    0.5321100000000000    0.7915550000000000 H
   0.6381075000000000    0.5831700000000000    0.7660199999999999 H
   0.8619175000000000    0.4168600000000000    0.7340000000000000 H
   0.9868425000000001    0.4678700000000000    0.7084350000000000 H
   0.7631675000000000    0.5321100000000000    0.7915550000000000 H
   0.8881075000000000    0.5831700000000000    0.7660199999999999 H
   0.1090125000000000    0.5292500000000000    0.1670200000000000 C
   0.0904875000000000    0.3503500000000000    0.1688700000000000 C
   0.0811350000000000    0.4697700000000000    0.0964450000000000 C
   0.1235300000000000    0.7014300000000000    0.1751900000000000 C
   0.0793100000000000    0.1706100000000000    0.1812550000000000 C
   0.0507250000000000    0.4241300000000000    0.0220100000000000 C
   0.0161700000000000    0.6658400000000000    0.2352350000000000 C
   0.0346075000000000    0.6624200000000000    0.3247300000000000 C
   0.0440375000000000    0.8070300000000000    0.2649250000000000 C
   0.0016200000000000    0.6494600000000000    0.1492100000000000 C
   0.0456600000000000    0.6378000000000000    0.4146700000000000 C
   0.0743350000000000    0.9559800000000001    0.2877550000000000 C
   0.1410125000000000    0.4707500000000000    0.3329850000000000 C
   0.1595325000000000    0.6496600000000000    0.3311550000000000 C
   0.1689000000000000    0.5302000000000000    0.4035650000000000 C
   0.1264700000000000    0.2986000000000000    0.3248050000000000 C
   0.1706950000000000    0.8294200000000000    0.3187750000000000 C
   0.1992850000000000    0.5758100000000000    0.4780250000000000 C
   0.3590125000000000    0.5292500000000000    0.1670200000000000 C
   0.3404875000000000    0.3503500000000000    0.1688700000000000 C
   0.3311350000000000    0.4697700000000000    0.0964450000000000 C
   0.3735300000000000    0.7014300000000000    0.1751900000000000 C
   0.3293100000000000    0.1706100000000000    0.1812550000000000 C
   0.3007250000000000    0.4241300000000000    0.0220100000000000 C
   0.4838375000000000    0.3341300000000000    0.2647450000000000 C
   0.4654125000000000    0.3375600000000000    0.1752450000000000 C
   0.4559600000000000    0.1929600000000000    0.2350550000000000 C
   0.4983800000000000    0.3505800000000000    0.3508300000000000 C
   0.4543925000000000    0.3621400000000000    0.0852950000000000 C
   0.4256525000000000    0.0440300000000000    0.2122200000000000 C
   0.2661700000000000    0.6658400000000000    0.2352350000000000 C
   0.2846075000000000    0.6624200000000000    0.3247300000000000 C
   0.2940375000000000    0.8070300000000000    0.2649250000000000 C
   0.2516200000000000    0.6494600000000000    0.1492100000000000 C
   0.2956600000000000    0.6378000000000000    0.4146700000000000 C
   0.3243350000000000    0.9559800000000001    0.2877550000000000 C
   0.3910125000000000    0.4707500000000000    0.3329850000000000 C
   0.4095325000000000    0.6496600000000000    0.3311550000000000 C
   0.4189000000000000    0.5302000000000000    0.4035650000000000 C
   0.3764700000000000    0.2986000000000000    0.3248050000000000 C
   0.4206950000000000    0.8294200000000000    0.3187750000000000 C
   0.4492850000000000    0.5758100000000000    0.4780250000000000 C
   0.6090125000000000    0.5292500000000000    0.1670200000000000 C
   0.5904875000000001    0.3503500000000000    0.1688700000000000 C
   0.5811350000000000    0.4697700000000000    0.0964450000000000 C
   0.6235300000000000    0.7014300000000000    0.1751900000000000 C
   0.5793100000000000    0.1706100000000000    0.1812550000000000 C
   0.5507250000000000    0.4241300000000000    0.0220100000000000 C
   0.7338375000000000    0.3341300000000000    0.2647450000000000 C
   0.7154125000000000    0.3375600000000000    0.1752450000000000 C
   0.7059600000000000    0.1929600000000000    0.2350550000000000 C
   0.7483800000000000    0.3505800000000000    0.3508300000000000 C
   0.7043925000000000    0.3621400000000000    0.0852950000000000 C
   0.6756525000000000    0.0440300000000000    0.2122200000000000 C
   0.5161700000000000    0.6658400000000000    0.2352350000000000 C
   0.5346075000000000    0.6624200000000000    0.3247300000000000 C
   0.5440375000000000    0.8070300000000000    0.2649250000000000 C
   0.5016200000000000    0.6494600000000000    0.1492100000000000 C
   0.5456600000000000    0.6378000000000000    0.4146700000000000 C
   0.5743350000000000    0.9559800000000001    0.2877550000000000 C
   0.6410125000000000    0.4707500000000000    0.3329850000000000 C
   0.6595325000000000    0.6496600000000000    0.3311550000000000 C
   0.6689000000000001    0.5302000000000000    0.4035650000000000 C
   0.6264700000000000    0.2986000000000000    0.3248050000000000 C
   0.6706950000000000    0.8294200000000000    0.3187750000000000 C
   0.6992849999999999    0.5758100000000000    0.4780250000000000 C
   0.8590125000000000    0.5292500000000000    0.1670200000000000 C
   0.8404875000000001    0.3503500000000000    0.1688700000000000 C
   0.8311350000000000    0.4697700000000000    0.0964450000000000 C
   0.8735300000000000    0.7014300000000000    0.1751900000000000 C
   0.8293100000000000    0.1706100000000000    0.1812550000000000 C
   0.8007250000000000    0.4241300000000000    0.0220100000000000 C
   0.9838375000000000    0.3341300000000000    0.2647450000000000 C
   0.9654125000000000    0.3375600000000000    0.1752450000000000 C
   0.9559600000000000    0.1929600000000000    0.2350550000000000 C
   0.9983800000000000    0.3505800000000000    0.3508300000000000 C
   0.9543925000000000    0.3621400000000000    0.0852950000000000 C
   0.9256525000000000    0.0440300000000000    0.2122200000000000 C
   0.7661700000000000    0.6658400000000000    0.2352350000000000 C
   0.7846075000000000    0.6624200000000000    0.3247300000000000 C
   0.7940375000000000    0.8070300000000000    0.2649250000000000 C
   0.7516200000000000    0.6494600000000000    0.1492100000000000 C
   0.7956600000000000    0.6378000000000000    0.4146700000000000 C
   0.8243350000000000    0.9559800000000001    0.2877550000000000 C
   0.8910125000000000    0.4707500000000000    0.3329850000000000 C
   0.9095325000000000    0.6496600000000000    0.3311550000000000 C
   0.9189000000000001    0.5302000000000000    0.4035650000000000 C
   0.8764700000000000    0.2986000000000000    0.3248050000000000 C
   0.9206950000000000    0.8294200000000000    0.3187750000000000 C
   0.9492849999999999    0.5758100000000000    0.4780250000000000 C
   0.1090125000000000    0.5292500000000000    0.6670199999999999 C
   0.0904875000000000    0.3503500000000000    0.6688700000000000 C
   0.0811350000000000    0.4697700000000000    0.5964450000000000 C
   0.1235300000000000    0.7014300000000000    0.6751900000000000 C
   0.0793100000000000    0.1706100000000000    0.6812549999999999 C
   0.0507250000000000    0.4241300000000000    0.5220100000000000 C
   0.2338375000000000    0.3341300000000000    0.7647450000000000 C
   0.2154125000000000    0.3375600000000000    0.6752450000000000 C
   0.2059600000000000    0.1929600000000000    0.7350550000000000 C
   0.2483800000000000    0.3505800000000000    0.8508300000000000 C
   0.2043925000000000    0.3621400000000000    0.5852950000000000 C
   0.1756525000000000    0.0440300000000000    0.7122200000000000 C
   0.0161700000000000    0.6658400000000000    0.7352350000000000 C
   0.0346075000000000    0.6624200000000000    0.8247300000000000 C
   0.0440375000000000    0.8070300000000000    0.7649250000000001 C
   0.0016200000000000    0.6494600000000000    0.6492100000000001 C
   0.0456600000000000    0.6378000000000000    0.9146700000000000 C
   0.0743350000000000    0.9559800000000001    0.7877550000000000 C
   0.1410125000000000    0.4707500000000000    0.8329850000000000 C
   0.1595325000000000    0.6496600000000000    0.8311550000000000 C
   0.1689000000000000    0.5302000000000000    0.9035650000000000 C
   0.1264700000000000    0.2986000000000000    0.8248050000000000 C
   0.1706950000000000    0.8294200000000000    0.8187750000000000 C
   0.1992850000000000    0.5758100000000000    0.9780249999999999 C
   0.3590125000000000    0.5292500000000000    0.6670199999999999 C
   0.3404875000000000    0.3503500000000000    0.6688700000000000 C
   0.3311350000000000    0.4697700000000000    0.5964450000000000 C
   0.3735300000000000    0.7014300000000000    0.6751900000000000 C
   0.3293100000000000    0.1706100000000000    0.6812549999999999 C
   0.3007250000000000    0.4241300000000000    0.5220100000000000 C
   0.4838375000000000    0.3341300000000000    0.7647450000000000 C
   0.4654125000000000    0.3375600000000000    0.6752450000000000 C
   0.4559600000000000    0.1929600000000000    0.7350550000000000 C
   0.4983800000000000    0.3505800000000000    0.8508300000000000 C
   0.4543925000000000    0.3621400000000000    0.5852950000000000 C
   0.4256525000000000    0.0440300000000000    0.7122200000000000 C
   0.2661700000000000    0.6658400000000000    0.7352350000000000 C
   0.2846075000000000    0.6624200000000000    0.8247300000000000 C
   0.2940375000000000    0.8070300000000000    0.7649250000000001 C
   0.2516200000000000    0.6494600000000000    0.6492100000000001 C
   0.2956600000000000    0.6378000000000000    0.9146700000000000 C
   0.3243350000000000    0.9559800000000001    0.7877550000000000 C
   0.3910125000000000    0.4707500000000000    0.8329850000000000 C
   0.4095325000000000    0.6496600000000000    0.8311550000000000 C
   0.4189000000000000    0.5302000000000000    0.9035650000000000 C
   0.3764700000000000    0.2986000000000000    0.8248050000000000 C
   0.4206950000000000    0.8294200000000000    0.8187750000000000 C
   0.4492850000000000    0.5758100000000000    0.9780249999999999 C
   0.6090125000000000    0.5292500000000000    0.6670199999999999 C
   0.5904875000000001    0.3503500000000000    0.6688700000000000 C
   0.5811350000000000    0.4697700000000000    0.5964450000000000 C
   0.6235300000000000    0.7014300000000000    0.6751900000000000 C
   0.5793100000000000    0.1706100000000000    0.6812549999999999 C
   0.5507250000000000    0.4241300000000000    0.5220100000000000 C
   0.7338375000000000    0.3341300000000000    0.7647450000000000 C
   0.7154125000000000    0.3375600000000000    0.6752450000000000 C
   0.7059600000000000    0.1929600000000000    0.7350550000000000 C
   0.7483800000000000    0.3505800000000000    0.8508300000000000 C
   0.7043925000000000    0.3621400000000000    0.5852950000000000 C
   0.6756525000000000    0.0440300000000000    0.7122200000000000 C
   0.5161700000000000    0.6658400000000000    0.7352350000000000 C
   0.5346075000000000    0.6624200000000000    0.8247300000000000 C
   0.5440375000000000    0.8070300000000000    0.7649250000000001 C
   0.5016200000000000    0.6494600000000000    0.6492100000000001 C
   0.5456600000000000    0.6378000000000000    0.9146700000000000 C
   0.5743350000000000    0.9559800000000001    0.7877550000000000 C
   0.6410125000000000    0.4707500000000000    0.8329850000000000 C
   0.6595325000000000    0.6496600000000000    0.8311550000000000 C
   0.6689000000000001    0.5302000000000000    0.9035650000000000 C
   0.6264700000000000    0.2986000000000000    0.8248050000000000 C
   0.6706950000000000    0.8294200000000000    0.8187750000000000 C
   0.6992849999999999    0.5758100000000000    0.9780249999999999 C
   0.8590125000000000    0.5292500000000000    0.6670199999999999 C
   0.8404875000000001    0.3503500000000000    0.6688700000000000 C
   0.8311350000000000    0.4697700000000000    0.5964450000000000 C
   0.8735300000000000    0.7014300000000000    0.6751900000000000 C
   0.8293100000000000    0.1706100000000000    0.6812549999999999 C
   0.8007250000000000    0.4241300000000000    0.5220100000000000 C
   0.9838375000000000    0.3341300000000000    0.7647450000000000 C
   0.9654125000000000    0.3375600000000000    0.6752450000000000 C
   0.9559600000000000    0.1929600000000000    0.7350550000000000 C
   0.9983800000000000    0.3505800000000000    0.8508300000000000 C
   0.9543925000000000    0.3621400000000000    0.5852950000000000 C
   0.9256525000000000    0.0440300000000000    0.7122200000000000 C
   0.7661700000000000    0.6658400000000000    0.7352350000000000 C
   0.7846075000000000    0.6624200000000000    0.8247300000000000 C
   0.7940375000000000    0.8070300000000000    0.7649250000000001 C
   0.7516200000000000    0.6494600000000000    0.6492100000000001 C
   0.7956600000000000    0.6378000000000000    0.9146700000000000 C
   0.8243350000000000    0.9559800000000001    0.7877550000000000 C
   0.8910125000000000    0.4707500000000000    0.8329850000000000 C
   0.9095325000000000    0.6496600000000000    0.8311550000000000 C
   0.9189000000000001    0.5302000000000000    0.9035650000000000 C
   0.8764700000000000    0.2986000000000000    0.8248050000000000 C
   0.9206950000000000    0.8294200000000000    0.8187750000000000 C
   0.9492849999999999    0.5758100000000000    0.9780249999999999 C
   0.1050150000000000    0.4305500000000000    0.1940700000000000 N
   0.0789900000000000    0.3683900000000000    0.1191150000000000 N
   0.0970425000000000    0.5506100000000000    0.1177100000000000 N
   0.1250375000000000    0.6017800000000000    0.1943350000000000 N
   0.1232175000000000    0.7940700000000001    0.1627300000000000 N
   0.0865450000000000    0.2580600000000000    0.1995400000000000 N
   0.0721850000000000    0.0847100000000000    0.1701300000000000 N
   0.0647350000000000    0.4965900000000000    0.0479750000000000 N
   0.0371300000000000    0.3700800000000000    0.4928850000000000 N
   0.0201325000000000    0.6118900000000000    0.2846250000000000 N
   0.0461175000000000    0.7618800000000000    0.3156550000000000 N
   0.0281400000000000    0.7644100000000000    0.2245150000000000 N
   0.0001275000000000    0.6112100000000000    0.1990100000000000 N
   0.0019550000000000    0.6744200000000000    0.1029100000000000 N
   0.0384500000000000    0.6012500000000000    0.3709350000000000 N
   0.0527675000000000    0.6599400000000000    0.4576450000000000 N
   0.0604200000000000    0.9039199999999999    0.2515050000000000 N
   0.0878275000000000    0.0143400000000000    0.3147950000000000 N
   0.1450150000000000    0.5694600000000000    0.3059450000000000 N
   0.1710375000000000    0.6316000000000001    0.3809100000000000 N
   0.1529950000000000    0.4493700000000000    0.3822900000000000 N
   0.1249800000000000    0.3982400000000000    0.3056700000000000 N
   0.1267675000000000    0.2059600000000000    0.3372600000000000 N
   0.1634775000000000    0.7419500000000000    0.3004900000000000 N
   0.1778075000000000    0.9153400000000000    0.3298950000000000 N
   0.1852975000000000    0.5033600000000000    0.4520400000000000 N
   0.2128500000000000    0.6298700000000000    0.0071750000000000 N
   0.3550150000000000    0.4305500000000000    0.1940700000000000 N
   0.3289900000000000    0.3683900000000000    0.1191150000000000 N
   0.3470425000000000    0.5506100000000000    0.1177100000000000 N
   0.3750375000000000    0.6017800000000000    0.1943350000000000 N
   0.3732175000000000    0.7940700000000001    0.1627300000000000 N
   0.3365450000000000    0.2580600000000000    0.1995400000000000 N
   0.3221850000000000    0.0847100000000000    0.1701300000000000 N
   0.3147350000000000    0.4965900000000000    0.0479750000000000 N
   0.2871300000000000    0.3700800000000000    0.4928850000000000 N
   0.4798700000000000    0.3881000000000000    0.2153550000000000 N
   0.4538925000000000    0.2381000000000000    0.1843200000000000 N
   0.4718475000000000    0.2355800000000000    0.2754700000000000 N
   0.4998875000000000    0.3888000000000000    0.3010250000000000 N
   0.4980325000000000    0.3256300000000000    0.3971300000000000 N
   0.4615725000000000    0.3987200000000000    0.1290350000000000 N
   0.4473050000000000    0.3399600000000000    0.0423200000000000 N
   0.4395625000000000    0.0960900000000000    0.2484700000000000 N
   0.4121650000000000    0.9856700000000000    0.1851750000000000 N
   0.2701325000000000    0.6118900000000000    0.2846250000000000 N
   0.2961175000000000    0.7618800000000000    0.3156550000000000 N
   0.2781400000000000    0.7644100000000000    0.2245150000000000 N
   0.2501275000000000    0.6112100000000000    0.1990100000000000 N
   0.2519550000000000    0.6744200000000000    0.1029100000000000 N
   0.2884500000000000    0.6012500000000000    0.3709350000000000 N
   0.3027675000000000    0.6599400000000000    0.4576450000000000 N
   0.3104200000000000    0.9039199999999999    0.2515050000000000 N
   0.3378275000000000    0.0143400000000000    0.3147950000000000 N
   0.3950150000000000    0.5694600000000000    0.3059450000000000 N
   0.4210375000000000    0.6316000000000001    0.3809100000000000 N
   0.4029950000000000    0.4493700000000000    0.3822900000000000 N
   0.3749800000000000    0.3982400000000000    0.3056700000000000 N
   0.3767675000000000    0.2059600000000000    0.3372600000000000 N
   0.4134775000000000    0.7419500000000000    0.3004900000000000 N
   0.4278075000000000    0.9153400000000000    0.3298950000000000 N
   0.4352975000000000    0.5033600000000000    0.4520400000000000 N
   0.4628500000000000    0.6298700000000000    0.0071750000000000 N
   0.6050150000000000    0.4305500000000000    0.1940700000000000 N
   0.5789900000000000    0.3683900000000000    0.1191150000000000 N
   0.5970425000000000    0.5506100000000000    0.1177100000000000 N
   0.6250375000000000    0.6017800000000000    0.1943350000000000 N
   0.6232175000000000    0.7940700000000001    0.1627300000000000 N
   0.5865450000000000    0.2580600000000000    0.1995400000000000 N
   0.5721849999999999    0.0847100000000000    0.1701300000000000 N
   0.5647350000000000    0.4965900000000000    0.0479750000000000 N
   0.5371300000000000    0.3700800000000000    0.4928850000000000 N
   0.7298700000000000    0.3881000000000000    0.2153550000000000 N
   0.7038925000000000    0.2381000000000000    0.1843200000000000 N
   0.7218475000000000    0.2355800000000000    0.2754700000000000 N
   0.7498875000000000    0.3888000000000000    0.3010250000000000 N
   0.7480325000000000    0.3256300000000000    0.3971300000000000 N
   0.7115724999999999    0.3987200000000000    0.1290350000000000 N
   0.6973050000000001    0.3399600000000000    0.0423200000000000 N
   0.6895625000000000    0.0960900000000000    0.2484700000000000 N
   0.6621650000000000    0.9856700000000000    0.1851750000000000 N
   0.5201325000000000    0.6118900000000000    0.2846250000000000 N
   0.5461175000000000    0.7618800000000000    0.3156550000000000 N
   0.5281400000000001    0.7644100000000000    0.2245150000000000 N
   0.5001274999999999    0.6112100000000000    0.1990100000000000 N
   0.5019550000000000    0.6744200000000000    0.1029100000000000 N
   0.5384500000000000    0.6012500000000000    0.3709350000000000 N
   0.5527675000000000    0.6599400000000000    0.4576450000000000 N
   0.5604200000000000    0.9039199999999999    0.2515050000000000 N
   0.5878274999999999    0.0143400000000000    0.3147950000000000 N
   0.6450150000000000    0.5694600000000000    0.3059450000000000 N
   0.6710375000000000    0.6316000000000001    0.3809100000000000 N
   0.6529950000000000    0.4493700000000000    0.3822900000000000 N
   0.6249800000000000    0.3982400000000000    0.3056700000000000 N
   0.6267675000000000    0.2059600000000000    0.3372600000000000 N
   0.6634774999999999    0.7419500000000000    0.3004900000000000 N
   0.6778075000000000    0.9153400000000000    0.3298950000000000 N
   0.6852975000000000    0.5033600000000000    0.4520400000000000 N
   0.7128500000000000    0.6298700000000000    0.0071750000000000 N
   0.8550150000000000    0.4305500000000000    0.1940700000000000 N
   0.8289900000000000    0.3683900000000000    0.1191150000000000 N
   0.8470425000000000    0.5506100000000000    0.1177100000000000 N
   0.8750375000000000    0.6017800000000000    0.1943350000000000 N
   0.8732175000000000    0.7940700000000001    0.1627300000000000 N
   0.8365450000000000    0.2580600000000000    0.1995400000000000 N
   0.8221849999999999    0.0847100000000000    0.1701300000000000 N
   0.8147350000000000    0.4965900000000000    0.0479750000000000 N
   0.7871300000000000    0.3700800000000000    0.4928850000000000 N
   0.9798700000000000    0.3881000000000000    0.2153550000000000 N
   0.9538925000000000    0.2381000000000000    0.1843200000000000 N
   0.9718475000000000    0.2355800000000000    0.2754700000000000 N
   0.9998875000000000    0.3888000000000000    0.3010250000000000 N
   0.9980325000000000    0.3256300000000000    0.3971300000000000 N
   0.9615724999999999    0.3987200000000000    0.1290350000000000 N
   0.9473050000000001    0.3399600000000000    0.0423200000000000 N
   0.9395625000000000    0.0960900000000000    0.2484700000000000 N
   0.9121650000000000    0.9856700000000000    0.1851750000000000 N
   0.7701325000000000    0.6118900000000000    0.2846250000000000 N
   0.7961175000000000    0.7618800000000000    0.3156550000000000 N
   0.7781400000000001    0.7644100000000000    0.2245150000000000 N
   0.7501274999999999    0.6112100000000000    0.1990100000000000 N
   0.7519550000000000    0.6744200000000000    0.1029100000000000 N
   0.7884500000000000    0.6012500000000000    0.3709350000000000 N
   0.8027675000000000    0.6599400000000000    0.4576450000000000 N
   0.8104200000000000    0.9039199999999999    0.2515050000000000 N
   0.8378274999999999    0.0143400000000000    0.3147950000000000 N
   0.8950150000000000    0.5694600000000000    0.3059450000000000 N
   0.9210375000000000    0.6316000000000001    0.3809100000000000 N
   0.9029950000000000    0.4493700000000000    0.3822900000000000 N
   0.8749800000000000    0.3982400000000000    0.3056700000000000 N
   0.8767675000000000    0.2059600000000000    0.3372600000000000 N
   0.9134774999999999    0.7419500000000000    0.3004900000000000 N
   0.9278075000000000    0.9153400000000000    0.3298950000000000 N
   0.9352975000000000    0.5033600000000000    0.4520400000000000 N
   0.9628500000000000    0.6298700000000000    0.0071750000000000 N
   0.1050150000000000    0.4305500000000000    0.6940700000000000 N
   0.0789900000000000    0.3683900000000000    0.6191150000000000 N
   0.0970425000000000    0.5506100000000000    0.6177100000000000 N
   0.1250375000000000    0.6017800000000000    0.6943350000000000 N
   0.1232175000000000    0.7940700000000001    0.6627300000000000 N
   0.0865450000000000    0.2580600000000000    0.6995400000000001 N
   0.0721850000000000    0.0847100000000000    0.6701300000000000 N
   0.0647350000000000    0.4965900000000000    0.5479750000000000 N
   0.0371300000000000    0.3700800000000000    0.9928850000000000 N
   0.2298700000000000    0.3881000000000000    0.7153550000000000 N
   0.2038925000000000    0.2381000000000000    0.6843200000000000 N
   0.2218475000000000    0.2355800000000000    0.7754700000000000 N
   0.2498875000000000    0.3888000000000000    0.8010250000000000 N
   0.2480325000000000    0.3256300000000000    0.8971300000000000 N
   0.2115725000000000    0.3987200000000000    0.6290350000000000 N
   0.1973050000000000    0.3399600000000000    0.5423200000000000 N
   0.1895625000000000    0.0960900000000000    0.7484700000000000 N
   0.1621650000000000    0.9856700000000000    0.6851750000000000 N
   0.0201325000000000    0.6118900000000000    0.7846250000000000 N
   0.0461175000000000    0.7618800000000000    0.8156550000000000 N
   0.0281400000000000    0.7644100000000000    0.7245150000000000 N
   0.0001275000000000    0.6112100000000000    0.6990100000000000 N
   0.0019550000000000    0.6744200000000000    0.6029100000000001 N
   0.0384500000000000    0.6012500000000000    0.8709350000000000 N
   0.0527675000000000    0.6599400000000000    0.9576450000000001 N
   0.0604200000000000    0.9039199999999999    0.7515050000000000 N
   0.0878275000000000    0.0143400000000000    0.8147949999999999 N
   0.1450150000000000    0.5694600000000000    0.8059450000000000 N
   0.1710375000000000    0.6316000000000001    0.8809100000000001 N
   0.1529950000000000    0.4493700000000000    0.8822900000000000 N
   0.1249800000000000    0.3982400000000000    0.8056700000000000 N
   0.1267675000000000    0.2059600000000000    0.8372600000000000 N
   0.1634775000000000    0.7419500000000000    0.8004899999999999 N
   0.1778075000000000    0.9153400000000000    0.8298950000000000 N
   0.1852975000000000    0.5033600000000000    0.9520400000000000 N
   0.2128500000000000    0.6298700000000000    0.5071750000000000 N
   0.3550150000000000    0.4305500000000000    0.6940700000000000 N
   0.3289900000000000    0.3683900000000000    0.6191150000000000 N
   0.3470425000000000    0.5506100000000000    0.6177100000000000 N
   0.3750375000000000    0.6017800000000000    0.6943350000000000 N
   0.3732175000000000    0.7940700000000001    0.6627300000000000 N
   0.3365450000000000    0.2580600000000000    0.6995400000000001 N
   0.3221850000000000    0.0847100000000000    0.6701300000000000 N
   0.3147350000000000    0.4965900000000000    0.5479750000000000 N
   0.2871300000000000    0.3700800000000000    0.9928850000000000 N
   0.4798700000000000    0.3881000000000000    0.7153550000000000 N
   0.4538925000000000    0.2381000000000000    0.6843200000000000 N
   0.4718475000000000    0.2355800000000000    0.7754700000000000 N
   0.4998875000000000    0.3888000000000000    0.8010250000000000 N
   0.4980325000000000    0.3256300000000000    0.8971300000000000 N
   0.4615725000000000    0.3987200000000000    0.6290350000000000 N
   0.4473050000000000    0.3399600000000000    0.5423200000000000 N
   0.4395625000000000    0.0960900000000000    0.7484700000000000 N