H9 O6
1.0
  12.2480490336403918    0.0000000000000000    1.3108847659274447
  -0.7131895684527051   19.9551955001312820    6.6463191460379409
   0.0000000000000000    0.0000000000000000   33.2860000000000014
H O
9 6
direct
   1.0026404986075903    0.0891053218587069    0.9372672150651560 H
   0.0699999986284474    0.1041033714577320    0.7389833995367208 H
   0.1399548958405657    0.2685960158280395    0.7737003662223990 H
   0.1024143172254301    0.1865663638368434    0.7574642720435202 H
   0.8119081695622866    0.1991089786597393    0.8531055555856363 H
   1.1088838498216744    0.2997831065492161    0.8340988003442439 H
   0.9659746047866689    0.2477953524475086    0.8445122844603279 H
   0.0653536859616380    0.1706915444466982    0.8482128948454000 H
   0.1689117171343923    0.1077528617084049    0.8816747403811419 H
   0.9677400000000000    0.0526500000000000    0.9614500000000000 O
   0.1019400000000000    0.1445800000000000    0.7415550000000000 O
   0.1395600000000000    0.2336400000000000    0.7604550000000000 O
   0.8684900000000000    0.2343600000000000    0.8437350000000000 O
   1.0325299999999999    0.2892600000000000    0.8334900000000001 O
   0.1436600000000000    0.1749300000000000    0.8500099999999999 O
