H5 C6 O7
1.0
  12.2480490336403918    0.0000000000000000    1.3108847659274447
  -0.7131895684527051   19.9551955001312820    6.6463191460379409
   0.0000000000000000    0.0000000000000000   33.2860000000000014
H C O
5 6 7
direct
   0.1499800000000000    0.1712900000000000    0.8800700000000000 H
   0.8838900000000000    0.1270100000000000    0.8907700000000001 H
   0.9692200000000000    0.0654400000000000    0.8812850000000000 H
   0.0215600000000000    0.0916200000000000    0.8167450000000001 H
   0.9302800000000000    0.1563500000000000    0.7997900000000000 H
   0.0139800000000000    0.1009500000000000    0.9294100000000001 C
   0.9702100000000000    0.1141600000000000    0.8870899999999999 C
   0.0281900000000000    0.1686800000000000    0.8473600000000000 C
   0.0137800000000000    0.1461200000000000    0.8083450000000000 C
   0.0896000000000000    0.1777000000000000    0.7678199999999999 C
   0.9715500000000000    0.2370300000000000    0.8413700000000000 C
   0.0965300000000000    0.1330600000000000    0.9342800000000000 O
   0.9677400000000000    0.0526500000000000    0.9614500000000000 O
   0.1019400000000000    0.1445800000000000    0.7415550000000000 O
   0.1395600000000000    0.2336400000000000    0.7604550000000000 O
   1.0325299999999999    0.2892600000000000    0.8334900000000001 O
   0.8684900000000000    0.2343600000000000    0.8437350000000000 O
   0.1436600000000000    0.1749300000000000    0.8500099999999999 O
