Ca48 H164 C186 O223
1.0
  12.2480490336403918    0.0000000000000000    1.3108847659274447
  -0.7131895684527051   19.9551955001312820    6.6463191460379409
   0.0000000000000000    0.0000000000000000   33.2860000000000014
Ca H C O
48 164 186 223
direct
   0.1249700000000000    0.5478700000000000    0.1500000000000000 Ca
   0.6249800000000000    0.5478700000000000    0.1500000000000000 Ca
   0.3750600000000000    0.4521300000000000    0.9999850000000000 Ca
   0.8750700000000000    0.4521300000000000    0.9999850000000000 Ca
   0.5208500000000000    0.5918700000000000    0.1981150000000000 Ca
   0.0208400000000000    0.5918700000000000    0.1981150000000000 Ca
   0.9792000000000000    0.4081200000000000    0.3018800000000000 Ca
   0.4791900000000000    0.4081200000000000    0.3018800000000000 Ca
   0.6249800000000000    0.0478700000000000    0.6500000000000000 Ca
   0.1249600000000000    0.0478700000000000    0.6500000000000000 Ca
   0.3750600000000000    0.9521300000000000    0.4999850000000000 Ca
   0.8750800000000000    0.9521300000000000    0.4999850000000000 Ca
   0.0208400000000000    0.0918700000000000    0.6981150000000000 Ca
   0.2291900000000000    0.2900600000000000    0.8018600000000000 Ca
   0.6249800000000000    0.0478700000000000    0.1500000000000000 Ca
   0.1249600000000000    0.0478700000000000    0.1500000000000000 Ca
   0.8750800000000000    0.9521300000000000    0.9999850000000000 Ca
   0.3750600000000000    0.9521300000000000    0.9999850000000000 Ca
   0.0208400000000000    0.0918700000000000    0.1981150000000000 Ca
   0.5208500000000000    0.0918700000000000    0.6981150000000000 Ca
   0.5208500000000000    0.0918700000000000    0.1981150000000000 Ca
   0.1249700000000000    0.5478700000000000    0.6500000000000000 Ca
   0.6249800000000000    0.5478700000000000    0.6500000000000000 Ca
   0.8750700000000000    0.4521300000000000    0.4999850000000000 Ca
   0.3750600000000000    0.4521300000000000    0.4999850000000000 Ca
   0.5208500000000000    0.5918700000000000    0.6981150000000000 Ca
   0.0208400000000000    0.5918700000000000    0.6981150000000000 Ca
   0.9792000000000000    0.9081200000000000    0.8018799999999999 Ca
   0.9792000000000000    0.4081200000000000    0.8018799999999999 Ca
   0.9792000000000000    0.9081200000000000    0.3018800000000000 Ca
   0.4791900000000000    0.4081200000000000    0.8018799999999999 Ca
   0.4791900000000000    0.9081200000000000    0.3018800000000000 Ca
   0.4791900000000000    0.9081200000000000    0.8018799999999999 Ca
   0.2291900000000000    0.7900600000000000    0.3018600000000000 Ca
   0.2291900000000000    0.7900600000000000    0.8018600000000000 Ca
   0.7292100000000000    0.7900600000000000    0.3018600000000000 Ca
   0.7292100000000000    0.7900600000000000    0.8018600000000000 Ca
   0.7708500000000000    0.2099300000000000    0.1981350000000000 Ca
   0.2708400000000000    0.7099299999999999    0.1981350000000000 Ca
   0.7708500000000000    0.7099299999999999    0.1981350000000000 Ca
   0.7708500000000000    0.7099299999999999    0.6981350000000000 Ca
   0.2708400000000000    0.7099299999999999    0.6981350000000000 Ca
   0.7708500000000000    0.2099300000000000    0.6981350000000000 Ca
   0.2708300000000000    0.2099300000000000    0.1981350000000000 Ca
   0.2708300000000000    0.2099300000000000    0.6981350000000000 Ca
   0.2291900000000000    0.2900600000000000    0.3018600000000000 Ca
   0.7292000000000000    0.2900600000000000    0.3018600000000000 Ca
   0.7292000000000000    0.2900600000000000    0.8018600000000000 Ca
   0.3838800000000000    0.6270100000000000    0.8907499999999999 H
   0.4692100000000000    0.5654400000000001    0.8812850000000000 H
   0.6500000000000000    0.6712900000000001    0.8800700000000000 H
   0.5215800000000000    0.5916200000000000    0.8167450000000001 H
   0.4302700000000000    0.6563500000000000    0.7997900000000000 H
   0.1338700000000000    0.4825200000000000    0.8905000000000001 H
   0.2193700000000000    0.5535200000000000    0.8811700000000000 H
   0.4000300000000000    0.4489400000000000    0.8800200000000000 H
   0.2714100000000000    0.5916800000000000    0.8166100000000001 H
   0.1802200000000000    0.5437600000000000    0.7996950000000000 H
   0.8838900000000000    0.6270100000000000    0.8907499999999999 H
   0.9692200000000000    0.5654400000000001    0.8812850000000000 H
   0.1499900000000000    0.6712900000000001    0.8800700000000000 H
   0.0215600000000000    0.5916200000000000    0.8167450000000001 H
   0.9302900000000000    0.6563500000000000    0.7997900000000000 H
   0.6338900000000000    0.4825200000000000    0.8905000000000001 H
   0.7193800000000000    0.5535200000000000    0.8811700000000000 H
   0.9000500000000000    0.4489400000000000    0.8800200000000000 H
   0.7714200000000000    0.5916800000000000    0.8166100000000001 H
   0.6802400000000000    0.5437600000000000    0.7996950000000000 H
   0.1161500000000000    0.3729800000000000    0.1092250000000000 H
   0.0308200000000000    0.4345600000000000    0.1187100000000000 H
   0.8500600000000000    0.3287100000000000    0.1199250000000000 H
   0.9784700000000000    0.4083700000000000    0.1832500000000000 H
   0.0697500000000000    0.3436500000000000    0.2002050000000000 H
   0.3661500000000000    0.5174800000000001    0.1093000000000000 H
   0.2806600000000000    0.4464700000000000    0.1188250000000000 H
   0.1000000000000000    0.5510500000000000    0.1199750000000000 H
   0.2286100000000000    0.4083100000000000    0.1833850000000000 H
   0.3198000000000000    0.4562300000000000    0.2003000000000000 H
   0.8661700000000000    0.5174800000000001    0.1093000000000000 H
   0.7806800000000000    0.4464700000000000    0.1188250000000000 H
   0.6000100000000000    0.5510500000000000    0.1199750000000000 H
   0.7286300000000000    0.4083100000000000    0.1833850000000000 H
   0.8198100000000000    0.4562300000000000    0.2003000000000000 H
   0.6161700000000000    0.3729800000000000    0.1092250000000000 H
   0.5308400000000000    0.4345600000000000    0.1187100000000000 H
   0.3500400000000000    0.3287100000000000    0.1199250000000000 H
   0.4784600000000000    0.4083700000000000    0.1832500000000000 H
   0.5697700000000000    0.3436500000000000    0.2002050000000000 H
   0.8838900000000000    0.1270100000000000    0.3907700000000000 H
   0.9692200000000000    0.0654400000000000    0.3812850000000000 H
   0.1499800000000000    0.1712900000000000    0.3800700000000000 H
   0.0215600000000000    0.0916200000000000    0.3167450000000000 H
   0.9302800000000000    0.1563500000000000    0.2997900000000000 H
   0.6338900000000000    0.9825199999999999    0.3906950000000000 H
   0.7193800000000000    0.0535200000000000    0.3811700000000000 H
   0.9000500000000000    0.9489400000000000    0.3800200000000000 H
   0.7714200000000000    0.0916800000000000    0.3166100000000000 H
   0.6802400000000000    0.0437600000000000    0.2996950000000000 H
   0.3838700000000000    0.1270100000000000    0.3907500000000000 H
   0.4692000000000000    0.0654400000000000    0.3812850000000000 H
   0.6500000000000000    0.1712900000000000    0.3800700000000000 H
   0.5215800000000000    0.0916200000000000    0.3167450000000000 H
   0.4302700000000000    0.1563500000000000    0.2997900000000000 H
   0.1338700000000000    0.9825199999999999    0.3906950000000000 H
   0.2193600000000000    0.0535200000000000    0.3811700000000000 H
   0.4000300000000000    0.9489400000000000    0.3800200000000000 H
   0.2714000000000000    0.0916800000000000    0.3166100000000000 H
   0.1802200000000000    0.0437600000000000    0.2996950000000000 H
   0.6161700000000000    0.8729800000000000    0.6092250000000000 H
   0.5308400000000000    0.9345500000000000    0.6187100000000000 H
   0.3500500000000000    0.8287099999999999    0.6199250000000001 H
   0.4784600000000000    0.9083700000000000    0.6832500000000000 H
   0.5697700000000000    0.8436500000000000    0.7002050000000000 H
   0.7806800000000000    0.9464700000000000    0.6188250000000000 H
   0.8661700000000000    0.0174800000000000    0.6093000000000000 H
   0.6000100000000000    0.0510600000000000    0.6199500000000000 H
   0.7286300000000000    0.9083100000000000    0.6833850000000000 H
   0.8198200000000000    0.9562300000000000    0.7003000000000000 H
   0.1161500000000000    0.8729800000000000    0.6092250000000000 H
   0.0308300000000000    0.9345599999999999    0.6187100000000000 H
   0.8500600000000000    0.8287099999999999    0.6199250000000001 H
   0.9784700000000000    0.9083700000000000    0.6832500000000000 H
   0.0697500000000000    0.8436500000000000    0.7002050000000000 H
   0.2806600000000000    0.9464700000000000    0.6188250000000000 H
   0.3661500000000000    0.0174800000000000    0.6093000000000000 H
   0.0999900000000000    0.0510600000000000    0.6199500000000000 H
   0.2286200000000000    0.9083100000000000    0.6833850000000000 H
   0.3198000000000000    0.9562300000000000    0.7003000000000000 H
   0.6338900000000000    0.9825199999999999    0.8906950000000000 H
   0.7193800000000000    0.0535200000000000    0.8811700000000000 H
   0.9000500000000000    0.9489400000000000    0.8800200000000000 H
   0.7714200000000000    0.0916800000000000    0.8166100000000001 H
   0.6802400000000000    0.0437600000000000    0.7996950000000000 H
   0.3838700000000000    0.1270100000000000    0.8907499999999999 H
   0.4692000000000000    0.0654400000000000    0.8812850000000000 H
   0.6500000000000000    0.1712900000000000    0.8800700000000000 H
   0.5215800000000000    0.0916200000000000    0.8167450000000001 H
   0.4302700000000000    0.1563500000000000    0.7997900000000000 H
   0.0653536859616380    0.1706915444466982    0.8482128948454000 H
   0.1338700000000000    0.9825199999999999    0.8906950000000000 H
   0.2193600000000000    0.0535200000000000    0.8811700000000000 H
   0.1689117171343923    0.1077528617084049    0.8816747403811419 H
   0.4000300000000000    0.9489400000000000    0.8800200000000000 H
   0.2714000000000000    0.0916800000000000    0.8166100000000001 H
   0.1802200000000000    0.0437600000000000    0.7996950000000000 H
   0.8119081695622866    0.1991089786597393    0.8531055555856363 H
   1.1088838498216744    0.2997831065492161    0.8340988003442439 H
   0.9659746047866689    0.2477953524475086    0.8445122844603279 H
   0.0699999986284474    0.1041033714577320    0.7389833995367208 H
   0.1399548958405657    0.2685960158280395    0.7737003662223990 H
   0.1024143172254301    0.1865663638368434    0.7574642720435202 H
   1.0026404986075903    0.0891053218587069    0.9372672150651560 H
   0.6161700000000000    0.8729800000000000    0.1092250000000000 H
   0.5308400000000000    0.9345500000000000    0.1187100000000000 H
   0.3500500000000000    0.8287099999999999    0.1199250000000000 H
   0.4784600000000000    0.9083700000000000    0.1832500000000000 H
   0.5697700000000000    0.8436500000000000    0.2002050000000000 H
   0.7806800000000000    0.9464700000000000    0.1188250000000000 H
   0.8661700000000000    0.0174800000000000    0.1093000000000000 H
   0.6000100000000000    0.0510600000000000    0.1199500000000000 H
   0.7286300000000000    0.9083100000000000    0.1833850000000000 H
   0.8198200000000000    0.9562300000000000    0.2003000000000000 H
   0.1161500000000000    0.8729800000000000    0.1092250000000000 H
   0.0308300000000000    0.9345599999999999    0.1187100000000000 H
   0.8500600000000000    0.8287099999999999    0.1199250000000000 H
   0.9784700000000000    0.9083700000000000    0.1832500000000000 H
   0.0697500000000000    0.8436500000000000    0.2002050000000000 H
   0.2806600000000000    0.9464700000000000    0.1188250000000000 H
   0.3661500000000000    0.0174800000000000    0.1093000000000000 H
   0.0999900000000000    0.0510600000000000    0.1199500000000000 H
   0.2286200000000000    0.9083100000000000    0.1833850000000000 H
   0.3198000000000000    0.9562300000000000    0.2003000000000000 H
   0.3838800000000000    0.6270100000000000    0.3907500000000000 H
   0.4692100000000000    0.5654400000000001    0.3812850000000000 H
   0.6500000000000000    0.6712900000000001    0.3800700000000000 H
   0.5215800000000000    0.5916200000000000    0.3167450000000000 H
   0.4302700000000000    0.6563500000000000    0.2997900000000000 H
   0.1338700000000000    0.4825200000000000    0.3905000000000000 H
   0.2193700000000000    0.5535200000000000    0.3811700000000000 H
   0.4000300000000000    0.4489400000000000    0.3800200000000000 H
   0.2714100000000000    0.5916800000000000    0.3166100000000000 H
   0.1802200000000000    0.5437600000000000    0.2996950000000000 H
   0.8838900000000000    0.6270100000000000    0.3907500000000000 H
   0.9692200000000000    0.5654400000000001    0.3812850000000000 H
   0.1499900000000000    0.6712900000000001    0.3800700000000000 H
   0.0215600000000000    0.5916200000000000    0.3167450000000000 H
   0.9302900000000000    0.6563500000000000    0.2997900000000000 H
   0.6338900000000000    0.4825200000000000    0.3905000000000000 H
   0.7193800000000000    0.5535200000000000    0.3811700000000000 H
   0.9000500000000000    0.4489400000000000    0.3800200000000000 H
   0.7714200000000000    0.5916800000000000    0.3166100000000000 H
   0.6802400000000000    0.5437600000000000    0.2996950000000000 H
   0.1161500000000000    0.3729800000000000    0.6092250000000000 H
   0.0308200000000000    0.4345600000000000    0.6187100000000000 H
   0.8500600000000000    0.3287100000000000    0.6199250000000001 H
   0.9784700000000000    0.4083700000000000    0.6832500000000000 H
   0.0697500000000000    0.3436500000000000    0.7002050000000000 H
   0.3661500000000000    0.5174800000000001    0.6093000000000000 H
   0.2806600000000000    0.4464700000000000    0.6188250000000000 H
   0.1000000000000000    0.5510500000000000    0.6199749999999999 H
   0.2286100000000000    0.4083100000000000    0.6833850000000000 H
   0.3198000000000000    0.4562300000000000    0.7003000000000000 H
   0.8661700000000000    0.5174800000000001    0.6093000000000000 H
   0.7806800000000000    0.4464700000000000    0.6188250000000000 H
   0.6000100000000000    0.5510500000000000    0.6199749999999999 H
   0.7286300000000000    0.4083100000000000    0.6833850000000000 H
   0.8198100000000000    0.4562300000000000    0.7003000000000000 H
   0.6161700000000000    0.3729800000000000    0.6092250000000000 H
   0.5308400000000000    0.4345600000000000    0.6187100000000000 H
   0.3500400000000000    0.3287100000000000    0.6199250000000001 H
   0.4784600000000000    0.4083700000000000    0.6832500000000000 H
   0.5697700000000000    0.3436500000000000    0.7002050000000000 H
   0.4715400000000000    0.7370300000000000    0.8413500000000000 C
   0.4702000000000000    0.6141600000000000    0.8870899999999999 C
   0.5140000000000000    0.6009500000000000    0.9294100000000001 C
   0.5282100000000000    0.6686800000000001    0.8473600000000000 C
   0.5138000000000000    0.6461200000000000    0.8083450000000000 C
   0.5896200000000000    0.6777000000000000    0.7678199999999999 C
   0.2215700000000000    0.4216500000000000    0.8413600000000000 C
   0.2202300000000000    0.4989900000000000    0.8870100000000001 C
   0.2640400000000000    0.4699600000000000    0.9293000000000000 C
   0.2782100000000000    0.4840700000000000    0.8473100000000000 C
   0.2637200000000000    0.5455200000000000    0.8082650000000000 C
   0.3395700000000000    0.5543700000000000    0.7677550000000000 C
   0.9715500000000000    0.7370300000000000    0.8413500000000000 C
   0.9702100000000000    0.6141600000000000    0.8870899999999999 C
   0.0139800000000000    0.6009500000000000    0.9294100000000001 C
   0.0282000000000000    0.6686800000000001    0.8473600000000000 C
   0.0137800000000000    0.6461200000000000    0.8083450000000000 C
   0.0896100000000000    0.6777000000000000    0.7678199999999999 C
   0.7215800000000000    0.4216500000000000    0.8413600000000000 C
   0.7202400000000000    0.4989900000000000    0.8870100000000001 C
   0.7640500000000000    0.4699600000000000    0.9293000000000000 C
   0.7782200000000000    0.4840700000000000    0.8473100000000000 C
   0.7637400000000000    0.5455200000000000    0.8082650000000000 C
   0.8395899999999999    0.5543700000000000    0.7677550000000000 C
   0.0284900000000000    0.2629600000000000    0.1586250000000000 C
   0.0298300000000000    0.3858400000000000    0.1129100000000000 C
   0.9860600000000000    0.3990500000000000    0.0705850000000000 C
   0.9718400000000000    0.3313200000000000    0.1526400000000000 C
   0.9862500000000000    0.3538700000000000    0.1916500000000000 C
   0.9104300000000000    0.3223000000000000    0.2321800000000000 C
   0.2784600000000000    0.5783400000000000    0.1586400000000000 C
   0.2798000000000000    0.5010000000000000    0.1129900000000000 C
   0.2359900000000000    0.5300400000000000    0.0706700000000000 C
   0.2218200000000000    0.5159200000000000    0.1526900000000000 C
   0.2363000000000000    0.4544800000000000    0.1917300000000000 C
   0.1604500000000000    0.4456300000000000    0.2322400000000000 C
   0.7784700000000000    0.5783400000000000    0.1586400000000000 C
   0.7798100000000000    0.5010000000000000    0.1129900000000000 C
   0.7360100000000001    0.5300400000000000    0.0706700000000000 C
   0.7218300000000000    0.5159200000000000    0.1526900000000000 C
   0.7363200000000000    0.4544800000000000    0.1917300000000000 C
   0.6604700000000000    0.4456300000000000    0.2322400000000000 C
   0.5285000000000000    0.2629600000000000    0.1586250000000000 C
   0.5298400000000000    0.3858400000000000    0.1129100000000000 C
   0.4860500000000000    0.3990500000000000    0.0705850000000000 C
   0.4718300000000000    0.3313200000000000    0.1526400000000000 C
   0.4862400000000000    0.3538700000000000    0.1916500000000000 C
   0.4104200000000000    0.3223000000000000    0.2321800000000000 C
   0.9715500000000000    0.2370300000000000    0.3413700000000000 C
   0.9702100000000000    0.1141600000000000    0.3870900000000000 C
   0.0139800000000000    0.1009500000000000    0.4294100000000000 C
   0.0281900000000000    0.1686800000000000    0.3473600000000000 C
   0.0137800000000000    0.1461200000000000    0.3083450000000000 C
   0.0896000000000000    0.1777000000000000    0.2678200000000000 C
   0.7215900000000000    0.9216500000000000    0.3413600000000000 C
   0.7202400000000000    0.9989900000000000    0.3870100000000000 C
   0.7640500000000000    0.9699500000000000    0.4293000000000000 C
   0.7782200000000000    0.9840700000000000    0.3473100000000000 C
   0.7637300000000000    0.0455200000000000    0.3082650000000000 C
   0.8395800000000000    0.0543700000000000    0.2677550000000000 C
   0.4715300000000000    0.2370300000000000    0.3413500000000000 C
   0.4701900000000000    0.1141600000000000    0.3870900000000000 C
   0.5139899999999999    0.1009500000000000    0.4294100000000000 C
   0.5282100000000000    0.1686800000000000    0.3473600000000000 C
   0.5137900000000000    0.1461200000000000    0.3083450000000000 C
   0.5896200000000000    0.1777000000000000    0.2678200000000000 C
   0.2215700000000000    0.9216500000000000    0.3413600000000000 C
   0.2202200000000000    0.9989900000000000    0.3870100000000000 C
   0.2640400000000000    0.9699500000000000    0.4293000000000000 C
   0.2782100000000000    0.9840700000000000    0.3473100000000000 C
   0.2637200000000000    0.0455200000000000    0.3082650000000000 C
   0.3395700000000000    0.0543700000000000    0.2677550000000000 C
   0.5285100000000000    0.7629600000000000    0.6586250000000000 C
   0.5298500000000000    0.8858300000000000    0.6129100000000000 C
   0.4860500000000000    0.8990500000000000    0.5705850000000000 C
   0.4718300000000000    0.8313199999999999    0.6526400000000000 C
   0.4862400000000000    0.8538700000000000    0.6916500000000000 C
   0.4104200000000000    0.8223000000000000    0.7321800000000001 C
   0.7798200000000000    0.0000000000000000    0.6129900000000000 C
   0.7360000000000000    0.0300400000000000    0.5706700000000000 C
   0.7784700000000000    0.0783400000000000    0.6586400000000000 C
   0.7218300000000000    0.0159200000000000    0.6526900000000000 C
   0.7363200000000000    0.9544800000000000    0.6917300000000000 C
   0.6604700000000000    0.9456300000000000    0.7322400000000000 C
   0.0284900000000000    0.7629600000000000    0.6586250000000000 C
   0.0298300000000000    0.8858300000000000    0.6129100000000000 C
   0.9860600000000000    0.8990500000000000    0.5705850000000000 C
   0.9718500000000000    0.8313199999999999    0.6526400000000000 C
   0.9862600000000000    0.8538700000000000    0.6916500000000000 C
   0.9104400000000000    0.8223000000000000    0.7321800000000001 C
   0.2798000000000000    0.0000000000000000    0.6129900000000000 C
   0.2359900000000000    0.0300400000000000    0.5706700000000000 C
   0.2784500000000000    0.0783400000000000    0.6586400000000000 C
   0.2218200000000000    0.0159200000000000    0.6526900000000000 C
   0.2363000000000000    0.9544800000000000    0.6917300000000000 C
   0.1604500000000000    0.9456300000000000    0.7322400000000000 C
   0.7215900000000000    0.9216500000000000    0.8413600000000000 C
   0.7202400000000000    0.9989900000000000    0.8870100000000001 C
   0.7640500000000000    0.9699500000000000    0.9293000000000000 C
   0.7782200000000000    0.9840700000000000    0.8473100000000000 C
   0.7637300000000000    0.0455200000000000    0.8082650000000000 C
   0.8395800000000000    0.0543700000000000    0.7677550000000000 C
   0.4715300000000000    0.2370300000000000    0.8413500000000000 C
   0.4701900000000000    0.1141600000000000    0.8870899999999999 C
   0.5139899999999999    0.1009500000000000    0.9294100000000001 C
   0.5282100000000000    0.1686800000000000    0.8473600000000000 C
   0.5137900000000000    0.1461200000000000    0.8083450000000000 C
   0.5896200000000000    0.1777000000000000    0.7678199999999999 C
   0.2215700000000000    0.9216500000000000    0.8413600000000000 C
   0.2640400000000000    0.9699500000000000    0.9293000000000000 C
   0.2202200000000000    0.9989900000000000    0.8870100000000001 C
   0.2782100000000000    0.9840700000000000    0.8473100000000000 C
   0.2637200000000000    0.0455200000000000    0.8082650000000000 C
   0.3395700000000000    0.0543700000000000    0.7677550000000000 C
   0.5285100000000000    0.7629600000000000    0.1586250000000000 C
   0.5298500000000000    0.8858300000000000    0.1129100000000000 C
   0.4860500000000000    0.8990500000000000    0.0705850000000000 C
   0.4718300000000000    0.8313199999999999    0.1526400000000000 C
   0.4862400000000000    0.8538700000000000    0.1916500000000000 C
   0.4104200000000000    0.8223000000000000    0.2321800000000000 C
   0.7798200000000000    0.0000000000000000    0.1129900000000000 C
   0.7360000000000000    0.0300400000000000    0.0706700000000000 C
   0.7784700000000000    0.0783400000000000    0.1586400000000000 C
   0.7218300000000000    0.0159200000000000    0.1526900000000000 C
   0.7363200000000000    0.9544800000000000    0.1917300000000000 C
   0.6604700000000000    0.9456300000000000    0.2322400000000000 C
   0.0284900000000000    0.7629600000000000    0.1586250000000000 C
   0.0298300000000000    0.8858300000000000    0.1129100000000000 C
   0.9860600000000000    0.8990500000000000    0.0705850000000000 C
   0.9718500000000000    0.8313199999999999    0.1526400000000000 C
   0.9862600000000000    0.8538700000000000    0.1916500000000000 C
   0.9104400000000000    0.8223000000000000    0.2321800000000000 C
   0.2798000000000000    0.0000000000000000    0.1129900000000000 C
   0.2359900000000000    0.0300400000000000    0.0706700000000000 C
   0.2784500000000000    0.0783400000000000    0.1586400000000000 C
   0.2218200000000000    0.0159200000000000    0.1526900000000000 C
   0.2363000000000000    0.9544800000000000    0.1917300000000000 C
   0.1604500000000000    0.9456300000000000    0.2322400000000000 C
   0.4715400000000000    0.7370300000000000    0.3413500000000000 C
   0.4702000000000000    0.6141600000000000    0.3870900000000000 C
   0.5140000000000000    0.6009500000000000    0.4294100000000000 C
   0.5282100000000000    0.6686800000000001    0.3473600000000000 C
   0.5138000000000000    0.6461200000000000    0.3083450000000000 C
   0.5896200000000000    0.6777000000000000    0.2678200000000000 C
   0.2215700000000000    0.4216500000000000    0.3413600000000000 C
   0.2202300000000000    0.4989900000000000    0.3870100000000000 C
   0.2640400000000000    0.4699600000000000    0.4293000000000000 C
   0.2782100000000000    0.4840700000000000    0.3473100000000000 C
   0.2637200000000000    0.5455200000000000    0.3082650000000000 C
   0.3395700000000000    0.5543700000000000    0.2677550000000000 C
   0.9715500000000000    0.7370300000000000    0.3413500000000000 C
   0.9702100000000000    0.6141600000000000    0.3870900000000000 C
   0.0139800000000000    0.6009500000000000    0.4294100000000000 C
   0.0282000000000000    0.6686800000000001    0.3473600000000000 C
   0.0137800000000000    0.6461200000000000    0.3083450000000000 C
   0.0896100000000000    0.6777000000000000    0.2678200000000000 C
   0.7215800000000000    0.4216500000000000    0.3413600000000000 C
   0.7202400000000000    0.4989900000000000    0.3870100000000000 C
   0.7640500000000000    0.4699600000000000    0.4293000000000000 C
   0.7782200000000000    0.4840700000000000    0.3473100000000000 C
   0.7637400000000000    0.5455200000000000    0.3082650000000000 C
   0.8395899999999999    0.5543700000000000    0.2677550000000000 C
   0.0284900000000000    0.2629600000000000    0.6586250000000000 C
   0.0298300000000000    0.3858400000000000    0.6129100000000000 C
   0.9860600000000000    0.3990500000000000    0.5705850000000000 C
   0.9718400000000000    0.3313200000000000    0.6526400000000000 C
   0.9862500000000000    0.3538700000000000    0.6916500000000000 C
   0.9104300000000000    0.3223000000000000    0.7321800000000001 C
   0.2784600000000000    0.5783400000000000    0.6586400000000000 C
   0.2798000000000000    0.5010000000000000    0.6129900000000000 C
   0.2359900000000000    0.5300400000000000    0.5706700000000000 C
   0.2218200000000000    0.5159200000000000    0.6526900000000000 C
   0.2363000000000000    0.4544800000000000    0.6917300000000000 C
   0.1604500000000000    0.4456300000000000    0.7322400000000000 C
   0.7784700000000000    0.5783400000000000    0.6586400000000000 C
   0.7798100000000000    0.5010000000000000    0.6129900000000000 C
   0.7360100000000001    0.5300400000000000    0.5706700000000000 C
   0.7218300000000000    0.5159200000000000    0.6526900000000000 C
   0.7363200000000000    0.4544800000000000    0.6917300000000000 C
   0.6604700000000000    0.4456300000000000    0.7322400000000000 C
   0.5285000000000000    0.2629600000000000    0.6586250000000000 C
   0.5298400000000000    0.3858400000000000    0.6129100000000000 C
   0.4860500000000000    0.3990500000000000    0.5705850000000000 C
   0.4718300000000000    0.3313200000000000    0.6526400000000000 C
   0.4862400000000000    0.3538700000000000    0.6916500000000000 C
   0.4104200000000000    0.3223000000000000    0.7321800000000001 C
   0.3684800000000000    0.7343600000000000    0.8437350000000000 O
   0.5325400000000000    0.7892600000000000    0.8334900000000001 O
   0.5965500000000000    0.6330600000000000    0.9342800000000000 O
   0.4677300000000000    0.5526500000000000    0.9614500000000000 O
   0.6436800000000000    0.6749300000000000    0.8500099999999999 O
   0.6395800000000000    0.7336400000000000    0.7604550000000000 O
   0.6019600000000001    0.6445800000000000    0.7415550000000000 O
   0.1185200000000000    0.4219400000000000    0.8437000000000000 O
   0.2826000000000000    0.3773100000000000    0.8334800000000000 O
   0.3467600000000000    0.4331200000000000    0.9341750000000000 O
   0.2177100000000000    0.4861600000000000    0.9613800000000000 O
   0.3936900000000000    0.4752200000000000    0.8499450000000000 O
   0.3893900000000000    0.5057199999999999    0.7604200000000000 O
   0.3520100000000000    0.6137100000000000    0.7414750000000000 O
   0.8684900000000000    0.7343600000000000    0.8437350000000000 O
   0.0325300000000000    0.7892600000000000    0.8334900000000001 O
   0.0965300000000000    0.6330600000000000    0.9342800000000000 O
   0.9677400000000000    0.5526500000000000    0.9614500000000000 O
   0.1436700000000000    0.6749300000000000    0.8500099999999999 O
   0.1395600000000000    0.7336400000000000    0.7604550000000000 O
   0.1019500000000000    0.6445800000000000    0.7415550000000000 O
   0.6185400000000000    0.4219400000000000    0.8437000000000000 O
   0.7826100000000000    0.3773100000000000    0.8334800000000000 O
   0.8467800000000000    0.4331200000000000    0.9341750000000000 O
   0.7177200000000000    0.4861600000000000    0.9613800000000000 O
   0.8937000000000000    0.4752200000000000    0.8499450000000000 O
   0.8894100000000000    0.5057199999999999    0.7604200000000000 O
   0.8520200000000000    0.6137100000000000    0.7414750000000000 O
   0.1315400000000000    0.2656400000000000    0.1562650000000000 O
   0.9675100000000000    0.2107300000000000    0.1665050000000000 O
   0.9035100000000000    0.3669300000000000    0.0657150000000000 O
   0.0323000000000000    0.4473400000000000    0.0385500000000000 O
   0.8563800000000000    0.3250700000000000    0.1499850000000000 O
   0.8604800000000000    0.2663600000000000    0.2395450000000000 O
   0.8981000000000000    0.3554100000000000    0.2584450000000000 O
   0.3815000000000000    0.5780600000000000    0.1562950000000000 O
   0.2174300000000000    0.6226900000000000    0.1665200000000000 O
   0.1532600000000000    0.5668700000000000    0.0658200000000000 O