H5 C14 N2 O8
1.0
  11.3465402122414325    0.0000000000000000    4.4555723775950637
  -0.0007857514544007   12.3279747091509524    0.0249590290106593
   0.0000000000000000    0.0000000000000000   14.1170000000000009
H C N O
5 14 2 8
direct
   0.6477300000000000    0.2291000000000000    0.2657400000000000 H
   0.2311600000000000    0.1311000000000000    0.3777800000000000 H
   0.0834100000000000    0.3415300000000000    0.2066700000000000 H
   0.0589000000000000    0.1490400000000000    0.5043500000000000 H
   0.9338300000000000    0.2498800000000000    0.2651300000000000 H
   0.4608100000000000    0.1911300000000000    0.2694600000000000 C
   0.2954800000000000    0.4177700000000000    0.0803700000000000 C
   0.8366100000000000    0.0929200000000000    0.6411000000000000 C
   0.7010600000000000    0.2073200000000000    0.3802900000000000 C
   0.3485000000000000    0.2314300000000000    0.2603500000000000 C
   0.2375600000000000    0.1923200000000000    0.3204800000000000 C
   0.1372500000000000    0.2342400000000000    0.3064200000000000 C
   0.1555000000000000    0.3072900000000000    0.2255400000000000 C
   0.2697300000000000    0.3415000000000000    0.1690300000000000 C
   0.8738200000000000    0.1405000000000000    0.5341600000000000 C
   0.9906600000000000    0.1633300000000000    0.4728400000000000 C
   0.0161300000000000    0.2040300000000000    0.3739400000000000 C
   0.9217600000000000    0.2188000000000000    0.3404600000000000 C
   0.8083900000000001    0.1950000000000000    0.4067500000000000 C
   0.3645400000000000    0.3089500000000000    0.1889200000000000 N
   0.7847400000000000    0.1575500000000000    0.5015500000000001 N
   0.5510699999999999    0.2531700000000000    0.2288000000000000 O
   0.4634800000000000    1.1024900000000000    0.3127000000000000 O
   0.3936300000000000    0.4712100000000000    0.0568300000000000 O
   0.2274300000000000    0.4255100000000000    0.0329600000000000 O
   0.7264000000000000    0.0645900000000000    0.6786799999999999 O
   0.9104400000000000    0.0842700000000000    0.6821600000000000 O
   0.6011600000000000    0.2042000000000000    0.4487500000000000 O
   0.7233800000000000    0.2180800000000000    0.2831700000000000 O
