H6 C12 O4
1.0
  39.5639999939740576    0.0000000000000000    0.0006905220652246
  -0.3110143908003909   39.5987783478475706   -0.0048380526744952
   0.0000000000000000    0.0000000000000000   23.3389999999999986
H C O
6 12 4
direct
   0.7529199999999999    0.6203933333333334    0.6937000000000000 H
   0.7561133333333333    0.6168400000000001    0.9324700000000000 H
   0.7514200000000000    0.5543100000000000    0.9224700000000000 H
   0.7486400000000000    0.5634233333333334    0.7392700000000000 H
   0.7597999999999999    0.6739133333333333    0.8868800000000000 H
   0.7574900000000000    0.6829966666666666    0.7038100000000000 H
   0.7490599999999999    0.5176233333333333    0.8245400000000001 C
   0.7580666666666667    0.6618766666666667    0.8449600000000000 C
   0.7553399999999999    0.6263133333333333    0.8409600000000000 C
   0.7531266666666666    0.6110066666666667    0.7852100000000000 C
   0.7541466666666666    0.6321333333333332    0.7359800000000000 C
   0.7545533333333333    0.6051666666666666    0.8901000000000000 C
   0.7519899999999999    0.5706266666666666    0.8849300000000000 C
   0.7499800000000000    0.5554000000000000    0.8298700000000000 C
   0.7502700000000000    0.5754466666666667    0.7812200000000000 C
   0.7600066666666666    0.7196933333333333    0.8017800000000000 C
   0.7584833333333333    0.6819266666666667    0.7963700000000000 C
   0.7566999999999999    0.6666666666666666    0.7413300000000000 C
   0.7526100000000000    0.5008866666666667    0.8706800000000000 O
   0.7453866666666666    0.5052733333333332    0.7745300000000001 O
   0.7625500000000000    0.7319133333333333    0.8520799999999999 O
   0.7583133333333333    0.7365499999999999    0.7553299999999999 O
