H6 O4
1.0
  39.5639999939740576    0.0000000000000000    0.0006905220652246
  -0.3110143908003909   39.5987783478475706   -0.0048380526744952
   0.0000000000000000    0.0000000000000000   23.3389999999999986
H O
6 4
direct
   0.7653772381234524    0.7189152286686321    0.8869530420400606 H
   0.7579206095095947    0.7271660251236839    0.7169411510648680 H
   0.7620291099204403    0.7194668782815916    0.8011628685011569 H
   0.7413244450939249    0.5181389526742625    0.7398768147152669 H
   0.7540597258191173    0.5102145764493272    0.9090410297953373 H
   0.7473124940148473    0.5176646031334033    0.8254890981343062 H
   0.7625500000000000    0.7319133333333333    0.8520799999999999 O
   0.7583133333333333    0.7365499999999999    0.7553299999999999 O
   0.7453866666666666    0.5052733333333332    0.7745300000000001 O
   0.7526100000000000    0.5008866666666667    0.8706800000000000 O
