H6 O4
1.0
  12.9059996147235445    0.0000000000000000   -0.0031535306742928
   0.0061216052491694   14.6149986623094055   -0.0012753993492751
   0.0000000000000000    0.0000000000000000   15.1250000000000000
H O
6 4
direct
   0.7040019162185787    0.5653906615066531    0.4262151733375496 H
   0.9139331528353788    0.7279210029533452    0.3050459062922235 H
   0.8094897948373379    0.6428722954728092    0.3599040494349538 H
   0.8097439607695952    0.3690135610766038    0.0395339785567290 H
  -0.1765266560063226    0.3178858901110936    0.0999282083561708 H
   0.3160903761968278    0.4393250596372440    0.1420678405557090 H
   0.7504800000000000    0.6171000000000000    0.4197600000000000 O
   0.8678399999999999    0.7077900000000000    0.3518000000000000 O
   0.7400400000000000    0.3464700000000000    0.0295300000000000 O
  -0.1066899999999999    0.3025900000000000    0.0813900000000000 O
