H6 O4
1.0
  31.1659999952531450    0.0000000000000000    0.0005439493146494
   0.0168736030562138   16.4366889622754364   -6.7743822772953042
   0.0000000000000000    0.0000000000000000   36.6139999999999972
H O
6 4
direct
   0.2259146167852049    0.3518610911867077    0.2197597307216956 H
   0.1434983911308490    0.4005351777472478    0.3061520303498951 H
   0.1799867120531938    0.3667939656217913    0.2620270431410882 H
   0.0244607094310297    0.1498291230869872    0.1977447382425400 H
   0.1059364548696655    0.1049759267072112    0.1108545210190245 H
   0.0698927107470524    0.1369566130861936    0.1553017511359934 H
   0.2168600000000000    0.3906400000000000    0.2453650000000000 O
   0.1683550000000000    0.4166100000000000    0.2949200000000000 O
   0.0333350000000000    0.1118400000000000    0.1718950000000000 O
   0.0813150000000000    0.0880600000000000    0.1220300000000000 O
