H3 O2
1.0
  30.4064989579856828    0.0000000000000000   -0.0079604029941796
  -0.0050332504633370   34.6905286594718945   -0.7199999949646425
   0.0000000000000000    0.0000000000000000   29.6020000000000003
H O
3 2
direct
   0.3141082530804000    0.8488391274172509    0.4042063691471852 H
   0.3253059016865300    0.7828751382054777    0.3648004367644966 H
   0.2332924139537771    0.8010057927727391    0.2472543501167777 H
   0.3333033333333333    0.8468399999999999    0.4302300000000000 O
   0.3405033333333333    0.7898400000000000    0.3926050000000000 O
