H1 C1 O2
1.0
  30.4064989579856828    0.0000000000000000   -0.0079604029941796
  -0.0050332504633370   34.6905286594718945   -0.7199999949646425
   0.0000000000000000    0.0000000000000000   29.6020000000000003
H C O
1 1 2
direct
   0.3504800000000000    0.8418033333333332    0.3642450000000000 H
   0.3415500000000000    0.8269000000000000    0.3956000000000000 C
   0.3333033333333333    0.8468399999999999    0.4302300000000000 O
   0.3405033333333333    0.7898400000000000    0.3926050000000000 O
