H4 C8 O4
1.0
  31.9627259332041902    0.0000000000000000   18.3185630145728524
  10.6167943756184116   30.1582684064922901   18.3337737497713853
   0.0000000000000000    0.0000000000000000   36.8599999999999994
H C O
4 8 4
direct
   0.4756850000000000    0.7161450000000000    0.4756900000000000 H
   0.4762250000000000    0.8321499999999999    0.4761900000000000 H
   0.5243200000000000    0.7838650000000000    0.5243000000000000 H
   0.5237800000000000    0.6678550000000000    0.5238000000000000 H
   0.4865350000000000    0.7305900000000000    0.4865250000000000 C
   0.4868350000000000    0.7961650000000000    0.4868050000000000 C
   0.4445200000000000    0.8056550000000000    0.4445100000000000 C
   0.4731900000000000    0.7769200000000001    0.4731700000000000 C
   0.5134700000000000    0.7694150000000000    0.5134600000000000 C
   0.5131700000000000    0.7038400000000000    0.5131850000000000 C
   0.5554850000000000    0.6943550000000001    0.5554500000000000 C
   0.5268150000000000    0.7230850000000000    0.5268000000000000 C
   0.4334350000000000    0.7858849999999999    0.4333100000000000 O
   0.4335050000000000    0.8475400000000000    0.4336200000000000 O
   0.5665750000000001    0.7141200000000000    0.5666750000000000 O
   0.5665000000000000    0.6524700000000000    0.5663650000000000 O
