Zn64 H188 C376 O204
1.0
  31.9627259332041902    0.0000000000000000   18.3185630145728524
  10.6167943756184116   30.1582684064922901   18.3337737497713853
   0.0000000000000000    0.0000000000000000   36.8599999999999994
Zn H C O
64 188 376 204
direct
   0.1902150000000000    0.1033100000000000    0.1033150000000000 Zn
   0.1031650000000000    0.1031050000000000    0.1031100000000000 Zn
   0.1033150000000000    0.1033850000000000    0.1901700000000000 Zn
   0.3097950000000000    0.3966950000000000    0.3966700000000000 Zn
   0.3966950000000000    0.3098300000000000    0.3965000000000000 Zn
   0.3968450000000000    0.3969000000000000    0.3968750000000000 Zn
   0.3966900000000000    0.3966200000000000    0.3098150000000000 Zn
   0.1033150000000000    0.1901750000000000    0.1033850000000000 Zn
   0.6902150000000000    0.1033100000000000    0.1033150000000000 Zn
   0.6031650000000000    0.1031050000000000    0.1031100000000000 Zn
   0.6033150000000000    0.1033850000000000    0.1901700000000000 Zn
   0.8097950000000000    0.3966950000000000    0.3966700000000000 Zn
   0.8966950000000000    0.3098300000000000    0.3965000000000000 Zn
   0.8968450000000000    0.3969000000000000    0.3968750000000000 Zn
   0.8966900000000000    0.3966200000000000    0.3098150000000000 Zn
   0.6033150000000000    0.1901750000000000    0.1033850000000000 Zn
   0.1902150000000000    0.6033100000000000    0.1033150000000000 Zn
   0.1031650000000000    0.6031050000000000    0.1031100000000000 Zn
   0.1033150000000000    0.6033850000000001    0.1901700000000000 Zn
   0.3097950000000000    0.8966950000000000    0.3966700000000000 Zn
   0.3966950000000000    0.8098300000000000    0.3965000000000000 Zn
   0.3968450000000000    0.8969000000000000    0.3968750000000000 Zn
   0.3966900000000000    0.8966200000000000    0.3098150000000000 Zn
   0.1033150000000000    0.6901750000000000    0.1033850000000000 Zn
   0.6902150000000000    0.6033100000000000    0.1033150000000000 Zn
   0.6031650000000000    0.6031050000000000    0.1031100000000000 Zn
   0.6033150000000000    0.6033850000000001    0.1901700000000000 Zn
   0.8097950000000000    0.8966950000000000    0.3966700000000000 Zn
   0.8966950000000000    0.8098300000000000    0.3965000000000000 Zn
   0.8968450000000000    0.8969000000000000    0.3968750000000000 Zn
   0.8966900000000000    0.8966200000000000    0.3098150000000000 Zn
   0.6033150000000000    0.6901750000000000    0.1033850000000000 Zn
   0.1902150000000000    0.1033100000000000    0.6033150000000000 Zn
   0.1031650000000000    0.1031050000000000    0.6031100000000000 Zn
   0.1033150000000000    0.1033850000000000    0.6901700000000000 Zn
   0.3097950000000000    0.3966950000000000    0.8966700000000001 Zn
   0.3966950000000000    0.3098300000000000    0.8965000000000001 Zn
   0.3968450000000000    0.3969000000000000    0.8968750000000000 Zn
   0.3966900000000000    0.3966200000000000    0.8098150000000000 Zn
   0.1033150000000000    0.1901750000000000    0.6033850000000001 Zn
   0.6902150000000000    0.1033100000000000    0.6033150000000000 Zn
   0.6031650000000000    0.1031050000000000    0.6031100000000000 Zn
   0.6033150000000000    0.1033850000000000    0.6901700000000000 Zn
   0.8097950000000000    0.3966950000000000    0.8966700000000001 Zn
   0.8966950000000000    0.3098300000000000    0.8965000000000001 Zn
   0.8968450000000000    0.3969000000000000    0.8968750000000000 Zn
   0.8966900000000000    0.3966200000000000    0.8098150000000000 Zn
   0.6033150000000000    0.1901750000000000    0.6033850000000001 Zn
   0.1902150000000000    0.6033100000000000    0.6033150000000000 Zn
   0.1031650000000000    0.6031050000000000    0.6031100000000000 Zn
   0.1033150000000000    0.6033850000000001    0.6901700000000000 Zn
   0.3097950000000000    0.8966950000000000    0.8966700000000001 Zn
   0.3966950000000000    0.8098300000000000    0.8965000000000001 Zn
   0.3968450000000000    0.8969000000000000    0.8968750000000000 Zn
   0.3966900000000000    0.8966200000000000    0.8098150000000000 Zn
   0.1033150000000000    0.6901750000000000    0.6033850000000001 Zn
   0.6902150000000000    0.6033100000000000    0.6033150000000000 Zn
   0.6031650000000000    0.6031050000000000    0.6031100000000000 Zn
   0.6033150000000000    0.6033850000000001    0.6901700000000000 Zn
   0.8097950000000000    0.8966950000000000    0.8966700000000001 Zn
   0.8966950000000000    0.8098300000000000    0.8965000000000001 Zn
   0.8968450000000000    0.8969000000000000    0.8968750000000000 Zn
   0.8966900000000000    0.8966200000000000    0.8098150000000000 Zn
   0.6033150000000000    0.6901750000000000    0.6033850000000001 Zn
   0.0243200000000000    0.2838650000000000    0.0243000000000000 H
   0.2840800000000000    0.0241600000000000    0.1678450000000000 H
   0.0237800000000000    0.1678550000000000    0.0238000000000000 H
   0.1678200000000000    0.0241750000000000    0.2840400000000000 H
   0.0237750000000000    0.0238050000000000    0.1678550000000000 H
   0.2840850000000000    0.1678450000000000    0.0241500000000000 H
   0.0243150000000000    0.0243150000000000    0.2838500000000000 H
   0.1678200000000000    0.2840550000000000    0.0241650000000000 H
   0.0241400000000000    0.1678450000000000    0.2840550000000000 H
   0.2839600000000000    0.0242700000000000    0.0242600000000000 H
   0.0241300000000000    0.2840800000000000    0.1678400000000000 H
   0.1678300000000000    0.0238200000000000    0.0238100000000000 H
   0.2160500000000000    0.4757400000000000    0.4757200000000000 H
   0.4758750000000000    0.2159300000000000    0.3321400000000000 H
   0.3321800000000000    0.4761900000000000    0.4761700000000000 H
   0.4758650000000000    0.3321650000000000    0.2159250000000000 H
   0.4762300000000000    0.4762050000000000    0.3321250000000000 H
   0.3321900000000000    0.2159500000000000    0.4758000000000000 H
   0.4756950000000000    0.4756950000000000    0.2161350000000000 H
   0.2159250000000000    0.3321650000000000    0.4758300000000000 H
   0.3321900000000000    0.4758300000000000    0.2159450000000000 H
   0.4756850000000000    0.2161450000000000    0.4756900000000000 H
   0.2159300000000000    0.4758500000000000    0.3321400000000000 H
   0.4762250000000000    0.3321500000000000    0.4761900000000000 H
   0.5243200000000000    0.2838650000000000    0.0243000000000000 H
   0.7840800000000000    0.0241600000000000    0.1678450000000000 H
   0.5237800000000000    0.1678550000000000    0.0238000000000000 H
   0.6678200000000000    0.0241750000000000    0.2840400000000000 H
   0.5237750000000000    0.0238050000000000    0.1678550000000000 H
   0.7840849999999999    0.1678450000000000    0.0241500000000000 H
   0.5243150000000000    0.0243150000000000    0.2838500000000000 H
   0.6678200000000000    0.2840550000000000    0.0241650000000000 H
   0.5241400000000001    0.1678450000000000    0.2840550000000000 H
   0.7839600000000000    0.0242700000000000    0.0242600000000000 H
   0.5241300000000000    0.2840800000000000    0.1678400000000000 H
   0.6678300000000000    0.0238200000000000    0.0238100000000000 H
   0.7160500000000000    0.4757400000000000    0.4757200000000000 H
   0.9758750000000000    0.2159300000000000    0.3321400000000000 H
   0.8321799999999999    0.4761900000000000    0.4761700000000000 H
   0.9758650000000000    0.3321650000000000    0.2159250000000000 H
   0.9762299999999999    0.4762050000000000    0.3321250000000000 H
   0.8321900000000000    0.2159500000000000    0.4758000000000000 H
   0.9756950000000000    0.4756950000000000    0.2161350000000000 H
   0.7159250000000000    0.3321650000000000    0.4758300000000000 H
   0.8321900000000000    0.4758300000000000    0.2159450000000000 H
   0.9756850000000000    0.2161450000000000    0.4756900000000000 H
   0.7159300000000000    0.4758500000000000    0.3321400000000000 H
   0.9762250000000000    0.3321500000000000    0.4761900000000000 H
   0.0243200000000000    0.7838650000000000    0.0243000000000000 H
   0.2840800000000000    0.5241600000000000    0.1678450000000000 H
   0.0237800000000000    0.6678550000000000    0.0238000000000000 H
   0.1678200000000000    0.5241749999999999    0.2840400000000000 H
   0.0237750000000000    0.5238050000000000    0.1678550000000000 H
   0.2840850000000000    0.6678450000000000    0.0241500000000000 H
   0.0243150000000000    0.5243150000000000    0.2838500000000000 H
   0.1678200000000000    0.7840549999999999    0.0241650000000000 H
   0.0241400000000000    0.6678450000000000    0.2840550000000000 H
   0.2839600000000000    0.5242700000000000    0.0242600000000000 H
   0.0241300000000000    0.7840800000000000    0.1678400000000000 H
   0.1678300000000000    0.5238200000000000    0.0238100000000000 H
   0.2160500000000000    0.9757400000000001    0.4757200000000000 H
   0.4758750000000000    0.7159300000000000    0.3321400000000000 H
   0.3321800000000000    0.9761900000000000    0.4761700000000000 H
   0.4758650000000000    0.8321650000000000    0.2159250000000000 H
   0.4762300000000000    0.9762050000000000    0.3321250000000000 H
   0.3321900000000000    0.7159500000000000    0.4758000000000000 H
   0.4756950000000000    0.9756950000000000    0.2161350000000000 H
   0.2159250000000000    0.8321650000000000    0.4758300000000000 H
   0.3321900000000000    0.9758300000000000    0.2159450000000000 H
   0.2159300000000000    0.9758500000000000    0.3321400000000000 H
   0.5243200000000000    0.7838650000000000    0.0243000000000000 H
   0.7840800000000000    0.5241600000000000    0.1678450000000000 H
   0.5237800000000000    0.6678550000000000    0.0238000000000000 H
   0.6678200000000000    0.5241749999999999    0.2840400000000000 H
   0.5237750000000000    0.5238050000000000    0.1678550000000000 H
   0.7840849999999999    0.6678450000000000    0.0241500000000000 H
   0.5243150000000000    0.5243150000000000    0.2838500000000000 H
   0.6678200000000000    0.7840549999999999    0.0241650000000000 H
   0.5241400000000001    0.6678450000000000    0.2840550000000000 H
   0.7839600000000000    0.5242700000000000    0.0242600000000000 H
   0.5241300000000000    0.7840800000000000    0.1678400000000000 H
   0.6678300000000000    0.5238200000000000    0.0238100000000000 H
   0.7160500000000000    0.9757400000000001    0.4757200000000000 H
   0.9758750000000000    0.7159300000000000    0.3321400000000000 H
   0.8321799999999999    0.9761900000000000    0.4761700000000000 H
   0.9758650000000000    0.8321650000000000    0.2159250000000000 H
   0.9762299999999999    0.9762050000000000    0.3321250000000000 H
   0.8321900000000000    0.7159500000000000    0.4758000000000000 H
   0.9756950000000000    0.9756950000000000    0.2161350000000000 H
   0.7159250000000000    0.8321650000000000    0.4758300000000000 H
   0.8321900000000000    0.9758300000000000    0.2159450000000000 H
   0.9756850000000000    0.7161450000000000    0.4756900000000000 H
   0.7159300000000000    0.9758500000000000    0.3321400000000000 H
   0.9762250000000000    0.8321499999999999    0.4761900000000000 H
   0.0243200000000000    0.2838650000000000    0.5243000000000000 H
   0.2840800000000000    0.0241600000000000    0.6678450000000000 H
   0.0237800000000000    0.1678550000000000    0.5238000000000000 H
   0.1678200000000000    0.0241750000000000    0.7840400000000001 H
   0.0237750000000000    0.0238050000000000    0.6678550000000000 H
   0.2840850000000000    0.1678450000000000    0.5241500000000000 H
   0.0243150000000000    0.0243150000000000    0.7838499999999999 H
   0.1678200000000000    0.2840550000000000    0.5241650000000000 H
   0.0241400000000000    0.1678450000000000    0.7840549999999999 H
   0.2839600000000000    0.0242700000000000    0.5242599999999999 H
   0.0241300000000000    0.2840800000000000    0.6678400000000000 H
   0.1678300000000000    0.0238200000000000    0.5238100000000000 H
   0.2160500000000000    0.4757400000000000    0.9757199999999999 H
   0.4758750000000000    0.2159300000000000    0.8321400000000000 H
   0.3321800000000000    0.4761900000000000    0.9761700000000000 H
   0.4758650000000000    0.3321650000000000    0.7159250000000000 H
   0.4762300000000000    0.4762050000000000    0.8321250000000000 H
   0.3321900000000000    0.2159500000000000    0.9758000000000000 H
   0.4756950000000000    0.4756950000000000    0.7161350000000000 H
   0.2159250000000000    0.3321650000000000    0.9758300000000000 H
   0.3321900000000000    0.4758300000000000    0.7159450000000001 H
   0.4756850000000000    0.2161450000000000    0.9756899999999999 H
   0.2159300000000000    0.4758500000000000    0.8321400000000000 H
   0.4762250000000000    0.3321500000000000    0.9761900000000000 H
   0.5243200000000000    0.2838650000000000    0.5243000000000000 H
   0.7840800000000000    0.0241600000000000    0.6678450000000000 H
   0.5237800000000000    0.1678550000000000    0.5238000000000000 H
   0.6678200000000000    0.0241750000000000    0.7840400000000001 H
   0.5237750000000000    0.0238050000000000    0.6678550000000000 H
   0.7840849999999999    0.1678450000000000    0.5241500000000000 H
   0.5243150000000000    0.0243150000000000    0.7838499999999999 H
   0.6678200000000000    0.2840550000000000    0.5241650000000000 H
   0.5241400000000001    0.1678450000000000    0.7840549999999999 H
   0.7839600000000000    0.0242700000000000    0.5242599999999999 H
   0.5241300000000000    0.2840800000000000    0.6678400000000000 H
   0.6678300000000000    0.0238200000000000    0.5238100000000000 H
   0.7160500000000000    0.4757400000000000    0.9757199999999999 H
   0.9758750000000000    0.2159300000000000    0.8321400000000000 H
   0.8321799999999999    0.4761900000000000    0.9761700000000000 H
   0.9758650000000000    0.3321650000000000    0.7159250000000000 H
   0.9762299999999999    0.4762050000000000    0.8321250000000000 H
   0.8321900000000000    0.2159500000000000    0.9758000000000000 H
   0.9756950000000000    0.4756950000000000    0.7161350000000000 H
   0.7159250000000000    0.3321650000000000    0.9758300000000000 H
   0.8321900000000000    0.4758300000000000    0.7159450000000001 H
   0.9756850000000000    0.2161450000000000    0.9756899999999999 H
   0.7159300000000000    0.4758500000000000    0.8321400000000000 H
   0.9762250000000000    0.3321500000000000    0.9761900000000000 H
   0.0243200000000000    0.7838650000000000    0.5243000000000000 H
   0.2840800000000000    0.5241600000000000    0.6678450000000000 H
   0.0237800000000000    0.6678550000000000    0.5238000000000000 H
   0.1678200000000000    0.5241749999999999    0.7840400000000001 H
   0.0237750000000000    0.5238050000000000    0.6678550000000000 H
   0.2840850000000000    0.6678450000000000    0.5241500000000000 H
   0.0243150000000000    0.5243150000000000    0.7838499999999999 H
   0.1678200000000000    0.7840549999999999    0.5241650000000000 H
   0.0241400000000000    0.6678450000000000    0.7840549999999999 H
   0.2839600000000000    0.5242700000000000    0.5242599999999999 H
   0.0241300000000000    0.7840800000000000    0.6678400000000000 H
   0.1678300000000000    0.5238200000000000    0.5238100000000000 H
   0.2160500000000000    0.9757400000000001    0.9757199999999999 H
   0.4758750000000000    0.7159300000000000    0.8321400000000000 H
   0.3321800000000000    0.9761900000000000    0.9761700000000000 H
   0.4758650000000000    0.8321650000000000    0.7159250000000000 H
   0.4762300000000000    0.9762050000000000    0.8321250000000000 H
   0.3321900000000000    0.7159500000000000    0.9758000000000000 H
   0.4756950000000000    0.9756950000000000    0.7161350000000000 H
   0.2159250000000000    0.8321650000000000    0.9758300000000000 H
   0.3321900000000000    0.9758300000000000    0.7159450000000001 H
   0.4756850000000000    0.7161450000000000    0.9756899999999999 H
   0.2159300000000000    0.9758500000000000    0.8321400000000000 H
   0.4762250000000000    0.8321499999999999    0.9761900000000000 H
   0.7840800000000000    0.5241600000000000    0.6678450000000000 H
   0.6678200000000000    0.5241749999999999    0.7840400000000001 H
   0.5237750000000000    0.5238050000000000    0.6678550000000000 H
   0.7840849999999999    0.6678450000000000    0.5241500000000000 H
   0.5243150000000000    0.5243150000000000    0.7838499999999999 H
   0.6678200000000000    0.7840549999999999    0.5241650000000000 H
   0.5241400000000001    0.6678450000000000    0.7840549999999999 H
   0.7839600000000000    0.5242700000000000    0.5242599999999999 H
   0.5241300000000000    0.7840800000000000    0.6678400000000000 H
   0.6678300000000000    0.5238200000000000    0.5238100000000000 H
   0.7160500000000000    0.9757400000000001    0.9757199999999999 H
   0.9758750000000000    0.7159300000000000    0.8321400000000000 H
   0.8321799999999999    0.9761900000000000    0.9761700000000000 H
   0.9758650000000000    0.8321650000000000    0.7159250000000000 H
   0.9762299999999999    0.9762050000000000    0.8321250000000000 H
   0.8321900000000000    0.7159500000000000    0.9758000000000000 H
   0.9756950000000000    0.9756950000000000    0.7161350000000000 H
   0.7159250000000000    0.8321650000000000    0.9758300000000000 H
   0.8321900000000000    0.9758300000000000    0.7159450000000001 H
   0.9756850000000000    0.7161450000000000    0.9756899999999999 H
   0.7159300000000000    0.9758500000000000    0.8321400000000000 H
   0.9762250000000000    0.8321499999999999    0.9761900000000000 H
   0.0134700000000000    0.2694150000000000    0.0134600000000000 C
   0.2695400000000000    0.0133800000000000    0.2038300000000000 C
   0.0131700000000000    0.2038400000000000    0.0131850000000000 C
   0.2038200000000000    0.0133900000000000    0.2695100000000000 C
   0.0131700000000000    0.0131850000000000    0.2038350000000000 C
   0.2695450000000000    0.2038350000000000    0.0133750000000000 C
   0.0134700000000000    0.0134700000000000    0.2694050000000000 C
   0.2038200000000000    0.2695200000000000    0.0133500000000000 C
   0.0133700000000000    0.2038350000000000    0.2695200000000000 C
   0.2694700000000000    0.0134450000000000    0.0134000000000000 C
   0.0133650000000000    0.2695400000000000    0.2038300000000000 C
   0.2038250000000000    0.0131950000000000    0.0131850000000000 C
   0.2305400000000000    0.4865650000000000    0.4865450000000000 C
   0.4866450000000000    0.2304700000000000    0.2961550000000000 C
   0.2961850000000000    0.4868150000000000    0.4867950000000000 C
   0.4866400000000000    0.2961700000000000    0.2304650000000000 C
   0.4868350000000000    0.4868250000000000    0.2961450000000000 C
   0.2961850000000000    0.2304850000000000    0.4866000000000000 C
   0.4865350000000000    0.4865400000000000    0.2305800000000000 C
   0.2304650000000000    0.2961750000000000    0.4866050000000000 C
   0.2961850000000000    0.4866200000000000    0.2304500000000000 C
   0.4865350000000000    0.2305900000000000    0.4865250000000000 C
   0.2304650000000000    0.4866300000000000    0.2961550000000000 C
   0.4868350000000000    0.2961650000000000    0.4868050000000000 C
   0.0554850000000000    0.1943550000000000    0.0554500000000000 C
   0.0268150000000000    0.2230850000000000    0.0268000000000000 C
   0.1945300000000000    0.0556600000000000    0.1945200000000000 C
   0.2231900000000000    0.0269300000000000    0.2231800000000000 C
   0.0554800000000000    0.0554850000000000    0.1943500000000000 C
   0.0268100000000000    0.0268250000000000    0.2230800000000000 C
   0.1945350000000000    0.1945200000000000    0.0556550000000000 C
   0.2231900000000000    0.2231850000000000    0.0269000000000000 C
   0.0556100000000000    0.1945500000000000    0.1945400000000000 C
   0.0269000000000000    0.2232000000000000    0.2231900000000000 C
   0.1944150000000000    0.0554550000000000    0.0554600000000000 C
   0.2231200000000000    0.0268050000000000    0.0268050000000000 C
   0.3055950000000000    0.4445550000000000    0.4445200000000000 C
   0.2768900000000000    0.4732050000000000    0.4731800000000000 C
   0.4444000000000000    0.3054600000000000    0.3054450000000000 C
   0.4731100000000000    0.2768050000000000    0.2767950000000000 C
   0.4445250000000000    0.4445250000000000    0.3056300000000000 C
   0.4731950000000000    0.4731850000000000    0.2769050000000000 C
   0.3054750000000000    0.3054850000000000    0.4443300000000000 C
   0.2768150000000000    0.2768200000000000    0.4730600000000000 C
   0.3054800000000000    0.4443500000000000    0.3054650000000000 C
   0.2768200000000000    0.4730800000000000    0.2768050000000000 C
   0.4445200000000000    0.3056550000000000    0.4445100000000000 C
   0.4731900000000000    0.2769200000000000    0.4731700000000000 C
   0.5134700000000000    0.2694150000000000    0.0134600000000000 C
   0.7695400000000000    0.0133800000000000    0.2038300000000000 C
   0.5131700000000000    0.2038400000000000    0.0131850000000000 C
   0.7038200000000000    0.0133900000000000    0.2695100000000000 C
   0.5131700000000000    0.0131850000000000    0.2038350000000000 C
   0.7695449999999999    0.2038350000000000    0.0133750000000000 C
   0.5134700000000000    0.0134700000000000    0.2694050000000000 C
   0.7038200000000000    0.2695200000000000    0.0133500000000000 C
   0.5133700000000000    0.2038350000000000    0.2695200000000000 C
   0.7694700000000000    0.0134450000000000    0.0134000000000000 C
   0.5133650000000000    0.2695400000000000    0.2038300000000000 C
   0.7038250000000000    0.0131950000000000    0.0131850000000000 C
   0.7305400000000000    0.4865650000000000    0.4865450000000000 C
   0.9866450000000000    0.2304700000000000    0.2961550000000000 C
   0.7961849999999999    0.4868150000000000    0.4867950000000000 C
   0.9866400000000000    0.2961700000000000    0.2304650000000000 C
   0.9868350000000000    0.4868250000000000    0.2961450000000000 C
   0.7961849999999999    0.2304850000000000    0.4866000000000000 C
   0.9865349999999999    0.4865400000000000    0.2305800000000000 C
   0.7304650000000000    0.2961750000000000    0.4866050000000000 C
   0.7961849999999999    0.4866200000000000    0.2304500000000000 C
   0.9865349999999999    0.2305900000000000    0.4865250000000000 C
   0.7304650000000000    0.4866300000000000    0.2961550000000000 C
   0.9868350000000000    0.2961650000000000    0.4868050000000000 C
   0.5554850000000000    0.1943550000000000    0.0554500000000000 C
   0.5268150000000000    0.2230850000000000    0.0268000000000000 C
   0.6945300000000000    0.0556600000000000    0.1945200000000000 C
   0.7231900000000000    0.0269300000000000    0.2231800000000000 C
   0.5554800000000000    0.0554850000000000    0.1943500000000000 C
   0.5268100000000000    0.0268250000000000    0.2230800000000000 C
   0.6945350000000000    0.1945200000000000    0.0556550000000000 C
   0.7231900000000000    0.2231850000000000    0.0269000000000000 C
   0.5556100000000000    0.1945500000000000    0.1945400000000000 C
   0.5269000000000000    0.2232000000000000    0.2231900000000000 C
   0.6944150000000000    0.0554550000000000    0.0554600000000000 C
   0.7231200000000000    0.0268050000000000    0.0268050000000000 C
   0.8055950000000001    0.4445550000000000    0.4445200000000000 C
   0.7768900000000001    0.4732050000000000    0.4731800000000000 C
   0.9444000000000000    0.3054600000000000    0.3054450000000000 C
   0.9731099999999999    0.2768050000000000    0.2767950000000000 C
   0.9445250000000001    0.4445250000000000    0.3056300000000000 C
   0.9731950000000000    0.4731850000000000    0.2769050000000000 C
   0.8054749999999999    0.3054850000000000    0.4443300000000000 C
   0.7768150000000000    0.2768200000000000    0.4730600000000000 C
   0.8054800000000000    0.4443500000000000    0.3054650000000000 C
   0.7768200000000001    0.4730800000000000    0.2768050000000000 C
   0.9445200000000000    0.3056550000000000    0.4445100000000000 C
   0.9731900000000000    0.2769200000000000    0.4731700000000000 C
   0.0134700000000000    0.7694150000000000    0.0134600000000000 C
   0.2695400000000000    0.5133799999999999    0.2038300000000000 C
   0.0131700000000000    0.7038400000000000    0.0131850000000000 C
   0.2038200000000000    0.5133900000000000    0.2695100000000000 C
   0.0131700000000000    0.5131850000000000    0.2038350000000000 C
   0.2695450000000000    0.7038350000000000    0.0133750000000000 C
   0.0134700000000000    0.5134700000000000    0.2694050000000000 C
   0.2038200000000000    0.7695200000000000    0.0133500000000000 C
   0.0133700000000000    0.7038350000000000    0.2695200000000000 C
   0.2694700000000000    0.5134450000000000    0.0134000000000000 C
   0.0133650000000000    0.7695400000000000    0.2038300000000000 C
   0.2038250000000000    0.5131950000000000    0.0131850000000000 C
   0.2305400000000000    0.9865650000000000    0.4865450000000000 C
   0.4866450000000000    0.7304700000000000    0.2961550000000000 C
   0.2961850000000000    0.9868150000000000    0.4867950000000000 C
   0.4866400000000000    0.7961700000000000    0.2304650000000000 C
   0.4868350000000000    0.9868250000000001    0.2961450000000000 C
   0.2961850000000000    0.7304850000000001    0.4866000000000000 C
   0.4865350000000000    0.9865400000000000    0.2305800000000000 C
   0.2304650000000000    0.7961750000000001    0.4866050000000000 C
   0.2961850000000000    0.9866200000000001    0.2304500000000000 C
   0.2304650000000000    0.9866300000000000    0.2961550000000000 C
   0.0554850000000000    0.6943550000000001    0.0554500000000000 C
   0.0268150000000000    0.7230850000000000    0.0268000000000000 C
   0.1945300000000000    0.5556600000000000    0.1945200000000000 C
   0.2231900000000000    0.5269300000000000    0.2231800000000000 C
   0.0554800000000000    0.5554850000000000    0.1943500000000000 C
   0.0268100000000000    0.5268250000000000    0.2230800000000000 C
   0.1945350000000000    0.6945200000000000    0.0556550000000000 C
   0.2231900000000000    0.7231850000000000    0.0269000000000000 C
   0.0556100000000000    0.6945500000000000    0.1945400000000000 C
   0.0269000000000000    0.7232000000000001    0.2231900000000000 C
   0.1944150000000000    0.5554550000000000    0.0554600000000000 C
   0.2231200000000000    0.5268050000000000    0.0268050000000000 C
   0.3055950000000000    0.9445550000000000    0.4445200000000000 C
   0.2768900000000000    0.9732050000000000    0.4731800000000000 C
   0.4444000000000000    0.8054600000000001    0.3054450000000000 C
   0.4731100000000000    0.7768050000000000    0.2767950000000000 C
   0.4445250000000000    0.9445250000000001    0.3056300000000000 C
   0.4731950000000000    0.9731850000000000    0.2769050000000000 C
   0.3054750000000000    0.8054850000000000    0.4443300000000000 C
   0.2768150000000000    0.7768200000000001    0.4730600000000000 C
   0.3054800000000000    0.9443500000000000    0.3054650000000000 C
   0.2768200000000000    0.9730799999999999    0.2768050000000000 C
   0.5134700000000000    0.7694150000000000    0.0134600000000000 C
   0.7695400000000000    0.5133799999999999    0.2038300000000000 C
   0.5131700000000000    0.7038400000000000    0.0131850000000000 C
   0.7038200000000000    0.5133900000000000    0.2695100000000000 C
   0.5131700000000000    0.5131850000000000    0.2038350000000000 C
   0.7695449999999999    0.7038350000000000    0.0133750000000000 C
   0.5134700000000000    0.5134700000000000    0.2694050000000000 C
   0.7038200000000000    0.7695200000000000    0.0133500000000000 C
   0.5133700000000000    0.7038350000000000    0.2695200000000000 C
   0.7694700000000000    0.5134450000000000    0.0134000000000000 C
   0.5133650000000000    0.7695400000000000    0.2038300000000000 C
   0.7038250000000000    0.5131950000000000    0.0131850000000000 C
   0.7305400000000000    0.9865650000000000    0.4865450000000000 C
   0.9866450000000000    0.7304700000000000    0.2961550000000000 C
   0.7961849999999999    0.9868150000000000    0.4867950000000000 C
   0.9866400000000000    0.7961700000000000    0.2304650000000000 C
   0.9868350000000000    0.9868250000000001    0.2961450000000000 C
   0.7961849999999999    0.7304850000000001    0.4866000000000000 C
   0.9865349999999999    0.9865400000000000    0.2305800000000000 C
   0.7304650000000000    0.7961750000000001    0.4866050000000000 C
   0.7961849999999999    0.9866200000000001    0.2304500000000000 C
   0.9865349999999999    0.7305900000000000    0.4865250000000000 C
   0.7304650000000000    0.9866300000000000    0.2961550000000000 C
   0.9868350000000000    0.7961650000000000    0.4868050000000000 C
   0.5554850000000000    0.6943550000000001    0.0554500000000000 C
   0.5268150000000000    0.7230850000000000    0.0268000000000000 C
   0.6945300000000000    0.5556600000000000    0.1945200000000000 C
   0.7231900000000000    0.5269300000000000    0.2231800000000000 C
   0.5554800000000000    0.5554850000000000    0.1943500000000000 C
   0.5268100000000000    0.5268250000000000    0.2230800000000000 C
   0.6945350000000000    0.6945200000000000    0.0556550000000000 C
   0.7231900000000000    0.7231850000000000    0.0269000000000000 C
   0.5556100000000000    0.6945500000000000    0.1945400000000000 C
   0.5269000000000000    0.7232000000000001    0.2231900000000000 C
   0.6944150000000000    0.5554550000000000    0.0554600000000000 C
   0.7231200000000000    0.5268050000000000    0.0268050000000000 C
   0.8055950000000001    0.9445550000000000    0.4445200000000000 C
   0.7768900000000001    0.9732050000000000    0.4731800000000000 C
   0.9444000000000000    0.8054600000000001    0.3054450000000000 C
   0.9731099999999999    0.7768050000000000    0.2767950000000000 C
   0.9445250000000001    0.9445250000000001    0.3056300000000000 C
   0.9731950000000000    0.9731850000000000    0.2769050000000000 C
   0.8054749999999999    0.8054850000000000    0.4443300000000000 C
   0.7768150000000000    0.7768200000000001    0.4730600000000000 C