H8 O4
1.0
  11.7348634345372780    0.0000000000000000    6.0856339992444477
   5.8423127883036399   12.7277984888261759    3.0363509203413623
   0.0000000000000000    0.0000000000000000   14.3369999999999997
H O
8 4
direct
   0.3624806118515711    0.5819081191274850    0.0610207664531383 H
   0.3245421726181910    0.5982499492333300    0.0752163366641233 H
   0.3804547978897871    0.6341465577481187    0.1398751197517401 H
   0.5019989450922759    0.5754233454402966    0.0983118957685951 H
   0.6374642224688720    0.4179635003522328    0.9390882015958144 H
   0.6754342684769096    0.4017728684352191    0.9247916339410337 H
   0.6195049727812235    0.3657937956130227    0.8602187475162795 H
   0.4979849548335535    0.4245906397436103    0.9016806214414189 H
   0.4182800000000000    0.6270600000000000    0.1403100000000000 O
   0.3146200000000000    0.6403900000000000    0.1268700000000000 O
   0.5817000000000000    0.3729300000000000    0.8597100000000000 O
   0.6853500000000000    0.3596000000000000    0.8731700000000000 O
