La8 H44 C44 O66
1.0
  12.3364120980405456    0.0000000000000000   -1.1402883614765320
  -0.1869577015092009    7.5098767057774802   -1.9946315278434690
   0.0000000000000000    0.0000000000000000   26.7020000000000017
La H C O
8 44 44 66
direct
   0.3984400000000000    0.6939300000000000    0.4127900000000000 La
   0.2945150000000000    0.0412700000000000    0.2384300000000000 La
   0.8984400000000000    0.6939300000000000    0.4127900000000000 La
   0.7945150000000001    0.0412700000000000    0.2384300000000000 La
   0.3984400000000000    0.6939300000000000    0.9127900000000000 La
   0.2945150000000000    0.0412700000000000    0.7384300000000000 La
   0.8984400000000000    0.6939300000000000    0.9127900000000000 La
   0.7945150000000001    0.0412700000000000    0.7384300000000000 La
   0.0634900000000000    0.5543000000000000    0.2869400000000000 H
   0.4998450000000000    0.5880600000000000    0.2034850000000000 H
   0.1305400000000000    0.1215500000000000    0.3640600000000000 H
   0.1972900000000000    0.2986300000000000    0.4477800000000000 H
   0.1549450000000000    0.8147400000000000    0.0511000000000000 H
   0.0092200000000000    0.7969100000000000    0.1038850000000000 H
   0.4351000000000000    0.8561800000000001    0.3277500000000000 H
   0.3371300000000000    0.6718400000000000    0.1853400000000000 H
   0.2593600000000000    0.3529800000000000    0.3236550000000000 H
   0.3659650000000000    0.4051000000000000    0.4629450000000000 H
   0.2451600000000000    0.4952000000000000    0.0553200000000000 H
   0.5634900000000000    0.5543000000000000    0.2869400000000000 H
   0.9998450000000000    0.5880600000000000    0.2034850000000000 H
   0.6305400000000000    0.1215500000000000    0.3640600000000000 H
   0.6972900000000000    0.2986300000000000    0.4477800000000000 H
   0.9351000000000000    0.8561800000000001    0.3277500000000000 H
   0.8371299999999999    0.6718400000000000    0.1853400000000000 H
   0.7593600000000000    0.3529800000000000    0.3236550000000000 H
   0.8659650000000000    0.4051000000000000    0.4629450000000000 H
   0.9973300000000000    0.4383900000000000    0.0873600000000000 H
   0.0634900000000000    0.5543000000000000    0.7869400000000000 H
   0.4998450000000000    0.5880600000000000    0.7034850000000000 H
   0.1305400000000000    0.1215500000000000    0.8640600000000001 H
   0.1972900000000000    0.2986300000000000    0.9477800000000001 H
   0.1549450000000000    0.8147400000000000    0.5511000000000000 H
   0.0092200000000000    0.7969100000000000    0.6038850000000000 H
   0.4351000000000000    0.8561800000000001    0.8277500000000000 H
   0.3371300000000000    0.6718400000000000    0.6853400000000001 H
   0.2593600000000000    0.3529800000000000    0.8236550000000000 H
   0.3659650000000000    0.4051000000000000    0.9629449999999999 H
   0.2451600000000000    0.4952000000000000    0.5553200000000000 H
   0.4973300000000000    0.4383900000000000    0.5873600000000000 H
   0.5634900000000000    0.5543000000000000    0.7869400000000000 H
   0.9998450000000000    0.5880600000000000    0.7034850000000000 H
   0.6305400000000000    0.1215500000000000    0.8640600000000001 H
   0.6972900000000000    0.2986300000000000    0.9477800000000001 H
   0.6549450000000000    0.8147400000000000    0.5511000000000000 H
   0.5092200000000000    0.7969100000000000    0.6038850000000000 H
   0.9351000000000000    0.8561800000000001    0.8277500000000000 H
   0.8371299999999999    0.6718400000000000    0.6853400000000001 H
   0.7593600000000000    0.3529800000000000    0.8236550000000000 H
   0.8659650000000000    0.4051000000000000    0.9629449999999999 H
   0.7451600000000000    0.4952000000000000    0.5553200000000000 H
   0.9973300000000000    0.4383900000000000    0.5873600000000000 H
   0.3953750000000000    0.4795100000000000    0.2834550000000000 C
   0.4849350000000000    0.6198600000000000    0.2855200000000000 C
   0.4717850000000000    0.6898600000000000    0.2362800000000000 C
   0.0413250000000000    0.8602300000000001    0.2424350000000000 C
   0.2987300000000000    0.0527200000000000    0.3673050000000000 C
   0.2092200000000000    0.1894200000000000    0.3655300000000000 C
   0.2236900000000000    0.3448900000000000    0.4151500000000000 C
   0.1532700000000000    0.5048000000000000    0.4101050000000000 C
   0.2307600000000000    0.7490300000000000    0.1196700000000000 C
   0.1566050000000000    0.7016300000000000    0.0689200000000000 C
   0.0393000000000000    0.6689100000000000    0.0816550000000000 C
   0.8953750000000000    0.4795100000000000    0.2834550000000000 C
   0.9849350000000000    0.6198600000000000    0.2855200000000000 C
   0.9717850000000000    0.6898600000000000    0.2362800000000000 C
   0.5413250000000001    0.8602300000000001    0.2424350000000000 C
   0.7987299999999999    0.0527200000000000    0.3673050000000000 C
   0.7092200000000000    0.1894200000000000    0.3655300000000000 C
   0.7236899999999999    0.3448900000000000    0.4151500000000000 C
   0.6532700000000000    0.5048000000000000    0.4101050000000000 C
   0.9678800000000001    0.6074500000000000    0.0302550000000000 C
   0.3953750000000000    0.4795100000000000    0.7834550000000000 C
   0.4849350000000000    0.6198600000000000    0.7855200000000000 C
   0.4717850000000000    0.6898600000000000    0.7362800000000000 C
   0.0413250000000000    0.8602300000000001    0.7424350000000000 C
   0.2987300000000000    0.0527200000000000    0.8673050000000000 C
   0.2092200000000000    0.1894200000000000    0.8655300000000000 C
   0.2236900000000000    0.3448900000000000    0.9151500000000000 C
   0.1532700000000000    0.5048000000000000    0.9101049999999999 C
   0.2307600000000000    0.7490300000000000    0.6196699999999999 C
   0.1566050000000000    0.7016300000000000    0.5689200000000000 C
   0.0393000000000000    0.6689100000000000    0.5816550000000000 C
   0.4678800000000000    0.6074500000000000    0.5302550000000000 C
   0.8953750000000000    0.4795100000000000    0.7834550000000000 C
   0.9849350000000000    0.6198600000000000    0.7855200000000000 C
   0.9717850000000000    0.6898600000000000    0.7362800000000000 C
   0.5413250000000001    0.8602300000000001    0.7424350000000000 C
   0.7987299999999999    0.0527200000000000    0.8673050000000000 C
   0.7092200000000000    0.1894200000000000    0.8655300000000000 C
   0.7236899999999999    0.3448900000000000    0.9151500000000000 C
   0.6532700000000000    0.5048000000000000    0.9101049999999999 C
   0.7307600000000000    0.7490300000000000    0.6196699999999999 C
   0.6566050000000000    0.7016300000000000    0.5689200000000000 C
   0.5393000000000000    0.6689100000000000    0.5816550000000000 C
   0.9678800000000001    0.6074500000000000    0.5302550000000000 C
   0.3790800000000000    0.3471900000000000    0.2447550000000000 O
   0.3424450000000000    0.5057300000000000    0.3239450000000000 O
   0.4862550000000000    0.7587200000000000    0.3330550000000000 O
   0.3602600000000000    0.7247700000000000    0.2247250000000000 O
   0.4912700000000000    0.9994600000000000    0.2376650000000000 O
   0.1428450000000000    0.8511800000000000    0.2510150000000000 O
   0.3518700000000000    0.0082700000000000    0.3268800000000000 O
   0.3151200000000000    0.9886900000000000    0.4060200000000000 O
   0.2080000000000000    0.2461400000000000    0.3183000000000000 O
   0.3354200000000000    0.3995300000000000    0.4252450000000000 O
   0.2028800000000000    0.6506100000000000    0.4122200000000000 O
   0.0515250000000000    0.4817400000000000    0.4040800000000000 O
   0.2250800000000000    0.9061800000000000    0.1501700000000000 O
   0.2918400000000000    0.6285500000000001    0.1285700000000000 O
   0.1939050000000000    0.5489600000000000    0.0337350000000000 O
   0.0374850000000000    0.5410000000000000    0.1110050000000000 O
   0.8790800000000000    0.3471900000000000    0.2447550000000000 O
   0.8424450000000000    0.5057300000000000    0.3239450000000000 O
   0.9862550000000000    0.7587200000000000    0.3330550000000000 O
   0.8602600000000000    0.7247700000000000    0.2247250000000000 O
   0.9912700000000000    0.9994600000000000    0.2376650000000000 O
   0.6428450000000000    0.8511800000000000    0.2510150000000000 O
   0.8518700000000000    0.0082700000000000    0.3268800000000000 O
   0.8151200000000001    0.9886900000000000    0.4060200000000000 O
   0.7080000000000000    0.2461400000000000    0.3183000000000000 O
   0.8354200000000001    0.3995300000000000    0.4252450000000000 O
   0.7028799999999999    0.6506100000000000    0.4122200000000000 O
   0.5515250000000000    0.4817400000000000    0.4040800000000000 O
   0.9540050000000000    0.7194100000000000    0.0022250000000000 O
   0.9289200000000000    0.4509000000000000    0.0184850000000000 O
   0.3790800000000000    0.3471900000000000    0.7447550000000001 O
   0.3424450000000000    0.5057300000000000    0.8239449999999999 O
   0.4862550000000000    0.7587200000000000    0.8330550000000000 O
   0.3602600000000000    0.7247700000000000    0.7247250000000001 O
   0.4912700000000000    0.9994600000000000    0.7376650000000000 O
   0.1428450000000000    0.8511800000000000    0.7510150000000000 O
   0.3518700000000000    0.0082700000000000    0.8268800000000001 O
   0.3151200000000000    0.9886900000000000    0.9060200000000000 O
   0.2080000000000000    0.2461400000000000    0.8183000000000000 O
   0.3354200000000000    0.3995300000000000    0.9252450000000000 O
   0.2028800000000000    0.6506100000000000    0.9122200000000000 O
   0.0515250000000000    0.4817400000000000    0.9040800000000000 O
   0.2250800000000000    0.9061800000000000    0.6501700000000000 O
   0.2918400000000000    0.6285500000000001    0.6285700000000000 O
   0.1939050000000000    0.5489600000000000    0.5337350000000000 O
   0.0374850000000000    0.5410000000000000    0.6110050000000000 O
   0.4540050000000000    0.7194100000000000    0.5022250000000000 O
   0.4289200000000000    0.4509000000000000    0.5184850000000000 O
   0.8790800000000000    0.3471900000000000    0.7447550000000001 O
   0.8424450000000000    0.5057300000000000    0.8239449999999999 O
   0.9862550000000000    0.7587200000000000    0.8330550000000000 O
   0.8602600000000000    0.7247700000000000    0.7247250000000001 O
   0.9912700000000000    0.9994600000000000    0.7376650000000000 O
   0.6428450000000000    0.8511800000000000    0.7510150000000000 O
   0.8518700000000000    0.0082700000000000    0.8268800000000001 O
   0.8151200000000001    0.9886900000000000    0.9060200000000000 O
   0.7080000000000000    0.2461400000000000    0.8183000000000000 O
   0.8354200000000001    0.3995300000000000    0.9252450000000000 O
   0.7028799999999999    0.6506100000000000    0.9122200000000000 O
   0.5515250000000000    0.4817400000000000    0.9040800000000000 O
   0.7250799999999999    0.9061800000000000    0.6501700000000000 O
   0.7918400000000000    0.6285500000000001    0.6285700000000000 O
   0.6939050000000000    0.5489600000000000    0.5337350000000000 O
   0.5374850000000000    0.5410000000000000    0.6110050000000000 O
   0.9540050000000000    0.7194100000000000    0.5022250000000000 O
   0.9289200000000000    0.4509000000000000    0.5184850000000000 O
