H3 C9 O6
1.0
  30.0776757983161964    0.0000000000000000    2.5902006816817122
   3.6473301092861705   16.6962483885444364    3.9808327108686523
   0.0000000000000000    0.0000000000000000   20.1350000000000016
H C O
3 9 6
direct
   0.8760433333333333    0.7767800000000000    0.0655800000000000 H
   0.9244933333333333    0.5579700000000000    0.0000000000000000 H
   0.8776366666666666    0.7822000000000000    0.8525500000000000 H
   0.8828300000000000    0.7448000000000000    0.0242500000000000 C
   0.9004033333333332    0.6620200000000001    0.0377200000000000 C
   0.9010300000000000    0.6646600000000000    0.9166200000000000 C
   0.9093133333333333    0.6165000000000000    0.1093800000000000 C
   0.9101066666666666    0.6221000000000000    0.0000000000000000 C
   0.9099333333333333    0.6221100000000001    0.8587399999999999 C
   0.8570833333333333    0.8769300000000000    0.9419500000000000 C
   0.8837466666666667    0.7473600000000000    0.9041800000000000 C
   0.8748300000000000    0.7881200000000000    0.9575600000000000 C
   0.8924500000000000    0.6529400000000000    0.1588900000000000 O
   0.9325433333333333    0.5465100000000001    0.1222000000000000 O
   0.8940333333333332    0.6617700000000000    0.7994800000000000 O
   0.9319533333333333    0.5512400000000000    0.8664900000000000 O
   0.8509766666666666   -0.0863400000000000    0.8806000000000000 O
   0.8486066666666666   -0.0859500000000000    1.0000000000000000 O
