H2 C2 N3
1.0
  16.2009998001281730    0.0000000000000000   -0.0025448471185747
   0.0000000000000035   21.5169999999999995    0.0000000000000013
   0.0000000000000000    0.0000000000000000   37.7419999999999973
H C N
2 2 3
direct
   0.0212900000000000    0.7308800000000000    0.8165650000000000 H
   0.2760500000000000    0.7330500000000000    0.8381550000000000 H
   0.0818900000000000    0.7442700000000000    0.8262250000000000 C
   0.2110900000000000    0.7453400000000000    0.8375100000000000 C
   0.1524700000000000    0.7115300000000000    0.8203500000000000 N
   0.0960000000000000    0.7950000000000000    0.8456500000000000 N
   0.1794800000000000    0.7955200000000000    0.8529650000000000 N
