H1 O1
1.0
  16.2009998001281730    0.0000000000000000   -0.0025448471185747
   0.0000000000000035   21.5169999999999995    0.0000000000000013
   0.0000000000000000    0.0000000000000000   37.7419999999999973
H O
1 1
direct
   0.1946392709649772    0.7358517852495032    0.8326943311115491 H
   0.1524700000000000    0.7115300000000000    0.8203500000000000 O
