H10 C10 N4
1.0
  22.0482144738848227    0.0000000000000000   -1.3083606206148892
  -0.0570026372901589   16.7851577603709181   -6.1950701092725255
   0.0000000000000000    0.0000000000000000   20.5410000000000004
H C N
10 10 4
direct
   0.0668100000000000    0.0376600000000000    0.4995600000000000 H
   0.0947200000000000    0.1255900000000000    0.4351700000000000 H
   0.1081000000000000    0.3202400000000000    0.6328200000000000 H
   0.0792400000000000    0.2237300000000000    0.6885800000000000 H
   0.2055600000000000    0.2344000000000000    0.3185400000000000 H
   0.1812500000000000    0.3065400000000000    0.2359800000000000 H
   0.0349400000000000    0.4207000000000000    0.3455000000000000 H
   0.0528900000000000    0.3540200000000000    0.4339000000000000 H
   0.1452600000000000    0.3324400000000000    0.5298400000000000 H
   0.1852000000000000    0.2214400000000000    0.4272500000000000 H
   0.1670500000000000    0.2748400000000000    0.3262100000000000 C
   0.1536300000000000    0.3143700000000000    0.2800900000000000 C
   0.0721800000000000    0.3789000000000000    0.3419100000000000 C
   0.0763200000000000    0.1006100000000000    0.5270700000000000 C
   0.0919900000000000    0.1497100000000000    0.4912700000000000 C
   0.1049000000000000    0.2300800000000000    0.5280000000000000 C
   0.0993000000000000    0.2580600000000000    0.6012000000000000 C
   0.0832000000000000    0.2049300000000000    0.6325900000000000 C
   0.1313300000000000    0.2891600000000000    0.3839600000000000 C
   0.0822000000000000    0.3421200000000000    0.3907700000000000 C
   0.0724200000000000    0.1268100000000000    0.5967400000000000 N
   0.1226300000000000    0.2828200000000000    0.4972200000000000 N
   0.1450300000000000    0.2518500000000000    0.4313400000000000 N
   0.1071000000000000    0.3663200000000000    0.2871000000000000 N
