Cu96 H940 C752 I96 N188
1.0
  31.9346276053038594    0.0000000000000000   -8.8040579115862609
 -11.5604805069157894   29.7560948337825124   -8.8914090386260796
   0.0000000000000000    0.0000000000000000   33.1420000000000030
Cu H C I N
96 940 752 96 188
direct
   0.3746950000000000    0.2181450000000000    0.0310050000000000 Cu
   0.4690000000000000    0.2817300000000000    0.1253850000000000 Cu
   0.0309950000000000    0.3745850000000000    0.2182200000000000 Cu
   0.1253200000000000    0.4689450000000000    0.2817900000000000 Cu
   0.2181400000000000    0.0308700000000000    0.3747100000000000 Cu
   0.2181850000000000    0.3747850000000000    0.0309150000000000 Cu
   0.1253150000000000    0.2818800000000000    0.4690050000000000 Cu
   0.0310100000000000    0.2182950000000000    0.3746150000000000 Cu
   0.4690100000000000    0.1254400000000000    0.2817800000000000 Cu
   0.3746950000000000    0.0311050000000000    0.2182250000000000 Cu
   0.2818650000000000    0.4691600000000000    0.1252950000000000 Cu
   0.2818250000000000    0.1252500000000000    0.4690900000000000 Cu
   0.8746950000000000    0.2181450000000000    0.0310050000000000 Cu
   0.9690000000000000    0.2817300000000000    0.1253850000000000 Cu
   0.5309950000000000    0.3745850000000000    0.2182200000000000 Cu
   0.6253200000000000    0.4689450000000000    0.2817900000000000 Cu
   0.7181400000000000    0.0308700000000000    0.3747100000000000 Cu
   0.7181850000000000    0.3747850000000000    0.0309150000000000 Cu
   0.6253150000000001    0.2818800000000000    0.4690050000000000 Cu
   0.5310100000000000    0.2182950000000000    0.3746150000000000 Cu
   0.9690099999999999    0.1254400000000000    0.2817800000000000 Cu
   0.8746950000000000    0.0311050000000000    0.2182250000000000 Cu
   0.7818650000000000    0.4691600000000000    0.1252950000000000 Cu
   0.7818250000000000    0.1252500000000000    0.4690900000000000 Cu
   0.3746950000000000    0.7181450000000000    0.0310050000000000 Cu
   0.4690000000000000    0.7817300000000000    0.1253850000000000 Cu
   0.0309950000000000    0.8745849999999999    0.2182200000000000 Cu
   0.1253200000000000    0.9689449999999999    0.2817900000000000 Cu
   0.2181400000000000    0.5308700000000000    0.3747100000000000 Cu
   0.2181850000000000    0.8747849999999999    0.0309150000000000 Cu
   0.1253150000000000    0.7818800000000000    0.4690050000000000 Cu
   0.0310100000000000    0.7182950000000000    0.3746150000000000 Cu
   0.4690100000000000    0.6254400000000000    0.2817800000000000 Cu
   0.3746950000000000    0.5311050000000000    0.2182250000000000 Cu
   0.2818650000000000    0.9691600000000000    0.1252950000000000 Cu
   0.2818250000000000    0.6252500000000000    0.4690900000000000 Cu
   0.8746950000000000    0.7181450000000000    0.0310050000000000 Cu
   0.9690000000000000    0.7817300000000000    0.1253850000000000 Cu
   0.5309950000000000    0.8745849999999999    0.2182200000000000 Cu
   0.6253200000000000    0.9689449999999999    0.2817900000000000 Cu
   0.7181400000000000    0.5308700000000000    0.3747100000000000 Cu
   0.7181850000000000    0.8747849999999999    0.0309150000000000 Cu
   0.6253150000000001    0.7818800000000000    0.4690050000000000 Cu
   0.5310100000000000    0.7182950000000000    0.3746150000000000 Cu
   0.9690099999999999    0.6254400000000000    0.2817800000000000 Cu
   0.8746950000000000    0.5311050000000000    0.2182250000000000 Cu
   0.7818650000000000    0.9691600000000000    0.1252950000000000 Cu
   0.7818250000000000    0.6252500000000000    0.4690900000000000 Cu
   0.3746950000000000    0.2181450000000000    0.5310049999999999 Cu
   0.4690000000000000    0.2817300000000000    0.6253850000000000 Cu
   0.0309950000000000    0.3745850000000000    0.7182200000000000 Cu
   0.1253200000000000    0.4689450000000000    0.7817900000000000 Cu
   0.2181400000000000    0.0308700000000000    0.8747100000000000 Cu
   0.2181850000000000    0.3747850000000000    0.5309150000000000 Cu
   0.1253150000000000    0.2818800000000000    0.9690050000000000 Cu
   0.0310100000000000    0.2182950000000000    0.8746149999999999 Cu
   0.4690100000000000    0.1254400000000000    0.7817799999999999 Cu
   0.3746950000000000    0.0311050000000000    0.7182250000000000 Cu
   0.2818650000000000    0.4691600000000000    0.6252949999999999 Cu
   0.2818250000000000    0.1252500000000000    0.9690900000000000 Cu
   0.8746950000000000    0.2181450000000000    0.5310049999999999 Cu
   0.9690000000000000    0.2817300000000000    0.6253850000000000 Cu
   0.5309950000000000    0.3745850000000000    0.7182200000000000 Cu
   0.6253200000000000    0.4689450000000000    0.7817900000000000 Cu
   0.7181400000000000    0.0308700000000000    0.8747100000000000 Cu
   0.7181850000000000    0.3747850000000000    0.5309150000000000 Cu
   0.6253150000000001    0.2818800000000000    0.9690050000000000 Cu
   0.5310100000000000    0.2182950000000000    0.8746149999999999 Cu
   0.9690099999999999    0.1254400000000000    0.7817799999999999 Cu
   0.8746950000000000    0.0311050000000000    0.7182250000000000 Cu
   0.7818650000000000    0.4691600000000000    0.6252949999999999 Cu
   0.7818250000000000    0.1252500000000000    0.9690900000000000 Cu
   0.3746950000000000    0.7181450000000000    0.5310049999999999 Cu
   0.4690000000000000    0.7817300000000000    0.6253850000000000 Cu
   0.0309950000000000    0.8745849999999999    0.7182200000000000 Cu
   0.1253200000000000    0.9689449999999999    0.7817900000000000 Cu
   0.2181400000000000    0.5308700000000000    0.8747100000000000 Cu
   0.2181850000000000    0.8747849999999999    0.5309150000000000 Cu
   0.1253150000000000    0.7818800000000000    0.9690050000000000 Cu
   0.0310100000000000    0.7182950000000000    0.8746149999999999 Cu
   0.4690100000000000    0.6254400000000000    0.7817799999999999 Cu
   0.3746950000000000    0.5311050000000000    0.7182250000000000 Cu
   0.2818650000000000    0.9691600000000000    0.6252949999999999 Cu
   0.2818250000000000    0.6252500000000000    0.9690900000000000 Cu
   0.8746950000000000    0.7181450000000000    0.5310049999999999 Cu
   0.9690000000000000    0.7817300000000000    0.6253850000000000 Cu
   0.5309950000000000    0.8745849999999999    0.7182200000000000 Cu
   0.6253200000000000    0.9689449999999999    0.7817900000000000 Cu
   0.7181400000000000    0.5308700000000000    0.8747100000000000 Cu
   0.7181850000000000    0.8747849999999999    0.5309150000000000 Cu
   0.6253150000000001    0.7818800000000000    0.9690050000000000 Cu
   0.5310100000000000    0.7182950000000000    0.8746149999999999 Cu
   0.9690099999999999    0.6254400000000000    0.7817799999999999 Cu
   0.8746950000000000    0.5311050000000000    0.7182250000000000 Cu
   0.7818650000000000    0.9691600000000000    0.6252949999999999 Cu
   0.7818250000000000    0.6252500000000000    0.9690900000000000 Cu
   0.2340100000000000    0.4546600000000000    0.3721500000000000 H
   0.1851250000000000    0.4334400000000000    0.3826650000000000 H
   0.3148900000000000    0.1173200000000000    0.0665800000000000 H
   0.2660100000000000    0.1278700000000000    0.0453200000000000 H
   0.2988450000000000    0.3939550000000000    0.4276450000000000 H
   0.3065000000000000    0.4514850000000000    0.4515550000000000 H
   0.2988550000000000    0.4276250000000000    0.3940200000000000 H
   0.2233800000000000    0.3705800000000000    0.3368550000000000 H
   0.1771000000000000    0.3539000000000000    0.3538450000000000 H
   0.2233250000000000    0.3368250000000000    0.3706200000000000 H
   0.1981650000000000    0.1465650000000000    0.0151500000000000 H
   0.2008500000000000    0.1187400000000000    0.4628000000000000 H
   0.3812750000000000    0.2990450000000000    0.0370950000000000 H
   0.3534550000000000    0.3016450000000000    0.4847700000000000 H
   0.1471650000000000    0.1131300000000000    0.3917700000000000 H
   0.1720850000000000    0.1720050000000000    0.4064050000000000 H
   0.1132050000000000    0.1472550000000000    0.3918000000000000 H
   0.1168950000000000    0.1171300000000000    0.4938050000000000 H
   0.1146000000000000    0.0809650000000000    0.4418300000000000 H
   0.0808850000000000    0.1147150000000000    0.4417900000000000 H
   0.3722400000000000    0.2340900000000000    0.4548500000000000 H
   0.3827450000000000    0.1851650000000000    0.4334500000000000 H
   0.0664100000000000    0.3148700000000000    0.1173000000000000 H
   0.0451750000000000    0.2659850000000000    0.1277500000000000 H
   0.4277600000000000    0.2988800000000000    0.3942050000000000 H
   0.4515950000000000    0.3065850000000000    0.4517100000000000 H
   0.3940900000000000    0.2989350000000000    0.4279100000000000 H
   0.3370100000000000    0.2234050000000000    0.3707950000000000 H
   0.3540450000000000    0.1771050000000000    0.3539900000000000 H
   0.3708200000000000    0.2233150000000000    0.3369950000000000 H
   0.0150650000000000    0.1979600000000000    0.1463550000000000 H
   0.4627650000000000    0.2006750000000000    0.1186600000000000 H
   0.0371850000000000    0.3813500000000000    0.2992300000000000 H
   0.4849100000000000    0.3536600000000000    0.3019400000000000 H
   0.3917650000000000    0.1471000000000000    0.1131550000000000 H
   0.4064200000000000    0.1721050000000000    0.1720650000000000 H
   0.3918000000000000    0.1131800000000000    0.1472200000000000 H
   0.4936950000000000    0.1166250000000000    0.1167500000000000 H
   0.4417500000000000    0.1143650000000000    0.0807500000000000 H
   0.4416950000000000    0.0806900000000000    0.1144400000000000 H
   0.4548650000000000    0.3722750000000000    0.2340700000000000 H
   0.4335900000000000    0.3827050000000000    0.1851650000000000 H
   0.1172550000000000    0.0664900000000000    0.3148450000000000 H
   0.1277550000000000    0.0450800000000000    0.2659250000000000 H
   0.3941050000000000    0.4279800000000000    0.2989100000000000 H
   0.4516050000000000    0.4518050000000000    0.3065950000000000 H
   0.4278300000000000    0.3943050000000000    0.2989000000000000 H
   0.3708300000000000    0.3371100000000000    0.2233700000000000 H
   0.3541050000000000    0.3540450000000000    0.1770900000000000 H
   0.3370200000000000    0.3709300000000000    0.2233250000000000 H
   0.1465050000000000    0.0152000000000000    0.1982600000000000 H
   0.1187200000000000    0.4628900000000000    0.2008400000000000 H
   0.2991200000000000    0.0372050000000000    0.3812900000000000 H
   0.3018600000000000    0.4848750000000000    0.3534900000000000 H
   0.1132250000000000    0.3918250000000000    0.1470800000000000 H
   0.1721000000000000    0.4064300000000000    0.1719950000000000 H
   0.1473100000000000    0.3918050000000000    0.1130000000000000 H
   0.1169350000000000    0.4938000000000000    0.1169250000000000 H
   0.0808950000000000    0.4418600000000000    0.1145500000000000 H
   0.1146000000000000    0.4417550000000000    0.0808450000000000 H
   0.2660000000000000    0.0453650000000000    0.1278500000000000 H
   0.3148850000000000    0.0665850000000000    0.1173350000000000 H
   0.1851250000000000    0.3827100000000000    0.4334200000000000 H
   0.2340050000000000    0.3721600000000000    0.4546800000000000 H
   0.2011650000000000    0.1060750000000000    0.0723550000000000 H
   0.1935150000000000    0.0485450000000000    0.0484450000000000 H
   0.2011550000000000    0.0724000000000000    0.1059750000000000 H
   0.2766300000000000    0.1294500000000000    0.1631450000000000 H
   0.3229100000000000    0.1461250000000000    0.1461550000000000 H
   0.2766850000000000    0.1632050000000000    0.1293800000000000 H
   0.3018450000000000    0.3534600000000000    0.4848450000000000 H
   0.2991600000000000    0.3812900000000000    0.0372050000000000 H
   0.1187400000000000    0.2009850000000000    0.4629000000000000 H
   0.1465500000000000    0.1983800000000000    0.0152300000000000 H
   0.3528450000000000    0.3868950000000000    0.1082300000000000 H
   0.3279250000000000    0.3280200000000000    0.0935950000000000 H
   0.3868050000000000    0.3527700000000000    0.1081650000000000 H
   0.3831200000000000    0.3829000000000000    0.0061950000000000 H
   0.3854100000000000    0.4190600000000000    0.0581750000000000 H
   0.4191250000000000    0.3853100000000000    0.0582100000000000 H
   0.1277700000000000    0.2659350000000000    0.0451500000000000 H
   0.1172600000000000    0.3148600000000000    0.0665000000000000 H
   0.4336000000000000    0.1851550000000000    0.3826750000000000 H
   0.4548300000000000    0.2340400000000000    0.3722200000000000 H
   0.0722500000000000    0.2011450000000000    0.1057950000000000 H
   0.0484150000000000    0.1934400000000000    0.0482900000000000 H
   0.1059200000000000    0.2010950000000000    0.0720900000000000 H
   0.1629950000000000    0.2766200000000000    0.1292050000000000 H
   0.1459600000000000    0.3229200000000000    0.1460100000000000 H
   0.1291950000000000    0.2767100000000000    0.1630050000000000 H
   0.4849450000000000    0.3020650000000000    0.3536450000000000 H
   0.0372450000000000    0.2993500000000000    0.3813400000000000 H
   0.4628200000000000    0.1186750000000000    0.2007650000000000 H
   0.0151000000000000    0.1463650000000000    0.1980600000000000 H
   0.1082450000000000    0.3529250000000000    0.3868400000000000 H
   0.0935850000000000    0.3279200000000000    0.3279300000000000 H
   0.1082050000000000    0.3868400000000000    0.3527800000000000 H
   0.0063150000000000    0.3834000000000000    0.3832250000000000 H
   0.0582600000000000    0.3856600000000000    0.4192500000000000 H
   0.0583150000000000    0.4193350000000000    0.3855600000000000 H
   0.0451450000000000    0.1277550000000000    0.2659250000000000 H
   0.0664150000000000    0.1173250000000000    0.3148350000000000 H
   0.3827550000000000    0.4335450000000000    0.1851500000000000 H
   0.3722500000000000    0.4549450000000000    0.2340700000000000 H
   0.1059050000000000    0.0720500000000000    0.2010900000000000 H
   0.0484050000000000    0.0482200000000000    0.1934000000000000 H
   0.0721800000000000    0.1057200000000000    0.2010950000000000 H
   0.1291800000000000    0.1629150000000000    0.2766250000000000 H
   0.1459050000000000    0.1459850000000000    0.3229050000000000 H
   0.1629900000000000    0.1290950000000000    0.2766750000000000 H
   0.3535050000000000    0.4848250000000000    0.3017000000000000 H
   0.3812850000000000    0.0371400000000000    0.2991600000000000 H
   0.2008900000000000    0.4628200000000000    0.1187100000000000 H
   0.1981500000000000    0.0151500000000000    0.1465100000000000 H
   0.3867850000000000    0.1082000000000000    0.3529250000000000 H
   0.3279100000000000    0.0936000000000000    0.3280100000000000 H
   0.3527000000000000    0.1082200000000000    0.3869050000000000 H
   0.3830700000000000    0.0062250000000000    0.3830700000000000 H
   0.4191100000000000    0.0581650000000000    0.3854000000000000 H
   0.3854100000000000    0.0582700000000000    0.4191550000000000 H
   0.7340100000000001    0.4546600000000000    0.3721500000000000 H
   0.6851250000000000    0.4334400000000000    0.3826650000000000 H
   0.8148900000000000    0.1173200000000000    0.0665800000000000 H
   0.7660100000000001    0.1278700000000000    0.0453200000000000 H
   0.7988450000000000    0.3939550000000000    0.4276450000000000 H
   0.8065000000000000    0.4514850000000000    0.4515550000000000 H
   0.7988550000000000    0.4276250000000000    0.3940200000000000 H
   0.7233800000000000    0.3705800000000000    0.3368550000000000 H
   0.6771000000000000    0.3539000000000000    0.3538450000000000 H
   0.7233250000000000    0.3368250000000000    0.3706200000000000 H
   0.6981650000000000    0.1465650000000000    0.0151500000000000 H
   0.7008500000000000    0.1187400000000000    0.4628000000000000 H
   0.8812750000000000    0.2990450000000000    0.0370950000000000 H
   0.8534550000000001    0.3016450000000000    0.4847700000000000 H
   0.6471650000000000    0.1131300000000000    0.3917700000000000 H
   0.6720850000000000    0.1720050000000000    0.4064050000000000 H
   0.6132050000000000    0.1472550000000000    0.3918000000000000 H
   0.6168950000000000    0.1171300000000000    0.4938050000000000 H
   0.6146000000000000    0.0809650000000000    0.4418300000000000 H
   0.5808850000000000    0.1147150000000000    0.4417900000000000 H
   0.8722400000000000    0.2340900000000000    0.4548500000000000 H
   0.8827450000000000    0.1851650000000000    0.4334500000000000 H
   0.5664100000000000    0.3148700000000000    0.1173000000000000 H
   0.5451750000000000    0.2659850000000000    0.1277500000000000 H
   0.9277599999999999    0.2988800000000000    0.3942050000000000 H
   0.9515950000000000    0.3065850000000000    0.4517100000000000 H
   0.8940900000000001    0.2989350000000000    0.4279100000000000 H
   0.8370100000000000    0.2234050000000000    0.3707950000000000 H
   0.8540449999999999    0.1771050000000000    0.3539900000000000 H
   0.8708199999999999    0.2233150000000000    0.3369950000000000 H
   0.5150650000000000    0.1979600000000000    0.1463550000000000 H
   0.9627650000000000    0.2006750000000000    0.1186600000000000 H
   0.5371850000000000    0.3813500000000000    0.2992300000000000 H
   0.9849100000000000    0.3536600000000000    0.3019400000000000 H
   0.8917649999999999    0.1471000000000000    0.1131550000000000 H
   0.9064200000000000    0.1721050000000000    0.1720650000000000 H
   0.8917999999999999    0.1131800000000000    0.1472200000000000 H
   0.9936950000000000    0.1166250000000000    0.1167500000000000 H
   0.9417500000000000    0.1143650000000000    0.0807500000000000 H
   0.9416949999999999    0.0806900000000000    0.1144400000000000 H
   0.9548650000000001    0.3722750000000000    0.2340700000000000 H
   0.9335899999999999    0.3827050000000000    0.1851650000000000 H
   0.6172550000000000    0.0664900000000000    0.3148450000000000 H
   0.6277550000000001    0.0450800000000000    0.2659250000000000 H
   0.8941049999999999    0.4279800000000000    0.2989100000000000 H
   0.9516050000000000    0.4518050000000000    0.3065950000000000 H
   0.9278299999999999    0.3943050000000000    0.2989000000000000 H
   0.8708300000000000    0.3371100000000000    0.2233700000000000 H
   0.8541050000000000    0.3540450000000000    0.1770900000000000 H
   0.8370200000000000    0.3709300000000000    0.2233250000000000 H
   0.6187200000000000    0.4628900000000000    0.2008400000000000 H
   0.8018600000000000    0.4848750000000000    0.3534900000000000 H
   0.6132250000000000    0.3918250000000000    0.1470800000000000 H
   0.6721000000000000    0.4064300000000000    0.1719950000000000 H
   0.6473100000000001    0.3918050000000000    0.1130000000000000 H
   0.6169350000000000    0.4938000000000000    0.1169250000000000 H
   0.5808949999999999    0.4418600000000000    0.1145500000000000 H
   0.6146000000000000    0.4417550000000000    0.0808450000000000 H
   0.7660000000000000    0.0453650000000000    0.1278500000000000 H
   0.8148850000000001    0.0665850000000000    0.1173350000000000 H
   0.6851250000000000    0.3827100000000000    0.4334200000000000 H
   0.7340050000000000    0.3721600000000000    0.4546800000000000 H
   0.7011650000000000    0.1060750000000000    0.0723550000000000 H
   0.6935150000000000    0.0485450000000000    0.0484450000000000 H
   0.7011550000000000    0.0724000000000000    0.1059750000000000 H
   0.7766299999999999    0.1294500000000000    0.1631450000000000 H
   0.8229100000000000    0.1461250000000000    0.1461550000000000 H
   0.7766850000000001    0.1632050000000000    0.1293800000000000 H
   0.8018449999999999    0.3534600000000000    0.4848450000000000 H
   0.7991600000000000    0.3812900000000000    0.0372050000000000 H
   0.6187400000000000    0.2009850000000000    0.4629000000000000 H
   0.6465500000000000    0.1983800000000000    0.0152300000000000 H
   0.8528450000000001    0.3868950000000000    0.1082300000000000 H
   0.8279250000000000    0.3280200000000000    0.0935950000000000 H
   0.8868050000000001    0.3527700000000000    0.1081650000000000 H
   0.8831200000000000    0.3829000000000000    0.0061950000000000 H
   0.8854100000000000    0.4190600000000000    0.0581750000000000 H
   0.9191250000000000    0.3853100000000000    0.0582100000000000 H
   0.6277699999999999    0.2659350000000000    0.0451500000000000 H
   0.6172600000000000    0.3148600000000000    0.0665000000000000 H
   0.9336000000000000    0.1851550000000000    0.3826750000000000 H
   0.9548300000000001    0.2340400000000000    0.3722200000000000 H
   0.5722500000000000    0.2011450000000000    0.1057950000000000 H
   0.5484150000000000    0.1934400000000000    0.0482900000000000 H
   0.6059200000000000    0.2010950000000000    0.0720900000000000 H
   0.6629950000000000    0.2766200000000000    0.1292050000000000 H
   0.6459600000000000    0.3229200000000000    0.1460100000000000 H
   0.6291949999999999    0.2767100000000000    0.1630050000000000 H
   0.9849450000000000    0.3020650000000000    0.3536450000000000 H
   0.5372450000000000    0.2993500000000000    0.3813400000000000 H
   0.9628200000000000    0.1186750000000000    0.2007650000000000 H
   0.5151000000000000    0.1463650000000000    0.1980600000000000 H
   0.6082450000000000    0.3529250000000000    0.3868400000000000 H
   0.5935850000000000    0.3279200000000000    0.3279300000000000 H
   0.6082050000000000    0.3868400000000000    0.3527800000000000 H
   0.5063150000000000    0.3834000000000000    0.3832250000000000 H
   0.5582600000000000    0.3856600000000000    0.4192500000000000 H
   0.5583150000000000    0.4193350000000000    0.3855600000000000 H
   0.5451450000000000    0.1277550000000000    0.2659250000000000 H
   0.5664150000000000    0.1173250000000000    0.3148350000000000 H
   0.8827550000000000    0.4335450000000000    0.1851500000000000 H
   0.8722500000000000    0.4549450000000000    0.2340700000000000 H
   0.6059050000000000    0.0720500000000000    0.2010900000000000 H
   0.5484050000000000    0.0482200000000000    0.1934000000000000 H
   0.5721800000000000    0.1057200000000000    0.2010950000000000 H
   0.6291800000000000    0.1629150000000000    0.2766250000000000 H
   0.6459050000000000    0.1459850000000000    0.3229050000000000 H
   0.6629900000000000    0.1290950000000000    0.2766750000000000 H
   0.8535050000000000    0.4848250000000000    0.3017000000000000 H
   0.7008900000000000    0.4628200000000000    0.1187100000000000 H
   0.2340100000000000    0.9546600000000001    0.3721500000000000 H
   0.1851250000000000    0.9334400000000000    0.3826650000000000 H
   0.3148900000000000    0.6173200000000000    0.0665800000000000 H
   0.2660100000000000    0.6278700000000000    0.0453200000000000 H
   0.2988450000000000    0.8939550000000001    0.4276450000000000 H
   0.3065000000000000    0.9514850000000000    0.4515550000000000 H
   0.2988550000000000    0.9276249999999999    0.3940200000000000 H
   0.2233800000000000    0.8705800000000000    0.3368550000000000 H
   0.1771000000000000    0.8539000000000000    0.3538450000000000 H
   0.2233250000000000    0.8368249999999999    0.3706200000000000 H
   0.1981650000000000    0.6465650000000001    0.0151500000000000 H
   0.2008500000000000    0.6187400000000000    0.4628000000000000 H
   0.3812750000000000    0.7990450000000000    0.0370950000000000 H
   0.3534550000000000    0.8016449999999999    0.4847700000000000 H
   0.1471650000000000    0.6131300000000000    0.3917700000000000 H
   0.1720850000000000    0.6720050000000000    0.4064050000000000 H
   0.1132050000000000    0.6472550000000000    0.3918000000000000 H
   0.1168950000000000    0.6171300000000000    0.4938050000000000 H
   0.1146000000000000    0.5809650000000000    0.4418300000000000 H
   0.0808850000000000    0.6147150000000000    0.4417900000000000 H
   0.3722400000000000    0.7340900000000000    0.4548500000000000 H
   0.3827450000000000    0.6851650000000000    0.4334500000000000 H
   0.0664100000000000    0.8148700000000000    0.1173000000000000 H
   0.0451750000000000    0.7659850000000000    0.1277500000000000 H
   0.4277600000000000    0.7988800000000000    0.3942050000000000 H
   0.4515950000000000    0.8065850000000000    0.4517100000000000 H
   0.3940900000000000    0.7989350000000000    0.4279100000000000 H
   0.3370100000000000    0.7234050000000000    0.3707950000000000 H
   0.3540450000000000    0.6771050000000001    0.3539900000000000 H
   0.3708200000000000    0.7233150000000000    0.3369950000000000 H
   0.0150650000000000    0.6979600000000000    0.1463550000000000 H
   0.4627650000000000    0.7006749999999999    0.1186600000000000 H
   0.0371850000000000    0.8813500000000001    0.2992300000000000 H
   0.4849100000000000    0.8536600000000000    0.3019400000000000 H
   0.3917650000000000    0.6471000000000000    0.1131550000000000 H
   0.4064200000000000    0.6721050000000000    0.1720650000000000 H
   0.3918000000000000    0.6131800000000001    0.1472200000000000 H
   0.4936950000000000    0.6166250000000000    0.1167500000000000 H
   0.4417500000000000    0.6143650000000000    0.0807500000000000 H
   0.4416950000000000    0.5806900000000000    0.1144400000000000 H
   0.4548650000000000    0.8722750000000000    0.2340700000000000 H
   0.4335900000000000    0.8827050000000001    0.1851650000000000 H
   0.1172550000000000    0.5664899999999999    0.3148450000000000 H
   0.1277550000000000    0.5450800000000000    0.2659250000000000 H
   0.3941050000000000    0.9279800000000000    0.2989100000000000 H
   0.4516050000000000    0.9518050000000000    0.3065950000000000 H
   0.4278300000000000    0.8943050000000000    0.2989000000000000 H
   0.3708300000000000    0.8371100000000000    0.2233700000000000 H
   0.3541050000000000    0.8540449999999999    0.1770900000000000 H
   0.3370200000000000    0.8709300000000000    0.2233250000000000 H
   0.1465050000000000    0.5152000000000000    0.1982600000000000 H
   0.1187200000000000    0.9628900000000000    0.2008400000000000 H
   0.2991200000000000    0.5372050000000000    0.3812900000000000 H
   0.3018600000000000    0.9848749999999999    0.3534900000000000 H
   0.1132250000000000    0.8918250000000000    0.1470800000000000 H
   0.1721000000000000    0.9064300000000001    0.1719950000000000 H
   0.1473100000000000    0.8918050000000000    0.1130000000000000 H
   0.1169350000000000    0.9938000000000000    0.1169250000000000 H
   0.0808950000000000    0.9418599999999999    0.1145500000000000 H
   0.1146000000000000    0.9417550000000000    0.0808450000000000 H
   0.2660000000000000    0.5453650000000000    0.1278500000000000 H
   0.3148850000000000    0.5665850000000000    0.1173350000000000 H
   0.1851250000000000    0.8827100000000000    0.4334200000000000 H
   0.2340050000000000    0.8721600000000000    0.4546800000000000 H
   0.2011650000000000    0.6060750000000000    0.0723550000000000 H
   0.1935150000000000    0.5485449999999999    0.0484450000000000 H
   0.2011550000000000    0.5724000000000000    0.1059750000000000 H
   0.2766300000000000    0.6294500000000001    0.1631450000000000 H
   0.3229100000000000    0.6461250000000001    0.1461550000000000 H
   0.2766850000000000    0.6632050000000000    0.1293800000000000 H
   0.3018450000000000    0.8534600000000000    0.4848450000000000 H
   0.2991600000000000    0.8812900000000000    0.0372050000000000 H
   0.1187400000000000    0.7009850000000000    0.4629000000000000 H
   0.1465500000000000    0.6983800000000000    0.0152300000000000 H
   0.3528450000000000    0.8868950000000000    0.1082300000000000 H
   0.3279250000000000    0.8280200000000000    0.0935950000000000 H
   0.3868050000000000    0.8527700000000000    0.1081650000000000 H
   0.3831200000000000    0.8829000000000000    0.0061950000000000 H
   0.3854100000000000    0.9190600000000000    0.0581750000000000 H
   0.4191250000000000    0.8853100000000000    0.0582100000000000 H
   0.1277700000000000    0.7659350000000000    0.0451500000000000 H
   0.1172600000000000    0.8148599999999999    0.0665000000000000 H
   0.4336000000000000    0.6851550000000000    0.3826750000000000 H
   0.4548300000000000    0.7340400000000000    0.3722200000000000 H
   0.0722500000000000    0.7011450000000000    0.1057950000000000 H
   0.0484150000000000    0.6934400000000001    0.0482900000000000 H
   0.1059200000000000    0.7010950000000000    0.0720900000000000 H
   0.1629950000000000    0.7766200000000000    0.1292050000000000 H
   0.1459600000000000    0.8229200000000000    0.1460100000000000 H
   0.1291950000000000    0.7767100000000000    0.1630050000000000 H
   0.4849450000000000    0.8020650000000000    0.3536450000000000 H
   0.0372450000000000    0.7993500000000000    0.3813400000000000 H
   0.4628200000000000    0.6186750000000000    0.2007650000000000 H
   0.0151000000000000    0.6463650000000000    0.1980600000000000 H
   0.1082450000000000    0.8529249999999999    0.3868400000000000 H
   0.0935850000000000    0.8279200000000000    0.3279300000000000 H
   0.1082050000000000    0.8868400000000001    0.3527800000000000 H
   0.0063150000000000    0.8834000000000000    0.3832250000000000 H
   0.0582600000000000    0.8856600000000000    0.4192500000000000 H
   0.0583150000000000    0.9193350000000000    0.3855600000000000 H
   0.0451450000000000    0.6277550000000001    0.2659250000000000 H
   0.0664150000000000    0.6173250000000000    0.3148350000000000 H
   0.3827550000000000    0.9335450000000001    0.1851500000000000 H
   0.3722500000000000    0.9549449999999999    0.2340700000000000 H
   0.1059050000000000    0.5720499999999999    0.2010900000000000 H
   0.0484050000000000    0.5482200000000000    0.1934000000000000 H
   0.0721800000000000    0.6057200000000000    0.2010950000000000 H
   0.1291800000000000    0.6629150000000000    0.2766250000000000 H
   0.1459050000000000    0.6459850000000000    0.3229050000000000 H