H4 C6 N1 O2
1.0
  37.4669993095074005    0.0000000000000000   -0.0071931475750991
   0.0236748037069338   13.5796210252461425   -7.8433702140318697
   0.0000000000000000    0.0000000000000000   31.3739999999999988
H C N O
4 6 1 2
direct
   0.0314000000000000    0.2748100000000000    0.1979350000000000 H
   0.0699200000000000    0.4105900000000000    0.2036550000000000 H
   0.1515333333333333    0.3388100000000000    0.2701750000000000 H
   0.1168366666666667    0.1980000000000000    0.2645650000000000 H
   0.0480266666666667    0.1467700000000000    0.2305750000000000 C
   0.0710133333333333    0.2267900000000000    0.2315500000000000 C
   0.0579766666666667    0.2871200000000000    0.2139650000000000 C
   0.0791933333333333    0.3627300000000000    0.2172600000000000 C
   0.1248333333333333    0.3223100000000000    0.2544400000000000 C
   0.1053566666666667    0.2445300000000000    0.2515600000000000 C
   0.1120500000000000    0.3810600000000000    0.2378650000000000 N
   0.0648900000000000    0.0863200000000000    0.2406400000000000 O
   0.0154633333333333    0.1447800000000000    0.2222950000000000 O
