H3 O2
1.0
  37.4669993095074005    0.0000000000000000   -0.0071931475750991
   0.0236748037069338   13.5796210252461425   -7.8433702140318697
   0.0000000000000000    0.0000000000000000   31.3739999999999988
H O
3 2
direct
   0.1213062534416165    0.3385198521751003    0.2498667523437909 H
   0.0882885636216046    0.3678040257030743    0.2229637806662218 H
   0.0522151062396337    0.1317556984274053    0.2330748998400027 H
   0.1120500000000000    0.3810600000000000    0.2378650000000000 O
   0.0648900000000000    0.0863200000000000    0.2406400000000000 O
