Cd32 H446 C882 N126 O255
1.0
  34.6299999789021982    0.0000000000000000   -0.0012088150396805
  -3.3434060431126946   38.4549299314259230    0.0000000000000024
   0.0000000000000000    0.0000000000000000   22.3679999999999986
Cd H C N O
32 446 882 126 255
direct
   0.5775250000000000    0.7439500000000000    0.9437600000000000 Cd
   0.4224750000000000    0.7560300000000000    0.0562300000000000 Cd
   0.5775250000000000    0.2439500000000000    0.9437600000000000 Cd
   0.4224750000000000    0.2560300000000000    0.0562300000000000 Cd
   0.4224800000000000    0.0060350000000000    0.4437600000000000 Cd
   0.5775200000000000    0.9939450000000001    0.5562300000000000 Cd
   0.3275250000000000    0.7439550000000000    0.9437600000000000 Cd
   0.1724750000000000    0.7560300000000000    0.0562300000000000 Cd
   0.1724800000000000    0.0060350000000000    0.4437600000000000 Cd
   0.3275200000000000    0.9939450000000001    0.5562300000000000 Cd
   0.3275250000000000    0.2439550000000000    0.9437600000000000 Cd
   0.1724750000000000    0.2560300000000000    0.0562300000000000 Cd
   0.5775200000000000    0.4939450000000000    0.5562300000000000 Cd
   0.1724800000000000    0.5060350000000000    0.4437600000000000 Cd
   0.4224800000000000    0.5060350000000000    0.4437600000000000 Cd
   0.3275200000000000    0.4939450000000000    0.5562300000000000 Cd
   0.8275250000000001    0.7439550000000000    0.9437600000000000 Cd
   0.6724749999999999    0.7560300000000000    0.0562300000000000 Cd
   0.6724800000000000    0.0060350000000000    0.4437600000000000 Cd
   0.8275200000000000    0.9939450000000001    0.5562300000000000 Cd
   0.8275250000000001    0.2439550000000000    0.9437600000000000 Cd
   0.6724749999999999    0.2560300000000000    0.0562300000000000 Cd
   0.6724800000000000    0.5060350000000000    0.4437600000000000 Cd
   0.8275200000000000    0.4939450000000000    0.5562300000000000 Cd
   0.0775250000000000    0.2439500000000000    0.9437600000000000 Cd
   0.9224749999999999    0.2560300000000000    0.0562300000000000 Cd
   0.9224800000000000    0.0060350000000000    0.4437600000000000 Cd
   0.0775200000000000    0.9939450000000001    0.5562300000000000 Cd
   0.0775250000000000    0.7439500000000000    0.9437600000000000 Cd
   0.9224749999999999    0.7560300000000000    0.0562300000000000 Cd
   0.0775200000000000    0.4939450000000000    0.5562300000000000 Cd
   0.9224800000000000    0.5060350000000000    0.4437600000000000 Cd
   0.4468600000000000    0.5823300000000000    0.2645500000000000 H
   0.5339700000000001    0.5142450000000000    0.3113900000000000 H
   0.5783050000000000    0.5398350000000000    0.2293400000000000 H
   0.5742450000000000    0.6161350000000000    0.0364000000000000 H
   0.5044450000000000    0.6843150000000000    0.1352800000000000 H
   0.5892050000000000    0.6648400000000000    0.9647700000000000 H
   0.5216450000000000    0.7296450000000000    0.0597600000000000 H
   0.3978616426774826    0.6940354886706088    0.1269041515856716 H
   0.3688677617414972    0.7243102914809018    0.1487837374971903 H
   0.7371150000000000    0.9218000000000000    0.5517900000000000 H
   0.6224200000000000    0.9279050000000000    0.6245000000000001 H
   0.7508049999999999    0.8760100000000000    0.6275300000000000 H
   0.6011200000000000    0.8625750000000000    0.8226000000000000 H
   0.6760750000000000    0.7847299999999999    0.7654000000000000 H
   0.6480350000000000    0.7471150000000000    0.8485900000000000 H
   0.5764200000000000    0.8218900000000000    0.9018800000000000 H
   0.5531400000000000    0.9176500000000001    0.7354300000000000 H
   0.4660300000000000    0.9857400000000001    0.6885900000000000 H
   0.4217000000000000    0.9601550000000000    0.7706499999999999 H
   0.4955550000000000    0.8156650000000000    0.8647100000000000 H
   0.4257650000000000    0.8838500000000000    0.9635899999999999 H
   0.4108050000000000    0.8351500000000001    0.0352200000000000 H
   0.4783550000000000    0.7703350000000000    0.9402199999999999 H
   0.2628850000000000    0.0781850000000000    0.4481900000000000 H
   0.3775850000000000    0.0720800000000000    0.3754200000000000 H
   0.2492000000000000    0.1239750000000000    0.3724500000000000 H
   0.3239250000000000    0.2152500000000000    0.2345100000000000 H
   0.3988900000000000    0.1374100000000000    0.1773200000000000 H
   0.3519700000000000    0.2528650000000000    0.1514000000000000 H
   0.4235850000000000    0.1780950000000000    0.0981100000000000 H
   0.4468600000000000    0.0823300000000000    0.2645500000000000 H
   0.5339700000000001    0.0142450000000000    0.3113900000000000 H
   0.5783050000000000    0.0398350000000000    0.2293400000000000 H
   0.5742450000000000    0.1161350000000000    0.0364000000000000 H
   0.5044450000000000    0.1843150000000000    0.1352800000000000 H
   0.5892050000000000    0.1648400000000000    0.9647700000000000 H
   0.5216450000000000    0.2296450000000000    0.0597600000000000 H
   0.7371150000000000    0.4218000000000000    0.5517900000000000 H
   0.6224200000000000    0.4279050000000000    0.6245000000000001 H
   0.7508049999999999    0.3760100000000000    0.6275300000000000 H
   0.6011200000000000    0.3625750000000000    0.8226000000000000 H
   0.6760750000000000    0.2847300000000000    0.7654000000000000 H
   0.6480350000000000    0.2471150000000000    0.8485900000000000 H
   0.5764200000000000    0.3218900000000000    0.9018800000000000 H
   0.5531400000000000    0.4176500000000000    0.7354300000000000 H
   0.4660300000000000    0.4857400000000000    0.6885900000000000 H
   0.4217000000000000    0.4601550000000000    0.7706499999999999 H
   0.4955550000000000    0.3156650000000000    0.8647100000000000 H
   0.4257650000000000    0.3838500000000000    0.9635899999999999 H
   0.4108050000000000    0.3351500000000000    0.0352200000000000 H
   0.4783550000000000    0.2703350000000000    0.9402199999999999 H
   0.7371300000000001    0.1718200000000000    0.9481000000000001 H
   0.6224250000000000    0.1779150000000000    0.8754100000000000 H
   0.7508150000000000    0.1260300000000000    0.8724300000000000 H
   0.6760699999999999    0.0347350000000000    0.7345000000000000 H
   0.6011350000000000    0.1125900000000000    0.6770000000000000 H
   0.6480200000000000    0.9971000000000000    0.6514000000000000 H
   0.5764350000000000    0.0719000000000000    0.5980799999999999 H
   0.5531450000000000    0.1676550000000000    0.7645500000000000 H
   0.4660450000000000    0.2357600000000000    0.8113600000000000 H
   0.4217150000000000    0.2101700000000000    0.7292999999999999 H
   0.4955400000000000    0.0656700000000000    0.6352900000000000 H
   0.4257850000000000    0.1338650000000000    0.5363599999999999 H
   0.4108300000000000    0.0851650000000000    0.4647300000000000 H
   0.4783400000000000    0.0203400000000000    0.5597700000000000 H
   0.2628700000000000    0.8281600000000000    0.0518100000000000 H
   0.3775800000000000    0.8220700000000001    0.1245700000000000 H
   0.2491850000000000    0.8739500000000000    0.1275500000000000 H
   0.3239350000000000    0.9652499999999999    0.2654500000000000 H
   0.3988600000000000    0.8873900000000000    0.3227000000000000 H
   0.4235650000000000    0.9280850000000000    0.4019100000000000 H
   0.3519900000000000    0.0028850000000000    0.3485500000000000 H
   0.4468550000000000    0.8323250000000000    0.2354400000000000 H
   0.5339500000000000    0.7642200000000000    0.1886400000000000 H
   0.5782849999999999    0.7898050000000000    0.2707000000000000 H
   0.5044650000000001    0.9343150000000000    0.3646900000000000 H
   0.5742050000000000    0.8661099999999999    0.4636400000000000 H
   0.5216650000000000    0.9796450000000000    0.4402000000000000 H
   0.5891600000000000    0.9148149999999999    0.5352000000000000 H
   0.0128900000000000    0.5781849999999999    0.4481900000000000 H
   0.1275850000000000    0.5720750000000000    0.3754200000000000 H
   0.9992000000000000    0.6239700000000000    0.3724500000000000 H
   0.0739250000000000    0.7152499999999999    0.2345100000000000 H
   0.1488900000000000    0.6374100000000000    0.1773200000000000 H
   0.1019700000000000    0.7528650000000000    0.1514000000000000 H
   0.1735850000000000    0.6780950000000000    0.0981100000000000 H
   0.1968600000000000    0.5823300000000000    0.2645500000000000 H
   0.2839750000000000    0.5142450000000000    0.3114000000000000 H
   0.3283050000000000    0.5398350000000000    0.2293400000000000 H
   0.3242450000000000    0.6161350000000000    0.0364000000000000 H
   0.2544450000000000    0.6843150000000000    0.1352000000000000 H
   0.3392050000000000    0.6648400000000000    0.9647700000000000 H
   0.2716450000000000    0.7296450000000000    0.0597600000000000 H
   0.4871150000000000    0.9218000000000000    0.5517900000000000 H
   0.3724200000000000    0.9279050000000000    0.6245600000000000 H
   0.5008049999999999    0.8760100000000000    0.6275300000000000 H
   0.3511200000000000    0.8625750000000000    0.8226000000000000 H
   0.4260750000000000    0.7847299999999999    0.7654000000000000 H
   0.3980300000000000    0.7471150000000000    0.8485000000000000 H
   0.3264200000000000    0.8218900000000000    0.9018800000000000 H
   0.3031400000000000    0.9176500000000001    0.7354300000000000 H
   0.2160350000000000    0.9857400000000001    0.6885900000000000 H
   0.1717000000000000    0.9601550000000000    0.7706499999999999 H
   0.2455550000000000    0.8156650000000000    0.8647100000000000 H
   0.1757600000000000    0.8838500000000000    0.9635899999999999 H
   0.1608050000000000    0.8351450000000000    0.0352200000000000 H
   0.2283550000000000    0.7703350000000000    0.9402199999999999 H
   0.4871300000000000    0.1718200000000000    0.9481800000000000 H
   0.3724250000000000    0.1779150000000000    0.8754000000000000 H
   0.5008150000000000    0.1260300000000000    0.8724300000000000 H
   0.3511350000000000    0.1125850000000000    0.6773000000000000 H
   0.4260700000000000    0.0347350000000000    0.7345300000000000 H
   0.3980200000000000    0.9971050000000000    0.6514200000000000 H
   0.3264350000000000    0.0718950000000000    0.5980799999999999 H
   0.3031450000000000    0.1676550000000000    0.7645500000000000 H
   0.2160500000000000    0.2357600000000000    0.8113500000000000 H
   0.1717150000000000    0.2101750000000000    0.7292900000000000 H
   0.2455400000000000    0.0656650000000000    0.6352900000000000 H
   0.1757850000000000    0.1338650000000000    0.5363599999999999 H
   0.1608300000000000    0.0851600000000000    0.4647300000000000 H
   0.2283400000000000    0.0203350000000000    0.5597700000000000 H
   0.0128700000000000    0.8281600000000000    0.0518100000000000 H
   0.1275800000000000    0.8220650000000000    0.1245700000000000 H
   0.9991850000000000    0.8739450000000000    0.1275600000000000 H
   0.0739350000000000    0.9652450000000000    0.2654400000000000 H
   0.1488600000000000    0.8873900000000000    0.3227000000000000 H
   0.1019850000000000    0.0028800000000000    0.3485500000000000 H
   0.1735600000000000    0.9280800000000000    0.4019100000000000 H
   0.1968550000000000    0.8323250000000000    0.2354300000000000 H
   0.2839550000000000    0.7642249999999999    0.1886200000000000 H
   0.3282850000000000    0.7898100000000000    0.2706900000000000 H
   0.2544600000000000    0.9343150000000000    0.3647000000000000 H
   0.3242150000000000    0.8661150000000000    0.4636300000000000 H
   0.3277834100185068    0.9259297993728223    0.5449997927874193 H
   0.3391700000000000    0.9148200000000000    0.5352600000000000 H
   0.2716600000000000    0.9796450000000000    0.4402200000000000 H
   0.0128900000000000    0.0781850000000000    0.4481900000000000 H
   0.1275850000000000    0.0720750000000000    0.3754200000000000 H
   0.9992000000000000    0.1239700000000000    0.3724500000000000 H
   0.0739250000000000    0.2152500000000000    0.2345100000000000 H
   0.1488900000000000    0.1374100000000000    0.1773200000000000 H
   0.1019700000000000    0.2528650000000000    0.1514000000000000 H
   0.1735850000000000    0.1780950000000000    0.0981100000000000 H
   0.1968600000000000    0.0823300000000000    0.2645500000000000 H
   0.2839750000000000    0.0142450000000000    0.3114000000000000 H
   0.3283050000000000    0.0398350000000000    0.2293400000000000 H
   0.3242450000000000    0.1161350000000000    0.0364000000000000 H
   0.2544450000000000    0.1843150000000000    0.1352000000000000 H
   0.3392050000000000    0.1648400000000000    0.9647700000000000 H
   0.2716450000000000    0.2296450000000000    0.0597600000000000 H
   0.4871150000000000    0.4218000000000000    0.5517900000000000 H
   0.3724200000000000    0.4279050000000000    0.6245600000000000 H
   0.5008049999999999    0.3760100000000000    0.6275300000000000 H
   0.3511200000000000    0.3625750000000000    0.8226000000000000 H
   0.4260750000000000    0.2847300000000000    0.7654000000000000 H
   0.3980300000000000    0.2471150000000000    0.8485000000000000 H
   0.3264200000000000    0.3218900000000000    0.9018800000000000 H
   0.3031400000000000    0.4176500000000000    0.7354300000000000 H
   0.2160350000000000    0.4857400000000000    0.6885900000000000 H
   0.1717000000000000    0.4601550000000000    0.7706499999999999 H
   0.2455550000000000    0.3156650000000000    0.8647100000000000 H
   0.1757600000000000    0.3838500000000000    0.9635899999999999 H
   0.1608050000000000    0.3351450000000000    0.0352200000000000 H
   0.2283550000000000    0.2703350000000000    0.9402199999999999 H
   0.2628700000000000    0.3281600000000000    0.0518100000000000 H
   0.3775800000000000    0.3220700000000000    0.1245700000000000 H
   0.2491850000000000    0.3739500000000000    0.1275500000000000 H
   0.3239350000000000    0.4652500000000000    0.2654500000000000 H
   0.3988600000000000    0.3873900000000000    0.3227000000000000 H
   0.4235650000000000    0.4280850000000000    0.4019100000000000 H
   0.3519900000000000    0.5028850000000000    0.3485500000000000 H
   0.4468550000000000    0.3323250000000000    0.2354400000000000 H
   0.5339500000000000    0.2642200000000000    0.1886400000000000 H
   0.5782849999999999    0.2898050000000000    0.2707000000000000 H
   0.5044650000000001    0.4343150000000000    0.3646900000000000 H
   0.5742050000000000    0.3661100000000000    0.4636400000000000 H
   0.5216650000000000    0.4796450000000000    0.4402000000000000 H
   0.5891600000000000    0.4148150000000000    0.5352000000000000 H
   0.7371300000000001    0.6718200000000000    0.9481000000000001 H
   0.6224250000000000    0.6779150000000000    0.8754100000000000 H
   0.7508150000000000    0.6260300000000000    0.8724300000000000 H
   0.6760699999999999    0.5347350000000000    0.7345000000000000 H
   0.6011350000000000    0.6125900000000000    0.6770000000000000 H
   0.6480200000000000    0.4971000000000000    0.6514000000000000 H
   0.5764350000000000    0.5719000000000000    0.5980799999999999 H
   0.3031450000000000    0.6676550000000000    0.7645500000000000 H
   0.2160500000000000    0.7357600000000000    0.8113500000000000 H
   0.1717150000000000    0.7101750000000000    0.7292900000000000 H
   0.2455400000000000    0.5656650000000000    0.6352900000000000 H
   0.1757850000000000    0.6338650000000000    0.5363599999999999 H
   0.1608300000000000    0.5851600000000000    0.4647300000000000 H
   0.2283400000000000    0.5203350000000000    0.5597700000000000 H
   0.4871300000000000    0.6718200000000000    0.9481800000000000 H
   0.3724250000000000    0.6779150000000000    0.8754000000000000 H
   0.5008150000000000    0.6260300000000000    0.8724300000000000 H
   0.3511350000000000    0.6125850000000000    0.6773000000000000 H
   0.4260700000000000    0.5347350000000000    0.7345300000000000 H
   0.3980200000000000    0.4971050000000000    0.6514200000000000 H
   0.3264350000000000    0.5718950000000000    0.5980799999999999 H
   0.2996007467585401    0.5636315141029895    0.5080121007931874 H
   0.3588885005566200    0.5536400296371856    0.4606374876836185 H
   0.5531450000000000    0.6676550000000000    0.7645500000000000 H
   0.4660450000000000    0.7357600000000000    0.8113600000000000 H
   0.4217150000000000    0.7101700000000000    0.7292999999999999 H
   0.4955400000000000    0.5656700000000000    0.6352900000000000 H
   0.4257850000000000    0.6338650000000000    0.5363599999999999 H
   0.4108300000000000    0.5851650000000000    0.4647300000000000 H
   0.4783400000000000    0.5203400000000000    0.5597700000000000 H
   0.0128700000000000    0.3281600000000000    0.0518100000000000 H
   0.1275800000000000    0.3220650000000000    0.1245700000000000 H
   0.9991850000000000    0.3739450000000000    0.1275600000000000 H
   0.0739350000000000    0.4652450000000000    0.2654400000000000 H
   0.1488600000000000    0.3873900000000000    0.3227000000000000 H
   0.1019850000000000    0.5028800000000000    0.3485500000000000 H
   0.1735600000000000    0.4280800000000000    0.4019100000000000 H
   0.1968550000000000    0.3323250000000000    0.2354300000000000 H
   0.2839550000000000    0.2642250000000000    0.1886200000000000 H
   0.3282850000000000    0.2898100000000000    0.2706900000000000 H
   0.2544600000000000    0.4343150000000000    0.3647000000000000 H
   0.3242150000000000    0.3661150000000000    0.4636300000000000 H
   0.3391700000000000    0.4148200000000000    0.5352600000000000 H
   0.2716600000000000    0.4796450000000000    0.4402200000000000 H
   0.5128900000000000    0.5781849999999999    0.4481900000000000 H
   0.6275850000000001    0.5720750000000000    0.3754200000000000 H
   0.4992000000000000    0.6239700000000000    0.3724500000000000 H
   0.5739250000000000    0.7152499999999999    0.2345100000000000 H
   0.6488900000000000    0.6374100000000000    0.1773200000000000 H
   0.6019700000000000    0.7528650000000000    0.1514000000000000 H
   0.6735850000000000    0.6780950000000000    0.0981100000000000 H
   0.6968600000000000    0.5823300000000000    0.2645500000000000 H
   0.7839750000000000    0.5142450000000000    0.3114000000000000 H
   0.8283050000000001    0.5398350000000000    0.2293400000000000 H
   0.8242450000000000    0.6161350000000000    0.0364000000000000 H
   0.7544450000000000    0.6843150000000000    0.1352000000000000 H
   0.8392050000000000    0.6648400000000000    0.9647700000000000 H
   0.7716450000000000    0.7296450000000000    0.0597600000000000 H
   0.9871150000000000    0.9218000000000000    0.5517900000000000 H
   0.8724200000000000    0.9279050000000000    0.6245600000000000 H
   0.0008050000000000    0.8760100000000000    0.6275300000000000 H
   0.8511200000000000    0.8625750000000000    0.8226000000000000 H
   0.9260750000000000    0.7847299999999999    0.7654000000000000 H
   0.8980300000000000    0.7471150000000000    0.8485000000000000 H
   0.8264199999999999    0.8218900000000000    0.9018800000000000 H
   0.8031400000000000    0.9176500000000001    0.7354300000000000 H
   0.7160350000000000    0.9857400000000001    0.6885900000000000 H
   0.6717000000000000    0.9601550000000000    0.7706499999999999 H
   0.7455550000000000    0.8156650000000000    0.8647100000000000 H
   0.6757600000000000    0.8838500000000000    0.9635899999999999 H
   0.6608050000000000    0.8351450000000000    0.0352200000000000 H
   0.7283550000000000    0.7703350000000000    0.9402199999999999 H
   0.9871300000000001    0.1718200000000000    0.9481800000000000 H
   0.8724250000000000    0.1779150000000000    0.8754000000000000 H
   0.0008150000000000    0.1260300000000000    0.8724300000000000 H
   0.8511350000000000    0.1125850000000000    0.6773000000000000 H
   0.9260699999999999    0.0347350000000000    0.7345300000000000 H
   0.8980200000000000    0.9971050000000000    0.6514200000000000 H
   0.8264350000000000    0.0718950000000000    0.5980799999999999 H
   0.8031450000000000    0.1676550000000000    0.7645500000000000 H
   0.7160500000000000    0.2357600000000000    0.8113500000000000 H
   0.6717150000000001    0.2101750000000000    0.7292900000000000 H
   0.7455400000000000    0.0656650000000000    0.6352900000000000 H
   0.6757850000000000    0.1338650000000000    0.5363599999999999 H
   0.6608300000000000    0.0851600000000000    0.4647300000000000 H
   0.7283400000000000    0.0203350000000000    0.5597700000000000 H
   0.5128700000000000    0.8281600000000000    0.0518100000000000 H
   0.6275800000000000    0.8220650000000000    0.1245700000000000 H
   0.4991850000000000    0.8739450000000000    0.1275600000000000 H
   0.5739350000000000    0.9652450000000000    0.2654400000000000 H
   0.6488600000000000    0.8873900000000000    0.3227000000000000 H
   0.6019850000000000    0.0028800000000000    0.3485500000000000 H
   0.6735599999999999    0.9280800000000000    0.4019100000000000 H
   0.6968550000000000    0.8323250000000000    0.2354300000000000 H
   0.7839550000000000    0.7642249999999999    0.1886200000000000 H
   0.8282849999999999    0.7898100000000000    0.2706900000000000 H
   0.7544600000000000    0.9343150000000000    0.3647000000000000 H
   0.8242149999999999    0.8661150000000000    0.4636300000000000 H
   0.8391700000000000    0.9148200000000000    0.5352600000000000 H
   0.7716600000000000    0.9796450000000000    0.4402200000000000 H
   0.5128900000000000    0.0781850000000000    0.4481900000000000 H
   0.6275850000000001    0.0720750000000000    0.3754200000000000 H
   0.4992000000000000    0.1239700000000000    0.3724500000000000 H
   0.5739250000000000    0.2152500000000000    0.2345100000000000 H
   0.6488900000000000    0.1374100000000000    0.1773200000000000 H
   0.6019700000000000    0.2528650000000000    0.1514000000000000 H
   0.6735850000000000    0.1780950000000000    0.0981100000000000 H
   0.6968600000000000    0.0823300000000000    0.2645500000000000 H
   0.7839750000000000    0.0142450000000000    0.3114000000000000 H
   0.8283050000000001    0.0398350000000000    0.2293400000000000 H
   0.8242450000000000    0.1161350000000000    0.0364000000000000 H
   0.7544450000000000    0.1843150000000000    0.1352000000000000 H
   0.8392050000000000    0.1648400000000000    0.9647700000000000 H
   0.7716450000000000    0.2296450000000000    0.0597600000000000 H
   0.9871150000000000    0.4218000000000000    0.5517900000000000 H
   0.8724200000000000    0.4279050000000000    0.6245600000000000 H
   0.0008050000000000    0.3760100000000000    0.6275300000000000 H
   0.8511200000000000    0.3625750000000000    0.8226000000000000 H
   0.9260750000000000    0.2847300000000000    0.7654000000000000 H
   0.8980300000000000    0.2471150000000000    0.8485000000000000 H
   0.8264199999999999    0.3218900000000000    0.9018800000000000 H
   0.8031400000000000    0.4176500000000000    0.7354300000000000 H
   0.7160350000000000    0.4857400000000000    0.6885900000000000 H
   0.6717000000000000    0.4601550000000000    0.7706499999999999 H
   0.7455550000000000    0.3156650000000000    0.8647100000000000 H
   0.6757600000000000    0.3838500000000000    0.9635899999999999 H
   0.6608050000000000    0.3351450000000000    0.0352200000000000 H
   0.7283550000000000    0.2703350000000000    0.9402199999999999 H
   0.9871300000000001    0.6718200000000000    0.9481800000000000 H
   0.8724250000000000    0.6779150000000000    0.8754000000000000 H
   0.0008150000000000    0.6260300000000000    0.8724300000000000 H
   0.8511350000000000    0.6125850000000000    0.6773000000000000 H
   0.9260699999999999    0.5347350000000000    0.7345300000000000 H
   0.8980200000000000    0.4971050000000000    0.6514200000000000 H
   0.8264350000000000    0.5718950000000000    0.5980799999999999 H
   0.8031450000000000    0.6676550000000000    0.7645500000000000 H
   0.7160500000000000    0.7357600000000000    0.8113500000000000 H
   0.6717150000000001    0.7101750000000000    0.7292900000000000 H
   0.7455400000000000    0.5656650000000000    0.6352900000000000 H
   0.6757850000000000    0.6338650000000000    0.5363599999999999 H
   0.6608300000000000    0.5851600000000000    0.4647300000000000 H
   0.7283400000000000    0.5203350000000000    0.5597700000000000 H
   0.5128700000000000    0.3281600000000000    0.0518100000000000 H
   0.6275800000000000    0.3220650000000000    0.1245700000000000 H
   0.4991850000000000    0.3739450000000000    0.1275600000000000 H
   0.5739350000000000    0.4652450000000000    0.2654400000000000 H
   0.6488600000000000    0.3873900000000000    0.3227000000000000 H
   0.6019850000000000    0.5028800000000000    0.3485500000000000 H
   0.6735599999999999    0.4280800000000000    0.4019100000000000 H
   0.6968550000000000    0.3323250000000000    0.2354300000000000 H
   0.7839550000000000    0.2642250000000000    0.1886200000000000 H
   0.8282849999999999    0.2898100000000000    0.2706900000000000 H
   0.7544600000000000    0.4343150000000000    0.3647000000000000 H
   0.8242149999999999    0.3661150000000000    0.4636300000000000 H
   0.8391700000000000    0.4148200000000000    0.5352600000000000 H
   0.7716600000000000    0.4796450000000000    0.4402200000000000 H
   0.7628850000000000    0.0781850000000000    0.4481900000000000 H
   0.8775850000000001    0.0720800000000000    0.3754200000000000 H
   0.7492000000000000    0.1239750000000000    0.3724500000000000 H
   0.8239250000000000    0.2152500000000000    0.2345100000000000 H
   0.8988900000000000    0.1374100000000000    0.1773200000000000 H
   0.8519700000000000    0.2528650000000000    0.1514000000000000 H
   0.9235850000000000    0.1780950000000000    0.0981100000000000 H
   0.9468600000000000    0.0823300000000000    0.2645500000000000 H
   0.0339700000000000    0.0142450000000000    0.3113900000000000 H
   0.0783050000000000    0.0398350000000000    0.2293400000000000 H
   0.0742450000000000    0.1161350000000000    0.0364000000000000 H
   0.0044450000000000    0.1843150000000000    0.1352800000000000 H
   0.0892050000000000    0.1648400000000000    0.9647700000000000 H
   0.0216450000000000    0.2296450000000000    0.0597600000000000 H
   0.2371150000000000    0.4218000000000000    0.5517900000000000 H
   0.1224200000000000    0.4279050000000000    0.6245000000000001 H
   0.2508050000000000    0.3760100000000000    0.6275300000000000 H
   0.1011200000000000    0.3625750000000000    0.8226000000000000 H
   0.1760750000000000    0.2847300000000000    0.7654000000000000 H
   0.1480350000000000    0.2471150000000000    0.8485900000000000 H
   0.0764200000000000    0.3218900000000000    0.9018800000000000 H
   0.0531400000000000    0.4176500000000000    0.7354300000000000 H
   0.9660299999999999    0.4857400000000000    0.6885900000000000 H
   0.9217000000000000    0.4601550000000000    0.7706499999999999 H
   0.9955550000000000    0.3156650000000000    0.8647100000000000 H
   0.9257649999999999    0.3838500000000000    0.9635899999999999 H
   0.9108050000000000    0.3351500000000000    0.0352200000000000 H
   0.9783550000000000    0.2703350000000000    0.9402199999999999 H
   0.2371300000000000    0.1718200000000000    0.9481000000000001 H
   0.1224250000000000    0.1779150000000000    0.8754100000000000 H
   0.2508150000000000    0.1260300000000000    0.8724300000000000 H
   0.1760700000000000    0.0347350000000000    0.7345000000000000 H
   0.1011350000000000    0.1125900000000000    0.6770000000000000 H
   0.1480200000000000    0.9971000000000000    0.6514000000000000 H
   0.0764350000000000    0.0719000000000000    0.5980799999999999 H
   0.0531450000000000    0.1676550000000000    0.7645500000000000 H
   0.9660450000000000    0.2357600000000000    0.8113600000000000 H
   0.9217150000000001    0.2101700000000000    0.7292999999999999 H
   0.9955400000000000    0.0656700000000000    0.6352900000000000 H
   0.9257850000000001    0.1338650000000000    0.5363599999999999 H
   0.9108300000000000    0.0851650000000000    0.4647300000000000 H
   0.9783400000000000    0.0203400000000000    0.5597700000000000 H
   0.7628699999999999    0.8281600000000000    0.0518100000000000 H
   0.8775800000000000    0.8220700000000001    0.1245700000000000 H
   0.7491850000000000    0.8739500000000000    0.1275500000000000 H
   0.8239350000000000    0.9652499999999999    0.2654500000000000 H
   0.8988600000000000    0.8873900000000000    0.3227000000000000 H
   0.9235650000000000    0.9280850000000000    0.4019100000000000 H
   0.8519900000000000    0.0028850000000000    0.3485500000000000 H
   0.9468550000000000    0.8323250000000000    0.2354400000000000 H
   0.0339500000000000    0.7642200000000000    0.1886400000000000 H
   0.0782850000000000    0.7898050000000000    0.2707000000000000 H
   0.0044650000000000    0.9343150000000000    0.3646900000000000 H
   0.0742050000000000    0.8661099999999999    0.4636400000000000 H
   0.0216650000000000    0.9796450000000000    0.4402000000000000 H
   0.0891600000000000    0.9148149999999999    0.5352000000000000 H
   0.7628850000000000    0.5781849999999999    0.4481900000000000 H
   0.8775850000000001    0.5720800000000000    0.3754200000000000 H
   0.7492000000000000    0.6239749999999999    0.3724500000000000 H
   0.8239250000000000    0.7152499999999999    0.2345100000000000 H
   0.8988900000000000    0.6374100000000000    0.1773200000000000 H
   0.8519700000000000    0.7528650000000000    0.1514000000000000 H
   0.9235850000000000    0.6780950000000000    0.0981100000000000 H
   0.9468600000000000    0.5823300000000000    0.2645500000000000 H
   0.0339700000000000    0.5142450000000000    0.3113900000000000 H
   0.0783050000000000    0.5398350000000000    0.2293400000000000 H
   0.0742450000000000    0.6161350000000000    0.0364000000000000 H
   0.0044450000000000    0.6843150000000000    0.1352800000000000 H
   0.0892050000000000    0.6648400000000000    0.9647700000000000 H
   0.0216450000000000    0.7296450000000000    0.0597600000000000 H