H6 O4
1.0
  24.6534980097002538    0.0000000000000000   13.1046341378042914
   4.7569553193243816   11.9689001245207542    5.9296582447219111
   0.0000000000000000    0.0000000000000000   29.7600000000000016
H O
6 4
direct
   1.0287642273691215    0.4034687586129579    0.5947173286606131 H
   0.9762409184606665    0.6441946136198345    0.6651764387486657 H
   1.0057959836103412    0.5195559153493353    0.6313522378356322 H
   0.2205257884251761    1.1515204043443628    0.6957773525048978 H
   0.1586301096075849    0.2996101460506507    0.7781936768000562 H
   0.1895980544704315    1.3032478204500026    0.7095089107134931 H
   1.0044900000000001    0.4735900000000000    0.6051400000000000 O
   0.9752100000000000    0.6079100000000000    0.6444850000000000 O
   0.2099800000000000    1.1124700000000001    0.7325200000000001 O
   0.1671300000000000    0.2200500000000000    0.7877900000000000 O
