H4 O2
1.0
  12.5092543814603427    0.0000000000000000    1.7852313071182770
  14.9577721227082527   34.4261978089284923    5.3454049000668213
   0.0000000000000000    0.0000000000000000   23.8099999999999987
H O
4 2
direct
   0.3247946813752052    0.7464348211015089    0.4595560295839376 H
   0.4369272523551930    0.7338122207939844    0.4087901206172012 H
   0.8106282259672081    0.8030891916449513    0.5990478827775357 H
   0.6694132354824854    0.8323888273102080    0.5966553749577002 H
   0.3530900000000000    0.7467999999999999    0.4191300000000000 O
   0.7465700000000000    0.8279333333333333    0.6068200000000000 O
