Cd12 H346 C344 N36 O48
1.0
  12.5092543814603427    0.0000000000000000    1.7852313071182770
  14.9577721227082527   34.4261978089284923    5.3454049000668213
   0.0000000000000000    0.0000000000000000   23.8099999999999987
Cd H C N O
12 346 344 36 48
direct
   0.7780600000000000    0.2118600000000000    0.6501400000000001 Cd
   0.3629200000000000    0.0738500000000000    0.8508700000000000 Cd
   0.7780600000000000    0.5451933333333333    0.6501400000000001 Cd
   0.3629200000000000    0.4071833333333333    0.8508700000000000 Cd
   0.7780600000000000    0.8785266666666667    0.6501400000000001 Cd
   0.3629200000000000    0.7405166666666666    0.8508700000000000 Cd
   0.2219000000000000    0.4548033333333333    0.3498300000000000 Cd
   0.6370700000000000    0.5928033333333333    0.1491000000000000 Cd
   0.2219000000000000    0.1214700000000000    0.3498300000000000 Cd
   0.6370700000000000    0.2594700000000000    0.1491000000000000 Cd
   0.2219000000000000    0.7881366666666666    0.3498300000000000 Cd
   0.6370700000000000    0.9261366666666666    0.1491000000000000 Cd
   0.6869900000000000    0.0557200000000000    0.7645100000000000 H
   0.7360300000000000    0.0668133333333333    0.6941000000000001 H
   0.6172500000000000    0.0051233333333333    0.7733100000000001 H
   0.9112700000000000    0.9976799999999999    0.6506000000000000 H
   0.9117499999999999    0.9360733333333333    0.6244200000000000 H
   0.6320100000000000    0.9431166666666666    0.7428000000000000 H
   0.8996400000000000    0.0186533333333333    0.7857100000000000 H
   0.9442400000000000    0.0322500000000000    0.7156500000000000 H
   0.8337400000000000    0.1037266666666667    0.7344700000000000 H
   0.7981700000000000    0.0884533333333333    0.8050700000000000 H
   0.9838400000000000    0.1275366666666667    0.7271800000000000 H
   0.0065600000000000    0.0290766666666667    0.8489200000000000 H
   0.1906200000000000    0.0290833333333333    0.8757600000000000 H
   0.1691600000000000    0.1227766666666667    0.7583299999999999 H
   0.6869900000000000    0.7223866666666666    0.7645100000000000 H
   0.7360300000000000    0.7334799999999999    0.6941000000000001 H
   0.6172500000000000    0.6717900000000000    0.7733100000000001 H
   0.9112700000000000    0.6643466666666666    0.6506000000000000 H
   0.9117499999999999    0.6027400000000001    0.6244200000000000 H
   0.6320100000000000    0.6097833333333333    0.7428000000000000 H
   0.8996400000000000    0.6853199999999999    0.7857100000000000 H
   0.9442400000000000    0.6989166666666666    0.7156500000000000 H
   0.8337400000000000    0.7703933333333333    0.7344700000000000 H
   0.7981700000000000    0.7551200000000000    0.8050700000000000 H
   0.9838400000000000    0.7942033333333333    0.7271800000000000 H
   0.0065600000000000    0.6957433333333333    0.8489200000000000 H
   0.1906200000000000    0.6957500000000000    0.8757600000000000 H
   0.1691600000000000    0.7894433333333333    0.7583299999999999 H
   0.0322000000000000    0.1844300000000000    0.0849100000000000 H
   0.0090800000000000    0.2243966666666666    0.0330300000000000 H
   0.0881200000000000    0.2135300000000000    0.9327600000000000 H
   0.1869400000000000    0.1175666666666667    0.0630700000000000 H
   0.2812000000000000    0.0732700000000000    0.9848000000000000 H
   0.1916600000000000    0.1654333333333333    0.8603700000000000 H
   0.1252900000000000    0.2226000000000000    0.1122100000000000 H
   0.2360800000000000    0.1787800000000000    0.0907500000000000 H
   0.2631200000000000    0.2133800000000000    0.9938500000000000 H
   0.1548000000000000    0.2571566666666666    0.0173200000000000 H
   0.2140600000000000    0.2981066666666666    0.0640900000000000 H
   0.4420100000000000    0.1768833333333333    0.0572200000000000 H
   0.5861600000000000    0.1900766666666667    0.1019200000000000 H
   0.3710600000000000    0.3064300000000000    0.1077000000000000 H
   0.4464000000000000    0.3227100000000000    0.4162000000000000 H
   0.3265900000000000    0.3302000000000000    0.4681500000000000 H
   0.3594800000000000    0.3039466666666666    0.5682500000000000 H
   0.6472100000000000    0.2708166666666666    0.4378000000000000 H
   0.7801500000000000    0.2391566666666667    0.5159000000000000 H
   0.5038100000000000    0.2692333333333333    0.6405300000000000 H
   0.3321500000000000    0.2917100000000000    0.3885900000000000 H
   0.4637100000000000    0.2547633333333333    0.4098800000000000 H
   0.3600400000000000    0.2453933333333333    0.5066400000000000 H
   0.2286000000000000    0.2815766666666666    0.4834400000000000 H
   0.1055300000000000    0.2620133333333333    0.4365500000000000 H
   0.4695900000000000    0.1861466666666667    0.4423400000000000 H
   0.4299200000000000    0.1383800000000000    0.3900000000000000 H
   0.0805600000000000    0.2099900000000000    0.3921400000000000 H
   0.5830100000000000    0.2774433333333333    0.9258400000000000 H
   0.4577500000000000    0.2864666666666666    0.9760100000000000 H
   0.6579500000000000    0.1624600000000000    0.8280000000000000 H
   0.5462300000000000    0.1630333333333333    0.7901700000000000 H
   0.6228000000000000    0.2296066666666667    0.8639800000000000 H
   0.3501800000000000    0.2030000000000000    0.8154800000000000 H
   0.2674900000000000    0.2931500000000000    0.9272300000000000 H
   0.2037100000000000    0.2545833333333333    0.8733600000000000 H
   0.1675400000000000    0.1383266666666667    0.5753800000000000 H
   0.1405800000000000    0.1800133333333333    0.5250899999999999 H
   0.5125100000000000    0.1131733333333333    0.6728800000000000 H
   0.5116100000000000    0.1503500000000000    0.7105600000000000 H
   0.3107800000000000    0.1250900000000000    0.6372400000000000 H
   0.3920400000000000    0.2158233333333333    0.6851000000000000 H
   0.1209600000000000    0.2434833333333333    0.5737200000000000 H
   0.2373200000000000    0.2646566666666667    0.6272900000000000 H
   0.0322000000000000    0.5177633333333334    0.0849100000000000 H
   0.0090800000000000    0.5577299999999999    0.0330300000000000 H
   0.0881200000000000    0.5468633333333333    0.9327600000000000 H
   0.1869400000000000    0.4509000000000000    0.0630700000000000 H
   0.2812000000000000    0.4066033333333333    0.9848000000000000 H
   0.1916600000000000    0.4987666666666666    0.8603700000000000 H
   0.1252900000000000    0.5559333333333333    0.1122100000000000 H
   0.2360800000000000    0.5121133333333333    0.0907500000000000 H
   0.2631200000000000    0.5467133333333334    0.9938500000000000 H
   0.1548000000000000    0.5904900000000000    0.0173200000000000 H
   0.2140600000000000    0.6314400000000000    0.0640900000000000 H
   0.4420100000000000    0.5102166666666667    0.0572200000000000 H
   0.5861600000000000    0.5234099999999999    0.1019200000000000 H
   0.3710600000000000    0.6397633333333332    0.1077000000000000 H
   0.5007967921524237    0.3956075499071076    0.7358594156850378 H
   0.3030300467446320    0.5026287636978199    0.7907216658302196 H
   0.4003818891452338    0.4517340378711561    0.7615391603846773 H
   0.5830100000000000    0.6107766666666666    0.9258400000000000 H
   0.4577500000000000    0.6197999999999999    0.9760100000000000 H
   0.6579500000000000    0.4957933333333333    0.8280000000000000 H
   0.5462300000000000    0.4963666666666666    0.7901700000000000 H
   0.6228000000000000    0.5629400000000000    0.8639800000000000 H
   0.3501800000000000    0.5363333333333333    0.8154800000000000 H
   0.2674900000000000    0.6264833333333333    0.9272300000000000 H
   0.2037100000000000    0.5879166666666666    0.8733600000000000 H
   0.4464000000000000    0.6560433333333333    0.4162000000000000 H
   0.3265900000000000    0.6635333333333333    0.4681500000000000 H
   0.3594800000000000    0.6372800000000000    0.5682500000000000 H
   0.6472100000000000    0.6041500000000000    0.4378000000000000 H
   0.7801500000000000    0.5724899999999999    0.5159000000000000 H
   0.5038100000000000    0.6025666666666667    0.6405300000000000 H
   0.3321500000000000    0.6250433333333333    0.3885900000000000 H
   0.4637100000000000    0.5880966666666667    0.4098800000000000 H
   0.3600400000000000    0.5787266666666666    0.5066400000000000 H
   0.2286000000000000    0.6149100000000000    0.4834400000000000 H
   0.1055300000000000    0.5953466666666667    0.4365500000000000 H
   0.4695900000000000    0.5194799999999999    0.4423400000000000 H
   0.4299200000000000    0.4717133333333333    0.3900000000000000 H
   0.0805600000000000    0.5433233333333334    0.3921400000000000 H
   1.0213472871873837    0.4784185293689707    0.6613678370920706 H
   0.9468928497014010    0.5686038239158386    0.5373369811521360 H
   0.9894031728018530    0.5237279321960758    0.5967143899520210 H
   0.6869900000000000    0.3890533333333333    0.7645100000000000 H
   0.7360300000000000    0.4001466666666667    0.6941000000000001 H
   0.6172500000000000    0.3384566666666666    0.7733100000000001 H
   0.9112700000000000    0.3310133333333333    0.6506000000000000 H
   0.9117499999999999    0.2694066666666667    0.6244200000000000 H
   0.6320100000000000    0.2764500000000000    0.7428000000000000 H
   0.8996400000000000    0.3519866666666667    0.7857100000000000 H
   0.9442400000000000    0.3655833333333333    0.7156500000000000 H
   0.8337400000000000    0.4370600000000000    0.7344700000000000 H
   0.7981700000000000    0.4217866666666666    0.8050700000000000 H
   0.9838400000000000    0.4608700000000000    0.7271800000000000 H
   0.0065600000000000    0.3624100000000000    0.8489200000000000 H
   0.1906200000000000    0.3624166666666667    0.8757600000000000 H
   0.1691600000000000    0.4561100000000000    0.7583299999999999 H
   0.0322000000000000    0.8510966666666666    0.0849100000000000 H
   0.0090800000000000    0.8910633333333333    0.0330300000000000 H
   0.0881200000000000    0.8801966666666666    0.9327600000000000 H
   0.1869400000000000    0.7842333333333333    0.0630700000000000 H
   0.2812000000000000    0.7399366666666667    0.9848000000000000 H
   0.1916600000000000    0.8321000000000000    0.8603700000000000 H
   0.1252900000000000    0.8892666666666666    0.1122100000000000 H
   0.2360800000000000    0.8454466666666667    0.0907500000000000 H
   0.2631200000000000    0.8800466666666666    0.9938500000000000 H
   0.1548000000000000    0.9238233333333332    0.0173200000000000 H
   0.2140600000000000    0.9647733333333333    0.0640900000000000 H
   0.4420100000000000    0.8435499999999999    0.0572200000000000 H
   0.5861600000000000    0.8567433333333333    0.1019200000000000 H
   0.3710600000000000    0.9730966666666666    0.1077000000000000 H
   0.4464000000000000    0.9893766666666666    0.4162000000000000 H
   0.3265900000000000    0.9968666666666666    0.4681500000000000 H
   0.3594800000000000    0.9706133333333333    0.5682500000000000 H
   0.6472100000000000    0.9374833333333332    0.4378000000000000 H
   0.7801500000000000    0.9058233333333333    0.5159000000000000 H
   0.5038100000000000    0.9359000000000000    0.6405300000000000 H
   0.3321500000000000    0.9583766666666667    0.3885900000000000 H
   0.4637100000000000    0.9214300000000000    0.4098800000000000 H
   0.3600400000000000    0.9120599999999999    0.5066400000000000 H
   0.2286000000000000    0.9482433333333333    0.4834400000000000 H
   0.1055300000000000    0.9286799999999999    0.4365500000000000 H
   0.4695900000000000    0.8528133333333333    0.4423400000000000 H
   0.4299200000000000    0.8050466666666667    0.3900000000000000 H
   0.0805600000000000    0.8766566666666666    0.3921400000000000 H
   0.5830100000000000    0.9441100000000000    0.9258400000000000 H
   0.4577500000000000    0.9531333333333333    0.9760100000000000 H
   0.6579500000000000    0.8291266666666666    0.8280000000000000 H
   0.5462300000000000    0.8296999999999999    0.7901700000000000 H
   0.6228000000000000    0.8962733333333333    0.8639800000000000 H
   0.3501800000000000    0.8696666666666666    0.8154800000000000 H
   0.2674900000000000    0.9598166666666665    0.9272300000000000 H
   0.2037100000000000    0.9212499999999999    0.8733600000000000 H
   0.1675400000000000    0.8049933333333332    0.5753800000000000 H
   0.1405800000000000    0.8466799999999999    0.5250899999999999 H
   0.5125100000000000    0.7798400000000000    0.6728800000000000 H
   0.5116100000000000    0.8170166666666666    0.7105600000000000 H
   0.3107800000000000    0.7917566666666667    0.6372400000000000 H
   0.3920400000000000    0.8824900000000000    0.6851000000000000 H
   0.1209600000000000    0.9101500000000000    0.5737200000000000 H
   0.2373200000000000    0.9313233333333333    0.6272900000000000 H
   0.3129800000000000    0.6109333333333333    0.2354600000000000 H
   0.2639300000000000    0.5998433333333333    0.3058700000000000 H
   0.3827200000000000    0.6615333333333333    0.2266000000000000 H
   0.0887200000000000    0.6689733333333333    0.3493000000000000 H
   0.0882300000000000    0.7305833333333333    0.3755500000000000 H
   0.3679600000000000    0.7235433333333333    0.2571600000000000 H
   0.0557200000000000    0.6344133333333333    0.2843100000000000 H
   0.1003500000000000    0.6480066666666666    0.2142500000000000 H
   0.1662200000000000    0.5629366666666666    0.2655000000000000 H
   0.2018100000000000    0.5782033333333333    0.1949000000000000 H
   0.0161400000000000    0.5391200000000000    0.2727000000000000 H
   0.9933900000000000    0.6375866666666666    0.1510500000000000 H
   0.8093399999999999    0.6375700000000000    0.1242100000000000 H
   0.8308500000000000    0.5438700000000000    0.2416200000000000 H
   0.3129800000000000    0.9442666666666666    0.2354600000000000 H
   0.2639300000000000    0.9331766666666665    0.3058700000000000 H
   0.3827200000000000    0.9948666666666666    0.2266000000000000 H
   0.0887200000000000    0.0023066666666667    0.3493000000000000 H
   0.0882300000000000    0.0639166666666667    0.3755500000000000 H
   0.3679600000000000    0.0568766666666667    0.2571600000000000 H
   0.0557200000000000    0.9677466666666666    0.2843100000000000 H
   0.1003500000000000    0.9813399999999999    0.2142500000000000 H
   0.1662200000000000    0.8962699999999999    0.2655000000000000 H
   0.2018100000000000    0.9115366666666667    0.1949000000000000 H
   0.0161400000000000    0.8724533333333333    0.2727000000000000 H
   0.9933900000000000    0.9709200000000000    0.1510500000000000 H
   0.8093399999999999    0.9709033333333332    0.1242100000000000 H
   0.8308500000000000    0.8772033333333333    0.2416200000000000 H
   0.3129800000000000    0.2776000000000000    0.2354600000000000 H
   0.2639300000000000    0.2665100000000000    0.3058700000000000 H
   0.3827200000000000    0.3282000000000000    0.2266000000000000 H
   0.0887200000000000    0.3356400000000000    0.3493000000000000 H
   0.0882300000000000    0.3972500000000000    0.3755500000000000 H
   0.3679600000000000    0.3902100000000000    0.2571600000000000 H
   0.0557200000000000    0.3010800000000000    0.2843100000000000 H
   0.1003500000000000    0.3146733333333333    0.2142500000000000 H
   0.1662200000000000    0.2296033333333333    0.2655000000000000 H
   0.2018100000000000    0.2448700000000000    0.1949000000000000 H
   0.0161400000000000    0.2057866666666667    0.2727000000000000 H
   0.9933900000000000    0.3042533333333333    0.1510500000000000 H
   0.8093399999999999    0.3042366666666667    0.1242100000000000 H
   0.8308500000000000    0.2105366666666666    0.2416200000000000 H
   0.9677600000000000    0.4822266666666666    0.9150400000000000 H
   0.9908900000000000    0.4422600000000000    0.9669000000000000 H
   0.8130300000000000    0.5490900000000000    0.9368900000000000 H
   0.9118500000000000    0.4531266666666666    0.0671900000000000 H
   0.7187700000000000    0.5933866666666666    0.0151000000000000 H
   0.8083100000000000    0.5012200000000000    0.1395000000000000 H
   0.8746699999999999    0.4440600000000000    0.8877500000000000 H
   0.7638800000000000    0.4878766666666666    0.9092100000000000 H
   0.7368600000000000    0.4532733333333333    0.0000000000000000 H
   0.8451700000000000    0.4095000000000000    0.9826400000000000 H
   0.7859100000000000    0.3685466666666666    0.9358700000000000 H
   0.5579600000000000    0.4897733333333333    0.9427400000000000 H
   0.4138100000000000    0.4765766666666666    0.8980500000000000 H
   0.6289100000000000    0.3602233333333333    0.8922600000000001 H
   0.5536100000000000    0.3439366666666667    0.5837300000000000 H
   0.6734100000000000    0.3364533333333333    0.5318000000000001 H
   0.6405000000000000    0.3627033333333333    0.4317100000000000 H
   0.3527900000000000    0.3958333333333333    0.5621699999999999 H
   0.2198400000000000    0.4274933333333333    0.4840000000000000 H
   0.4961600000000000    0.3974200000000000    0.3594300000000000 H
   0.6678600000000000    0.3749366666666666    0.6113700000000000 H
   0.5362900000000000    0.4118833333333333    0.5900900000000000 H
   0.7713800000000000    0.3850833333333333    0.5165100000000000 H
   0.6399300000000000    0.4212666666666666    0.4933000000000000 H
   0.8944600000000000    0.4046400000000000    0.5634000000000000 H
   0.5303900000000000    0.4805100000000000    0.5576100000000001 H
   0.5700600000000000    0.5282766666666666    0.6029600000000001 H
   0.9194200000000000    0.4566633333333333    0.6078300000000000 H
   0.8323800000000000    0.5283366666666667    0.4246100000000000 H
   0.8594000000000001    0.4866400000000000    0.4748800000000000 H
   0.4874700000000000    0.5534800000000000    0.3270800000000000 H
   0.4883700000000000    0.5163000000000000    0.2894100000000000 H
   0.6891900000000000    0.5415700000000000    0.3627200000000000 H
   0.6079400000000000    0.4508300000000000    0.3148700000000000 H
   0.8790200000000000    0.4231766666666666    0.4262500000000000 H
   0.7626700000000000    0.4020000000000000    0.3726900000000000 H
   0.4169600000000000    0.3892066666666666    0.0741200000000000 H
   0.5422200000000000    0.3801866666666667    0.0239500000000000 H
   0.3420300000000000    0.5041933333333333    0.1719700000000000 H
   0.4537500000000000    0.5036133333333332    0.2090000000000000 H
   0.3771800000000000    0.4370433333333333    0.1359900000000000 H
   0.6498000000000000    0.4636500000000000    0.1844800000000000 H
   0.7324800000000000    0.3735033333333333    0.0727300000000000 H
   0.7962700000000000    0.4120700000000000    0.1265900000000000 H
   0.9677600000000000    0.1488933333333333    0.9150400000000000 H
   0.9908900000000000    0.1089266666666667    0.9669000000000000 H
   0.8130300000000000    0.2157566666666667    0.9368900000000000 H
   0.9118500000000000    0.1197933333333333    0.0671900000000000 H
   0.7187700000000000    0.2600533333333333    0.0151000000000000 H
   0.8083100000000000    0.1678866666666667    0.1395000000000000 H
   0.8746699999999999    0.1107266666666667    0.8877500000000000 H
   0.7638800000000000    0.1545433333333333    0.9092100000000000 H
   0.7368600000000000    0.1199400000000000    0.0000000000000000 H
   0.8451700000000000    0.0761666666666667    0.9826400000000000 H
   0.7859100000000000    0.0352133333333333    0.9358700000000000 H
   0.5579600000000000    0.1564400000000000    0.9427400000000000 H
   0.4138100000000000    0.1432433333333333    0.8980500000000000 H
   0.6289100000000000    0.0268900000000000    0.8922600000000001 H
   0.5536100000000000    0.0106033333333333    0.5837300000000000 H
   0.6734100000000000    0.0031200000000000    0.5318000000000001 H
   0.6405000000000000    0.0293700000000000    0.4317100000000000 H
   0.3527900000000000    0.0625000000000000    0.5621699999999999 H
   0.2198400000000000    0.0941600000000000    0.4840000000000000 H
   0.4961600000000000    0.0640866666666667    0.3594300000000000 H
   0.6678600000000000    0.0416033333333333    0.6113700000000000 H
   0.5362900000000000    0.0785500000000000    0.5900900000000000 H
   0.7713800000000000    0.0517500000000000    0.5165100000000000 H
   0.6399300000000000    0.0879333333333333    0.4933000000000000 H
   0.8944600000000000    0.0713066666666667    0.5634000000000000 H
   0.5303900000000000    0.1471766666666667    0.5576100000000001 H
   0.5700600000000000    0.1949433333333333    0.6029600000000001 H
   0.9194200000000000    0.1233300000000000    0.6078300000000000 H
   0.8323800000000000    0.1950033333333333    0.4246100000000000 H
   0.8594000000000001    0.1533066666666666    0.4748800000000000 H
   0.4874700000000000    0.2201466666666667    0.3270800000000000 H
   0.4883700000000000    0.1829666666666667    0.2894100000000000 H
   0.6891900000000000    0.2082366666666667    0.3627200000000000 H
   0.6079400000000000    0.1174966666666667    0.3148700000000000 H
   0.8790200000000000    0.0898433333333333    0.4262500000000000 H
   0.7626700000000000    0.0686666666666667    0.3726900000000000 H
   0.4169600000000000    0.0558733333333333    0.0741200000000000 H
   0.5422200000000000    0.0468533333333333    0.0239500000000000 H
   0.3420300000000000    0.1708600000000000    0.1719700000000000 H
   0.4537500000000000    0.1702800000000000    0.2090000000000000 H
   0.3771800000000000    0.1037100000000000    0.1359900000000000 H
   0.6498000000000000    0.1303166666666667    0.1844800000000000 H
   0.7324800000000000    0.0401700000000000    0.0727300000000000 H
   0.7962700000000000    0.0787366666666667    0.1265900000000000 H
   0.9677600000000000    0.8155600000000000    0.9150400000000000 H
   0.9908900000000000    0.7755933333333334    0.9669000000000000 H
   0.8130300000000000    0.8824233333333333    0.9368900000000000 H
   0.9118500000000000    0.7864599999999999    0.0671900000000000 H
   0.7187700000000000    0.9267200000000000    0.0151000000000000 H
   0.8083100000000000    0.8345533333333333    0.1395000000000000 H
   0.8746699999999999    0.7773933333333333    0.8877500000000000 H
   0.7638800000000000    0.8212100000000000    0.9092100000000000 H
   0.7368600000000000    0.7866066666666667    0.0000000000000000 H
   0.8451700000000000    0.7428333333333332    0.9826400000000000 H
   0.7859100000000000    0.7018799999999999    0.9358700000000000 H
   0.5579600000000000    0.8231066666666667    0.9427400000000000 H
   0.4138100000000000    0.8099099999999999    0.8980500000000000 H
   0.6289100000000000    0.6935566666666666    0.8922600000000001 H
   0.5536100000000000    0.6772699999999999    0.5837300000000000 H
   0.6734100000000000    0.6697866666666666    0.5318000000000001 H
   0.6405000000000000    0.6960366666666666    0.4317100000000000 H
   0.3527900000000000    0.7291666666666666    0.5621699999999999 H
   0.2198400000000000    0.7608266666666667    0.4840000000000000 H
   0.4961600000000000    0.7307533333333333    0.3594300000000000 H
   0.6678600000000000    0.7082700000000000    0.6113700000000000 H
   0.5362900000000000    0.7452166666666666    0.5900900000000000 H
   0.7713800000000000    0.7184166666666666    0.5165100000000000 H
   0.6399300000000000    0.7545999999999999    0.4933000000000000 H
   0.8944600000000000    0.7379733333333333    0.5634000000000000 H
   0.5303900000000000    0.8138433333333333    0.5576100000000001 H
   0.5700600000000000    0.8616100000000000    0.6029600000000001 H
   0.9194200000000000    0.7899966666666667    0.6078300000000000 H
   0.8323800000000000    0.8616699999999999    0.4246100000000000 H
   0.8594000000000001    0.8199733333333332    0.4748800000000000 H
   0.4874700000000000    0.8868133333333332    0.3270800000000000 H
   0.4883700000000000    0.8496333333333332    0.2894100000000000 H
   0.6891900000000000    0.8749033333333333    0.3627200000000000 H
   0.6079400000000000    0.7841633333333333    0.3148700000000000 H
   0.8790200000000000    0.7565100000000000    0.4262500000000000 H
   0.7626700000000000    0.7353333333333333    0.3726900000000000 H
   0.4169600000000000    0.7225400000000000    0.0741200000000000 H
   0.5422200000000000    0.7135199999999999    0.0239500000000000 H
   0.3420300000000000    0.8375266666666666    0.1719700000000000 H
   0.4537500000000000    0.8369466666666666    0.2090000000000000 H
   0.3771800000000000    0.7703766666666666    0.1359900000000000 H
   0.6498000000000000    0.7969833333333333    0.1844800000000000 H
   0.7324800000000000    0.7068366666666667    0.0727300000000000 H
   0.7962700000000000    0.7454033333333333    0.1265900000000000 H
   0.7588200000000001    0.0448533333333333    0.7310700000000000 C
   0.6851400000000000    0.9909066666666666    0.7403999999999999 C
   0.8473100000000000    0.9867299999999999    0.6724000000000000 C
   0.8489600000000000    0.9523199999999999    0.6575000000000000 C
   0.6926800000000000    0.9561566666666665    0.7234600000000000 C
   0.7639500000000000    0.0070966666666667    0.7147000000000000 C
   0.8738899999999999    0.0416466666666667    0.7503100000000000 C
   0.8649800000000000    0.0801700000000000    0.7685500000000000 C
   0.0263600000000000    0.1048633333333333    0.7600200000000000 C
   0.0391100000000000    0.0505466666666667    0.8274899999999999 C
   0.1419700000000000    0.0500933333333333    0.8427000000000000 C
   0.1302400000000000    0.1024366666666667    0.7773400000000000 C
   0.9780400000000000    0.0784333333333333    0.7852900000000000 C
   0.7588200000000001    0.7115199999999999    0.7310700000000000 C
   0.6851400000000000    0.6575733333333333    0.7403999999999999 C
   0.8473100000000000    0.6533966666666666    0.6724000000000000 C
   0.8489600000000000    0.6189866666666666    0.6575000000000000 C
   0.6926800000000000    0.6228233333333333    0.7234600000000000 C
   0.7639500000000000    0.6737633333333333    0.7147000000000000 C
   0.8738899999999999    0.7083133333333334    0.7503100000000000 C
   0.8649800000000000    0.7468366666666666    0.7685500000000000 C
   0.0263600000000000    0.7715299999999999    0.7600200000000000 C
   0.0391100000000000    0.7172133333333333    0.8274899999999999 C
   0.1419700000000000    0.7167600000000000    0.8427000000000000 C
   0.1302400000000000    0.7691033333333333    0.7773400000000000 C
   0.9780400000000000    0.7451000000000000    0.7852900000000000 C
   0.0763000000000000    0.1971800000000000    0.0501100000000000 C
   0.1304500000000000    0.1826666666666667    0.9464399999999999 C
   0.1296900000000000    0.1696400000000000    0.0040000000000000 C
   0.1851100000000000    0.1295000000000000    0.0185600000000000 C
   0.2379000000000000    0.1046966666666667    0.9756899999999999 C
   0.1861300000000000    0.1562133333333333    0.9058200000000000 C
   0.1675900000000000    0.2061833333333333    0.0749700000000000 C
   0.2231200000000000    0.2292933333333333    0.0318500000000000 C
   0.2955600000000000    0.2732433333333333    0.0718000000000000 C
   0.4218300000000000    0.2062766666666667    0.0673500000000000 C
   0.5032700000000000    0.2134733333333333    0.0921500000000000 C
   0.3820800000000000    0.2782300000000000    0.0960000000000000 C
   0.3144100000000000    0.2366133333333333    0.0566600000000000 C
   0.4083100000000000    0.3078833333333333    0.4509100000000000 C
   0.4520400000000000    0.2897500000000000    0.5545099999999999 C
   0.6114600000000000    0.2714200000000000    0.4823000000000000 C
   0.6858900000000000    0.2536866666666666    0.5251200000000000 C
   0.5314200000000000    0.2710700000000000    0.5950700000000000 C
   0.4910500000000000    0.2899900000000000    0.4964600000000000 C
   0.3814500000000000    0.2775266666666666    0.4257800000000000 C
   0.3122000000000000    0.2588766666666666    0.4687100000000000 C
   0.1801900000000000    0.2349266666666666    0.4284800000000000 C
   0.3813100000000000    0.1929033333333333    0.4323200000000000 C
   0.3596800000000000    0.1659200000000000    0.4071400000000000 C
   0.1652200000000000    0.2062566666666667    0.4038500000000000 C
   0.2902000000000000    0.2285900000000000    0.4435300000000000 C
   0.6403400000000000    0.1964500000000000    0.7472700000000000 C
   0.4367400000000000    0.3309600000000000    0.9064900000000000 C
   0.4875300000000000    0.2882366666666666    0.9304800000000000 C
   0.5866600000000000    0.1812966666666667    0.8021700000000000 C
   0.5304600000000000    0.2350066666666666    0.8663400000000000 C
   0.4495200000000000    0.2639833333333333    0.8991500000000000 C
   0.3777100000000000    0.2201566666666667    0.8387500000000000 C
   0.3311900000000000    0.2706600000000000    0.9016400000000000 C
   0.2960000000000000    0.2490000000000000    0.8714800000000000 C
   0.4962900000000000    0.2127800000000000    0.8361499999999999 C
   0.4106000000000000    0.1192666666666667    0.7536700000000000 C
   0.0070000000000000    0.1870933333333333    0.5946000000000000 C
   0.1352100000000000    0.1701500000000000    0.5706500000000000 C
   0.4563700000000000    0.1370000000000000    0.6986900000000000 C
   0.2949300000000000    0.1558400000000000    0.6347300000000000 C
   0.2080900000000000    0.1828233333333333    0.6018900000000000 C
   0.3402800000000000    0.2066700000000000    0.6619900000000000 C
   0.1884200000000000    0.2222222222222222    0.5992800000000000 C
   0.2537600000000000    0.2339200000000000    0.6292800000000000 C
   0.3620200000000000    0.1671766666666667    0.6647200000000000 C
   0.0763000000000000    0.5305133333333333    0.0501100000000000 C
   0.1304500000000000    0.5160000000000000    0.9464399999999999 C
   0.1296900000000000    0.5029733333333333    0.0040000000000000 C
   0.1851100000000000    0.4628333333333333    0.0185600000000000 C
   0.2379000000000000    0.4380300000000000    0.9756899999999999 C
   0.1861300000000000    0.4895466666666666    0.9058200000000000 C
   0.1675900000000000    0.5395166666666666    0.0749700000000000 C