H6 O4
1.0
  12.5092543814603427    0.0000000000000000    1.7852313071182770
  14.9577721227082527   34.4261978089284923    5.3454049000668213
   0.0000000000000000    0.0000000000000000   23.8099999999999987
H O
6 4
direct
   1.0213472871873837    0.4784185293689707    0.6613678370920706 H
   0.9468928497014010    0.5686038239158386    0.5373369811521360 H
   0.9894031728018530    0.5237279321960758    0.5967143899520210 H
   0.5007967921524237    0.3956075499071076    0.7358594156850378 H
   0.3030300467446320    0.5026287636978199    0.7907216658302196 H
   0.4003818891452338    0.4517340378711561    0.7615391603846773 H
   0.9771400000000000    0.5022166666666666    0.6391600000000000 O
   0.9373000000000000    0.5517766666666666    0.5705400000000000 O
   0.4490200000000000    0.4154333333333333    0.7602000000000000 O
   0.3405000000000000    0.4746633333333333    0.7896900000000000 O
