H14 C13 N2
1.0
  12.5092543814603427    0.0000000000000000    1.7852313071182770
  14.9577721227082527   34.4261978089284923    5.3454049000668213
   0.0000000000000000    0.0000000000000000   23.8099999999999987
H C N
14 13 2
direct
   0.4961600000000000    0.7307533333333333    0.3594300000000000 H
   0.6405000000000000    0.6960366666666666    0.4317100000000000 H
   0.3527900000000000    0.7291666666666666    0.5621699999999999 H
   0.2198400000000000    0.7608266666666667    0.4840000000000000 H
   0.5536100000000000    0.6772699999999999    0.5837300000000000 H
   0.6734100000000000    0.6697866666666666    0.5318000000000001 H
   0.6678600000000000    0.7082700000000000    0.6113700000000000 H
   0.5362900000000000    0.7452166666666666    0.5900900000000000 H
   0.7713800000000000    0.7184166666666666    0.5165100000000000 H
   0.6399300000000000    0.7545999999999999    0.4933000000000000 H
   0.8944600000000000    0.7379733333333333    0.5634000000000000 H
   0.9194200000000000    0.7899966666666667    0.6078300000000000 H
   0.5700600000000000    0.8616100000000000    0.6029600000000001 H
   0.5303900000000000    0.8138433333333333    0.5576100000000001 H
   0.4685500000000000    0.7289133333333333    0.4048900000000000 C
   0.5479400000000000    0.7102366666666666    0.4454500000000000 C
   0.5089399999999999    0.7099933333333333    0.5034999999999999 C
   0.3885300000000000    0.7285633333333333    0.5176500000000001 C
   0.3140900000000000    0.7462966666666666    0.4748500000000000 C
   0.5916900000000000    0.6920999999999999    0.5490400000000000 C
   0.6185600000000000    0.7224566666666666    0.5741800000000000 C
   0.6877799999999999    0.7411133333333333    0.5312500000000000 C
   0.7097800000000000    0.7713966666666666    0.5564300000000000 C
   0.8198000000000000    0.7650600000000000    0.5714900000000001 C
   0.8347599999999999    0.7937299999999999    0.5961200000000000 C
   0.6403000000000000    0.8340700000000000    0.5928200000000000 C
   0.6186800000000000    0.8070866666666666    0.5676400000000000 C
   0.3530900000000000    0.7467999999999999    0.4191300000000000 N
   0.7465700000000000    0.8279333333333333    0.6068200000000000 N
