H14 O9
1.0
  36.8298868894992992    0.0000000000000000    0.0912781829752019
   0.0571838834102146   33.2876358266454915    2.5537504431923979
   0.0000000000000000    0.0000000000000000   24.3820000000000014
H O
14 9
direct
   0.9735990624410120    0.0277889673964897    0.8606976852656147 H
   0.0331382291521206    0.0753506323543829    0.8240843479454524 H
   0.9933576140951235    0.1125287659876554    0.8400312632099124 H
   0.1024531934230989    0.0662704730982438    0.0503766265872798 H
   0.0322360078669077    0.0386079841732775    0.0693426155628005 H
   0.0913551690232574    0.9140161951663212    0.9453491249353041 H
   0.0550647566832270    0.9775469499948469    0.8079687827053702 H
   0.0716920125351139    0.9508917252967554    0.8723326833088030 H
   0.1275467706839013    0.9796459883086296    0.8562025994859490 H
   0.1457707771875614    0.9693582753283702    0.8467144439330230 H
   0.1318913494280389    0.0251565774759050    0.9223519590943835 H
   0.0962421050036411    0.0332385650410151    0.8920645464978444 H
   0.0651802056001137    0.0541711344922421    0.9257174702490578 H
   0.0780856229226449    0.0563892834769954    0.1791209329869844 H
   0.9875825000000000    0.0035633333333333    0.8564700000000001 O
   0.0315975000000000    0.0462800000000000    0.8284700000000000 O
   0.0922675000000000    0.0623466666666667    0.0145350000000000 O
   0.0356450000000000    0.0400400000000000    0.0297800000000000 O
   0.0830475000000000    0.9176266666666666    0.9075700000000000 O
   0.0628525000000000    0.9547333333333332    0.8321350000000001 O
   0.1550850000000000    0.9864933333333332    0.8738049999999999 O
   0.1554725000000000    0.0310200000000000    0.9374250000000000 O
   0.0879675000000000    0.0586066666666667    0.9054550000000000 O
