Zn192 H380 C760 O855
1.0
  36.8298868894992992    0.0000000000000000    0.0912781829752019
   0.0571838834102146   33.2876358266454915    2.5537504431923979
   0.0000000000000000    0.0000000000000000   24.3820000000000014
Zn H C O
192 380 760 855
direct
   0.1285775000000000    0.0799266666666667    0.4606050000000000 Zn
   0.1717700000000000    0.1267033333333333    0.1385000000000000 Zn
   0.0046425000000000    0.0868200000000000    0.2870700000000000 Zn
   0.2033350000000000    0.2933366666666666    0.3886750000000000 Zn
   0.1216675000000000    0.2535500000000000    0.0372550000000000 Zn
   0.0783100000000000    0.2068300000000000    0.3592850000000000 Zn
   0.2453000000000000    0.2465133333333333    0.2109350000000000 Zn
   0.0468050000000000    0.0399166666666667    0.1110550000000000 Zn
   0.3785775000000000    0.0799266666666667    0.4606050000000000 Zn
   0.4217700000000000    0.1267033333333333    0.1385000000000000 Zn
   0.2546425000000000    0.0868200000000000    0.2870700000000000 Zn
   0.4533350000000000    0.2933366666666666    0.3886750000000000 Zn
   0.3716675000000000    0.2535500000000000    0.0372550000000000 Zn
   0.3283100000000000    0.2068300000000000    0.3592850000000000 Zn
   0.4953000000000000    0.2465133333333333    0.2109350000000000 Zn
   0.2968050000000000    0.0399166666666667    0.1110550000000000 Zn
   0.6285775000000000    0.0799266666666667    0.4606050000000000 Zn
   0.6717700000000000    0.1267033333333333    0.1385000000000000 Zn
   0.5046425000000000    0.0868200000000000    0.2870700000000000 Zn
   0.7033350000000000    0.2933366666666666    0.3886750000000000 Zn
   0.6216675000000000    0.2535500000000000    0.0372550000000000 Zn
   0.5783100000000000    0.2068300000000000    0.3592850000000000 Zn
   0.7453000000000000    0.2465133333333333    0.2109350000000000 Zn
   0.5468050000000000    0.0399166666666667    0.1110550000000000 Zn
   0.8785775000000000    0.0799266666666667    0.4606050000000000 Zn
   0.9217700000000000    0.1267033333333333    0.1385000000000000 Zn
   0.7546425000000000    0.0868200000000000    0.2870700000000000 Zn
   0.9533350000000000    0.2933366666666666    0.3886750000000000 Zn
   0.8716675000000000    0.2535500000000000    0.0372550000000000 Zn
   0.8283100000000000    0.2068300000000000    0.3592850000000000 Zn
   0.9953000000000000    0.2465133333333333    0.2109350000000000 Zn
   0.7968050000000000    0.0399166666666667    0.1110550000000000 Zn
   0.1285775000000000    0.4132600000000000    0.4606050000000000 Zn
   0.1717700000000000    0.4600366666666666    0.1385000000000000 Zn
   0.0046425000000000    0.4201533333333333    0.2870700000000000 Zn
   0.2033350000000000    0.6266699999999999    0.3886750000000000 Zn
   0.1216675000000000    0.5868833333333333    0.0372550000000000 Zn
   0.0783100000000000    0.5401633333333333    0.3592850000000000 Zn
   0.2453000000000000    0.5798466666666666    0.2109350000000000 Zn
   0.0468050000000000    0.3732500000000000    0.1110550000000000 Zn
   0.3785775000000000    0.4132600000000000    0.4606050000000000 Zn
   0.4217700000000000    0.4600366666666666    0.1385000000000000 Zn
   0.2546425000000000    0.4201533333333333    0.2870700000000000 Zn
   0.4533350000000000    0.6266699999999999    0.3886750000000000 Zn
   0.3716675000000000    0.5868833333333333    0.0372550000000000 Zn
   0.3283100000000000    0.5401633333333333    0.3592850000000000 Zn
   0.4953000000000000    0.5798466666666666    0.2109350000000000 Zn
   0.2968050000000000    0.3732500000000000    0.1110550000000000 Zn
   0.6285775000000000    0.4132600000000000    0.4606050000000000 Zn
   0.6717700000000000    0.4600366666666666    0.1385000000000000 Zn
   0.5046425000000000    0.4201533333333333    0.2870700000000000 Zn
   0.7033350000000000    0.6266699999999999    0.3886750000000000 Zn
   0.6216675000000000    0.5868833333333333    0.0372550000000000 Zn
   0.5783100000000000    0.5401633333333333    0.3592850000000000 Zn
   0.7453000000000000    0.5798466666666666    0.2109350000000000 Zn
   0.5468050000000000    0.3732500000000000    0.1110550000000000 Zn
   0.8785775000000000    0.4132600000000000    0.4606050000000000 Zn
   0.9217700000000000    0.4600366666666666    0.1385000000000000 Zn
   0.7546425000000000    0.4201533333333333    0.2870700000000000 Zn
   0.9533350000000000    0.6266699999999999    0.3886750000000000 Zn
   0.8716675000000000    0.5868833333333333    0.0372550000000000 Zn
   0.8283100000000000    0.5401633333333333    0.3592850000000000 Zn
   0.9953000000000000    0.5798466666666666    0.2109350000000000 Zn
   0.7968050000000000    0.3732500000000000    0.1110550000000000 Zn
   0.1285775000000000    0.7465933333333333    0.4606050000000000 Zn
   0.1717700000000000    0.7933699999999999    0.1385000000000000 Zn
   0.0046425000000000    0.7534866666666666    0.2870700000000000 Zn
   0.2033350000000000    0.9600033333333333    0.3886750000000000 Zn
   0.1216675000000000    0.9202166666666667    0.0372550000000000 Zn
   0.0783100000000000    0.8734966666666666    0.3592850000000000 Zn
   0.2453000000000000    0.9131799999999999    0.2109350000000000 Zn
   0.0468050000000000    0.7065833333333333    0.1110550000000000 Zn
   0.3785775000000000    0.7465933333333333    0.4606050000000000 Zn
   0.4217700000000000    0.7933699999999999    0.1385000000000000 Zn
   0.2546425000000000    0.7534866666666666    0.2870700000000000 Zn
   0.4533350000000000    0.9600033333333333    0.3886750000000000 Zn
   0.3716675000000000    0.9202166666666667    0.0372550000000000 Zn
   0.3283100000000000    0.8734966666666666    0.3592850000000000 Zn
   0.4953000000000000    0.9131799999999999    0.2109350000000000 Zn
   0.2968050000000000    0.7065833333333333    0.1110550000000000 Zn
   0.6285775000000000    0.7465933333333333    0.4606050000000000 Zn
   0.6717700000000000    0.7933699999999999    0.1385000000000000 Zn
   0.5046425000000000    0.7534866666666666    0.2870700000000000 Zn
   0.7033350000000000    0.9600033333333333    0.3886750000000000 Zn
   0.6216675000000000    0.9202166666666667    0.0372550000000000 Zn
   0.5783100000000000    0.8734966666666666    0.3592850000000000 Zn
   0.7453000000000000    0.9131799999999999    0.2109350000000000 Zn
   0.5468050000000000    0.7065833333333333    0.1110550000000000 Zn
   0.8785775000000000    0.7465933333333333    0.4606050000000000 Zn
   0.9217700000000000    0.7933699999999999    0.1385000000000000 Zn
   0.7546425000000000    0.7534866666666666    0.2870700000000000 Zn
   0.9533350000000000    0.9600033333333333    0.3886750000000000 Zn
   0.8716675000000000    0.9202166666666667    0.0372550000000000 Zn
   0.8283100000000000    0.8734966666666666    0.3592850000000000 Zn
   0.9953000000000000    0.9131799999999999    0.2109350000000000 Zn
   0.7968050000000000    0.7065833333333333    0.1110550000000000 Zn
   0.1285775000000000    0.0799266666666667    0.9606049999999999 Zn
   0.1717700000000000    0.1267033333333333    0.6385000000000001 Zn
   0.0046425000000000    0.0868200000000000    0.7870699999999999 Zn
   0.2033350000000000    0.2933366666666666    0.8886750000000000 Zn
   0.1216675000000000    0.2535500000000000    0.5372550000000000 Zn
   0.0783100000000000    0.2068300000000000    0.8592850000000001 Zn
   0.2453000000000000    0.2465133333333333    0.7109350000000000 Zn
   0.0468050000000000    0.0399166666666667    0.6110550000000000 Zn
   0.3785775000000000    0.0799266666666667    0.9606049999999999 Zn
   0.4217700000000000    0.1267033333333333    0.6385000000000001 Zn
   0.2546425000000000    0.0868200000000000    0.7870699999999999 Zn
   0.4533350000000000    0.2933366666666666    0.8886750000000000 Zn
   0.3716675000000000    0.2535500000000000    0.5372550000000000 Zn
   0.3283100000000000    0.2068300000000000    0.8592850000000001 Zn
   0.4953000000000000    0.2465133333333333    0.7109350000000000 Zn
   0.2968050000000000    0.0399166666666667    0.6110550000000000 Zn
   0.6285775000000000    0.0799266666666667    0.9606049999999999 Zn
   0.6717700000000000    0.1267033333333333    0.6385000000000001 Zn
   0.5046425000000000    0.0868200000000000    0.7870699999999999 Zn
   0.7033350000000000    0.2933366666666666    0.8886750000000000 Zn
   0.6216675000000000    0.2535500000000000    0.5372550000000000 Zn
   0.5783100000000000    0.2068300000000000    0.8592850000000001 Zn
   0.7453000000000000    0.2465133333333333    0.7109350000000000 Zn
   0.5468050000000000    0.0399166666666667    0.6110550000000000 Zn
   0.8785775000000000    0.0799266666666667    0.9606049999999999 Zn
   0.9217700000000000    0.1267033333333333    0.6385000000000001 Zn
   0.7546425000000000    0.0868200000000000    0.7870699999999999 Zn
   0.9533350000000000    0.2933366666666666    0.8886750000000000 Zn
   0.8716675000000000    0.2535500000000000    0.5372550000000000 Zn
   0.8283100000000000    0.2068300000000000    0.8592850000000001 Zn
   0.9953000000000000    0.2465133333333333    0.7109350000000000 Zn
   0.7968050000000000    0.0399166666666667    0.6110550000000000 Zn
   0.1285775000000000    0.4132600000000000    0.9606049999999999 Zn
   0.1717700000000000    0.4600366666666666    0.6385000000000001 Zn
   0.0046425000000000    0.4201533333333333    0.7870699999999999 Zn
   0.2033350000000000    0.6266699999999999    0.8886750000000000 Zn
   0.1216675000000000    0.5868833333333333    0.5372550000000000 Zn
   0.0783100000000000    0.5401633333333333    0.8592850000000001 Zn
   0.2453000000000000    0.5798466666666666    0.7109350000000000 Zn
   0.0468050000000000    0.3732500000000000    0.6110550000000000 Zn
   0.3785775000000000    0.4132600000000000    0.9606049999999999 Zn
   0.4217700000000000    0.4600366666666666    0.6385000000000001 Zn
   0.2546425000000000    0.4201533333333333    0.7870699999999999 Zn
   0.4533350000000000    0.6266699999999999    0.8886750000000000 Zn
   0.3716675000000000    0.5868833333333333    0.5372550000000000 Zn
   0.3283100000000000    0.5401633333333333    0.8592850000000001 Zn
   0.4953000000000000    0.5798466666666666    0.7109350000000000 Zn
   0.2968050000000000    0.3732500000000000    0.6110550000000000 Zn
   0.6285775000000000    0.4132600000000000    0.9606049999999999 Zn
   0.6717700000000000    0.4600366666666666    0.6385000000000001 Zn
   0.5046425000000000    0.4201533333333333    0.7870699999999999 Zn
   0.7033350000000000    0.6266699999999999    0.8886750000000000 Zn
   0.6216675000000000    0.5868833333333333    0.5372550000000000 Zn
   0.5783100000000000    0.5401633333333333    0.8592850000000001 Zn
   0.7453000000000000    0.5798466666666666    0.7109350000000000 Zn
   0.5468050000000000    0.3732500000000000    0.6110550000000000 Zn
   0.8785775000000000    0.4132600000000000    0.9606049999999999 Zn
   0.9217700000000000    0.4600366666666666    0.6385000000000001 Zn
   0.7546425000000000    0.4201533333333333    0.7870699999999999 Zn
   0.9533350000000000    0.6266699999999999    0.8886750000000000 Zn
   0.8716675000000000    0.5868833333333333    0.5372550000000000 Zn
   0.8283100000000000    0.5401633333333333    0.8592850000000001 Zn
   0.9953000000000000    0.5798466666666666    0.7109350000000000 Zn
   0.7968050000000000    0.3732500000000000    0.6110550000000000 Zn
   0.1285775000000000    0.7465933333333333    0.9606049999999999 Zn
   0.1717700000000000    0.7933699999999999    0.6385000000000001 Zn
   0.0046425000000000    0.7534866666666666    0.7870699999999999 Zn
   0.2033350000000000    0.9600033333333333    0.8886750000000000 Zn
   0.1216675000000000    0.9202166666666667    0.5372550000000000 Zn
   0.0783100000000000    0.8734966666666666    0.8592850000000001 Zn
   0.2453000000000000    0.9131799999999999    0.7109350000000000 Zn
   0.0468050000000000    0.7065833333333333    0.6110550000000000 Zn
   0.3785775000000000    0.7465933333333333    0.9606049999999999 Zn
   0.4217700000000000    0.7933699999999999    0.6385000000000001 Zn
   0.2546425000000000    0.7534866666666666    0.7870699999999999 Zn
   0.4533350000000000    0.9600033333333333    0.8886750000000000 Zn
   0.3716675000000000    0.9202166666666667    0.5372550000000000 Zn
   0.3283100000000000    0.8734966666666666    0.8592850000000001 Zn
   0.4953000000000000    0.9131799999999999    0.7109350000000000 Zn
   0.2968050000000000    0.7065833333333333    0.6110550000000000 Zn
   0.6285775000000000    0.7465933333333333    0.9606049999999999 Zn
   0.6717700000000000    0.7933699999999999    0.6385000000000001 Zn
   0.5046425000000000    0.7534866666666666    0.7870699999999999 Zn
   0.7033350000000000    0.9600033333333333    0.8886750000000000 Zn
   0.6216675000000000    0.9202166666666667    0.5372550000000000 Zn
   0.5783100000000000    0.8734966666666666    0.8592850000000001 Zn
   0.7453000000000000    0.9131799999999999    0.7109350000000000 Zn
   0.5468050000000000    0.7065833333333333    0.6110550000000000 Zn
   0.8785775000000000    0.7465933333333333    0.9606049999999999 Zn
   0.9217700000000000    0.7933699999999999    0.6385000000000001 Zn
   0.7546425000000000    0.7534866666666666    0.7870699999999999 Zn
   0.9533350000000000    0.9600033333333333    0.8886750000000000 Zn
   0.8716675000000000    0.9202166666666667    0.5372550000000000 Zn
   0.8283100000000000    0.8734966666666666    0.8592850000000001 Zn
   0.9953000000000000    0.9131799999999999    0.7109350000000000 Zn
   0.7968050000000000    0.7065833333333333    0.6110550000000000 Zn
   0.0844200000000000    0.3131766666666667    0.4553000000000000 H
   0.0966975000000000    0.0225300000000000    0.3406100000000000 H
   0.0213200000000000    0.3303366666666666    0.4491150000000000 H
   0.0364000000000000    0.0778500000000000    0.4241100000000000 H
   0.2100675000000000    0.1863633333333333    0.2939450000000000 H
   0.2225125000000000    0.1435500000000000    0.4080450000000000 H
   0.1471925000000000    0.1692133333333333    0.2997500000000000 H
   0.1622850000000000    0.0887566666666667    0.3249800000000000 H
   0.1657000000000000    0.0194900000000000    0.0446650000000000 H
   0.1528525000000000    0.3101699999999999    0.1585200000000000 H
   0.2288550000000000    0.0024800000000000    0.0511650000000000 H
   0.2137850000000000    0.2558200000000000    0.0754550000000000 H
   0.0400250000000000    0.1474433333333333    0.2040450000000000 H
   0.0276475000000000    0.1900333333333333    0.0897850000000000 H
   0.1029175000000000    0.1646366666666667    0.1981900000000000 H
   0.0876800000000000    0.2450566666666666    0.1725200000000000 H
   0.3344200000000000    0.3131766666666667    0.4553000000000000 H
   0.3466975000000000    0.0225300000000000    0.3406100000000000 H
   0.2713200000000000    0.3303366666666666    0.4491150000000000 H
   0.2864000000000000    0.0778500000000000    0.4241100000000000 H
   0.4600675000000000    0.1863633333333333    0.2939450000000000 H
   0.4725125000000000    0.1435500000000000    0.4080450000000000 H
   0.3971925000000000    0.1692133333333333    0.2997500000000000 H
   0.4122850000000000    0.0887566666666667    0.3249800000000000 H
   0.4157000000000000    0.0194900000000000    0.0446650000000000 H
   0.4028525000000000    0.3101699999999999    0.1585200000000000 H
   0.4788550000000000    0.0024800000000000    0.0511650000000000 H
   0.4637850000000000    0.2558200000000000    0.0754550000000000 H
   0.2900250000000000    0.1474433333333333    0.2040450000000000 H
   0.2776475000000000    0.1900333333333333    0.0897850000000000 H
   0.3529175000000000    0.1646366666666667    0.1981900000000000 H
   0.3376800000000000    0.2450566666666666    0.1725200000000000 H
   0.5844199999999999    0.3131766666666667    0.4553000000000000 H
   0.5966975000000000    0.0225300000000000    0.3406100000000000 H
   0.5213200000000000    0.3303366666666666    0.4491150000000000 H
   0.5364000000000000    0.0778500000000000    0.4241100000000000 H
   0.7100675000000000    0.1863633333333333    0.2939450000000000 H
   0.7225125000000000    0.1435500000000000    0.4080450000000000 H
   0.6471925000000001    0.1692133333333333    0.2997500000000000 H
   0.6622850000000000    0.0887566666666667    0.3249800000000000 H
   0.6657000000000000    0.0194900000000000    0.0446650000000000 H
   0.6528525000000001    0.3101699999999999    0.1585200000000000 H
   0.7288550000000000    0.0024800000000000    0.0511650000000000 H
   0.7137850000000000    0.2558200000000000    0.0754550000000000 H
   0.5400250000000000    0.1474433333333333    0.2040450000000000 H
   0.5276475000000000    0.1900333333333333    0.0897850000000000 H
   0.6029175000000000    0.1646366666666667    0.1981900000000000 H
   0.5876800000000000    0.2450566666666666    0.1725200000000000 H
   0.8344199999999999    0.3131766666666667    0.4553000000000000 H
   0.8466975000000000    0.0225300000000000    0.3406100000000000 H
   0.7713200000000000    0.3303366666666666    0.4491150000000000 H
   0.7864000000000000    0.0778500000000000    0.4241100000000000 H
   0.9600675000000000    0.1863633333333333    0.2939450000000000 H
   0.9725125000000000    0.1435500000000000    0.4080450000000000 H
   0.8971925000000001    0.1692133333333333    0.2997500000000000 H
   0.9122850000000000    0.0887566666666667    0.3249800000000000 H
   0.9157000000000000    0.0194900000000000    0.0446650000000000 H
   0.9028525000000001    0.3101699999999999    0.1585200000000000 H
   0.9788550000000000    0.0024800000000000    0.0511650000000000 H
   0.9637850000000000    0.2558200000000000    0.0754550000000000 H
   0.7900250000000000    0.1474433333333333    0.2040450000000000 H
   0.7776475000000000    0.1900333333333333    0.0897850000000000 H
   0.8529175000000000    0.1646366666666667    0.1981900000000000 H
   0.8376800000000000    0.2450566666666666    0.1725200000000000 H
   0.0844200000000000    0.6465099999999999    0.4553000000000000 H
   0.0966975000000000    0.3558633333333333    0.3406100000000000 H
   0.0213200000000000    0.6636700000000000    0.4491150000000000 H
   0.0364000000000000    0.4111833333333333    0.4241100000000000 H
   0.2100675000000000    0.5196966666666667    0.2939450000000000 H
   0.2225125000000000    0.4768833333333333    0.4080450000000000 H
   0.1471925000000000    0.5025466666666667    0.2997500000000000 H
   0.1622850000000000    0.4220900000000000    0.3249800000000000 H
   0.1657000000000000    0.3528233333333333    0.0446650000000000 H
   0.1528525000000000    0.6435033333333333    0.1585200000000000 H
   0.2288550000000000    0.3358133333333333    0.0511650000000000 H
   0.2137850000000000    0.5891533333333333    0.0754550000000000 H
   0.0400250000000000    0.4807766666666666    0.2040450000000000 H
   0.0276475000000000    0.5233666666666666    0.0897850000000000 H
   0.1029175000000000    0.4979700000000000    0.1981900000000000 H
   0.0876800000000000    0.5783900000000000    0.1725200000000000 H
   0.3344200000000000    0.6465099999999999    0.4553000000000000 H
   0.3466975000000000    0.3558633333333333    0.3406100000000000 H
   0.2713200000000000    0.6636700000000000    0.4491150000000000 H
   0.2864000000000000    0.4111833333333333    0.4241100000000000 H
   0.4600675000000000    0.5196966666666667    0.2939450000000000 H
   0.4725125000000000    0.4768833333333333    0.4080450000000000 H
   0.3971925000000000    0.5025466666666667    0.2997500000000000 H
   0.4122850000000000    0.4220900000000000    0.3249800000000000 H
   0.4157000000000000    0.3528233333333333    0.0446650000000000 H
   0.4028525000000000    0.6435033333333333    0.1585200000000000 H
   0.4788550000000000    0.3358133333333333    0.0511650000000000 H
   0.4637850000000000    0.5891533333333333    0.0754550000000000 H
   0.2900250000000000    0.4807766666666666    0.2040450000000000 H
   0.2776475000000000    0.5233666666666666    0.0897850000000000 H
   0.3529175000000000    0.4979700000000000    0.1981900000000000 H
   0.3376800000000000    0.5783900000000000    0.1725200000000000 H
   0.5844199999999999    0.6465099999999999    0.4553000000000000 H
   0.5966975000000000    0.3558633333333333    0.3406100000000000 H
   0.5213200000000000    0.6636700000000000    0.4491150000000000 H
   0.5364000000000000    0.4111833333333333    0.4241100000000000 H
   0.7100675000000000    0.5196966666666667    0.2939450000000000 H
   0.7225125000000000    0.4768833333333333    0.4080450000000000 H
   0.6471925000000001    0.5025466666666667    0.2997500000000000 H
   0.6622850000000000    0.4220900000000000    0.3249800000000000 H
   0.6657000000000000    0.3528233333333333    0.0446650000000000 H
   0.6528525000000001    0.6435033333333333    0.1585200000000000 H
   0.7288550000000000    0.3358133333333333    0.0511650000000000 H
   0.7137850000000000    0.5891533333333333    0.0754550000000000 H
   0.5400250000000000    0.4807766666666666    0.2040450000000000 H
   0.5276475000000000    0.5233666666666666    0.0897850000000000 H
   0.6029175000000000    0.4979700000000000    0.1981900000000000 H
   0.5876800000000000    0.5783900000000000    0.1725200000000000 H
   0.8344199999999999    0.6465099999999999    0.4553000000000000 H
   0.8466975000000000    0.3558633333333333    0.3406100000000000 H
   0.7713200000000000    0.6636700000000000    0.4491150000000000 H
   0.7864000000000000    0.4111833333333333    0.4241100000000000 H
   0.9600675000000000    0.5196966666666667    0.2939450000000000 H
   0.9725125000000000    0.4768833333333333    0.4080450000000000 H
   0.8971925000000001    0.5025466666666667    0.2997500000000000 H
   0.9122850000000000    0.4220900000000000    0.3249800000000000 H
   0.9157000000000000    0.3528233333333333    0.0446650000000000 H
   0.9028525000000001    0.6435033333333333    0.1585200000000000 H
   0.9788550000000000    0.3358133333333333    0.0511650000000000 H
   0.9637850000000000    0.5891533333333333    0.0754550000000000 H
   0.7900250000000000    0.4807766666666666    0.2040450000000000 H
   0.7776475000000000    0.5233666666666666    0.0897850000000000 H
   0.8529175000000000    0.4979700000000000    0.1981900000000000 H
   0.8376800000000000    0.5783900000000000    0.1725200000000000 H
   0.0844200000000000    0.9798433333333333    0.4553000000000000 H
   0.0966975000000000    0.6891966666666667    0.3406100000000000 H
   0.0213200000000000    0.9970033333333332    0.4491150000000000 H
   0.0364000000000000    0.7445166666666666    0.4241100000000000 H
   0.2100675000000000    0.8530300000000000    0.2939450000000000 H
   0.2225125000000000    0.8102166666666666    0.4080450000000000 H
   0.1471925000000000    0.8358800000000000    0.2997500000000000 H
   0.1622850000000000    0.7554233333333333    0.3249800000000000 H
   0.1657000000000000    0.6861566666666666    0.0446650000000000 H
   0.1528525000000000    0.9768366666666666    0.1585200000000000 H
   0.2288550000000000    0.6691466666666667    0.0511650000000000 H
   0.2137850000000000    0.9224866666666667    0.0754550000000000 H
   0.0400250000000000    0.8141099999999999    0.2040450000000000 H
   0.0276475000000000    0.8567000000000000    0.0897850000000000 H
   0.1029175000000000    0.8313033333333333    0.1981900000000000 H
   0.0876800000000000    0.9117233333333332    0.1725200000000000 H
   0.3344200000000000    0.9798433333333333    0.4553000000000000 H
   0.3466975000000000    0.6891966666666667    0.3406100000000000 H
   0.2713200000000000    0.9970033333333332    0.4491150000000000 H
   0.2864000000000000    0.7445166666666666    0.4241100000000000 H
   0.4600675000000000    0.8530300000000000    0.2939450000000000 H
   0.4725125000000000    0.8102166666666666    0.4080450000000000 H
   0.3971925000000000    0.8358800000000000    0.2997500000000000 H
   0.4122850000000000    0.7554233333333333    0.3249800000000000 H
   0.4157000000000000    0.6861566666666666    0.0446650000000000 H
   0.4028525000000000    0.9768366666666666    0.1585200000000000 H
   0.4788550000000000    0.6691466666666667    0.0511650000000000 H
   0.4637850000000000    0.9224866666666667    0.0754550000000000 H
   0.2900250000000000    0.8141099999999999    0.2040450000000000 H
   0.2776475000000000    0.8567000000000000    0.0897850000000000 H
   0.3529175000000000    0.8313033333333333    0.1981900000000000 H
   0.3376800000000000    0.9117233333333332    0.1725200000000000 H
   0.5844199999999999    0.9798433333333333    0.4553000000000000 H
   0.5966975000000000    0.6891966666666667    0.3406100000000000 H
   0.5213200000000000    0.9970033333333332    0.4491150000000000 H
   0.5364000000000000    0.7445166666666666    0.4241100000000000 H
   0.7100675000000000    0.8530300000000000    0.2939450000000000 H
   0.7225125000000000    0.8102166666666666    0.4080450000000000 H
   0.6471925000000001    0.8358800000000000    0.2997500000000000 H
   0.6622850000000000    0.7554233333333333    0.3249800000000000 H
   0.6657000000000000    0.6861566666666666    0.0446650000000000 H
   0.6528525000000001    0.9768366666666666    0.1585200000000000 H
   0.7288550000000000    0.6691466666666667    0.0511650000000000 H
   0.7137850000000000    0.9224866666666667    0.0754550000000000 H
   0.5400250000000000    0.8141099999999999    0.2040450000000000 H
   0.5276475000000000    0.8567000000000000    0.0897850000000000 H
   0.6029175000000000    0.8313033333333333    0.1981900000000000 H
   0.5876800000000000    0.9117233333333332    0.1725200000000000 H
   0.8344199999999999    0.9798433333333333    0.4553000000000000 H
   0.8466975000000000    0.6891966666666667    0.3406100000000000 H
   0.7713200000000000    0.9970033333333332    0.4491150000000000 H
   0.7864000000000000    0.7445166666666666    0.4241100000000000 H
   0.9600675000000000    0.8530300000000000    0.2939450000000000 H
   0.9725125000000000    0.8102166666666666    0.4080450000000000 H
   0.8971925000000001    0.8358800000000000    0.2997500000000000 H
   0.9122850000000000    0.7554233333333333    0.3249800000000000 H
   0.9157000000000000    0.6861566666666666    0.0446650000000000 H
   0.9028525000000001    0.9768366666666666    0.1585200000000000 H
   0.9788550000000000    0.6691466666666667    0.0511650000000000 H
   0.9637850000000000    0.9224866666666667    0.0754550000000000 H
   0.7900250000000000    0.8141099999999999    0.2040450000000000 H
   0.7776475000000000    0.8567000000000000    0.0897850000000000 H
   0.8529175000000000    0.8313033333333333    0.1981900000000000 H
   0.8376800000000000    0.9117233333333332    0.1725200000000000 H
   0.0844200000000000    0.3131766666666667    0.9553000000000000 H
   0.0213200000000000    0.3303366666666666    0.9491149999999999 H
   0.2100675000000000    0.1863633333333333    0.7939450000000000 H
   0.2225125000000000    0.1435500000000000    0.9080450000000000 H
   0.1471925000000000    0.1692133333333333    0.7997500000000000 H
   0.1622850000000000    0.0887566666666667    0.8249800000000000 H
   0.1657000000000000    0.0194900000000000    0.5446650000000000 H
   0.1528525000000000    0.3101699999999999    0.6585200000000000 H
   0.2288550000000000    0.0024800000000000    0.5511650000000000 H
   0.2137850000000000    0.2558200000000000    0.5754550000000000 H
   0.0400250000000000    0.1474433333333333    0.7040450000000000 H
   0.0276475000000000    0.1900333333333333    0.5897850000000000 H
   0.1029175000000000    0.1646366666666667    0.6981900000000000 H
   0.0876800000000000    0.2450566666666666    0.6725200000000000 H
   0.3344200000000000    0.3131766666666667    0.9553000000000000 H
   0.3466975000000000    0.0225300000000000    0.8406100000000001 H
   0.2713200000000000    0.3303366666666666    0.9491149999999999 H
   0.2864000000000000    0.0778500000000000    0.9241100000000000 H
   0.4600675000000000    0.1863633333333333    0.7939450000000000 H
   0.4725125000000000    0.1435500000000000    0.9080450000000000 H
   0.3971925000000000    0.1692133333333333    0.7997500000000000 H
   0.4122850000000000    0.0887566666666667    0.8249800000000000 H
   0.4157000000000000    0.0194900000000000    0.5446650000000000 H
   0.4028525000000000    0.3101699999999999    0.6585200000000000 H
   0.4788550000000000    0.0024800000000000    0.5511650000000000 H
   0.4637850000000000    0.2558200000000000    0.5754550000000000 H
   0.2900250000000000    0.1474433333333333    0.7040450000000000 H
   0.2776475000000000    0.1900333333333333    0.5897850000000000 H
   0.3529175000000000    0.1646366666666667    0.6981900000000000 H
   0.3376800000000000    0.2450566666666666    0.6725200000000000 H
   0.5844199999999999    0.3131766666666667    0.9553000000000000 H
   0.5966975000000000    0.0225300000000000    0.8406100000000001 H
   0.5213200000000000    0.3303366666666666    0.9491149999999999 H
   0.5364000000000000    0.0778500000000000    0.9241100000000000 H
   0.7100675000000000    0.1863633333333333    0.7939450000000000 H
   0.7225125000000000    0.1435500000000000    0.9080450000000000 H
   0.6471925000000001    0.1692133333333333    0.7997500000000000 H
   0.6622850000000000    0.0887566666666667    0.8249800000000000 H
   0.6657000000000000    0.0194900000000000    0.5446650000000000 H
   0.6528525000000001    0.3101699999999999    0.6585200000000000 H
   0.7288550000000000    0.0024800000000000    0.5511650000000000 H
   0.7137850000000000    0.2558200000000000    0.5754550000000000 H
   0.5400250000000000    0.1474433333333333    0.7040450000000000 H
   0.5276475000000000    0.1900333333333333    0.5897850000000000 H
   0.6029175000000000    0.1646366666666667    0.6981900000000000 H
   0.5876800000000000    0.2450566666666666    0.6725200000000000 H
   0.8344199999999999    0.3131766666666667    0.9553000000000000 H
   0.8466975000000000    0.0225300000000000    0.8406100000000001 H
   0.7713200000000000    0.3303366666666666    0.9491149999999999 H
   0.7864000000000000    0.0778500000000000    0.9241100000000000 H