H8 C14 O4
1.0
  29.4239578332803760    0.0000000000000000   -0.0498139070777025
  -0.0297035759860441   36.2599798588644120    0.0240485409343465
   0.0000000000000000    0.0000000000000000   25.1200000000000010
H C O
8 14 4
direct
   0.4123600000000000    0.0453350000000000    0.8127900000000000 H
   0.4909000000000000    0.0692950000000000    0.8043200000000000 H
   0.4498450000000000    0.1699100000000000    0.8823299999999999 H
   0.3710650000000000    0.1459400000000000    0.8882600000000000 H
   0.5046600000000000    0.1932850000000000    0.8359400000000000 H
   0.5832900000000000    0.2167350000000000    0.8372200000000000 H
   0.6344300000000000    0.1058550000000000    0.8412600000000000 H
   0.5554700000000000    0.0817850000000000    0.8444900000000000 H
   0.3397600000000000    0.0796800000000000    0.8581000000000000 C
   0.3869750000000000    0.0940050000000000    0.8516300000000000 C
   0.4210250000000000    0.0726350000000000    0.8277800000000000 C
   0.4650750000000000    0.0862500000000000    0.8233900000000000 C
   0.4766300000000000    0.1215150000000000    0.8427900000000000 C
   0.4418600000000000    0.1428450000000000    0.8659000000000000 C
   0.3977600000000000    0.1294350000000000    0.8701500000000000 C
   0.5237750000000000    0.1356200000000000    0.8401100000000000 C
   0.5327750000000000    0.1737650000000000    0.8378000000000000 C
   0.5770950000000000    0.1871500000000000    0.8380500000000000 C
   0.6139950000000000    0.1627350000000000    0.8388700000000000 C
   0.6055900000000000    0.1246400000000000    0.8398000000000000 C
   0.5612200000000001    0.1114000000000000    0.8410200000000000 C
   0.6620550000000001    0.1761650000000000    0.8391700000000000 C
   0.3319000000000000    0.0464050000000000    0.8421500000000000 O
   0.3102400000000000    0.0999700000000000    0.8798100000000000 O
   0.6691100000000000    0.2098600000000000    0.8542500000000000 O
   0.6928300000000001    0.1544500000000000    0.8243400000000000 O
