H6 O4
1.0
  29.4239578332803760    0.0000000000000000   -0.0498139070777025
  -0.0297035759860441   36.2599798588644120    0.0240485409343465
   0.0000000000000000    0.0000000000000000   25.1200000000000010
H O
6 4
direct
   0.6809041688101239    0.1326216855949033    0.8069048935673254 H
   0.6460725652216397    0.2285033176489017    0.8603124338232553 H
   0.6553903849814053    0.1847484530248091    0.8341924506136243 H
   0.3239243998587158    0.1201973203301926    0.8993736205177302 H
   0.3547883914154690    0.0282179766735221    0.8331589846981938 H
   0.3478957927586138    0.0700488592414984    0.8650180557891228 H
   0.6928300000000001    0.1544500000000000    0.8243400000000000 O
   0.6691100000000000    0.2098600000000000    0.8542500000000000 O
   0.3102400000000000    0.0999700000000000    0.8798100000000000 O
   0.3319000000000000    0.0464050000000000    0.8421500000000000 O
