H8 C10 N2
1.0
  29.4239578332803760    0.0000000000000000   -0.0498139070777025
  -0.0297035759860441   36.2599798588644120    0.0240485409343465
   0.0000000000000000    0.0000000000000000   25.1200000000000010
H C N
8 10 2
direct
   0.4751350000000000    0.1528500000000000    0.7331299999999999 H
   0.4657150000000000    0.2211200000000000    0.7283700000000000 H
   0.4838600000000000    0.0319850000000000    0.5744600000000000 H
   0.4733150000000000    0.1004350000000000    0.5724100000000000 H
   0.5075200000000000    0.2241600000000000    0.5711200000000000 H
   0.5177000000000000    0.1557900000000000    0.5683000000000000 H
   0.5357100000000000    0.1044050000000000    0.7283800000000000 H
   0.5431700000000000    0.0359500000000000    0.7238700000000000 H
   0.4975750000000000    0.1485650000000000    0.6508900000000000 C
   0.4830700000000000    0.1675300000000000    0.6964500000000000 C
   0.4774500000000000    0.2055150000000000    0.6939900000000000 C
   0.4947300000000000    0.0493050000000000    0.6074700000000000 C
   0.4890800000000000    0.0872550000000000    0.6067399999999999 C
   0.5000000000000000    0.2070900000000000    0.6057800000000000 C
   0.5062150000000000    0.1691450000000000    0.6047400000000001 C
   0.5032250000000000    0.1081350000000000    0.6507300000000000 C
   0.5230350000000000    0.0894550000000000    0.6937800000000000 C
   0.5276999999999999    0.0513800000000000    0.6913200000000000 C
   0.4860750000000000    0.2251800000000000    0.6495200000000000 N
   0.5137600000000000    0.0314050000000000    0.6490500000000000 N
