Zn12 H84 C147 N7 O42
1.0
  14.4661359836962262    0.0000000000000000   -3.2558399378976217
  -7.3506685522470869   12.4464031996012334   -3.2509345160987055
   0.0000000000000000    0.0000000000000000   33.5499999999999972
Zn H C N O
12 84 147 7 42
direct
   0.0746300000000000    0.4734100000000000    0.2891000000000000 Zn
   0.4740900000000000    0.0750900000000000    0.0393950000000000 Zn
   0.9253700000000000    0.5266100000000000    0.2108900000000000 Zn
   0.3288900000000000    0.6707300000000000    0.3749000000000000 Zn
   0.6711100000000000    0.3292900000000000    0.1250550000000000 Zn
   0.5259000000000000    0.9249300000000000    0.4605950000000000 Zn
   0.0746300000000000    0.4734100000000000    0.7891000000000000 Zn
   0.4740900000000000    0.0750900000000000    0.5393950000000000 Zn
   0.9253700000000000    0.5266100000000000    0.7108900000000000 Zn
   0.3288900000000000    0.6707300000000000    0.8749000000000000 Zn
   0.6711100000000000    0.3292900000000000    0.6250550000000000 Zn
   0.5259000000000000    0.9249300000000000    0.9605950000000000 Zn
   0.4773300000000000    0.5378300000000000    0.4170700000000000 H
   0.5787900000000000    0.4424700000000000    0.4218800000000000 H
   0.8744000000000000    0.7424700000000000    0.4618150000000000 H
   0.7710000000000000    0.8372100000000000    0.4569100000000000 H
   0.1336700000000000    0.6032600000000000    0.4579850000000000 H
   0.9864600000000000    0.5672100000000000    0.4878400000000000 H
   0.7891300000000000    0.5570900000000000    0.3696950000000000 H
   0.9356200000000000    0.5910200000000000    0.3397300000000000 H
   0.6123900000000000    0.3341500000000000    0.0201350000000000 H
   0.6980000000000000    0.5029600000000000    0.0055050000000000 H
   0.8038999999999999    0.3561400000000000    0.4149450000000000 H
   0.7232900000000000    0.1895800000000000    0.4320250000000000 H
   0.4616000000000000    0.5226800000000000    0.3325400000000000 H
   0.5572700000000000    0.4215300000000000    0.3278500000000000 H
   0.2578900000000000    0.1253100000000000    0.2879700000000000 H
   0.1628200000000000    0.2284100000000000    0.2927350000000000 H
   0.3965600000000000    0.8661500000000000    0.2918950000000000 H
   0.4328500000000000    0.0135500000000000    0.2620500000000000 H
   0.4435500000000000    0.2113000000000000    0.3802700000000000 H
   0.4092900000000000    0.0645800000000000    0.4102100000000000 H
   0.6663800000000000    0.3881600000000000    0.2299400000000000 H
   0.4975900000000000    0.3025500000000000    0.2444900000000000 H
   0.6438300000000000    0.1961100000000000    0.3350100000000000 H
   0.8103100000000000    0.2765700000000000    0.3179500000000000 H
   0.5226700000000000    0.4622000000000000    0.0829250000000000 H
   0.4212100000000000    0.5575500000000000    0.0781150000000000 H
   0.1256000000000000    0.2575500000000000    0.0381800000000000 H
   0.2289900000000000    0.1628100000000000    0.0430800000000000 H
   0.8663300000000000    0.3967600000000000    0.0420050000000000 H
   0.0135300000000000    0.4328100000000000    0.0121550000000000 H
   0.2108700000000000    0.4429300000000000    0.1303000000000000 H
   0.0643800000000000    0.4090000000000000    0.1602650000000000 H
   0.3876100000000000    0.6658700000000000    0.4798600000000000 H
   0.3020000000000000    0.4970600000000000    0.4944900000000000 H
   0.1961000000000000    0.6438800000000000    0.0850500000000000 H
   0.2767100000000000    0.8104500000000000    0.0679700000000000 H
   0.4773300000000000    0.5378300000000000    0.9170700000000001 H
   0.5787900000000000    0.4424700000000000    0.9218800000000000 H
   0.8744000000000000    0.7424700000000000    0.9618150000000000 H
   0.7710000000000000    0.8372100000000000    0.9569099999999999 H
   0.1336700000000000    0.6032600000000000    0.9579850000000000 H
   0.9864600000000000    0.5672100000000000    0.9878400000000001 H
   0.7891300000000000    0.5570900000000000    0.8696950000000000 H
   0.9356200000000000    0.5910200000000000    0.8397300000000000 H
   0.6123900000000000    0.3341500000000000    0.5201350000000000 H
   0.6980000000000000    0.5029600000000000    0.5055050000000000 H
   0.8038999999999999    0.3561400000000000    0.9149450000000000 H
   0.7232900000000000    0.1895800000000000    0.9320250000000000 H
   0.4616000000000000    0.5226800000000000    0.8325400000000001 H
   0.5572700000000000    0.4215300000000000    0.8278500000000000 H
   0.2578900000000000    0.1253100000000000    0.7879700000000001 H
   0.1628200000000000    0.2284100000000000    0.7927350000000000 H
   0.3965600000000000    0.8661500000000000    0.7918950000000000 H
   0.4328500000000000    0.0135500000000000    0.7620500000000000 H
   0.4435500000000000    0.2113000000000000    0.8802700000000000 H
   0.4092900000000000    0.0645800000000000    0.9102100000000000 H
   0.6663800000000000    0.3881600000000000    0.7299400000000000 H
   0.4975900000000000    0.3025500000000000    0.7444900000000000 H
   0.6438300000000000    0.1961100000000000    0.8350100000000000 H
   0.8103100000000000    0.2765700000000000    0.8179500000000000 H
   0.5226700000000000    0.4622000000000000    0.5829250000000000 H
   0.4212100000000000    0.5575500000000000    0.5781150000000000 H
   0.1256000000000000    0.2575500000000000    0.5381800000000000 H
   0.2289900000000000    0.1628100000000000    0.5430800000000000 H
   0.8663300000000000    0.3967600000000000    0.5420050000000000 H
   0.0135300000000000    0.4328100000000000    0.5121550000000000 H
   0.2108700000000000    0.4429300000000000    0.6303000000000000 H
   0.0643800000000000    0.4090000000000000    0.6602650000000000 H
   0.3876100000000000    0.6658700000000000    0.9798600000000000 H
   0.3020000000000000    0.4970600000000000    0.9944900000000000 H
   0.1961000000000000    0.6438800000000000    0.5850500000000000 H
   0.2767100000000000    0.8104500000000000    0.5679700000000000 H
   0.5384000000000000    0.4773400000000000    0.6674550000000000 H
   0.4427200000000000    0.5785000000000000    0.6721400000000000 H
   0.7421000000000000    0.8747100000000000    0.7120250000000000 H
   0.8371800000000000    0.7716200000000000    0.7072550000000000 H
   0.6034400000000000    0.1338700000000000    0.7081000000000000 H
   0.5671500000000000    0.9864700000000000    0.7379300000000000 H
   0.5564500000000000    0.7887200000000000    0.6197250000000000 H
   0.5907100000000000    0.9354400000000000    0.5897850000000000 H
   0.3336200000000000    0.6118600000000000    0.7700500000000000 H
   0.5024100000000000    0.6974700000000000    0.7555000000000001 H
   0.3561700000000000    0.8039200000000000    0.6649800000000000 H
   0.1896900000000000    0.7234500000000000    0.6820400000000000 H
   0.5531800000000000    0.7474700000000000    0.4338800000000000 C
   0.6173900000000000    0.6937100000000000    0.4370800000000000 C
   0.5644300000000000    0.5822900000000000    0.4274300000000000 C
   0.6212900000000000    0.5290600000000000    0.4300650000000000 C
   0.7337399999999999    0.5862200000000000    0.4429050000000000 C
   0.7873100000000000    0.6977900000000000    0.4520750000000000 C
   0.7296200000000000    0.7506600000000000    0.4492500000000000 C
   0.1277400000000000    0.6128700000000000    0.3776500000000000 C
   0.0431800000000000    0.5978900000000000    0.3967500000000000 C
   0.0577000000000000    0.5920900000000000    0.4387400000000000 C
   0.9757600000000000    0.5721700000000000    0.4553600000000000 C
   0.8783200000000000    0.5585700000000000    0.4303750000000000 C
   0.8647800000000000    0.5675600000000000    0.3889850000000000 C
   0.9464399999999999    0.5865000000000000    0.3722600000000000 C
   0.6018300000000000    0.1474600000000000    0.4828150000000000 C
   0.6598700000000000    0.2499900000000000    0.4760800000000000 C
   0.6537800000000000    0.3393200000000000    0.4969150000000000 C
   0.7020300000000000    0.4337200000000000    0.4888000000000000 C
   0.7537300000000000    0.4399400000000000    0.4581150000000000 C
   0.7632800000000000    0.3518500000000000    0.4384350000000000 C
   0.7177100000000000    0.2585900000000000    0.4477750000000000 C
   0.2520500000000000    0.4463200000000000    0.3157550000000000 C
   0.3060100000000000    0.3823000000000000    0.3125600000000000 C
   0.4173500000000000    0.4355200000000000    0.3222150000000000 C
   0.4707500000000000    0.3788200000000000    0.3196450000000000 C
   0.4138500000000000    0.2663000000000000    0.3068800000000000 C
   0.3023500000000000    0.2124700000000000    0.2976650000000000 C
   0.2493000000000000    0.2699900000000000    0.3004200000000000 C
   0.3868100000000000    0.8720800000000000    0.3722000000000000 C
   0.4020700000000000    0.9568100000000000    0.3531400000000000 C
   0.4078700000000000    0.9422500000000000    0.3111500000000000 C
   0.4279300000000000    0.0242800000000000    0.2945450000000000 C
   0.4417000000000000    0.1218500000000000    0.3195450000000000 C
   0.4328600000000000    0.1354900000000000    0.3609500000000000 C
   0.4137400000000000    0.0537100000000000    0.3776650000000000 C
   0.8526600000000000    0.3981900000000000    0.2672150000000000 C
   0.7501900000000000    0.3402900000000000    0.2739450000000000 C
   0.6610700000000000    0.3466400000000000    0.2531000000000000 C
   0.5667000000000000    0.2984100000000000    0.2611800000000000 C
   0.5603200000000000    0.2465400000000000    0.2918500000000000 C
   0.6482400000000000    0.2368200000000000    0.3115400000000000 C
   0.7414500000000001    0.2823200000000000    0.3022150000000000 C
   0.4468200000000000    0.2525600000000000    0.0661100000000000 C
   0.3826100000000000    0.3063200000000000    0.0629100000000000 C
   0.4355700000000000    0.4177400000000000    0.0725600000000000 C
   0.3787000000000000    0.4709600000000000    0.0699250000000000 C
   0.2662600000000000    0.4138000000000000    0.0570900000000000 C
   0.2126900000000000    0.3022300000000000    0.0479150000000000 C
   0.2703800000000000    0.2493600000000000    0.0507450000000000 C
   0.8722600000000000    0.3871600000000000    0.1223400000000000 C
   0.9568200000000000    0.4021300000000000    0.1032450000000000 C
   0.9423000000000000    0.4079400000000000    0.0612550000000000 C
   0.0242400000000000    0.4278500000000000    0.0446350000000000 C
   0.1216800000000000    0.4414600000000000    0.0696150000000000 C
   0.1352200000000000    0.4324600000000000    0.1110100000000000 C
   0.0535500000000000    0.4135200000000000    0.1277300000000000 C
   0.3981700000000000    0.8525600000000000    0.0171800000000000 C
   0.3401200000000000    0.7500300000000000    0.0239000000000000 C
   0.3462200000000000    0.6607000000000000    0.0030500000000000 C
   0.2979700000000000    0.5663000000000000    0.0111700000000000 C
   0.2462600000000000    0.5600800000000000    0.0418750000000000 C
   0.2367100000000000    0.6481700000000000    0.0615600000000000 C
   0.2822900000000000    0.7414400000000000    0.0522200000000000 C
   0.5531800000000000    0.7474700000000000    0.9338800000000000 C
   0.6173900000000000    0.6937100000000000    0.9370800000000000 C
   0.5644300000000000    0.5822900000000000    0.9274300000000000 C
   0.6212900000000000    0.5290600000000000    0.9300649999999999 C
   0.7337399999999999    0.5862200000000000    0.9429050000000000 C
   0.7873100000000000    0.6977900000000000    0.9520750000000000 C
   0.7296200000000000    0.7506600000000000    0.9492499999999999 C
   0.1277400000000000    0.6128700000000000    0.8776500000000000 C
   0.0431800000000000    0.5978900000000000    0.8967499999999999 C
   0.0577000000000000    0.5920900000000000    0.9387400000000000 C
   0.9757600000000000    0.5721700000000000    0.9553600000000000 C
   0.8783200000000000    0.5585700000000000    0.9303750000000000 C
   0.8647800000000000    0.5675600000000000    0.8889850000000000 C
   0.9464399999999999    0.5865000000000000    0.8722600000000000 C
   0.6018300000000000    0.1474600000000000    0.9828150000000000 C
   0.6598700000000000    0.2499900000000000    0.9760800000000001 C
   0.6537800000000000    0.3393200000000000    0.9969150000000000 C
   0.7020300000000000    0.4337200000000000    0.9888000000000000 C
   0.7537300000000000    0.4399400000000000    0.9581150000000000 C
   0.7632800000000000    0.3518500000000000    0.9384350000000000 C
   0.7177100000000000    0.2585900000000000    0.9477750000000000 C
   0.2520500000000000    0.4463200000000000    0.8157550000000000 C
   0.3060100000000000    0.3823000000000000    0.8125599999999999 C
   0.4173500000000000    0.4355200000000000    0.8222149999999999 C
   0.4707500000000000    0.3788200000000000    0.8196450000000000 C
   0.4138500000000000    0.2663000000000000    0.8068800000000000 C
   0.3023500000000000    0.2124700000000000    0.7976650000000001 C
   0.2493000000000000    0.2699900000000000    0.8004200000000000 C
   0.3868100000000000    0.8720800000000000    0.8722000000000000 C
   0.4020700000000000    0.9568100000000000    0.8531400000000000 C
   0.4078700000000000    0.9422500000000000    0.8111500000000000 C
   0.4279300000000000    0.0242800000000000    0.7945450000000001 C
   0.4417000000000000    0.1218500000000000    0.8195450000000000 C
   0.4328600000000000    0.1354900000000000    0.8609500000000000 C
   0.4137400000000000    0.0537100000000000    0.8776649999999999 C
   0.8526600000000000    0.3981900000000000    0.7672150000000000 C
   0.7501900000000000    0.3402900000000000    0.7739450000000000 C
   0.6610700000000000    0.3466400000000000    0.7531000000000000 C
   0.5667000000000000    0.2984100000000000    0.7611800000000000 C
   0.5603200000000000    0.2465400000000000    0.7918499999999999 C
   0.6482400000000000    0.2368200000000000    0.8115399999999999 C
   0.7414500000000001    0.2823200000000000    0.8022150000000000 C
   0.4468200000000000    0.2525600000000000    0.5661100000000000 C
   0.3826100000000000    0.3063200000000000    0.5629100000000000 C
   0.4355700000000000    0.4177400000000000    0.5725600000000000 C
   0.3787000000000000    0.4709600000000000    0.5699250000000000 C
   0.2662600000000000    0.4138000000000000    0.5570900000000000 C
   0.2126900000000000    0.3022300000000000    0.5479150000000000 C
   0.2703800000000000    0.2493600000000000    0.5507450000000000 C
   0.8722600000000000    0.3871600000000000    0.6223400000000000 C
   0.9568200000000000    0.4021300000000000    0.6032450000000000 C
   0.9423000000000000    0.4079400000000000    0.5612549999999999 C
   0.0242400000000000    0.4278500000000000    0.5446350000000000 C
   0.1216800000000000    0.4414600000000000    0.5696150000000000 C
   0.1352200000000000    0.4324600000000000    0.6110100000000001 C
   0.0535500000000000    0.4135200000000000    0.6277300000000000 C
   0.3981700000000000    0.8525600000000000    0.5171800000000000 C
   0.3401200000000000    0.7500300000000000    0.5239000000000000 C
   0.3462200000000000    0.6607000000000000    0.5030500000000000 C
   0.2979700000000000    0.5663000000000000    0.5111700000000000 C
   0.2462600000000000    0.5600800000000000    0.5418750000000000 C
   0.2367100000000000    0.6481700000000000    0.5615599999999999 C
   0.2822900000000000    0.7414400000000000    0.5522200000000000 C
   0.7479500000000000    0.5537100000000000    0.6842400000000000 C
   0.6939900000000000    0.6177200000000000    0.6874350000000000 C
   0.5826500000000000    0.5645100000000000    0.6777800000000000 C
   0.5292500000000000    0.6212000000000000    0.6803450000000000 C
   0.5861400000000000    0.7337200000000000    0.6931150000000000 C
   0.6976400000000000    0.7875500000000000    0.7023300000000000 C
   0.7506900000000000    0.7300400000000000    0.6995500000000000 C
   0.6131799999999999    0.1279400000000000    0.6277500000000000 C
   0.5979300000000000    0.0432200000000000    0.6468550000000000 C
   0.5921300000000000    0.0577800000000000    0.6888450000000000 C
   0.5720700000000000    0.9757500000000000    0.7054450000000000 C
   0.5582900000000000    0.8781700000000000    0.6804450000000000 C
   0.5671400000000000    0.8645300000000000    0.6390300000000000 C
   0.5862600000000000    0.9463100000000000    0.6223250000000000 C
   0.1473400000000000    0.6018300000000000    0.7327750000000000 C
   0.2498100000000000    0.6597300000000000    0.7260500000000000 C
   0.3389300000000000    0.6533900000000000    0.7468650000000000 C
   0.4333000000000000    0.7016200000000000    0.7388100000000000 C
   0.4396800000000000    0.7534900000000000    0.7081450000000000 C
   0.3517600000000000    0.7632000000000000    0.6884550000000000 C
   0.2585400000000000    0.7177100000000000    0.6977750000000000 C
   0.7924300000000000    0.5323800000000000    0.4465450000000000 N
   0.4678900000000000    0.2078000000000000    0.3033650000000000 N
   0.2075700000000000    0.4676400000000000    0.0534500000000000 N
   0.7924300000000000    0.5323800000000000    0.9465450000000000 N
   0.4678900000000000    0.2078000000000000    0.8033650000000000 N
   0.2075700000000000    0.4676400000000000    0.5534500000000000 N
   0.5321100000000000    0.7922300000000000    0.6966300000000000 N
   0.4512100000000000    0.6877200000000000    0.4212400000000000 O
   0.6027200000000000    0.8498200000000000    0.4446000000000000 O
   0.2197900000000000    0.6367200000000000    0.4026700000000000 O
   0.1060800000000000    0.6019500000000000    0.3371000000000000 O
   0.5258100000000000    0.1355100000000000    0.4972150000000000 O
   0.6278200000000000    0.0762000000000000    0.4722950000000000 O
   0.3115500000000000    0.5484100000000000    0.3284500000000000 O
   0.1497600000000000    0.3965100000000000    0.3049850000000000 O
   0.3630000000000000    0.7799700000000001    0.3472000000000000 O
   0.3974500000000000    0.8936600000000000    0.4127000000000000 O
   0.8650099999999999    0.4746700000000000    0.2530300000000000 O
   0.9235200000000000    0.3716500000000000    0.2775350000000000 O
   0.5487900000000000    0.3123000000000000    0.0787500000000000 O
   0.3972700000000000    0.1502000000000000    0.0553900000000000 O
   0.7802100000000000    0.3633100000000000    0.0973200000000000 O
   0.8939100000000000    0.3980700000000000    0.1628650000000000 O
   0.4741900000000000    0.8645100000000000    0.0027750000000000 O
   0.3721800000000000    0.9238200000000000    0.0277000000000000 O
   0.4512100000000000    0.6877200000000000    0.9212400000000001 O
   0.6027200000000000    0.8498200000000000    0.9446000000000000 O
   0.2197900000000000    0.6367200000000000    0.9026700000000000 O
   0.1060800000000000    0.6019500000000000    0.8371000000000000 O
   0.5258100000000000    0.1355100000000000    0.9972150000000000 O
   0.6278200000000000    0.0762000000000000    0.9722950000000000 O
   0.3115500000000000    0.5484100000000000    0.8284500000000000 O
   0.1497600000000000    0.3965100000000000    0.8049850000000001 O
   0.3630000000000000    0.7799700000000001    0.8472000000000000 O
   0.3974500000000000    0.8936600000000000    0.9127000000000001 O
   0.8650099999999999    0.4746700000000000    0.7530300000000000 O
   0.9235200000000000    0.3716500000000000    0.7775350000000000 O
   0.5487900000000000    0.3123000000000000    0.5787500000000000 O
   0.3972700000000000    0.1502000000000000    0.5553900000000001 O
   0.7802100000000000    0.3633100000000000    0.5973200000000000 O
   0.8939100000000000    0.3980700000000000    0.6628650000000000 O
   0.4741900000000000    0.8645100000000000    0.5027750000000000 O
   0.3721800000000000    0.9238200000000000    0.5276999999999999 O
   0.6884500000000000    0.4516200000000000    0.6715000000000000 O
   0.8502400000000000    0.6035100000000000    0.6950050000000000 O
   0.6369899999999999    0.2200600000000000    0.6527950000000000 O
   0.6025500000000000    0.1063600000000000    0.5872950000000000 O
   0.1349900000000000    0.5253600000000000    0.7469650000000000 O
   0.0764800000000000    0.6283800000000000    0.7224600000000000 O
