H6 O4
1.0
  25.1431631513231686    0.0000000000000000    0.5863844693924797
   0.8671060416900436   12.8340739325728990    0.3071846443386340
   0.0000000000000000    0.0000000000000000   29.0279999999999987
H O
6 4
direct
   0.2519705060585142    0.4320048562297708    0.8961725263494069 H
   0.2847419503632201    0.4933252010102758    0.8535564991685257 H
   0.4103351421470057    0.9786668855430739    0.8646599008684893 H
   0.3907873370586549    0.2504657869941328    0.8759546551176158 H
   0.4475894690344679    0.1934221104691892    0.8775268979243275 H
   0.5190508732732609    0.1736585554979239    0.8848511391080901 H
   0.2540850000000000    0.4917900000000000    0.8748899999999999 O
   0.3820800000000000    0.9319400000000000    0.8593700000000000 O
   0.4286700000000000    0.2624200000000000    0.8779350000000000 O
   0.5370549999999999    0.2369900000000000    0.8906450000000000 O
