H5 C10 N3 O4
1.0
  25.1431631513231686    0.0000000000000000    0.5863844693924797
   0.8671060416900436   12.8340739325728990    0.3071846443386340
   0.0000000000000000    0.0000000000000000   29.0279999999999987
H C N O
5 10 3 4
direct
   0.2028350000000000    0.4404700000000000    0.6787250000000000 H
   0.1288850000000000    0.5777500000000000    0.6787799999999999 H
   0.2832350000000000    0.5903800000000000    0.5722000000000000 H
   0.2152650000000000    0.7388300000000000    0.5709050000000000 H
   0.0000000000000000    0.0104600000000000    0.6267350000000000 H
   0.0448350000000000    0.8338900000000000    0.6225150000000000 C
   0.0000000000000000    0.8458800000000000    0.6169850000000000 C
   0.2034100000000000    0.5059800000000000    0.6543350000000000 C
   0.1621750000000000    0.5833700000000001    0.6544250000000000 C
   0.0824050000000000    0.9074800000000000    0.6269550000000000 C
   0.0766300000000000    0.0199600000000000    0.6335999999999999 C
   0.2493200000000000    0.5917000000000000    0.5962200000000000 C
   0.2111100000000000    0.6748100000000000    0.5956100000000000 C
   0.1237900000000000    0.7541700000000000    0.6244650000000000 C
   0.1660750000000000    0.6703600000000000    0.6248000000000000 C
   0.0712950000000000    0.7375900000000000    0.6215800000000000 N
   0.1321300000000000    0.8564700000000000    0.6274700000000000 N
   0.2461350000000000    0.5087500000000000    0.6253400000000000 N
   0.1178550000000000    0.0678800000000000    0.6409700000000000 O
   0.0293000000000000    0.0670200000000000    0.6325550000000000 O
   0.9628749999999999    0.7630800000000000    0.6091050000000000 O
   0.9632250000000000    0.9366000000000000    0.6196900000000000 O
