H6 O4
1.0
  25.1431631513231686    0.0000000000000000    0.5863844693924797
   0.8671060416900436   12.8340739325728990    0.3071846443386340
   0.0000000000000000    0.0000000000000000   29.0279999999999987
H O
6 4
direct
   0.2151941838542883    0.5067440067706583    0.6463377522327656 H
   0.2484417868802094    0.5688278561109485    0.6042493770952282 H
   0.0860064182105772    0.0308591621746721    0.6352762693077489 H
   0.0523485986277719    0.8065445900281771    0.6222494967983007 H
   0.1091665779250600    0.7495513441660633    0.6236613315994628 H
   0.9872800303786157    0.8175106132080640    0.6142851114985453 H
   0.2461350000000000    0.5087500000000000    0.6253400000000000 O
   0.1178550000000000    0.0678799999999999    0.6409700000000000 O
   0.0712950000000000    0.7375900000000000    0.6215800000000000 O
   0.9628749999999999    0.7630800000000000    0.6091050000000000 O
