H2 O2
1.0
  14.9845028243144682    0.0000000000000000    4.2772145267816262
  -7.4498092947070207   12.5146307726658161    5.6645818112498585
   0.0000000000000000    0.0000000000000000   15.6720000000000006
H O
2 2
direct
   0.6672868660222533    0.7012903753225161    0.4516666727432021 H
   0.5329286902550633    0.6319880364626288    0.4552646651113530 H
   0.6807800000000001    0.7216800000000000    0.3804200000000000 O
   0.5857000000000000    0.6720000000000000    0.3829300000000000 O
