Cu16 H42 C28 I8 N21
1.0
  14.9845028243144682    0.0000000000000000    4.2772145267816262
  -7.4498092947070207   12.5146307726658161    5.6645818112498585
   0.0000000000000000    0.0000000000000000   15.6720000000000006
Cu H C I N
16 42 28 8 21
direct
   0.2439100000000000    0.9363700000000000    0.0638300000000000 Cu
   0.5892800000000000    0.6913500000000000    0.2481100000000000 Cu
   0.5013200000000000    0.5656099999999999    0.6903899999999999 Cu
   0.2516400000000000    0.1648800000000000    0.9371200000000000 Cu
   0.8091300000000000    0.8113899999999999    0.2564000000000000 Cu
   0.3964400000000000    0.3369000000000000    0.9099800000000000 Cu
   0.4364400000000000    0.6929200000000000    0.9977900000000000 Cu
   0.4381700000000000    0.1913000000000000    0.8974400000000000 Cu
   0.7561099999999999    0.0636600000000000    0.9361000000000000 Cu
   0.4107400000000000    0.3086700000000000    0.7518899999999999 Cu
   0.4986900000000000    0.4344100000000000    0.3096000000000000 Cu
   0.7483700000000000    0.8351400000000000    0.0628700000000000 Cu
   0.1908800000000000    0.1886400000000000    0.7435600000000000 Cu
   0.6035500000000000    0.6631300000000000    0.0900200000000000 Cu
   0.5635700000000000    0.3071100000000000    0.0000000000000000 Cu
   0.5618400000000000    0.8087299999999999    0.1025600000000000 Cu
   0.2734800000000000    0.7136600000000000    0.9677400000000000 H
   0.2818900000000000    0.8405899999999999    0.9126800000000000 H
   0.1803300000000000    0.7359800000000000    0.0377000000000000 H
   0.4962100000000000    0.9556100000000000    0.1606200000000000 H
   0.3606500000000000    0.8983500000000000    0.2364600000000000 H
   0.4298900000000000    0.0210500000000000    0.1172600000000000 H
   0.0619500000000000    0.7454900000000000    0.2279300000000000 H
   0.9438600000000000    0.6979500000000000    0.2185300000000000 H
   0.9462300000000000    0.7232300000000000    0.3195000000000000 H
   0.0406500000000000    0.1599500000000000    0.0040800000000000 H
   0.9600500000000000    0.0990600000000000    0.1388400000000000 H
   0.9097700000000000    0.0512100000000000    0.0665300000000000 H
   0.5318700000000000    0.7588200000000001    0.6803000000000000 H
   0.5885100000000000    0.8050700000000000    0.7514200000000000 H
   0.4628800000000000    0.7827200000000000    0.7722700000000000 H
   0.3387200000000000    0.3445500000000000    0.1146000000000000 H
   0.2628300000000000    0.4047300000000000    0.1325700000000000 H
   0.3827100000000000    0.4540500000000000    0.1361700000000000 H
   0.7265300000000000    0.2863700000000000    0.0000000000000000 H
   0.7181300000000000    0.1594400000000000    0.0873200000000000 H
   0.8196800000000000    0.2640500000000000    0.9622700000000000 H
   0.5038000000000000    0.0444200000000000    0.8393800000000000 H
   0.6393600000000000    0.1016800000000000    0.7635400000000000 H
   0.5701200000000000    0.9789800000000000    0.8827400000000000 H
   0.1802500000000000    0.2121900000000000    0.5600000000000001 H
   0.2519500000000000    0.3387700000000000    0.4420100000000000 H
   0.2726400000000000    0.2334700000000000    0.4458200000000000 H
   0.6156500000000000    0.4544800000000000    0.5412200000000000 H
   0.6353000000000000    0.3981700000000000    0.4623500000000000 H
   0.6370300000000000    0.5205100000000000    0.4105400000000000 H
   0.9380600000000000    0.2545400000000000    0.7720000000000000 H
   0.0561600000000000    0.3020800000000000    0.7814000000000000 H
   0.0537800000000000    0.2768000000000000    0.6805099999999999 H
   0.9593600000000000    0.8400800000000000    0.9959000000000000 H
   0.0399500000000000    0.9009700000000000    0.8611000000000000 H
   0.0902400000000000    0.9488200000000000    0.9334700000000000 H
   0.4681500000000000    0.2412100000000000    0.3196500000000000 H
   0.4115100000000000    0.1949600000000000    0.2485800000000000 H
   0.5371300000000000    0.2173100000000000    0.2277000000000000 H
   0.6612900000000000    0.6554900000000000    0.8854000000000000 H
   0.7371799999999999    0.5953100000000000    0.8674300000000000 H
   0.6173100000000000    0.5459800000000000    0.8638300000000000 H
   0.4016000000000000    0.8839700000000000    0.1031300000000000 C
   0.3295800000000000    0.8080700000000000    0.0305400000000000 C
   0.2626500000000000    0.7724500000000000    0.9846000000000000 C
   0.4238700000000000    0.9435300000000000    0.1569300000000000 C
   0.0175700000000000    0.0075900000000000    0.0977000000000000 C
   0.0225300000000000    0.8635500000000000    0.1704000000000000 C
   0.9921500000000000    0.7513300000000001    0.2370000000000000 C
   0.9800400000000000    0.0838200000000000    0.0749500000000000 C
   0.3964600000000000    0.4962200000000000    0.9854200000000000 C
   0.4694000000000000    0.6403600000000000    0.8371400000000000 C
   0.5157600000000000    0.7529700000000000    0.7556000000000000 C
   0.3426200000000000    0.4205500000000000    0.0985000000000000 C
   0.5984100000000000    0.1160600000000000    0.8968699999999999 C
   0.6704300000000000    0.1919600000000000    0.9694000000000000 C
   0.7373600000000000    0.2275800000000000    0.0000000000000000 C
   0.5761400000000000    0.0565000000000000    0.8430700000000000 C
   0.4864400000000000    0.3827200000000000    0.5181800000000000 C
   0.3376800000000000    0.3062300000000000    0.5221700000000000 C
   0.2559300000000000    0.2705300000000000    0.4909700000000000 C
   0.5999500000000000    0.4427800000000000    0.4810900000000000 C
   0.9824400000000000    0.9924400000000000    0.9022000000000000 C
   0.9774800000000000    0.1364800000000000    0.8296000000000000 C
   0.0078600000000000    0.2487000000000000    0.7622100000000001 C
   0.0199700000000000    0.9162100000000000    0.9250500000000000 C
   0.6035500000000000    0.5038100000000000    0.0000000000000000 C
   0.5306100000000000    0.3596700000000000    0.1628600000000000 C
   0.4842500000000000    0.2470500000000000    0.2444000000000000 C
   0.6573900000000000    0.5794800000000000    0.9014799999999999 C
   0.4131600000000000    0.5805200000000000    0.2508700000000000 I
   0.6700199999999999    0.9201300000000000    0.1673000000000000 I
   0.3328100000000000    0.1651300000000000    0.0859000000000000 I
   0.2487200000000000    0.3378100000000000    0.8288900000000000 I
   0.5868500000000000    0.4195100000000000    0.7491400000000000 I
   0.3299900000000000    0.0799000000000000    0.8327000000000000 I
   0.6672000000000000    0.8349000000000000    0.9141000000000000 I
   0.7513000000000000    0.6622200000000000    0.1711100000000000 I
   0.4466800000000000    0.8295200000000000    0.0852600000000000 N
   0.3285100000000000    0.8734400000000000    0.0689000000000000 N
   0.3998700000000000    0.7802900000000000    0.0395700000000000 N
   0.1168100000000000    0.0341400000000000    0.0526000000000000 N
   0.9558400000000000    0.9010200000000000    0.1712000000000000 N
   0.1199000000000000    0.9420300000000000    0.0998300000000000 N
   0.4141300000000000    0.4689200000000000    0.9135600000000000 N
   0.4310300000000000    0.6032700000000000    0.9405500000000000 N
   0.4600300000000000    0.5611100000000000    0.8187700000000000 N
   0.5533300000000000    0.1705100000000000    0.9147000000000000 N
   0.6715000000000000    0.1265900000000000    0.9310600000000000 N
   0.6001400000000000    0.2197400000000000    0.9604300000000000 N
   0.4143100000000000    0.3280300000000000    0.6170700000000000 N
   0.4414100000000000    0.3719600000000000    0.4561000000000000 N
   0.3192300000000000    0.2783500000000000    0.6195800000000000 N
   0.8832000000000000    0.9658900000000000    0.9474000000000000 N
   0.0441700000000000    0.0990100000000000    0.8288100000000000 N
   0.8801099999999999    0.0580000000000000    0.9001700000000000 N
   0.5858800000000000    0.5311100000000000    0.0864400000000000 N
   0.5689800000000000    0.3967600000000000    0.0594500000000000 N
   0.5399800000000000    0.4389200000000000    0.1812300000000000 N
