Y32 P31 H226 C155 N31 O223
1.0
  35.6757975978590025    0.0000000000000000   -0.1201738598777350
  -0.0291085900901343   10.1034573897671400   -0.0037031260775704
   0.0000000000000000    0.0000000000000000   30.1020000000000003
Y P H C N O
32 31 226 155 31 223
direct
   0.4205750000000000    0.0594900000000000    0.6956300000000000 Y
   0.6705750000000000    0.0594900000000000    0.6956300000000000 Y
   0.9205750000000000    0.0594900000000000    0.6956300000000000 Y
   0.1705750000000000    0.0594900000000000    0.6956300000000000 Y
   0.0451125000000000    0.9400200000000000    0.5548550000000000 Y
   0.2951125000000000    0.9400200000000000    0.5548550000000000 Y
   0.5451125000000000    0.9400200000000000    0.5548550000000000 Y
   0.7951125000000000    0.9400200000000000    0.5548550000000000 Y
   0.7036525000000000    0.5599700000000000    0.3055900000000000 Y
   0.4536525000000000    0.5599700000000000    0.3055900000000000 Y
   0.2036525000000000    0.5599700000000000    0.3055900000000000 Y
   0.9536525000000000    0.5599700000000000    0.3055900000000000 Y
   0.5788575000000000    0.4401000000000000    0.4458050000000000 Y
   0.0788575000000000    0.4401000000000000    0.4458050000000000 Y
   0.3288575000000000    0.4401000000000000    0.4458050000000000 Y
   0.8288575000000000    0.4401000000000000    0.4458050000000000 Y
   0.2036525000000000    0.5599700000000000    0.8055900000000000 Y
   0.4536525000000000    0.5599700000000000    0.8055900000000000 Y
   0.7036525000000000    0.5599700000000000    0.8055900000000000 Y
   0.9536525000000000    0.5599700000000000    0.8055900000000000 Y
   0.3288575000000000    0.4401000000000000    0.9458050000000000 Y
   0.0788575000000000    0.4401000000000000    0.9458050000000000 Y
   0.5788575000000000    0.4401000000000000    0.9458050000000000 Y
   0.8288575000000000    0.4401000000000000    0.9458050000000000 Y
   0.1705750000000000    0.0594900000000000    0.1956300000000000 Y
   0.4205750000000000    0.0594900000000000    0.1956300000000000 Y
   0.6705750000000000    0.0594900000000000    0.1956300000000000 Y
   0.9205750000000000    0.0594900000000000    0.1956300000000000 Y
   0.0451125000000000    0.9400200000000000    0.0548550000000000 Y
   0.2951125000000000    0.9400200000000000    0.0548550000000000 Y
   0.5451125000000000    0.9400200000000000    0.0548550000000000 Y
   0.7951125000000000    0.9400200000000000    0.0548550000000000 Y
   0.6246300000000000    0.8647100000000000    0.6081700000000000 P
   0.8746300000000000    0.8647100000000000    0.6081700000000000 P
   0.1246300000000000    0.8647100000000000    0.6081700000000000 P
   0.3746300000000000    0.8647100000000000    0.6081700000000000 P
   0.2500350000000000    0.1351800000000000    0.6423950000000000 P
   0.0000350000000000    0.1351800000000000    0.6423950000000000 P
   0.5000350000000000    0.1351800000000000    0.6423950000000000 P
   0.7500350000000000    0.1351800000000000    0.6423950000000000 P
   0.9989850000000000    0.3647400000000000    0.3929450000000000 P
   0.7489850000000000    0.3647400000000000    0.3929450000000000 P
   0.4989850000000000    0.3647400000000000    0.3929450000000000 P
   0.2489850000000000    0.3647400000000000    0.3929450000000000 P
   0.1241550000000000    0.6354800000000000    0.3584000000000000 P
   0.3741550000000000    0.6354800000000000    0.3584000000000000 P
   0.6241550000000000    0.6354800000000000    0.3584000000000000 P
   0.8741550000000000    0.6354800000000000    0.3584000000000000 P
   0.9989850000000000    0.3647400000000000    0.8929450000000000 P
   0.4989850000000000    0.3647400000000000    0.8929450000000000 P
   0.7489850000000000    0.3647400000000000    0.8929450000000000 P
   0.1241550000000000    0.6354800000000000    0.8584000000000001 P
   0.8741550000000000    0.6354800000000000    0.8584000000000001 P
   0.3741550000000000    0.6354800000000000    0.8584000000000001 P
   0.6241550000000000    0.6354800000000000    0.8584000000000001 P
   0.6246300000000000    0.8647100000000000    0.1081700000000000 P
   0.8746300000000000    0.8647100000000000    0.1081700000000000 P
   0.3746300000000000    0.8647100000000000    0.1081700000000000 P
   0.1246300000000000    0.8647100000000000    0.1081700000000000 P
   0.0000350000000000    0.1351800000000000    0.1423950000000000 P
   0.2500350000000000    0.1351800000000000    0.1423950000000000 P
   0.7500350000000000    0.1351800000000000    0.1423950000000000 P
   0.5000350000000000    0.1351800000000000    0.1423950000000000 P
   0.6727775000000000    0.7301299999999999    0.5899050000000000 H
   0.8405650000000000    0.5688800000000001    0.5947300000000000 H
   0.7928925000000000    0.5483600000000000    0.5827950000000000 H
   0.8265325000000000    0.8504300000000000    0.6623749999999999 H
   0.8486975000000000    0.6934000000000000    0.6574650000000000 H
   0.7675475000000000    0.7999600000000000    0.6564250000000000 H
   0.7683525000000000    0.6256900000000000    0.6482050000000000 H
   0.9227775000000000    0.7301299999999999    0.5899050000000000 H
   0.0905650000000000    0.5688800000000001    0.5947300000000000 H
   0.0428925000000000    0.5483600000000000    0.5827950000000000 H
   0.0765325000000000    0.8504300000000000    0.6623749999999999 H
   0.0986975000000000    0.6934000000000000    0.6574650000000000 H
   0.0175475000000000    0.7999600000000000    0.6564250000000000 H
   0.0183525000000000    0.6256900000000000    0.6482050000000000 H
   0.1727775000000000    0.7301299999999999    0.5899050000000000 H
   0.3405650000000000    0.5688800000000001    0.5947300000000000 H
   0.2928925000000000    0.5483600000000000    0.5827950000000000 H
   0.3265325000000000    0.8504300000000000    0.6623749999999999 H
   0.3486975000000000    0.6934000000000000    0.6574650000000000 H
   0.2675475000000000    0.7999600000000000    0.6564250000000000 H
   0.2683525000000000    0.6256900000000000    0.6482050000000000 H
   0.4227775000000000    0.7301299999999999    0.5899050000000000 H
   0.5905650000000000    0.5688800000000001    0.5947300000000000 H
   0.5428925000000000    0.5483600000000000    0.5827950000000000 H
   0.5765325000000000    0.8504300000000000    0.6623749999999999 H
   0.5986975000000000    0.6934000000000000    0.6574650000000000 H
   0.5175475000000000    0.7999600000000000    0.6564250000000000 H
   0.5183525000000000    0.6256900000000000    0.6482050000000000 H
   0.2986075000000000    0.2694900000000000    0.6606100000000000 H
   0.4673500000000000    0.4283400000000000    0.6569199999999999 H
   0.4197000000000000    0.4536100000000000    0.6672500000000000 H
   0.4516300000000000    0.1500800000000000    0.5882800000000000 H
   0.4740875000000000    0.3070200000000000    0.5932400000000000 H
   0.3928950000000000    0.2016600000000000    0.5940000000000000 H
   0.3940200000000000    0.3756700000000000    0.6027500000000000 H
   0.0486075000000000    0.2694900000000000    0.6606100000000000 H
   0.2173500000000000    0.4283400000000000    0.6569199999999999 H
   0.1697000000000000    0.4536100000000000    0.6672500000000000 H
   0.2016300000000000    0.1500800000000000    0.5882800000000000 H
   0.2240875000000000    0.3070200000000000    0.5932400000000000 H
   0.1428950000000000    0.2016600000000000    0.5940000000000000 H
   0.1440200000000000    0.3756700000000000    0.6027500000000000 H
   0.5486075000000000    0.2694900000000000    0.6606100000000000 H
   0.7173499999999999    0.4283400000000000    0.6569199999999999 H
   0.6697000000000000    0.4536100000000000    0.6672500000000000 H
   0.7016300000000000    0.1500800000000000    0.5882800000000000 H
   0.7240875000000000    0.3070200000000000    0.5932400000000000 H
   0.6428950000000000    0.2016600000000000    0.5940000000000000 H
   0.6440200000000000    0.3756700000000000    0.6027500000000000 H
   0.7986075000000000    0.2694900000000000    0.6606100000000000 H
   0.9673499999999999    0.4283400000000000    0.6569199999999999 H
   0.9197000000000000    0.4536100000000000    0.6672500000000000 H
   0.9516300000000000    0.1500800000000000    0.5882800000000000 H
   0.9740875000000000    0.3070200000000000    0.5932400000000000 H
   0.8928950000000000    0.2016600000000000    0.5940000000000000 H
   0.8940200000000000    0.3756700000000000    0.6027500000000000 H
   0.9507575000000000    0.2300700000000000    0.4109050000000000 H
   0.7823875000000000    0.0704500000000000    0.4060100000000000 H
   0.8301025000000000    0.0476000000000000    0.4168250000000000 H
   0.7968700000000000    0.3517900000000000    0.3384500000000000 H
   0.7745649999999999    0.1944900000000000    0.3430750000000000 H
   0.8559325000000000    0.3005900000000000    0.3438750000000000 H
   0.8548750000000001    0.1262700000000000    0.3520300000000000 H
   0.7007575000000000    0.2300700000000000    0.4109050000000000 H
   0.5323875000000000    0.0704500000000000    0.4060100000000000 H
   0.5801025000000000    0.0476000000000000    0.4168250000000000 H
   0.5468700000000000    0.3517900000000000    0.3384500000000000 H
   0.5245649999999999    0.1944900000000000    0.3430750000000000 H
   0.6059325000000000    0.3005900000000000    0.3438750000000000 H
   0.6048750000000001    0.1262700000000000    0.3520300000000000 H
   0.4507575000000000    0.2300700000000000    0.4109050000000000 H
   0.2823875000000000    0.0704500000000000    0.4060100000000000 H
   0.3301025000000000    0.0476000000000000    0.4168250000000000 H
   0.2968700000000000    0.3517900000000000    0.3384500000000000 H
   0.2745650000000000    0.1944900000000000    0.3430750000000000 H
   0.3559325000000000    0.3005900000000000    0.3438750000000000 H
   0.3548750000000000    0.1262700000000000    0.3520300000000000 H
   0.2007575000000000    0.2300700000000000    0.4109050000000000 H
   0.0323875000000000    0.0704500000000000    0.4060100000000000 H
   0.0801025000000000    0.0476000000000000    0.4168250000000000 H
   0.0468700000000000    0.3517900000000000    0.3384500000000000 H
   0.0245650000000000    0.1944900000000000    0.3430750000000000 H
   0.1059325000000000    0.3005900000000000    0.3438750000000000 H
   0.1048750000000000    0.1262700000000000    0.3520300000000000 H
   0.0759325000000000    0.7700800000000000    0.3407050000000000 H
   0.9078650000000000    0.9298999999999999    0.3447550000000000 H
   0.9556025000000000    0.9529600000000000    0.3342000000000000 H
   0.9224375000000000    0.6492900000000000    0.4127950000000000 H
   0.9002500000000000    0.8063200000000000    0.4080200000000000 H
   0.9812850000000000    0.7006000000000000    0.4075050000000000 H
   0.9805375000000001    0.8747900000000000    0.3991450000000000 H
   0.3259325000000000    0.7700800000000000    0.3407050000000000 H
   0.1578650000000000    0.9298999999999999    0.3447550000000000 H
   0.2056025000000000    0.9529600000000000    0.3342000000000000 H
   0.1724375000000000    0.6492900000000000    0.4127950000000000 H
   0.1502500000000000    0.8063200000000000    0.4080200000000000 H
   0.2312850000000000    0.7006000000000000    0.4075050000000000 H
   0.2305375000000000    0.8747900000000000    0.3991450000000000 H
   0.5759325000000000    0.7700800000000000    0.3407050000000000 H
   0.4078650000000000    0.9298999999999999    0.3447550000000000 H
   0.4556025000000000    0.9529600000000000    0.3342000000000000 H
   0.4224375000000000    0.6492900000000000    0.4127950000000000 H
   0.4002500000000000    0.8063200000000000    0.4080200000000000 H
   0.4812850000000000    0.7006000000000000    0.4075050000000000 H
   0.4805375000000000    0.8747900000000000    0.3991450000000000 H
   0.8259325000000000    0.7700800000000000    0.3407050000000000 H
   0.6578650000000000    0.9298999999999999    0.3447550000000000 H
   0.7056025000000000    0.9529600000000000    0.3342000000000000 H
   0.6724375000000000    0.6492900000000000    0.4127950000000000 H
   0.6502500000000000    0.8063200000000000    0.4080200000000000 H
   0.7312850000000000    0.7006000000000000    0.4075050000000000 H
   0.7305375000000001    0.8747900000000000    0.3991450000000000 H
   0.1991354280365580    0.3835474040207708    0.8557473952461487 H
   0.2146683948591457    0.3562138089387666    0.9158452789435074 H
   0.2660383380228817    0.4246372574804823    0.9522985955444251 H
   0.0323875000000000    0.0704500000000000    0.9060100000000000 H
   0.0801025000000000    0.0476000000000000    0.9168250000000000 H
   0.0468700000000000    0.3517900000000000    0.8384499999999999 H
   0.0245650000000000    0.1944900000000000    0.8430750000000000 H
   0.1059325000000000    0.3005900000000000    0.8438749999999999 H
   0.1048750000000000    0.1262700000000000    0.8520300000000001 H
   0.9507575000000000    0.2300700000000000    0.9109050000000001 H
   0.7823875000000000    0.0704500000000000    0.9060100000000000 H
   0.8301025000000000    0.0476000000000000    0.9168250000000000 H
   0.7968700000000000    0.3517900000000000    0.8384499999999999 H
   0.7745649999999999    0.1944900000000000    0.8430750000000000 H
   0.8559325000000000    0.3005900000000000    0.8438749999999999 H
   0.8548750000000001    0.1262700000000000    0.8520300000000001 H
   0.4507575000000000    0.2300700000000000    0.9109050000000001 H
   0.7007575000000000    0.2300700000000000    0.9109050000000001 H
   0.5323875000000000    0.0704500000000000    0.9060100000000000 H
   0.5801025000000000    0.0476000000000000    0.9168250000000000 H
   0.5468700000000000    0.3517900000000000    0.8384499999999999 H
   0.5245649999999999    0.1944900000000000    0.8430750000000000 H
   0.6059325000000000    0.3005900000000000    0.8438749999999999 H
   0.6048750000000001    0.1262700000000000    0.8520300000000001 H
   0.0759325000000000    0.7700800000000000    0.8407050000000000 H
   0.9078650000000000    0.9298999999999999    0.8447549999999999 H
   0.9556025000000000    0.9529600000000000    0.8342000000000001 H
   0.9224375000000000    0.6492900000000000    0.9127950000000000 H
   0.9002500000000000    0.8063200000000000    0.9080200000000000 H
   0.9812850000000000    0.7006000000000000    0.9075050000000000 H
   0.9805375000000001    0.8747900000000000    0.8991450000000001 H
   0.8259325000000000    0.7700800000000000    0.8407050000000000 H
   0.6578650000000000    0.9298999999999999    0.8447549999999999 H
   0.7056025000000000    0.9529600000000000    0.8342000000000001 H
   0.6724375000000000    0.6492900000000000    0.9127950000000000 H
   0.6502500000000000    0.8063200000000000    0.9080200000000000 H
   0.7312850000000000    0.7006000000000000    0.9075050000000000 H
   0.7305375000000001    0.8747900000000000    0.8991450000000001 H
   0.3259325000000000    0.7700800000000000    0.8407050000000000 H
   0.3074163876573549    0.6763982509078199    0.8376645267366444 H
   0.1578650000000000    0.9298999999999999    0.8447549999999999 H
   0.2056025000000000    0.9529600000000000    0.8342000000000001 H
   0.1724375000000000    0.6492900000000000    0.9127950000000000 H
   0.1502500000000000    0.8063200000000000    0.9080200000000000 H
   0.2312850000000000    0.7006000000000000    0.9075050000000000 H
   0.2305375000000000    0.8747900000000000    0.8991450000000001 H
   0.5759325000000000    0.7700800000000000    0.8407050000000000 H
   0.4078650000000000    0.9298999999999999    0.8447549999999999 H
   0.4556025000000000    0.9529600000000000    0.8342000000000001 H
   0.4224375000000000    0.6492900000000000    0.9127950000000000 H
   0.4002500000000000    0.8063200000000000    0.9080200000000000 H
   0.4812850000000000    0.7006000000000000    0.9075050000000000 H
   0.4805375000000000    0.8747900000000000    0.8991450000000001 H
   0.3118192682310940    0.1981499817233851    0.9600906366976943 H
   0.2898376458370331    1.1136457564319802    0.9677836561891054 H
   0.3850528562804512    0.2609622195466532    0.9085467142432856 H
   0.2964671212452674    0.2655911245978527    0.8725305233327423 H
   0.3407510812768137    0.2283803902206436    0.8770584362910588 H
   0.6727775000000000    0.7301299999999999    0.0899050000000000 H
   0.8405650000000000    0.5688800000000001    0.0947300000000000 H
   0.7928925000000000    0.5483600000000000    0.0827950000000000 H
   0.8265325000000000    0.8504300000000000    0.1623750000000000 H
   0.8486975000000000    0.6934000000000000    0.1574650000000000 H
   0.7675475000000000    0.7999600000000000    0.1564250000000000 H
   0.7683525000000000    0.6256900000000000    0.1482050000000000 H
   0.9227775000000000    0.7301299999999999    0.0899050000000000 H
   0.0905650000000000    0.5688800000000001    0.0947300000000000 H
   0.0428925000000000    0.5483600000000000    0.0827950000000000 H
   0.0765325000000000    0.8504300000000000    0.1623750000000000 H
   0.0986975000000000    0.6934000000000000    0.1574650000000000 H
   0.0175475000000000    0.7999600000000000    0.1564250000000000 H
   0.0183525000000000    0.6256900000000000    0.1482050000000000 H
   0.4227775000000000    0.7301299999999999    0.0899050000000000 H
   0.5905650000000000    0.5688800000000001    0.0947300000000000 H
   0.5428925000000000    0.5483600000000000    0.0827950000000000 H
   0.5765325000000000    0.8504300000000000    0.1623750000000000 H
   0.5986975000000000    0.6934000000000000    0.1574650000000000 H
   0.5175475000000000    0.7999600000000000    0.1564250000000000 H
   0.5183525000000000    0.6256900000000000    0.1482050000000000 H
   0.1727775000000000    0.7301299999999999    0.0899050000000000 H
   0.3405650000000000    0.5688800000000001    0.0947300000000000 H
   0.2928925000000000    0.5483600000000000    0.0827950000000000 H
   0.3265325000000000    0.8504300000000000    0.1623750000000000 H
   0.3486975000000000    0.6934000000000000    0.1574650000000000 H
   0.2675475000000000    0.7999600000000000    0.1564250000000000 H
   0.2683525000000000    0.6256900000000000    0.1482050000000000 H
   0.0486075000000000    0.2694900000000000    0.1606100000000000 H
   0.2173500000000000    0.4283400000000000    0.1569200000000000 H
   0.1697000000000000    0.4536100000000000    0.1672500000000000 H
   0.2016300000000000    0.1500800000000000    0.0882800000000000 H
   0.2240875000000000    0.3070200000000000    0.0932400000000000 H
   0.1428950000000000    0.2016600000000000    0.0940000000000000 H
   0.1440200000000000    0.3756700000000000    0.1027500000000000 H
   0.2986075000000000    0.2694900000000000    0.1606100000000000 H
   0.4673500000000000    0.4283400000000000    0.1569200000000000 H
   0.4197000000000000    0.4536100000000000    0.1672500000000000 H
   0.4516300000000000    0.1500800000000000    0.0882800000000000 H
   0.4740875000000000    0.3070200000000000    0.0932400000000000 H
   0.3928950000000000    0.2016600000000000    0.0940000000000000 H
   0.3940200000000000    0.3756700000000000    0.1027500000000000 H
   0.7986075000000000    0.2694900000000000    0.1606100000000000 H
   0.9673499999999999    0.4283400000000000    0.1569200000000000 H
   0.9197000000000000    0.4536100000000000    0.1672500000000000 H
   0.9516300000000000    0.1500800000000000    0.0882800000000000 H
   0.9740875000000000    0.3070200000000000    0.0932400000000000 H
   0.8928950000000000    0.2016600000000000    0.0940000000000000 H
   0.8940200000000000    0.3756700000000000    0.1027500000000000 H
   0.5486075000000000    0.2694900000000000    0.1606100000000000 H
   0.7173499999999999    0.4283400000000000    0.1569200000000000 H
   0.6697000000000000    0.4536100000000000    0.1672500000000000 H
   0.7016300000000000    0.1500800000000000    0.0882800000000000 H
   0.7240875000000000    0.3070200000000000    0.0932400000000000 H
   0.6428950000000000    0.2016600000000000    0.0940000000000000 H
   0.6440200000000000    0.3756700000000000    0.1027500000000000 H
   0.7373175000000000    0.7414600000000000    0.5993900000000000 C
   0.8226625000000000    0.6472500000000000    0.5320250000000000 C
   0.8160175000000001    0.6204900000000000    0.5811600000000000 C
   0.8375049999999999    0.7780500000000000    0.6384850000000000 C
   0.7704225000000000    0.7218700000000000    0.6311450000000001 C
   0.9873175000000000    0.7414600000000000    0.5993900000000000 C
   0.0726625000000000    0.6472500000000000    0.5320250000000000 C
   0.0660175000000000    0.6204900000000000    0.5811600000000000 C
   0.0875050000000000    0.7780500000000000    0.6384850000000000 C
   0.0204225000000000    0.7218700000000000    0.6311450000000001 C
   0.2373175000000000    0.7414600000000000    0.5993900000000000 C
   0.3226625000000000    0.6472500000000000    0.5320250000000000 C
   0.3160175000000000    0.6204900000000000    0.5811600000000000 C
   0.3375050000000000    0.7780500000000000    0.6384850000000000 C
   0.2704225000000000    0.7218700000000000    0.6311450000000001 C
   0.4873175000000000    0.7414600000000000    0.5993900000000000 C
   0.5726625000000000    0.6472500000000000    0.5320250000000000 C
   0.5660175000000001    0.6204900000000000    0.5811600000000000 C
   0.5875049999999999    0.7780500000000000    0.6384850000000000 C
   0.5204225000000000    0.7218700000000000    0.6311450000000001 C
   0.3629150000000000    0.2586000000000000    0.6510600000000000 C
   0.4479575000000000    0.3525900000000000    0.7190850000000000 C
   0.4421000000000000    0.3793300000000000    0.6697550000000000 C
   0.4628750000000000    0.2223200000000000    0.6122050000000000 C
   0.3959725000000000    0.2790500000000000    0.6195349999999999 C
   0.1129150000000000    0.2586000000000000    0.6510600000000000 C
   0.1979575000000000    0.3525900000000000    0.7190850000000000 C
   0.1921000000000000    0.3793300000000000    0.6697550000000000 C
   0.2128750000000000    0.2223200000000000    0.6122050000000000 C
   0.1459725000000000    0.2790500000000000    0.6195349999999999 C
   0.6129150000000000    0.2586000000000000    0.6510600000000000 C
   0.6979575000000000    0.3525900000000000    0.7190850000000000 C
   0.6920999999999999    0.3793300000000000    0.6697550000000000 C
   0.7128750000000000    0.2223200000000000    0.6122050000000000 C
   0.6459725000000001    0.2790500000000000    0.6195349999999999 C
   0.8629150000000000    0.2586000000000000    0.6510600000000000 C
   0.9479575000000000    0.3525900000000000    0.7190850000000000 C
   0.9420999999999999    0.3793300000000000    0.6697550000000000 C
   0.9628750000000000    0.2223200000000000    0.6122050000000000 C
   0.8959725000000001    0.2790500000000000    0.6195349999999999 C
   0.8861900000000000    0.2418900000000000    0.4008400000000000 C
   0.8015050000000000    0.1465000000000000    0.4684850000000000 C
   0.8073950000000000    0.1207100000000000    0.4191700000000000 C
   0.7859225000000000    0.2788300000000000    0.3622200000000000 C
   0.8530025000000000    0.2224400000000000    0.3691300000000000 C
   0.6361900000000000    0.2418900000000000    0.4008400000000000 C
   0.5515050000000000    0.1465000000000000    0.4684850000000000 C
   0.5573950000000000    0.1207100000000000    0.4191700000000000 C
   0.5359225000000000    0.2788300000000000    0.3622200000000000 C
   0.6030025000000000    0.2224400000000000    0.3691300000000000 C
   0.3861900000000000    0.2418900000000000    0.4008400000000000 C
   0.3015050000000000    0.1465000000000000    0.4684850000000000 C
   0.3073950000000000    0.1207100000000000    0.4191700000000000 C
   0.2859225000000000    0.2788300000000000    0.3622200000000000 C
   0.3530025000000000    0.2224400000000000    0.3691300000000000 C
   0.1361900000000000    0.2418900000000000    0.4008400000000000 C
   0.0515050000000000    0.1465000000000000    0.4684850000000000 C
   0.0573950000000000    0.1207100000000000    0.4191700000000000 C
   0.0359225000000000    0.2788300000000000    0.3622200000000000 C
   0.1030025000000000    0.2224400000000000    0.3691300000000000 C
   0.0115300000000000    0.7583400000000000    0.3506650000000000 C
   0.9268525000000000    0.8533800000000000    0.2824250000000000 C
   0.9328025000000000    0.8797100000000000    0.3317850000000000 C
   0.9113975000000000    0.7219000000000000    0.3889550000000000 C
   0.9784450000000000    0.7784700000000000    0.3821350000000000 C
   0.2615300000000000    0.7583400000000000    0.3506650000000000 C
   0.1768525000000000    0.8533800000000000    0.2824250000000000 C
   0.1828025000000000    0.8797100000000000    0.3317850000000000 C
   0.1613975000000000    0.7219000000000000    0.3889550000000000 C
   0.2284450000000000    0.7784700000000000    0.3821350000000000 C
   0.5115300000000000    0.7583400000000000    0.3506650000000000 C
   0.4268525000000000    0.8533800000000000    0.2824250000000000 C
   0.4328025000000000    0.8797100000000000    0.3317850000000000 C
   0.4113975000000000    0.7219000000000000    0.3889550000000000 C
   0.4784450000000000    0.7784700000000000    0.3821350000000000 C
   0.7615300000000000    0.7583400000000000    0.3506650000000000 C
   0.6768525000000000    0.8533800000000000    0.2824250000000000 C
   0.6828025000000000    0.8797100000000000    0.3317850000000000 C
   0.6613975000000000    0.7219000000000000    0.3889550000000000 C
   0.7284450000000000    0.7784700000000000    0.3821350000000000 C
   0.1361900000000000    0.2418900000000000    0.9008400000000000 C
   0.0515050000000000    0.1465000000000000    0.9684850000000000 C
   0.0573950000000000    0.1207100000000000    0.9191700000000000 C
   0.0359225000000000    0.2788300000000000    0.8622200000000000 C
   0.1030025000000000    0.2224400000000000    0.8691300000000000 C
   0.8861900000000000    0.2418900000000000    0.9008400000000000 C
   0.8015050000000000    0.1465000000000000    0.9684850000000000 C
   0.8073950000000000    0.1207100000000000    0.9191700000000000 C
   0.7859225000000000    0.2788300000000000    0.8622200000000000 C
   0.8530025000000000    0.2224400000000000    0.8691300000000000 C
   0.6361900000000000    0.2418900000000000    0.9008400000000000 C
   0.5515050000000000    0.1465000000000000    0.9684850000000000 C
   0.5573950000000000    0.1207100000000000    0.9191700000000000 C
   0.5359225000000000    0.2788300000000000    0.8622200000000000 C
   0.6030025000000000    0.2224400000000000    0.8691300000000000 C
   0.0115300000000000    0.7583400000000000    0.8506650000000000 C
   0.9268525000000000    0.8533800000000000    0.7824249999999999 C
   0.9328025000000000    0.8797100000000000    0.8317850000000000 C
   0.9113975000000000    0.7219000000000000    0.8889549999999999 C
   0.9784450000000000    0.7784700000000000    0.8821350000000000 C
   0.7615300000000000    0.7583400000000000    0.8506650000000000 C
   0.6768525000000000    0.8533800000000000    0.7824249999999999 C
   0.6828025000000000    0.8797100000000000    0.8317850000000000 C
   0.6613975000000000    0.7219000000000000    0.8889549999999999 C
   0.7284450000000000    0.7784700000000000    0.8821350000000000 C
   0.2615300000000000    0.7583400000000000    0.8506650000000000 C
   0.1768525000000000    0.8533800000000000    0.7824249999999999 C
   0.1828025000000000    0.8797100000000000    0.8317850000000000 C
   0.1613975000000000    0.7219000000000000    0.8889549999999999 C
   0.2284450000000000    0.7784700000000000    0.8821350000000000 C
   0.5115300000000000    0.7583400000000000    0.8506650000000000 C
   0.4268525000000000    0.8533800000000000    0.7824249999999999 C
   0.4328025000000000    0.8797100000000000    0.8317850000000000 C
   0.4113975000000000    0.7219000000000000    0.8889549999999999 C
   0.4784450000000000    0.7784700000000000    0.8821350000000000 C
   0.7373175000000000    0.7414600000000000    0.0993900000000000 C
   0.8226625000000000    0.6472500000000000    0.0320250000000000 C
   0.8160175000000001    0.6204900000000000    0.0811600000000000 C
   0.8375049999999999    0.7780500000000000    0.1384850000000000 C
   0.7704225000000000    0.7218700000000000    0.1311450000000000 C
   0.9873175000000000    0.7414600000000000    0.0993900000000000 C
   0.0726625000000000    0.6472500000000000    0.0320250000000000 C
   0.0660175000000000    0.6204900000000000    0.0811600000000000 C
   0.0875050000000000    0.7780500000000000    0.1384850000000000 C
   0.0204225000000000    0.7218700000000000    0.1311450000000000 C
   0.4873175000000000    0.7414600000000000    0.0993900000000000 C
   0.5726625000000000    0.6472500000000000    0.0320250000000000 C
   0.5660175000000001    0.6204900000000000    0.0811600000000000 C
   0.5875049999999999    0.7780500000000000    0.1384850000000000 C
   0.5204225000000000    0.7218700000000000    0.1311450000000000 C
   0.2373175000000000    0.7414600000000000    0.0993900000000000 C
   0.3226625000000000    0.6472500000000000    0.0320250000000000 C
   0.3160175000000000    0.6204900000000000    0.0811600000000000 C
   0.3375050000000000    0.7780500000000000    0.1384850000000000 C
   0.2704225000000000    0.7218700000000000    0.1311450000000000 C
   0.1129150000000000    0.2586000000000000    0.1510600000000000 C
   0.1979575000000000    0.3525900000000000    0.2190850000000000 C
   0.1921000000000000    0.3793300000000000    0.1697550000000000 C
   0.2128750000000000    0.2223200000000000    0.1122050000000000 C
   0.1459725000000000    0.2790500000000000    0.1195350000000000 C
   0.3629150000000000    0.2586000000000000    0.1510600000000000 C
   0.4479575000000000    0.3525900000000000    0.2190850000000000 C
   0.4421000000000000    0.3793300000000000    0.1697550000000000 C
   0.4628750000000000    0.2223200000000000    0.1122050000000000 C
   0.3959725000000000    0.2790500000000000    0.1195350000000000 C
   0.8629150000000000    0.2586000000000000    0.1510600000000000 C
   0.9479575000000000    0.3525900000000000    0.2190850000000000 C
   0.9420999999999999    0.3793300000000000    0.1697550000000000 C