H3 C2 N4
1.0
  12.3092813992752514    0.0000000000000000   -0.7645132003152789
   0.0068751034626216   13.7929981521057332   -0.0019258661035602
   0.0000000000000000    0.0000000000000000   35.1360000000000028
H C N
3 2 4
direct
   0.4655600000000000    0.6966800000000000    0.4210300000000000 H
   0.5275100000000000    0.7292200000000000    0.5689550000000000 H
   0.5014900000000000    0.8385000000000000    0.5458150000000001 H
   0.4817400000000000    0.6888300000000001    0.4515650000000000 C
   0.5110900000000000    0.7212100000000000    0.5112600000000000 C
   0.4924900000000000    0.7641700000000000    0.4763900000000000 N
   0.4938800000000000    0.6040900000000000    0.4691400000000000 N
   0.5122000000000000    0.6240400000000000    0.5079850000000000 N
   0.5318200000000000    0.7699500000000000    0.5446450000000000 N
