H8 C14 O5
1.0
  12.3092813992752514    0.0000000000000000   -0.7645132003152789
   0.0068751034626216   13.7929981521057332   -0.0019258661035602
   0.0000000000000000    0.0000000000000000   35.1360000000000028
H C O
8 14 5
direct
   0.5311399999999999    0.2910500000000000    0.8540250000000000 H
   0.5338000000000001    0.2268000000000000    0.7874600000000000 H
   0.3519200000000000    0.4756200000000000    0.7458500000000000 H
   0.3501800000000000    0.5395600000000000    0.8122500000000000 H
   0.2354500000000000    0.2874800000000000    0.7348200000000000 H
   0.0918300000000000    0.3125700000000000    0.6822150000000000 H
   0.3369900000000000    0.3910000000000000    0.6061900000000000 H
   0.4814000000000000    0.3632200000000000    0.6581000000000000 H
   0.4341800000000000    0.4567600000000000    0.8769300000000000 C
   0.4389500000000000    0.4187900000000000    0.8375349999999999 C
   0.4915900000000000    0.3309600000000000    0.8303000000000000 C
   0.4935900000000000    0.2950300000000000    0.7933800000000000 C
   0.4416500000000000    0.3466200000000000    0.7631500000000000 C
   0.3901500000000000    0.4351500000000000    0.7696499999999999 C
   0.3893600000000000    0.4705900000000000    0.8067250000000000 C
   0.3659300000000000    0.3257300000000000    0.6993250000000000 C
   0.2569300000000000    0.3104600000000000    0.7065800000000000 C
   0.1771200000000000    0.3247600000000000    0.6773400000000001 C
   0.2054300000000000    0.3546700000000000    0.6410700000000000 C
   0.3154000000000000    0.3681100000000000    0.6343799999999999 C
   0.3960500000000000    0.3531400000000000    0.6632750000000001 C
   0.1191200000000000    0.3704000000000000    0.6099550000000000 C
   0.4492100000000000    0.3081600000000000    0.7271000000000000 O
   0.0216800000000000    0.3499400000000000    0.6149150000000000 O
   0.1523100000000000    0.4040300000000000    0.5780350000000000 O
   0.3982200000000000    0.5406600000000000    0.8831500000000000 O
   0.4681700000000000    0.4004100000000000    0.9050400000000001 O
