H1 C1 O2
1.0
  10.1179998458940492    0.0000000000000000   -0.0017659241282039
  -0.0090933020174877   11.5241706880746761   -0.2315372842089778
   0.0000000000000000    0.0000000000000000   29.8539999999999992
H C O
1 1 2
direct
   0.2906500000000000    0.5185400000000000    0.6345100000000000 H
   0.3636500000000000    0.5477500000000000    0.6599800000000000 C
   0.4119600000000000    0.6495600000000000    0.6542250000000001 O
   0.3896600000000000    0.4797400000000000    0.6909250000000000 O
