H7 C11 N2 O2
1.0
  34.0099991245767512    0.0000000000000000   -0.0077166241556339
  -3.7383628922418990   18.3582369854212608   -0.0016349371747293
   0.0000000000000000    0.0000000000000000   38.7359999999999971
H C N O
7 11 2 2
direct
   0.2882450000000000    0.0692200000000000    0.3667500000000000 H
   0.3122150000000000    0.1625800000000000    0.3208300000000000 H
   0.1931500000000000    0.1827100000000000    0.3886200000000000 H
   0.3114200000000000    0.2222100000000000    0.2713650000000000 H
   0.3307900000000000    0.3266600000000000    0.2312450000000000 H
   0.2683200000000000    0.4550000000000000    0.2886050000000000 H
   0.2459050000000000    0.3554700000000000    0.3305700000000000 H
   0.2241650000000000    0.0664400000000000    0.4102950000000000 C
   0.2389300000000000    0.1188600000000000    0.3812700000000000 C
   0.2724250000000000    0.1131900000000000    0.3613750000000000 C
   0.2853750000000000    0.1648400000000000    0.3358150000000000 C
   0.2644350000000000    0.2214400000000000    0.3306600000000000 C
   0.2197250000000000    0.1768500000000000    0.3740500000000000 C
   0.2769500000000000    0.2801100000000000    0.3049600000000000 C
   0.3012550000000000    0.2728000000000000    0.2763900000000000 C
   0.3121700000000000    0.3308700000000000    0.2537500000000000 C
   0.2771600000000000    0.4026400000000000    0.2853000000000000 C
   0.2646800000000000    0.3468900000000000    0.3088400000000000 C
   0.2318250000000000    0.2270400000000000    0.3496850000000000 N
   0.3007550000000000    0.3951900000000000    0.2581050000000000 N
   0.1934650000000000    0.0809300000000000    0.4266000000000000 O
   0.2416200000000000    0.0153400000000000    0.4169000000000000 O
