H3 O2
1.0
  34.0099991245767512    0.0000000000000000   -0.0077166241556339
  -3.7383628922418990   18.3582369854212608   -0.0016349371747293
   0.0000000000000000    0.0000000000000000   38.7359999999999971
H O
3 2
direct
   0.2836317095219056    0.4005965909752830    0.2778408713520566 H
   0.3090395519969830    0.3485091078014943    0.2549443145907261 H
   0.2166693664345381    0.0699778413799200    0.4142759871428292 H
   0.3007550000000000    0.3951900000000000    0.2581050000000000 O
   0.1934650000000000    0.0809300000000000    0.4266000000000000 O
