H4 O2
1.0
  14.0717786017916477    0.0000000000000000   -0.2500459600927162
  -0.4140222420149426   15.7199470425885579   -6.3069088752992286
   0.0000000000000000    0.0000000000000000   16.9430000000000014
H O
4 2
direct
   0.7308069869962236    0.6794042875925411    0.9407739581995849 H
   0.7001742447691932    0.7132816281816718    1.0384558171855958 H
   0.7691830130037765    0.8205657124074589    0.0591860418004152 H
   0.7998206879069428    0.7866927785436966   -0.0384980929601593 H
   0.7189100000000000    0.6635900000000000    0.9897600000000000 O
   0.7810800000000000    0.8363800000000000    0.0102000000000000 O
