H10 C4 N2
1.0
  14.0717786017916477    0.0000000000000000   -0.2500459600927162
  -0.4140222420149426   15.7199470425885579   -6.3069088752992286
   0.0000000000000000    0.0000000000000000   16.9430000000000014
H C N
10 4 2
direct
   0.7177600000000000    0.8571900000000000    0.9938399999999999 H
   0.8177900000000000    0.7803099999999999    0.8816700000000000 H
   0.8793400000000000    0.7419100000000000    0.9522000000000000 H
   0.8310000000000000    0.7937200000000000    0.1045200000000000 H
   0.7386300000000000    0.8687700000000000    0.1367600000000000 H
   0.7822300000000000    0.6427800000000000    0.0061200000000000 H
   0.6822100000000000    0.7196700000000000    0.1182900000000000 H
   0.6206500000000000    0.7580600000000000    0.0477600000000000 H
   0.6690000000000000    0.7062500000000000    0.8954400000000000 H
   0.7613600000000000    0.6312000000000000    0.8632000000000000 H
   0.8095000000000000    0.7610300000000000    0.9363500000000000 C
   0.7630400000000001    0.8124000000000000    0.0844800000000000 C
   0.6905000000000000    0.7389400000000000    0.0636000000000000 C
   0.7369500000000000    0.6875700000000000    0.9154800000000000 C
   0.7810800000000000    0.8363800000000000    0.0102000000000000 N
   0.7189100000000000    0.6635900000000000    0.9897600000000000 N
