H4 C3 O3
1.0
  10.3734999936801024    0.0000000000000000   -0.0003621034598361
  -0.0705694957595073   13.1703099668124164   -0.0050571088366811
   0.0000000000000000    0.0000000000000000   39.9879999999999995
H C O
4 3 3
direct
   0.7749500000000000    0.5379900000000000    0.7533099999999999 H
   0.8733300000000001    0.5575700000000000    0.8103050000000001 H
   0.7012000000000000    0.5595100000000000    0.8124250000000000 H
   0.7919000000000000    0.6751400000000000    0.8156150000000000 H
   0.6568900000000000    0.6687500000000000    0.7560500000000000 C
   0.7811000000000000    0.6134500000000001    0.7653449999999999 C
   0.7868500000000000    0.6004200000000000    0.8034200000000000 C
   0.6714000000000000    0.7554600000000000    0.7417100000000000 O
   0.8901300000000000    0.6673700000000000    0.7527050000000000 O
   0.5507800000000000    0.6280200000000000    0.7633200000000000 O
