H6 O4
1.0
  10.3734999936801024    0.0000000000000000   -0.0003621034598361
  -0.0705694957595073   13.1703099668124164   -0.0050571088366811
   0.0000000000000000    0.0000000000000000   39.9879999999999995
H O
6 4
direct
   0.9134776175809644    0.8919058651481161    0.2980745765823941 H
   0.5537974300142731    0.9831084440215582    0.2954746104072956 H
   0.7325968431100962    0.9450994355966899    0.3010751600293609 H
   0.5990077016736735    0.1154904115296757    0.4366946170976010 H
   0.9519992106088295    0.0106198149047383    0.4414979407143479 H
   0.7791357024392852    0.0548387301881327    0.4348190444980587 H
   0.8323400000000000    0.8929800000000000    0.2860250000000000 O
   0.6237800000000000    0.9465400000000000    0.2849150000000000 O
   0.6782400000000000    0.1112800000000000    0.4494900000000000 O
   0.8828000000000000    0.0493300000000000    0.4515600000000000 O
