H3 C9 O6
1.0
  13.5869651704167396    0.0000000000000000   -3.5338220750176959
   0.9978866566653265   17.1833268040093863   -3.6786822595953836
   0.0000000000000000    0.0000000000000000   39.9080000000000013
H C O
3 9 6
direct
   0.0921100000000000    0.2805600000000000    0.2331000000000000 H
   0.3233700000000000    0.4241000000000000    0.2984750000000000 H
   0.3620200000000000    0.4525800000000000    0.2452500000000000 H
   0.2463500000000000    0.3853200000000000    0.2090100000000000 C
   0.1719700000000000    0.3343000000000000    0.2056100000000000 C
   0.1489200000000000    0.3203600000000000    0.2357250000000000 C
   0.2007600000000000    0.3549000000000000    0.2694000000000000 C
   0.2800300000000000    0.3997600000000000    0.2725050000000000 C
   0.3023800000000000    0.4152200000000000    0.2425000000000000 C
   0.2611700000000000    0.4132300000000000    0.1776500000000000 C
   0.1278400000000000    0.2882300000000000    0.1702000000000000 C
   0.1744500000000000    0.3393300000000000    0.3015950000000000 C
   0.2045600000000000    0.3801800000000000    0.3318700000000000 O
   0.3411600000000000    0.3968800000000000    0.1670900000000000 O
   0.1926000000000000    0.4592600000000000    0.1640900000000000 O
   0.1796500000000000    0.2834000000000000    0.1471850000000000 O
   1.0499800000000001    0.2531200000000000    0.1641500000000000 O
   0.1215300000000000    0.2802800000000000    0.2955200000000000 O
