H12 C8 O4
1.0
  39.6509917323455454    0.0000000000000000   -0.0256054967835345
  -0.0082695421395517   14.8289849896572115    0.0194111100649644
   0.0000000000000000    0.0000000000000000   21.9420000000000002
H C O
12 8 4
direct
   0.5121700000000000    0.4815100000000000    0.1414500000000000 H
   0.4901066666666666    0.5706000000000000    0.1066200000000000 H
   0.4738533333333333    0.3702400000000000    0.0860000000000000 H
   0.4520133333333333    0.4618600000000000    0.0536900000000000 H
   0.5061333333333333    0.5087600000000000    0.0002000000000000 H
   0.4906199999999999    0.4025100000000000    0.9783600000000000 H
   0.5499166666666666    0.4363800000000000    0.0659100000000000 H
   0.5309233333333333    0.3299200000000000    0.0551000000000000 H
   0.5460800000000000    0.3323700000000000    0.9447000000000000 H
   0.5815366666666666    0.3408200000000000    0.9924300000000000 H
   0.5479300000000000    0.4975200000000000    0.9233300000000000 H
   0.5813066666666666    0.5119500000000000    0.9750500000000000 H
   0.4619400000000000    0.5026700000000000    0.1756500000000000 C
   0.4873666666666666    0.5004999999999999    0.1231900000000000 C
   0.4769866666666667    0.4401500000000000    0.0697400000000000 C
   0.5021700000000000    0.4392500000000000    0.0167600000000000 C
   0.5360766666666666    0.3950300000000000    0.0324100000000000 C
   0.5588533333333333    0.3774500000000000    0.9772400000000000 C
   0.5698700000000000    0.4628900000000000    0.9435600000000000 C
   0.5944533333333333    0.4462100000000000    0.8915400000000000 C
   0.4755699999999999    0.5079000000000000    0.2297400000000000 O
   0.4309300000000000    0.5001300000000000    0.1655000000000000 O
   0.6121099999999999    0.5162600000000001    0.8746000000000000 O
   0.5969500000000000    0.3705600000000000    0.8669500000000000 O
