H4 O3
1.0
  39.6509917323455454    0.0000000000000000   -0.0256054967835345
  -0.0082695421395517   14.8289849896572115    0.0194111100649644
   0.0000000000000000    0.0000000000000000   21.9420000000000002
H O
4 3
direct
   0.4653585649667791    0.5039817457649489    0.1892164107889276 H
   0.6115151087052971    0.5756397134116118    0.8930575070547115 H
   0.5859896046870275    0.3133695592422596    0.8752929945369249 H
   0.5963159541392418    0.4338479684690167    0.8866223435897689 H
   0.4755699999999999    0.5079000000000000    0.2297400000000000 O
   0.6121099999999999    0.5162600000000001    0.8746000000000000 O
   0.5969500000000000    0.3705600000000000    0.8669500000000000 O
