Zn24 H518 C376 N92 O96
1.0
  39.6509917323455454    0.0000000000000000   -0.0256054967835345
  -0.0082695421395517   14.8289849896572115    0.0194111100649644
   0.0000000000000000    0.0000000000000000   21.9420000000000002
Zn H C N O
24 518 376 92 96
direct
   0.3065800000000000    0.4846000000000000    0.8025099999999999 Zn
   0.1110566666666667    0.5155000000000000    0.3012000000000000 Zn
   0.2770466666666667    0.5154500000000000    0.3010400000000000 Zn
   0.0268466666666667    0.9845800000000000    0.6986900000000000 Zn
   0.1942666666666666    0.9845300000000000    0.6987500000000000 Zn
   0.0561800000000000    0.0151600000000000    0.1974700000000000 Zn
   0.2223733333333333    0.0155800000000000    0.1978400000000000 Zn
   0.1390433333333333    0.4846000000000000    0.8004500000000000 Zn
   0.6399133333333333    0.4846000000000000    0.8025099999999999 Zn
   0.4443900000000000    0.5155000000000000    0.3012000000000000 Zn
   0.6103799999999999    0.5154500000000000    0.3010400000000000 Zn
   0.3601800000000000    0.9845800000000000    0.6986900000000000 Zn
   0.5276000000000000    0.9845300000000000    0.6987500000000000 Zn
   0.3895133333333333    0.0151600000000000    0.1974700000000000 Zn
   0.5557066666666667    0.0155800000000000    0.1978400000000000 Zn
   0.4723766666666667    0.4846000000000000    0.8004500000000000 Zn
   0.9732466666666666    0.4846000000000000    0.8025099999999999 Zn
   0.7777233333333333    0.5155000000000000    0.3012000000000000 Zn
   0.9437133333333333    0.5154500000000000    0.3010400000000000 Zn
   0.6935133333333333    0.9845800000000000    0.6986900000000000 Zn
   0.8609333333333333    0.9845300000000000    0.6987500000000000 Zn
   0.7228466666666666    0.0151600000000000    0.1974700000000000 Zn
   0.8890399999999999    0.0155800000000000    0.1978400000000000 Zn
   0.8057099999999999    0.4846000000000000    0.8004500000000000 Zn
   0.0313733333333333    0.3970800000000000    0.7169300000000000 H
   0.1966633333333333    0.3964600000000000    0.7139000000000000 H
   0.1515300000000000    0.3013600000000000    0.8756400000000000 H
   0.3179966666666666    0.2997700000000000    0.8765700000000000 H
   0.0293300000000000    0.1694200000000000    0.8342200000000000 H
   0.1969833333333333    0.1721700000000000    0.8342000000000001 H
   0.0598533333333333    0.2442600000000000    0.6803300000000000 H
   0.2266533333333333    0.2458000000000000    0.6790800000000000 H
   0.0599900000000000    0.1526700000000000    0.7321299999999999 H
   0.2268066666666667    0.1541500000000000    0.7308200000000000 H
   0.1042300000000000    0.3230400000000000    0.7430600000000001 H
   0.2708199999999999    0.3249800000000000    0.7420000000000000 H
   0.1024466666666667    0.2373000000000000    0.7981800000000000 H
   0.2688933333333333    0.2396400000000000    0.7973900000000000 H
   0.1352300000000000    0.0903900000000000    0.7788600000000000 H
   0.3006766666666666    0.0905900000000000    0.7777400000000000 H
   0.1300333333333333    0.2799600000000000    0.6343200000000000 H
   0.2979700000000000    0.2830600000000000    0.6347600000000000 H
   0.0102400000000000    0.1453700000000000    0.6060500000000000 H
   0.1762233333333333    0.1437900000000000    0.6054600000000000 H
   0.0116233333333333    0.4825900000000000    0.1415600000000000 H
   0.1788366666666667    0.4815100000000000    0.1414500000000000 H
   0.1567733333333333    0.5706000000000000    0.1066200000000000 H
   0.3226933333333333    0.5711500000000000    0.1065100000000000 H
   0.1405200000000000    0.3702400000000000    0.0860000000000000 H
   0.3070900000000000    0.3704300000000000    0.0858700000000000 H
   0.1186800000000000    0.4618600000000000    0.0536900000000000 H
   0.2851500000000000    0.4615900000000000    0.0531900000000000 H
   0.0059900000000000    0.5093700000000000    0.0002000000000000 H
   0.1728000000000000    0.5087600000000000    0.0002000000000000 H
   0.1572866666666667    0.4025100000000000    0.9783600000000000 H
   0.3241633333333333    0.4027600000000000    0.9784100000000000 H
   0.0498433333333333    0.4379900000000000    0.0663300000000000 H
   0.2165833333333333    0.4363800000000000    0.0659100000000000 H
   0.0310800000000000    0.3312200000000000    0.0557200000000000 H
   0.1975900000000000    0.3299200000000000    0.0551000000000000 H
   0.0463533333333333    0.3333700000000000    0.9453500000000000 H
   0.2127466666666667    0.3323700000000000    0.9447000000000000 H
   0.0816766666666667    0.3417300000000000    0.9933500000000000 H
   0.2482033333333333    0.3408200000000000    0.9924300000000000 H
   0.0483933333333333    0.4988800000000000    0.9241900000000000 H
   0.2145966666666667    0.4975200000000000    0.9233300000000000 H
   0.0820700000000000    0.5123700000000000    0.9754200000000000 H
   0.2479733333333333    0.5119500000000000    0.9750500000000000 H
   0.0533633333333333    0.6039200000000000    0.2144000000000000 H
   0.2197133333333333    0.6049000000000000    0.2144500000000000 H
   0.0985233333333333    0.6987700000000000    0.3760900000000000 H
   0.2648366666666667    0.6984399999999999    0.3765200000000000 H
   0.0530033333333333    0.8279100000000000    0.3345200000000000 H
   0.2196833333333333    0.8284800000000000    0.3349800000000000 H
   0.0234500000000000    0.7547300000000000    0.1793000000000000 H
   0.1903966666666667    0.7575000000000000    0.1794400000000000 H
   0.0233966666666667    0.8463900000000000    0.2309400000000000 H
   0.1895766666666666    0.8474900000000000    0.2323100000000000 H
   0.1461733333333333    0.6751700000000000    0.2404000000000000 H
   0.3123800000000000    0.6762200000000000    0.2421200000000000 H
   0.1473666666666666    0.7590500000000000    0.2967800000000000 H
   0.3143733333333333    0.7616600000000000    0.2972700000000000 H
   0.1151500000000000    0.9080400000000000    0.2775800000000000 H
   0.2815266666666666    0.9086600000000000    0.2783400000000000 H
   0.1196066666666667    0.7188600000000001    0.1330600000000000 H
   0.2866000000000000    0.7204199999999999    0.1333400000000000 H
   0.0738233333333333    0.8562600000000000    0.1042200000000000 H
   0.2404166666666666    0.8569300000000000    0.1048000000000000 H
   0.0701900000000000    0.5193400000000000    0.6419200000000000 H
   0.2387933333333333    0.5178100000000000    0.6426600000000000 H
   0.0921566666666667    0.4299800000000000    0.6074600000000000 H
   0.2607966666666667    0.4284900000000000    0.6081800000000001 H
   0.1087133333333333    0.6301500000000000    0.5864300000000000 H
   0.2768500000000000    0.6287100000000000    0.5861200000000000 H
   0.1305066666666667    0.5382800000000000    0.5545300000000000 H
   0.2985066666666666    0.5368300000000000    0.5539900000000000 H
   0.0764300000000000    0.4916300000000000    0.5008200000000000 H
   0.2441933333333333    0.4894700000000000    0.5014000000000000 H
   0.0920700000000000    0.5977400000000000    0.4787000000000000 H
   0.2594566666666667    0.5957800000000000    0.4790000000000000 H
   0.0326566666666667    0.5646000000000000    0.5661000000000000 H
   0.2005066666666667    0.5615500000000000    0.5672000000000000 H
   0.0516866666666667    0.6709200000000000    0.5547600000000000 H
   0.2194266666666667    0.6681100000000000    0.5562800000000000 H
   0.0366066666666667    0.6676200000000000    0.4443900000000000 H
   0.2040500000000000    0.6658800000000000    0.4459500000000000 H
   0.0011100000000000    0.6595500000000000    0.4919200000000000 H
   0.1687666666666666    0.6580900000000000    0.4939800000000000 H
   0.0348100000000000    0.5020800000000000    0.4241100000000000 H
   0.2016766666666666    0.5001000000000000    0.4254200000000000 H
   0.0010766666666667    0.4885500000000000    0.4751600000000000 H
   0.1678600000000000    0.4876200000000000    0.4764000000000000 H
   0.1371166666666667    0.8953600000000000    0.7855600000000000 H
   0.3027033333333333    0.8952700000000000    0.7849000000000000 H
   0.0150600000000000    0.8010600000000000    0.6236800000000000 H
   0.1815300000000000    0.8016900000000000    0.6230300000000000 H
   0.1360100000000000    0.6724000000000000    0.6645200000000000 H
   0.3034066666666667    0.6706100000000000    0.6653400000000000 H
   0.1072466666666667    0.7437100000000000    0.8203400000000000 H
   0.2737900000000000    0.7413800000000000    0.8202700000000001 H
   0.1063333333333333    0.6534300000000000    0.7677000000000000 H
   0.2727666666666667    0.6520000000000000    0.7669600000000000 H
   0.0628866666666667    0.8255400000000001    0.7594200000000000 H
   0.2295600000000000    0.8247100000000001    0.7599800000000000 H
   0.0640866666666667    0.7417300000000000    0.7030500000000000 H
   0.2306700000000000    0.7419300000000000    0.7029200000000000 H
   0.0322266666666667    0.5919700000000000    0.7220000000000000 H
   0.1978733333333333    0.5935700000000000    0.7203700000000000 H
   0.0361200000000000    0.7821600000000000    0.8664700000000000 H
   0.2033666666666666    0.7783500000000000    0.8673000000000000 H
   0.1570833333333333    0.6412900000000000    0.8945600000000000 H
   0.3237766666666667    0.6444700000000000    0.8952900000000000 H
   0.1546033333333333    0.9810100000000000    0.3576600000000000 H
   0.3218700000000000    0.9805500000000000    0.3574000000000000 H
   0.0106166666666667    0.0701600000000000    0.3915400000000000 H
   0.1762900000000000    0.0716000000000000    0.3913000000000000 H
   0.0265766666666667    0.8700500000000000    0.4140000000000000 H
   0.1931900000000000    0.8722600000000000    0.4147800000000000 H
   0.0486033333333333    0.9619600000000000    0.4454600000000000 H
   0.2146833333333333    0.9652200000000000    0.4459900000000000 H
   0.1605233333333333    0.0000000000000000    0.4988200000000000 H
   0.3281133333333333    0.0000000000000000    0.4988600000000000 H
   0.0097233333333333    0.9035200000000000    0.5210900000000001 H
   0.1759566666666667    0.9062100000000000    0.5216600000000000 H
   0.1167000000000000    0.9393100000000000    0.4338600000000000 H
   0.2838300000000000    0.9395000000000000    0.4337600000000000 H
   0.1357666666666666    0.8329900000000000    0.4446700000000000 H
   0.3024200000000000    0.8324700000000000    0.4440200000000000 H
   0.1207800000000000    0.8350800000000000    0.5550900000000000 H
   0.2875966666666666    0.8340500000000000    0.5545400000000000 H
   0.0853166666666667    0.8426100000000000    0.5074000000000000 H
   0.2521166666666667    0.8430800000000001    0.5070100000000000 H
   0.1182633333333333    0.0000000000000000    0.5762000000000000 H
   0.2857900000000000    0.9992500000000000    0.5764000000000000 H
   0.0846433333333333    0.0000000000000000    0.5248800000000000 H
   0.2521733333333333    0.0000000000000000    0.5251700000000000 H
   0.1138566666666667    0.1041200000000000    0.2837200000000000 H
   0.2801466666666667    0.1035600000000000    0.2844800000000000 H
   0.0676566666666667    0.1993500000000000    0.1229500000000000 H
   0.2347866666666666    0.1996100000000000    0.1231700000000000 H
   0.1126866666666667    0.3296000000000000    0.1644400000000000 H
   0.2800700000000000    0.3289300000000000    0.1651000000000000 H
   0.1427500000000000    0.2574400000000000    0.3191600000000000 H
   0.3097299999999999    0.2549200000000000    0.3200900000000000 H
   0.1434866666666667    0.3475700000000000    0.2662400000000000 H
   0.3099400000000000    0.3465900000000000    0.2683700000000000 H
   0.0208333333333333    0.1762700000000000    0.2575000000000000 H
   0.1869666666666666    0.1755600000000000    0.2579500000000000 H
   0.0189500000000000    0.2616600000000000    0.2022800000000000 H
   0.1857200000000000    0.2598100000000000    0.2017500000000000 H
   0.0516233333333333    0.4090600000000000    0.2212400000000000 H
   0.2181300000000000    0.4083100000000000    0.2207700000000000 H
   0.0469333333333333    0.2198400000000000    0.3660300000000000 H
   0.2133400000000000    0.2192300000000000    0.3656400000000000 H
   0.0931933333333333    0.3562900000000000    0.3943500000000000 H
   0.2593166666666666    0.3562700000000000    0.3942700000000000 H
   0.0945533333333333    0.0168600000000000    0.8587300000000000 H
   0.2618866666666667    0.0174000000000000    0.8590200000000000 H
   0.0720233333333333    0.9288999999999999    0.8940000000000000 H
   0.2390766666666667    0.9304400000000000    0.8948700000000001 H
   0.0566933333333333    0.1299300000000000    0.9136200000000000 H
   0.2242333333333333    0.1321100000000000    0.9125900000000000 H
   0.0346800000000000    0.0391400000000000    0.9466599999999999 H
   0.2016900000000000    0.0424300000000000    0.9458000000000000 H
   0.0888800000000000    0.9917700000000000    0.9998100000000000 H
   0.2555233333333333    0.9946000000000000    0.0000000000000000 H
   0.0736966666666667    0.0983900000000000    0.0213600000000000 H
   0.2404333333333333    0.1017600000000000    0.0209300000000000 H
   0.1326166666666667    0.0632300000000000    0.9333700000000000 H
   0.2996266666666667    0.0649700000000000    0.9338300000000000 H
   0.1139133333333333    0.1699700000000000    0.9442000000000000 H
   0.2812000000000000    0.1720800000000000    0.9445700000000000 H
   0.1293800000000000    0.1672900000000000    0.0545600000000000 H
   0.2964100000000000    0.1689000000000000    0.0551000000000000 H
   0.1646333333333333    0.1590200000000000    0.0064800000000000 H
   0.3317366666666667    0.1599900000000000    0.0072000000000000 H
   0.1312233333333333    0.0015500000000000    0.0751600000000000 H
   0.2976833333333333    0.0033600000000000    0.0756700000000000 H
   0.1648833333333333    0.9883400000000000    0.0239500000000000 H
   0.3312966666666667    0.9891200000000000    0.0244100000000000 H
   0.3647066666666666    0.3970800000000000    0.7169300000000000 H
   0.5299966666666667    0.3964600000000000    0.7139000000000000 H
   0.4848633333333333    0.3013600000000000    0.8756400000000000 H
   0.6513300000000000    0.2997700000000000    0.8765700000000000 H
   0.3626633333333333    0.1694200000000000    0.8342200000000000 H
   0.5303166666666667    0.1721700000000000    0.8342000000000001 H
   0.3931866666666666    0.2442600000000000    0.6803300000000000 H
   0.5599866666666666    0.2458000000000000    0.6790800000000000 H
   0.3933233333333333    0.1526700000000000    0.7321299999999999 H
   0.5601400000000000    0.1541500000000000    0.7308200000000000 H
   0.4375633333333333    0.3230400000000000    0.7430600000000001 H
   0.6041533333333333    0.3249800000000000    0.7420000000000000 H
   0.4357799999999999    0.2373000000000000    0.7981800000000000 H
   0.6022266666666667    0.2396400000000000    0.7973900000000000 H
   0.4685633333333333    0.0903900000000000    0.7788600000000000 H
   0.6340100000000000    0.0905900000000000    0.7777400000000000 H
   0.4633666666666666    0.2799600000000000    0.6343200000000000 H
   0.6313033333333333    0.2830600000000000    0.6347600000000000 H
   0.3435733333333333    0.1453700000000000    0.6060500000000000 H
   0.5095566666666667    0.1437900000000000    0.6054600000000000 H
   0.3449566666666666    0.4825900000000000    0.1415600000000000 H
   0.5121700000000000    0.4815100000000000    0.1414500000000000 H
   0.4901066666666666    0.5706000000000000    0.1066200000000000 H
   0.6560266666666666    0.5711500000000000    0.1065100000000000 H
   0.4738533333333333    0.3702400000000000    0.0860000000000000 H
   0.6404233333333333    0.3704300000000000    0.0858700000000000 H
   0.4520133333333333    0.4618600000000000    0.0536900000000000 H
   0.6184833333333333    0.4615900000000000    0.0531900000000000 H
   0.3393233333333333    0.5093700000000000    0.0002000000000000 H
   0.5061333333333333    0.5087600000000000    0.0002000000000000 H
   0.4906199999999999    0.4025100000000000    0.9783600000000000 H
   0.6574966666666666    0.4027600000000000    0.9784100000000000 H
   0.3831766666666667    0.4379900000000000    0.0663300000000000 H
   0.5499166666666666    0.4363800000000000    0.0659100000000000 H
   0.3644133333333333    0.3312200000000000    0.0557200000000000 H
   0.5309233333333333    0.3299200000000000    0.0551000000000000 H
   0.3796866666666666    0.3333700000000000    0.9453500000000000 H
   0.5460800000000000    0.3323700000000000    0.9447000000000000 H
   0.4150100000000000    0.3417300000000000    0.9933500000000000 H
   0.5815366666666666    0.3408200000000000    0.9924300000000000 H
   0.3817266666666667    0.4988800000000000    0.9241900000000000 H
   0.5479300000000000    0.4975200000000000    0.9233300000000000 H
   0.4154033333333333    0.5123700000000000    0.9754200000000000 H
   0.5813066666666666    0.5119500000000000    0.9750500000000000 H
   0.3866966666666666    0.6039200000000000    0.2144000000000000 H
   0.4318566666666667    0.6987700000000000    0.3760900000000000 H
   0.3863366666666667    0.8279100000000000    0.3345200000000000 H
   0.3567833333333333    0.7547300000000000    0.1793000000000000 H
   0.3567300000000000    0.8463900000000000    0.2309400000000000 H
   0.6457133333333334    0.6762200000000000    0.2421200000000000 H
   0.6477066666666667    0.7616600000000000    0.2972700000000000 H
   0.6148600000000000    0.9086600000000000    0.2783400000000000 H
   0.6199333333333332    0.7204199999999999    0.1333400000000000 H
   0.5737500000000000    0.8569300000000000    0.1048000000000000 H
   0.4035233333333333    0.5193400000000000    0.6419200000000000 H
   0.5721266666666667    0.5178100000000000    0.6426600000000000 H
   0.4254900000000000    0.4299800000000000    0.6074600000000000 H
   0.5941300000000000    0.4284900000000000    0.6081800000000001 H
   0.4420466666666666    0.6301500000000000    0.5864300000000000 H
   0.6101833333333333    0.6287100000000000    0.5861200000000000 H
   0.4638400000000000    0.5382800000000000    0.5545300000000000 H
   0.6318400000000000    0.5368300000000000    0.5539900000000000 H
   0.4097633333333333    0.4916300000000000    0.5008200000000000 H
   0.5775266666666666    0.4894700000000000    0.5014000000000000 H
   0.4254033333333333    0.5977400000000000    0.4787000000000000 H
   0.5927899999999999    0.5957800000000000    0.4790000000000000 H
   0.3659900000000000    0.5646000000000000    0.5661000000000000 H
   0.5338400000000000    0.5615500000000000    0.5672000000000000 H
   0.3850200000000000    0.6709200000000000    0.5547600000000000 H
   0.5527599999999999    0.6681100000000000    0.5562800000000000 H
   0.3699400000000000    0.6676200000000000    0.4443900000000000 H
   0.5373833333333333    0.6658800000000000    0.4459500000000000 H
   0.3344433333333333    0.6595500000000000    0.4919200000000000 H
   0.5021000000000000    0.6580900000000000    0.4939800000000000 H
   0.3681433333333333    0.5020800000000000    0.4241100000000000 H
   0.5350100000000000    0.5001000000000000    0.4254200000000000 H
   0.3344100000000000    0.4885500000000000    0.4751600000000000 H
   0.5011933333333334    0.4876200000000000    0.4764000000000000 H
   0.4704500000000000    0.8953600000000000    0.7855600000000000 H
   0.6360366666666666    0.8952700000000000    0.7849000000000000 H
   0.3483933333333333    0.8010600000000000    0.6236800000000000 H
   0.5148633333333333    0.8016900000000000    0.6230300000000000 H
   0.4693433333333333    0.6724000000000000    0.6645200000000000 H
   0.6367400000000000    0.6706100000000000    0.6653400000000000 H
   0.4405800000000000    0.7437100000000000    0.8203400000000000 H
   0.6071233333333332    0.7413800000000000    0.8202700000000001 H
   0.4396666666666667    0.6534300000000000    0.7677000000000000 H
   0.6061000000000000    0.6520000000000000    0.7669600000000000 H
   0.3962200000000000    0.8255400000000001    0.7594200000000000 H
   0.5628933333333332    0.8247100000000001    0.7599800000000000 H
   0.3974200000000000    0.7417300000000000    0.7030500000000000 H
   0.5640033333333333    0.7419300000000000    0.7029200000000000 H
   0.3655600000000000    0.5919700000000000    0.7220000000000000 H
   0.5312066666666666    0.5935700000000000    0.7203700000000000 H
   0.3694533333333333    0.7821600000000000    0.8664700000000000 H
   0.5367000000000000    0.7783500000000000    0.8673000000000000 H
   0.4904166666666666    0.6412900000000000    0.8945600000000000 H
   0.6571100000000000    0.6444700000000000    0.8952900000000000 H
   0.4879366666666666    0.9810100000000000    0.3576600000000000 H
   0.6552033333333334    0.9805500000000000    0.3574000000000000 H
   0.3439500000000000    0.0701600000000000    0.3915400000000000 H
   0.5096233333333333    0.0716000000000000    0.3913000000000000 H
   0.3599100000000000    0.8700500000000000    0.4140000000000000 H
   0.5265233333333333    0.8722600000000000    0.4147800000000000 H
   0.3819366666666666    0.9619600000000000    0.4454600000000000 H
   0.5480166666666666    0.9652200000000000    0.4459900000000000 H
   0.4938566666666666    0.0000000000000000    0.4988200000000000 H
   0.6614466666666666    0.0000000000000000    0.4988600000000000 H
   0.3430566666666667    0.9035200000000000    0.5210900000000001 H
   0.5092900000000000    0.9062100000000000    0.5216600000000000 H
   0.4500333333333333    0.9393100000000000    0.4338600000000000 H
   0.6171633333333333    0.9395000000000000    0.4337600000000000 H
   0.4691000000000000    0.8329900000000000    0.4446700000000000 H
   0.6357533333333333    0.8324700000000000    0.4440200000000000 H
   0.4541133333333333    0.8350800000000000    0.5550900000000000 H
   0.6209300000000000    0.8340500000000000    0.5545400000000000 H
   0.4186500000000000    0.8426100000000000    0.5074000000000000 H
   0.5854500000000000    0.8430800000000001    0.5070100000000000 H
   0.4515966666666666    0.0000000000000000    0.5762000000000000 H
   0.6191233333333332    0.9992500000000000    0.5764000000000000 H
   0.4179766666666667    0.0000000000000000    0.5248800000000000 H
   0.5855066666666666    0.0000000000000000    0.5251700000000000 H
   0.4471900000000000    0.1041200000000000    0.2837200000000000 H
   0.6134800000000000    0.1035600000000000    0.2844800000000000 H
   0.4009900000000000    0.1993500000000000    0.1229500000000000 H
   0.5681200000000000    0.1996100000000000    0.1231700000000000 H
   0.4460200000000000    0.3296000000000000    0.1644400000000000 H
   0.6134033333333333    0.3289300000000000    0.1651000000000000 H
   0.4760833333333333    0.2574400000000000    0.3191600000000000 H
   0.6430633333333333    0.2549200000000000    0.3200900000000000 H
   0.4768200000000000    0.3475700000000000    0.2662400000000000 H
   0.6432733333333334    0.3465900000000000    0.2683700000000000 H
   0.3541666666666666    0.1762700000000000    0.2575000000000000 H
   0.5203000000000000    0.1755600000000000    0.2579500000000000 H
   0.3522833333333333    0.2616600000000000    0.2022800000000000 H
   0.5190533333333334    0.2598100000000000    0.2017500000000000 H
   0.3849566666666667    0.4090600000000000    0.2212400000000000 H
   0.5514633333333333    0.4083100000000000    0.2207700000000000 H
   0.3802666666666666    0.2198400000000000    0.3660300000000000 H
   0.5466733333333333    0.2192300000000000    0.3656400000000000 H
   0.4265266666666666    0.3562900000000000    0.3943500000000000 H
   0.5926499999999999    0.3562700000000000    0.3942700000000000 H
   0.4278866666666666    0.0168600000000000    0.8587300000000000 H
   0.5952200000000000    0.0174000000000000    0.8590200000000000 H
   0.4053566666666666    0.9288999999999999    0.8940000000000000 H
   0.5724100000000000    0.9304400000000000    0.8948700000000001 H
   0.3900266666666666    0.1299300000000000    0.9136200000000000 H
   0.5575666666666667    0.1321100000000000    0.9125900000000000 H
   0.3680133333333333    0.0391400000000000    0.9466599999999999 H
   0.5350233333333333    0.0424300000000000    0.9458000000000000 H
   0.4222133333333333    0.9917700000000000    0.9998100000000000 H
   0.5888566666666666    0.9946000000000000    0.0000000000000000 H
   0.4070300000000000    0.0983900000000000    0.0213600000000000 H
   0.5737666666666666    0.1017600000000000    0.0209300000000000 H
   0.4659500000000000    0.0632300000000000    0.9333700000000000 H
   0.6329600000000000    0.0649700000000000    0.9338300000000000 H
   0.4472466666666666    0.1699700000000000    0.9442000000000000 H
   0.6145333333333334    0.1720800000000000    0.9445700000000000 H
   0.4627133333333333    0.1672900000000000    0.0545600000000000 H
   0.6297433333333333    0.1689000000000000    0.0551000000000000 H
   0.4979666666666667    0.1590200000000000    0.0064800000000000 H
   0.6650700000000001    0.1599900000000000    0.0072000000000000 H
   0.4645566666666666    0.0015500000000000    0.0751600000000000 H
   0.6310166666666666    0.0033600000000000    0.0756700000000000 H
   0.4982166666666666    0.9883400000000000    0.0239500000000000 H
   0.6646300000000001    0.9891200000000000    0.0244100000000000 H
   0.6980400000000000    0.3970800000000000    0.7169300000000000 H
   0.8633299999999999    0.3964600000000000    0.7139000000000000 H
   0.8181966666666667    0.3013600000000000    0.8756400000000000 H
   0.9846633333333332    0.2997700000000000    0.8765700000000000 H
   0.6959966666666666    0.1694200000000000    0.8342200000000000 H
   0.8636499999999999    0.1721700000000000    0.8342000000000001 H
   0.7265199999999999    0.2442600000000000    0.6803300000000000 H
   0.8933199999999999    0.2458000000000000    0.6790800000000000 H
   0.7266566666666666    0.1526700000000000    0.7321299999999999 H
   0.8934733333333333    0.1541500000000000    0.7308200000000000 H
   0.7708966666666667    0.3230400000000000    0.7430600000000001 H
   0.9374866666666666    0.3249800000000000    0.7420000000000000 H
   0.7691133333333333    0.2373000000000000    0.7981800000000000 H
   0.9355599999999999    0.2396400000000000    0.7973900000000000 H
   0.8018966666666666    0.0903900000000000    0.7788600000000000 H
   0.9673433333333332    0.0905900000000000    0.7777400000000000 H
   0.7967000000000000    0.2799600000000000    0.6343200000000000 H
   0.9646366666666666    0.2830600000000000    0.6347600000000000 H
   0.6769066666666667    0.1453700000000000    0.6060500000000000 H
   0.8428899999999999    0.1437900000000000    0.6054600000000000 H
   0.6782899999999999    0.4825900000000000    0.1415600000000000 H
   0.8455033333333333    0.4815100000000000    0.1414500000000000 H
   0.8234399999999999    0.5706000000000000    0.1066200000000000 H
   0.9893600000000000    0.5711500000000000    0.1065100000000000 H
   0.8071866666666666    0.3702400000000000    0.0860000000000000 H
   0.9737566666666666    0.3704300000000000    0.0858700000000000 H
   0.7853466666666666    0.4618600000000000    0.0536900000000000 H
   0.9518166666666666    0.4615900000000000    0.0531900000000000 H
   0.6726566666666667    0.5093700000000000    0.0002000000000000 H
   0.8394666666666666    0.5087600000000000    0.0002000000000000 H
   0.8239533333333333    0.4025100000000000    0.9783600000000000 H
   0.9908299999999999    0.4027600000000000    0.9784100000000000 H
   0.7165100000000000    0.4379900000000000    0.0663300000000000 H
   0.8832500000000000    0.4363800000000000    0.0659100000000000 H
   0.6977466666666666    0.3312200000000000    0.0557200000000000 H
   0.8642566666666667    0.3299200000000000    0.0551000000000000 H
   0.7130200000000000    0.3333700000000000    0.9453500000000000 H
   0.8794133333333333    0.3323700000000000    0.9447000000000000 H
   0.7483433333333332    0.3417300000000000    0.9933500000000000 H
   0.9148700000000000    0.3408200000000000    0.9924300000000000 H
   0.7150599999999999    0.4988800000000000    0.9241900000000000 H
   0.8812633333333333    0.4975200000000000    0.9233300000000000 H
   0.7487366666666666    0.5123700000000000    0.9754200000000000 H
   0.9146399999999999    0.5119500000000000    0.9750500000000000 H
   0.7200299999999999    0.6039200000000000    0.2144000000000000 H
   0.8863799999999999    0.6049000000000000    0.2144500000000000 H
   0.7651899999999999    0.6987700000000000    0.3760900000000000 H
   0.9315033333333333    0.6984399999999999    0.3765200000000000 H
   0.7196699999999999    0.8279100000000000    0.3345200000000000 H
   0.8863500000000000    0.8284800000000000    0.3349800000000000 H
   0.6901166666666666    0.7547300000000000    0.1793000000000000 H
   0.8570633333333333    0.7575000000000000    0.1794400000000000 H
   0.6900633333333333    0.8463900000000000    0.2309400000000000 H
   0.8562433333333332    0.8474900000000000    0.2323100000000000 H
   0.8128400000000000    0.6751700000000000    0.2404000000000000 H
   0.9790466666666666    0.6762200000000000    0.2421200000000000 H
   0.8140333333333333    0.7590500000000000    0.2967800000000000 H
   0.9810399999999999    0.7616600000000000    0.2972700000000000 H
   0.7818166666666666    0.9080400000000000    0.2775800000000000 H
   0.9481933333333332    0.9086600000000000    0.2783400000000000 H
   0.7862733333333333    0.7188600000000001    0.1330600000000000 H
   0.9532666666666666    0.7204199999999999    0.1333400000000000 H
   0.7404900000000000    0.8562600000000000    0.1042200000000000 H
   0.9070833333333332    0.8569300000000000    0.1048000000000000 H
   0.7368566666666666    0.5193400000000000    0.6419200000000000 H
   0.9054599999999999    0.5178100000000000    0.6426600000000000 H
   0.7588233333333333    0.4299800000000000    0.6074600000000000 H
   0.9274633333333333    0.4284900000000000    0.6081800000000001 H
   0.7753800000000000    0.6301500000000000    0.5864300000000000 H
   0.9435166666666666    0.6287100000000000    0.5861200000000000 H
   0.7971733333333333    0.5382800000000000    0.5545300000000000 H