H4 C8 O4
1.0
   9.2566991538572712    0.0000000000000000    3.4807658675897892
   4.6244508527886250   13.1492988885270954    1.7370563060311630
   0.0000000000000000    0.0000000000000000   28.0954000000000015
H C O
4 8 4
direct
   0.2900200000000000    0.8368300000000000    0.0476650000000000 H
   0.1146800000000000    0.1632900000000000    0.0476600000000000 H
   0.2206900000000000    0.1632900000000000    0.9522900000000001 H
   0.3751300000000000    0.8367500000000000    0.9522850000000000 H
   0.2723500000000000    0.9078300000000000    0.0263900000000000 C
   0.1750600000000000    0.0922700000000000    0.0263950000000000 C
   0.1400000000000000    0.0000700000000000    0.1100750000000000 C
   0.1969100000000000    0.0000500000000000    0.0531050000000000 C
   0.2321200000000000    0.0922600000000000    0.9735600000000000 C
   0.3211000000000000    0.9078000000000001    0.9735549999999999 C
   0.3604400000000000    0.0000200000000000    0.8898750000000000 C
   0.3034600000000000    0.0000200000000000    0.9468449999999999 C
   1.0220199999999999    0.0748400000000000    0.1313900000000000 O
   0.2154700000000000    0.9253300000000000    0.1313800000000000 O
   0.3595100000000000    0.9253100000000000    0.8685849999999999 O
   0.4039700000000000    0.0747100000000000    0.8685900000000000 O
