H6 O4
1.0
   9.2566991538572712    0.0000000000000000    3.4807658675897892
   4.6244508527886250   13.1492988885270954    1.7370563060311630
   0.0000000000000000    0.0000000000000000   28.0954000000000015
H O
6 4
direct
   0.9707338665035886    0.1291796467340526    0.1124311027052458 H
   0.3047527378879151    0.8710216440032299    0.1124238641319332 H
   0.1449140568392995    1.0000867571380407    0.1052976500795905 H
   0.3244808457879597    0.8710196119598047    0.8875528970811860 H
   0.4012505015003858    0.1289525950341308    0.8875501854056055 H
   0.3557653812058006   -0.0000005523537657    0.8946922644906425 H
   1.0220199999999999    0.0748400000000000    0.1313900000000000 O
   0.2154700000000000    0.9253300000000000    0.1313800000000000 O
   0.3595100000000000    0.9253100000000000    0.8685849999999999 O
   0.4039700000000000    0.0747100000000000    0.8685900000000000 O
