H1 C1 N4
1.0
   9.2566991538572712    0.0000000000000000    3.4807658675897892
   4.6244508527886250   13.1492988885270954    1.7370563060311630
   0.0000000000000000    0.0000000000000000   28.0954000000000015
H C N
1 1 4
direct
   0.4043100000000000    0.6109000000000000    0.1435550000000000 H
   0.2898000000000000    0.6268200000000000    0.1427350000000000 C
   0.2494400000000000    0.5747200000000000    0.1164250000000000 N
   0.0980600000000000    0.6252200000000000    0.1244150000000000 N
   0.0502200000000000    0.7041400000000000    0.1544850000000000 N
   0.1700300000000000    0.7063700000000001    0.1667150000000000 N
