Cd48 H427 C575 S95 N239 O1
1.0
  31.7190866424936928    0.0000000000000000   -4.5092113019881870
  -1.2082216222760682   18.4688806705200150   -8.5242463766339256
   0.0000000000000000    0.0000000000000000   36.4829999999999970
Cd H C S N O
48 427 575 95 239 1
direct
   0.5000050000000000    0.9999900000000000    0.8333400000000000 Cd
   0.7500000000000000    0.4999800000000000    0.1666733333333333 Cd
   0.6250000000000000    0.7499800000000000    0.5000033333333334 Cd
   0.0000050000000000    0.9999900000000000    0.8333400000000000 Cd
   0.2500000000000000    0.4999800000000000    0.1666733333333333 Cd
   0.1250000000000000    0.7499800000000000    0.5000033333333334 Cd
   0.0000050000000000    0.9999900000000000    0.1666733333333333 Cd
   0.2500000000000000    0.4999800000000000    0.5000066666666667 Cd
   0.1250000000000000    0.7499800000000000    0.8333366666666666 Cd
   0.5000050000000000    0.9999900000000000    0.1666733333333333 Cd
   0.7500000000000000    0.4999800000000000    0.5000066666666667 Cd
   0.6250000000000000    0.7499800000000000    0.8333366666666666 Cd
   0.5000050000000000    0.9999900000000000    0.5000066666666667 Cd
   0.7500000000000000    0.4999800000000000    0.8333400000000000 Cd
   0.6250000000000000    0.7499800000000000    0.1666700000000000 Cd
   0.0000050000000000    0.9999900000000000    0.5000066666666667 Cd
   0.2500000000000000    0.4999800000000000    0.8333400000000000 Cd
   0.1250000000000000    0.7499800000000000    0.1666700000000000 Cd
   0.5000050000000000    0.4999800000000000    0.1666733333333333 Cd
   0.6250000000000000    0.2499900000000000    0.8333366666666666 Cd
   0.7500000000000000    0.9999900000000000    0.5000066666666667 Cd
   0.8750000000000000    0.7499800000000000    0.1666700000000000 Cd
   0.8750000000000000    0.2499900000000000    0.1666733333333333 Cd
   0.0000050000000000    0.4999800000000000    0.8333400000000000 Cd
   0.1250000000000000    0.2499900000000000    0.5000033333333334 Cd
   0.2500000000000000    0.9999900000000000    0.1666733333333333 Cd
   0.3750000000000000    0.7499800000000000    0.8333366666666666 Cd
   0.3750000000000000    0.2499900000000000    0.8333400000000000 Cd
   0.5000050000000000    0.4999800000000000    0.5000066666666667 Cd
   0.6250000000000000    0.2499900000000000    0.1666700000000000 Cd
   0.7500000000000000    0.9999900000000000    0.8333400000000000 Cd
   0.8750000000000000    0.2499900000000000    0.5000066666666667 Cd
   0.8750000000000000    0.7499800000000000    0.5000033333333334 Cd
   0.0000050000000000    0.4999800000000000    0.1666733333333333 Cd
   0.1250000000000000    0.2499900000000000    0.8333366666666666 Cd
   0.2500000000000000    0.9999900000000000    0.5000066666666667 Cd
   0.3750000000000000    0.7499800000000000    0.1666700000000000 Cd
   0.3750000000000000    0.2499900000000000    0.1666733333333333 Cd
   0.5000050000000000    0.4999800000000000    0.8333400000000000 Cd
   0.6250000000000000    0.2499900000000000    0.5000033333333334 Cd
   0.7500000000000000    0.9999900000000000    0.1666733333333333 Cd
   0.8750000000000000    0.7499800000000000    0.8333366666666666 Cd
   0.8750000000000000    0.2499900000000000    0.8333400000000000 Cd
   0.0000050000000000    0.4999800000000000    0.5000066666666667 Cd
   0.1250000000000000    0.2499900000000000    0.1666700000000000 Cd
   0.2500000000000000    0.9999900000000000    0.8333400000000000 Cd
   0.3750000000000000    0.2499900000000000    0.5000066666666667 Cd
   0.3750000000000000    0.7499800000000000    0.5000033333333334 Cd
   0.5743600000000000    0.8849500000000000    0.6967000000000000 H
   0.5273150000000000    0.0964700000000000    0.7208133333333333 H
   0.5061500000000000    0.0979300000000000    0.7838466666666666 H
   0.5502600000000000    0.8952400000000000    0.7600366666666667 H
   0.5626350000000000    0.0402500000000000    0.6666566666666667 H
   0.5498900000000000    0.8399400000000000    0.6361533333333333 H
   0.5982450000000000    0.0151400000000000    0.6126400000000000 H
   0.6193150000000001    0.9220699999999999    0.5495833333333333 H
   0.5740450000000000    0.7552100000000000    0.5728766666666667 H
   0.7001100000000000    0.6600200000000001    0.3638533333333333 H
   0.6517550000000000    0.4848200000000000    0.3873700000000000 H
   0.6306900000000000    0.5779000000000000    0.4504233333333333 H
   0.6759550000000000    0.7447500000000000    0.4271300000000000 H
   0.6756400000000000    0.6150000000000000    0.3033066666666666 H
   0.7226900000000001    0.4035000000000000    0.2790000000000000 H
   0.7438549999999999    0.4020400000000000    0.2161666666666666 H
   0.6997350000000000    0.6047200000000000    0.2399733333333333 H
   0.0743600000000000    0.8849500000000000    0.6967000000000000 H
   0.0273150000000000    0.0964700000000000    0.7208133333333333 H
   0.0061500000000000    0.0979300000000000    0.7838466666666666 H
   0.0502600000000000    0.8952400000000000    0.7600366666666667 H
   0.0626350000000000    0.0402500000000000    0.6666566666666667 H
   0.0498900000000000    0.8399400000000000    0.6361533333333333 H
   0.0982450000000000    0.0151400000000000    0.6126400000000000 H
   0.1193150000000000    0.9220699999999999    0.5495833333333333 H
   0.0740450000000000    0.7552100000000000    0.5728766666666667 H
   0.2001100000000000    0.6600200000000001    0.3638533333333333 H
   0.1517550000000000    0.4848200000000000    0.3873700000000000 H
   0.1306900000000000    0.5779000000000000    0.4504233333333333 H
   0.1759550000000000    0.7447500000000000    0.4271300000000000 H
   0.1756400000000000    0.6150000000000000    0.3033066666666666 H
   0.2226900000000000    0.4035000000000000    0.2790000000000000 H
   0.2438550000000000    0.4020400000000000    0.2161666666666666 H
   0.1997350000000000    0.6047200000000000    0.2399733333333333 H
   0.0743600000000000    0.8849500000000000    0.0300333333333333 H
   0.0273150000000000    0.0964700000000000    0.0541466666666667 H
   0.0061500000000000    0.0979300000000000    0.1171800000000000 H
   0.0502600000000000    0.8952400000000000    0.0933700000000000 H
   0.0626350000000000    0.0402500000000000    0.9999899999999999 H
   0.0498900000000000    0.8399400000000000    0.9694866666666666 H
   0.0982450000000000    0.0151400000000000    0.9459733333333333 H
   0.1193150000000000    0.9220699999999999    0.8829166666666666 H
   0.0740450000000000    0.7552100000000000    0.9062100000000000 H
   0.2001100000000000    0.6600200000000001    0.6971866666666666 H
   0.1517550000000000    0.4848200000000000    0.7207033333333333 H
   0.1306900000000000    0.5779000000000000    0.7837566666666667 H
   0.1759550000000000    0.7447500000000000    0.7604633333333333 H
   0.1756400000000000    0.6150000000000000    0.6366399999999999 H
   0.2226900000000000    0.4035000000000000    0.6123333333333333 H
   0.2438550000000000    0.4020400000000000    0.5495000000000000 H
   0.1997350000000000    0.6047200000000000    0.5733066666666666 H
   0.5743600000000000    0.8849500000000000    0.0300333333333333 H
   0.5273150000000000    0.0964700000000000    0.0541466666666667 H
   0.5061500000000000    0.0979300000000000    0.1171800000000000 H
   0.5502600000000000    0.8952400000000000    0.0933700000000000 H
   0.5626350000000000    0.0402500000000000    0.9999899999999999 H
   0.5498900000000000    0.8399400000000000    0.9694866666666666 H
   0.5982450000000000    0.0151400000000000    0.9459733333333333 H
   0.6193150000000001    0.9220699999999999    0.8829166666666666 H
   0.5740450000000000    0.7552100000000000    0.9062100000000000 H
   0.7001100000000000    0.6600200000000001    0.6971866666666666 H
   0.6517550000000000    0.4848200000000000    0.7207033333333333 H
   0.6306900000000000    0.5779000000000000    0.7837566666666667 H
   0.6759550000000000    0.7447500000000000    0.7604633333333333 H
   0.6756400000000000    0.6150000000000000    0.6366399999999999 H
   0.7226900000000001    0.4035000000000000    0.6123333333333333 H
   0.7438549999999999    0.4020400000000000    0.5495000000000000 H
   0.6997350000000000    0.6047200000000000    0.5733066666666666 H
   0.5743600000000000    0.8849500000000000    0.3633666666666667 H
   0.5273150000000000    0.0964700000000000    0.3874800000000000 H
   0.5061500000000000    0.0979300000000000    0.4505133333333333 H
   0.5502600000000000    0.8952400000000000    0.4267033333333333 H
   0.5626350000000000    0.0402500000000000    0.3333233333333333 H
   0.5498900000000000    0.8399400000000000    0.3028200000000000 H
   0.5982450000000000    0.0151400000000000    0.2793066666666666 H
   0.6193150000000001    0.9220699999999999    0.2162500000000000 H
   0.5740450000000000    0.7552100000000000    0.2395433333333333 H
   0.7001100000000000    0.6600200000000001    0.0305200000000000 H
   0.6517550000000000    0.4848200000000000    0.0540366666666667 H
   0.6306900000000000    0.5779000000000000    0.1170900000000000 H
   0.6759550000000000    0.7447500000000000    0.0937966666666667 H
   0.6756400000000000    0.6150000000000000    0.9699733333333332 H
   0.7226900000000001    0.4035000000000000    0.9456666666666667 H
   0.7438549999999999    0.4020400000000000    0.8828333333333332 H
   0.6997350000000000    0.6047200000000000    0.9066399999999999 H
   0.0743600000000000    0.8849500000000000    0.3633666666666667 H
   0.0273150000000000    0.0964700000000000    0.3874800000000000 H
   0.0061500000000000    0.0979300000000000    0.4505133333333333 H
   0.0502600000000000    0.8952400000000000    0.4267033333333333 H
   0.0626350000000000    0.0402500000000000    0.3333233333333333 H
   0.0498900000000000    0.8399400000000000    0.3028200000000000 H
   0.0982450000000000    0.0151400000000000    0.2793066666666666 H
   0.1193150000000000    0.9220699999999999    0.2162500000000000 H
   0.0740450000000000    0.7552100000000000    0.2395433333333333 H
   0.2001100000000000    0.6600200000000001    0.0305200000000000 H
   0.1517550000000000    0.4848200000000000    0.0540366666666667 H
   0.1306900000000000    0.5779000000000000    0.1170900000000000 H
   0.1759550000000000    0.7447500000000000    0.0937966666666667 H
   0.1756400000000000    0.6150000000000000    0.9699733333333332 H
   0.2226900000000000    0.4035000000000000    0.9456666666666667 H
   0.2438550000000000    0.4020400000000000    0.8828333333333332 H
   0.1997350000000000    0.6047200000000000    0.9066399999999999 H
   0.5743600000000000    0.3849600000000000    0.0300366666666667 H
   0.5273150000000000    0.5964699999999999    0.0541466666666667 H
   0.5061500000000000    0.5979300000000000    0.1171800000000000 H
   0.5502600000000000    0.3952400000000000    0.0933700000000000 H
   0.5498900000000000    0.3399400000000000    0.9694900000000000 H
   0.5982450000000000    0.5151400000000000    0.9459766666666666 H
   0.6193100000000000    0.4220700000000000    0.8829000000000000 H
   0.5740450000000000    0.2552200000000000    0.9062100000000000 H
   0.5626350000000000    0.5402500000000000    0.9999666666666667 H
   0.6756400000000000    0.1150100000000000    0.6366399999999999 H
   0.7226900000000001    0.9035000000000000    0.6125300000000000 H
   0.7438549999999999    0.9020300000000000    0.5495000000000000 H
   0.6997400000000000    0.1047300000000000    0.5733066666666666 H
   0.6873650000000000    0.9597100000000000    0.6666666666666666 H
   0.7001100000000000    0.1600300000000000    0.6971866666666666 H
   0.6517600000000000    0.9848300000000000    0.7207033333333333 H
   0.6306900000000000    0.0779000000000000    0.7837333333333333 H
   0.6759550000000000    0.2447500000000000    0.7604633333333333 H
   0.7998900000000000    0.8399400000000000    0.3028233333333333 H
   0.8482400000000000    0.0151400000000000    0.2793099999999999 H
   0.8693150000000001    0.9220699999999999    0.2162533333333333 H
   0.8240450000000000    0.7552100000000000    0.2395433333333333 H
   0.8126350000000000    0.0402600000000000    0.3333233333333333 H
   0.8243600000000000    0.8849600000000000    0.3633700000000000 H
   0.7773099999999999    0.0964700000000000    0.3874800000000000 H
   0.7561450000000001    0.0979300000000000    0.4505000000000000 H
   0.8002600000000000    0.8952400000000000    0.4267033333333333 H
   0.9501100000000000    0.1600300000000000    0.0305000000000000 H
   0.9017550000000000    0.9848300000000000    0.0540366666666667 H
   0.8806849999999999    0.0779000000000000    0.1170933333333333 H
   0.9259550000000000    0.2447600000000000    0.0938000000000000 H
   0.9256400000000000    0.1150100000000000    0.9699766666666666 H
   0.9726850000000000    0.9035000000000000    0.9458633333333333 H
   0.9938500000000000    0.9020300000000000    0.8828300000000000 H
   0.9497350000000000    0.1047300000000000    0.9066333333333333 H
   0.9373650000000000    0.9597100000000000    0.1000000000000000 H
   0.7998950000000000    0.3399400000000000    0.3028233333333333 H
   0.8482450000000000    0.5151400000000000    0.2793099999999999 H
   0.8693100000000000    0.4220700000000000    0.2162533333333333 H
   0.8240499999999999    0.2552200000000000    0.2395466666666666 H
   0.8126350000000000    0.5402600000000000    0.3333233333333333 H
   0.8243600000000000    0.3849600000000000    0.3633700000000000 H
   0.7773099999999999    0.5964699999999999    0.3874800000000000 H
   0.7561450000000001    0.5979300000000000    0.4505100000000000 H
   0.8002600000000000    0.3952500000000000    0.4267000000000000 H
   0.9501100000000000    0.6600300000000000    0.0305200000000000 H
   0.9017550000000000    0.4848200000000000    0.0540366666666667 H
   0.8806849999999999    0.5779000000000000    0.1170933333333333 H
   0.9259550000000000    0.7447500000000000    0.0938000000000000 H
   0.9256400000000000    0.6150099999999999    0.9699666666666666 H
   0.9726850000000000    0.4035000000000000    0.9458633333333333 H
   0.9938500000000000    0.4020300000000000    0.8828300000000000 H
   0.9497350000000000    0.6047200000000000    0.9066399999999999 H
   0.9373650000000000    0.4597100000000000    0.1000000000000000 H
   0.0743600000000000    0.3849600000000000    0.6967033333333333 H
   0.0273150000000000    0.5964699999999999    0.7208133333333333 H
   0.0061500000000000    0.5979300000000000    0.7838466666666666 H
   0.0502600000000000    0.3952400000000000    0.7600366666666667 H
   0.0498900000000000    0.3399400000000000    0.6361566666666667 H
   0.0982450000000000    0.5151400000000000    0.6126433333333332 H
   0.1193100000000000    0.4220700000000000    0.5495666666666666 H
   0.0740450000000000    0.2552200000000000    0.5728766666666667 H
   0.0626350000000000    0.5402500000000000    0.6666333333333333 H
   0.1756400000000000    0.1150100000000000    0.3033066666666666 H
   0.2226900000000000    0.9035000000000000    0.2791966666666666 H
   0.2438550000000000    0.9020300000000000    0.2161666666666666 H
   0.1997400000000000    0.1047300000000000    0.2399733333333333 H
   0.1873650000000000    0.9597100000000000    0.3333333333333333 H
   0.2001100000000000    0.1600300000000000    0.3638533333333333 H
   0.1517600000000000    0.9848300000000000    0.3873700000000000 H
   0.1306900000000000    0.0779000000000000    0.4504000000000000 H
   0.1759550000000000    0.2447500000000000    0.4271300000000000 H
   0.2998900000000000    0.8399400000000000    0.9694900000000000 H
   0.3482400000000000    0.0151400000000000    0.9459766666666666 H
   0.3693150000000000    0.9220699999999999    0.8829199999999999 H
   0.3240450000000000    0.7552100000000000    0.9062100000000000 H
   0.3126350000000000    0.0402600000000000    0.9999899999999999 H
   0.3243600000000000    0.8849600000000000    0.0300366666666667 H
   0.2773100000000000    0.0964700000000000    0.0541466666666667 H
   0.2561450000000000    0.0979300000000000    0.1171666666666667 H
   0.3002600000000000    0.8952400000000000    0.0933700000000000 H
   0.4501100000000000    0.1600300000000000    0.6971666666666666 H
   0.4017550000000000    0.9848300000000000    0.7207033333333333 H
   0.3806850000000000    0.0779000000000000    0.7837600000000000 H
   0.4259550000000000    0.2447600000000000    0.7604666666666666 H
   0.4256400000000000    0.1150100000000000    0.6366433333333332 H
   0.4726850000000000    0.9035000000000000    0.6125300000000000 H
   0.4938500000000000    0.9020300000000000    0.5494966666666666 H
   0.4497350000000000    0.1047300000000000    0.5732999999999999 H
   0.4373650000000000    0.9597100000000000    0.7666666666666666 H
   0.2998950000000000    0.3399400000000000    0.9694900000000000 H
   0.3482450000000000    0.5151400000000000    0.9459766666666666 H
   0.3693100000000000    0.4220700000000000    0.8829199999999999 H
   0.3240500000000000    0.2552200000000000    0.9062133333333333 H
   0.3126350000000000    0.5402600000000000    0.9999899999999999 H
   0.3243600000000000    0.3849600000000000    0.0300366666666667 H
   0.2773100000000000    0.5964699999999999    0.0541466666666667 H
   0.2561450000000000    0.5979300000000000    0.1171766666666667 H
   0.3002600000000000    0.3952500000000000    0.0933666666666667 H
   0.4501100000000000    0.6600300000000000    0.6971866666666666 H
   0.4017550000000000    0.4848200000000000    0.7207033333333333 H
   0.3806850000000000    0.5779000000000000    0.7837600000000000 H
   0.4259550000000000    0.7447500000000000    0.7604666666666666 H
   0.4256400000000000    0.6150099999999999    0.6366333333333334 H
   0.4726850000000000    0.4035000000000000    0.6125300000000000 H
   0.4938500000000000    0.4020300000000000    0.5494966666666666 H
   0.4497350000000000    0.6047200000000000    0.5733066666666666 H
   0.4373650000000000    0.4597100000000000    0.7666666666666666 H
   0.5743600000000000    0.3849600000000000    0.3633700000000000 H
   0.5273150000000000    0.5964699999999999    0.3874800000000000 H
   0.5061500000000000    0.5979300000000000    0.4505133333333333 H
   0.5502600000000000    0.3952400000000000    0.4267033333333333 H
   0.5498900000000000    0.3399400000000000    0.3028233333333333 H
   0.5982450000000000    0.5151400000000000    0.2793099999999999 H
   0.6193100000000000    0.4220700000000000    0.2162333333333333 H
   0.5740450000000000    0.2552200000000000    0.2395433333333333 H
   0.5626350000000000    0.5402500000000000    0.3333000000000000 H
   0.6756400000000000    0.1150100000000000    0.9699733333333332 H
   0.7226900000000001    0.9035000000000000    0.9458633333333333 H
   0.7438549999999999    0.9020300000000000    0.8828333333333332 H
   0.6997400000000000    0.1047300000000000    0.9066399999999999 H
   0.6873650000000000    0.9597100000000000    0.0000000000000000 H
   0.7001100000000000    0.1600300000000000    0.0305200000000000 H
   0.6517600000000000    0.9848300000000000    0.0540366666666667 H
   0.6306900000000000    0.0779000000000000    0.1170666666666667 H
   0.6759550000000000    0.2447500000000000    0.0937966666666667 H
   0.7998950000000000    0.3399400000000000    0.6361566666666667 H
   0.8482450000000000    0.5151400000000000    0.6126433333333332 H
   0.8693100000000000    0.4220700000000000    0.5495866666666667 H
   0.8240499999999999    0.2552200000000000    0.5728799999999999 H
   0.8126350000000000    0.5402600000000000    0.6666566666666667 H
   0.8243600000000000    0.3849600000000000    0.6967033333333333 H
   0.7773099999999999    0.5964699999999999    0.7208133333333333 H
   0.7561450000000001    0.5979300000000000    0.7838433333333333 H
   0.8002600000000000    0.3952500000000000    0.7600333333333333 H
   0.9501100000000000    0.6600300000000000    0.3638533333333333 H
   0.9017550000000000    0.4848200000000000    0.3873700000000000 H
   0.8806849999999999    0.5779000000000000    0.4504266666666666 H
   0.9259550000000000    0.7447500000000000    0.4271333333333333 H
   0.9256400000000000    0.6150099999999999    0.3033000000000000 H
   0.9726850000000000    0.4035000000000000    0.2791966666666666 H
   0.9938500000000000    0.4020300000000000    0.2161633333333333 H
   0.9497350000000000    0.6047200000000000    0.2399733333333333 H
   0.9373650000000000    0.4597100000000000    0.4333333333333333 H
   0.7998900000000000    0.8399400000000000    0.6361566666666667 H
   0.8482400000000000    0.0151400000000000    0.6126433333333332 H
   0.8693150000000001    0.9220699999999999    0.5495866666666667 H
   0.8240450000000000    0.7552100000000000    0.5728766666666667 H
   0.8126350000000000    0.0402600000000000    0.6666566666666667 H
   0.8243600000000000    0.8849600000000000    0.6967033333333333 H
   0.7773099999999999    0.0964700000000000    0.7208133333333333 H
   0.7561450000000001    0.0979300000000000    0.7838333333333333 H
   0.8002600000000000    0.8952400000000000    0.7600366666666667 H
   0.9501100000000000    0.1600300000000000    0.3638333333333333 H
   0.9017550000000000    0.9848300000000000    0.3873700000000000 H
   0.8806849999999999    0.0779000000000000    0.4504266666666666 H
   0.9259550000000000    0.2447600000000000    0.4271333333333333 H
   0.9256400000000000    0.1150100000000000    0.3033100000000000 H
   0.9726850000000000    0.9035000000000000    0.2791966666666666 H
   0.9938500000000000    0.9020300000000000    0.2161633333333333 H
   0.9497350000000000    0.1047300000000000    0.2399666666666667 H
   0.9373650000000000    0.9597100000000000    0.4333333333333333 H
   0.0743600000000000    0.3849600000000000    0.0300366666666667 H
   0.0273150000000000    0.5964699999999999    0.0541466666666667 H
   0.0061500000000000    0.5979300000000000    0.1171800000000000 H
   0.0502600000000000    0.3952400000000000    0.0933700000000000 H
   0.0498900000000000    0.3399400000000000    0.9694900000000000 H
   0.0982450000000000    0.5151400000000000    0.9459766666666666 H
   0.1193100000000000    0.4220700000000000    0.8829000000000000 H
   0.0740450000000000    0.2552200000000000    0.9062100000000000 H
   0.0626350000000000    0.5402500000000000    0.9999666666666667 H
   0.1756400000000000    0.1150100000000000    0.6366399999999999 H
   0.2226900000000000    0.9035000000000000    0.6125300000000000 H
   0.2438550000000000    0.9020300000000000    0.5495000000000000 H
   0.1997400000000000    0.1047300000000000    0.5733066666666666 H
   0.1873650000000000    0.9597100000000000    0.6666666666666666 H
   0.2001100000000000    0.1600300000000000    0.6971866666666666 H
   0.1517600000000000    0.9848300000000000    0.7207033333333333 H
   0.1306900000000000    0.0779000000000000    0.7837333333333333 H
   0.1759550000000000    0.2447500000000000    0.7604633333333333 H
   0.2998900000000000    0.8399400000000000    0.3028233333333333 H
   0.3482400000000000    0.0151400000000000    0.2793099999999999 H
   0.3693150000000000    0.9220699999999999    0.2162533333333333 H
   0.3240450000000000    0.7552100000000000    0.2395433333333333 H
   0.3126350000000000    0.0402600000000000    0.3333233333333333 H
   0.3243600000000000    0.8849600000000000    0.3633700000000000 H
   0.2773100000000000    0.0964700000000000    0.3874800000000000 H
   0.2561450000000000    0.0979300000000000    0.4505000000000000 H
   0.3002600000000000    0.8952400000000000    0.4267033333333333 H
   0.4501100000000000    0.1600300000000000    0.0305000000000000 H
   0.4017550000000000    0.9848300000000000    0.0540366666666667 H
   0.3806850000000000    0.0779000000000000    0.1170933333333333 H
   0.4259550000000000    0.2447600000000000    0.0938000000000000 H
   0.4256400000000000    0.1150100000000000    0.9699766666666666 H
   0.4726850000000000    0.9035000000000000    0.9458633333333333 H
   0.4938500000000000    0.9020300000000000    0.8828300000000000 H
   0.4497350000000000    0.1047300000000000    0.9066333333333333 H
   0.4373650000000000    0.9597100000000000    0.1000000000000000 H
   0.2998950000000000    0.3399400000000000    0.3028233333333333 H
   0.3482450000000000    0.5151400000000000    0.2793099999999999 H
   0.3693100000000000    0.4220700000000000    0.2162533333333333 H
   0.3240500000000000    0.2552200000000000    0.2395466666666666 H
   0.3126350000000000    0.5402600000000000    0.3333233333333333 H
   0.3243600000000000    0.3849600000000000    0.3633700000000000 H
   0.2773100000000000    0.5964699999999999    0.3874800000000000 H
   0.2561450000000000    0.5979300000000000    0.4505100000000000 H
   0.3002600000000000    0.3952500000000000    0.4267000000000000 H
   0.4501100000000000    0.6600300000000000    0.0305200000000000 H
   0.4017550000000000    0.4848200000000000    0.0540366666666667 H
   0.3806850000000000    0.5779000000000000    0.1170933333333333 H
   0.4259550000000000    0.7447500000000000    0.0938000000000000 H
   0.4256400000000000    0.6150099999999999    0.9699666666666666 H
   0.4726850000000000    0.4035000000000000    0.9458633333333333 H
   0.4938500000000000    0.4020300000000000    0.8828300000000000 H
   0.4497350000000000    0.6047200000000000    0.9066399999999999 H
   0.4373650000000000    0.4597100000000000    0.1000000000000000 H
   0.5743600000000000    0.3849600000000000    0.6967033333333333 H
   0.5273150000000000    0.5964699999999999    0.7208133333333333 H
   0.5061500000000000    0.5979300000000000    0.7838466666666666 H
   0.5502600000000000    0.3952400000000000    0.7600366666666667 H
   0.5498900000000000    0.3399400000000000    0.6361566666666667 H
   0.5982450000000000    0.5151400000000000    0.6126433333333332 H
   0.6193100000000000    0.4220700000000000    0.5495666666666666 H
   0.5740450000000000    0.2552200000000000    0.5728766666666667 H
   0.5626350000000000    0.5402500000000000    0.6666333333333333 H
   0.6756400000000000    0.1150100000000000    0.3033066666666666 H
   0.7226900000000001    0.9035000000000000    0.2791966666666666 H
   0.7438549999999999    0.9020300000000000    0.2161666666666666 H
   0.6997400000000000    0.1047300000000000    0.2399733333333333 H
   0.6873650000000000    0.9597100000000000    0.3333333333333333 H
   0.7001100000000000    0.1600300000000000    0.3638533333333333 H
   0.6517600000000000    0.9848300000000000    0.3873700000000000 H
   0.6306900000000000    0.0779000000000000    0.4504000000000000 H
   0.6759550000000000    0.2447500000000000    0.4271300000000000 H
   0.9075931207510828    0.8796145922024422    0.8302722932758498 H
   0.9085347917581382    0.8771976566235372    0.8095056997324318 H
   0.7998900000000000    0.8399400000000000    0.9694900000000000 H
   0.8482400000000000    0.0151400000000000    0.9459766666666666 H
   0.8693150000000001    0.9220699999999999    0.8829199999999999 H
   0.8240450000000000    0.7552100000000000    0.9062100000000000 H
   0.8126350000000000    0.0402600000000000    0.9999899999999999 H
   0.8243600000000000    0.8849600000000000    0.0300366666666667 H
   0.7773099999999999    0.0964700000000000    0.0541466666666667 H
   0.7561450000000001    0.0979300000000000    0.1171666666666667 H
   0.8002600000000000    0.8952400000000000    0.0933700000000000 H
   0.9501100000000000    0.1600300000000000    0.6971666666666666 H
   0.9017550000000000    0.9848300000000000    0.7207033333333333 H
   0.8806849999999999    0.0779000000000000    0.7837600000000000 H
   0.9259550000000000    0.2447600000000000    0.7604666666666666 H
   0.9256400000000000    0.1150100000000000    0.6366433333333332 H
   0.9726850000000000    0.9035000000000000    0.6125300000000000 H
   0.9938500000000000    0.9020300000000000    0.5494966666666666 H
   0.9497350000000000    0.1047300000000000    0.5732999999999999 H
   0.7998950000000000    0.3399400000000000    0.9694900000000000 H
   0.8482450000000000    0.5151400000000000    0.9459766666666666 H
   0.8693100000000000    0.4220700000000000    0.8829199999999999 H
   0.8240499999999999    0.2552200000000000    0.9062133333333333 H
   0.8126350000000000    0.5402600000000000    0.9999899999999999 H
   0.8243600000000000    0.3849600000000000    0.0300366666666667 H
   0.7773099999999999    0.5964699999999999    0.0541466666666667 H
   0.7561450000000001    0.5979300000000000    0.1171766666666667 H
   0.8002600000000000    0.3952500000000000    0.0933666666666667 H
   0.9501100000000000    0.6600300000000000    0.6971866666666666 H
   0.9017550000000000    0.4848200000000000    0.7207033333333333 H
   0.8806849999999999    0.5779000000000000    0.7837600000000000 H
   0.9259550000000000    0.7447500000000000    0.7604666666666666 H
   0.9256400000000000    0.6150099999999999    0.6366333333333334 H
   0.9726850000000000    0.4035000000000000    0.6125300000000000 H
   0.9938500000000000    0.4020300000000000    0.5494966666666666 H
   0.9497350000000000    0.6047200000000000    0.5733066666666666 H
   0.9373650000000000    0.4597100000000000    0.7666666666666666 H
   0.0743600000000000    0.3849600000000000    0.3633700000000000 H
   0.0273150000000000    0.5964699999999999    0.3874800000000000 H
   0.0061500000000000    0.5979300000000000    0.4505133333333333 H
   0.0502600000000000    0.3952400000000000    0.4267033333333333 H
   0.0498900000000000    0.3399400000000000    0.3028233333333333 H
   0.0982450000000000    0.5151400000000000    0.2793099999999999 H
   0.1193100000000000    0.4220700000000000    0.2162333333333333 H
   0.0740450000000000    0.2552200000000000    0.2395433333333333 H
   0.0626350000000000    0.5402500000000000    0.3333000000000000 H
   0.1756400000000000    0.1150100000000000    0.9699733333333332 H
   0.2226900000000000    0.9035000000000000    0.9458633333333333 H
   0.2438550000000000    0.9020300000000000    0.8828333333333332 H
   0.1997400000000000    0.1047300000000000    0.9066399999999999 H
   0.1873650000000000    0.9597100000000000    0.0000000000000000 H
   0.2001100000000000    0.1600300000000000    0.0305200000000000 H