H4 O2
1.0
  31.7190866424936928    0.0000000000000000   -4.5092113019881870
  -1.2082216222760682   18.4688806705200150   -8.5242463766339256
   0.0000000000000000    0.0000000000000000   36.4829999999999970
H O
4 2
direct
   0.1468732404720511    0.1134330822002847    0.7661784774790771 H
   0.1650420282659522    0.1807641098524433    0.7566649534169789 H
   0.2103047930618340    0.0461454084271956    0.5769438296742692 H
   0.2280011206084058   -0.0358403874852447    0.5672006580904140 H
   0.1509300000000000    0.1654900000000000    0.7741833333333333 O
   0.2241700000000000    0.0043900000000000    0.5593066666666666 O
