C1 S1 N1
1.0
  31.7190866424936928    0.0000000000000000   -4.5092113019881870
  -1.2082216222760682   18.4688806705200150   -8.5242463766339256
   0.0000000000000000    0.0000000000000000   36.4829999999999970
C S N
1 1 1
direct
   0.2147350000000000    0.1734300000000000    0.5268366666666666 C
   0.2009850000000000    0.2566200000000000    0.5497933333333334 S
   0.2250000000000000    0.1134300000000000    0.5102166666666667 N
