H2 O1
1.0
  31.7190866424936928    0.0000000000000000   -4.5092113019881870
  -1.2082216222760682   18.4688806705200150   -8.5242463766339256
   0.0000000000000000    0.0000000000000000   36.4829999999999970
H O
2 1
direct
   0.9075931207510828    0.8796145922024422    0.8302722932758498 H
   0.9085347917581382    0.8771976566235372    0.8095056997324318 H
   0.9002100000000000    0.8479000000000000    0.8230833333333333 O
