H2 C4 O4
1.0
  35.5993325906932014    0.0000000000000000    9.6954801375284614
   1.9546809436145891   11.6477539278447235    2.1902499503590480
   0.0000000000000000    0.0000000000000000   37.7280000000000015
H C O
2 4 4
direct
   0.0845850000000000    0.0729600000000000    0.0043733333333333 H
   0.1654200000000000    0.9270000000000000    0.9956300000000000 H
   0.1534000000000000    0.1036900000000000    0.0095200000000000 C
   0.1429950000000000    0.0009900000000000    0.0006333333333333 C
   0.0966050000000000    0.8962700000000000    0.9904799999999999 C
   0.1070150000000000    0.9989800000000000    0.9993666666666666 C
   0.1866350000000000    0.0940700000000000    0.0173566666666667 O
   0.1308000000000000    0.1974700000000000    0.0107366666666667 O
   0.0633750000000000    0.9058900000000000    0.9826466666666667 O
   0.1192050000000000    0.8024900000000000    0.9892699999999999 O
