H6 O4
1.0
  35.5993325906932014    0.0000000000000000    9.6954801375284614
   1.9546809436145891   11.6477539278447235    2.1902499503590480
   0.0000000000000000    0.0000000000000000   37.7280000000000015
H O
6 4
direct
   0.0466578244959769    0.9791000461865980    0.9852660632593127 H
   0.1432833817698671    0.7943847777515413    0.9961016574587052 H
   0.0982768244284239    0.8941414096431894    0.9925492137505100 H
   0.1422035362461876    0.1509316389914156    0.0134068680167628 H
   0.1050828754775705    0.2303817640281701    0.0084505060242686 H
   0.2040159594298391    0.0231374973833810    0.0214265148552966 H
   0.0633750000000000    0.9058900000000000    0.9826466666666667 O
   0.1192050000000000    0.8024900000000000    0.9892699999999999 O
   0.1308000000000000    0.1974700000000000    0.0107366666666667 O
   0.1866350000000000    0.0940700000000000    0.0173566666666667 O
