H4 C8 O4
1.0
  30.7988451678968360    0.0000000000000000   -8.5065527873468181
  -3.5533745105229899   18.2425364016825711   -6.6402628879624821
   0.0000000000000000    0.0000000000000000   27.0899999999999999
H C O
4 8 4
direct
   0.4610250000000000    0.5266400000000000    0.4180000000000000 H
   0.4199100000000000    0.5062800000000000    0.4801700000000000 H
   0.5800850000000000    0.4937100000000000    0.5198450000000000 H
   0.5389699999999999    0.4733500000000000    0.5819950000000000 H
   0.4777250000000000    0.5137800000000000    0.4534950000000000 C
   0.4549050000000000    0.5035100000000000    0.4884050000000000 C
   0.5478150000000001    0.5243100000000001    0.4287550000000000 C
   0.5228600000000000    0.5104100000000000    0.4648250000000000 C
   0.4521800000000000    0.4756800000000000    0.5712500000000000 C
   0.4771350000000000    0.4895800000000000    0.5351900000000001 C
   0.5450900000000000    0.4964800000000000    0.5116000000000001 C
   0.5222700000000000    0.4862100000000000    0.5465250000000000 C
   0.5279850000000000    0.5377600000000000    0.3859100000000000 O
   0.5892500000000001    0.5242200000000000    0.4413450000000000 O
   0.4720050000000000    0.4622200000000000    0.6141000000000000 O
   0.4107450000000000    0.4757800000000000    0.5586700000000000 O
