H6 O4
1.0
  30.7988451678968360    0.0000000000000000   -8.5065527873468181
  -3.5533745105229899   18.2425364016825711   -6.6402628879624821
   0.0000000000000000    0.0000000000000000   27.0899999999999999
H O
6 4
direct
   0.3992409072771765    0.4909017076817471    0.5279172504907661 H
   0.5038958259907990    0.4670727224530413    0.6236856440693377 H
   0.4564034283359237    0.4827276933717627    0.5723938666354959 H
   0.6007550048770003    0.5091067579151460    0.4721020281697701 H
   0.4960939035901460    0.5329045278630651    0.3763210259421161 H
   0.5435850332701893    0.5172674333418608    0.4276145162405584 H
   0.4107450000000000    0.4757800000000000    0.5586700000000000 O
   0.4720050000000000    0.4622200000000000    0.6141000000000000 O
   0.5892500000000001    0.5242200000000000    0.4413450000000000 O
   0.5279850000000000    0.5377600000000000    0.3859100000000000 O
