S1 O4
1.0
  18.6404149155616032    0.0000000000000000    8.0035447006753593
   4.6452164197209331   11.7786647855139304    1.9836522589529451
   0.0000000000000000    0.0000000000000000   25.6520000000000010
S O
1 4
direct
   0.3750150000000000    0.4999300000000000    0.2500150000000000 S
   0.4276100000000000    0.5510699999999999    0.2044350000000000 O
   0.4074950000000000    0.4487700000000000    0.2956350000000000 O
   0.2969600000000000    0.5912500000000001    0.2755750000000000 O
   0.3679800000000000    0.4086400000000000    0.2244000000000000 O
