H4 C6 N1 O2
1.0
  18.6404149155616032    0.0000000000000000    8.0035447006753593
   4.6452164197209331   11.7786647855139304    1.9836522589529451
   0.0000000000000000    0.0000000000000000   25.6520000000000010
H C N O
4 6 1 2
direct
   0.3212150000000000    0.3832500000000000    0.8709950000000000 H
   0.2641800000000000    0.4185200000000000    0.9753450000000000 H
   0.1159700000000000    0.3841100000000000    0.8709350000000000 H
   0.0512400000000000    0.4197600000000000    0.9751750000000000 H
   0.1169550000000000    0.4393000000000000    0.0469350000000000 C
   0.2620500000000000    0.3899900000000000    0.8957800000000000 C
   0.2298550000000000    0.4102400000000000    0.9538200000000000 C
   0.1471300000000000    0.3905000000000000    0.8957349999999999 C
   0.1112950000000000    0.4108800000000000    0.9537650000000000 C
   0.1532050000000000    0.4202500000000000    0.9837700000000000 C
   0.2216300000000000    0.3792700000000000    0.8670750000000000 N
   0.1580200000000000    0.4442000000000000    0.0727400000000000 O
   0.0468400000000000    0.4479700000000000    0.0724400000000000 O
