H3 O2
1.0
  18.6404149155616032    0.0000000000000000    8.0035447006753593
   4.6452164197209331   11.7786647855139304    1.9836522589529451
   0.0000000000000000    0.0000000000000000   25.6520000000000010
H O
3 2
direct
   0.3796242096003268    0.5658715905326400    0.1996196268793696 H
   0.3300796781058582    0.3774677524842247    0.2275126381855893 H
   0.2854064458765522    0.4341104554573387    0.2161137454715411 H
   0.4276100000000000    0.5510699999999999    0.2044350000000000 O
   0.3679800000000000    0.4086400000000000    0.2244000000000000 O
