H8 C10 O6
1.0
  34.8679999787571973    0.0000000000000000    0.0012171228069226
 -15.0149927161786909   35.4763515729121366   -0.0013447063752126
   0.0000000000000000    0.0000000000000000   35.7500000000000000
H C O
8 10 6
direct
   0.8477300000000000    0.2898900000000000    0.7407500000000000 H
   0.8036749999999999    0.2656133333333333    0.7126700000000000 H
   0.8089850000000001    0.1770600000000000    0.7933350000000000 H
   0.7460100000000001    0.2197500000000000    0.7127000000000000 H
   0.6522749999999999    0.0434366666666667    0.7592250000000000 H
   0.6963350000000000    0.0677133333333333    0.7873000000000000 H
   0.6910250000000000    0.1562700000000000    0.7066500000000000 H
   0.7540000000000000    0.1135766666666667    0.7873000000000000 H
   0.7909349999999999    0.2884333333333333    0.7641950000000000 C
   0.8150200000000001    0.2698666666666666    0.7417400000000001 C
   0.7817700000000001    0.2027800000000000    0.7536149999999999 C
   0.7830800000000000    0.1723533333333333    0.7742200000000000 C
   0.7482800000000001    0.1969600000000000    0.7293450000000000 C
   0.7090700000000000    0.0448933333333333    0.7358050000000000 C
   0.6849850000000000    0.0634600000000000    0.7582500000000000 C
   0.7182400000000000    0.1305466666666666    0.7463900000000000 C
   0.7169300000000001    0.1609733333333333    0.7257800000000000 C
   0.7517300000000000    0.1363666666666667    0.7706500000000001 C
   0.7863150000000000    0.3169000000000000    0.7492000000000000 O
   0.7772749999999999    0.2767566666666667    0.7964400000000000 O
   0.8157200000000000    0.2365333333333333    0.7582700000000000 O
   0.7136800000000000    0.0164233333333333    0.7507950000000000 O
   0.7227300000000000    0.0565700000000000    0.7035600000000000 O
   0.6842900000000001    0.0967966666666667    0.7417350000000000 O
