H4 C8 O4
1.0
  15.9818619384027851    0.0000000000000000    9.1684630108776908
   5.3089411943279812   15.0768501580569900    9.1783635091809384
   0.0000000000000000    0.0000000000000000   18.4329999999999998
H C O
4 8 4
direct
   0.0481400000000000    0.3356500000000000    0.5681600000000000 H
   0.0481400000000000    0.5682000000000000    0.3356500000000000 H
   0.9518799999999999    0.4318100000000000    0.6643300000000000 H
   0.9518799999999999    0.6643600000000000    0.4318100000000000 H
   0.0266700000000000    0.4076500000000000    0.5390700000000000 C
   0.0266700000000000    0.5391000000000000    0.4076400000000000 C
   0.9733500000000000    0.4609100000000000    0.5923300000000000 C
   0.9733400000000000    0.5923600000000000    0.4609000000000000 C
   0.1111200000000000    0.3891200000000000    0.3891000000000000 C
   0.0536900000000000    0.4464100000000000    0.4463900000000000 C
   0.8889000000000000    0.6108800000000000    0.6108700000000000 C
   0.9463200000000001    0.5536000000000000    0.5535800000000000 C
   0.1332800000000000    0.3053300000000000    0.4287000000000000 O
   0.1332800000000000    0.4287300000000000    0.3053100000000000 O
   0.8667400000000000    0.5712800000000000    0.6946600000000001 O
   0.8667400000000000    0.6946800000000000    0.5712699999999999 O
