Zn8 H26 C40 O26
1.0
  15.9818619384027851    0.0000000000000000    9.1684630108776908
   5.3089411943279812   15.0768501580569900    9.1783635091809384
   0.0000000000000000    0.0000000000000000   18.4329999999999998
Zn H C O
8 26 40 26
direct
   0.7934200000000000    0.7932600000000000    0.6190000000000000 Zn
   0.2066000000000000    0.3805000000000000    0.2067400000000000 Zn
   0.3804600000000000    0.2066400000000000    0.2066200000000000 Zn
   0.2066000000000000    0.2067500000000000    0.3804800000000000 Zn
   0.2064300000000000    0.2063400000000000    0.2063300000000000 Zn
   0.7934200000000000    0.6195100000000000    0.7932300000000000 Zn
   0.6195600000000000    0.7933700000000000    0.7933500000000000 Zn
   0.7936000000000000    0.7936700000000000    0.7936400000000000 Zn
   0.5681300000000000    0.0483700000000000    0.0483700000000000 H
   0.6643800000000000    0.9522500000000000    0.9522100000000000 H
   0.3356400000000000    0.0477600000000000    0.0477700000000000 H
   0.4318900000000000    0.9516300000000000    0.9516000000000000 H
   0.9517900000000000    0.9514200000000000    0.4319400000000000 H
   0.0480500000000000    0.0475400000000000    0.3356600000000000 H
   0.9519700000000000    0.9524700000000000    0.6643100000000000 H
   0.0482300000000000    0.0485900000000000    0.5680400000000000 H
   0.9519600000000000    0.6643400000000000    0.9524400000000000 H
   0.0482200000000000    0.5680700000000000    0.0486000000000000 H
   0.9518000000000000    0.4319400000000000    0.9513800000000000 H
   0.0480600000000000    0.3356700000000000    0.0475300000000000 H
   0.1134085039236743    0.2808632779051343    0.4929494832079628 H
   0.1134091733504031    0.4929836237302165    0.2808449867781546 H
   0.1056416633130204    0.3947003778574433    0.3946716083079770 H
   0.8867179431198471    0.7190077520793681    0.5070131144339454 H
   0.8866958695856464    0.5070211186200209    0.7190266887613886 H
   0.8945466977383854    0.6051410659098994    0.6052227749650452 H
   0.6643800000000000    0.9517000000000000    0.4318100000000000 H
   0.5681000000000000    0.0479400000000000    0.3356400000000000 H
   0.3356400000000000    0.0483100000000000    0.5681000000000000 H
   0.4319200000000000    0.9520700000000000    0.6643300000000000 H
   0.6643800000000000    0.4318100000000000    0.9516600000000000 H
   0.5681000000000000    0.3356600000000000    0.0479000000000000 H
   0.3356400000000000    0.5682000000000000    0.0483000000000000 H
   0.4319200000000000    0.6643500000000000    0.9520400000000000 H
   0.3889800000000000    0.1109400000000000    0.1109500000000000 C
   0.6110400000000000    0.8890700000000000    0.8890300000000000 C
   0.5390400000000000    0.0268100000000000    0.0268000000000000 C
   0.5923700000000000    0.9735500000000000    0.9735100000000000 C
   0.5537000000000000    0.9463800000000000    0.9463500000000000 C
   0.4076400000000000    0.0264600000000000    0.0264600000000000 C
   0.4609800000000000    0.9732100000000000    0.9731700000000000 C
   0.4463200000000000    0.0536200000000000    0.0536300000000000 C
   0.1110100000000000    0.1109500000000000    0.3889500000000000 C
   0.8890100000000000    0.8890600000000000    0.6110200000000000 C
   0.9733000000000001    0.9730799999999999    0.4609800000000000 C
   0.0266200000000000    0.0263300000000000    0.4076500000000000 C
   0.0536700000000000    0.0536100000000000    0.4463000000000000 C
   0.9734000000000000    0.9736800000000000    0.5923300000000000 C
   0.0267200000000000    0.0269200000000000    0.5389900000000000 C
   0.9463400000000000    0.9464000000000000    0.5536700000000000 C
   0.8890000000000000    0.6110400000000000    0.8890000000000000 C
   0.1110100000000000    0.3889700000000000    0.1109400000000000 C
   0.9734000000000000    0.5923400000000000    0.9736500000000000 C
   0.0267100000000000    0.5390200000000001    0.0269000000000000 C
   0.9733100000000000    0.4609900000000000    0.9730400000000000 C
   0.0266200000000000    0.4076700000000000    0.0263200000000000 C
   0.0536700000000000    0.4463200000000000    0.0536100000000000 C
   0.9463400000000000    0.5536799999999999    0.9463700000000000 C
   0.6110000000000000    0.8888700000000000    0.6108000000000000 C
   0.3890200000000000    0.1111400000000000    0.3891100000000000 C
   0.5923800000000000    0.9732499999999999    0.4608900000000000 C
   0.5390600000000000    0.0265500000000000    0.4076400000000000 C
   0.5536600000000000    0.9463400000000000    0.5535000000000000 C
   0.4076400000000000    0.0267600000000000    0.5390800000000000 C
   0.4609600000000000    0.9734600000000000    0.5923400000000000 C
   0.4463600000000000    0.0536700000000000    0.4464000000000000 C
   0.3890200000000000    0.3891300000000000    0.1111000000000000 C
   0.6110000000000000    0.6108800000000000    0.8888400000000000 C
   0.5923800000000000    0.4609000000000000    0.9732100000000000 C
   0.5390500000000000    0.4076600000000000    0.0265400000000000 C
   0.4463600000000000    0.4464200000000000    0.0536000000000000 C
   0.4076400000000000    0.5391100000000000    0.0267600000000000 C
   0.4609700000000000    0.5923500000000000    0.9734300000000000 C
   0.5536600000000000    0.5535900000000000    0.9463000000000000 C
   0.4286200000000000    0.1331600000000000    0.1331500000000000 O
   0.3051500000000000    0.1329300000000000    0.1329300000000000 O
   0.5714000000000000    0.8668500000000000    0.8668200000000000 O
   0.6948700000000000    0.8670800000000000    0.8670400000000000 O
   0.1332000000000000    0.1331800000000000    0.4285800000000000 O
   0.1330100000000000    0.1329200000000000    0.3051500000000000 O
   0.8670099999999999    0.8670900000000000    0.6948200000000000 O
   0.8668200000000000    0.8668200000000000    0.5710000000000000 O
   0.8668300000000000    0.5714100000000000    0.8667800000000000 O
   0.8670000000000000    0.6948500000000000    0.8670600000000001 O
   0.1331900000000000    0.4286000000000000    0.1331800000000000 O
   0.1330200000000000    0.3051600000000000    0.1329100000000000 O
   0.1332800000000000    0.3053300000000000    0.4287000000000000 O
   0.1332800000000000    0.4287300000000000    0.3053100000000000 O
   0.8667400000000000    0.6946800000000000    0.5712699999999999 O
   0.8667400000000000    0.5712800000000000    0.6946600000000001 O
   0.6947900000000000    0.8667200000000000    0.5712600000000000 O
   0.5714200000000000    0.8667000000000000    0.6946500000000000 O
   0.3052300000000000    0.1332900000000000    0.4287100000000000 O
   0.4286000000000000    0.1333000000000000    0.3053200000000000 O
   0.2499700000000000    0.2500300000000000    0.2500100000000000 O
   0.3052300000000000    0.4287400000000000    0.1332800000000000 O
   0.4286000000000000    0.3053400000000000    0.1330000000000000 O
   0.6947900000000000    0.5712699999999999    0.8666900000000000 O
   0.5714200000000000    0.6946700000000000    0.8666000000000000 O
   0.7500500000000000    0.7499800000000000    0.7499600000000000 O
