H8 C10 N2
1.0
  19.0600504756253457    0.0000000000000000   -4.5344172576654200
  -4.0925546600308698   13.2876605554250506   -3.1815471579816057
   0.0000000000000000    0.0000000000000000   28.5399999999999991
H C N
8 10 2
direct
   0.6638300000000000    0.5943100000000000    0.4911450000000000 H
   0.7303300000000000    0.3221100000000000    0.4819850000000000 H
   0.5360800000000000    0.4865500000000000    0.4565050000000000 H
   0.5989700000000000    0.2267300000000000    0.4495200000000000 H
   0.8362500000000000    0.4057100000000000    0.5087800000000000 H
   0.7697500000000000    0.6779300000000000    0.5180700000000000 H
   0.9640100000000000    0.5134600000000000    0.5434200000000000 H
   0.9011100000000000    0.7733000000000000    0.5505250000000000 H
   0.7109100000000000    0.4691100000000000    0.4899000000000000 C
   0.6536200000000000    0.5132800000000000    0.4822050000000000 C
   0.6901200000000000    0.3634400000000000    0.4776350000000000 C
   0.5810700000000000    0.4535700000000000    0.4630900000000000 C
   0.6163500000000000    0.3085700000000000    0.4589850000000000 C
   0.7891700000000000    0.5309100000000000    0.5100900000000000 C
   0.8464600000000000    0.4867400000000000    0.5177500000000000 C
   0.8099600000000000    0.6365900000000000    0.5223900000000000 C
   0.9190100000000000    0.5464400000000000    0.5368650000000000 C
   0.8837400000000000    0.6914600000000000    0.5410000000000000 C
   0.5619600000000000    0.3521600000000000    0.4514300000000000 N
   0.9381200000000000    0.6478600000000000    0.5485550000000000 N
