H4 C10 S2 O4
1.0
  19.0600504756253457    0.0000000000000000   -4.5344172576654200
  -4.0925546600308698   13.2876605554250506   -3.1815471579816057
   0.0000000000000000    0.0000000000000000   28.5399999999999991
H C S O
4 10 2 4
direct
   0.9877899999999999    0.7414800000000000    0.8230750000000000 H
   0.2402600000000000    0.9337000000000000    0.9066500000000000 H
   0.9670200000000000    0.7297200000000000    0.7266100000000000 H
   0.2670300000000000    0.9229900000000000    0.9998800000000000 H
   0.1541500000000000    0.7912500000000000    0.0243600000000000 C
   0.1383300000000000    0.8123200000000000    0.8873550000000000 C
   0.0852400000000000    0.7859900000000000    0.7435100000000000 C
   0.0971400000000000    0.7899200000000000    0.6946800000000000 C
   0.0316800000000000    0.7607100000000000    0.8062849999999999 C
   0.2048400000000000    0.8801400000000000    0.9190849999999999 C
   0.0203500000000000    0.7549400000000001    0.7549399999999999 C
   0.1633500000000000    0.8055099999999999    0.9762450000000000 C
   0.1056600000000000    0.7965500000000000    0.8342550000000000 C
   0.2190600000000000    0.8751400000000000    0.9690449999999999 C
   0.0943100000000000    0.7422700000000000    0.9201300000000000 S
   0.1606400000000000    0.8220300000000000    0.7961849999999999 S
   0.2081000000000000    0.8392600000000000    0.0639300000000000 O
   0.0925500000000000    0.7334800000000000    0.0224500000000000 O
   0.1643700000000000    0.8186700000000000    0.6952950000000000 O
   0.0410700000000000    0.7648000000000000    0.6564850000000000 O
