H6 O4
1.0
  27.7700974615718152    0.0000000000000000   10.4422976027693686
   4.6244508527886250   13.1492988885270954    1.7370563060311630
   0.0000000000000000    0.0000000000000000   14.0477000000000007
H O
6 4
direct
   0.8236718796687795    0.2248377309811448    0.1292214525507105 H
   0.9349924030522626    0.2248901860613910    0.8709966457025221 H
   0.8817317720626967    0.2106129983331669    0.0000852699536943 H
   0.9415287241602147    0.7751146415722334    0.8710040549313547 H
   0.9670944571636426    0.7751007551594794    0.1289230791838638 H
   0.9519453711937378    0.7893874082734996    0.9999691715790984 H
   0.8407533333333332    0.2627700000000000    0.0748500000000000 O
   0.9052233333333333    0.2627800000000000    0.9253100000000000 O
   0.9531966666666666    0.7371799999999999    0.9252899999999999 O
   0.9680033333333333    0.7371799999999999    0.0746800000000000 O
