H3 O2
1.0
  27.7700974615718152    0.0000000000000000   10.4422976027693686
   4.6244508527886250   13.1492988885270954    1.7370563060311630
   0.0000000000000000    0.0000000000000000   14.0477000000000007
H O
3 2
direct
   0.1777426530026274    0.7628452172611572    0.4111646629798591 H
   0.1798441960196880    0.7068187542965210    0.3164817654909279 H
   0.2210729192953643    0.7288351796995849    0.3871810559852216 H
   0.1857000000000000    0.7673400000000000    0.4253200000000000 O
   0.1573566666666666    0.7513300000000001    0.3749000000000000 O
