H1 C1 N4
1.0
  27.7700974615718152    0.0000000000000000   10.4422976027693686
   4.6244508527886250   13.1492988885270954    1.7370563060311630
   0.0000000000000000    0.0000000000000000   14.0477000000000007
H C N
1 1 4
direct
   0.2674566666666667    0.7131200000000000    0.3890800000000000 H
   0.2340400000000000    0.7147200000000000    0.3732000000000000 C
   0.1857000000000000    0.7673400000000000    0.4253200000000000 N
   0.1573566666666666    0.7513300000000001    0.3749000000000000 N
   0.1877400000000000    0.6911900000000000    0.2959700000000000 N
   0.2365800000000000    0.6666666666666666    0.2936900000000000 N
