H4 C8 O4
1.0
  27.7700974615718152    0.0000000000000000   10.4422976027693686
   4.6244508527886250   13.1492988885270954    1.7370563060311630
   0.0000000000000000    0.0000000000000000   14.0477000000000007
H C O
4 8 4
direct
   0.8715400000000000    0.0953200000000000    0.1632800000000000 H
   0.9585166666666667    0.9045900000000000    0.8367300000000000 H
   0.9301599999999999    0.0953500000000000    0.8368300000000000 H
   0.9068566666666666    0.9045700000000000    0.1632700000000000 H
   0.8917033333333333    0.0527900000000000    0.0922600000000000 C
   0.9404699999999999    0.9471200000000000    0.9077800000000000 C
   0.9242266666666666    0.0528000000000000    0.9078300000000000 C
   0.9107066666666666    0.9471100000000000    0.0922400000000000 C
   0.8800699999999999    0.2201600000000000    0.0000700000000000 C
   0.8990300000000000    0.1062300000000000    0.0000600000000000 C
   0.9535066666666666    0.7797700000000000    0.0000000000000000 C
   0.9345333333333332    0.8937000000000000    0.0000000000000000 C
   0.9052233333333333    0.2627800000000000    0.9253100000000000 O
   0.9680033333333333    0.7371799999999999    0.0746800000000000 O
   0.8407533333333332    0.2627700000000000    0.0748500000000000 O
   0.9531966666666666    0.7371799999999999    0.9252899999999999 O
