H3 O3
1.0
  14.1530373134598921    0.0000000000000000   -1.5622598387630748
   1.2391993816077134   12.7808012683038363   -1.7541675611942449
   0.0000000000000000    0.0000000000000000   38.8800000000000026
H O
3 3
direct
   0.0869105639060566    0.6582824379812268    0.3874419330490112 H
   0.0000000000000000    0.6665239179051367    0.5692666813744471 H
   0.0875720932430933    0.8368394903938132    0.4924567831471763 H
   0.1015900000000000    0.6845800000000000    0.3664033333333333 O
   0.0000000000000000    0.6975000000000000    0.5936600000000000 O
   0.1089400000000000    0.9065100000000000    0.4994533333333333 O
