Cd24 H23 C138 N207
1.0
  14.1530373134598921    0.0000000000000000   -1.5622598387630748
   1.2391993816077134   12.7808012683038363   -1.7541675611942449
   0.0000000000000000    0.0000000000000000   38.8800000000000026
Cd H C N
24 23 138 207
direct
   0.9537000000000000    0.3428700000000000    0.0214566666666667 Cd
   0.2962700000000000    0.0644300000000000    0.1143000000000000 Cd
   0.7963900000000000    0.0643800000000000    0.1142833333333333 Cd
   0.0463200000000000    0.6571600000000000    0.3118800000000000 Cd
   0.5463100000000000    0.6571200000000000    0.3118533333333333 Cd
   0.2036300000000000    0.9356600000000000    0.2190533333333333 Cd
   0.7037600000000001    0.9356100000000001    0.2190133333333333 Cd
   0.4537200000000000    0.3429200000000000    0.0214833333333333 Cd
   0.9537000000000000    0.3428700000000000    0.3547900000000000 Cd
   0.2962700000000000    0.0644300000000000    0.4476333333333333 Cd
   0.7963900000000000    0.0643800000000000    0.4476166666666667 Cd
   0.0463200000000000    0.6571600000000000    0.6452133333333333 Cd
   0.5463100000000000    0.6571200000000000    0.6451866666666666 Cd
   0.2036300000000000    0.9356600000000000    0.5523866666666666 Cd
   0.7037600000000001    0.9356100000000001    0.5523466666666667 Cd
   0.4537200000000000    0.3429200000000000    0.3548166666666667 Cd
   0.9537000000000000    0.3428700000000000    0.6881233333333333 Cd
   0.2962700000000000    0.0644300000000000    0.7809666666666666 Cd
   0.7963900000000000    0.0643800000000000    0.7809499999999999 Cd
   0.0463200000000000    0.6571600000000000    0.9785466666666667 Cd
   0.5463100000000000    0.6571200000000000    0.9785199999999999 Cd
   0.2036300000000000    0.9356600000000000    0.8857200000000000 Cd
   0.7037600000000001    0.9356100000000001    0.8856799999999999 Cd
   0.4537200000000000    0.3429200000000000    0.6881499999999999 Cd
   0.2264600000000000    0.4120900000000000    0.1783833333333333 H
   0.7265000000000000    0.4120800000000000    0.1784000000000000 H
   0.0236100000000000    0.5352100000000000    0.1373566666666667 H
   0.5234700000000000    0.5352200000000000    0.1373466666666667 H
   0.2735200000000000    0.5879600000000000    0.1549366666666667 H
   0.7735600000000000    0.5879500000000000    0.1549533333333333 H
   0.4765500000000000    0.4648200000000000    0.1959900000000000 H
   0.9764200000000000    0.4648200000000000    0.1959800000000000 H
   0.2264600000000000    0.4120900000000000    0.5117166666666666 H
   0.7265000000000000    0.4120800000000000    0.5117333333333334 H
   0.5234700000000000    0.5352200000000000    0.4706800000000000 H
   0.2735200000000000    0.5879600000000000    0.4882700000000000 H
   0.7735600000000000    0.5879500000000000    0.4882866666666666 H
   0.4765500000000000    0.4648200000000000    0.5293233333333334 H
   0.9764200000000000    0.4648200000000000    0.5293133333333333 H
   0.2264600000000000    0.4120900000000000    0.8450500000000000 H
   0.7265000000000000    0.4120800000000000    0.8450666666666666 H
   0.0236100000000000    0.5352100000000000    0.8040233333333333 H
   0.5234700000000000    0.5352200000000000    0.8040133333333332 H
   0.2735200000000000    0.5879600000000000    0.8216033333333332 H
   0.7735600000000000    0.5879500000000000    0.8216200000000000 H
   0.4765500000000000    0.4648200000000000    0.8626566666666666 H
   0.9764200000000000    0.4648200000000000    0.8626466666666666 H
   0.2197400000000000    0.5254500000000000    0.2221166666666667 C
   0.7198000000000000    0.5254500000000000    0.2221300000000000 C
   0.1897000000000000    0.3481100000000000    0.2218533333333333 C
   0.6897600000000000    0.3481100000000000    0.2218700000000000 C
   0.1709000000000000    0.4689100000000000    0.2696000000000000 C
   0.6710100000000000    0.4689000000000000    0.2696200000000000 C
   0.2477700000000000    0.6928700000000000    0.2200600000000000 C
   0.7478700000000000    0.6928500000000000    0.2200666666666667 C
   0.1662400000000000    0.1757000000000000    0.2175333333333333 C
   0.6663000000000000    0.1756800000000000    0.2175333333333333 C
   0.1185200000000000    0.4304200000000000    0.3209466666666667 C
   0.6185900000000000    0.4304800000000000    0.3209666666666666 C
   0.0302400000000000    0.6664000000000000    0.1751533333333333 C
   0.5302500000000000    0.6664099999999999    0.1751333333333333 C
   0.0603400000000000    0.6656500000000000    0.1160433333333333 C
   0.5602500000000000    0.6656000000000000    0.1160000000000000 C
   0.0790000000000000    0.8088900000000000    0.1563166666666667 C
   0.5791200000000000    0.8088200000000000    0.1562766666666667 C
   0.5021800000000000    0.6602500000000000    0.2309400000000000 C
   0.0000000000000000    0.6602000000000000    0.2309533333333333 C
   0.0838000000000000    0.6527100000000000    0.0585666666666667 C
   0.5837100000000000    0.6526000000000000    0.0585400000000000 C
   0.1313900000000000    0.9629600000000000    0.1435100000000000 C
   0.6315300000000000    0.9628700000000000    0.1434533333333333 C
   0.2802200000000000    0.4745900000000000    0.1112066666666667 C
   0.7802900000000000    0.4745800000000000    0.1112200000000000 C
   0.3102700000000000    0.6519200000000001    0.1114666666666667 C
   0.8103200000000000    0.6519200000000001    0.1114833333333333 C
   0.3290200000000000    0.5311300000000000    0.0637166666666667 C
   0.8291200000000000    0.5311300000000000    0.0637366666666667 C
   0.2521600000000000    0.3071800000000000    0.1132700000000000 C
   0.7522600000000000    0.3071700000000000    0.1132766666666667 C
   0.3337200000000000    0.8243600000000000    0.1158033333333333 C
   0.8337800000000000    0.8243400000000000    0.1158033333333333 C
   0.3814300000000000    0.5695500000000000    0.0123566666666667 C
   0.8815000000000000    0.5696200000000000    0.0123900000000000 C
   0.4697700000000000    0.3336300000000000    0.1582000000000000 C
   0.9697900000000000    0.3336400000000000    0.1581833333333333 C
   0.4397600000000000    0.3344400000000000    0.2173200000000000 C
   0.9396900000000000    0.3343800000000000    0.2172933333333333 C
   0.4209000000000000    0.1912200000000000    0.1770566666666667 C
   0.9210300000000000    0.1911400000000000    0.1770200000000000 C
   0.9978399999999999    0.3398400000000000    0.1023833333333333 C
   0.4978500000000000    0.3397800000000000    0.1023966666666667 C
   0.4163100000000000    0.3474400000000000    0.2747966666666666 C
   0.9162300000000000    0.3473300000000000    0.2747700000000000 C
   0.3684900000000000    0.0371600000000000    0.1898833333333333 C
   0.8686300000000000    0.0370800000000000    0.1898266666666666 C
   0.2197400000000000    0.5254500000000000    0.5554500000000000 C
   0.7198000000000000    0.5254500000000000    0.5554633333333333 C
   0.1897000000000000    0.3481100000000000    0.5551866666666667 C
   0.6897600000000000    0.3481100000000000    0.5552033333333333 C
   0.1709000000000000    0.4689100000000000    0.6029333333333333 C
   0.6710100000000000    0.4689000000000000    0.6029533333333332 C
   0.2477700000000000    0.6928700000000000    0.5533933333333333 C
   0.7478700000000000    0.6928500000000000    0.5534000000000000 C
   0.1662400000000000    0.1757000000000000    0.5508666666666666 C
   0.6663000000000000    0.1756800000000000    0.5508666666666666 C
   0.1185200000000000    0.4304200000000000    0.6542800000000000 C
   0.6185900000000000    0.4304800000000000    0.6542999999999999 C
   0.5302500000000000    0.6664099999999999    0.5084666666666666 C
   0.5602500000000000    0.6656000000000000    0.4493333333333333 C
   0.5791200000000000    0.8088200000000000    0.4896100000000000 C
   0.5021800000000000    0.6602500000000000    0.5642733333333333 C
   0.5837100000000000    0.6526000000000000    0.3918733333333333 C
   0.6315300000000000    0.9628700000000000    0.4767866666666666 C
   0.2802200000000000    0.4745900000000000    0.4445400000000000 C
   0.7802900000000000    0.4745800000000000    0.4445533333333333 C
   0.3102700000000000    0.6519200000000001    0.4448000000000000 C
   0.8103200000000000    0.6519200000000001    0.4448166666666666 C
   0.3290200000000000    0.5311300000000000    0.3970500000000000 C
   0.8291200000000000    0.5311300000000000    0.3970700000000000 C
   0.2521600000000000    0.3071800000000000    0.4466033333333333 C
   0.7522600000000000    0.3071700000000000    0.4466100000000000 C
   0.3337200000000000    0.8243600000000000    0.4491366666666666 C
   0.8337800000000000    0.8243400000000000    0.4491366666666666 C
   0.3814300000000000    0.5695500000000000    0.3456900000000000 C
   0.8815000000000000    0.5696200000000000    0.3457233333333333 C
   0.4697700000000000    0.3336300000000000    0.4915333333333333 C
   0.9697900000000000    0.3336400000000000    0.4915166666666667 C
   0.4397600000000000    0.3344400000000000    0.5506533333333333 C
   0.9396900000000000    0.3343800000000000    0.5506266666666666 C
   0.4209000000000000    0.1912200000000000    0.5103900000000000 C
   0.9210300000000000    0.1911400000000000    0.5103533333333333 C
   0.9978399999999999    0.3398400000000000    0.4357166666666666 C
   0.4978500000000000    0.3397800000000000    0.4357300000000000 C
   0.4163100000000000    0.3474400000000000    0.6081299999999999 C
   0.9162300000000000    0.3473300000000000    0.6081033333333332 C
   0.3684900000000000    0.0371600000000000    0.5232166666666667 C
   0.8686300000000000    0.0370800000000000    0.5231600000000000 C
   0.2197400000000000    0.5254500000000000    0.8887833333333333 C
   0.7198000000000000    0.5254500000000000    0.8887966666666667 C
   0.1897000000000000    0.3481100000000000    0.8885200000000000 C
   0.6897600000000000    0.3481100000000000    0.8885366666666666 C
   0.1709000000000000    0.4689100000000000    0.9362666666666666 C
   0.6710100000000000    0.4689000000000000    0.9362866666666666 C
   0.2477700000000000    0.6928700000000000    0.8867266666666667 C
   0.7478700000000000    0.6928500000000000    0.8867333333333333 C
   0.1662400000000000    0.1757000000000000    0.8841999999999999 C
   0.6663000000000000    0.1756800000000000    0.8841999999999999 C
   0.1185200000000000    0.4304200000000000    0.9876133333333332 C
   0.6185900000000000    0.4304800000000000    0.9876333333333333 C
   0.0302400000000000    0.6664000000000000    0.8418200000000000 C
   0.5302500000000000    0.6664099999999999    0.8417999999999999 C
   0.0603400000000000    0.6656500000000000    0.7827100000000000 C
   0.5602500000000000    0.6656000000000000    0.7826666666666666 C
   0.0790000000000000    0.8088900000000000    0.8229833333333333 C
   0.5791200000000000    0.8088200000000000    0.8229433333333334 C
   0.5021800000000000    0.6602500000000000    0.8976066666666667 C
   0.0000000000000000    0.6602000000000000    0.8976200000000000 C
   0.0838000000000000    0.6527100000000000    0.7252333333333333 C
   0.5837100000000000    0.6526000000000000    0.7252066666666667 C
   0.1313900000000000    0.9629600000000000    0.8101766666666667 C
   0.6315300000000000    0.9628700000000000    0.8101200000000000 C
   0.2802200000000000    0.4745900000000000    0.7778733333333333 C
   0.7802900000000000    0.4745800000000000    0.7778866666666666 C
   0.3102700000000000    0.6519200000000001    0.7781333333333333 C
   0.8103200000000000    0.6519200000000001    0.7781500000000000 C
   0.3290200000000000    0.5311300000000000    0.7303833333333333 C
   0.8291200000000000    0.5311300000000000    0.7304033333333333 C
   0.2521600000000000    0.3071800000000000    0.7799366666666666 C
   0.7522600000000000    0.3071700000000000    0.7799433333333333 C
   0.3337200000000000    0.8243600000000000    0.7824700000000000 C
   0.8337800000000000    0.8243400000000000    0.7824700000000000 C
   0.3814300000000000    0.5695500000000000    0.6790233333333333 C
   0.8815000000000000    0.5696200000000000    0.6790566666666666 C
   0.4697700000000000    0.3336300000000000    0.8248666666666666 C
   0.9697900000000000    0.3336400000000000    0.8248500000000000 C
   0.4397600000000000    0.3344400000000000    0.8839866666666666 C
   0.9396900000000000    0.3343800000000000    0.8839600000000000 C
   0.4209000000000000    0.1912200000000000    0.8437233333333333 C
   0.9210300000000000    0.1911400000000000    0.8436866666666666 C
   0.9978399999999999    0.3398400000000000    0.7690500000000000 C
   0.4978500000000000    0.3397800000000000    0.7690633333333333 C
   0.4163100000000000    0.3474400000000000    0.9414633333333333 C
   0.9162300000000000    0.3473300000000000    0.9414366666666666 C
   0.3684900000000000    0.0371600000000000    0.8565499999999999 C
   0.8686300000000000    0.0370800000000000    0.8564933333333333 C
   0.2140700000000000    0.4265300000000000    0.2045833333333333 N
   0.7141200000000000    0.4265200000000000    0.2046000000000000 N
   0.1696800000000000    0.3685500000000000    0.2550266666666666 N
   0.6697800000000000    0.3685400000000000    0.2550466666666666 N
   0.1971100000000000    0.5484400000000000    0.2547199999999999 N
   0.6971700000000000    0.5484500000000000    0.2547333333333333 N
   0.2484600000000000    0.5977100000000000    0.2042866666666666 N
   0.7485200000000000    0.5976900000000001    0.2042966666666667 N
   0.2498700000000000    0.7809800000000000    0.2325000000000000 N
   0.7500000000000000    0.7809700000000001    0.2325000000000000 N
   0.1845400000000000    0.2539800000000000    0.2028500000000000 N
   0.6845300000000000    0.2540000000000000    0.2028566666666667 N
   0.1483800000000000    0.0992400000000000    0.2281566666666667 N
   0.6485000000000000    0.0991800000000000    0.2281333333333333 N
   0.1409200000000000    0.4982900000000000    0.3021333333333333 N
   0.6410400000000001    0.4983000000000000    0.3021566666666666 N
   0.0961600000000000    0.3814000000000000    0.0083533333333333 N
   0.5961800000000000    0.3815600000000000    0.0084033333333333 N
   0.0359900000000000    0.6138100000000000    0.1421766666666667 N
   0.5358600000000000    0.6138100000000000    0.1421533333333333 N
   0.0802700000000000    0.7651900000000000    0.1228600000000000 N
   0.5803100000000000    0.7651000000000000    0.1228233333333333 N
   0.0527900000000000    0.7642300000000000    0.1828200000000000 N
   0.5529400000000000    0.7641900000000000    0.1827966666666667 N
   0.5015100000000000    0.6129300000000000    0.1992200000000000 N
   0.0000000000000000    0.6128800000000000    0.1990000000000000 N
   0.5000500000000000    0.6975600000000000    0.2603100000000000 N
   0.0000000000000000    0.6975000000000000    0.2603266666666667 N
   0.0655900000000000    0.6086500000000000    0.0846700000000000 N
   0.5654400000000001    0.6085700000000001    0.0846400000000000 N
   0.1015900000000000    0.6845800000000000    0.0330700000000000 N
   0.6015500000000000    0.6844600000000000    0.0330466666666667 N
   0.1089400000000000    0.9065100000000000    0.1661200000000000 N
   0.6091299999999999    0.9064100000000000    0.1660666666666666 N
   0.1538000000000000    0.0251800000000000    0.1271900000000000 N
   0.6539100000000000    0.0251300000000000    0.1271400000000000 N
   0.2859100000000000    0.5735100000000000    0.1287366666666667 N
   0.7859600000000000    0.5735100000000000    0.1287533333333333 N
   0.3302400000000000    0.6315000000000000    0.0782666666666667 N
   0.8303500000000000    0.6314900000000000    0.0783100000000000 N
   0.3028500000000000    0.4515900000000000    0.0786033333333333 N
   0.8029200000000000    0.4515900000000000    0.0786166666666667 N
   0.2515000000000000    0.4023400000000000    0.1290400000000000 N
   0.7515700000000000    0.4023300000000000    0.1290500000000000 N
   0.2500300000000000    0.2190700000000000    0.1008366666666667 N
   0.7501500000000000    0.2190500000000000    0.1008366666666667 N
   0.3154900000000000    0.7460400000000000    0.1304666666666667 N
   0.8154900000000000    0.7460599999999999    0.1304866666666666 N
   0.3515300000000000    0.9008500000000000    0.1051866666666667 N
   0.8516400000000000    0.9008000000000000    0.1051800000000000 N
   0.3589900000000000    0.5017300000000000    0.0311800000000000 N
   0.8591100000000000    0.5017400000000000    0.0312033333333333 N
   0.4038400000000000    0.6184700000000000    0.3249333333333333 N
   0.9038700000000000    0.6186300000000000    0.3249833333333333 N
   0.4641600000000000    0.3862200000000000    0.1911800000000000 N
   0.9640300000000001    0.3862300000000000    0.1911333333333333 N
   0.4197300000000000    0.2349400000000000    0.2105133333333333 N
   0.9197500000000000    0.2348400000000000    0.2104766666666667 N
   0.4470900000000000    0.2358400000000000    0.1505400000000000 N
   0.9472300000000000    0.2358100000000000    0.1505000000000000 N
   0.9984800000000000    0.3871600000000000    0.1341033333333333 N
   0.4985200000000000    0.3871000000000000    0.1341166666666667 N
   0.9999700000000000    0.3025400000000000    0.0730100000000000 N
   0.4999800000000000    0.3024800000000000    0.0730266666666667 N
   0.4345900000000000    0.3914700000000000    0.2486966666666667 N
   0.9344300000000000    0.3913900000000000    0.2486666666666666 N
   0.3984800000000000    0.3155700000000000    0.3002666666666667 N
   0.8984300000000000    0.3154500000000000    0.3002666666666667 N
   0.3909000000000000    0.0936300000000000    0.1672666666666667 N
   0.8910900000000000    0.0935300000000000    0.1672166666666667 N
   0.3461200000000000    0.9749100000000001    0.2061966666666666 N
   0.8462200000000000    0.9748500000000000    0.2061333333333333 N
   0.2140700000000000    0.4265300000000000    0.5379166666666666 N
   0.7141200000000000    0.4265200000000000    0.5379333333333334 N
   0.1696800000000000    0.3685500000000000    0.5883600000000000 N
   0.6697800000000000    0.3685400000000000    0.5883799999999999 N
   0.1971100000000000    0.5484400000000000    0.5880533333333333 N
   0.6971700000000000    0.5484500000000000    0.5880666666666666 N
   0.2484600000000000    0.5977100000000000    0.5376200000000000 N
   0.7485200000000000    0.5976900000000001    0.5376300000000001 N
   0.2498700000000000    0.7809800000000000    0.5658333333333333 N
   0.7500000000000000    0.7809700000000001    0.5658333333333333 N
   0.1845400000000000    0.2539800000000000    0.5361833333333333 N
   0.6845300000000000    0.2540000000000000    0.5361899999999999 N
   0.1483800000000000    0.0992400000000000    0.5614900000000000 N
   0.6485000000000000    0.0991800000000000    0.5614666666666667 N
   0.1409200000000000    0.4982900000000000    0.6354666666666666 N
   0.6410400000000001    0.4983000000000000    0.6354899999999999 N
   0.0961600000000000    0.3814000000000000    0.3416866666666666 N
   0.5961800000000000    0.3815600000000000    0.3417366666666666 N
   0.5358600000000000    0.6138100000000000    0.4754866666666666 N
   0.5803100000000000    0.7651000000000000    0.4561566666666667 N
   0.5529400000000000    0.7641900000000000    0.5161300000000000 N
   0.5015100000000000    0.6129300000000000    0.5325533333333333 N
   0.5000500000000000    0.6975600000000000    0.5936433333333333 N
   0.5654400000000001    0.6085700000000001    0.4179733333333333 N
   0.6015500000000000    0.6844600000000000    0.3663800000000000 N
   0.6091299999999999    0.9064100000000000    0.4994000000000000 N
   0.6539100000000000    0.0251300000000000    0.4604733333333333 N
   0.2859100000000000    0.5735100000000000    0.4620700000000000 N
   0.7859600000000000    0.5735100000000000    0.4620866666666666 N
   0.3302400000000000    0.6315000000000000    0.4116000000000000 N
   0.8303500000000000    0.6314900000000000    0.4116433333333333 N
   0.3028500000000000    0.4515900000000000    0.4119366666666666 N
   0.8029200000000000    0.4515900000000000    0.4119500000000000 N
   0.2515000000000000    0.4023400000000000    0.4623733333333333 N
   0.7515700000000000    0.4023300000000000    0.4623833333333333 N
   0.2500300000000000    0.2190700000000000    0.4341699999999999 N
   0.7501500000000000    0.2190500000000000    0.4341699999999999 N
   0.3154900000000000    0.7460400000000000    0.4638000000000000 N
   0.8154900000000000    0.7460599999999999    0.4638200000000000 N
   0.3515300000000000    0.9008500000000000    0.4385200000000000 N
   0.8516400000000000    0.9008000000000000    0.4385133333333333 N
   0.3589900000000000    0.5017300000000000    0.3645133333333333 N
   0.8591100000000000    0.5017400000000000    0.3645366666666666 N
   0.4038400000000000    0.6184700000000000    0.6582666666666666 N
   0.9038700000000000    0.6186300000000000    0.6583166666666667 N
   0.4641600000000000    0.3862200000000000    0.5245133333333334 N
   0.9640300000000001    0.3862300000000000    0.5244666666666666 N
   0.4197300000000000    0.2349400000000000    0.5438466666666666 N
   0.9197500000000000    0.2348400000000000    0.5438100000000000 N
   0.4470900000000000    0.2358400000000000    0.4838733333333333 N
   0.9472300000000000    0.2358100000000000    0.4838333333333333 N
   0.9984800000000000    0.3871600000000000    0.4674366666666666 N
   0.4985200000000000    0.3871000000000000    0.4674500000000000 N
   0.9999700000000000    0.3025400000000000    0.4063433333333333 N
   0.4999800000000000    0.3024800000000000    0.4063599999999999 N
   0.4345900000000000    0.3914700000000000    0.5820300000000000 N
   0.9344300000000000    0.3913900000000000    0.5820000000000000 N
   0.3984800000000000    0.3155700000000000    0.6335999999999999 N
   0.8984300000000000    0.3154500000000000    0.6335999999999999 N
   0.3909000000000000    0.0936300000000000    0.5005999999999999 N
   0.8910900000000000    0.0935300000000000    0.5005500000000001 N
   0.3461200000000000    0.9749100000000001    0.5395300000000000 N
   0.8462200000000000    0.9748500000000000    0.5394666666666666 N
   0.2140700000000000    0.4265300000000000    0.8712500000000000 N
   0.7141200000000000    0.4265200000000000    0.8712666666666666 N
   0.1696800000000000    0.3685500000000000    0.9216933333333333 N
   0.6697800000000000    0.3685400000000000    0.9217133333333333 N
   0.1971100000000000    0.5484400000000000    0.9213866666666666 N
   0.6971700000000000    0.5484500000000000    0.9214000000000000 N
   0.2484600000000000    0.5977100000000000    0.8709533333333332 N
   0.7485200000000000    0.5976900000000001    0.8709633333333333 N
   0.2498700000000000    0.7809800000000000    0.8991666666666667 N
   0.7500000000000000    0.7809700000000001    0.8991666666666667 N
   0.1845400000000000    0.2539800000000000    0.8695166666666666 N
   0.6845300000000000    0.2540000000000000    0.8695233333333333 N
   0.1483800000000000    0.0992400000000000    0.8948233333333333 N
   0.6485000000000000    0.0991800000000000    0.8947999999999999 N
   0.1409200000000000    0.4982900000000000    0.9687999999999999 N
   0.6410400000000001    0.4983000000000000    0.9688233333333333 N
   0.0961600000000000    0.3814000000000000    0.6750200000000000 N
   0.5961800000000000    0.3815600000000000    0.6750699999999999 N
   0.0359900000000000    0.6138100000000000    0.8088433333333334 N
   0.5358600000000000    0.6138100000000000    0.8088200000000000 N
   0.0802700000000000    0.7651900000000000    0.7895266666666666 N
   0.5803100000000000    0.7651000000000000    0.7894900000000000 N
   0.0527900000000000    0.7642300000000000    0.8494866666666666 N
   0.5529400000000000    0.7641900000000000    0.8494633333333332 N
   0.5015100000000000    0.6129300000000000    0.8658866666666666 N
   0.0000000000000000    0.6128800000000000    0.8656666666666666 N
   0.5000500000000000    0.6975600000000000    0.9269766666666666 N
   0.0000000000000000    0.6975000000000000    0.9269933333333333 N
   0.0655900000000000    0.6086500000000000    0.7513366666666667 N
   0.5654400000000001    0.6085700000000001    0.7513066666666666 N
   0.1015900000000000    0.6845800000000000    0.6997366666666667 N
   0.6015500000000000    0.6844600000000000    0.6997133333333333 N
   0.1089400000000000    0.9065100000000000    0.8327866666666666 N
   0.6091299999999999    0.9064100000000000    0.8327333333333333 N
   0.1538000000000000    0.0251800000000000    0.7938566666666667 N
   0.6539100000000000    0.0251300000000000    0.7938066666666665 N
   0.2859100000000000    0.5735100000000000    0.7954033333333332 N
   0.7859600000000000    0.5735100000000000    0.7954200000000000 N
   0.3302400000000000    0.6315000000000000    0.7449333333333333 N
   0.8303500000000000    0.6314900000000000    0.7449766666666666 N
   0.3028500000000000    0.4515900000000000    0.7452700000000000 N
   0.8029200000000000    0.4515900000000000    0.7452833333333333 N
   0.2515000000000000    0.4023400000000000    0.7957066666666666 N
   0.7515700000000000    0.4023300000000000    0.7957166666666666 N
   0.2500300000000000    0.2190700000000000    0.7675033333333333 N
   0.7501500000000000    0.2190500000000000    0.7675033333333333 N
   0.3154900000000000    0.7460400000000000    0.7971333333333332 N
   0.8154900000000000    0.7460599999999999    0.7971533333333333 N
   0.3515300000000000    0.9008500000000000    0.7718533333333333 N
   0.8516400000000000    0.9008000000000000    0.7718466666666666 N
   0.3589900000000000    0.5017300000000000    0.6978466666666666 N
   0.8591100000000000    0.5017400000000000    0.6978700000000000 N
   0.4038400000000000    0.6184700000000000    0.9915999999999999 N
   0.9038700000000000    0.6186300000000000    0.9916499999999999 N
   0.4641600000000000    0.3862200000000000    0.8578466666666666 N
   0.9640300000000001    0.3862300000000000    0.8577999999999999 N
   0.4197300000000000    0.2349400000000000    0.8771800000000000 N
   0.9197500000000000    0.2348400000000000    0.8771433333333333 N
   0.4470900000000000    0.2358400000000000    0.8172066666666666 N
   0.9472300000000000    0.2358100000000000    0.8171666666666666 N
   0.9984800000000000    0.3871600000000000    0.8007700000000000 N
   0.4985200000000000    0.3871000000000000    0.8007833333333333 N
   0.9999700000000000    0.3025400000000000    0.7396766666666666 N
   0.4999800000000000    0.3024800000000000    0.7396933333333333 N
   0.4345900000000000    0.3914700000000000    0.9153633333333333 N
   0.9344300000000000    0.3913900000000000    0.9153333333333333 N
   0.3984800000000000    0.3155700000000000    0.9669333333333333 N
   0.8984300000000000    0.3154500000000000    0.9669333333333333 N
   0.3909000000000000    0.0936300000000000    0.8339333333333333 N
   0.8910900000000000    0.0935300000000000    0.8338833333333333 N
   0.3461200000000000    0.9749100000000001    0.8728633333333333 N
   0.8462200000000000    0.9748500000000000    0.8727999999999999 N
