H4 O2
1.0
  36.7058569953696718    0.0000000000000000   -9.9019385089724370
 -10.1079256264280808   35.0153561640961328  -14.3487593969685392
   0.0000000000000000    0.0000000000000000   38.6460000000000008
H O
4 2
direct
   0.8014725933096721    0.9375279953327934    0.2137895015846088 H
   0.8254315866225569    0.9098631773635588    0.1984213800356726 H
   0.9342359286819830    0.1357096821671679    0.4053269539645489 H
   0.9117149939920079    0.1613633951182883    0.4270566987634505 H
   0.7996099999999999    0.9123866666666667    0.1940200000000000 O
   0.9372500000000000    0.1594533333333333    0.4278433333333333 O
