H6 O4
1.0
  36.7058569953696718    0.0000000000000000   -9.9019385089724370
 -10.1079256264280808   35.0153561640961328  -14.3487593969685392
   0.0000000000000000    0.0000000000000000   38.6460000000000008
H O
6 4
direct
   0.7557325562134781    0.0877130894238038    0.2438194950666460 H
   0.7957486833413284    0.0619435747922289    0.1519789063834917 H
   0.7767622226608786    0.0728335342311639    0.1972241869468604 H
   0.9942770176825257    0.9122757889363986    0.0895098901467323 H
   0.9542620868561068    0.9380450600685472    0.1813591877490725 H
   0.9732481847512333    0.9271553727869153    0.1361086282216490 H
   0.7621950000000000    0.0893866666666667    0.2217000000000000 O
   0.7844200000000000    0.0748166666666667    0.1710133333333334 O
   0.9878150000000000    0.9106033333333332    0.1116300000000000 O
   0.9655899999999999    0.9251733333333333    0.1623233333333333 O
