Cd72 H1430 C1858 N288 O426
1.0
  36.7058569953696718    0.0000000000000000   -9.9019385089724370
 -10.1079256264280808   35.0153561640961328  -14.3487593969685392
   0.0000000000000000    0.0000000000000000   38.6460000000000008
Cd H C N O
72 1430 1858 288 426
direct
   0.2547500000000000    0.1318866666666667    0.1916966666666667 Cd
   0.2452550000000000    0.2014366666666667    0.1416400000000000 Cd
   0.4952600000000000    0.2014366666666667    0.1416400000000000 Cd
   0.0047450000000000    0.1318866666666667    0.1916666666666667 Cd
   0.7547500000000000    0.1318866666666667    0.1916966666666667 Cd
   0.7452550000000000    0.2014366666666667    0.1416400000000000 Cd
   0.9952600000000000    0.2014366666666667    0.1416400000000000 Cd
   0.5047450000000000    0.1318866666666667    0.1916666666666667 Cd
   0.2547500000000000    0.4652200000000000    0.1916966666666667 Cd
   0.2452550000000000    0.5347700000000000    0.1416400000000000 Cd
   0.4952600000000000    0.5347700000000000    0.1416400000000000 Cd
   0.0047450000000000    0.4652200000000000    0.1916666666666667 Cd
   0.7547500000000000    0.4652200000000000    0.1916966666666667 Cd
   0.7452550000000000    0.5347700000000000    0.1416400000000000 Cd
   0.9952600000000000    0.5347700000000000    0.1416400000000000 Cd
   0.5047450000000000    0.4652200000000000    0.1916666666666667 Cd
   0.2547500000000000    0.7985533333333332    0.1916966666666667 Cd
   0.2452550000000000    0.8681033333333332    0.1416400000000000 Cd
   0.4952600000000000    0.8681033333333332    0.1416400000000000 Cd
   0.0047450000000000    0.7985533333333332    0.1916666666666667 Cd
   0.7547500000000000    0.7985533333333332    0.1916966666666667 Cd
   0.7452550000000000    0.8681033333333332    0.1416400000000000 Cd
   0.9952600000000000    0.8681033333333332    0.1416400000000000 Cd
   0.5047450000000000    0.7985533333333332    0.1916666666666667 Cd
   0.2547500000000000    0.1318866666666667    0.5250300000000000 Cd
   0.2452550000000000    0.2014366666666667    0.4749733333333333 Cd
   0.4952600000000000    0.2014366666666667    0.4749733333333333 Cd
   0.0047450000000000    0.1318866666666667    0.5249999999999999 Cd
   0.7547500000000000    0.1318866666666667    0.5250300000000000 Cd
   0.7452550000000000    0.2014366666666667    0.4749733333333333 Cd
   0.9952600000000000    0.2014366666666667    0.4749733333333333 Cd
   0.5047450000000000    0.1318866666666667    0.5249999999999999 Cd
   0.2547500000000000    0.4652200000000000    0.5250300000000000 Cd
   0.2452550000000000    0.5347700000000000    0.4749733333333333 Cd
   0.4952600000000000    0.5347700000000000    0.4749733333333333 Cd
   0.0047450000000000    0.4652200000000000    0.5249999999999999 Cd
   0.7547500000000000    0.4652200000000000    0.5250300000000000 Cd
   0.7452550000000000    0.5347700000000000    0.4749733333333333 Cd
   0.9952600000000000    0.5347700000000000    0.4749733333333333 Cd
   0.5047450000000000    0.4652200000000000    0.5249999999999999 Cd
   0.2547500000000000    0.7985533333333332    0.5250300000000000 Cd
   0.2452550000000000    0.8681033333333332    0.4749733333333333 Cd
   0.4952600000000000    0.8681033333333332    0.4749733333333333 Cd
   0.0047450000000000    0.7985533333333332    0.5249999999999999 Cd
   0.7547500000000000    0.7985533333333332    0.5250300000000000 Cd
   0.7452550000000000    0.8681033333333332    0.4749733333333333 Cd
   0.9952600000000000    0.8681033333333332    0.4749733333333333 Cd
   0.5047450000000000    0.7985533333333332    0.5249999999999999 Cd
   0.2547500000000000    0.1318866666666667    0.8583633333333333 Cd
   0.2452550000000000    0.2014366666666667    0.8083066666666666 Cd
   0.4952600000000000    0.2014366666666667    0.8083066666666666 Cd
   0.0047450000000000    0.1318866666666667    0.8583333333333333 Cd
   0.7547500000000000    0.1318866666666667    0.8583633333333333 Cd
   0.7452550000000000    0.2014366666666667    0.8083066666666666 Cd
   0.9952600000000000    0.2014366666666667    0.8083066666666666 Cd
   0.5047450000000000    0.1318866666666667    0.8583333333333333 Cd
   0.2547500000000000    0.4652200000000000    0.8583633333333333 Cd
   0.2452550000000000    0.5347700000000000    0.8083066666666666 Cd
   0.4952600000000000    0.5347700000000000    0.8083066666666666 Cd
   0.0047450000000000    0.4652200000000000    0.8583333333333333 Cd
   0.7547500000000000    0.4652200000000000    0.8583633333333333 Cd
   0.7452550000000000    0.5347700000000000    0.8083066666666666 Cd
   0.9952600000000000    0.5347700000000000    0.8083066666666666 Cd
   0.5047450000000000    0.4652200000000000    0.8583333333333333 Cd
   0.2547500000000000    0.7985533333333332    0.8583633333333333 Cd
   0.2452550000000000    0.8681033333333332    0.8083066666666666 Cd
   0.4952600000000000    0.8681033333333332    0.8083066666666666 Cd
   0.0047450000000000    0.7985533333333332    0.8583333333333333 Cd
   0.7547500000000000    0.7985533333333332    0.8583633333333333 Cd
   0.7452550000000000    0.8681033333333332    0.8083066666666666 Cd
   0.9952600000000000    0.8681033333333332    0.8083066666666666 Cd
   0.5047450000000000    0.7985533333333332    0.8583333333333333 Cd
   0.1584050000000000    0.1169566666666667    0.1510866666666666 H
   0.4084050000000000    0.1169566666666667    0.1510866666666666 H
   0.1084400000000000    0.0501300000000000    0.0881966666666667 H
   0.3584400000000000    0.0501300000000000    0.0881966666666667 H
   0.2212050000000000    0.0411066666666667    0.1099500000000000 H
   0.4712100000000000    0.0411066666666667    0.1099500000000000 H
   0.0969750000000000    0.3147866666666667    0.0692133333333333 H
   0.3469800000000000    0.3147866666666667    0.0692133333333333 H
   0.0722000000000000    0.2521033333333333    0.0116700000000000 H
   0.3222050000000000    0.2521066666666666    0.0116700000000000 H
   0.1698500000000000    0.2768466666666666    0.3118300000000000 H
   0.4198550000000000    0.2768466666666666    0.3118300000000000 H
   0.1943100000000000    0.0064366666666667    0.0356866666666667 H
   0.4443150000000000    0.0064366666666667    0.0356866666666667 H
   0.0438050000000000    0.2165000000000000    0.2768233333333333 H
   0.2938050000000000    0.2165033333333333    0.2768000000000000 H
   0.1558800000000000    0.2103700000000000    0.2825566666666667 H
   0.4058850000000000    0.2103733333333333    0.2825566666666667 H
   0.1033350000000000    0.1468700000000000    0.2182366666666667 H
   0.3533400000000000    0.1468700000000000    0.2182333333333333 H
   0.0125950000000000    0.0186033333333333    0.2068666666666667 H
   0.2626000000000000    0.0186033333333333    0.2068766666666667 H
   0.0581900000000000    0.0492700000000000    0.2400000000000000 H
   0.3081900000000000    0.0492700000000000    0.2400000000000000 H
   0.1042200000000000    0.0824500000000000    0.2300133333333333 H
   0.3542250000000000    0.0824500000000000    0.2300133333333333 H
   0.0517750000000000    0.2837300000000000    0.1351666666666667 H
   0.3017750000000000    0.2837300000000000    0.1351633333333333 H
   0.1720100000000000    0.0978800000000000    0.2363700000000000 H
   0.4220150000000000    0.0978800000000000    0.2363666666666666 H
   0.1761700000000000    0.2219400000000000    0.2135066666666667 H
   0.4261700000000000    0.2219400000000000    0.2135100000000000 H
   0.2195700000000000    0.2460233333333333    0.2135700000000000 H
   0.4695750000000000    0.2460233333333333    0.2135700000000000 H
   0.2060550000000000    0.2957633333333333    0.2268600000000000 H
   0.4560600000000000    0.2957633333333333    0.2268633333333333 H
   0.2242050000000000    0.0327900000000000    0.2569600000000000 H
   0.4742100000000000    0.0327900000000000    0.2569600000000000 H
   0.0051550000000000    0.0704033333333333    0.3296600000000000 H
   0.2551600000000000    0.0704033333333333    0.3296600000000000 H
   0.0915950000000000    0.2163666666666667    0.1822500000000000 H
   0.3416000000000000    0.2163666666666667    0.1822500000000000 H
   0.1415600000000000    0.2831933333333333    0.2451400000000000 H
   0.3915650000000000    0.2831933333333333    0.2451400000000000 H
   0.0287950000000000    0.2922166666666667    0.2233866666666667 H
   0.2788000000000000    0.2922166666666667    0.2233866666666667 H
   0.1530250000000000    0.0185333333333333    0.2641233333333333 H
   0.4030300000000000    0.0185366666666667    0.2641233333333333 H
   0.1778000000000000    0.0812166666666667    0.3200000000000000 H
   0.4278050000000000    0.0812200000000000    0.3216666666666667 H
   0.0801500000000000    0.0564766666666667    0.0215066666666667 H
   0.3301550000000000    0.0564733333333333    0.0215066666666667 H
   0.0556900000000000    0.3268866666666667    0.2976533333333333 H
   0.3056950000000000    0.3268866666666667    0.2976333333333333 H
   0.2062000000000000    0.1168233333333333    0.0565133333333333 H
   0.4562000000000000    0.1168233333333333    0.0565000000000000 H
   0.0941200000000000    0.1229500000000000    0.0507800000000000 H
   0.3441200000000000    0.1229500000000000    0.0507800000000000 H
   0.1466650000000000    0.1864533333333333    0.1150966666666667 H
   0.3966650000000000    0.1864533333333333    0.1150000000000000 H
   0.2374050000000000    0.3147200000000000    0.1264600000000000 H
   0.4874100000000000    0.3147233333333333    0.1264600000000000 H
   0.1918100000000000    0.2840533333333333    0.0933400000000000 H
   0.4418150000000000    0.2840533333333333    0.0933400000000000 H
   0.1457800000000000    0.2508733333333333    0.1033233333333333 H
   0.3957850000000000    0.2508766666666666    0.1033233333333333 H
   0.1982300000000000    0.0495966666666667    0.1981733333333333 H
   0.4482350000000000    0.0495966666666667    0.1981733333333333 H
   0.0779900000000000    0.2354433333333333    0.0969666666666667 H
   0.3279950000000000    0.2354466666666666    0.0969666666666667 H
   0.0738300000000000    0.1113866666666667    0.1198300000000000 H
   0.3238350000000000    0.1113833333333333    0.1198300000000000 H
   0.0304300000000000    0.0873033333333333    0.1197666666666667 H
   0.2804300000000000    0.0873033333333333    0.1197666666666667 H
   0.0439450000000000    0.0375633333333333    0.1064766666666667 H
   0.2939500000000000    0.0375633333333333    0.1064733333333333 H
   0.0257950000000000    0.3005366666666667    0.0763766666666667 H
   0.2758000000000000    0.3005366666666667    0.0763766666666667 H
   0.2448450000000000    0.2629233333333333    0.0036766666666667 H
   0.4948500000000000    0.2629233333333333    0.0036766666666667 H
   0.6584050000000000    0.1169566666666667    0.1510866666666666 H
   0.9084050000000000    0.1169566666666667    0.1510866666666666 H
   0.6084400000000000    0.0501300000000000    0.0881966666666667 H
   0.8584400000000000    0.0501300000000000    0.0881966666666667 H
   0.7212050000000000    0.0411066666666667    0.1099500000000000 H
   0.9712100000000000    0.0411066666666667    0.1099500000000000 H
   0.5969750000000000    0.3147866666666667    0.0692133333333333 H
   0.8469800000000001    0.3147866666666667    0.0692133333333333 H
   0.5722000000000000    0.2521033333333333    0.0116700000000000 H
   0.8222050000000001    0.2521066666666666    0.0116700000000000 H
   0.6698500000000001    0.2768466666666666    0.3118300000000000 H
   0.9198550000000000    0.2768466666666666    0.3118300000000000 H
   0.6943100000000000    0.0064366666666667    0.0356866666666667 H
   0.9443150000000000    0.0064366666666667    0.0356866666666667 H
   0.5438050000000000    0.2165000000000000    0.2768233333333333 H
   0.7938050000000000    0.2165033333333333    0.2768000000000000 H
   0.6558800000000000    0.2103700000000000    0.2825566666666667 H
   0.9058850000000001    0.2103733333333333    0.2825566666666667 H
   0.6033350000000000    0.1468700000000000    0.2182366666666667 H
   0.8533400000000000    0.1468700000000000    0.2182333333333333 H
   0.5125950000000000    0.0186033333333333    0.2068666666666667 H
   0.5581900000000000    0.0492700000000000    0.2400000000000000 H
   0.6042200000000000    0.0824500000000000    0.2300133333333333 H
   0.5517750000000000    0.2837300000000000    0.1351666666666667 H
   0.8017750000000000    0.2837300000000000    0.1351633333333333 H
   0.6720100000000000    0.0978800000000000    0.2363700000000000 H
   0.6761699999999999    0.2219400000000000    0.2135066666666667 H
   0.9261699999999999    0.2219400000000000    0.2135100000000000 H
   0.7195700000000000    0.2460233333333333    0.2135700000000000 H
   0.9695750000000001    0.2460233333333333    0.2135700000000000 H
   0.7060550000000000    0.2957633333333333    0.2268600000000000 H
   0.9560600000000000    0.2957633333333333    0.2268633333333333 H
   0.7242050000000000    0.0327900000000000    0.2569600000000000 H
   0.9742100000000000    0.0327900000000000    0.2569600000000000 H
   0.5051550000000000    0.0704033333333333    0.3296600000000000 H
   0.7551600000000001    0.0704033333333333    0.3296600000000000 H
   0.5915950000000000    0.2163666666666667    0.1822500000000000 H
   0.8416000000000000    0.2163666666666667    0.1822500000000000 H
   0.6415600000000000    0.2831933333333333    0.2451400000000000 H
   0.8915649999999999    0.2831933333333333    0.2451400000000000 H
   0.5287950000000000    0.2922166666666667    0.2233866666666667 H
   0.7787999999999999    0.2922166666666667    0.2233866666666667 H
   0.6530250000000000    0.0185333333333333    0.2641233333333333 H
   0.9030300000000000    0.0185366666666667    0.2641233333333333 H
   0.6778000000000000    0.0812166666666667    0.3200000000000000 H
   0.9278050000000000    0.0812200000000000    0.3216666666666667 H
   0.5801499999999999    0.0564766666666667    0.0215066666666667 H
   0.8301550000000000    0.0564733333333333    0.0215066666666667 H
   0.5556900000000000    0.3268866666666667    0.2976533333333333 H
   0.8056950000000001    0.3268866666666667    0.2976333333333333 H
   0.7061999999999999    0.1168233333333333    0.0565133333333333 H
   0.9561999999999999    0.1168233333333333    0.0565000000000000 H
   0.5941200000000000    0.1229500000000000    0.0507800000000000 H
   0.8441200000000000    0.1229500000000000    0.0507800000000000 H
   0.6466650000000000    0.1864533333333333    0.1150966666666667 H
   0.8966650000000000    0.1864533333333333    0.1150000000000000 H
   0.7374050000000000    0.3147200000000000    0.1264600000000000 H
   0.9874100000000000    0.3147233333333333    0.1264600000000000 H
   0.6918100000000000    0.2840533333333333    0.0933400000000000 H
   0.9418150000000001    0.2840533333333333    0.0933400000000000 H
   0.6457800000000000    0.2508733333333333    0.1033233333333333 H
   0.8957850000000001    0.2508766666666666    0.1033233333333333 H
   0.6982300000000000    0.0495966666666667    0.1981733333333333 H
   0.5779900000000000    0.2354433333333333    0.0969666666666667 H
   0.8279950000000000    0.2354466666666666    0.0969666666666667 H
   0.5738300000000001    0.1113866666666667    0.1198300000000000 H
   0.8238350000000000    0.1113833333333333    0.1198300000000000 H
   0.5304300000000000    0.0873033333333333    0.1197666666666667 H
   0.7804300000000000    0.0873033333333333    0.1197666666666667 H
   0.5439450000000000    0.0375633333333333    0.1064766666666667 H
   0.7939499999999999    0.0375633333333333    0.1064733333333333 H
   0.5257950000000000    0.3005366666666667    0.0763766666666667 H
   0.7758000000000000    0.3005366666666667    0.0763766666666667 H
   0.7448450000000000    0.2629233333333333    0.0036766666666667 H
   0.9948500000000000    0.2629233333333333    0.0036766666666667 H
   0.1584050000000000    0.4502900000000000    0.1510866666666666 H
   0.4084050000000000    0.4502900000000000    0.1510866666666666 H
   0.1084400000000000    0.3834633333333333    0.0881966666666667 H
   0.3584400000000000    0.3834633333333333    0.0881966666666667 H
   0.2212050000000000    0.3744400000000000    0.1099500000000000 H
   0.4712100000000000    0.3744400000000000    0.1099500000000000 H
   0.0969750000000000    0.6481200000000000    0.0692133333333333 H
   0.3469800000000000    0.6481200000000000    0.0692133333333333 H
   0.0722000000000000    0.5854366666666666    0.0116700000000000 H
   0.3222050000000000    0.5854400000000000    0.0116700000000000 H
   0.1698500000000000    0.6101799999999999    0.3118300000000000 H
   0.4198550000000000    0.6101799999999999    0.3118300000000000 H
   0.1943100000000000    0.3397700000000000    0.0356866666666667 H
   0.4443150000000000    0.3397700000000000    0.0356866666666667 H
   0.0438050000000000    0.5498333333333333    0.2768233333333333 H
   0.2938050000000000    0.5498366666666666    0.2768000000000000 H
   0.1558800000000000    0.5437033333333333    0.2825566666666667 H
   0.4058850000000000    0.5437066666666667    0.2825566666666667 H
   0.1033350000000000    0.4802033333333333    0.2182366666666667 H
   0.3533400000000000    0.4802033333333333    0.2182333333333333 H
   0.0125950000000000    0.3519366666666667    0.2068666666666667 H
   0.2626000000000000    0.3519366666666667    0.2068766666666667 H
   0.0581900000000000    0.3826033333333333    0.2400000000000000 H
   0.3081900000000000    0.3826033333333333    0.2400000000000000 H
   0.1042200000000000    0.4157833333333333    0.2300133333333333 H
   0.3542250000000000    0.4157833333333333    0.2300133333333333 H
   0.0517750000000000    0.6170633333333333    0.1351666666666667 H
   0.3017750000000000    0.6170633333333333    0.1351633333333333 H
   0.1720100000000000    0.4312133333333333    0.2363700000000000 H
   0.4220150000000000    0.4312133333333333    0.2363666666666666 H
   0.1761700000000000    0.5552733333333333    0.2135066666666667 H
   0.4261700000000000    0.5552733333333333    0.2135100000000000 H
   0.2195700000000000    0.5793566666666666    0.2135700000000000 H
   0.4695750000000000    0.5793566666666666    0.2135700000000000 H
   0.2060550000000000    0.6290966666666666    0.2268600000000000 H
   0.4560600000000000    0.6290966666666666    0.2268633333333333 H
   0.2242050000000000    0.3661233333333333    0.2569600000000000 H
   0.4742100000000000    0.3661233333333333    0.2569600000000000 H
   0.0051550000000000    0.4037366666666666    0.3296600000000000 H
   0.2551600000000000    0.4037366666666666    0.3296600000000000 H
   0.0915950000000000    0.5497000000000000    0.1822500000000000 H
   0.3416000000000000    0.5497000000000000    0.1822500000000000 H
   0.1415600000000000    0.6165266666666667    0.2451400000000000 H
   0.3915650000000000    0.6165266666666667    0.2451400000000000 H
   0.0287950000000000    0.6255500000000001    0.2233866666666667 H
   0.2788000000000000    0.6255500000000001    0.2233866666666667 H
   0.1530250000000000    0.3518666666666667    0.2641233333333333 H
   0.4030300000000000    0.3518700000000000    0.2641233333333333 H
   0.1778000000000000    0.4145500000000000    0.3200000000000000 H
   0.4278050000000000    0.4145533333333333    0.3216666666666667 H
   0.0801500000000000    0.3898100000000000    0.0215066666666667 H
   0.3301550000000000    0.3898066666666666    0.0215066666666667 H
   0.0556900000000000    0.6602200000000000    0.2976533333333333 H
   0.3056950000000000    0.6602200000000000    0.2976333333333333 H
   0.2062000000000000    0.4501566666666666    0.0565133333333333 H
   0.4562000000000000    0.4501566666666666    0.0565000000000000 H
   0.0941200000000000    0.4562833333333333    0.0507800000000000 H
   0.3441200000000000    0.4562833333333333    0.0507800000000000 H
   0.1466650000000000    0.5197866666666666    0.1150966666666667 H
   0.3966650000000000    0.5197866666666666    0.1150000000000000 H
   0.2374050000000000    0.6480533333333334    0.1264600000000000 H
   0.4874100000000000    0.6480566666666666    0.1264600000000000 H
   0.1918100000000000    0.6173866666666666    0.0933400000000000 H
   0.4418150000000000    0.6173866666666666    0.0933400000000000 H
   0.1457800000000000    0.5842066666666665    0.1033233333333333 H
   0.3957850000000000    0.5842099999999999    0.1033233333333333 H
   0.1982300000000000    0.3829300000000000    0.1981733333333333 H
   0.4482350000000000    0.3829300000000000    0.1981733333333333 H
   0.0779900000000000    0.5687766666666667    0.0969666666666667 H
   0.3279950000000000    0.5687800000000000    0.0969666666666667 H
   0.0738300000000000    0.4447200000000000    0.1198300000000000 H
   0.3238350000000000    0.4447166666666666    0.1198300000000000 H
   0.0304300000000000    0.4206366666666667    0.1197666666666667 H
   0.2804300000000000    0.4206366666666667    0.1197666666666667 H
   0.0439450000000000    0.3708966666666667    0.1064766666666667 H
   0.2939500000000000    0.3708966666666667    0.1064733333333333 H
   0.0257950000000000    0.6338699999999999    0.0763766666666667 H
   0.2758000000000000    0.6338699999999999    0.0763766666666667 H
   0.2448450000000000    0.5962566666666667    0.0036766666666667 H
   0.4948500000000000    0.5962566666666667    0.0036766666666667 H
   0.6584050000000000    0.4502900000000000    0.1510866666666666 H
   0.9084050000000000    0.4502900000000000    0.1510866666666666 H
   0.6084400000000000    0.3834633333333333    0.0881966666666667 H
   0.8584400000000000    0.3834633333333333    0.0881966666666667 H
   0.7212050000000000    0.3744400000000000    0.1099500000000000 H
   0.9712100000000000    0.3744400000000000    0.1099500000000000 H
   0.5969750000000000    0.6481200000000000    0.0692133333333333 H
   0.8469800000000001    0.6481200000000000    0.0692133333333333 H
   0.5722000000000000    0.5854366666666666    0.0116700000000000 H
   0.8222050000000001    0.5854400000000000    0.0116700000000000 H
   0.6698500000000001    0.6101799999999999    0.3118300000000000 H
   0.9198550000000000    0.6101799999999999    0.3118300000000000 H
   0.6943100000000000    0.3397700000000000    0.0356866666666667 H
   0.9443150000000000    0.3397700000000000    0.0356866666666667 H
   0.5438050000000000    0.5498333333333333    0.2768233333333333 H
   0.7938050000000000    0.5498366666666666    0.2768000000000000 H
   0.6558800000000000    0.5437033333333333    0.2825566666666667 H
   0.9058850000000001    0.5437066666666667    0.2825566666666667 H
   0.6033350000000000    0.4802033333333333    0.2182366666666667 H
   0.8533400000000000    0.4802033333333333    0.2182333333333333 H
   0.5125950000000000    0.3519366666666667    0.2068666666666667 H
   0.7625999999999999    0.3519366666666667    0.2068766666666667 H
   0.5581900000000000    0.3826033333333333    0.2400000000000000 H
   0.8081900000000000    0.3826033333333333    0.2400000000000000 H
   0.6042200000000000    0.4157833333333333    0.2300133333333333 H
   0.8542250000000000    0.4157833333333333    0.2300133333333333 H
   0.5517750000000000    0.6170633333333333    0.1351666666666667 H
   0.8017750000000000    0.6170633333333333    0.1351633333333333 H
   0.6720100000000000    0.4312133333333333    0.2363700000000000 H
   0.9220150000000000    0.4312133333333333    0.2363666666666666 H
   0.6761699999999999    0.5552733333333333    0.2135066666666667 H
   0.9261699999999999    0.5552733333333333    0.2135100000000000 H
   0.7195700000000000    0.5793566666666666    0.2135700000000000 H
   0.9695750000000001    0.5793566666666666    0.2135700000000000 H
   0.7060550000000000    0.6290966666666666    0.2268600000000000 H
   0.9560600000000000    0.6290966666666666    0.2268633333333333 H
   0.7242050000000000    0.3661233333333333    0.2569600000000000 H
   0.9742100000000000    0.3661233333333333    0.2569600000000000 H
   0.5051550000000000    0.4037366666666666    0.3296600000000000 H
   0.7551600000000001    0.4037366666666666    0.3296600000000000 H
   0.5915950000000000    0.5497000000000000    0.1822500000000000 H
   0.8416000000000000    0.5497000000000000    0.1822500000000000 H
   0.6415600000000000    0.6165266666666667    0.2451400000000000 H
   0.8915649999999999    0.6165266666666667    0.2451400000000000 H
   0.5287950000000000    0.6255500000000001    0.2233866666666667 H
   0.7787999999999999    0.6255500000000001    0.2233866666666667 H
   0.6530250000000000    0.3518666666666667    0.2641233333333333 H
   0.9030300000000000    0.3518700000000000    0.2641233333333333 H
   0.6778000000000000    0.4145500000000000    0.3200000000000000 H
   0.9278050000000000    0.4145533333333333    0.3216666666666667 H
   0.5801499999999999    0.3898100000000000    0.0215066666666667 H
   0.8301550000000000    0.3898066666666666    0.0215066666666667 H
   0.5556900000000000    0.6602200000000000    0.2976533333333333 H
   0.8056950000000001    0.6602200000000000    0.2976333333333333 H
   0.7061999999999999    0.4501566666666666    0.0565133333333333 H
   0.9561999999999999    0.4501566666666666    0.0565000000000000 H
   0.5941200000000000    0.4562833333333333    0.0507800000000000 H
   0.8441200000000000    0.4562833333333333    0.0507800000000000 H
   0.6466650000000000    0.5197866666666666    0.1150966666666667 H
   0.8966650000000000    0.5197866666666666    0.1150000000000000 H
   0.7374050000000000    0.6480533333333334    0.1264600000000000 H
   0.9874100000000000    0.6480566666666666    0.1264600000000000 H
   0.6918100000000000    0.6173866666666666    0.0933400000000000 H
   0.9418150000000001    0.6173866666666666    0.0933400000000000 H
   0.6457800000000000    0.5842066666666665    0.1033233333333333 H
   0.8957850000000001    0.5842099999999999    0.1033233333333333 H
   0.6982300000000000    0.3829300000000000    0.1981733333333333 H
   0.9482349999999999    0.3829300000000000    0.1981733333333333 H
   0.5779900000000000    0.5687766666666667    0.0969666666666667 H
   0.8279950000000000    0.5687800000000000    0.0969666666666667 H
   0.5738300000000001    0.4447200000000000    0.1198300000000000 H
   0.8238350000000000    0.4447166666666666    0.1198300000000000 H
   0.5304300000000000    0.4206366666666667    0.1197666666666667 H
   0.7804300000000000    0.4206366666666667    0.1197666666666667 H
   0.5439450000000000    0.3708966666666667    0.1064766666666667 H
   0.7939499999999999    0.3708966666666667    0.1064733333333333 H
   0.5257950000000000    0.6338699999999999    0.0763766666666667 H
   0.7758000000000000    0.6338699999999999    0.0763766666666667 H
   0.7448450000000000    0.5962566666666667    0.0036766666666667 H
   0.9948500000000000    0.5962566666666667    0.0036766666666667 H
   0.1584050000000000    0.7836233333333333    0.1510866666666666 H
   0.4084050000000000    0.7836233333333333    0.1510866666666666 H
   0.1084400000000000    0.7167966666666666    0.0881966666666667 H
   0.3584400000000000    0.7167966666666666    0.0881966666666667 H
   0.2212050000000000    0.7077733333333333    0.1099500000000000 H
   0.4712100000000000    0.7077733333333333    0.1099500000000000 H
   0.0969750000000000    0.9814533333333333    0.0692133333333333 H
   0.3469800000000000    0.9814533333333333    0.0692133333333333 H
   0.0722000000000000    0.9187700000000000    0.0116700000000000 H
   0.3222050000000000    0.9187733333333332    0.0116700000000000 H
   0.1698500000000000    0.9435133333333332    0.3118300000000000 H
   0.4198550000000000    0.9435133333333332    0.3118300000000000 H
   0.1943100000000000    0.6731033333333333    0.0356866666666667 H
   0.4443150000000000    0.6731033333333333    0.0356866666666667 H
   0.0438050000000000    0.8831666666666667    0.2768233333333333 H
   0.2938050000000000    0.8831700000000000    0.2768000000000000 H
   0.1558800000000000    0.8770366666666666    0.2825566666666667 H
   0.4058850000000000    0.8770399999999999    0.2825566666666667 H
   0.1033350000000000    0.8135366666666666    0.2182366666666667 H
   0.3533400000000000    0.8135366666666666    0.2182333333333333 H
   0.0125950000000000    0.6852699999999999    0.2068666666666667 H
   0.2626000000000000    0.6852699999999999    0.2068766666666667 H
   0.0581900000000000    0.7159366666666667    0.2400000000000000 H
   0.3081900000000000    0.7159366666666667    0.2400000000000000 H
   0.1042200000000000    0.7491166666666667    0.2300133333333333 H
   0.3542250000000000    0.7491166666666667    0.2300133333333333 H
   0.0517750000000000    0.9503966666666666    0.1351666666666667 H
   0.3017750000000000    0.9503966666666666    0.1351633333333333 H
   0.1720100000000000    0.7645466666666666    0.2363700000000000 H
   0.4220150000000000    0.7645466666666666    0.2363666666666666 H
   0.1761700000000000    0.8886066666666665    0.2135066666666667 H
   0.4261700000000000    0.8886066666666665    0.2135100000000000 H
   0.2195700000000000    0.9126900000000000    0.2135700000000000 H
   0.4695750000000000    0.9126900000000000    0.2135700000000000 H
   0.2060550000000000    0.9624299999999999    0.2268600000000000 H
   0.4560600000000000    0.9624299999999999    0.2268633333333333 H
   0.2242050000000000    0.6994566666666666    0.2569600000000000 H
   0.4742100000000000    0.6994566666666666    0.2569600000000000 H
   0.0051550000000000    0.7370700000000000    0.3296600000000000 H
   0.2551600000000000    0.7370700000000000    0.3296600000000000 H
   0.0915950000000000    0.8830333333333333    0.1822500000000000 H
   0.3416000000000000    0.8830333333333333    0.1822500000000000 H
   0.1415600000000000    0.9498599999999999    0.2451400000000000 H
   0.3915650000000000    0.9498599999999999    0.2451400000000000 H
   0.0287950000000000    0.9588833333333333    0.2233866666666667 H
   0.2788000000000000    0.9588833333333333    0.2233866666666667 H
   0.1530250000000000    0.6851999999999999    0.2641233333333333 H
   0.4030300000000000    0.6852033333333333    0.2641233333333333 H
   0.1778000000000000    0.7478833333333332    0.3200000000000000 H