Zn48 H193 C261 O168
1.0
  31.1204999810403073    0.0000000000000000   -0.0010863103795084
  -0.0705694957595073   13.1703099668124164   -0.0050571088366811
   0.0000000000000000    0.0000000000000000   39.9879999999999995
Zn H C O
48 193 261 168
direct
   0.4793333333333333    0.3863600000000000    0.5070100000000000 Zn
   0.3540000000000000    0.6136400000000000    0.7570200000000000 Zn
   0.4793333333333333    0.3863600000000000    0.0070100000000000 Zn
   0.3540000000000000    0.6136400000000000    0.2570200000000000 Zn
   0.4554700000000000    0.6801500000000000    0.7569300000000000 Zn
   0.4554700000000000    0.6801500000000000    0.2569300000000000 Zn
   0.3778533333333333    0.3198800000000000    0.0069200000000000 Zn
   0.3778533333333333    0.3198800000000000    0.5069200000000000 Zn
   0.5215900000000000    0.8839399999999999    0.2430300000000000 Zn
   0.6450666666666667    0.1160700000000000    0.4930350000000000 Zn
   0.5215900000000000    0.8839399999999999    0.7430300000000000 Zn
   0.6450666666666667    0.1160700000000000    0.9930350000000000 Zn
   0.6222200000000000    0.8176800000000000    0.2429850000000000 Zn
   0.6222200000000000    0.8176800000000000    0.7429850000000000 Zn
   0.5444433333333333    0.1823300000000000    0.9929950000000001 Zn
   0.5444433333333333    0.1823300000000000    0.4929950000000000 Zn
   0.1882566666666667    0.8839399999999999    0.2430300000000000 Zn
   0.3117333333333333    0.1160700000000000    0.4930350000000000 Zn
   0.1882566666666667    0.8839399999999999    0.7430300000000000 Zn
   0.3117333333333333    0.1160700000000000    0.9930350000000000 Zn
   0.2888866666666666    0.8176800000000000    0.7429850000000000 Zn
   0.2888866666666666    0.8176800000000000    0.2429850000000000 Zn
   0.2111100000000000    0.1823300000000000    0.9929950000000001 Zn
   0.2111100000000000    0.1823300000000000    0.4929950000000000 Zn
   0.8126666666666666    0.3863600000000000    0.5070100000000000 Zn
   0.6873333333333334    0.6136400000000000    0.7570200000000000 Zn
   0.8126666666666666    0.3863600000000000    0.0070100000000000 Zn
   0.6873333333333334    0.6136400000000000    0.2570200000000000 Zn
   0.7888033333333333    0.6801500000000000    0.2569300000000000 Zn
   0.7888033333333333    0.6801500000000000    0.7569300000000000 Zn
   0.7111866666666666    0.3198800000000000    0.0069200000000000 Zn
   0.7111866666666666    0.3198800000000000    0.5069200000000000 Zn
   0.8549233333333333    0.8839399999999999    0.7430300000000000 Zn
   0.0445200000000000    0.3198800000000000    0.0069200000000000 Zn
   0.9783999999999999    0.1160700000000000    0.9930350000000000 Zn
   0.8549233333333333    0.8839399999999999    0.2430300000000000 Zn
   0.9783999999999999    0.1160700000000000    0.4930350000000000 Zn
   0.1460000000000000    0.3863600000000000    0.5070100000000000 Zn
   0.0206666666666667    0.6136400000000000    0.7570200000000000 Zn
   0.1460000000000000    0.3863600000000000    0.0070100000000000 Zn
   0.0206666666666667    0.6136400000000000    0.2570200000000000 Zn
   0.1221366666666667    0.6801500000000000    0.2569300000000000 Zn
   0.1221366666666667    0.6801500000000000    0.7569300000000000 Zn
   0.0445200000000000    0.3198800000000000    0.5069200000000000 Zn
   0.9555533333333333    0.8176800000000000    0.7429850000000000 Zn
   0.9555533333333333    0.8176800000000000    0.2429850000000000 Zn
   0.8777766666666666    0.1823300000000000    0.9929950000000001 Zn
   0.8777766666666666    0.1823300000000000    0.4929950000000000 Zn
   0.1332809324908793    0.0534814365068704    0.9901914251553351 H
   0.1572126666879048    0.0637812327935528    0.9798612836134050 H
   0.3489033333333333    0.4733300000000000    0.6627149999999999 H
   0.3556866666666667    0.4185600000000000    0.6027650000000000 H
   0.4859300000000000    0.5277500000000001    0.6010700000000000 H
   0.4792966666666666    0.5814900000000000    0.6610199999999999 H
   0.5994833333333334    0.4384000000000000    0.5629700000000000 H
   0.5421066666666666    0.4402500000000000    0.5607950000000000 H
   0.5693033333333333    0.3225700000000000    0.5656350000000000 H
   0.5750000000000000    0.4620400000000000    0.5039200000000000 H
   0.3475300000000000    0.4715800000000000    0.8509650000000000 H
   0.3541600000000000    0.4177800000000000    0.9108900000000000 H
   0.4845266666666667    0.5261300000000000    0.9126550000000000 H
   0.4777433333333333    0.5809700000000000    0.8527250000000000 H
   0.2337333333333333    0.5595100000000000    0.8124250000000000 H
   0.2911100000000000    0.5575700000000000    0.8103050000000001 H
   0.2639666666666667    0.6751400000000000    0.8156150000000000 H
   0.2583166666666666    0.5379900000000000    0.7533099999999999 H
   0.3489033333333333    0.4733300000000000    0.1627150000000000 H
   0.3556866666666667    0.4185600000000000    0.1027650000000000 H
   0.4859300000000000    0.5277500000000001    0.1010700000000000 H
   0.4792966666666666    0.5814900000000000    0.1610200000000000 H
   0.5994833333333334    0.4384000000000000    0.0629700000000000 H
   0.5421066666666666    0.4402500000000000    0.0607950000000000 H
   0.5693033333333333    0.3225700000000000    0.0656350000000000 H
   0.5750000000000000    0.4620400000000000    0.0039200000000000 H
   0.3475300000000000    0.4715800000000000    0.3509650000000000 H
   0.3541600000000000    0.4177800000000000    0.4108900000000000 H
   0.4845266666666667    0.5261300000000000    0.4126550000000000 H
   0.4777433333333333    0.5809700000000000    0.3527250000000000 H
   0.2337333333333333    0.5595100000000000    0.3124250000000000 H
   0.2911100000000000    0.5575700000000000    0.3103050000000000 H
   0.2639666666666667    0.6751400000000000    0.3156150000000000 H
   0.2583166666666666    0.5379900000000000    0.2533100000000000 H
   0.6498566666666666    0.9742900000000000    0.0864300000000000 H
   0.6438766666666667    0.9177000000000000    0.1462300000000000 H
   0.5141800000000000    0.0267300000000000    0.1495900000000000 H
   0.5199733333333333    0.0822200000000000    0.0897950000000000 H
   0.4588666666666666    0.9396200000000000    0.1897050000000000 H
   0.4014933333333333    0.9372600000000000    0.1873650000000000 H
   0.4313766666666666    0.8218600000000000    0.1842850000000000 H
   0.4257299999999999    0.9590500000000000    0.2465550000000000 H
   0.6525833333333333    0.9736200000000000    0.3995400000000000 H
   0.6467666666666667    0.9181900000000000    0.3397250000000000 H
   0.5169100000000000    0.0264300000000000    0.3363350000000000 H
   0.5228800000000000    0.0829800000000000    0.3961550000000000 H
   0.7651699999999999    0.0621200000000000    0.4374600000000000 H
   0.7077966666666666    0.0597300000000000    0.4397950000000000 H
   0.7352666666666666    0.1774500000000000    0.4342700000000000 H
   0.7409233333333333    0.0409400000000000    0.4966650000000000 H
   0.6498566666666666    0.9742900000000000    0.5864300000000000 H
   0.6438766666666667    0.9177000000000000    0.6462300000000000 H
   0.5141800000000000    0.0267300000000000    0.6495900000000000 H
   0.5199733333333333    0.0822200000000000    0.5897950000000000 H
   0.4588666666666666    0.9396200000000000    0.6897050000000000 H
   0.4014933333333333    0.9372600000000000    0.6873650000000000 H
   0.4313766666666666    0.8218600000000000    0.6842850000000000 H
   0.4257299999999999    0.9590500000000000    0.7465550000000000 H
   0.6525833333333333    0.9736200000000000    0.8995400000000000 H
   0.6467666666666667    0.9181900000000000    0.8397250000000001 H
   0.5169100000000000    0.0264300000000000    0.8363350000000001 H
   0.5228800000000000    0.0829800000000000    0.8961550000000000 H
   0.7651699999999999    0.0621200000000000    0.9374600000000000 H
   0.7077966666666666    0.0597300000000000    0.9397949999999999 H
   0.7352666666666666    0.1774500000000000    0.9342699999999999 H
   0.7409233333333333    0.0409400000000000    0.9966650000000000 H
   0.3165233333333333    0.9742900000000000    0.0864300000000000 H
   0.3105433333333333    0.9177000000000000    0.1462300000000000 H
   0.1808466666666667    0.0267300000000000    0.1495900000000000 H
   0.1866400000000000    0.0822200000000000    0.0897950000000000 H
   0.1255333333333333    0.9396200000000000    0.1897050000000000 H
   0.0681600000000000    0.9372600000000000    0.1873650000000000 H
   0.0980433333333333    0.8218600000000000    0.1842850000000000 H
   0.0923966666666667    0.9590500000000000    0.2465550000000000 H
   0.3192500000000000    0.9736200000000000    0.3995400000000000 H
   0.3134333333333333    0.9181900000000000    0.3397250000000000 H
   0.1835766666666667    0.0264300000000000    0.3363350000000000 H
   0.1895466666666667    0.0829800000000000    0.3961550000000000 H
   0.4318366666666666    0.0621200000000000    0.4374600000000000 H
   0.3744633333333333    0.0597300000000000    0.4397950000000000 H
   0.4019333333333333    0.1774500000000000    0.4342700000000000 H
   0.4075900000000000    0.0409400000000000    0.4966650000000000 H
   0.3165233333333333    0.9742900000000000    0.5864300000000000 H
   0.3105433333333333    0.9177000000000000    0.6462300000000000 H
   0.1808466666666667    0.0267300000000000    0.6495900000000000 H
   0.1866400000000000    0.0822200000000000    0.5897950000000000 H
   0.1255333333333333    0.9396200000000000    0.6897050000000000 H
   0.0681600000000000    0.9372600000000000    0.6873650000000000 H
   0.0980433333333333    0.8218600000000000    0.6842850000000000 H
   0.0923966666666667    0.9590500000000000    0.7465550000000000 H
   0.3192500000000000    0.9736200000000000    0.8995400000000000 H
   0.3134333333333333    0.9181900000000000    0.8397250000000001 H
   0.1835766666666667    0.0264300000000000    0.8363350000000001 H
   0.1895466666666667    0.0829800000000000    0.8961550000000000 H
   0.4318366666666666    0.0621200000000000    0.9374600000000000 H
   0.3744633333333333    0.0597300000000000    0.9397949999999999 H
   0.4019333333333333    0.1774500000000000    0.9342699999999999 H
   0.4075900000000000    0.0409400000000000    0.9966650000000000 H
   0.6822366666666666    0.4733300000000000    0.6627149999999999 H
   0.6890200000000000    0.4185600000000000    0.6027650000000000 H
   0.8192633333333332    0.5277500000000001    0.6010700000000000 H
   0.8126300000000000    0.5814900000000000    0.6610199999999999 H
   0.9328166666666666    0.4384000000000000    0.5629700000000000 H
   0.8754400000000000    0.4402500000000000    0.5607950000000000 H
   0.9026366666666666    0.3225700000000000    0.5656350000000000 H
   0.9083333333333332    0.4620400000000000    0.5039200000000000 H
   0.6808633333333333    0.4715800000000000    0.8509650000000000 H
   0.6874933333333333    0.4177800000000000    0.9108900000000000 H
   0.8178599999999999    0.5261300000000000    0.9126550000000000 H
   0.8110766666666667    0.5809700000000000    0.8527250000000000 H
   0.5670666666666666    0.5595100000000000    0.8124250000000000 H
   0.6244433333333332    0.5575700000000000    0.8103050000000001 H
   0.5972999999999999    0.6751400000000000    0.8156150000000000 H
   0.5916500000000000    0.5379900000000000    0.7533099999999999 H
   0.6822366666666666    0.4733300000000000    0.1627150000000000 H
   0.6890200000000000    0.4185600000000000    0.1027650000000000 H
   0.8192633333333332    0.5277500000000001    0.1010700000000000 H
   0.8126300000000000    0.5814900000000000    0.1610200000000000 H
   0.9328166666666666    0.4384000000000000    0.0629700000000000 H
   0.8754400000000000    0.4402500000000000    0.0607950000000000 H
   0.9026366666666666    0.3225700000000000    0.0656350000000000 H
   0.9083333333333332    0.4620400000000000    0.0039200000000000 H
   0.6808633333333333    0.4715800000000000    0.3509650000000000 H
   0.6874933333333333    0.4177800000000000    0.4108900000000000 H
   0.8178599999999999    0.5261300000000000    0.4126550000000000 H
   0.8110766666666667    0.5809700000000000    0.3527250000000000 H
   0.5670666666666666    0.5595100000000000    0.3124250000000000 H
   0.6244433333333332    0.5575700000000000    0.3103050000000000 H
   0.5972999999999999    0.6751400000000000    0.3156150000000000 H
   0.5916500000000000    0.5379900000000000    0.2533100000000000 H
   0.9831900000000000    0.9742900000000000    0.5864300000000000 H
   0.9772099999999999    0.9177000000000000    0.6462300000000000 H
   0.8475133333333333    0.0267300000000000    0.6495900000000000 H
   0.8533066666666667    0.0822200000000000    0.5897950000000000 H
   0.7922000000000000    0.9396200000000000    0.6897050000000000 H
   0.7348266666666666    0.9372600000000000    0.6873650000000000 H
   0.7647100000000000    0.8218600000000000    0.6842850000000000 H
   0.7590633333333333    0.9590500000000000    0.7465550000000000 H
   0.9859166666666666    0.9736200000000000    0.8995400000000000 H
   0.9801000000000000    0.9181900000000000    0.8397250000000001 H
   0.8502433333333332    0.0264300000000000    0.8363350000000001 H
   0.8562133333333333    0.0829800000000000    0.8961550000000000 H
   0.0961675076005518    0.1922982157192760    0.0119445443706717 H
   0.0731586720818225    0.1943756354656153    1.0051025624556351 H
   0.0609605727502074    0.1330523557174082    0.9885752080347553 H
   0.9831900000000000    0.9742900000000000    0.0864300000000000 H
   0.9772099999999999    0.9177000000000000    0.1462300000000000 H
   0.8475133333333333    0.0267300000000000    0.1495900000000000 H
   0.8533066666666667    0.0822200000000000    0.0897950000000000 H
   0.7922000000000000    0.9396200000000000    0.1897050000000000 H
   0.7348266666666666    0.9372600000000000    0.1873650000000000 H
   0.7647100000000000    0.8218600000000000    0.1842850000000000 H
   0.7590633333333333    0.9590500000000000    0.2465550000000000 H
   0.9859166666666666    0.9736200000000000    0.3995400000000000 H
   0.9801000000000000    0.9181900000000000    0.3397250000000000 H
   0.8502433333333332    0.0264300000000000    0.3363350000000000 H
   0.8562133333333333    0.0829800000000000    0.3961550000000000 H
   0.0985033333333333    0.0621200000000000    0.4374600000000000 H
   0.0411300000000000    0.0597300000000000    0.4397950000000000 H
   0.0686000000000000    0.1774500000000000    0.4342700000000000 H
   0.0742566666666667    0.0409400000000000    0.4966650000000000 H
   0.0155700000000000    0.4733300000000000    0.6627149999999999 H
   0.0223533333333333    0.4185600000000000    0.6027650000000000 H
   0.1525966666666667    0.5277500000000001    0.6010700000000000 H
   0.1459633333333333    0.5814900000000000    0.6610199999999999 H
   0.2661500000000000    0.4384000000000000    0.5629700000000000 H
   0.2087733333333333    0.4402500000000000    0.5607950000000000 H
   0.2359700000000000    0.3225700000000000    0.5656350000000000 H
   0.2416666666666666    0.4620400000000000    0.5039200000000000 H
   0.0141966666666667    0.4715800000000000    0.8509650000000000 H
   0.0208266666666667    0.4177800000000000    0.9108900000000000 H
   0.1511933333333333    0.5261300000000000    0.9126550000000000 H
   0.1444100000000000    0.5809700000000000    0.8527250000000000 H
   0.9004000000000000    0.5595100000000000    0.8124250000000000 H
   0.9577766666666666    0.5575700000000000    0.8103050000000001 H
   0.9306333333333333    0.6751400000000000    0.8156150000000000 H
   0.9249833333333333    0.5379900000000000    0.7533099999999999 H
   0.0155700000000000    0.4733300000000000    0.1627150000000000 H
   0.0223533333333333    0.4185600000000000    0.1027650000000000 H
   0.1525966666666667    0.5277500000000001    0.1010700000000000 H
   0.1459633333333333    0.5814900000000000    0.1610200000000000 H
   0.2661500000000000    0.4384000000000000    0.0629700000000000 H
   0.2087733333333333    0.4402500000000000    0.0607950000000000 H
   0.2359700000000000    0.3225700000000000    0.0656350000000000 H
   0.2416666666666666    0.4620400000000000    0.0039200000000000 H
   0.0141966666666667    0.4715800000000000    0.3509650000000000 H
   0.0208266666666667    0.4177800000000000    0.4108900000000000 H
   0.1511933333333333    0.5261300000000000    0.4126550000000000 H
   0.1444100000000000    0.5809700000000000    0.3527250000000000 H
   0.9004000000000000    0.5595100000000000    0.3124250000000000 H
   0.9577766666666666    0.5575700000000000    0.3103050000000000 H
   0.9306333333333333    0.6751400000000000    0.3156150000000000 H
   0.9249833333333333    0.5379900000000000    0.2533100000000000 H
   0.4250900000000000    0.4351800000000000    0.5629400000000000 C
   0.4098300000000000    0.5646700000000000    0.7008950000000000 C
   0.3787633333333333    0.4846000000000000    0.6489950000000000 C
   0.3824666666666666    0.4545000000000000    0.6157900000000001 C
   0.4560900000000000    0.5160000000000000    0.6147700000000000 C
   0.4524433333333333    0.5458200000000000    0.6480049999999999 C
   0.4211533333333333    0.4699700000000000    0.5984450000000000 C
   0.4137633333333333    0.5303200000000000    0.6653450000000000 C
   0.5709700000000000    0.3977500000000000    0.5537650000000000 C
   0.6143666666666666    0.3311600000000000    0.5061750000000000 C
   0.5729466666666667    0.3861500000000000    0.5156300000000000 C
   0.4235599999999999    0.4350700000000000    0.9508449999999999 C
   0.4082866666666666    0.5646400000000000    0.8129150000000001 C
   0.3773633333333333    0.4833700000000000    0.8646700000000000 C
   0.3810066666666667    0.4535100000000000    0.8978950000000000 C
   0.4122766666666666    0.5295500000000000    0.8483750000000000 C
   0.4546666666666667    0.5148500000000000    0.8989250000000000 C
   0.4509633333333333    0.5449800000000000    0.8657300000000000 C
   0.4196666666666666    0.4691300000000000    0.9152650000000000 C
   0.2622833333333333    0.6004200000000000    0.8034200000000000 C
   0.2189633333333333    0.6687500000000000    0.7560500000000000 C
   0.2603666666666666    0.6134500000000001    0.7653449999999999 C
   0.4250900000000000    0.4351800000000000    0.0629400000000000 C
   0.4098300000000000    0.5646700000000000    0.2008950000000000 C
   0.3787633333333333    0.4846000000000000    0.1489950000000000 C
   0.3824666666666666    0.4545000000000000    0.1157900000000000 C
   0.4560900000000000    0.5160000000000000    0.1147700000000000 C
   0.4524433333333333    0.5458200000000000    0.1480050000000000 C
   0.4211533333333333    0.4699700000000000    0.0984450000000000 C
   0.4137633333333333    0.5303200000000000    0.1653450000000000 C
   0.5709700000000000    0.3977500000000000    0.0537650000000000 C
   0.6143666666666666    0.3311600000000000    0.0061750000000000 C
   0.5729466666666667    0.3861500000000000    0.0156300000000000 C
   0.4235599999999999    0.4350700000000000    0.4508450000000000 C
   0.4082866666666666    0.5646400000000000    0.3129150000000000 C
   0.3773633333333333    0.4833700000000000    0.3646700000000000 C
   0.3810066666666667    0.4535100000000000    0.3978950000000000 C
   0.4122766666666666    0.5295500000000000    0.3483750000000000 C
   0.4546666666666667    0.5148500000000000    0.3989250000000000 C
   0.4509633333333333    0.5449800000000000    0.3657300000000000 C
   0.4196666666666666    0.4691300000000000    0.4152650000000000 C
   0.2622833333333333    0.6004200000000000    0.3034200000000000 C
   0.2189633333333333    0.6687500000000000    0.2560500000000000 C
   0.2603666666666666    0.6134500000000001    0.2653450000000000 C
   0.5888666666666666    0.0663300000000000    0.0490700000000000 C
   0.5750566666666667    0.9332200000000000    0.1868700000000000 C
   0.6202600000000000    0.9850500000000000    0.1004700000000000 C
   0.6170066666666667    0.9539200000000000    0.1336100000000000 C
   0.5437033333333333    0.0151800000000000    0.1355350000000000 C
   0.5468833333333334    0.0460000000000000    0.1023600000000000 C
   0.5851633333333333    0.0309100000000000    0.0845450000000000 C
   0.5786833333333333    0.9687700000000000    0.1514050000000000 C
   0.4298600000000000    0.8965800000000000    0.1964700000000000 C
   0.3860066666666667    0.8278300000000000    0.2437100000000000 C
   0.4276600000000000    0.8836000000000001    0.2345350000000000 C
   0.5777866666666667    0.9336000000000000    0.2990800000000000 C
   0.5916066666666666    0.0668700000000000    0.4368600000000000 C
   0.6230133333333333    0.9849100000000000    0.3855250000000000 C
   0.6198200000000000    0.9541200000000000    0.3523400000000000 C
   0.5814833333333334    0.9689200000000000    0.3345750000000000 C
   0.5464733333333334    0.0154700000000000    0.3504000000000000 C
   0.5497233333333333    0.0465900000000000    0.3835500000000000 C
   0.5880033333333332    0.0314600000000000    0.4013700000000000 C
   0.7367966666666667    0.1028700000000000    0.4465250000000000 C
   0.7806500000000000    0.1721200000000000    0.4937150000000000 C
   0.7389933333333333    0.1162700000000000    0.4845750000000000 C
   0.5888666666666666    0.0663300000000000    0.5490699999999999 C
   0.5750566666666667    0.9332200000000000    0.6868700000000000 C
   0.6202600000000000    0.9850500000000000    0.6004700000000001 C
   0.6170066666666667    0.9539200000000000    0.6336100000000000 C
   0.5437033333333333    0.0151800000000000    0.6355350000000000 C
   0.5468833333333334    0.0460000000000000    0.6023600000000000 C
   0.5851633333333333    0.0309100000000000    0.5845450000000000 C
   0.5786833333333333    0.9687700000000000    0.6514050000000000 C
   0.4298600000000000    0.8965800000000000    0.6964700000000000 C
   0.3860066666666667    0.8278300000000000    0.7437100000000000 C
   0.4276600000000000    0.8836000000000001    0.7345349999999999 C
   0.5777866666666667    0.9336000000000000    0.7990800000000000 C
   0.5916066666666666    0.0668700000000000    0.9368600000000000 C
   0.6230133333333333    0.9849100000000000    0.8855250000000000 C
   0.6198200000000000    0.9541200000000000    0.8523400000000000 C
   0.5814833333333334    0.9689200000000000    0.8345750000000001 C
   0.5464733333333334    0.0154700000000000    0.8504000000000000 C
   0.5497233333333333    0.0465900000000000    0.8835500000000001 C
   0.5880033333333332    0.0314600000000000    0.9013700000000000 C
   0.7367966666666667    0.1028700000000000    0.9465250000000001 C
   0.7806500000000000    0.1721200000000000    0.9937150000000000 C
   0.7389933333333333    0.1162700000000000    0.9845750000000000 C
   0.2555333333333333    0.0663300000000000    0.0490700000000000 C
   0.2417233333333333    0.9332200000000000    0.1868700000000000 C
   0.2869266666666667    0.9850500000000000    0.1004700000000000 C
   0.2836733333333333    0.9539200000000000    0.1336100000000000 C
   0.2103700000000000    0.0151800000000000    0.1355350000000000 C
   0.2135500000000000    0.0460000000000000    0.1023600000000000 C
   0.2518300000000000    0.0309100000000000    0.0845450000000000 C
   0.2453500000000000    0.9687700000000000    0.1514050000000000 C
   0.0965266666666667    0.8965800000000000    0.1964700000000000 C
   0.0526733333333333    0.8278300000000000    0.2437100000000000 C
   0.0943266666666667    0.8836000000000001    0.2345350000000000 C
   0.2444533333333333    0.9336000000000000    0.2990800000000000 C
   0.2582733333333333    0.0668700000000000    0.4368600000000000 C
   0.2896800000000000    0.9849100000000000    0.3855250000000000 C
   0.2864866666666667    0.9541200000000000    0.3523400000000000 C
   0.2481500000000000    0.9689200000000000    0.3345750000000000 C
   0.2131400000000000    0.0154700000000000    0.3504000000000000 C
   0.2163900000000000    0.0465900000000000    0.3835500000000000 C
   0.2546700000000000    0.0314600000000000    0.4013700000000000 C
   0.4034633333333333    0.1028700000000000    0.4465250000000000 C
   0.4473166666666666    0.1721200000000000    0.4937150000000000 C
   0.4056600000000000    0.1162700000000000    0.4845750000000000 C
   0.2555333333333333    0.0663300000000000    0.5490699999999999 C
   0.2417233333333333    0.9332200000000000    0.6868700000000000 C
   0.2869266666666667    0.9850500000000000    0.6004700000000001 C
   0.2836733333333333    0.9539200000000000    0.6336100000000000 C
   0.2103700000000000    0.0151800000000000    0.6355350000000000 C
   0.2135500000000000    0.0460000000000000    0.6023600000000000 C
   0.2518300000000000    0.0309100000000000    0.5845450000000000 C
   0.2453500000000000    0.9687700000000000    0.6514050000000000 C
   0.0965266666666667    0.8965800000000000    0.6964700000000000 C
   0.0526733333333333    0.8278300000000000    0.7437100000000000 C
   0.0943266666666667    0.8836000000000001    0.7345349999999999 C
   0.2444533333333333    0.9336000000000000    0.7990800000000000 C
   0.2582733333333333    0.0668700000000000    0.9368600000000000 C
   0.2896800000000000    0.9849100000000000    0.8855250000000000 C
   0.2864866666666667    0.9541200000000000    0.8523400000000000 C
   0.2481500000000000    0.9689200000000000    0.8345750000000001 C
   0.2131400000000000    0.0154700000000000    0.8504000000000000 C
   0.2163900000000000    0.0465900000000000    0.8835500000000001 C
   0.2546700000000000    0.0314600000000000    0.9013700000000000 C
   0.4034633333333333    0.1028700000000000    0.9465250000000001 C
   0.4473166666666666    0.1721200000000000    0.9937150000000000 C
   0.4056600000000000    0.1162700000000000    0.9845750000000000 C
   0.7584233333333333    0.4351800000000000    0.5629400000000000 C
   0.7431633333333333    0.5646700000000000    0.7008950000000000 C
   0.7120966666666666    0.4846000000000000    0.6489950000000000 C
   0.7158000000000000    0.4545000000000000    0.6157900000000001 C
   0.7894233333333333    0.5160000000000000    0.6147700000000000 C
   0.7857766666666666    0.5458200000000000    0.6480049999999999 C
   0.7544866666666666    0.4699700000000000    0.5984450000000000 C
   0.7470966666666666    0.5303200000000000    0.6653450000000000 C
   0.9043033333333332    0.3977500000000000    0.5537650000000000 C
   0.9477000000000000    0.3311600000000000    0.5061750000000000 C
   0.9062800000000000    0.3861500000000000    0.5156300000000000 C
   0.7568933333333333    0.4350700000000000    0.9508449999999999 C
   0.7416199999999999    0.5646400000000000    0.8129150000000001 C
   0.7106966666666666    0.4833700000000000    0.8646700000000000 C
   0.7143400000000000    0.4535100000000000    0.8978950000000000 C
   0.7456100000000000    0.5295500000000000    0.8483750000000000 C
   0.7879999999999999    0.5148500000000000    0.8989250000000000 C
   0.7842966666666666    0.5449800000000000    0.8657300000000000 C
   0.7530000000000000    0.4691300000000000    0.9152650000000000 C
   0.5956166666666667    0.6004200000000000    0.8034200000000000 C
   0.5522966666666667    0.6687500000000000    0.7560500000000000 C
   0.5936999999999999    0.6134500000000001    0.7653449999999999 C
   0.7584233333333333    0.4351800000000000    0.0629400000000000 C
   0.7431633333333333    0.5646700000000000    0.2008950000000000 C
   0.7120966666666666    0.4846000000000000    0.1489950000000000 C
   0.7158000000000000    0.4545000000000000    0.1157900000000000 C
   0.7894233333333333    0.5160000000000000    0.1147700000000000 C
   0.7857766666666666    0.5458200000000000    0.1480050000000000 C
   0.7544866666666666    0.4699700000000000    0.0984450000000000 C
   0.7470966666666666    0.5303200000000000    0.1653450000000000 C
   0.9043033333333332    0.3977500000000000    0.0537650000000000 C
   0.9477000000000000    0.3311600000000000    0.0061750000000000 C
   0.9062800000000000    0.3861500000000000    0.0156300000000000 C
   0.7568933333333333    0.4350700000000000    0.4508450000000000 C
   0.7416199999999999    0.5646400000000000    0.3129150000000000 C
   0.7106966666666666    0.4833700000000000    0.3646700000000000 C
   0.7143400000000000    0.4535100000000000    0.3978950000000000 C
   0.7456100000000000    0.5295500000000000    0.3483750000000000 C
   0.7879999999999999    0.5148500000000000    0.3989250000000000 C
   0.7842966666666666    0.5449800000000000    0.3657300000000000 C
   0.7530000000000000    0.4691300000000000    0.4152650000000000 C
   0.5956166666666667    0.6004200000000000    0.3034200000000000 C
   0.5522966666666667    0.6687500000000000    0.2560500000000000 C
   0.5936999999999999    0.6134500000000001    0.2653450000000000 C
   0.9221999999999999    0.0663300000000000    0.5490699999999999 C
   0.9083899999999999    0.9332200000000000    0.6868700000000000 C
   0.9535933333333333    0.9850500000000000    0.6004700000000001 C
   0.9503400000000000    0.9539200000000000    0.6336100000000000 C
   0.8770366666666666    0.0151800000000000    0.6355350000000000 C
   0.8802166666666666    0.0460000000000000    0.6023600000000000 C
   0.9184966666666666    0.0309100000000000    0.5845450000000000 C
   0.9120166666666666    0.9687700000000000    0.6514050000000000 C
   0.7631933333333333    0.8965800000000000    0.6964700000000000 C
   0.7193400000000000    0.8278300000000000    0.7437100000000000 C
   0.7609933333333333    0.8836000000000001    0.7345349999999999 C
   0.9111199999999999    0.9336000000000000    0.7990800000000000 C
   0.9249399999999999    0.0668700000000000    0.9368600000000000 C
   0.9563466666666667    0.9849100000000000    0.8855250000000000 C
   0.9531533333333333    0.9541200000000000    0.8523400000000000 C
   0.9148166666666666    0.9689200000000000    0.8345750000000001 C
   0.8798066666666666    0.0154700000000000    0.8504000000000000 C
   0.8830566666666666    0.0465900000000000    0.8835500000000001 C
   0.9213366666666666    0.0314600000000000    0.9013700000000000 C