H4 C3 O3
1.0
  31.1204999810403073    0.0000000000000000   -0.0010863103795084
  -0.0705694957595073   13.1703099668124164   -0.0050571088366811
   0.0000000000000000    0.0000000000000000   39.9879999999999995
H C O
4 3 3
direct
   0.0742566666666667    0.0409400000000000    0.9966650000000000 H
   0.0411300000000000    0.0597300000000000    0.9397949999999999 H
   0.0985033333333333    0.0621200000000000    0.9374600000000000 H
   0.0686000000000000    0.1774500000000000    0.9342699999999999 H
   0.1139833333333333    0.1721200000000000    0.9937150000000000 C
   0.0723266666666667    0.1162700000000000    0.9845750000000000 C
   0.0701300000000000    0.1028700000000000    0.9465250000000001 C
   0.1094833333333333    0.2581900000000000    0.0084250000000000 O
   0.0361133333333333    0.1697400000000000    0.9973200000000000 O
   0.1492333333333333    0.1324200000000000    0.9859750000000000 O
