H8 O4
1.0
  22.9579999999999984    0.0000000000000000    0.0000000000000014
   0.0000000000000020   12.5150000000000006    0.0000000000000008
   0.0000000000000000    0.0000000000000000   14.8520000000000003
H O
8 4
direct
   0.7639312536939961    0.8507154365066162    0.0913346243699237 H
   0.7329030759588515    0.8643978207215964    0.2099015323304776 H
   0.7639312536939961    0.8507154365066162    0.9086353756300763 H
   0.7329030759588515    0.8643978207215964    0.7900684676695224 H
   0.2683074402508362    0.1828678955820481    0.8678126346567491 H
   0.2360487463060040    0.1493145634933838    0.9086353756300763 H
   0.2683002801079719    0.1828695102891124    0.1321560213615590 H
   0.2360487463060040    0.1493145634933838    0.0913346243699237 H
   0.7483800000000000    0.8778200000000000    0.1482700000000000 O
   0.7483800000000000    0.8778200000000000    0.8517000000000000 O
   0.2516000000000000    0.1222100000000000    0.8517000000000000 O
   0.2516000000000000    0.1222100000000000    0.1482700000000000 O
