H8 C24 N8
1.0
  22.9579999999999984    0.0000000000000000    0.0000000000000014
   0.0000000000000020   12.5150000000000006    0.0000000000000008
   0.0000000000000000    0.0000000000000000   14.8520000000000003
H C N
8 24 8
direct
   0.8395500000000000    0.7094000000000000    0.8545500000000000 H
   0.9135400000000000    0.5685300000000000    0.8543400000000000 H
   0.1604200000000000    0.2906400000000000    0.8545500000000000 H
   0.0864400000000000    0.4315000000000000    0.8543400000000000 H
   0.1604300000000000    0.2906400000000000    0.1454300000000000 H
   0.0864400000000000    0.4315000000000000    0.1456400000000000 H
   0.8395500000000000    0.7094000000000000    0.1454300000000000 H
   0.9135400000000000    0.5685300000000000    0.1456400000000000 H
   0.7670900000000000    0.8452100000000000    0.9202000000000000 C
   0.8558100000000000    0.6790300000000000    0.9185500000000000 C
   0.8976100000000000    0.5990500000000000    0.9185000000000000 C
   0.9623000000000000    0.4044700000000000    0.9201700000000000 C
   0.2328900000000000    0.1548200000000000    0.9202000000000000 C
   0.1441700000000000    0.3210100000000000    0.9185500000000000 C
   0.1023600000000000    0.4009800000000000    0.9185000000000000 C
   0.0376800000000000    0.5955700000000000    0.9201700000000000 C
   0.2328900000000000    0.1548200000000000    0.0797700000000000 C
   0.1441700000000000    0.3210100000000000    0.0814300000000000 C
   0.1023700000000000    0.4009800000000000    0.0814000000000000 C
   0.0376800000000000    0.5955700000000000    0.0798000000000000 C
   0.7670900000000000    0.8452100000000000    0.0797700000000000 C
   0.8558100000000000    0.6790300000000000    0.0814300000000000 C
   0.8976100000000000    0.5990500000000000    0.0814000000000000 C
   0.9623000000000000    0.4044700000000000    0.0798000000000000 C
   0.7892600000000000    0.8038500000000000    0.0000000000000000 C
   0.8337700000000000    0.7208000000000000    0.9999800000000000 C
   0.9190100000000000    0.5580800000000000    0.9999800000000000 C
   0.9665600000000000    0.4731600000000000    0.0000000000000000 C
   0.2107300000000000    0.1961800000000000    0.0000000000000000 C
   0.1662100000000000    0.2792400000000000    0.0000000000000000 C
   0.0809700000000000    0.4419600000000000    0.0000000000000000 C
   0.0334200000000000    0.5268800000000000    0.0000000000000000 C
   0.7483800000000000    0.8778200000000000    0.8517000000000000 N
   0.9577700000000000    0.3515800000000000    0.8559600000000001 N
   0.2516000000000000    0.1222100000000000    0.8517000000000000 N
   0.0422100000000000    0.6484500000000000    0.8559000000000000 N
   0.2516000000000000    0.1222100000000000    0.1482700000000000 N
   0.0422100000000000    0.6484500000000000    0.1440100000000000 N
   0.7483800000000000    0.8778200000000000    0.1482700000000000 N
   0.9577700000000000    0.3515800000000000    0.1440100000000000 N
