H8 C10 N2
1.0
  22.9579999999999984    0.0000000000000000    0.0000000000000014
   0.0000000000000020   12.5150000000000006    0.0000000000000008
   0.0000000000000000    0.0000000000000000   14.8520000000000003
H C N
8 10 2
direct
   0.8495700000000000    0.8408800000000000    0.7127300000000000 H
   0.9574200000000000    0.8324600000000000    0.7121200000000000 H
   0.1504100000000000    0.1591600000000000    0.7127300000000000 H
   0.0425600000000000    0.1675800000000000    0.7121300000000000 H
   0.1504100000000000    0.8408800000000000    0.7872400000000001 H
   0.0425500000000000    0.8324600000000000    0.7878500000000001 H
   0.8495700000000000    0.1591600000000000    0.7872400000000001 H
   0.9574200000000000    0.1675800000000000    0.7878400000000000 H
   0.8754900000000000    0.9109100000000000    0.7299900000000000 C
   0.9359700000000000    0.9072200000000000    0.7297100000000000 C
   0.1244900000000000    0.0891200000000000    0.7299900000000000 C
   0.0640200000000000    0.0928200000000000    0.7297200000000000 C
   0.1244900000000000    0.9109100000000000    0.7699800000000000 C
   0.0640100000000000    0.9072200000000000    0.7702599999999999 C
   0.8754900000000000    0.0891200000000000    0.7699800000000000 C
   0.9359700000000000    0.0928200000000000    0.7702500000000000 C
   0.9677600000000000    0.0000000000000000    0.7499900000000000 C
   0.0322200000000000    0.0000000000000000    0.7499800000000000 C
   0.8451900000000000    0.0000100000000000    0.7499700000000000 N
   0.1548000000000000    0.0000000000000000    0.7000000000000000 N
