H4 O2
1.0
  26.3266985506875137    0.0000000000000000   -8.5555869127271471
  -5.8882588095201083   11.7726084284582218   -4.2787124210798835
   0.0000000000000000    0.0000000000000000   27.6819999999999986
H O
4 2
direct
   0.5884345304286138    0.7692200152529389    0.7186020221488039 H
   0.5550668121570701    0.7033301143027606    0.6527118623891857 H
   0.6437868399379479    0.6119456260595902    0.7987687587962754 H
   0.6369532394844885    0.7180208616014730    0.7988199628986699 H
   0.5595750000000000    0.6949200000000000    0.6874450000000000 O
   0.6172000000000000    0.6350000000000000    0.7785550000000000 O
