H8 C10 N5
1.0
  26.3266985506875137    0.0000000000000000   -8.5555869127271471
  -5.8882588095201083   11.7726084284582218   -4.2787124210798835
   0.0000000000000000    0.0000000000000000   27.6819999999999986
H C N
8 10 5
direct
   0.4955850000000000    0.6067700000000000    0.4953300000000000 H
   0.4916000000000000    0.5400600000000000    0.5685000000000000 H
   0.6436850000000001    0.5147100000000000    0.7932049999999999 H
   0.7249250000000000    0.8710800000000000    0.8786050000000001 H
   0.6494300000000000    0.9095600000000000    0.8197350000000000 H
   0.5816350000000000    0.8043600000000000    0.8012500000000000 H
   0.5580150000000000    0.8062700000000000    0.5229700000000000 H
   0.6186800000000000    0.9460800000000000    0.6246200000000000 H
   0.6535150000000001    0.6035100000000000    0.8061650000000000 C
   0.6952450000000000    0.7828800000000000    0.8499150000000000 C
   0.6182650000000000    0.8208000000000000    0.7916500000000000 C
   0.5995200000000001    0.7977600000000000    0.7305699999999999 C
   0.5531800000000000    0.7068500000000000    0.6381749999999999 C
   0.5189500000000000    0.6279200000000000    0.5809150000000000 C
   0.5215200000000000    0.6659100000000000    0.5402700000000000 C
   0.5569650000000000    0.7798100000000000    0.5560300000000000 C
   0.5910550000000000    0.8587500000000000    0.6128600000000000 C
   0.5895750000000000    0.8211800000000000    0.6542200000000000 C
   0.7021800000000000    0.6919200000000000    0.8504499999999999 N
   0.6172000000000000    0.6350000000000000    0.7785550000000000 N
   0.6448000000000000    0.7510000000000000    0.8068700000000000 N
   0.5595750000000000    0.6949200000000000    0.6874450000000000 N
   0.6189550000000000    0.8772799999999999    0.7133500000000000 N
