Zn10 Si4 H64 C105 O34
1.0
  12.7018630783032282    0.0000000000000000   -5.2602450836474555
  -4.6365052327224126   13.4390035831347081   -4.4515852142164123
   0.0000000000000000    0.0000000000000000   29.3580000000000005
Zn Si H C O
10 4 64 105 34
direct
   0.6316400000000000    0.0308200000000000    0.3932850000000000 Zn
   0.5191500000000000    0.1823500000000000    0.2136500000000000 Zn
   0.3689900000000000    0.9689400000000000    0.1067350000000000 Zn
   0.5009300000000000    0.9999800000000000    0.2500550000000000 Zn
   0.4816900000000000    0.8173500000000000    0.2862650000000000 Zn
   0.6316400000000000    0.0308200000000000    0.8932850000000000 Zn
   0.5191500000000000    0.1823500000000000    0.7136500000000000 Zn
   0.3689900000000000    0.9689400000000000    0.6067350000000000 Zn
   0.5009300000000000    0.9999800000000000    0.7500550000000000 Zn
   0.4816900000000000    0.8173500000000000    0.7862650000000000 Zn
   0.7738600000000000    0.6511800000000000    0.0639450000000000 Si
   0.2271400000000000    0.3485800000000000    0.4360600000000000 Si
   0.7738600000000000    0.6511800000000000    0.5639450000000000 Si
   0.2271400000000000    0.3485800000000000    0.9360600000000000 Si
   0.1250600000000000    0.7454100000000000    0.2330400000000000 H
   0.9204400000000000    0.6878000000000000    0.1766900000000000 H
   0.9694400000000000    0.7356700000000000    0.0478150000000000 H
   0.1728500000000000    0.8003400000000001    0.1061150000000000 H
   0.5380800000000000    0.6389300000000000    0.3795000000000000 H
   0.6014900000000000    0.5643700000000000    0.4464250000000000 H
   0.8531100000000000    0.8474600000000000    0.0619300000000000 H
   0.7883000000000000    0.9201900000000000    0.4947950000000000 H
   0.5672900000000000    0.4719400000000000    0.0201450000000000 H
   0.9025400000000000    0.5246100000000000    0.0393700000000000 H
   0.6038800000000000    0.6378900000000000    0.1892000000000000 H
   0.6739100000000000    0.5636900000000000    0.1253550000000000 H
   0.7224100000000000    0.8339299999999999    0.0982400000000000 H
   0.6571200000000000    0.9069900000000000    0.1631700000000000 H
   0.8760000000000000    0.2548100000000000    0.2670150000000000 H
   0.0806100000000000    0.3122800000000000    0.3233600000000000 H
   0.0314900000000000    0.2640900000000000    0.4521450000000000 H
   0.8280800000000000    0.1995400000000000    0.3938350000000000 H
   0.4626700000000000    0.3606800000000000    0.1203450000000000 H
   0.3993700000000000    0.4353100000000000    0.0535900000000000 H
   0.1477000000000000    0.1522800000000000    0.4380250000000000 H
   0.2123600000000000    0.0795000000000000    0.0051500000000000 H
   0.4755000000000000    0.7089600000000000    0.0272850000000000 H
   0.4337500000000000    0.5278900000000000    0.4798500000000000 H
   0.0985100000000000    0.4751400000000000    0.4606600000000000 H
   0.1424500000000000    0.6563099999999999    0.0088450000000000 H
   0.3970700000000000    0.3617000000000000    0.3107700000000000 H
   0.3270400000000000    0.4359400000000000    0.3746050000000000 H
   0.2786000000000000    0.1657600000000000    0.4017900000000000 H
   0.3439400000000000    0.0926900000000000    0.3368950000000000 H
   0.4488000000000000    0.9850000000000000    0.3187350000000000 H
   0.5522700000000000    0.0149300000000000    0.1810250000000000 H
   0.1250600000000000    0.7454100000000000    0.7330400000000000 H
   0.9204400000000000    0.6878000000000000    0.6766900000000000 H
   0.9694400000000000    0.7356700000000000    0.5478150000000001 H
   0.1728500000000000    0.8003400000000001    0.6061150000000000 H
   0.5380800000000000    0.6389300000000000    0.8794999999999999 H
   0.6014900000000000    0.5643700000000000    0.9464250000000001 H
   0.8531100000000000    0.8474600000000000    0.5619300000000000 H
   0.7883000000000000    0.9201900000000000    0.9947950000000000 H
   0.5255000000000000    0.2908500000000000    0.9727500000000000 H
   0.8585400000000000    0.3434100000000000    0.9911950000000000 H
   0.6038800000000000    0.6378900000000000    0.6892000000000000 H
   0.6739100000000000    0.5636900000000000    0.6253550000000000 H
   0.7224100000000000    0.8339299999999999    0.5982400000000000 H
   0.6571200000000000    0.9069900000000000    0.6631700000000000 H
   0.8760000000000000    0.2548100000000000    0.7670150000000000 H
   0.0806100000000000    0.3122800000000000    0.8233600000000000 H
   0.0314900000000000    0.2640900000000000    0.9521450000000000 H
   0.8280800000000000    0.1995400000000000    0.8938349999999999 H
   0.4626700000000000    0.3606800000000000    0.6203450000000000 H
   0.3993700000000000    0.4353100000000000    0.5535900000000000 H
   0.1477000000000000    0.1522800000000000    0.9380250000000000 H
   0.2123600000000000    0.0795000000000000    0.5051500000000000 H
   0.4755000000000000    0.7089600000000000    0.5272850000000000 H
   0.4337500000000000    0.5278900000000000    0.9798500000000000 H
   0.0985100000000000    0.4751400000000000    0.9606600000000001 H
   0.1424500000000000    0.6563099999999999    0.5088450000000000 H
   0.3970700000000000    0.3617000000000000    0.8107700000000000 H
   0.3270400000000000    0.4359400000000000    0.8746050000000001 H
   0.2786000000000000    0.1657600000000000    0.9017900000000000 H
   0.3439400000000000    0.0926900000000000    0.8368949999999999 H
   0.4488000000000000    0.9850000000000000    0.8187350000000000 H
   0.5522700000000000    0.0149300000000000    0.6810250000000000 H
   0.2852200000000000    0.8149600000000000    0.2082350000000000 C
   0.1618100000000000    0.7776200000000000    0.1734150000000000 C
   0.0898800000000000    0.7442600000000000    0.1926450000000000 C
   0.9750200000000000    0.7110100000000000    0.1604600000000000 C
   0.9287300000000001    0.7065900000000001    0.1076450000000000 C
   0.0000000000000000    0.7386600000000000    0.0886750000000000 C
   0.1172000000000000    0.7753800000000000    0.1213150000000000 C
   0.6203600000000000    0.8316300000000000    0.3943700000000000 C
   0.6586600000000000    0.7844200000000000    0.4332500000000000 C
   0.6066400000000000    0.6839200000000000    0.4198300000000000 C
   0.6425900000000000    0.6428400000000000    0.4577250000000000 C
   0.7308100000000000    0.7005900000000000    0.0098300000000000 C
   0.7831900000000001    0.8009100000000000    0.0222650000000000 C
   0.7478100000000000    0.8424700000000001    0.4847650000000000 C
   0.6319500000000000    0.4448500000000000    0.0139750000000000 C
   0.7377500000000000    0.5124900000000000    0.0326950000000000 C
   0.8192900000000000    0.4741600000000000    0.0245800000000000 C
   0.5879700000000000    0.8254200000000000    0.2199450000000000 C
   0.6270300000000000    0.7776100000000000    0.1806950000000000 C
   0.6308200000000000    0.6802200000000000    0.1691850000000000 C
   0.6699800000000000    0.6390200000000000    0.1330700000000000 C
   0.7050500000000000    0.6933100000000000    0.1070900000000000 C
   0.6980900000000000    0.7900100000000000    0.1182000000000000 C
   0.6606000000000000    0.8317300000000000    0.1545850000000000 C
   0.7158099999999999    0.1850500000000000    0.2917550000000000 C
   0.8391900000000000    0.2224500000000000    0.3265900000000000 C
   0.9111500000000000    0.2558800000000000    0.3073900000000000 C
   0.0260100000000000    0.2890300000000000    0.3395700000000000 C
   0.0722600000000000    0.2933000000000000    0.3923550000000000 C
   0.9987600000000000    0.2612000000000000    0.4113050000000000 C
   0.8837600000000000    0.2245600000000000    0.3786650000000000 C
   0.3803000000000000    0.1680000000000000    0.1055850000000000 C
   0.3420500000000000    0.2152200000000000    0.0666800000000000 C
   0.3941200000000000    0.3157200000000000    0.0801550000000000 C
   0.3582400000000000    0.3568400000000000    0.0422700000000000 C
   0.2700400000000000    0.2991200000000000    0.4901550000000000 C
   0.2176100000000000    0.1988000000000000    0.4777000000000000 C
   0.2529100000000000    0.1572200000000000    0.0151950000000000 C
   0.3367600000000000    0.8010300000000000    0.0508700000000000 C
   0.3114800000000000    0.6934100000000000    0.0209600000000000 C
   0.3933100000000000    0.6569600000000000    0.0124900000000000 C
   0.3690800000000000    0.5549500000000001    0.4860550000000000 C
   0.2632900000000000    0.4872800000000000    0.4673250000000000 C
   0.1817500000000000    0.5256000000000000    0.4754550000000000 C
   0.2053500000000000    0.6271099999999999    0.0021250000000000 C
   0.4131200000000000    0.1742300000000000    0.2800850000000000 C
   0.3739900000000000    0.2220200000000000    0.3193200000000000 C
   0.3701500000000000    0.3193900000000000    0.3308000000000000 C
   0.3309800000000000    0.3606200000000000    0.3669100000000000 C
   0.2959200000000000    0.3063700000000000    0.3929050000000000 C
   0.3029100000000000    0.2096700000000000    0.3815000000000000 C
   0.3404300000000000    0.1679300000000000    0.3454500000000000 C
   0.2852200000000000    0.8149600000000000    0.7082349999999999 C
   0.1618100000000000    0.7776200000000000    0.6734150000000000 C
   0.0898800000000000    0.7442600000000000    0.6926450000000000 C
   0.9750200000000000    0.7110100000000000    0.6604600000000000 C
   0.9287300000000001    0.7065900000000001    0.6076450000000000 C
   0.0000000000000000    0.7386600000000000    0.5886750000000001 C
   0.1172000000000000    0.7753800000000000    0.6213150000000001 C
   0.6203600000000000    0.8316300000000000    0.8943700000000000 C
   0.6586600000000000    0.7844200000000000    0.9332500000000000 C
   0.6066400000000000    0.6839200000000000    0.9198299999999999 C
   0.6425900000000000    0.6428400000000000    0.9577249999999999 C
   0.7308100000000000    0.7005900000000000    0.5098300000000000 C
   0.7831900000000001    0.8009100000000000    0.5222650000000000 C
   0.7478100000000000    0.8424700000000001    0.9847650000000000 C
   0.6641899999999999    0.1987500000000000    0.9491700000000001 C
   0.6895200000000000    0.3063700000000000    0.9790800000000000 C
   0.6077000000000000    0.3428400000000000    0.9875000000000000 C
   0.7956600000000000    0.3726500000000000    0.9979100000000001 C
   0.5879700000000000    0.8254200000000000    0.7199450000000001 C
   0.6270300000000000    0.7776100000000000    0.6806950000000001 C
   0.6308200000000000    0.6802200000000000    0.6691850000000000 C
   0.6699800000000000    0.6390200000000000    0.6330700000000000 C
   0.7050500000000000    0.6933100000000000    0.6070900000000000 C
   0.6980900000000000    0.7900100000000000    0.6182000000000000 C
   0.6606000000000000    0.8317300000000000    0.6545850000000000 C
   0.7158099999999999    0.1850500000000000    0.7917550000000000 C
   0.8391900000000000    0.2224500000000000    0.8265899999999999 C
   0.9111500000000000    0.2558800000000000    0.8073900000000001 C
   0.0260100000000000    0.2890300000000000    0.8395699999999999 C
   0.0722600000000000    0.2933000000000000    0.8923550000000000 C
   0.9987600000000000    0.2612000000000000    0.9113050000000000 C
   0.8837600000000000    0.2245600000000000    0.8786650000000000 C
   0.3803000000000000    0.1680000000000000    0.6055850000000000 C
   0.3420500000000000    0.2152200000000000    0.5666800000000000 C
   0.3941200000000000    0.3157200000000000    0.5801550000000000 C
   0.3582400000000000    0.3568400000000000    0.5422700000000000 C
   0.2700400000000000    0.2991200000000000    0.9901550000000000 C
   0.2176100000000000    0.1988000000000000    0.9777000000000000 C
   0.2529100000000000    0.1572200000000000    0.5151950000000000 C
   0.3367600000000000    0.8010300000000000    0.5508700000000000 C
   0.3114800000000000    0.6934100000000000    0.5209600000000000 C
   0.3933100000000000    0.6569600000000000    0.5124900000000000 C
   0.3690800000000000    0.5549500000000001    0.9860550000000000 C
   0.2632900000000000    0.4872800000000000    0.9673250000000000 C
   0.1817500000000000    0.5256000000000000    0.9754550000000000 C
   0.2053500000000000    0.6271099999999999    0.5021250000000000 C
   0.4131200000000000    0.1742300000000000    0.7800849999999999 C
   0.3739900000000000    0.2220200000000000    0.8193200000000000 C
   0.3701500000000000    0.3193900000000000    0.8308000000000000 C
   0.3309800000000000    0.3606200000000000    0.8669100000000001 C
   0.2959200000000000    0.3063700000000000    0.8929050000000001 C
   0.3029100000000000    0.2096700000000000    0.8815000000000000 C
   0.3404300000000000    0.1679300000000000    0.8454500000000000 C
   0.3202500000000000    0.7819000000000000    0.2455600000000000 O
   0.3465600000000000    0.8745700000000000    0.1995900000000000 O
   0.6750000000000000    0.9239200000000000    0.4111400000000000 O
   0.5376500000000000    0.7786800000000000    0.3481050000000000 O
   0.5531500000000000    0.7723200000000000    0.2414200000000000 O
   0.5932200000000000    0.9156700000000000    0.2298500000000000 O
   0.6806800000000000    0.2180100000000000    0.2544000000000000 O
   0.6545400000000000    0.1254300000000000    0.3004300000000000 O
   0.3255000000000000    0.0757700000000000    0.0888650000000000 O
   0.4631900000000000    0.2208700000000000    0.1518000000000000 O
   0.2614400000000000    0.8308800000000000    0.0612450000000000 O
   0.4310400000000000    0.8645699999999999    0.0676300000000000 O
   0.4476900000000000    0.2273000000000000    0.2585250000000000 O
   0.4081900000000000    0.0840700000000000    0.2702500000000000 O
   0.5146100000000000    0.9687600000000000    0.3184500000000000 O
   0.4865200000000000    0.0310200000000000    0.1815050000000000 O
   0.3202500000000000    0.7819000000000000    0.7455600000000000 O
   0.3465600000000000    0.8745700000000000    0.6995899999999999 O
   0.6750000000000000    0.9239200000000000    0.9111400000000001 O
   0.5376500000000000    0.7786800000000000    0.8481050000000000 O
   0.7394400000000000    0.1688500000000000    0.9387550000000000 O
   0.5698900000000000    0.1352400000000000    0.9324350000000000 O
   0.5531500000000000    0.7723200000000000    0.7414200000000000 O
   0.5932200000000000    0.9156700000000000    0.7298500000000000 O
   0.6806800000000000    0.2180100000000000    0.7544000000000000 O
   0.6545400000000000    0.1254300000000000    0.8004300000000000 O
   0.3255000000000000    0.0757700000000000    0.5888650000000000 O
   0.4631900000000000    0.2208700000000000    0.6517999999999999 O
   0.2614400000000000    0.8308800000000000    0.5612450000000000 O
   0.4310400000000000    0.8645699999999999    0.5676300000000000 O
   0.4476900000000000    0.2273000000000000    0.7585250000000000 O
   0.4081900000000000    0.0840700000000000    0.7702500000000000 O
   0.5146100000000000    0.9687600000000000    0.8184500000000000 O
   0.4865200000000000    0.0310200000000000    0.6815050000000000 O
