Cu40 H134 C182 I40 N28 O4
1.0
  20.6219416078811122    0.0000000000000000   -6.3075153048678176
  -3.4949153032120339   13.0101875696959937   -7.0765581623203113
   0.0000000000000000    0.0000000000000000   30.4600000000000009
Cu H C I N O
40 134 182 40 28 4
direct
   0.3666500000000000    0.7544300000000000    0.8576950000000000 Cu
   0.1336050000000000    0.2453500000000000    0.1423250000000000 Cu
   0.4752100000000000    0.5265200000000000    0.7864800000000001 Cu
   0.0250850000000000    0.4736900000000000    0.2136200000000000 Cu
   0.6336050000000000    0.2453500000000000    0.1423250000000000 Cu
   0.8666499999999999    0.7544300000000000    0.8576950000000000 Cu
   0.9752100000000000    0.5265200000000000    0.2864800000000000 Cu
   0.5250850000000000    0.4736900000000000    0.7136200000000000 Cu
   0.1336050000000000    0.2453500000000000    0.6423250000000000 Cu
   0.3666500000000000    0.7544300000000000    0.3576950000000000 Cu
   0.0955100000000000    0.0961100000000000    0.6560550000000001 Cu
   0.9041950000000001    0.9038600000000000    0.3439200000000000 Cu
   0.6765050000000000    0.2608700000000000    0.2414500000000000 Cu
   0.3237700000000000    0.7388900000000000    0.7585350000000000 Cu
   0.5955100000000000    0.0961100000000000    0.1560550000000000 Cu
   0.4041950000000000    0.9038600000000000    0.8439200000000000 Cu
   0.1765050000000000    0.2608700000000000    0.7414499999999999 Cu
   0.8237700000000000    0.7388900000000000    0.2585350000000000 Cu
   0.9752100000000000    0.5265200000000000    0.7864800000000001 Cu
   0.5250850000000000    0.4736900000000000    0.2136200000000000 Cu
   0.4752100000000000    0.5265200000000000    0.2864800000000000 Cu
   0.0250850000000000    0.4736900000000000    0.7136200000000000 Cu
   0.6336050000000000    0.2453500000000000    0.6423250000000000 Cu
   0.8666499999999999    0.7544300000000000    0.3576950000000000 Cu
   0.5955100000000000    0.0961100000000000    0.6560550000000001 Cu
   0.4041950000000000    0.9038600000000000    0.3439200000000000 Cu
   0.1765050000000000    0.2608700000000000    0.2414500000000000 Cu
   0.8237700000000000    0.7388900000000000    0.7585350000000000 Cu
   0.0955100000000000    0.0961100000000000    0.1560550000000000 Cu
   0.9041950000000001    0.9038600000000000    0.8439200000000000 Cu
   0.6765050000000000    0.2608700000000000    0.7414499999999999 Cu
   0.3237700000000000    0.7388900000000000    0.2585350000000000 Cu
   0.0484000000000000    0.2562300000000000    0.6918750000000000 Cu
   0.5484000000000000    0.2562300000000000    0.6918750000000000 Cu
   0.5484000000000000    0.2562300000000000    0.1918750000000000 Cu
   0.0484000000000000    0.2562300000000000    0.1918750000000000 Cu
   0.4519850000000000    0.7442000000000000    0.3083250000000000 Cu
   0.4519850000000000    0.7442000000000000    0.8083250000000000 Cu
   0.9519850000000001    0.7442000000000000    0.8083250000000000 Cu
   0.9519850000000001    0.7442000000000000    0.3083250000000000 Cu
   0.2934538621251325    0.6417042053280605    0.8794731327969036 H
   0.3542944376842411    0.7283041702922149    0.9377065327780985 H
   0.1457497699957210    0.2715664214129488    0.0623043414890957 H
   0.2066002661413117    0.3581923263422147    0.1205302113634127 H
   0.8663200000000000    0.7330100000000001    0.0220100000000000 H
   0.7103699999999999    0.5061900000000000    0.8698250000000001 H
   0.9057299999999999    0.8054000000000000    0.9739150000000000 H
   0.7546550000000001    0.5896400000000001    0.8292300000000000 H
   0.6336400000000000    0.2668800000000000    0.9779900000000000 H
   0.7896099999999999    0.4937600000000000    0.1301550000000000 H
   0.5943150000000000    0.1944500000000000    0.0261050000000000 H
   0.7454149999999999    0.4102500000000000    0.1707650000000000 H
   0.6633700000000000    0.6839300000000000    0.9659550000000000 H
   0.5949750000000000    0.3520500000000000    0.8767900000000000 H
   0.5637150000000000    0.6845100000000000    0.8994599999999999 H
   0.4994500000000000    0.3659400000000000    0.8135000000000000 H
   0.8366100000000001    0.3160100000000000    0.0340400000000000 H
   0.9049199999999999    0.6479100000000000    0.1232150000000000 H
   0.9362800000000000    0.3154900000000000    0.1005400000000000 H
   0.6325550000000000    0.4208400000000000    0.9779249999999999 H
   0.8673900000000000    0.5790500000000000    0.0220550000000000 H
   0.3663200000000000    0.7330100000000001    0.5220100000000000 H
   0.2103700000000000    0.5061900000000000    0.3698250000000000 H
   0.4057300000000000    0.8054000000000000    0.4739150000000000 H
   0.2546550000000000    0.5896400000000001    0.3292300000000000 H
   0.1336400000000000    0.2668800000000000    0.4779900000000000 H
   0.2896100000000000    0.4937600000000000    0.6301550000000000 H
   0.0943150000000000    0.1944500000000000    0.5261050000000000 H
   0.2454150000000000    0.4102500000000000    0.6707650000000001 H
   0.1633700000000000    0.6839300000000000    0.4659550000000000 H
   0.0949750000000000    0.3520500000000000    0.3767900000000000 H
   0.0637150000000000    0.6845100000000000    0.3994600000000000 H
   0.9994499999999999    0.3659400000000000    0.3135000000000000 H
   0.3366100000000000    0.3160100000000000    0.5340400000000000 H
   0.4049200000000000    0.6479100000000000    0.6232150000000000 H
   0.4362800000000000    0.3154900000000000    0.6005400000000000 H
   0.5004550000000000    0.6340600000000000    0.6865250000000001 H
   0.1325550000000000    0.4208400000000000    0.4779250000000000 H
   0.3673900000000000    0.5790500000000000    0.5220550000000000 H
   0.0834400000000000    0.5217500000000000    0.6362950000000001 H
   0.1749200000000000    0.6821500000000000    0.5759250000000000 H
   0.2791900000000000    0.7475600000000000    0.6565550000000000 H
   0.1890650000000000    0.5982600000000000    0.7151100000000000 H
   0.9166500000000000    0.4783400000000000    0.3637700000000000 H
   0.8251400000000000    0.3178700000000000    0.4241000000000000 H
   0.7209000000000000    0.2523900000000000    0.3434300000000000 H
   0.8110450000000000    0.4017800000000000    0.2849250000000000 H
   0.0358100000000000    0.7409400000000000    0.4916900000000000 H
   0.0526050000000000    0.7419700000000000    0.6370650000000000 H
   0.0760450000000000    0.9321900000000000    0.6832800000000000 H
   0.0600900000000000    0.9305600000000001    0.5438750000000000 H
   0.9643150000000000    0.2590900000000000    0.5083600000000000 H
   0.9473849999999999    0.2580100000000000    0.3629550000000000 H
   0.9238600000000000    0.0677900000000000    0.3167350000000000 H
   0.9399450000000000    0.0694700000000000    0.4561700000000000 H
   0.0565250000000000    0.3979900000000000    0.5343400000000000 H
   0.9434899999999999    0.6020100000000000    0.4656700000000000 H
   0.5834400000000000    0.5217500000000000    0.1362950000000000 H
   0.6749200000000000    0.6821500000000000    0.0759250000000000 H
   0.7791900000000000    0.7475600000000000    0.1565550000000000 H
   0.6890650000000000    0.5982600000000000    0.2151100000000000 H
   0.4166500000000000    0.4783400000000000    0.8637699999999999 H
   0.3251400000000000    0.3178700000000000    0.9240999999999999 H
   0.2209000000000000    0.2523900000000000    0.8434300000000000 H
   0.3110450000000000    0.4017800000000000    0.7849250000000000 H
   0.5358100000000000    0.7409400000000000    0.9916900000000000 H
   0.5526050000000000    0.7419700000000000    0.1370650000000000 H
   0.5760450000000000    0.9321900000000000    0.1832800000000000 H
   0.5600900000000000    0.9305600000000001    0.0438750000000000 H
   0.4643150000000000    0.2590900000000000    0.0083600000000000 H
   0.4473850000000000    0.2580100000000000    0.8629550000000000 H
   0.4238600000000000    0.0677900000000000    0.8167350000000000 H
   0.4399450000000000    0.0694700000000000    0.9561700000000000 H
   0.5565250000000000    0.3979900000000000    0.0343400000000000 H
   0.4434900000000000    0.6020100000000000    0.9656700000000000 H
   0.0598720620160262    0.5881829361918378    0.8841446760684505 H
   0.0335614090149617    0.4599224129802694    0.8498658931785735 H
   0.4400815126721790    0.4117982207039200    0.1158559133472322 H
   0.4502936838240761    0.5372902957230414    0.1859958783290191 H
   0.5004550000000000    0.6340600000000000    0.1865250000000000 H
   0.8663200000000000    0.7330100000000001    0.5220100000000000 H
   0.7103699999999999    0.5061900000000000    0.3698250000000000 H
   0.9057299999999999    0.8054000000000000    0.4739150000000000 H
   0.7546550000000001    0.5896400000000001    0.3292300000000000 H
   0.6336400000000000    0.2668800000000000    0.4779900000000000 H
   0.7896099999999999    0.4937600000000000    0.6301550000000000 H
   0.5943150000000000    0.1944500000000000    0.5261050000000000 H
   0.7454149999999999    0.4102500000000000    0.6707650000000001 H
   0.6633700000000000    0.6839300000000000    0.4659550000000000 H
   0.5949750000000000    0.3520500000000000    0.3767900000000000 H
   0.5637150000000000    0.6845100000000000    0.3994600000000000 H
   0.4994500000000000    0.3659400000000000    0.3135000000000000 H
   0.8366100000000001    0.3160100000000000    0.5340400000000000 H
   0.9049199999999999    0.6479100000000000    0.6232150000000000 H
   0.9362800000000000    0.3154900000000000    0.6005400000000000 H
   0.0004550000000000    0.6340600000000000    0.6865250000000001 H
   0.6325550000000000    0.4208400000000000    0.4779250000000000 H
   0.8673900000000000    0.5790500000000000    0.5220550000000000 H
   0.5834400000000000    0.5217500000000000    0.6362950000000001 H
   0.6749200000000000    0.6821500000000000    0.5759250000000000 H
   0.7791900000000000    0.7475600000000000    0.6565550000000000 H
   0.6890650000000000    0.5982600000000000    0.7151100000000000 H
   0.4166500000000000    0.4783400000000000    0.3637700000000000 H
   0.3251400000000000    0.3178700000000000    0.4241000000000000 H
   0.2209000000000000    0.2523900000000000    0.3434300000000000 H
   0.3110450000000000    0.4017800000000000    0.2849250000000000 H
   0.5358100000000000    0.7409400000000000    0.4916900000000000 H
   0.5526050000000000    0.7419700000000000    0.6370650000000000 H
   0.5760450000000000    0.9321900000000000    0.6832800000000000 H
   0.5600900000000000    0.9305600000000001    0.5438750000000000 H
   0.4643150000000000    0.2590900000000000    0.5083600000000000 H
   0.4473850000000000    0.2580100000000000    0.3629550000000000 H
   0.4238600000000000    0.0677900000000000    0.3167350000000000 H
   0.4399450000000000    0.0694700000000000    0.4561700000000000 H
   0.5565250000000000    0.3979900000000000    0.5343400000000000 H
   0.4434900000000000    0.6020100000000000    0.4656700000000000 H
   0.0834400000000000    0.5217500000000000    0.1362950000000000 H
   0.1749200000000000    0.6821500000000000    0.0759250000000000 H
   0.2791900000000000    0.7475600000000000    0.1565550000000000 H
   0.1890650000000000    0.5982600000000000    0.2151100000000000 H
   0.9166500000000000    0.4783400000000000    0.8637699999999999 H
   0.8251400000000000    0.3178700000000000    0.9240999999999999 H
   0.7209000000000000    0.2523900000000000    0.8434300000000000 H
   0.8110450000000000    0.4017800000000000    0.7849250000000000 H
   0.0358100000000000    0.7409400000000000    0.9916900000000000 H
   0.0526050000000000    0.7419700000000000    0.1370650000000000 H
   0.0760450000000000    0.9321900000000000    0.1832800000000000 H
   0.0600900000000000    0.9305600000000001    0.0438750000000000 H
   0.9643150000000000    0.2590900000000000    0.0083600000000000 H
   0.9473849999999999    0.2580100000000000    0.8629550000000000 H
   0.9238600000000000    0.0677900000000000    0.8167350000000000 H
   0.9399450000000000    0.0694700000000000    0.9561700000000000 H
   0.0565250000000000    0.3979900000000000    0.0343400000000000 H
   0.9434899999999999    0.6020100000000000    0.9656700000000000 H
   0.8401100000000000    0.6973900000000000    0.9789350000000000 C
   0.7532500000000000    0.5732200000000000    0.8954200000000000 C
   0.8624000000000001    0.7390600000000001    0.9524349999999999 C
   0.7783599999999999    0.6194400000000000    0.8719800000000000 C
   0.7847250000000000    0.6107200000000000    0.9504049999999999 C
   0.6598800000000000    0.3024900000000000    0.0210650000000000 C
   0.7467550000000001    0.4267000000000000    0.1045700000000000 C
   0.6376250000000000    0.2608200000000000    0.0475750000000000 C
   0.7216750000000001    0.3804700000000000    0.1280200000000000 C
   0.7152550000000000    0.3891800000000000    0.0495850000000000 C
   0.6279399999999999    0.6114800000000000    0.9329950000000000 C
   0.5895650000000000    0.4277500000000000    0.8841800000000000 C
   0.5724600000000000    0.6124800000000000    0.8961300000000000 C
   0.5359450000000000    0.4348400000000000    0.8486000000000000 C
   0.6383150000000000    0.5172600000000001    0.9268600000000000 C
   0.8720250000000001    0.3884700000000000    0.0669950000000000 C
   0.9103600000000001    0.5722200000000000    0.1158200000000000 C
   0.9275000000000000    0.3875000000000000    0.1038700000000000 C
   0.9639700000000000    0.5651600000000000    0.1514150000000000 C
   0.8616300000000000    0.4826900000000000    0.0731300000000000 C
   0.6847600000000000    0.4529500000000000    0.9867150000000000 C
   0.6972150000000000    0.5096800000000000    0.9634250000000000 C
   0.7354849999999999    0.4420100000000000    0.0234750000000000 C
   0.8151850000000000    0.5469400000000000    0.0132600000000000 C
   0.8027299999999999    0.4902300000000000    0.0365600000000000 C
   0.7644550000000000    0.5579100000000000    0.9765150000000000 C
   0.3401100000000000    0.6973900000000000    0.4789350000000000 C
   0.2532500000000000    0.5732200000000000    0.3954200000000000 C
   0.3624000000000000    0.7390600000000001    0.4524350000000000 C
   0.2783600000000000    0.6194400000000000    0.3719800000000000 C
   0.2847250000000000    0.6107200000000000    0.4504050000000000 C
   0.1598800000000000    0.3024900000000000    0.5210650000000000 C
   0.2467550000000000    0.4267000000000000    0.6045700000000001 C
   0.1376250000000000    0.2608200000000000    0.5475750000000000 C
   0.2216750000000000    0.3804700000000000    0.6280200000000000 C
   0.2152550000000000    0.3891800000000000    0.5495850000000000 C
   0.1279400000000000    0.6114800000000000    0.4329950000000000 C
   0.0895650000000000    0.4277500000000000    0.3841800000000000 C
   0.0724600000000000    0.6124800000000000    0.3961300000000000 C
   0.0359450000000000    0.4348400000000000    0.3486000000000000 C
   0.1383150000000000    0.5172600000000001    0.4268600000000000 C
   0.3720250000000000    0.3884700000000000    0.5669950000000000 C
   0.4103600000000000    0.5722200000000000    0.6158200000000000 C
   0.4275000000000000    0.3875000000000000    0.6038700000000000 C
   0.4639700000000000    0.5651600000000000    0.6514150000000000 C
   0.3616300000000000    0.4826900000000000    0.5731300000000000 C
   0.1847600000000000    0.4529500000000000    0.4867150000000000 C
   0.1972150000000000    0.5096800000000000    0.4634250000000000 C
   0.2354850000000000    0.4420100000000000    0.5234750000000000 C
   0.3151850000000000    0.5469400000000000    0.5132600000000000 C
   0.3027300000000000    0.4902300000000000    0.5365600000000000 C
   0.2644550000000000    0.5579100000000000    0.4765150000000000 C
   0.1249350000000000    0.5719800000000000    0.6386600000000000 C
   0.1757050000000000    0.6611600000000000    0.6057150000000000 C
   0.2341600000000000    0.6980700000000000    0.6506250000000000 C
   0.1845750000000000    0.6143800000000000    0.6831700000000001 C
   0.1188200000000000    0.5957400000000000    0.5984950000000000 C
   0.8751500000000000    0.4280800000000000    0.3613850000000000 C
   0.8243650000000000    0.3388500000000000    0.3943100000000000 C
   0.7659300000000000    0.3019200000000000    0.3493850000000000 C
   0.8155250000000001    0.3856600000000000    0.3168600000000000 C
   0.8812450000000001    0.4042900000000000    0.4015350000000000 C
   0.0445100000000000    0.7794000000000000    0.5341800000000000 C
   0.0543850000000000    0.7801700000000000    0.6146450000000000 C
   0.0675200000000000    0.8866500000000000    0.6408650000000000 C
   0.0584250000000000    0.8859800000000000    0.5632250000000000 C
   0.0424000000000000    0.7231200000000000    0.5597250000000000 C
   0.9555600000000000    0.2206300000000000    0.4658600000000000 C
   0.9456100000000001    0.2198300000000000    0.3853800000000000 C
   0.9324300000000000    0.1133400000000000    0.3591600000000000 C
   0.9416000000000000    0.1140400000000000    0.4368100000000000 C
   0.9576300000000000    0.2769100000000000    0.4403100000000000 C
   0.0304600000000000    0.4432800000000000    0.5198450000000000 C
   0.0564200000000000    0.5503600000000000    0.5495900000000000 C
   0.9757100000000001    0.3909900000000000    0.4705650000000000 C
   0.9695700000000000    0.5567600000000000    0.4801800000000000 C
   0.9436249999999999    0.4496700000000000    0.4504450000000000 C
   0.0243400000000000    0.6090300000000000    0.5294650000000000 C
   0.6249350000000000    0.5719800000000000    0.1386600000000000 C
   0.6757050000000000    0.6611600000000000    0.1057150000000000 C
   0.7341600000000000    0.6980700000000000    0.1506250000000000 C
   0.6845749999999999    0.6143800000000000    0.1831700000000000 C
   0.6188200000000000    0.5957400000000000    0.0984950000000000 C
   0.3751500000000000    0.4280800000000000    0.8613850000000001 C
   0.3243650000000000    0.3388500000000000    0.8943099999999999 C
   0.2659300000000000    0.3019200000000000    0.8493850000000001 C
   0.3155250000000000    0.3856600000000000    0.8168599999999999 C
   0.3812450000000000    0.4042900000000000    0.9015350000000000 C
   0.5445100000000000    0.7794000000000000    0.0341800000000000 C
   0.5543850000000000    0.7801700000000000    0.1146450000000000 C
   0.5675200000000000    0.8866500000000000    0.1408650000000000 C
   0.5584249999999999    0.8859800000000000    0.0632250000000000 C
   0.5424000000000000    0.7231200000000000    0.0597250000000000 C
   0.4555600000000000    0.2206300000000000    0.9658599999999999 C
   0.4456100000000000    0.2198300000000000    0.8853800000000001 C
   0.4324300000000000    0.1133400000000000    0.8591599999999999 C
   0.4416000000000000    0.1140400000000000    0.9368099999999999 C
   0.4576300000000000    0.2769100000000000    0.9403100000000000 C
   0.5304600000000000    0.4432800000000000    0.0198450000000000 C
   0.5564200000000000    0.5503600000000000    0.0495900000000000 C
   0.4757100000000000    0.3909900000000000    0.9705650000000000 C
   0.4695700000000000    0.5567600000000000    0.9801800000000001 C
   0.4436250000000000    0.4496700000000000    0.9504450000000000 C
   0.5243400000000000    0.6090300000000000    0.0294650000000000 C
   0.8401100000000000    0.6973900000000000    0.4789350000000000 C
   0.7532500000000000    0.5732200000000000    0.3954200000000000 C
   0.8624000000000001    0.7390600000000001    0.4524350000000000 C
   0.7783599999999999    0.6194400000000000    0.3719800000000000 C
   0.7847250000000000    0.6107200000000000    0.4504050000000000 C
   0.6598800000000000    0.3024900000000000    0.5210650000000000 C
   0.7467550000000001    0.4267000000000000    0.6045700000000001 C
   0.6376250000000000    0.2608200000000000    0.5475750000000000 C
   0.7216750000000001    0.3804700000000000    0.6280200000000000 C
   0.7152550000000000    0.3891800000000000    0.5495850000000000 C
   0.6279399999999999    0.6114800000000000    0.4329950000000000 C
   0.5895650000000000    0.4277500000000000    0.3841800000000000 C
   0.5724600000000000    0.6124800000000000    0.3961300000000000 C
   0.5359450000000000    0.4348400000000000    0.3486000000000000 C
   0.6383150000000000    0.5172600000000001    0.4268600000000000 C
   0.8720250000000001    0.3884700000000000    0.5669950000000000 C
   0.9103600000000001    0.5722200000000000    0.6158200000000000 C
   0.9275000000000000    0.3875000000000000    0.6038700000000000 C
   0.9639700000000000    0.5651600000000000    0.6514150000000000 C
   0.8616300000000000    0.4826900000000000    0.5731300000000000 C
   0.6847600000000000    0.4529500000000000    0.4867150000000000 C
   0.6972150000000000    0.5096800000000000    0.4634250000000000 C
   0.7354849999999999    0.4420100000000000    0.5234750000000000 C
   0.8151850000000000    0.5469400000000000    0.5132600000000000 C
   0.8027299999999999    0.4902300000000000    0.5365600000000000 C
   0.7644550000000000    0.5579100000000000    0.4765150000000000 C
   0.6249350000000000    0.5719800000000000    0.6386600000000000 C
   0.6757050000000000    0.6611600000000000    0.6057150000000000 C
   0.7341600000000000    0.6980700000000000    0.6506250000000000 C
   0.6845749999999999    0.6143800000000000    0.6831700000000001 C
   0.6188200000000000    0.5957400000000000    0.5984950000000000 C
   0.3751500000000000    0.4280800000000000    0.3613850000000000 C
   0.3243650000000000    0.3388500000000000    0.3943100000000000 C
   0.2659300000000000    0.3019200000000000    0.3493850000000000 C
   0.3155250000000000    0.3856600000000000    0.3168600000000000 C
   0.3812450000000000    0.4042900000000000    0.4015350000000000 C
   0.5445100000000000    0.7794000000000000    0.5341800000000000 C
   0.5543850000000000    0.7801700000000000    0.6146450000000000 C
   0.5675200000000000    0.8866500000000000    0.6408650000000000 C
   0.5584249999999999    0.8859800000000000    0.5632250000000000 C
   0.5424000000000000    0.7231200000000000    0.5597250000000000 C
   0.4555600000000000    0.2206300000000000    0.4658600000000000 C
   0.4456100000000000    0.2198300000000000    0.3853800000000000 C
   0.4324300000000000    0.1133400000000000    0.3591600000000000 C
   0.4416000000000000    0.1140400000000000    0.4368100000000000 C
   0.4576300000000000    0.2769100000000000    0.4403100000000000 C
   0.5304600000000000    0.4432800000000000    0.5198450000000000 C
   0.5564200000000000    0.5503600000000000    0.5495900000000000 C
   0.4757100000000000    0.3909900000000000    0.4705650000000000 C
   0.4695700000000000    0.5567600000000000    0.4801800000000000 C
   0.4436250000000000    0.4496700000000000    0.4504450000000000 C
   0.5243400000000000    0.6090300000000000    0.5294650000000000 C
   0.1249350000000000    0.5719800000000000    0.1386600000000000 C
   0.1757050000000000    0.6611600000000000    0.1057150000000000 C
   0.2341600000000000    0.6980700000000000    0.1506250000000000 C
   0.1845750000000000    0.6143800000000000    0.1831700000000000 C
   0.1188200000000000    0.5957400000000000    0.0984950000000000 C
   0.8751500000000000    0.4280800000000000    0.8613850000000001 C
   0.8243650000000000    0.3388500000000000    0.8943099999999999 C
   0.7659300000000000    0.3019200000000000    0.8493850000000001 C
   0.8155250000000001    0.3856600000000000    0.8168599999999999 C
   0.8812450000000001    0.4042900000000000    0.9015350000000000 C
   0.0445100000000000    0.7794000000000000    0.0341800000000000 C
   0.0543850000000000    0.7801700000000000    0.1146450000000000 C
   0.0675200000000000    0.8866500000000000    0.1408650000000000 C
   0.0584250000000000    0.8859800000000000    0.0632250000000000 C
   0.0424000000000000    0.7231200000000000    0.0597250000000000 C
   0.9555600000000000    0.2206300000000000    0.9658599999999999 C
   0.9456100000000001    0.2198300000000000    0.8853800000000001 C
   0.9324300000000000    0.1133400000000000    0.8591599999999999 C
   0.9416000000000000    0.1140400000000000    0.9368099999999999 C
   0.9576300000000000    0.2769100000000000    0.9403100000000000 C
   0.0304600000000000    0.4432800000000000    0.0198450000000000 C
   0.0564200000000000    0.5503600000000000    0.0495900000000000 C
   0.9757100000000001    0.3909900000000000    0.9705650000000000 C
   0.9695700000000000    0.5567600000000000    0.9801800000000001 C
   0.9436249999999999    0.4496700000000000    0.9504450000000000 C
   0.0243400000000000    0.6090300000000000    0.0294650000000000 C
   0.9947450000000000    0.8643900000000000    0.4168550000000000 I
   0.4947450000000000    0.8643900000000000    0.4168550000000000 I
   0.4947450000000000    0.8643900000000000    0.9168550000000000 I
   0.9947450000000000    0.8643900000000000    0.9168550000000000 I
   0.5052250000000000    0.1355900000000000    0.0830950000000000 I
   0.5052250000000000    0.1355900000000000    0.5830950000000000 I
   0.0052250000000000    0.1355900000000000    0.0830950000000000 I
   0.0052250000000000    0.1355900000000000    0.5830950000000000 I
   0.2257650000000000    0.1500000000000000    0.6665449999999999 I
   0.2257650000000000    0.1500000000000000    0.1665450000000000 I
   0.7257650000000000    0.1500000000000000    0.6665449999999999 I
   0.7257650000000000    0.1500000000000000    0.1665450000000000 I
   0.2742150000000000    0.8495400000000000    0.3334000000000000 I
   0.2742150000000000    0.8495400000000000    0.8333999999999999 I
   0.7742150000000000    0.8495400000000000    0.8333999999999999 I
   0.7742150000000000    0.8495400000000000    0.3334000000000000 I
   0.9237050000000000    0.8374100000000000    0.2487050000000000 I
   0.4237050000000000    0.8374100000000000    0.2487050000000000 I
   0.4237050000000000    0.8374100000000000    0.7487050000000000 I
   0.9237050000000000    0.8374100000000000    0.7487050000000000 I
   0.5764500000000000    0.1627100000000000    0.7513850000000000 I
   0.5764500000000000    0.1627100000000000    0.2513850000000000 I
   0.0764500000000000    0.1627100000000000    0.7513850000000000 I
   0.0764500000000000    0.1627100000000000    0.2513850000000000 I
   0.0607050000000000    0.6754400000000000    0.2929450000000000 I
   0.5607050000000000    0.6754400000000000    0.7929450000000000 I
   0.5607050000000000    0.6754400000000000    0.2929450000000000 I
   0.0607050000000000    0.6754400000000000    0.7929450000000000 I
   0.9391900000000000    0.3245700000000000    0.7070950000000000 I
   0.4391900000000000    0.3245700000000000    0.7070950000000000 I
   0.4391900000000000    0.3245700000000000    0.2070950000000000 I
   0.9391900000000000    0.3245700000000000    0.2070950000000000 I
   0.6459000000000000    0.4313000000000000    0.2336950000000000 I
   0.1459000000000000    0.4313000000000000    0.7336950000000000 I
   0.6459000000000000    0.4313000000000000    0.7336950000000000 I
   0.1459000000000000    0.4313000000000000    0.2336950000000000 I
   0.8543200000000000    0.5687600000000000    0.7663249999999999 I
   0.3543200000000000    0.5687600000000000    0.2663250000000000 I
   0.3543200000000000    0.5687600000000000    0.7663249999999999 I
   0.8543200000000000    0.5687600000000000    0.2663250000000000 I
   0.8330700000000000    0.7001400000000000    0.8991400000000001 N
   0.6670199999999999    0.2997000000000000    0.1008650000000000 N
   0.5273400000000000    0.5253900000000000    0.8531700000000000 N
   0.9726000000000000    0.4746000000000000    0.1468350000000000 N
   0.3330700000000000    0.7001400000000000    0.3991400000000000 N
   0.1670200000000000    0.2997000000000000    0.6008650000000000 N
   0.0273400000000000    0.5253900000000000    0.3531700000000000 N
   0.4726000000000000    0.4746000000000000    0.6468350000000000 N
   0.2394700000000000    0.6761100000000000    0.6896450000000001 N
   0.7606500000000000    0.3238600000000000    0.3103650000000000 N
   0.0698600000000000    0.9403899999999999    0.6160650000000000 N
   0.9300600000000000    0.0596000000000000    0.3839550000000000 N
   0.7394700000000000    0.6761100000000000    0.1896450000000000 N
   0.2606500000000000    0.3238600000000000    0.8103650000000000 N
   0.5698600000000000    0.9403899999999999    0.1160650000000000 N
   0.4300600000000000    0.0596000000000000    0.8839550000000000 N
   0.8330700000000000    0.7001400000000000    0.3991400000000000 N
   0.6670199999999999    0.2997000000000000    0.6008650000000000 N
   0.5273400000000000    0.5253900000000000    0.3531700000000000 N
   0.9726000000000000    0.4746000000000000    0.6468350000000000 N
   0.7394700000000000    0.6761100000000000    0.6896450000000001 N
   0.2606500000000000    0.3238600000000000    0.3103650000000000 N
   0.5698600000000000    0.9403899999999999    0.6160650000000000 N
   0.4300600000000000    0.0596000000000000    0.3839550000000000 N
   0.2394700000000000    0.6761100000000000    0.1896450000000000 N
   0.7606500000000000    0.3238600000000000    0.8103650000000000 N
   0.0698600000000000    0.9403899999999999    0.1160650000000000 N
   0.9300600000000000    0.0596000000000000    0.8839550000000000 N
   0.3330700000000000    0.7001400000000000    0.8991400000000001 O
   0.1670200000000000    0.2997000000000000    0.1008650000000000 O
   0.0273400000000000    0.5253900000000000    0.8531700000000000 O
   0.4726000000000000    0.4746000000000000    0.1468350000000000 O
