H3 C9 O6
1.0
  17.5076188793769028    0.0000000000000000   -0.0062640949367041
  -0.0007237043592230    9.0103899309183966   -0.0008492092496402
   0.0000000000000000    0.0000000000000000   29.7979999999999983
H C O
3 9 6
direct
   0.3411800000000000    0.3512100000000000    0.6394550000000000 H
   0.3750200000000000    0.7649400000000000    0.5700000000000001 H
   0.4091500000000000    0.3516300000000000    0.5003200000000000 H
   0.4195850000000000    0.6510800000000000    0.4900600000000000 C
   0.3752250000000000    0.3331500000000000    0.5698900000000000 C
   0.3556200000000000    0.4112100000000000    0.6088900000000000 C
   0.3550250000000000    0.5666500000000000    0.6089350000000000 C
   0.3750200000000000    0.6441100000000000    0.5699700000000000 C
   0.3951000000000000    0.5669200000000000    0.5309600000000000 C
   0.3946300000000000    0.4114600000000000    0.5309100000000000 C
   0.3753600000000000    0.1667200000000000    0.5698950000000000 C
   0.3303900000000000    0.6503000000000000    0.6499150000000000 C
   0.4262250000000000    0.5811700000000000    0.4531900000000000 O
   0.4334500000000000   -0.2111900000000000    0.4943700000000000 O
   0.4183450000000000    0.0995700000000000    0.5421650000000000 O
   0.3325250000000000    0.0993400000000000    0.5976700000000000 O
   0.3167350000000000   -0.2118200000000000    0.6458600000000000 O
   0.3234650000000000    0.5796000000000000    0.6866200000000000 O
