H9 O6
1.0
  17.5076188793769028    0.0000000000000000   -0.0062640949367041
  -0.0007237043592230    9.0103899309183966   -0.0008492092496402
   0.0000000000000000    0.0000000000000000   29.7979999999999983
H O
9 6
direct
   0.3376221052863510    0.6836615338210809    0.6872490487858848 H
   0.3263393175847065   -0.3136049342614050    0.6368862526798833 H
   0.4083224829593093   -0.1225448761379086    0.5054644818667777 H
   0.3968857116499990    0.5155911868674558    0.4339636084625285 H
   0.3929973709705547   -0.3016092142697978    0.4678609015119253 H
   0.3030432036519486    0.0899574116815558    0.6250784795307542 H
   0.3927165418837907    0.0861254897703556    0.5707321319846351 H
   0.3648032196117204    0.1415045363136993    0.6479958360042393 H
   0.2012762479017369    0.0304878208243392    0.7439683222403981 H
   0.3234650000000000    0.5796000000000000    0.6866200000000000 O
   0.3167350000000000   -0.2118200000000000    0.6458600000000000 O
   0.4334500000000000   -0.2111900000000000    0.4943700000000000 O
   0.4262250000000000    0.5811700000000000    0.4531900000000000 O
   0.3325250000000000    0.0993400000000000    0.5976700000000000 O
   0.4183450000000000    0.0995700000000000    0.5421650000000000 O
