H4 O2
1.0
  36.7058569953696718    0.0000000000000000   -9.9019385089724370
  -3.3693085421426936   11.6717853880320455   -4.7829197989895134
   0.0000000000000000    0.0000000000000000   38.6460000000000008
H O
4 2
direct
   0.8014725933096721    0.8125839859983803    0.2137895015846088 H
   0.8254315866225568    0.7295895320906767    0.1984213800356726 H
   0.9342359286819830    0.4071290465015037    0.4053269539645489 H
   0.9117149939920079    0.4840901853548649    0.4270566987634505 H
   0.7996099999999999    0.7371600000000000    0.1940200000000000 O
   0.9372500000000000    0.4783600000000000    0.4278433333333333 O
