H10 C14 O6
1.0
  36.7058569953696718    0.0000000000000000   -9.9019385089724370
  -3.3693085421426936   11.6717853880320455   -4.7829197989895134
   0.0000000000000000    0.0000000000000000   38.6460000000000008
H C O
10 14 6
direct
   0.0051550000000000    0.2112100000000000    0.6629933333333333 H
   0.9261699999999999    0.6658200000000000    0.5468433333333333 H
   0.9695750000000001    0.7380700000000000    0.5469033333333333 H
   0.9560600000000000    0.8872900000000000    0.5601966666666667 H
   0.9742100000000000    0.0983700000000000    0.5902933333333333 H
   0.0738300000000000    0.3341600000000000    0.7864966666666666 H
   0.0304300000000000    0.2619100000000000    0.7864333333333333 H
   0.0439450000000000    0.1126900000000000    0.7731433333333333 H
   0.0257950000000000    0.9016100000000000    0.7430433333333333 H
   0.9948500000000000    0.7887700000000000    0.6703433333333333 H
   0.9707800000000000    0.5832200000000000    0.5540300000000000 C
   0.9572700000000001    0.6909100000000000    0.5611966666666667 C
   0.9767850000000000    0.8764000000000000    0.6162066666666666 C
   0.9694849999999999    0.9336000000000000    0.5922533333333333 C
   0.9800650000000000    0.0548300000000000    0.6095500000000000 C
   0.9972400000000000    0.1180000000000000    0.6499299999999999 C
   0.9949749999999999    0.9386100000000001    0.6583500000000000 C
   0.0292250000000000    0.4167600000000000    0.7793066666666666 C
   0.0427300000000000    0.3090700000000000    0.7721399999999999 C
   0.0232200000000000    0.1235800000000000    0.7171299999999999 C
   0.0305200000000000    0.0663800000000000    0.7410833333333333 C
   0.0199400000000000    0.9451500000000000    0.7237866666666666 C
   0.0027650000000000    0.8819800000000000    0.6834100000000000 C
   0.0050350000000000    0.0613700000000000    0.6749900000000000 C
   0.9728150000000000    0.5346000000000000    0.5190566666666667 O
   0.9788900000000000    0.5466800000000001    0.5798700000000000 O
   0.9676650000000000    0.7596500000000000    0.6029333333333333 O
   0.0271800000000000    0.4653600000000000    0.8142766666666666 O
   0.0211200000000000    0.4533000000000000    0.7534700000000000 O
   0.0323400000000000    0.2403300000000000    0.7303900000000000 O
