H2 O2
1.0
  36.7058569953696718    0.0000000000000000   -9.9019385089724370
  -3.3693085421426936   11.6717853880320455   -4.7829197989895134
   0.0000000000000000    0.0000000000000000   38.6460000000000008
H O
2 2
direct
   0.9712770978027154    0.5713433930378260    0.5454869203176245 H
   0.0287254464566667    0.4286320304185816    0.7878491543978970 H
   0.9728150000000000    0.5346000000000000    0.5190566666666667 O
   0.0271800000000000    0.4653600000000000    0.8142766666666666 O
