H6 O4
1.0
  16.4009998401270316    0.0000000000000000    0.0022900115975146
  -8.1906426282469376   14.2370636800250487   -0.0040133845750239
   0.0000000000000000    0.0000000000000000   32.1580000000000013
H O
6 4
direct
   0.4517162398652539    0.1440459007549932    0.9308820426366791 H
   0.6924971506510601    0.1437757983437121    0.9308949527720018 H
   0.5682925582417006    0.1362588189901456    0.9344520578778511 H
   0.5482837834938361    0.8559877648442773    0.0691251402432348 H
   0.3075164806788427    0.8562578423179357    0.0691122338166995 H
   0.4317185635858757    0.8637834292480203    0.0655523076319856 H
   0.5147699999999999    0.1669100000000000    0.9202100000000000 O
   0.6523800000000000    0.1667500000000000    0.9202200000000000 O
   0.4852300000000000    0.8331100000000000    0.0798000000000000 O
   0.3476200000000000    0.8332700000000000    0.0797900000000000 O
