Sc12 H44 C88 O48
1.0
  16.4009998401270316    0.0000000000000000    0.0022900115975146
  -8.1906426282469376   14.2370636800250487   -0.0040133845750239
   0.0000000000000000    0.0000000000000000   32.1580000000000013
Sc H C O
12 44 88 48
direct
   0.7358400000000000    0.2638600000000000    0.3750000000000000 Sc
   0.5283800000000000    0.2639800000000000    0.3750000000000000 Sc
   0.2645500000000000    0.5292700000000000    0.1250100000000000 Sc
   0.2641600000000000    0.7361600000000000    0.1249800000000000 Sc
   0.4716200000000000    0.7360400000000000    0.1250100000000000 Sc
   0.7354400000000000    0.4707600000000000    0.3750000000000000 Sc
   0.7358400000000000    0.2638600000000000    0.8750000000000000 Sc
   0.5283800000000000    0.2639800000000000    0.8750000000000000 Sc
   0.2645500000000000    0.5292700000000000    0.6250100000000001 Sc
   0.2641600000000000    0.7361600000000000    0.6249800000000000 Sc
   0.4716200000000000    0.7360400000000000    0.6250100000000001 Sc
   0.7354400000000000    0.4707600000000000    0.8750000000000000 Sc
   0.3985700000000000    0.3392500000000000    0.4716400000000000 H
   0.9393800000000000    0.6002700000000000    0.4712700000000000 H
   0.6608600000000000    0.0593700000000000    0.4714300000000000 H
   0.6014100000000000    0.6607800000000000    0.2216600000000000 H
   0.0608700000000000    0.4000000000000000    0.2212050000000000 H
   0.3391700000000000    0.9409200000000000    0.2214400000000000 H
   0.0589600000000000    0.6607300000000000    0.0283850000000000 H
   0.3392800000000000    0.3996000000000000    0.0287500000000000 H
   0.9413300000000000    0.3393200000000000    0.2783600000000000 H
   0.6607100000000000    0.6004400000000000    0.2787800000000000 H
   0.3992200000000000    0.0602900000000000    0.2785900000000000 H
   0.6014300000000000    0.6607700000000000    0.0283750000000000 H
   0.0606200000000000    0.3997500000000000    0.0287400000000000 H
   0.3985800000000000    0.3392500000000000    0.2783500000000000 H
   0.9391200000000000    0.6000300000000000    0.2788000000000000 H
   0.6608300000000000    0.0591100000000000    0.2785700000000000 H
   0.9410400000000000    0.3392900000000000    0.4716250000000000 H
   0.6607200000000000    0.6004200000000000    0.4712300000000000 H
   0.3989600000000000    0.0599800000000000    0.4714600000000000 H
   0.0586600000000000    0.6607100000000000    0.2216500000000000 H
   0.3392900000000000    0.3995900000000000    0.2212300000000000 H
   0.6007800000000000    0.9397400000000000    0.2214200000000000 H
   0.3985700000000000    0.3392500000000000    0.9716400000000001 H
   0.9393800000000000    0.6002700000000000    0.9712700000000001 H
   0.6014100000000000    0.6607800000000000    0.7216600000000000 H
   0.0608700000000000    0.4000000000000000    0.7212050000000000 H
   0.3391700000000000    0.9409200000000000    0.7214400000000000 H
   0.0589600000000000    0.6607300000000000    0.5283850000000000 H
   0.3392800000000000    0.3996000000000000    0.5287500000000001 H
   0.6010400000000000    0.9400400000000000    0.5285500000000000 H
   0.9413300000000000    0.3393200000000000    0.7783599999999999 H
   0.6607100000000000    0.6004400000000000    0.7787800000000000 H
   0.3992200000000000    0.0602900000000000    0.7785900000000000 H
   0.6014300000000000    0.6607700000000000    0.5283750000000000 H
   0.0606200000000000    0.3997500000000000    0.5287400000000000 H
   0.3391400000000000    0.9406500000000000    0.5285800000000000 H
   0.3985800000000000    0.3392500000000000    0.7783500000000000 H
   0.9391200000000000    0.6000300000000000    0.7787999999999999 H
   0.6608300000000000    0.0591100000000000    0.7785700000000000 H
   0.9410400000000000    0.3392900000000000    0.9716250000000000 H
   0.6607200000000000    0.6004200000000000    0.9712300000000000 H
   0.0586600000000000    0.6607100000000000    0.7216500000000000 H
   0.3392900000000000    0.3995900000000000    0.7212300000000000 H
   0.6007800000000000    0.9397400000000000    0.7214200000000000 H
   0.4422600000000000    0.4095200000000000    0.4842650000000000 C
   0.9665300000000000    0.5571100000000000    0.4840650000000000 C
   0.5905500000000000    0.0327900000000000    0.4841450000000000 C
   0.5577200000000000    0.5905100000000000    0.2342700000000000 C
   0.0336100000000000    0.4430500000000000    0.2340300000000000 C
   0.4094600000000000    0.9673900000000000    0.2341500000000000 C
   0.0325500000000000    0.5904800000000000    0.0157550000000000 C
   0.4095200000000000    0.4428400000000000    0.0159700000000000 C
   0.9675900000000000    0.4095600000000000    0.2657500000000000 C
   0.5904600000000000    0.5571900000000000    0.2659750000000000 C
   0.4426100000000000    0.0332800000000000    0.2658650000000000 C
   0.5577299999999999    0.5905000000000000    0.0157450000000000 C
   0.0334700000000000    0.4429200000000000    0.0159450000000000 C
   0.4422700000000000    0.4095200000000000    0.2657400000000000 C
   0.9663900000000000    0.5569700000000000    0.2659800000000000 C
   0.5905400000000000    0.0326400000000000    0.2658600000000000 C
   0.9674400000000000    0.4095400000000000    0.4842550000000000 C
   0.5904700000000001    0.5571900000000000    0.4840000000000000 C
   0.4424900000000000    0.0331300000000000    0.4841650000000000 C
   0.0324000000000000    0.5904700000000001    0.2342600000000000 C
   0.4095300000000000    0.4428400000000000    0.2340000000000000 C
   0.5573800000000000    0.9667400000000000    0.2341450000000000 C
   0.5681500000000000    0.4308300000000000    0.4342000000000000 C
   0.5331700000000000    0.4662600000000000    0.4678000000000000 C
   0.8627300000000000    0.4307500000000000    0.4342300000000000 C
   0.9330900000000000    0.4662000000000000    0.4678350000000000 C
   0.5686600000000001    0.1370500000000000    0.4342150000000000 C
   0.5334800000000000    0.0667900000000000    0.4678000000000000 C
   0.4318100000000000    0.5691800000000000    0.1842250000000000 C
   0.4668100000000000    0.5337700000000000    0.2178300000000000 C
   0.1372400000000000    0.5694200000000000    0.1842050000000000 C
   0.0668900000000000    0.5339300000000000    0.2178150000000000 C
   0.4311700000000000    0.8629700000000000    0.1842000000000000 C
   0.4664100000000000    0.9332300000000000    0.2178150000000000 C
   0.1372700000000000    0.5692700000000001    0.0657800000000000 C
   0.0669000000000000    0.5338300000000000    0.0321750000000000 C
   0.4318500000000000    0.5691900000000000    0.0658000000000000 C
   0.4668300000000000    0.5337600000000000    0.0321850000000000 C
   0.8627500000000000    0.4306100000000000    0.3158050000000000 C
   0.9331100000000000    0.4661000000000000    0.2821950000000000 C
   0.5681800000000000    0.4308500000000000    0.3157500000000000 C
   0.5331900000000001    0.4662600000000000    0.2821800000000000 C
   0.5688299999999999    0.1370600000000000    0.3158000000000000 C
   0.5335900000000000    0.0668100000000000    0.2821900000000000 C
   0.4422600000000000    0.4095200000000000    0.9842649999999999 C
   0.9665300000000000    0.5571100000000000    0.9840650000000000 C
   0.5577200000000000    0.5905100000000000    0.7342700000000000 C
   0.0336100000000000    0.4430500000000000    0.7340300000000000 C
   0.4094600000000000    0.9673900000000000    0.7341500000000000 C
   0.0325500000000000    0.5904800000000000    0.5157550000000000 C
   0.4095200000000000    0.4428400000000000    0.5159700000000000 C
   0.5575100000000000    0.9668900000000000    0.5158450000000000 C
   0.9675900000000000    0.4095600000000000    0.7657499999999999 C
   0.5904600000000000    0.5571900000000000    0.7659750000000001 C
   0.4426100000000000    0.0332800000000000    0.7658650000000000 C
   0.5577299999999999    0.5905000000000000    0.5157450000000000 C
   0.0334700000000000    0.4429200000000000    0.5159450000000000 C
   0.4094500000000000    0.9672400000000000    0.5158650000000000 C
   0.4422700000000000    0.4095200000000000    0.7657400000000000 C
   0.9663900000000000    0.5569700000000000    0.7659800000000000 C
   0.5905400000000000    0.0326400000000000    0.7658600000000000 C
   0.9674400000000000    0.4095400000000000    0.9842550000000000 C
   0.5904700000000001    0.5571900000000000    0.9840000000000000 C
   0.0324000000000000    0.5904700000000001    0.7342600000000000 C
   0.4095300000000000    0.4428400000000000    0.7340000000000000 C
   0.5573800000000000    0.9667400000000000    0.7341450000000000 C
   0.5681500000000000    0.4308300000000000    0.9341999999999999 C
   0.5331700000000000    0.4662600000000000    0.9678000000000000 C
   0.8627300000000000    0.4307500000000000    0.9342300000000000 C
   0.9330900000000000    0.4662000000000000    0.9678350000000000 C
   0.4318100000000000    0.5691800000000000    0.6842250000000000 C
   0.4668100000000000    0.5337700000000000    0.7178300000000000 C
   0.1372400000000000    0.5694200000000000    0.6842050000000000 C
   0.0668900000000000    0.5339300000000000    0.7178150000000000 C
   0.4311700000000000    0.8629700000000000    0.6842000000000000 C
   0.4664100000000000    0.9332300000000000    0.7178150000000000 C
   0.1372700000000000    0.5692700000000001    0.5657799999999999 C
   0.0669000000000000    0.5338300000000000    0.5321750000000000 C
   0.4318500000000000    0.5691900000000000    0.5658000000000000 C
   0.4668300000000000    0.5337600000000000    0.5321850000000000 C
   0.4313400000000000    0.8629800000000000    0.5657950000000000 C
   0.4665200000000000    0.9332200000000000    0.5321850000000000 C
   0.8627500000000000    0.4306100000000000    0.8158050000000000 C
   0.9331100000000000    0.4661000000000000    0.7821950000000000 C
   0.5681800000000000    0.4308500000000000    0.8157500000000000 C
   0.5331900000000001    0.4662600000000000    0.7821800000000000 C
   0.5688299999999999    0.1370600000000000    0.8158000000000001 C
   0.5335900000000000    0.0668100000000000    0.7821899999999999 C
   0.6518300000000000    0.4844300000000000    0.4201900000000000 O
   0.8332200000000000    0.3472000000000000    0.4202350000000000 O
   0.5147699999999999    0.1669100000000000    0.4202100000000000 O
   0.3481300000000000    0.5155600000000000    0.1702050000000000 O
   0.1667400000000000    0.6529400000000000    0.1702200000000000 O
   0.4850400000000000    0.8330500000000000    0.1702000000000000 O
   0.1673900000000000    0.5156700000000000    0.0798000000000000 O
   0.4858000000000000    0.6527300000000000    0.0797900000000000 O
   0.8325800000000000    0.4842100000000000    0.3298300000000000 O
   0.5142500000000000    0.3473200000000000    0.3297800000000000 O
   0.6525100000000000    0.1667200000000000    0.3298050000000000 O
   0.3481700000000000    0.5155900000000000    0.0798250000000000 O
   0.1667800000000000    0.6528200000000000    0.0797750000000000 O
   0.6518699999999999    0.4844600000000000    0.3298050000000000 O
   0.8332500000000000    0.3470900000000000    0.3297900000000000 O
   0.5149600000000000    0.1669800000000000    0.3298100000000000 O
   0.8326000000000000    0.4843600000000000    0.4202050000000000 O
   0.5142000000000000    0.3472900000000000    0.4202200000000000 O
   0.6523800000000000    0.1667500000000000    0.4202200000000000 O
   0.1674100000000000    0.5158199999999999    0.1701800000000000 O
   0.4857400000000000    0.6526999999999999    0.1702300000000000 O
   0.3474800000000000    0.8333100000000000    0.1702050000000000 O
   0.6665300000000000    0.3328100000000000    0.3750100000000000 O
   0.3334700000000000    0.6672200000000000    0.1250000000000000 O
   0.6518300000000000    0.4844300000000000    0.9201900000000001 O
   0.8332200000000000    0.3472000000000000    0.9202350000000000 O
   0.3481300000000000    0.5155600000000000    0.6702049999999999 O
   0.1667400000000000    0.6529400000000000    0.6702200000000000 O
   0.4850400000000000    0.8330500000000000    0.6702000000000000 O
   0.1673900000000000    0.5156700000000000    0.5798000000000000 O
   0.4858000000000000    0.6527300000000000    0.5797900000000000 O
   0.3476200000000000    0.8332700000000000    0.5797900000000000 O
   0.8325800000000000    0.4842100000000000    0.8298300000000001 O
   0.5142500000000000    0.3473200000000000    0.8297800000000000 O
   0.6525100000000000    0.1667200000000000    0.8298050000000000 O
   0.3481700000000000    0.5155900000000000    0.5798250000000000 O
   0.1667800000000000    0.6528200000000000    0.5797750000000000 O
   0.4852300000000000    0.8331100000000000    0.5798000000000000 O
   0.6518699999999999    0.4844600000000000    0.8298050000000000 O
   0.8332500000000000    0.3470900000000000    0.8297900000000000 O
   0.5149600000000000    0.1669800000000000    0.8298099999999999 O
   0.8326000000000000    0.4843600000000000    0.9202049999999999 O
   0.5142000000000000    0.3472900000000000    0.9202200000000000 O
   0.1674100000000000    0.5158199999999999    0.6701800000000000 O
   0.4857400000000000    0.6526999999999999    0.6702300000000000 O
   0.3474800000000000    0.8333100000000000    0.6702049999999999 O
   0.6665300000000000    0.3328100000000000    0.8750100000000001 O
   0.3334700000000000    0.6672200000000000    0.6250000000000000 O
