H14 C20 N2
1.0
  15.2300000000000004    0.0000000000000000    0.0000000000000009
   0.0003115063648822   17.8479999972815939    0.0000000000000011
   0.0000000000000000    0.0000000000000000   17.8479999999999990
H C N
14 20 2
direct
   0.2557100000000000    0.8182600000000000    0.6277800000000000 H
   0.2556700000000000    0.8342200000000000    0.4883800000000000 H
   0.4930300000000000    0.7022699999999999    0.4811800000000000 H
   0.4890500000000000    0.6980000000000000    0.6214700000000000 H
   0.3795300000000000    0.6551500000000000    0.3738300000000000 H
   0.3730700000000000    0.9060100000000000    0.2506800000000000 H
   0.3695300000000000    0.8958500000000000    0.3893300000000000 H
   0.2557100000000000    0.6817500000000000    0.8722200000000000 H
   0.2556700000000000    0.6657900000000000    0.0116000000000000 H
   0.4930300000000000    0.7977300000000001    0.0188100000000000 H
   0.4890500000000000    0.8020100000000000    0.8785300000000000 H
   0.3795300000000000    0.8448600000000001    0.1261700000000000 H
   0.3730700000000000    0.5940000000000000    0.2493100000000000 H
   0.3695300000000000    0.6041600000000000    0.1106700000000000 H
   0.3084700000000000    0.7954100000000000    0.5931999999999999 C
   0.3084300000000000    0.8033400000000001    0.5157100000000000 C
   0.3745500000000000    0.7690399999999999    0.4730400000000000 C
   0.4396100000000000    0.7290500000000000    0.5117100000000000 C
   0.4373300000000000    0.7257500000000000    0.5894900000000000 C
   0.3754000000000000    0.7743400000000000    0.3903800000000000 C
   0.3784800000000000    0.7100700000000000    0.3469500000000000 C
   0.3771200000000000    0.7139600000000000    0.2677800000000000 C
   0.3742200000000000    0.8512000000000000    0.2777800000000000 C
   0.3720100000000000    0.8455400000000000    0.3546500000000000 C
   0.3084600000000000    0.7046100000000000    0.9068000000000001 C
   0.3084400000000000    0.6966599999999999    0.9842900000000000 C
   0.3745500000000000    0.7309700000000000    0.0269500000000000 C
   0.4396200000000000    0.7709600000000000    0.9882900000000000 C
   0.4373300000000000    0.7742700000000000    0.9105100000000000 C
   0.3754000000000000    0.7256700000000000    0.1096200000000000 C
   0.3784800000000000    0.7899400000000000    0.1530500000000000 C
   0.3771200000000000    0.7860500000000000    0.2322200000000000 C
   0.3742200000000000    0.6488100000000000    0.2222100000000000 C
   0.3720100000000000    0.6544700000000000    0.1453400000000000 C
   0.3723800000000000    0.7578100000000000    0.6296500000000000 N
   0.3723900000000000    0.7422000000000000    0.8703500000000000 N
