H4 O2
1.0
  15.2300000000000004    0.0000000000000000    0.0000000000000009
   0.0003115063648822   17.8479999972815939    0.0000000000000011
   0.0000000000000000    0.0000000000000000   17.8479999999999990
H O
4 2
direct
   0.4194963051339152    0.7345528984974085    0.6005169620603844 H
   0.3260347700678245    0.7850761656305710    0.6032177729458958 H
   0.4194997949300351    0.7654647231814941    0.8994834980657562 H
   0.3260353467927095    0.7149440729851079    0.8967793306648795 H
   0.3723800000000000    0.7578100000000000    0.6296500000000000 O
   0.3723900000000000    0.7422000000000000    0.8703500000000000 O
