H8 O5
1.0
  13.5689976109215920    0.0000000000000000    0.0080520062183375
  -0.0033119453220592   13.5709978575353905   -0.0068689000575728
   0.0000000000000000    0.0000000000000000   23.1870000000000012
H O
8 5
direct
   0.1803758095804234   -0.0491299704097268    0.0489772351474034 H
   0.1513766307835158    0.0375277071813308    0.8863370129527202 H
   0.1656877194890186   -0.0167099609696454    0.9655022693013933 H
   0.2453318394749408    0.6362937833404260    0.0824856762390338 H
   0.2407715645829478    0.5180982892425585    0.1051879046141826 H
   0.1210388595202558    0.3808432181791022    0.9598397331736659 H
   0.2459813318558859    0.3041104271393688    0.1100303880573678 H
   0.1853257300174924    0.3510374269401237    1.0380117469145900 H
   0.1746500000000000    0.0023200000000000    0.0201500000000000 O
   0.1580700000000000    0.0517400000000000    0.9271500000000000 O
   0.2538000000000000    0.5876800000000000    0.1132400000000000 O
   0.1463000000000000    0.3331300000000000    0.9872300000000001 O
   0.2171700000000000    0.2908900000000000    0.0725400000000000 O
