H7 C13 N1 O4
1.0
  13.5689976109215920    0.0000000000000000    0.0080520062183375
  -0.0033119453220592   13.5709978575353905   -0.0068689000575728
   0.0000000000000000    0.0000000000000000   23.1870000000000012
H C N O
7 13 1 4
direct
   0.1608500000000000    0.5054500000000000    0.9634400000000000 H
   0.2612400000000000    0.7298500000000000    0.0826300000000000 H
   0.2479900000000000    0.4403400000000000    0.1373900000000000 H
   0.1776200000000000    0.8272300000000000    0.0326600000000000 H
   0.1763400000000000    0.9170100000000000    0.8561200000000000 H
   0.1991400000000000    0.7413400000000000    0.8251300000000000 H
   0.2159500000000000    0.6100300000000000    0.8900000000000000 H
   0.1871700000000000    0.3524100000000000    0.0351600000000000 C
   0.2036100000000000    0.4602900000000000    0.0480100000000000 C
   0.1885800000000000    0.5306500000000000    0.0049800000000000 C
   0.2086900000000000    0.6303800000000001    0.0155200000000000 C
   0.2421500000000000    0.6545600000000000    0.0709300000000000 C
   0.2358400000000000    0.4917600000000000    0.1021400000000000 C
   0.1976600000000000    0.7078600000000000    0.9711900000000000 C
   0.1840400000000000    0.8064500000000000    0.9875000000000000 C
   0.1774700000000000    0.8814200000000000    0.9464600000000000 C
   0.1819600000000000    0.8578800000000000    0.8875999999999999 C
   0.1945700000000000    0.7600100000000000    0.8708000000000000 C
   0.2030900000000000    0.6856300000000000    0.9120000000000000 C
   0.1688300000000000    0.9866400000000000    0.9660400000000000 C
   0.2538000000000000    0.5876800000000000    0.1132400000000000 N
   0.2171700000000000    0.2908900000000000    0.0725400000000000 O
   0.1463000000000000    0.3331300000000000    0.9872300000000001 O
   0.1746500000000000    0.0023200000000000    0.0201500000000000 O
   0.1580700000000000    0.0517400000000000    0.9271500000000000 O
