C1 S1 N1
1.0
  21.6439964100356761    0.0000000000000000    0.0124660483997333
  -0.0651044051513602   13.8293471781141868   -0.1175501748834064
   0.0000000000000000    0.0000000000000000   27.3799999999999990
C S N
1 1 1
direct
   0.9878300000000000    0.8687600000000000    0.6041000000000000 C
   0.9115300000000000    0.8767000000000000    0.6034150000000000 S
   0.0424300000000000    0.8647899999999999    0.6048500000000000 N
