H1 O1
1.0
  21.6439964100356761    0.0000000000000000    0.0124660483997333
  -0.0651044051513602   13.8293471781141868   -0.1175501748834064
   0.0000000000000000    0.0000000000000000   27.3799999999999990
H O
1 1
direct
  -0.0027154682962582    0.8680725551123836    0.6042298699409855 H
   0.0424300000000000    0.8647899999999999    0.6048500000000000 O
