H24 C25 N4 O4
1.0
  21.6439964100356761    0.0000000000000000    0.0124660483997333
  -0.0651044051513602   13.8293471781141868   -0.1175501748834064
   0.0000000000000000    0.0000000000000000   27.3799999999999990
H C N O
24 25 4 4
direct
   0.7577500000000000    0.4708600000000000    0.3847600000000000 H
   0.7510599999999999    0.6795600000000001    0.2678650000000000 H
   0.8420600000000000    0.5977000000000000    0.2313850000000000 H
   0.8878100000000000    0.4546700000000000    0.2732450000000000 H
   0.7004500000000000    0.7568700000000000    0.3221650000000000 H
   0.6399000000000000    0.6757100000000000    0.3040900000000000 H
   0.7578700000000000    0.0241300000000000    0.3648400000000000 H
   0.7513400000000000    0.8171800000000000    0.4825750000000000 H
   0.8857600000000000    0.0475700000000000    0.4775700000000000 H
   0.7010700000000000    0.7364900000000000    0.4276750000000000 H
   0.6412500000000000    0.8176800000000000    0.4463000000000000 H
   0.5026000000000000    0.5353400000000000    0.4084950000000000 H
   0.4111400000000000    0.4632100000000000    0.4492400000000000 H
   0.5535200000000000    0.6418100000000000    0.3695150000000000 H
   0.6128800000000000    0.6077800000000000    0.4113000000000000 H
   0.4917200000000000    0.7269300000000000    0.2374900000000000 H
   0.5056300000000000    0.9614000000000000    0.3427750000000000 H
   0.4150100000000000    0.0359100000000000    0.3026550000000000 H
   0.3659700000000000    0.9527700000000000    0.2308050000000000 H
   0.5548999999999999    0.8532500000000000    0.3812600000000000 H
   0.6145500000000000    0.8865800000000000    0.3393250000000000 H
   0.8408600000000001    0.9033700000000000    0.5196450000000000 H
   0.4930100000000000    0.7708100000000000    0.5134950000000000 H
   0.3637900000000000    0.5480900000000000    0.5211150000000000 H
   0.5038600000000000    0.6608700000000000    0.4572900000000000 C
   0.4815200000000000    0.5724200000000000    0.4394000000000000 C
   0.7759300000000000    0.5006699999999999    0.3509000000000000 C
   0.7483700000000000    0.5824500000000000    0.3302500000000000 C
   0.7713700000000000    0.6178800000000000    0.2861350000000000 C
   0.8222200000000000    0.5714600000000000    0.2653500000000000 C
   0.8477600000000000    0.4919700000000000    0.2882650000000000 C
   0.6677999999999999    0.7015100000000000    0.3351000000000000 C
   0.7757200000000000    0.9956900000000000    0.3990400000000000 C
   0.7486400000000000    0.9132200000000000    0.4198200000000000 C
   0.7713000000000000    0.8794400000000000    0.4642950000000000 C
   0.8213100000000000    0.9282600000000000    0.4853350000000000 C
   0.8463600000000000    0.0083900000000000    0.4623400000000000 C
   0.6686200000000000    0.7919400000000000    0.4150000000000000 C
   0.4754000000000000    0.7029100000000000    0.4983550000000000 C
   0.4304300000000000    0.5313700000000000    0.4625550000000000 C
   0.5855200000000000    0.6687000000000000    0.3977900000000000 C
   0.4752700000000000    0.7951500000000000    0.2527800000000000 C
   0.5046400000000000    0.8362300000000000    0.2937500000000000 C
   0.4837500000000000    0.9250400000000000    0.3119150000000000 C
   0.4331500000000000    0.9674300000000000    0.2891050000000000 C
   0.4057900000000000    0.9219300000000000    0.2492300000000000 C
   0.5864300000000000    0.8260400000000000    0.3528150000000000 C
   0.6270900000000000    0.7469600000000000    0.3751900000000000 C
   0.4040100000000000    0.5778100000000000    0.5024800000000000 C
   0.8248000000000000    0.4562600000000000    0.3305400000000000 N
   0.8237700000000000    0.0423800000000000    0.4196500000000000 N
   0.4267300000000000    0.8368000000000000    0.2309100000000000 N
   0.4263400000000000    0.6625600000000000    0.5205600000000000 N
   0.7005800000000000    0.6215300000000000    0.3562400000000000 O
   0.7016100000000000    0.8718500000000000    0.3936200000000000 O
   0.5518000000000000    0.7122200000000000    0.4376650000000000 O
   0.5519500000000001    0.7836200000000000    0.3129400000000000 O
