H4 C8 O4
1.0
  31.9726325507830325    0.0000000000000000   18.3012668351840979
   5.3064906713476434   15.0830013285320952    9.1656493320658665
   0.0000000000000000    0.0000000000000000   36.8519999999999968
H C O
4 8 4
direct
   0.0339050000000000    0.5479200000000000    0.0246350000000000 H
   0.9178500000000001    0.5481500000000000    0.0234550000000000 H
   0.0821450000000000    0.4518400000000000    0.9765400000000000 H
   0.9660900000000000    0.4520700000000000    0.9753600000000000 H
   0.0194350000000000    0.5265300000000001    0.0136600000000000 C
   0.9443900000000001    0.6108200000000000    0.0554750000000000 C
   0.9730950000000000    0.5535800000000000    0.0268050000000000 C
   0.9538300000000000    0.5266500000000000    0.0129950000000000 C
   0.0556050000000000    0.3891700000000000    0.9445200000000000 C
   0.0268950000000000    0.4464200000000000    0.9731850000000000 C
   0.0461600000000000    0.4733300000000000    0.9870000000000000 C
   0.9805600000000000    0.4734600000000000    0.9863400000000000 C
   0.9025000000000001    0.6327199999999999    0.0664100000000000 O
   0.9641550000000000    0.6330900000000000    0.0666450000000000 O
   0.0974900000000000    0.3672700000000000    0.9335850000000000 O
   0.0358400000000000    0.3668900000000000    0.9333549999999999 O
