H1 O1
1.0
  15.4279996028806288    0.0000000000000000    0.0035005021309375
   0.0017554283775310   20.1339986968410827    0.0070280916892063
   0.0000000000000000    0.0000000000000000   17.8049999999999997
H O
1 1
direct
   0.6082421378287433    0.2354183838673307    0.3550344475180862 H
   0.6605400000000000    0.2085100000000000    0.3614700000000000 O
