Zn32 H94 C94 N141
1.0
  15.4279996028806288    0.0000000000000000    0.0035005021309375
   0.0017554283775310   20.1339986968410827    0.0070280916892063
   0.0000000000000000    0.0000000000000000   17.8049999999999997
Zn H C N
32 94 94 141
direct
   0.2039300000000000    0.6249600000000000    0.4246100000000000 Zn
   0.7039100000000000    0.1249500000000000    0.4246000000000000 Zn
   0.7039299999999999    0.6249600000000000    0.4246000000000000 Zn
   0.2332100000000000    0.1250000000000000    0.7654800000000000 Zn
   0.2332100000000000    0.6250100000000000    0.7654800000000000 Zn
   0.7332000000000000    0.1250000000000000    0.7654800000000000 Zn
   0.7332000000000000    0.6250000000000000    0.7654800000000000 Zn
   0.0447600000000000    0.3749900000000000    0.9245900000000000 Zn
   0.0447700000000000    0.8750000000000000    0.9245900000000000 Zn
   0.5447400000000000    0.3749700000000000    0.9245800000000000 Zn
   0.5447300000000000    0.8749700000000000    0.9245000000000000 Zn
   0.0174600000000000    0.3750000000000000    0.2653500000000000 Zn
   0.0174500000000000    0.8750100000000000    0.2653500000000000 Zn
   0.5174500000000000    0.3750000000000000    0.2653500000000000 Zn
   0.5174500000000000    0.8750000000000000    0.2653500000000000 Zn
   0.2960800000000000    0.3750600000000000    0.5753800000000000 Zn
   0.2960800000000000    0.8750700000000000    0.5753900000000000 Zn
   0.7960600000000000    0.3750600000000000    0.5753800000000000 Zn
   0.7960500000000000    0.8750700000000000    0.5753800000000000 Zn
   0.2668000000000000    0.3750200000000000    0.2345000000000000 Zn
   0.2667900000000000    0.8750300000000000    0.2345100000000000 Zn
   0.7667800000000000    0.3750100000000000    0.2345000000000000 Zn
   0.7667800000000000    0.8750200000000000    0.2345000000000000 Zn
   0.4552400000000000    0.1250500000000000    0.0754100000000000 Zn
   0.4552300000000000    0.6250599999999999    0.0754100000000000 Zn
   0.9552200000000000    0.1250200000000000    0.0753900000000000 Zn
   0.9552100000000000    0.6250200000000000    0.0753900000000000 Zn
   0.4826000000000000    0.1250100000000000    0.7346400000000000 Zn
   0.4826100000000000    0.6250200000000000    0.7346000000000000 Zn
   0.9825700000000001    0.1250200000000000    0.7346400000000000 Zn
   0.9825800000000000    0.6250200000000000    0.7346400000000000 Zn
   0.2039300000000000    0.1249600000000000    0.4246000000000000 Zn
   0.2880400000000000    0.2272200000000000    0.3162600000000000 H
   0.2880500000000000    0.7272400000000000    0.3162900000000000 H
   0.7880400000000000    0.7272100000000000    0.3162000000000000 H
   0.0251600000000000    0.2343100000000000    0.3767400000000000 H
   0.0251500000000000    0.7343100000000000    0.3767300000000000 H
   0.5251700000000000    0.7343100000000000    0.3767500000000000 H
   0.4619600000000000    0.2727300000000000    0.8159600000000000 H
   0.4619400000000000    0.7727200000000000    0.8159000000000000 H
   0.9618900000000000    0.2727000000000000    0.8159999999999999 H
   0.9618900000000000    0.7726900000000000    0.8160300000000000 H
   0.2245100000000000    0.2657400000000000    0.8772400000000000 H
   0.2245200000000000    0.7657500000000000    0.8772300000000000 H
   0.7245500000000000    0.2657100000000000    0.8772000000000000 H
   0.7245400000000000    0.7657300000000000    0.8772000000000000 H
   0.2121400000000000    0.4771500000000000    0.6838800000000000 H
   0.2121000000000000    0.9771800000000000    0.6838000000000000 H
   0.7121000000000000    0.4771400000000000    0.6839000000000000 H
   0.7120800000000000    0.9771600000000000    0.6838700000000000 H
   0.4749900000000000    0.4843700000000000    0.6233200000000000 H
   0.4749900000000000    0.9843400000000000    0.6233800000000000 H
   0.9749500000000000    0.4843500000000000    0.6233300000000001 H
   0.9749400000000000    0.9843700000000000    0.6233200000000000 H
   0.0381200000000000    0.0226600000000000    0.1839400000000000 H
   0.0381200000000000    0.5226600000000000    0.1839400000000000 H
   0.5381400000000000    0.0226400000000000    0.1839000000000000 H
   0.5381200000000000    0.5226700000000000    0.1839400000000000 H
   0.2755500000000000    0.0157400000000000    0.1226400000000000 H
   0.2755400000000000    0.5157500000000000    0.1226200000000000 H
   0.7754799999999999    0.0157900000000000    0.1227400000000000 H
   0.7754900000000000    0.5157800000000000    0.1227200000000000 H
   0.2120100000000000    0.2728200000000000    0.6837600000000000 H
   0.2120200000000000    0.7728300000000000    0.6837900000000000 H
   0.7119700000000000    0.2728000000000000    0.6837400000000000 H
   0.7119900000000000    0.7728100000000000    0.6837600000000000 H
   0.4748800000000000    0.2656900000000000    0.6232200000000000 H
   0.4748800000000000    0.7657100000000000    0.6232000000000000 H
   0.9748500000000000    0.2657100000000000    0.6232400000000000 H
   0.9748500000000000    0.7656900000000000    0.6232000000000000 H
   0.0381200000000000    0.2273100000000000    0.1839900000000000 H
   0.0381100000000000    0.7273100000000000    0.1840000000000000 H
   0.5380400000000000    0.2272700000000000    0.1840000000000000 H
   0.5380400000000000    0.7272800000000000    0.1840300000000000 H
   0.2754500000000000    0.2343200000000000    0.1227800000000000 H
   0.2754500000000000    0.7343200000000000    0.1227800000000000 H
   0.7755100000000000    0.2343000000000000    0.1227200000000000 H
   0.7755000000000000    0.7343100000000000    0.1227100000000000 H
   0.2879300000000000    0.0228600000000000    0.3161300000000000 H
   0.2879400000000000    0.5228600000000000    0.3161300000000000 H
   0.7879100000000000    0.0228600000000000    0.3161100000000000 H
   0.7879400000000000    0.5228500000000000    0.3161000000000000 H
   0.0250600000000000    0.0156600000000000    0.3766300000000000 H
   0.0250700000000000    0.5156600000000000    0.3766400000000000 H
   0.5250500000000000    0.0156400000000000    0.3766500000000000 H
   0.5250600000000000    0.5156900000000000    0.3766100000000000 H
   0.4618600000000000    0.4773900000000000    0.8160900000000000 H
   0.4618700000000000    0.9773800000000000    0.8160700000000000 H
   0.9618800000000000    0.4773700000000000    0.8160700000000000 H
   0.9618900000000000    0.9773800000000000    0.8160700000000000 H
   0.2245300000000000    0.4842000000000000    0.8772200000000000 H
   0.2245500000000000    0.9842200000000000    0.8772100000000000 H
   0.7244600000000000    0.4842500000000000    0.8773500000000000 H
   0.7244600000000000    0.9842600000000000    0.8773500000000000 H
   0.2674400000000000    0.1249400000000000    0.5831400000000000 H
   0.2674700000000000    0.6249800000000000    0.5831499999999999 H
   0.7674299999999999    0.1249500000000000    0.5831400000000000 H
   0.7674600000000000    0.6249100000000000    0.5831000000000000 H
   0.0007700000000000    0.1250700000000000    0.5364400000000000 H
   0.0007900000000000    0.6250500000000000    0.5364500000000000 H
   0.5007600000000000    0.1250600000000000    0.5364400000000000 H
   0.5007800000000000    0.6251000000000000    0.5364300000000000 H
   0.4819200000000000    0.3749500000000000    0.0835100000000000 H
   0.4819100000000000    0.8749100000000000    0.0835100000000000 H
   0.9819200000000000    0.3749900000000000    0.0835100000000000 H
   0.9819200000000000    0.8749900000000000    0.0835100000000000 H
   0.2484400000000000    0.3749800000000000    0.0359100000000000 H
   0.2484500000000000    0.8750200000000000    0.0359200000000000 H
   0.7484200000000000    0.3750600000000000    0.0359100000000000 H
   0.7484100000000000    0.8751100000000001    0.0359000000000000 H
   0.2326100000000000    0.3750700000000000    0.4168400000000000 H
   0.2326100000000000    0.8751200000000000    0.4168500000000000 H
   0.7325800000000000    0.3750600000000000    0.4168300000000000 H
   0.7325600000000000    0.8750599999999999    0.4168200000000000 H
   0.4992800000000000    0.3749600000000000    0.4635600000000000 H
   0.4992800000000000    0.8749300000000000    0.4635700000000000 H
   0.9992400000000000    0.3749600000000000    0.4635000000000000 H
   0.9992300000000000    0.8749600000000000    0.4635600000000000 H
   0.0180800000000000    0.1250500000000000    0.9164800000000000 H
   0.0180700000000000    0.6250100000000000    0.9164800000000000 H
   0.5180700000000000    0.1250800000000000    0.9164900000000000 H
   0.5180600000000000    0.6251000000000000    0.9164900000000000 H
   0.2515600000000000    0.1249300000000000    0.9640600000000000 H
   0.2515500000000000    0.6249400000000001    0.9640700000000000 H
   0.7515500000000001    0.1250200000000000    0.9640600000000000 H
   0.7515400000000000    0.6250200000000000    0.9640600000000000 H
   0.5626600000000000    0.6250700000000000    0.5654800000000000 C
   0.0518400000000000    0.3749900000000000    0.0899200000000000 C
   0.0518500000000000    0.8749900000000000    0.0899000000000000 C
   0.5518200000000000    0.3749800000000000    0.0899100000000000 C
   0.2207500000000000    0.2422400000000000    0.3209300000000000 C
   0.2207600000000000    0.7422600000000000    0.3209600000000000 C
   0.7207500000000000    0.7422299999999999    0.3208900000000000 C
   0.0879000000000000    0.2458800000000000    0.3525200000000000 C
   0.0879000000000000    0.7458800000000000    0.3525200000000000 C
   0.5879100000000000    0.7458800000000000    0.3525100000000000 C
   0.0292100000000000    0.2577300000000000    0.8208400000000000 C
   0.0292000000000000    0.7577199999999999    0.8208800000000001 C
   0.5292500000000000    0.2577500000000000    0.8208000000000000 C
   0.5292300000000000    0.7577500000000000    0.8208100000000000 C
   0.1619000000000000    0.2541500000000000    0.8528100000000000 C
   0.1619100000000000    0.7541700000000000    0.8528000000000000 C
   0.6619300000000000    0.2541400000000000    0.8527800000000000 C
   0.6619200000000000    0.7541500000000000    0.8527800000000000 C
   0.2794100000000000    0.4922000000000000    0.6791800000000000 C
   0.2793800000000000    0.9922200000000000    0.6791600000000000 C
   0.7793700000000000    0.4921900000000000    0.6792000000000000 C
   0.7793600000000001    0.9922100000000000    0.6791000000000000 C
   0.4122400000000000    0.4959100000000000    0.6475400000000000 C
   0.4122300000000000    0.9958900000000001    0.6475800000000000 C
   0.9122000000000000    0.4958900000000000    0.6475000000000000 C
   0.9121899999999999    0.9959100000000000    0.6475500000000000 C
   0.4708500000000000    0.0076700000000000    0.1790500000000000 C
   0.4708300000000000    0.5077100000000000    0.1790800000000000 C
   0.9708000000000000    0.0077100000000000    0.1791000000000000 C
   0.9708000000000000    0.5077000000000000    0.1790900000000000 C
   0.3381500000000000    0.0041500000000000    0.1471000000000000 C
   0.3381500000000000    0.5041500000000000    0.1470800000000000 C
   0.8381000000000000    0.0041700000000000    0.1471600000000000 C
   0.8381000000000000    0.5041800000000000    0.1471600000000000 C
   0.2793000000000000    0.2577900000000000    0.6790800000000000 C
   0.2793100000000000    0.7578000000000000    0.6790900000000000 C
   0.7792600000000000    0.2577800000000000    0.6790600000000000 C
   0.7792800000000000    0.7577900000000000    0.6790700000000000 C
   0.4121300000000000    0.2541300000000000    0.6474000000000000 C
   0.4121400000000000    0.7541500000000000    0.6474600000000000 C
   0.9121100000000000    0.2541400000000000    0.6474600000000000 C
   0.9121100000000000    0.7541300000000000    0.6474400000000000 C
   0.4707600000000000    0.2422700000000000    0.1791800000000000 C
   0.4707600000000000    0.7422700000000000    0.1791800000000000 C
   0.9708100000000000    0.2422900000000000    0.1791300000000000 C
   0.9708000000000000    0.7422900000000000    0.1791400000000000 C
   0.3380700000000000    0.2458800000000000    0.1472200000000000 C
   0.3380700000000000    0.7458900000000001    0.1472200000000000 C
   0.8381200000000000    0.2458700000000000    0.1471700000000000 C
   0.8381100000000000    0.7458800000000000    0.1471600000000000 C
   0.2206500000000000    0.0078200000000000    0.3208000000000000 C
   0.2206700000000000    0.5078100000000000    0.3208200000000000 C
   0.7206399999999999    0.0078100000000000    0.3208100000000000 C
   0.7206600000000000    0.5078100000000000    0.3208100000000000 C
   0.0878200000000000    0.0041200000000000    0.3524200000000000 C
   0.0878200000000000    0.5041300000000000    0.3524200000000000 C
   0.5878000000000000    0.0041100000000000    0.3524300000000000 C
   0.5878200000000000    0.5041400000000000    0.3524000000000000 C
   0.0292000000000000    0.4923200000000000    0.8208900000000000 C
   0.0292100000000000    0.9923300000000000    0.8209000000000000 C
   0.5291500000000000    0.4923400000000000    0.8209400000000000 C
   0.5291700000000000    0.9923300000000000    0.8209100000000000 C
   0.1619100000000000    0.4958200000000000    0.8528100000000000 C
   0.1619200000000000    0.9958399999999999    0.8528000000000000 C
   0.6618500000000000    0.4958600000000000    0.8529000000000000 C
   0.6618500000000000    0.9958700000000000    0.8529099999999999 C
   0.1975700000000000    0.1249700000000000    0.5898099999999999 C
   0.1975900000000000    0.6250000000000000    0.5898000000000000 C
   0.6975600000000000    0.1249900000000000    0.5898099999999999 C
   0.6975800000000000    0.6249500000000000    0.5898000000000000 C
   0.0626500000000000    0.1250500000000000    0.5654800000000000 C
   0.0626700000000000    0.6250400000000000    0.5654900000000000 C
   0.5626400000000000    0.1250300000000000    0.5654800000000000 C
   0.5518200000000000    0.8749600000000000    0.0899100000000000 C
   0.1866700000000000    0.3749900000000000    0.0651500000000000 C
   0.1866800000000000    0.8750300000000000    0.0651600000000000 C
   0.6866500000000000    0.3750400000000000    0.0651500000000000 C
   0.6866400000000000    0.8750599999999999    0.0651000000000000 C
   0.3024800000000000    0.3750300000000000    0.4101700000000000 C
   0.3024800000000000    0.8750700000000000    0.4101800000000000 C
   0.8024500000000000    0.3750300000000000    0.4101700000000000 C
   0.8024400000000000    0.8750300000000000    0.4101600000000000 C
   0.4374000000000000    0.3749800000000000    0.4345200000000000 C
   0.4374000000000000    0.8749600000000000    0.4345200000000000 C
   0.9373700000000000    0.3749700000000000    0.4345000000000000 C
   0.9373500000000000    0.8749800000000000    0.4345100000000000 C
   0.4481700000000000    0.1250500000000000    0.9100800000000000 C
   0.4481600000000000    0.6250599999999999    0.9100800000000000 C
   0.9481600000000000    0.1250300000000000    0.9100700000000000 C
   0.9481500000000000    0.6250200000000000    0.9100700000000000 C
   0.3133400000000000    0.1249600000000000    0.9348200000000000 C
   0.3133300000000000    0.6249800000000000    0.9348300000000000 C
   0.8133300000000000    0.1250200000000000    0.9348200000000000 C
   0.8133200000000000    0.6250100000000000    0.9348200000000000 C
   0.3978900000000000    0.0490300000000000    0.6907500000000000 N
   0.3978900000000000    0.5490500000000000    0.6907300000000000 N
   0.8978500000000000    0.0490400000000000    0.6907300000000000 N
   0.8978500000000000    0.5490400000000000    0.6907400000000000 N
   0.4109300000000000    0.0414200000000000    0.1382500000000000 N
   0.1605600000000000    0.2085200000000000    0.3614900000000000 N
   0.1605600000000000    0.7085300000000000    0.3615000000000000 N
   0.6605700000000000    0.7085100000000000    0.3614600000000000 N
   0.1883300000000000    0.2965600000000000    0.2887900000000000 N
   0.1883300000000000    0.7965700000000000    0.2888000000000000 N
   0.6883300000000000    0.7965500000000000    0.2887600000000000 N
   0.1022100000000000    0.2990300000000000    0.3092900000000000 N
   0.1022100000000000    0.7990300000000000    0.3090000000000000 N
   0.6022100000000000    0.7990200000000000    0.3092800000000000 N
   0.0891400000000000    0.2914600000000000    0.8616300000000000 N
   0.0891400000000000    0.7914600000000001    0.8616400000000000 N
   0.5891900000000000    0.2914700000000000    0.8615699999999999 N
   0.5891700000000000    0.7914700000000000    0.8615800000000000 N
   0.0618200000000000    0.2034900000000000    0.7887200000000000 N
   0.0618200000000000    0.7034899999999999    0.7887300000000000 N
   0.5618300000000001    0.2034800000000000    0.7887000000000000 N
   0.5618200000000000    0.7034800000000000    0.7887200000000000 N
   0.1478800000000000    0.2010400000000000    0.8094600000000000 N
   0.1478800000000000    0.7010500000000000    0.8094700000000000 N
   0.6478800000000000    0.2010200000000000    0.8094600000000000 N
   0.6478800000000000    0.7010300000000000    0.8094500000000000 N
   0.3396200000000000    0.4585000000000000    0.6386400000000000 N
   0.3396000000000000    0.9585000000000000    0.6386500000000001 N
   0.8395800000000000    0.4584800000000000    0.6386600000000000 N
   0.8395700000000000    0.9585100000000000    0.6385999999999999 N
   0.3117600000000000    0.0465400000000000    0.7112500000000000 N
   0.3117700000000000    0.5465400000000000    0.7112600000000000 N
   0.8117400000000000    0.0465300000000000    0.7112600000000000 N
   0.8117500000000000    0.5465300000000000    0.7112800000000000 N
   0.4109100000000000    0.5414400000000000    0.1382600000000000 N
   0.9108600000000000    0.0414700000000000    0.1383300000000000 N
   0.9108600000000000    0.5414700000000000    0.1383300000000000 N
   0.4382000000000000    0.4534600000000000    0.2112300000000000 N
   0.4382000000000000    0.9534700000000000    0.2112300000000000 N
   0.9381900000000000    0.4534500000000000    0.2112300000000000 N
   0.9381800000000000    0.9534600000000000    0.2112300000000000 N
   0.3521500000000000    0.4510400000000000    0.1904700000000000 N
   0.3521500000000000    0.9510400000000000    0.1904700000000000 N
   0.8521300000000001    0.4510300000000000    0.1904900000000000 N
   0.8521200000000000    0.9510500000000000    0.1905000000000000 N
   0.3394800000000000    0.2915000000000000    0.6385000000000000 N
   0.3394900000000000    0.7915200000000000    0.6385200000000000 N
   0.8394500000000000    0.2915000000000000    0.6385000000000000 N
   0.8394600000000000    0.7915000000000000    0.6384900000000000 N
   0.3117100000000000    0.2034600000000000    0.7112000000000001 N
   0.3117300000000000    0.7034800000000000    0.7112000000000001 N
   0.8116900000000000    0.2034600000000000    0.7112000000000001 N
   0.8117000000000000    0.7034700000000000    0.7112100000000000 N
   0.3978300000000000    0.2009800000000000    0.6906900000000000 N
   0.3978400000000000    0.7010000000000000    0.6906900000000000 N
   0.8978100000000000    0.2009900000000000    0.6906900000000000 N
   0.8978100000000000    0.7009900000000000    0.6906800000000000 N
   0.4108100000000000    0.2085400000000000    0.1384200000000000 N
   0.4108100000000000    0.7085500000000000    0.1384200000000000 N
   0.9108700000000000    0.2085700000000000    0.1383000000000000 N
   0.9108700000000000    0.7085700000000000    0.1383500000000000 N
   0.4381800000000000    0.2965300000000000    0.2112800000000000 N
   0.4381800000000000    0.7965400000000000    0.2112900000000000 N
   0.9382000000000000    0.2965300000000000    0.2112700000000000 N
   0.9381900000000000    0.7965300000000000    0.2112600000000000 N
   0.3521300000000000    0.2990100000000000    0.1905300000000000 N
   0.3521300000000000    0.7990100000000000    0.1905400000000000 N
   0.8521400000000000    0.2989800000000000    0.1905100000000000 N
   0.8521400000000000    0.7989900000000000    0.1905000000000000 N
   0.1604300000000000    0.0415200000000000    0.3613400000000000 N
   0.1604500000000000    0.5415200000000000    0.3613400000000000 N
   0.6604200000000000    0.0415100000000000    0.3613400000000000 N
   0.6604500000000000    0.5415200000000000    0.3613300000000000 N
   0.1882900000000000    0.4534800000000000    0.2887200000000000 N
   0.1882800000000000    0.9534800000000000    0.2887300000000000 N
   0.6882900000000000    0.4534700000000000    0.2887200000000000 N
   0.6882600000000000    0.9534899999999999    0.2887200000000000 N
   0.1021800000000000    0.4509700000000000    0.3092500000000000 N
   0.1021600000000000    0.9509800000000000    0.3092400000000000 N
   0.6021700000000000    0.4509800000000000    0.3092300000000000 N
   0.6021500000000000    0.9509700000000000    0.3092500000000000 N
   0.0891400000000000    0.4585400000000000    0.8616500000000000 N
   0.0891500000000000    0.9585500000000000    0.8616000000000000 N
   0.5890700000000000    0.4585900000000000    0.8617400000000000 N
   0.5890700000000000    0.9585900000000001    0.8617400000000000 N
   0.0618300000000000    0.0465700000000000    0.7887600000000000 N
   0.0618200000000000    0.5465700000000000    0.7887600000000000 N
   0.5618100000000000    0.0465600000000000    0.7887700000000000 N
   0.5618000000000000    0.5465700000000000    0.7887700000000000 N
   0.1479000000000000    0.0489700000000000    0.8094800000000000 N
   0.1478900000000000    0.5489700000000000    0.8094800000000000 N
   0.6478699999999999    0.0489700000000000    0.8095100000000000 N
   0.6478500000000000    0.5489800000000000    0.8095200000000000 N
   0.1414300000000000    0.1250100000000000    0.5310300000000000 N
   0.1414500000000000    0.6250200000000000    0.5310400000000000 N
   0.6414200000000000    0.1250100000000000    0.5310300000000000 N
   0.6414500000000000    0.6250100000000000    0.5310300000000000 N
   0.1575400000000000    0.1250000000000000    0.6559500000000000 N
   0.1575600000000000    0.6250200000000000    0.6559600000000000 N
   0.6575299999999999    0.1249900000000000    0.6559500000000000 N
   0.6575500000000000    0.6249900000000000    0.6559500000000000 N
   0.0700000000000000    0.1250300000000000    0.6403200000000000 N
   0.0700200000000000    0.6250400000000000    0.6403300000000000 N
   0.5699900000000000    0.1250300000000000    0.6403200000000000 N
   0.5700100000000000    0.6250400000000000    0.6403200000000000 N
   0.1077500000000000    0.3749800000000000    0.0309600000000000 N
   0.1077500000000000    0.8750100000000000    0.0309000000000000 N
   0.6077200000000000    0.3750100000000000    0.0309600000000000 N
   0.6077100000000000    0.8750100000000000    0.0309600000000000 N
   0.0921400000000000    0.3750000000000000    0.1559100000000000 N
   0.0921400000000000    0.8750200000000000    0.1559000000000000 N
   0.5921200000000000    0.3750000000000000    0.1559100000000000 N
   0.5921200000000000    0.8749900000000000    0.1559100000000000 N
   0.1796200000000000    0.3750100000000000    0.1400300000000000 N
   0.1796300000000000    0.8750200000000000    0.1400400000000000 N
   0.6796000000000000    0.3750200000000000    0.1400300000000000 N
   0.6796000000000000    0.8750500000000000    0.1400200000000000 N
   0.3586100000000000    0.3750100000000000    0.4689600000000000 N
   0.3586100000000000    0.8750100000000000    0.4689700000000000 N
   0.8585800000000000    0.3750000000000000    0.4689600000000000 N
   0.8585600000000000    0.8750100000000000    0.4689500000000000 N
   0.3425200000000000    0.3750300000000000    0.3440400000000000 N
   0.3425200000000000    0.8750400000000000    0.3440500000000000 N
   0.8424900000000000    0.3750000000000000    0.3440400000000000 N
   0.8424800000000000    0.8750100000000000    0.3440300000000000 N
   0.4300600000000000    0.3749900000000000    0.3596000000000000 N
   0.4300600000000000    0.8749900000000000    0.3596800000000000 N
   0.9300300000000000    0.3749800000000000    0.3596700000000000 N
   0.9300200000000000    0.8749800000000000    0.3596000000000000 N
   0.3922600000000000    0.1250000000000000    0.9690200000000000 N
   0.3922500000000000    0.6250200000000000    0.9690299999999999 N
   0.8922500000000000    0.1250400000000000    0.9690200000000000 N
   0.8922400000000000    0.6250200000000000    0.9690200000000000 N
   0.4078800000000000    0.1250300000000000    0.8440700000000000 N
   0.4078700000000000    0.6250400000000000    0.8440800000000001 N
   0.9078600000000000    0.1250100000000000    0.8440700000000000 N
   0.9078600000000000    0.6250100000000000    0.8440700000000000 N
   0.3204000000000000    0.1249800000000000    0.8599500000000000 N
   0.3203800000000000    0.6249900000000000    0.8599000000000000 N
   0.8203800000000000    0.1250000000000000    0.8599500000000000 N
   0.8203700000000000    0.6250100000000000    0.8599500000000000 N
