Ga12 P11 H3 O49
1.0
   9.0754999322683929    0.0000000000000000    0.0011087814910966
   3.0919927035524939    8.6005837749189329    0.0003190287339070
   0.0000000000000000    0.0000000000000000   18.9890000000000008
Ga P H O
12 11 3 49
direct
   0.5368300000000000    0.7110300000000001    0.3165300000000000 Ga
   0.0179800000000000    0.8000300000000000    0.3233900000000000 Ga
   0.9694500000000000    0.7889000000000000    0.8164600000000000 Ga
   0.4880900000000000    0.7002800000000000    0.8227700000000000 Ga
   0.8614100000000000    0.6515200000000000    0.5895500000000000 Ga
   0.6448400000000000    0.8483100000000000    0.0895800000000000 Ga
   0.5181500000000000    0.2996700000000000    0.1772200000000000 Ga
   0.1448800000000000    0.3484400000000000    0.4104200000000000 Ga
   0.4694700000000000    0.2890700000000000    0.6834900000000000 Ga
   0.9881700000000000    0.2000800000000000    0.6765300000000000 Ga
   0.3614300000000000    0.1516600000000000    0.9103400000000000 Ga
   0.0368800000000000    0.2109200000000000    0.1834500000000000 Ga
   0.2251200000000000    0.0141100000000000    0.3517200000000000 P
   0.2807000000000000    0.4854700000000000    0.8510100000000000 P
   0.7810600000000000    0.9859300000000000    0.6482500000000000 P
   0.8512300000000000    0.6220800000000000    0.4171800000000000 P
   0.6550200000000000    0.8778500000000000    0.9171800000000000 P
   0.6833100000000000    0.4997300000000000    0.6996700000000000 P
   0.8228900000000000    0.0001200000000000    0.2000200000000000 P
   0.3229800000000000    0.5003900000000000    0.3003200000000000 P
   0.1553600000000000    0.3783600000000000    0.5827000000000000 P
   0.1832600000000000    0.9998200000000000    0.8000000000000000 P
   0.3512600000000000    0.1220900000000000    0.0827600000000000 P
   0.6243241668875409    0.8395112610795303    0.2280671961457131 H
   0.6280554153708536    0.6607678433121056    0.1521894492070215 H
   0.5975607870256452    0.4131983917625396    0.1022879427040225 H
   0.6013400000000000    0.7433900000000000    0.2259400000000000 O
   0.5810600000000000    0.4642300000000000    0.1478400000000000 O
   0.2417000000000000    0.0960300000000000    0.2767500000000000 O
   0.1014000000000000    0.2433900000000000    0.2740100000000000 O
   0.3800200000000000    0.8801600000000001    0.3552200000000000 O
   0.2114900000000000    0.1321200000000000    0.4104400000000000 O
   0.0806300000000000    0.9637400000000000    0.3544000000000000 O
   0.2645000000000000    0.4041000000000000    0.7767600000000000 O
   0.4046600000000000    0.2566200000000000    0.7740200000000000 O
   0.1259100000000000    0.6194800000000000    0.8550700000000000 O
   0.4253500000000000    0.5355799999999999    0.8521200000000000 O
   0.2946900000000000    0.3679700000000000    0.9104400000000000 O
   0.7663700000000000    0.9055800000000001    0.7229900000000000 O
   0.9056000000000000    0.7572800000000000    0.7256700000000000 O
   0.6261300000000000    0.1198600000000000    0.6447800000000000 O
   0.9255100000000001    0.0363800000000000    0.6455600000000000 O
   0.7939600000000000    0.8677800000000000    0.5893500000000000 O
   0.6898100000000000    0.6879600000000000    0.3827700000000000 O
   0.8297700000000000    0.6074700000000000    0.4964700000000000 O
   0.9495200000000000    0.7306800000000000    0.4040300000000000 O
   0.9393800000000000    0.4578000000000000    0.3854100000000000 O
   0.8163899999999999    0.8120200000000000    0.8826800000000000 O
   0.6766500000000000    0.8922600000000001    0.9964900000000000 O
   0.5567000000000000    0.7692800000000000    0.9040400000000000 O
   0.5672500000000000    0.0426000000000000    0.8854700000000000 O
   0.7189300000000000    0.5755000000000000    0.6324800000000000 O
   0.6550500000000000    0.6144700000000000    0.7624800000000000 O
   0.5314500000000000    0.4626700000000000    0.6851400000000000 O
   0.8209100000000000    0.3501000000000000    0.7202000000000000 O
   0.7874200000000000    0.9242600000000000    0.1324900000000000 O
   0.8511400000000000    0.8858400000000000    0.2625400000000000 O
   0.9743800000000000    0.0376900000000000    0.1852400000000000 O
   0.6850000000000001    0.1492000000000000    0.2211000000000000 O
   0.2873600000000000    0.4244500000000000    0.3674600000000000 O
   0.3512000000000000    0.3858700000000000    0.2374400000000000 O
   0.4748600000000000    0.5374100000000001    0.3148900000000000 O
   0.1854000000000000    0.6500800000000000    0.2798400000000000 O
   0.3167500000000000    0.3124900000000000    0.6171400000000000 O
   0.1769400000000000    0.3927600000000000    0.5034000000000000 O
   0.0571200000000000    0.2698000000000000    0.5958200000000000 O
   0.0671400000000000    0.5426700000000000    0.6144300000000000 O
   0.2188200000000000    0.0758200000000000    0.8673800000000000 O
   0.1546900000000000    0.1140200000000000    0.7373100000000000 O
   0.0317100000000000    0.9623600000000000    0.8147700000000000 O
   0.3211000000000000    0.8506700000000000    0.7789700000000001 O
   0.1898300000000000    0.1879100000000000    0.1171800000000000 O
   0.4495400000000000    0.2306700000000000    0.0959500000000000 O
   0.4390500000000000    0.9573800000000000    0.1144800000000000 O
   0.3298100000000000    0.1076100000000000    0.0000000000000000 O
