H3 O2
1.0
   9.0754999322683929    0.0000000000000000    0.0011087814910966
   3.0919927035524939    8.6005837749189329    0.0003190287339070
   0.0000000000000000    0.0000000000000000   18.9890000000000008
H O
3 2
direct
   0.5975607870256452    0.4131983917625396    0.1022879427040225 H
   0.6243241668875409    0.8395112610795303    0.2280671961457131 H
   0.6280554153708536    0.6607678433121056    0.1521894492070215 H
   0.5810600000000000    0.4642300000000000    0.1478400000000000 O
   0.6013400000000000    0.7433900000000000    0.2259400000000000 O
