P1 O4
1.0
   9.0754999322683929    0.0000000000000000    0.0011087814910966
   3.0919927035524939    8.6005837749189329    0.0003190287339070
   0.0000000000000000    0.0000000000000000   18.9890000000000008
P O
1 4
direct
   0.3512600000000000    0.1220900000000000    0.0827600000000000 P
   0.3298100000000000    0.1076100000000000    1.0000000000000000 O
   0.1898300000000000    0.1879100000000000    0.1171800000000000 O
   0.4390500000000000    0.9573800000000000    0.1144800000000000 O
   0.4495400000000000    0.2306700000000000    0.0959500000000000 O
