Zn10 H24 C28 O36
1.0
   8.8982928972953541    0.0000000000000000    0.1982013217489531
   0.5976162034968390    9.8567065055917062    1.2767304868076752
   0.0000000000000000    0.0000000000000000   20.3460000000000001
Zn H C O
10 24 28 36
direct
   0.2948100000000000    0.1117800000000000    0.8245300000000000 Zn
   0.2442500000000000    0.1618800000000000    0.1643500000000000 Zn
   0.7052000000000000    0.8882300000000000    0.1754600000000000 Zn
   0.7557600000000000    0.8381300000000000    0.8356399999999999 Zn
   0.2948100000000000    0.1117800000000000    0.3245300000000000 Zn
   0.7052000000000000    0.8882300000000000    0.6754599999999999 Zn
   0.7557600000000000    0.8381300000000000    0.3356400000000000 Zn
   0.2442500000000000    0.1618800000000000    0.6643500000000000 Zn
   0.0000000000000000    0.0000000000000000    0.2499950000000000 Zn
   0.0000000000000000    0.0000000000000000    0.7499950000000000 Zn
   0.7067600000000001    0.0589200000000000    0.7585050000000000 H
   0.7067600000000001    0.0589200000000000    0.2585050000000000 H
   0.2932600000000000    0.9410800000000000    0.7414900000000000 H
   0.2932600000000000    0.9410800000000000    0.2414900000000000 H
   0.1296900000000000    0.5639300000000000    0.2078000000000000 H
   0.8703200000000000    0.4360800000000000    0.2921900000000000 H
   0.4338900000000000    0.5285600000000000    0.8179799999999999 H
   0.5661400000000000    0.4714400000000000    0.6820100000000000 H
   1.0883232141193369    0.9537069126307413    0.8669883973653053 H
   0.0603403718274487    0.1100094534061951    0.9196092530009882 H
   0.6181184957777752    0.0696843911140820    0.9364839537875559 H
   0.6287600000000000    0.9133500000000000    0.0371800000000000 H
   0.3712400000000000    0.0866300000000000    0.9628099999999999 H
   0.1039599569443845    0.1001029426424955    0.1339436973348734 H
   0.8021784030285815    0.8834681838552572    0.0636741597885361 H
   0.9586581429711714    0.9940866896212486    0.0905022418050874 H
   0.4338900000000000    0.5285600000000000    0.3179800000000000 H
   0.5661400000000000    0.4714400000000000    0.1820100000000000 H
   0.1235600000000000    0.0852200000000000    0.5229750000000000 H
   0.8764500000000000    0.9147900000000000    0.4770150000000000 H
   0.1296900000000000    0.5639300000000000    0.7078000000000000 H
   0.8703200000000000    0.4360800000000000    0.7921899999999999 H
   0.6287600000000000    0.9133500000000000    0.5371800000000000 H
   0.3712400000000000    0.0866300000000000    0.4628100000000000 H
   0.9846600000000000    0.6868700000000000    0.2689400000000000 C
   0.0153600000000000    0.3131400000000000    0.2310500000000000 C
   0.0349600000000000    0.5579900000000000    0.2427350000000000 C
   0.9650600000000000    0.4420100000000000    0.2572550000000000 C
   0.5761700000000000    0.6735700000000000    0.7600700000000000 C
   0.4238500000000000    0.3264300000000000    0.7399200000000000 C
   0.4967300000000000    0.5459800000000000    0.7713850000000000 C
   0.5032900000000000    0.4540200000000000    0.7286100000000000 C
   0.4527900000000000    0.0241800000000000    0.0905250000000000 C
   0.5472300000000000    0.9758200000000000    0.9094700000000000 C
   0.5272300000000000    0.9802400000000000    0.0303950000000000 C
   0.4727800000000000    0.0197500000000000    0.9696000000000000 C
   0.5761700000000000    0.6735700000000000    0.2600700000000000 C
   0.4238500000000000    0.3264300000000000    0.2399200000000000 C
   0.4967300000000000    0.5459800000000000    0.2713850000000000 C
   0.5032900000000000    0.4540200000000000    0.2286100000000000 C
   0.9597100000000000    0.9932299999999999    0.5945500000000000 C
   0.0403000000000000    0.0067800000000000    0.4054400000000000 C
   0.0266700000000000    0.0230400000000000    0.5268250000000000 C
   0.9733400000000000    0.9769700000000000    0.4731650000000000 C
   0.9846600000000000    0.6868700000000000    0.7689400000000000 C
   0.0153600000000000    0.3131400000000000    0.7310500000000000 C
   0.0349600000000000    0.5579900000000000    0.7427350000000000 C
   0.9650600000000000    0.4420100000000000    0.7572550000000000 C
   0.4527900000000000    0.0241800000000000    0.5905250000000000 C
   0.5472300000000000    0.9758200000000000    0.4094700000000000 C
   0.5272300000000000    0.9802400000000000    0.5303949999999999 C
   0.4727800000000000    0.0197500000000000    0.4696000000000000 C
   0.7684200000000000    0.9765700000000000    0.7525800000000000 O
   0.7684200000000000    0.9765700000000000    0.2525800000000000 O
   0.2315900000000000    0.0234400000000000    0.7474100000000000 O
   0.2315900000000000    0.0234400000000000    0.2474100000000000 O
   0.0371900000000000    0.7942800000000000    0.2386350000000000 O
   0.8909300000000000    0.6813900000000001    0.3178950000000000 O
   0.9628200000000000    0.2057300000000000    0.2613550000000000 O
   0.1090900000000000    0.3186200000000000    0.1820950000000000 O
   0.5697000000000000    0.7452100000000000    0.8075300000000001 O
   0.6455600000000000    0.7024000000000000    0.7043100000000000 O
   0.4303200000000000    0.2548000000000000    0.6924550000000000 O
   0.3544700000000000    0.2976000000000000    0.7956799999999999 O
   0.9813400000000000    0.9562300000000000    0.8584300000000000 O
   0.1544300000000000    0.0806200000000000    0.8993900000000000 O
   0.5044400000000000    0.9786800000000000    0.1476900000000000 O
   0.3352800000000000    0.1051500000000000    0.0829400000000000 O
   0.4955700000000000    0.0213200000000000    0.8523050000000000 O
   0.6647300000000000    0.8948500000000000    0.9170499999999999 O
   0.0186700000000000    0.0437700000000000    0.1415600000000000 O
   0.8455800000000000    0.9194000000000000    0.1006000000000000 O
   0.5697000000000000    0.7452100000000000    0.3075300000000000 O
   0.6455600000000000    0.7024000000000000    0.2043100000000000 O
   0.4303200000000000    0.2548000000000000    0.1924550000000000 O
   0.3544700000000000    0.2976000000000000    0.2956800000000000 O
   0.0186700000000000    0.0437700000000000    0.6415600000000000 O
   0.8455800000000000    0.9194000000000000    0.6006000000000000 O
   0.9813400000000000    0.9562300000000000    0.3584300000000000 O
   0.1544300000000000    0.0806200000000000    0.3993900000000000 O
   0.0371900000000000    0.7942800000000000    0.7386350000000000 O
   0.8909300000000000    0.6813900000000001    0.8178950000000000 O
   0.9628200000000000    0.2057300000000000    0.7613550000000000 O
   0.1090900000000000    0.3186200000000000    0.6820950000000000 O
   0.5044400000000000    0.9786800000000000    0.6476900000000000 O
   0.3352800000000000    0.1051500000000000    0.5829400000000000 O
   0.4955700000000000    0.0213200000000000    0.3523050000000000 O
   0.6647300000000000    0.8948500000000000    0.4170500000000000 O
