H6 O4
1.0
   8.8982928972953541    0.0000000000000000    0.1982013217489531
   0.5976162034968390    9.8567065055917062    1.2767304868076752
   0.0000000000000000    0.0000000000000000   20.3460000000000001
H O
6 4
direct
   1.0883232141193369    0.9537069126307413    0.8669883973653053 H
   0.0603403718274487    0.1100094534061951    0.9196092530009882 H
   0.1039599569443845    0.1001029426424955    0.1339436973348734 H
   0.8021784030285815    0.8834681838552572    0.0636741597885361 H
   0.9586581429711714    0.9940866896212486    0.0905022418050874 H
   0.6181184957777752    0.0696843911140820    0.9364839537875559 H
   0.9813400000000000    0.9562300000000000    0.8584300000000000 O
   0.1544300000000000    0.0806200000000000    0.8993900000000000 O
   0.0186700000000000    0.0437700000000000    0.1415600000000000 O
   0.8455800000000000    0.9194000000000000    0.1006000000000000 O
