H8 C14 O4
1.0
  34.5887542657834715    0.0000000000000000   17.2845297113125334
   5.7822193793430472   12.9859503001024432    2.9055317675804209
   0.0000000000000000    0.0000000000000000   29.0519999999999996
H C O
8 14 4
direct
   0.5009566666666667    0.4772600000000000    0.0330900000000000 H
   0.5243599999999999    0.4213300000000000    0.1046750000000000 H
   0.5890066666666667    0.2628000000000000    0.0964750000000000 H
   0.5377033333333333    0.2731900000000000    0.8470150000000001 H
   0.5609633333333333    0.2245500000000000    0.9185350000000000 H
   0.5117499999999999    0.5459900000000000    0.9527700000000000 H
   0.4865433333333333    0.5932900000000000    0.8830500000000000 H
   0.6100099999999999    0.2197900000000000    0.9426250000000000 H
   0.5297466666666666    0.4084800000000000    0.0287700000000000 C
   0.5426566666666667    0.3771300000000000    0.0692100000000000 C
   0.5788800000000000    0.2880600000000000    0.0649400000000000 C
   0.6030566666666666    0.2315300000000000    0.0190000000000000 C
   0.6439266666666666    0.1415900000000000    0.0122150000000000 C
   0.4961133333333333    0.4623200000000000    0.8179900000000000 C
   0.5106333333333333    0.4362300000000000    0.8603900000000000 C
   0.5321233333333333    0.3323300000000000    0.8704750000000000 C
   0.5454800000000000    0.3056300000000000    0.9102000000000000 C
   0.5383933333333333    0.3815200000000000    0.9408050000000000 C
   0.5169200000000000    0.4855900000000000    0.9303500000000000 C
   0.5030000000000000    0.5126300000000000    0.8909199999999999 C
   0.5528666666666666    0.3510000000000000    0.9830099999999999 C
   0.5900699999999999    0.2632500000000000    0.9784150000000000 C
   0.6499166666666667    1.0998299999999999    0.0526550000000000 O
   0.4691133333333333    0.5537900000000000    0.8159799999999999 O
   0.5115933333333333    0.3891200000000000    0.7867000000000000 O
   0.6706566666666667    0.1150100000000000    0.9657249999999999 O
