H6 O4
1.0
  34.5887542657834715    0.0000000000000000   17.2845297113125334
   5.7822193793430472   12.9859503001024432    2.9055317675804209
   0.0000000000000000    0.0000000000000000   29.0519999999999996
H O
6 4
direct
   0.4592394886087729    0.6074176952199193    0.8397075394325010 H
   0.5329057047312240    0.3217946211365677    0.7888631351438878 H
   0.4981812008709673    0.4619651552566804    0.8189302923280868 H
   0.6267368783077792    1.0782479595509535    0.0664675058844568 H
   0.6561571932367012    0.1001662774675609    0.9501060851757038 H
   0.6053456837052144    0.0542008047555320    1.0046428849481961 H
   0.4691133333333333    0.5537900000000000    0.8159799999999999 O
   0.5115933333333333    0.3891200000000000    0.7867000000000000 O
   0.6499166666666667    1.0998299999999999    0.0526550000000000 O
   0.6706566666666667    0.1150100000000000    0.9657249999999999 O
