H12 O8
1.0
  20.6736040778649048    0.0000000000000000   -6.3675362921374621
  -3.1684325095257653   14.1671198265065605   -6.5831110619512545
   0.0000000000000000    0.0000000000000000   36.9939999999999998
H O
12 8
direct
   0.0424552040652356    0.4507203557909095    0.2713358403970037 H
   0.1886717756259339    0.4393303984107328    0.2293694973952260 H
   0.1241329013067118    0.4355508870000752    0.2501221946849805 H
   0.1222942362919346    0.7091522242656260    0.2305386734743251 H
   0.1838744466014234    0.7023570289211085    0.2213679462957561 H
   0.0272053529833051    0.6917179088064617    0.2440548821083935 H
   0.1047622293034568    0.5615697347850024    0.6102405932859698 H
   0.1305365305971122    0.3275558181804925    0.6208338020497405 H
   0.1187695270056301    0.4410454056831490    0.6119657722364058 H
   0.4108598814667162    0.2245508320442025    0.6236791505188013 H
   0.5025559176766323    0.4827595607736966    0.6555553689276864 H
   0.4575711014722730    0.3557675557542135    0.6365126525367728 H
   0.0653650000000000    0.4761000000000000    0.2578850000000000 O
   0.1510050000000000    0.4653200000000000    0.2343450000000000 O
   0.1490800000000000    0.6702600000000000    0.2257200000000000 O
   0.0568050000000000    0.6487400000000000    0.2387300000000000 O
   0.1066150000000000    0.5223100000000001    0.6246000000000000 O
   0.1211700000000000    0.3901800000000000    0.6305700000000000 O
   0.4333900000000000    0.2891700000000000    0.6440900000000001 O
   0.4847500000000000    0.4337200000000000    0.6611350000000000 O
