Cd16 H180 C231 O92
1.0
  20.6736040778649048    0.0000000000000000   -6.3675362921374621
  -3.1684325095257653   14.1671198265065605   -6.5831110619512545
   0.0000000000000000    0.0000000000000000   36.9939999999999998
Cd H C O
16 180 231 92
direct
   0.5352950000000000    0.6172299999999999    0.7869500000000000 Cd
   0.4037050000000000    0.4889200000000000    0.8160950000000000 Cd
   0.9647000000000000    0.3827700000000000    0.2130850000000000 Cd
   0.5352950000000000    0.6172299999999999    0.2869500000000000 Cd
   0.4037050000000000    0.4889200000000000    0.3160950000000000 Cd
   0.9647000000000000    0.3827700000000000    0.7130850000000000 Cd
   0.5962850000000000    0.5111200000000000    0.6839750000000000 Cd
   0.9037050000000000    0.4889200000000000    0.3160950000000000 Cd
   0.4647000000000000    0.3827700000000000    0.7130850000000000 Cd
   0.0352950000000000    0.6172299999999999    0.7869500000000000 Cd
   0.9037050000000000    0.4889200000000000    0.8160950000000000 Cd
   0.0352950000000000    0.6172299999999999    0.2869500000000000 Cd
   0.4647000000000000    0.3827700000000000    0.2130850000000000 Cd
   0.0962850000000000    0.5111200000000000    0.6839750000000000 Cd
   0.0962850000000000    0.5111200000000000    0.1839750000000000 Cd
   0.5962850000000000    0.5111200000000000    0.1839750000000000 Cd
   0.1047622293034568    0.5615697347850024    0.6102405932859698 H
   0.1305365305971122    0.3275558181804925    0.6208338020497405 H
   0.1187695270056301    0.4410454056831490    0.6119657722364058 H
   0.8310200000000000    0.3623000000000000    0.9636899999999999 H
   0.8443300000000000    0.2950600000000000    0.9153600000000000 H
   0.9035100000000000    0.1742500000000000    0.0686650000000000 H
   0.8643850000000000    0.1271100000000000    0.9906550000000001 H
   0.9616700000000000    0.4634200000000000    0.0957200000000000 H
   0.9201100000000000    0.4181800000000000    0.0187250000000000 H
   0.6721550000000001    0.1997800000000000    0.9369799999999999 H
   0.7537700000000001    0.2076200000000000    0.9700500000000001 H
   0.6583850000000000    0.5466100000000000    0.0772550000000000 H
   0.7056750000000001    0.4976600000000000    0.0186700000000000 H
   0.6884049999999999    0.2179100000000000    0.0093300000000000 H
   0.6440600000000000    0.2691100000000000    0.0681700000000000 H
   0.7133100000000000    0.3630600000000000    0.9182500000000000 H
   0.6593100000000001    0.2517600000000000    0.8791450000000001 H
   0.7841100000000000    0.3151600000000000    0.8121499999999999 H
   0.7351449999999999    0.3857400000000000    0.7645999999999999 H
   0.6281450000000000    0.3687700000000000    0.8643050000000000 H
   0.5794400000000000    0.4368000000000000    0.8164000000000000 H
   0.7784949999999999    0.1037900000000000    0.9023350000000000 H
   0.7634799999999999    0.1400300000000000    0.8612100000000000 H
   0.5641300000000000    0.9796500000000000    0.8349500000000001 H
   0.5314900000000000    0.8104600000000000    0.7811699999999999 H
   0.7640850000000000    0.9873700000000000    0.8350500000000001 H
   0.7306250000000000    0.8198800000000001    0.7811900000000001 H
   0.6689650000000000    0.6377400000000000    0.0363750000000000 H
   0.6556500000000001    0.7049800000000001    0.0847000000000000 H
   0.6356300000000000    0.8729000000000000    0.0000000000000000 H
   0.5965199999999999    0.8257500000000000    0.9313899999999999 H
   0.5383150000000000    0.5365900000000000    0.9043399999999999 H
   0.5798650000000000    0.5818400000000000    0.9813350000000001 H
   0.7866750000000000    0.6369899999999999    0.0817950000000000 H
   0.8406750000000001    0.7483000000000000    0.1209200000000000 H
   0.7158800000000000    0.6848500000000000    0.1879100000000000 H
   0.7648500000000000    0.6142500000000000    0.2354500000000000 H
   0.8718450000000000    0.6312700000000000    0.1357550000000000 H
   0.9205550000000000    0.5632300000000000    0.1836500000000000 H
   0.8278250000000000    0.8002600000000000    0.0630850000000000 H
   0.7462150000000000    0.7924200000000000    0.0299950000000000 H
   0.8416200000000000    0.4534300000000000    0.9228250000000000 H
   0.7943249999999999    0.5023800000000000    0.9814000000000001 H
   0.8115600000000001    0.7821100000000000    0.9907250000000001 H
   0.8559099999999999    0.7309000000000000    0.9318850000000001 H
   0.9358500000000001    0.0203800000000000    0.1651000000000000 H
   0.9685049999999999    0.1895700000000000    0.2188900000000000 H
   0.7693700000000000    0.1801800000000000    0.2188750000000000 H
   0.7358950000000000    0.0000000000000000    0.1649800000000000 H
   0.7214800000000000    0.8962500000000000    0.0977300000000000 H
   0.7365050000000000    0.8600100000000001    0.1388550000000000 H
   0.0424552040652356    0.4507203557909095    0.2713358403970037 H
   0.1886717756259339    0.4393303984107328    0.2293694973952260 H
   0.1241329013067118    0.4355508870000752    0.2501221946849805 H
   0.8310200000000000    0.3623000000000000    0.4636900000000000 H
   0.8443300000000000    0.2950600000000000    0.4153600000000000 H
   0.9035100000000000    0.1742500000000000    0.5686650000000000 H
   0.8643850000000000    0.1271100000000000    0.4906550000000000 H
   0.9616700000000000    0.4634200000000000    0.5957200000000000 H
   0.9201100000000000    0.4181800000000000    0.5187250000000000 H
   0.6721550000000001    0.1997800000000000    0.4369800000000000 H
   0.7537700000000001    0.2076200000000000    0.4700500000000000 H
   0.6583850000000000    0.5466100000000000    0.5772550000000000 H
   0.7056750000000001    0.4976600000000000    0.5186700000000000 H
   0.6884049999999999    0.2179100000000000    0.5093299999999999 H
   0.6440600000000000    0.2691100000000000    0.5681700000000000 H
   0.7133100000000000    0.3630600000000000    0.4182500000000000 H
   0.6593100000000001    0.2517600000000000    0.3791450000000000 H
   0.7841100000000000    0.3151600000000000    0.3121500000000000 H
   0.7351449999999999    0.3857400000000000    0.2646000000000000 H
   0.6281450000000000    0.3687700000000000    0.3643050000000000 H
   0.5794400000000000    0.4368000000000000    0.3164000000000000 H
   0.7784949999999999    0.1037900000000000    0.4023350000000000 H
   0.7634799999999999    0.1400300000000000    0.3612100000000000 H
   0.5641300000000000    0.9796500000000000    0.3349500000000000 H
   0.5314900000000000    0.8104600000000000    0.2811700000000000 H
   0.7640850000000000    0.9873700000000000    0.3350500000000000 H
   0.7306250000000000    0.8198800000000001    0.2811900000000000 H
   0.6689650000000000    0.6377400000000000    0.5363750000000000 H
   0.6556500000000001    0.7049800000000001    0.5847000000000000 H
   0.6356300000000000    0.8729000000000000    0.5000000000000000 H
   0.5965199999999999    0.8257500000000000    0.4313900000000000 H
   0.5383150000000000    0.5365900000000000    0.4043400000000000 H
   0.5798650000000000    0.5818400000000000    0.4813350000000000 H
   0.7866750000000000    0.6369899999999999    0.5817950000000001 H
   0.8406750000000001    0.7483000000000000    0.6209200000000000 H
   0.7158800000000000    0.6848500000000000    0.6879100000000000 H
   0.7648500000000000    0.6142500000000000    0.7354499999999999 H
   0.8718450000000000    0.6312700000000000    0.6357550000000000 H
   0.9205550000000000    0.5632300000000000    0.6836500000000000 H
   0.8278250000000000    0.8002600000000000    0.5630850000000001 H
   0.7462150000000000    0.7924200000000000    0.5299950000000000 H
   0.8416200000000000    0.4534300000000000    0.4228250000000000 H
   0.7943249999999999    0.5023800000000000    0.4814000000000000 H
   0.8115600000000001    0.7821100000000000    0.4907250000000000 H
   0.8559099999999999    0.7309000000000000    0.4318850000000000 H
   0.9358500000000001    0.0203800000000000    0.6651000000000000 H
   0.9685049999999999    0.1895700000000000    0.7188900000000000 H
   0.7693700000000000    0.1801800000000000    0.7188749999999999 H
   0.7358950000000000    0.0000000000000000    0.6649800000000000 H
   0.7214800000000000    0.8962500000000000    0.5977300000000000 H
   0.7365050000000000    0.8600100000000001    0.6388550000000000 H
   0.4108598814667162    0.2245508320442025    0.6236791505188013 H
   0.5025559176766323    0.4827595607736966    0.6555553689276864 H
   0.4575711014722730    0.3557675557542135    0.6365126525367728 H
   0.1689650000000000    0.6377400000000000    0.5363750000000000 H
   0.1556500000000000    0.7049800000000001    0.5847000000000000 H
   0.1356300000000000    0.8729000000000000    0.5000000000000000 H
   0.0965200000000000    0.8257500000000000    0.4313900000000000 H
   0.0383150000000000    0.5365900000000000    0.4043400000000000 H
   0.0798650000000000    0.5818400000000000    0.4813350000000000 H
   0.2866750000000000    0.6369899999999999    0.5817950000000001 H
   0.3406750000000000    0.7483000000000000    0.6209200000000000 H
   0.2158800000000000    0.6848500000000000    0.6879100000000000 H
   0.2648500000000000    0.6142500000000000    0.7354499999999999 H
   0.3718450000000000    0.6312700000000000    0.6357550000000000 H
   0.4205550000000000    0.5632300000000000    0.6836500000000000 H
   0.3278250000000000    0.8002600000000000    0.5630850000000001 H
   0.2462150000000000    0.7924200000000000    0.5299950000000000 H
   0.3416200000000000    0.4534300000000000    0.4228250000000000 H
   0.2943250000000000    0.5023800000000000    0.4814000000000000 H
   0.3115600000000000    0.7821100000000000    0.4907250000000000 H
   0.3559100000000000    0.7309000000000000    0.4318850000000000 H
   0.4358500000000000    0.0203800000000000    0.6651000000000000 H
   0.4685050000000000    0.1895700000000000    0.7188900000000000 H
   0.2693700000000000    0.1801800000000000    0.7188749999999999 H
   0.2358950000000000    0.0000000000000000    0.6649800000000000 H
   0.2214800000000000    0.8962500000000000    0.5977300000000000 H
   0.2365050000000000    0.8600100000000001    0.6388550000000000 H
   0.3310200000000000    0.3623000000000000    0.9636899999999999 H
   0.3443300000000000    0.2950600000000000    0.9153600000000000 H
   0.4035100000000000    0.1742500000000000    0.0686650000000000 H
   0.3643850000000000    0.1271100000000000    0.9906550000000001 H
   0.4616700000000000    0.4634200000000000    0.0957200000000000 H
   0.4201100000000000    0.4181800000000000    0.0187250000000000 H
   0.1721550000000000    0.1997800000000000    0.9369799999999999 H
   0.2537700000000000    0.2076200000000000    0.9700500000000001 H
   0.1583850000000000    0.5466100000000000    0.0772550000000000 H
   0.2056750000000000    0.4976600000000000    0.0186700000000000 H
   0.1884050000000000    0.2179100000000000    0.0093300000000000 H
   0.1440600000000000    0.2691100000000000    0.0681700000000000 H
   0.2133100000000000    0.3630600000000000    0.9182500000000000 H
   0.1593100000000000    0.2517600000000000    0.8791450000000001 H
   0.2841100000000000    0.3151600000000000    0.8121499999999999 H
   0.2351450000000000    0.3857400000000000    0.7645999999999999 H
   0.1281450000000000    0.3687700000000000    0.8643050000000000 H
   0.0794400000000000    0.4368000000000000    0.8164000000000000 H
   0.2784950000000000    0.1037900000000000    0.9023350000000000 H
   0.2634800000000000    0.1400300000000000    0.8612100000000000 H
   0.0641300000000000    0.9796500000000000    0.8349500000000001 H
   0.0314900000000000    0.8104600000000000    0.7811699999999999 H
   0.2640850000000000    0.9873700000000000    0.8350500000000001 H
   0.2306250000000000    0.8198800000000001    0.7811900000000001 H
   0.0272053529833051    0.6917179088064617    0.2440548821083935 H
   0.1689650000000000    0.6377400000000000    0.0363750000000000 H
   0.1556500000000000    0.7049800000000001    0.0847000000000000 H
   0.1356300000000000    0.8729000000000000    0.0000000000000000 H
   0.0965200000000000    0.8257500000000000    0.9313899999999999 H
   0.0383150000000000    0.5365900000000000    0.9043399999999999 H
   0.0798650000000000    0.5818400000000000    0.9813350000000001 H
   0.1222942362919346    0.7091522242656260    0.2305386734743251 H
   0.1838744466014234    0.7023570289211085    0.2213679462957561 H
   0.2866750000000000    0.6369899999999999    0.0817950000000000 H
   0.3406750000000000    0.7483000000000000    0.1209200000000000 H
   0.2158800000000000    0.6848500000000000    0.1879100000000000 H
   0.2648500000000000    0.6142500000000000    0.2354500000000000 H
   0.3718450000000000    0.6312700000000000    0.1357550000000000 H
   0.4205550000000000    0.5632300000000000    0.1836500000000000 H
   0.3278250000000000    0.8002600000000000    0.0630850000000000 H
   0.2462150000000000    0.7924200000000000    0.0299950000000000 H
   0.3416200000000000    0.4534300000000000    0.9228250000000000 H
   0.2943250000000000    0.5023800000000000    0.9814000000000001 H
   0.3115600000000000    0.7821100000000000    0.9907250000000001 H
   0.3559100000000000    0.7309000000000000    0.9318850000000001 H
   0.4358500000000000    0.0203800000000000    0.1651000000000000 H
   0.4685050000000000    0.1895700000000000    0.2188900000000000 H
   0.2693700000000000    0.1801800000000000    0.2188750000000000 H
   0.2358950000000000    0.0000000000000000    0.1649800000000000 H
   0.2214800000000000    0.8962500000000000    0.0977300000000000 H
   0.2365050000000000    0.8600100000000001    0.1388550000000000 H
   0.9528600000000000    0.3497300000000000    0.1328600000000000 C
   0.8255100000000000    0.2907100000000000    0.9391600000000000 C
   0.9072850000000000    0.2267600000000000    0.0573000000000000 C
   0.8851599999999999    0.2006200000000000    0.0141750000000000 C
   0.8878600000000000    0.2697500000000000    0.0001000000000000 C
   0.9391450000000000    0.3900700000000000    0.0727150000000000 C
   0.9157350000000000    0.3646700000000000    0.0294800000000000 C
   0.9339950000000000    0.3219500000000000    0.0871000000000000 C
   0.6232050000000000    0.4421900000000000    0.1121500000000000 C
   0.7238050000000000    0.2401600000000000    0.9519850000000001 C
   0.6652300000000000    0.4750400000000000    0.0618800000000000 C
   0.6913800000000000    0.4483200000000000    0.0297300000000000 C
   0.6998100000000000    0.3555300000000000    0.0105650000000000 C
   0.6820050000000000    0.2900200000000000    0.0238600000000000 C
   0.6568450000000000    0.3184800000000000    0.0567600000000000 C
   0.6479500000000000    0.4106900000000000    0.0760300000000000 C
   0.6231900000000000    0.4545300000000000    0.7580600000000000 C
   0.7113550000000000    0.2910200000000000    0.8953350000000000 C
   0.7390700000000000    0.3413100000000000    0.8126150000000000 C
   0.7118500000000000    0.3809900000000000    0.7862899999999999 C
   0.7088250000000000    0.3358500000000000    0.8406050000000000 C
   0.6516250000000000    0.3712700000000000    0.8424000000000000 C
   0.6241850000000000    0.4099800000000000    0.8154399999999999 C
   0.6536950000000000    0.4153000000000000    0.7871250000000001 C
   0.6115150000000000    0.7030200000000000    0.7461150000000000 C
   0.7466550000000001    0.1382500000000000    0.8862850000000000 C
   0.6002600000000000    0.9435500000000000    0.8231750000000000 C
   0.5825550000000000    0.8492400000000000    0.7934450000000000 C
   0.6658300000000000    0.9942400000000000    0.8385800000000000 C
   0.7131149999999999    0.9494400000000000    0.8235600000000001 C
   0.6944600000000000    0.8551200000000000    0.7932900000000001 C
   0.6294299999999999    0.8035500000000000    0.7780500000000000 C
   0.7514850000000000    0.2399000000000000    0.9181300000000000 C
   0.5471550000000001    0.6502800000000000    0.8671949999999999 C
   0.6744700000000000    0.7093200000000000    0.0609050000000000 C
   0.6148450000000000    0.7993900000000000    0.9858800000000000 C
   0.5927350000000000    0.7732500000000000    0.9427550000000000 C
   0.6121350000000000    0.7302700000000000    0.9999199999999999 C
   0.5608450000000000    0.6099500000000000    0.9273450000000000 C
   0.5842450000000000    0.6353600000000000    0.9705800000000000 C
   0.5660100000000000    0.6780600000000000    0.9129550000000000 C
   0.8768000000000000    0.5454400000000000    0.2419700000000000 C
   0.7886299999999999    0.7090300000000000    0.1047300000000000 C
   0.7609300000000000    0.6587300000000000    0.1874500000000000 C
   0.7881350000000000    0.6190000000000000    0.2137500000000000 C
   0.7911500000000000    0.6641600000000000    0.1594450000000000 C
   0.8483750000000000    0.6287900000000000    0.1576650000000000 C
   0.8758000000000000    0.5900300000000001    0.1846000000000000 C
   0.8463100000000000    0.5847300000000000    0.2129300000000000 C
   0.8767800000000000    0.5578300000000000    0.8879150000000000 C
   0.7761750000000001    0.7598800000000000    0.0480800000000000 C
   0.8347599999999999    0.5250000000000000    0.9381950000000000 C
   0.8086150000000000    0.5517200000000000    0.9703400000000000 C
   0.8001750000000001    0.6445000000000000    0.9895050000000001 C
   0.8179700000000000    0.7100100000000000    0.9762050000000000 C
   0.8431299999999999    0.6815500000000000    0.9433000000000000 C
   0.8520300000000001    0.5893300000000000    0.9240400000000000 C
   0.8884950000000000    0.2970200000000000    0.2539550000000000 C
   0.8997200000000001    0.0564900000000000    0.1768850000000000 C
   0.9174350000000000    0.1508000000000000    0.2066200000000000 C
   0.8055350000000000    0.1449300000000000    0.2067750000000000 C
   0.7868700000000000    0.0506200000000000    0.1765000000000000 C
   0.8705600000000000    0.1964900000000000    0.2219800000000000 C
   0.7533200000000000    0.8617899999999999    0.1137800000000000 C
   0.8341499999999999    0.0000000000000000    0.1614800000000000 C
   0.7484950000000000    0.7601400000000000    0.0819000000000000 C
   0.9528600000000000    0.3497300000000000    0.6328600000000000 C
   0.8255100000000000    0.2907100000000000    0.4391600000000000 C
   0.9072850000000000    0.2267600000000000    0.5573000000000000 C
   0.8851599999999999    0.2006200000000000    0.5141750000000000 C
   0.8878600000000000    0.2697500000000000    0.5001000000000000 C
   0.9391450000000000    0.3900700000000000    0.5727150000000000 C
   0.9157350000000000    0.3646700000000000    0.5294800000000000 C
   0.9339950000000000    0.3219500000000000    0.5871000000000000 C
   0.6232050000000000    0.4421900000000000    0.6121500000000000 C
   0.7238050000000000    0.2401600000000000    0.4519850000000000 C
   0.6652300000000000    0.4750400000000000    0.5618800000000000 C
   0.6913800000000000    0.4483200000000000    0.5297300000000000 C
   0.6998100000000000    0.3555300000000000    0.5105650000000000 C
   0.6820050000000000    0.2900200000000000    0.5238600000000000 C
   0.6568450000000000    0.3184800000000000    0.5567600000000000 C
   0.6479500000000000    0.4106900000000000    0.5760300000000000 C
   0.6231900000000000    0.4545300000000000    0.2580600000000000 C
   0.7113550000000000    0.2910200000000000    0.3953350000000000 C
   0.7390700000000000    0.3413100000000000    0.3126150000000000 C
   0.7118500000000000    0.3809900000000000    0.2862900000000000 C
   0.7088250000000000    0.3358500000000000    0.3406050000000000 C
   0.6516250000000000    0.3712700000000000    0.3424000000000000 C
   0.6241850000000000    0.4099800000000000    0.3154400000000000 C
   0.6536950000000000    0.4153000000000000    0.2871250000000000 C
   0.6115150000000000    0.7030200000000000    0.2461150000000000 C
   0.7466550000000001    0.1382500000000000    0.3862850000000000 C
   0.6002600000000000    0.9435500000000000    0.3231750000000000 C
   0.5825550000000000    0.8492400000000000    0.2934450000000000 C
   0.6658300000000000    0.9942400000000000    0.3385800000000000 C
   0.7131149999999999    0.9494400000000000    0.3235600000000000 C
   0.6944600000000000    0.8551200000000000    0.2932900000000000 C
   0.6294299999999999    0.8035500000000000    0.2780500000000000 C
   0.7514850000000000    0.2399000000000000    0.4181300000000000 C
   0.5471550000000001    0.6502800000000000    0.3671950000000000 C
   0.6744700000000000    0.7093200000000000    0.5609050000000000 C
   0.6148450000000000    0.7993900000000000    0.4858800000000000 C
   0.5927350000000000    0.7732500000000000    0.4427550000000000 C
   0.6121350000000000    0.7302700000000000    0.4999200000000000 C
   0.5608450000000000    0.6099500000000000    0.4273450000000000 C
   0.5842450000000000    0.6353600000000000    0.4705800000000000 C
   0.5660100000000000    0.6780600000000000    0.4129550000000000 C
   0.8768000000000000    0.5454400000000000    0.7419700000000000 C
   0.7886299999999999    0.7090300000000000    0.6047300000000000 C
   0.7609300000000000    0.6587300000000000    0.6874500000000000 C
   0.7881350000000000    0.6190000000000000    0.7137500000000000 C
   0.7911500000000000    0.6641600000000000    0.6594450000000001 C
   0.8483750000000000    0.6287900000000000    0.6576649999999999 C
   0.8758000000000000    0.5900300000000001    0.6846000000000000 C
   0.8463100000000000    0.5847300000000000    0.7129300000000001 C
   0.8767800000000000    0.5578300000000000    0.3879150000000000 C
   0.7761750000000001    0.7598800000000000    0.5480800000000000 C
   0.8347599999999999    0.5250000000000000    0.4381950000000000 C
   0.8086150000000000    0.5517200000000000    0.4703400000000000 C
   0.8001750000000001    0.6445000000000000    0.4895050000000000 C
   0.8179700000000000    0.7100100000000000    0.4762050000000000 C
   0.8431299999999999    0.6815500000000000    0.4433000000000000 C
   0.8520300000000001    0.5893300000000000    0.4240400000000000 C
   0.8884950000000000    0.2970200000000000    0.7539549999999999 C
   0.8997200000000001    0.0564900000000000    0.6768850000000000 C
   0.9174350000000000    0.1508000000000000    0.7066200000000000 C
   0.8055350000000000    0.1449300000000000    0.7067749999999999 C
   0.7868700000000000    0.0506200000000000    0.6765000000000000 C
   0.8705600000000000    0.1964900000000000    0.7219800000000001 C
   0.7533200000000000    0.8617899999999999    0.6137800000000000 C
   0.8341499999999999    0.0000000000000000    0.6614800000000001 C
   0.7484950000000000    0.7601400000000000    0.5819000000000000 C
   0.0471550000000000    0.6502800000000000    0.3671950000000000 C
   0.1744700000000000    0.7093200000000000    0.5609050000000000 C
   0.1148450000000000    0.7993900000000000    0.4858800000000000 C
   0.0927350000000000    0.7732500000000000    0.4427550000000000 C
   0.1121350000000000    0.7302700000000000    0.4999200000000000 C
   0.0608450000000000    0.6099500000000000    0.4273450000000000 C
   0.0842450000000000    0.6353600000000000    0.4705800000000000 C
   0.0660100000000000    0.6780600000000000    0.4129550000000000 C
   0.3768000000000000    0.5454400000000000    0.7419700000000000 C
   0.2886300000000000    0.7090300000000000    0.6047300000000000 C
   0.2609300000000000    0.6587300000000000    0.6874500000000000 C
   0.2881350000000000    0.6190000000000000    0.7137500000000000 C
   0.2911500000000000    0.6641600000000000    0.6594450000000001 C
   0.3483750000000000    0.6287900000000000    0.6576649999999999 C
   0.3758000000000000    0.5900300000000001    0.6846000000000000 C
   0.3463100000000000    0.5847300000000000    0.7129300000000001 C
   0.3767800000000000    0.5578300000000000    0.3879150000000000 C
   0.2761750000000000    0.7598800000000000    0.5480800000000000 C
   0.3347600000000000    0.5250000000000000    0.4381950000000000 C
   0.3086150000000000    0.5517200000000000    0.4703400000000000 C
   0.3001750000000000    0.6445000000000000    0.4895050000000000 C
   0.3179700000000000    0.7100100000000000    0.4762050000000000 C
   0.3431300000000000    0.6815500000000000    0.4433000000000000 C
   0.3520300000000000    0.5893300000000000    0.4240400000000000 C
   0.3884950000000000    0.2970200000000000    0.7539549999999999 C
   0.3997200000000000    0.0564900000000000    0.6768850000000000 C
   0.4174350000000000    0.1508000000000000    0.7066200000000000 C
   0.3055350000000000    0.1449300000000000    0.7067749999999999 C
   0.2868700000000000    0.0506200000000000    0.6765000000000000 C
   0.3705600000000000    0.1964900000000000    0.7219800000000001 C
   0.2533200000000000    0.8617899999999999    0.6137800000000000 C
   0.3341500000000000    0.0000000000000000    0.6614800000000001 C
   0.2484950000000000    0.7601400000000000    0.5819000000000000 C
   0.4528600000000000    0.3497300000000000    0.1328600000000000 C
   0.3255100000000000    0.2907100000000000    0.9391600000000000 C
   0.4072850000000000    0.2267600000000000    0.0573000000000000 C
   0.3851600000000000    0.2006200000000000    0.0141750000000000 C
   0.3878600000000000    0.2697500000000000    0.0001000000000000 C
   0.4391450000000000    0.3900700000000000    0.0727150000000000 C
   0.4157350000000000    0.3646700000000000    0.0294800000000000 C
   0.4339950000000000    0.3219500000000000    0.0871000000000000 C
   0.1232050000000000    0.4421900000000000    0.1121500000000000 C
   0.2238050000000000    0.2401600000000000    0.9519850000000001 C
   0.1652300000000000    0.4750400000000000    0.0618800000000000 C
   0.1913800000000000    0.4483200000000000    0.0297300000000000 C
   0.1998100000000000    0.3555300000000000    0.0105650000000000 C
   0.1820050000000000    0.2900200000000000    0.0238600000000000 C
   0.1568450000000000    0.3184800000000000    0.0567600000000000 C
   0.1479500000000000    0.4106900000000000    0.0760300000000000 C
   0.1231900000000000    0.4545300000000000    0.7580600000000000 C
   0.2113550000000000    0.2910200000000000    0.8953350000000000 C
   0.2390700000000000    0.3413100000000000    0.8126150000000000 C
   0.2118500000000000    0.3809900000000000    0.7862899999999999 C
   0.2088250000000000    0.3358500000000000    0.8406050000000000 C
   0.1516250000000000    0.3712700000000000    0.8424000000000000 C
   0.1241850000000000    0.4099800000000000    0.8154399999999999 C
   0.1536950000000000    0.4153000000000000    0.7871250000000001 C
   0.1115150000000000    0.7030200000000000    0.7461150000000000 C
   0.2466550000000000    0.1382500000000000    0.8862850000000000 C
   0.1002600000000000    0.9435500000000000    0.8231750000000000 C
   0.0825550000000000    0.8492400000000000    0.7934450000000000 C
   0.1658300000000000    0.9942400000000000    0.8385800000000000 C
   0.2131150000000000    0.9494400000000000    0.8235600000000001 C
   0.1944600000000000    0.8551200000000000    0.7932900000000001 C
   0.1294300000000000    0.8035500000000000    0.7780500000000000 C
   0.2514850000000000    0.2399000000000000    0.9181300000000000 C
   0.0471550000000000    0.6502800000000000    0.8671949999999999 C
   0.1744700000000000    0.7093200000000000    0.0609050000000000 C
   0.1148450000000000    0.7993900000000000    0.9858800000000000 C
   0.0927350000000000    0.7732500000000000    0.9427550000000000 C
   0.1121350000000000    0.7302700000000000    0.9999199999999999 C
   0.0608450000000000    0.6099500000000000    0.9273450000000000 C
   0.0842450000000000    0.6353600000000000    0.9705800000000000 C
   0.0660100000000000    0.6780600000000000    0.9129550000000000 C
   0.3768000000000000    0.5454400000000000    0.2419700000000000 C
   0.2886300000000000    0.7090300000000000    0.1047300000000000 C
   0.2609300000000000    0.6587300000000000    0.1874500000000000 C
   0.2881350000000000    0.6190000000000000    0.2137500000000000 C
   0.2911500000000000    0.6641600000000000    0.1594450000000000 C
   0.3483750000000000    0.6287900000000000    0.1576650000000000 C
   0.3758000000000000    0.5900300000000001    0.1846000000000000 C
   0.3463100000000000    0.5847300000000000    0.2129300000000000 C
   0.3767800000000000    0.5578300000000000    0.8879150000000000 C
   0.2761750000000000    0.7598800000000000    0.0480800000000000 C
   0.3347600000000000    0.5250000000000000    0.9381950000000000 C
   0.3086150000000000    0.5517200000000000    0.9703400000000000 C
   0.3001750000000000    0.6445000000000000    0.9895050000000001 C
   0.3179700000000000    0.7100100000000000    0.9762050000000000 C
   0.3431300000000000    0.6815500000000000    0.9433000000000000 C
   0.3520300000000000    0.5893300000000000    0.9240400000000000 C
   0.3884950000000000    0.2970200000000000    0.2539550000000000 C
   0.3997200000000000    0.0564900000000000    0.1768850000000000 C
   0.4174350000000000    0.1508000000000000    0.2066200000000000 C
   0.3055350000000000    0.1449300000000000    0.2067750000000000 C
   0.2868700000000000    0.0506200000000000    0.1765000000000000 C
   0.3705600000000000    0.1964900000000000    0.2219800000000000 C
   0.2533200000000000    0.8617899999999999    0.1137800000000000 C
   0.3341500000000000    0.0000000000000000    0.1614800000000000 C
   0.2484950000000000    0.7601400000000000    0.0819000000000000 C
   0.1066150000000000    0.5223100000000001    0.6246000000000000 O
   0.1211700000000000    0.3901800000000000    0.6305700000000000 O
   0.9847500000000000    0.4337200000000000    0.1611350000000000 O
   0.9333899999999999    0.2891700000000000    0.1440900000000000 O
   0.8642550000000000    0.2376600000000000    0.9569150000000000 O
   0.6211700000000000    0.3901800000000000    0.1305700000000000 O
   0.6066150000000000    0.5223100000000001    0.1246000000000000 O
   0.7267150000000000    0.3367000000000000    0.9794250000000000 O
   0.6510050000000001    0.4653200000000000    0.7343450000000000 O
   0.5653650000000000    0.4761000000000000    0.7578849999999999 O