H8 O6
1.0
  26.3607968810189242    0.0000000000000000   -2.7897046075997065
   1.3669792355065205   13.0867024440950672   -0.8603388340707538
   0.0000000000000000    0.0000000000000000   26.3120000000000012
H O
8 6
direct
   0.5103285205581971    0.0298505893464759    0.8249285239147840 H
   0.3861943537336689    0.1120723141420042    0.8844542302205363 H
   0.4632169165213709    0.1682220252552498    0.8995710948043756 H
   0.4347269647826080    0.1230784692627582    0.8643093095085675 H
   0.3627082381676642    0.7705371655501508    0.0558549505793332 H
   0.1999596633526860    0.6408544256467440   -0.0110198633714842 H
   0.2804441693267512    0.8243238093402230    0.0820106293012098 H
   0.2465951669489863    0.7383503400690629    0.0359191443709551 H
   0.5444800000000000    0.0403800000000000    0.8399950000000000 O
   0.3691100000000000    0.1342100000000000    0.9151000000000000 O
   0.4974600000000000    0.1424200000000000    0.8919850000000000 O
   0.3801350000000000    0.8312500000000000    0.0665000000000000 O
   0.2041200000000000    0.6837500000000000    0.0202000000000000 O
   0.2513000000000000    0.7868600000000000    0.0712250000000000 O
