H4 O2
1.0
  26.3607968810189242    0.0000000000000000   -2.7897046075997065
   1.3669792355065205   13.0867024440950672   -0.8603388340707538
   0.0000000000000000    0.0000000000000000   26.3120000000000012
H O
4 2
direct
   0.5188487035065767    0.2869555358302208    0.8026327056176462 H
   0.5684228446970198    0.3511761442379067    0.8252324328726653 H
   0.4296937644216516    0.6492680838844672    0.6749366056281215 H
   0.4795887492378578    0.7129972586593628    0.6969780466712611 H
   0.5511250000000000    0.2891300000000000    0.8242650000000000 O
   0.4471100000000000    0.7111200000000000    0.6756650000000000 O
