H6 C19 O8 F6
1.0
  26.3607968810189242    0.0000000000000000   -2.7897046075997065
   1.3669792355065205   13.0867024440950672   -0.8603388340707538
   0.0000000000000000    0.0000000000000000   26.3120000000000012
H C O F
6 19 8 6
direct
   0.4797800000000000    0.7187100000000000    0.8509000000000000 H
   0.3499900000000000    0.9315300000000000    0.8843600000000000 H
   0.2183850000000000    0.7033199999999999    0.9308350000000001 H
   0.2707750000000000    0.7016200000000000    0.8589249999999999 H
   0.3992600000000000    0.7700500000000000    0.9659700000000000 H
   0.5312650000000000    0.8627800000000000    0.8507800000000000 H
   0.2436200000000000    0.7346900000000000    0.0302400000000000 C
   0.3571750000000000    0.7512600000000000    0.0524750000000000 C
   0.4701700000000000    0.9779700000000000    0.8646400000000001 C
   0.4911550000000000    0.8767600000000000    0.8573400000000000 C
   0.4619300000000000    0.7957000000000000    0.8581200000000000 C
   0.4106750000000000    0.8139500000000000    0.8678450000000000 C
   0.3896500000000000    0.9153400000000000    0.8762950000000000 C
   0.4184100000000000    0.9975400000000000    0.8735950000000000 C
   0.3916600000000000    0.1049900000000000    0.8746499999999999 C
   0.4061450000000000    0.6194300000000000    0.8680350000000000 C
   0.2788000000000000    0.7316100000000000    0.9888200000000000 C
   0.2584450000000000    0.7162700000000000    0.9380400000000000 C
   0.2881750000000000    0.7166900000000000    0.8975299999999999 C
   0.3393350000000000    0.7360700000000000    0.9068200000000000 C
   0.3597000000000000    0.7539000000000000    0.9576750000000001 C
   0.3305250000000000    0.7492700000000000    0.9987300000000000 C
   0.3459250000000000    0.7324000000000001    0.8092500000000000 C
   0.3754000000000000    0.7274900000000000    0.8639600000000001 C
   0.5050400000000000    0.0604500000000000    0.8657450000000000 C
   0.2513000000000000    0.7868600000000000    0.0712250000000000 O
   0.2041200000000000    0.6837500000000000    0.0202000000000000 O
   0.3575250000000000    0.6738100000000000    0.0777650000000000 O
   0.3801350000000000    0.8312500000000000    0.0665000000000000 O
   0.4974600000000000    0.1424200000000000    0.8919850000000000 O
   0.3911150000000000    0.1553400000000000    0.8357700000000000 O
   0.3691100000000000    0.1342100000000000    0.9151000000000000 O
   0.5444800000000000    0.0403800000000000    0.8399950000000000 O
   0.4420050000000000    0.6178500000000000    0.9088499999999999 F
   0.4311750000000000    0.5872600000000000    0.8260750000000000 F
   0.3753100000000000    0.5462399999999999    0.8735550000000001 F
   0.3093250000000000    0.8129999999999999    0.8067500000000001 F
   0.3221650000000000    0.6470700000000000    0.7936500000000000 F
   0.3778150000000000    0.7425400000000000    0.7732150000000000 F
