Zn16 H168 C302 N30 O64 F48
1.0
  26.3607968810189242    0.0000000000000000   -2.7897046075997065
   1.3669792355065205   13.0867024440950672   -0.8603388340707538
   0.0000000000000000    0.0000000000000000   26.3120000000000012
Zn H C N O F
16 168 302 30 64 48
direct
   0.1625650000000000    0.7248000000000000    0.0794950000000000 Zn
   0.4133350000000000    0.8404900000000000    0.1376100000000000 Zn
   0.3356200000000000    0.2751600000000000    0.4200050000000000 Zn
   0.0847000000000000    0.1598200000000000    0.3623600000000000 Zn
   0.6625650000000000    0.7248000000000000    0.0794950000000000 Zn
   0.9133350000000000    0.8404900000000000    0.1376100000000000 Zn
   0.8356200000000000    0.2751600000000000    0.4200050000000000 Zn
   0.5847000000000000    0.1598200000000000    0.3623600000000000 Zn
   0.1625650000000000    0.7248000000000000    0.5794950000000000 Zn
   0.4133350000000000    0.8404900000000000    0.6376100000000000 Zn
   0.3356200000000000    0.2751600000000000    0.9200050000000000 Zn
   0.0847000000000000    0.1598200000000000    0.8623600000000000 Zn
   0.6625650000000000    0.7248000000000000    0.5794950000000000 Zn
   0.9133350000000000    0.8404900000000000    0.6376100000000000 Zn
   0.8356200000000000    0.2751600000000000    0.9200050000000000 Zn
   0.5847000000000000    0.1598200000000000    0.8623600000000000 Zn
   0.1976600000000000    0.1843400000000000    0.3656400000000000 H
   0.2709250000000000    0.1172300000000000    0.3202100000000000 H
   0.1688800000000000    0.9366000000000000    0.2209050000000000 H
   0.0998600000000000    0.0130900000000000    0.2704000000000000 H
   0.4876150000000000    0.2169600000000000    0.2948000000000000 H
   0.4494450000000000    0.3580500000000000    0.2418400000000000 H
   0.0770700000000000    0.5244900000000000    0.3007750000000000 H
   0.1099900000000000    0.3743100000000000    0.3514700000000000 H
   0.0312650000000000    0.8627800000000000    0.3507800000000000 H
   0.4797800000000000    0.7187100000000000    0.3509000000000000 H
   0.3499900000000000    0.9315300000000000    0.3843600000000000 H
   0.0497500000000000    0.7321900000000000    0.0907150000000000 H
   0.4769250000000000    0.6404400000000000    0.0579100000000000 H
   0.0798400000000000    0.4402600000000000    0.4683300000000000 H
   0.1484750000000000    0.5399200000000000    0.0059200000000000 H
   0.2608200000000000    0.5911900000000000    0.1079750000000000 H
   0.2997600000000000    0.4863200000000000    0.1786500000000000 H
   0.1706300000000000    0.5990799999999999    0.2618250000000000 H
   0.1372050000000000    0.7000400000000000    0.1868400000000000 H
   0.2183850000000000    0.7033199999999999    0.4308350000000000 H
   0.2707750000000000    0.7016200000000000    0.3589250000000000 H
   0.3992600000000000    0.7700500000000000    0.4659700000000000 H
   0.3005700000000000    0.8162800000000000    0.1344500000000000 H
   0.2273900000000000    0.8829600000000000    0.1801700000000000 H
   0.3294750000000000    0.0636200000000000    0.2793500000000000 H
   0.3984700000000000    0.9873000000000000    0.2297300000000000 H
   0.0110200000000000    0.7826700000000000    0.2044600000000000 H
   0.0495100000000000    0.6412200000000000    0.2570250000000000 H
   0.4208450000000000    0.4763500000000000    0.1997750000000000 H
   0.3878850000000000    0.6263900000000000    0.1490950000000000 H
   0.4679050000000000    0.1377800000000000    0.1501500000000000 H
   0.0196350000000000    0.2815100000000000    0.1496800000000000 H
   0.1488100000000000    0.0678400000000000    0.1154000000000000 H
   0.4486150000000000    0.2671100000000000    0.4089900000000000 H
   0.0214950000000000    0.3584500000000000    0.4415000000000000 H
   0.4187100000000000    0.5582000000000000    0.0319000000000000 H
   0.3500250000000000    0.4589100000000000    0.4941300000000000 H
   0.2374650000000000    0.4071800000000000    0.3909500000000000 H
   0.1985350000000000    0.5117600000000000    0.3201550000000000 H
   0.3289100000000000    0.4025500000000000    0.2380950000000000 H
   0.3619900000000000    0.3007200000000000    0.3129450000000000 H
   0.2808200000000000    0.2947200000000000    0.0683700000000000 H
   0.2288750000000000    0.2958000000000000    0.1404600000000000 H
   0.0997300000000000    0.2289900000000000    0.0339100000000000 H
   0.6976599999999999    0.1843400000000000    0.3656400000000000 H
   0.7709250000000001    0.1172300000000000    0.3202100000000000 H
   0.6688800000000000    0.9366000000000000    0.2209050000000000 H
   0.5998600000000001    0.0130900000000000    0.2704000000000000 H
   0.9876150000000000    0.2169600000000000    0.2948000000000000 H
   0.9494450000000000    0.3580500000000000    0.2418400000000000 H
   0.5770700000000000    0.5244900000000000    0.3007750000000000 H
   0.6099900000000000    0.3743100000000000    0.3514700000000000 H
   0.5312650000000000    0.8627800000000000    0.3507800000000000 H
   0.9797800000000000    0.7187100000000000    0.3509000000000000 H
   0.8499900000000000    0.9315300000000000    0.3843600000000000 H
   0.5497500000000000    0.7321900000000000    0.0907150000000000 H
   0.9769250000000000    0.6404400000000000    0.0579100000000000 H
   0.5798400000000000    0.4402600000000000    0.4683300000000000 H
   0.6484750000000000    0.5399200000000000    0.0059200000000000 H
   0.7608200000000001    0.5911900000000000    0.1079750000000000 H
   0.7997600000000000    0.4863200000000000    0.1786500000000000 H
   0.6706300000000001    0.5990799999999999    0.2618250000000000 H
   0.6372050000000000    0.7000400000000000    0.1868400000000000 H
   0.7183850000000001    0.7033199999999999    0.4308350000000000 H
   0.7707750000000000    0.7016200000000000    0.3589250000000000 H
   0.8992599999999999    0.7700500000000000    0.4659700000000000 H
   0.8005700000000000    0.8162800000000000    0.1344500000000000 H
   0.7273900000000000    0.8829600000000000    0.1801700000000000 H
   0.8294750000000000    0.0636200000000000    0.2793500000000000 H
   0.8984700000000000    0.9873000000000000    0.2297300000000000 H
   0.5110200000000000    0.7826700000000000    0.2044600000000000 H
   0.5495099999999999    0.6412200000000000    0.2570250000000000 H
   0.9208450000000000    0.4763500000000000    0.1997750000000000 H
   0.8878850000000000    0.6263900000000000    0.1490950000000000 H
   0.9679050000000000    0.1377800000000000    0.1501500000000000 H
   0.5196350000000000    0.2815100000000000    0.1496800000000000 H
   0.6488100000000000    0.0678400000000000    0.1154000000000000 H
   0.9486150000000000    0.2671100000000000    0.4089900000000000 H
   0.5214950000000000    0.3584500000000000    0.4415000000000000 H
   0.9187100000000000    0.5582000000000000    0.0319000000000000 H
   0.8500250000000000    0.4589100000000000    0.4941300000000000 H
   0.7374650000000000    0.4071800000000000    0.3909500000000000 H
   0.6985350000000000    0.5117600000000000    0.3201550000000000 H
   0.8289100000000000    0.4025500000000000    0.2380950000000000 H
   0.8619900000000000    0.3007200000000000    0.3129450000000000 H
   0.7808200000000001    0.2947200000000000    0.0683700000000000 H
   0.7288749999999999    0.2958000000000000    0.1404600000000000 H
   0.5997300000000000    0.2289900000000000    0.0339100000000000 H
   0.1976600000000000    0.1843400000000000    0.8656400000000000 H
   0.2709250000000000    0.1172300000000000    0.8202100000000000 H
   0.1688800000000000    0.9366000000000000    0.7209050000000000 H
   0.0998600000000000    0.0130900000000000    0.7704000000000000 H
   0.0770700000000000    0.5244900000000000    0.8007750000000000 H
   0.1099900000000000    0.3743100000000000    0.8514699999999999 H
   0.0312650000000000    0.8627800000000000    0.8507800000000000 H
   0.4797800000000000    0.7187100000000000    0.8509000000000000 H
   0.3499900000000000    0.9315300000000000    0.8843600000000000 H
   0.0497500000000000    0.7321900000000000    0.5907150000000000 H
   0.4769250000000000    0.6404400000000000    0.5579100000000000 H
   0.0798400000000000    0.4402600000000000    0.9683300000000000 H
   0.1484750000000000    0.5399200000000000    0.5059200000000000 H
   0.2608200000000000    0.5911900000000000    0.6079750000000000 H
   0.2997600000000000    0.4863200000000000    0.6786500000000000 H
   0.1706300000000000    0.5990799999999999    0.7618250000000000 H
   0.1372050000000000    0.7000400000000000    0.6868400000000000 H
   0.2183850000000000    0.7033199999999999    0.9308350000000001 H
   0.2707750000000000    0.7016200000000000    0.8589249999999999 H
   0.3992600000000000    0.7700500000000000    0.9659700000000000 H
   0.3005700000000000    0.8162800000000000    0.6344500000000000 H
   0.2273900000000000    0.8829600000000000    0.6801699999999999 H
   0.3294750000000000    0.0636200000000000    0.7793500000000000 H
   0.3984700000000000    0.9873000000000000    0.7297300000000000 H
   0.0110200000000000    0.7826700000000000    0.7044600000000000 H
   0.0495100000000000    0.6412200000000000    0.7570250000000001 H
   0.4679050000000000    0.1377800000000000    0.6501500000000000 H
   0.0196350000000000    0.2815100000000000    0.6496800000000000 H
   0.1488100000000000    0.0678400000000000    0.6153999999999999 H
   0.4486150000000000    0.2671100000000000    0.9089900000000000 H
   0.0214950000000000    0.3584500000000000    0.9415000000000000 H
   0.4187100000000000    0.5582000000000000    0.5319000000000000 H
   0.3500250000000000    0.4589100000000000    0.9941300000000000 H
   0.2374650000000000    0.4071800000000000    0.8909500000000000 H
   0.1985350000000000    0.5117600000000000    0.8201550000000000 H
   0.3289100000000000    0.4025500000000000    0.7380949999999999 H
   0.3619900000000000    0.3007200000000000    0.8129450000000000 H
   0.2808200000000000    0.2947200000000000    0.5683700000000000 H
   0.2288750000000000    0.2958000000000000    0.6404600000000000 H
   0.0997300000000000    0.2289900000000000    0.5339100000000000 H
   0.6976599999999999    0.1843400000000000    0.8656400000000000 H
   0.7709250000000001    0.1172300000000000    0.8202100000000000 H
   0.6688800000000000    0.9366000000000000    0.7209050000000000 H
   0.5998600000000001    0.0130900000000000    0.7704000000000000 H
   0.9876150000000000    0.2169600000000000    0.7948000000000000 H
   0.9494450000000000    0.3580500000000000    0.7418400000000001 H
   0.5312650000000000    0.8627800000000000    0.8507800000000000 H
   0.9797800000000000    0.7187100000000000    0.8509000000000000 H
   0.8499900000000000    0.9315300000000000    0.8843600000000000 H
   0.5497500000000000    0.7321900000000000    0.5907150000000000 H
   0.9769250000000000    0.6404400000000000    0.5579100000000000 H
   0.5798400000000000    0.4402600000000000    0.9683300000000000 H
   0.6484750000000000    0.5399200000000000    0.5059200000000000 H
   0.7608200000000001    0.5911900000000000    0.6079750000000000 H
   0.7997600000000000    0.4863200000000000    0.6786500000000000 H
   0.6706300000000001    0.5990799999999999    0.7618250000000000 H
   0.6372050000000000    0.7000400000000000    0.6868400000000000 H
   0.7183850000000001    0.7033199999999999    0.9308350000000001 H
   0.7707750000000000    0.7016200000000000    0.8589249999999999 H
   0.8992599999999999    0.7700500000000000    0.9659700000000000 H
   0.8005700000000000    0.8162800000000000    0.6344500000000000 H
   0.7273900000000000    0.8829600000000000    0.6801699999999999 H
   0.8294750000000000    0.0636200000000000    0.7793500000000000 H
   0.8984700000000000    0.9873000000000000    0.7297300000000000 H
   0.9208450000000000    0.4763500000000000    0.6997750000000000 H
   0.8878850000000000    0.6263900000000000    0.6490950000000000 H
   0.9679050000000000    0.1377800000000000    0.6501500000000000 H
   0.5196350000000000    0.2815100000000000    0.6496800000000000 H
   0.6488100000000000    0.0678400000000000    0.6153999999999999 H
   0.9486150000000000    0.2671100000000000    0.9089900000000000 H
   0.5214950000000000    0.3584500000000000    0.9415000000000000 H
   0.9187100000000000    0.5582000000000000    0.5319000000000000 H
   0.8500250000000000    0.4589100000000000    0.9941300000000000 H
   0.7374650000000000    0.4071800000000000    0.8909500000000000 H
   0.6985350000000000    0.5117600000000000    0.8201550000000000 H
   0.8289100000000000    0.4025500000000000    0.7380949999999999 H
   0.8619900000000000    0.3007200000000000    0.8129450000000000 H
   0.7808200000000001    0.2947200000000000    0.5683700000000000 H
   0.7288749999999999    0.2958000000000000    0.6404600000000000 H
   0.5997300000000000    0.2289900000000000    0.5339100000000000 H
   0.1925000000000000    0.1312000000000000    0.3325400000000000 C
   0.2339750000000000    0.0916400000000000    0.3066750000000000 C
   0.2275900000000000    0.0207800000000000    0.2648950000000000 C
   0.1781000000000000    0.9917100000000000    0.2522100000000000 C
   0.1384200000000000    0.0345700000000000    0.2797000000000000 C
   0.0065950000000000    0.2861300000000000    0.2944200000000000 C
   0.4853450000000000    0.3667800000000000    0.2650000000000000 C
   0.0098400000000000    0.4562300000000000    0.2654700000000000 C
   0.0556550000000000    0.4581700000000000    0.2973800000000000 C
   0.0749950000000000    0.3747500000000000    0.3256000000000000 C
   0.0050400000000000    0.0604500000000000    0.3657450000000000 C
   0.4701700000000000    0.9779700000000000    0.3646400000000000 C
   0.4911550000000000    0.8767600000000000    0.3573400000000000 C
   0.4619300000000000    0.7957000000000000    0.3581200000000000 C
   0.4106750000000000    0.8139500000000000    0.3678450000000000 C
   0.3896500000000000    0.9153400000000000    0.3762950000000000 C
   0.4184100000000000    0.9975400000000000    0.3735950000000000 C
   0.3916600000000000    0.1049900000000000    0.3746500000000000 C
   0.4061450000000000    0.6194300000000000    0.3680350000000000 C
   0.0552200000000000    0.6654500000000000    0.0644500000000000 C
   0.0139950000000000    0.6132600000000000    0.0451150000000000 C
   0.0207350000000000    0.5290200000000000    0.0101150000000000 C
   0.0703650000000000    0.5034800000000000    0.4955450000000000 C
   0.1098050000000000    0.5588600000000000    0.0166050000000000 C
   0.2417000000000000    0.5896000000000000    0.1425850000000000 C
   0.2633900000000000    0.5313000000000000    0.1830000000000000 C
   0.2387200000000000    0.5310600000000000    0.2277750000000000 C
   0.1922850000000000    0.5932700000000000    0.2286500000000000 C
   0.1725750000000000    0.6492700000000000    0.1869000000000000 C
   0.2436200000000000    0.7346900000000000    0.0302400000000000 C
   0.2788000000000000    0.7316100000000000    0.4888200000000000 C
   0.2584450000000000    0.7162700000000000    0.4380400000000000 C
   0.2881750000000000    0.7166900000000000    0.3975300000000000 C
   0.3393350000000000    0.7360700000000000    0.4068200000000000 C
   0.3597000000000000    0.7539000000000000    0.4576750000000000 C
   0.3305250000000000    0.7492700000000000    0.4987300000000000 C
   0.3571750000000000    0.7512600000000000    0.0524750000000000 C
   0.3459250000000000    0.7324000000000001    0.3092500000000000 C
   0.3057700000000000    0.8692700000000000    0.1676200000000000 C
   0.2643450000000000    0.9086300000000000    0.1936100000000000 C
   0.2707650000000000    0.9794300000000000    0.2354150000000000 C
   0.3202600000000000    0.0000000000000000    0.2480350000000000 C
   0.3599050000000000    0.9658200000000000    0.2204500000000000 C
   0.4919200000000000    0.7137100000000000    0.2050700000000000 C
   0.0133300000000000    0.6328900000000000    0.2343000000000000 C
   0.4886400000000000    0.5437600000000000    0.2341900000000000 C
   0.4425050000000000    0.5422800000000000    0.2027750000000000 C
   0.4230800000000000    0.6257800000000000    0.1746600000000000 C
   0.4938050000000000    0.9395700000000000    0.1345450000000000 C
   0.0286850000000000    0.0221800000000000    0.1358750000000000 C
   0.0079500000000000    0.1235200000000000    0.1433800000000000 C
   0.0372900000000000    0.2044000000000000    0.1423750000000000 C
   0.0884250000000000    0.1858100000000000    0.1322500000000000 C
   0.1092250000000000    0.0843000000000000    0.1237500000000000 C
   0.0803700000000000    0.0023400000000000    0.1266400000000000 C
   0.1071550000000000    0.8949500000000000    0.1253300000000000 C
   0.0936850000000000    0.3803200000000000    0.1318950000000000 C
   0.4431850000000000    0.3336600000000000    0.4353350000000000 C
   0.4844500000000000    0.3856500000000000    0.4547950000000000 C
   0.4777650000000000    0.4697100000000000    0.4899100000000000 C
   0.4281700000000000    0.4951900000000000    0.0000000000000000 C
   0.3886900000000000    0.4400100000000000    0.4834150000000000 C
   0.2567700000000000    0.4092700000000000    0.3565000000000000 C
   0.2351650000000000    0.4675900000000000    0.3160750000000000 C
   0.2602050000000000    0.4687400000000000    0.2715900000000000 C
   0.3069050000000000    0.4073500000000000    0.2709700000000000 C
   0.3264500000000000    0.3510200000000000    0.3126500000000000 C
   0.2550050000000000    0.2646700000000000    0.4690100000000000 C
   0.2200550000000000    0.2673000000000000    0.0105750000000000 C
   0.2407250000000000    0.2819800000000000    0.0612800000000000 C
   0.2112000000000000    0.2812600000000000    0.1019250000000000 C
   0.1599300000000000    0.2625100000000000    0.0928550000000000 C
   0.1393350000000000    0.2448900000000000    0.0420800000000000 C
   0.1683400000000000    0.2496100000000000    0.0009300000000000 C
   0.1416500000000000    0.2479600000000000    0.4472650000000000 C
   0.1537250000000000    0.2669700000000000    0.1902500000000000 C
   0.3754000000000000    0.7274900000000000    0.3639600000000000 C
   0.1239850000000000    0.2717100000000000    0.1358250000000000 C
   0.6925000000000000    0.1312000000000000    0.3325400000000000 C
   0.7339750000000000    0.0916400000000000    0.3066750000000000 C
   0.7275900000000000    0.0207800000000000    0.2648950000000000 C
   0.6781000000000000    0.9917100000000000    0.2522100000000000 C
   0.6384200000000000    0.0345700000000000    0.2797000000000000 C
   0.5065950000000000    0.2861300000000000    0.2944200000000000 C
   0.9853450000000000    0.3667800000000000    0.2650000000000000 C
   0.5098400000000000    0.4562300000000000    0.2654700000000000 C
   0.5556550000000000    0.4581700000000000    0.2973800000000000 C
   0.5749950000000000    0.3747500000000000    0.3256000000000000 C
   0.5050400000000000    0.0604500000000000    0.3657450000000000 C
   0.9701700000000000    0.9779700000000000    0.3646400000000000 C
   0.9911550000000000    0.8767600000000000    0.3573400000000000 C
   0.9619300000000000    0.7957000000000000    0.3581200000000000 C
   0.9106750000000000    0.8139500000000000    0.3678450000000000 C
   0.8896500000000001    0.9153400000000000    0.3762950000000000 C
   0.9184099999999999    0.9975400000000000    0.3735950000000000 C
   0.8916600000000000    0.1049900000000000    0.3746500000000000 C
   0.9061450000000000    0.6194300000000000    0.3680350000000000 C
   0.5552200000000000    0.6654500000000000    0.0644500000000000 C
   0.5139950000000000    0.6132600000000000    0.0451150000000000 C
   0.5207349999999999    0.5290200000000000    0.0101150000000000 C
   0.5703650000000000    0.5034800000000000    0.4955450000000000 C
   0.6098050000000000    0.5588600000000000    0.0166050000000000 C
   0.7417000000000000    0.5896000000000000    0.1425850000000000 C
   0.7633900000000000    0.5313000000000000    0.1830000000000000 C
   0.7387200000000000    0.5310600000000000    0.2277750000000000 C
   0.6922850000000000    0.5932700000000000    0.2286500000000000 C
   0.6725750000000000    0.6492700000000000    0.1869000000000000 C
   0.7436199999999999    0.7346900000000000    0.0302400000000000 C
   0.7787999999999999    0.7316100000000000    0.4888200000000000 C
   0.7584450000000000    0.7162700000000000    0.4380400000000000 C
   0.7881750000000001    0.7166900000000000    0.3975300000000000 C
   0.8393349999999999    0.7360700000000000    0.4068200000000000 C
   0.8597000000000000    0.7539000000000000    0.4576750000000000 C
   0.8305250000000000    0.7492700000000000    0.4987300000000000 C
   0.8571750000000000    0.7512600000000000    0.0524750000000000 C
   0.8459250000000000    0.7324000000000001    0.3092500000000000 C
   0.8057700000000000    0.8692700000000000    0.1676200000000000 C
   0.7643450000000001    0.9086300000000000    0.1936100000000000 C
   0.7707649999999999    0.9794300000000000    0.2354150000000000 C
   0.8202600000000000    0.0000000000000000    0.2480350000000000 C
   0.8599049999999999    0.9658200000000000    0.2204500000000000 C
   0.9919200000000000    0.7137100000000000    0.2050700000000000 C
   0.5133300000000000    0.6328900000000000    0.2343000000000000 C
   0.9886400000000000    0.5437600000000000    0.2341900000000000 C
   0.9425049999999999    0.5422800000000000    0.2027750000000000 C
   0.9230800000000000    0.6257800000000000    0.1746600000000000 C
   0.9938050000000000    0.9395700000000000    0.1345450000000000 C
   0.5286850000000000    0.0221800000000000    0.1358750000000000 C
   0.5079500000000000    0.1235200000000000    0.1433800000000000 C
   0.5372900000000000    0.2044000000000000    0.1423750000000000 C
   0.5884250000000000    0.1858100000000000    0.1322500000000000 C
   0.6092250000000000    0.0843000000000000    0.1237500000000000 C
   0.5803700000000001    0.0023400000000000    0.1266400000000000 C
   0.6071550000000000    0.8949500000000000    0.1253300000000000 C
   0.5936850000000000    0.3803200000000000    0.1318950000000000 C
   0.9431849999999999    0.3336600000000000    0.4353350000000000 C
   0.9844500000000000    0.3856500000000000    0.4547950000000000 C
   0.9777650000000000    0.4697100000000000    0.4899100000000000 C
   0.9281699999999999    0.4951900000000000    0.0000000000000000 C
   0.8886900000000000    0.4400100000000000    0.4834150000000000 C
   0.7567699999999999    0.4092700000000000    0.3565000000000000 C
   0.7351650000000001    0.4675900000000000    0.3160750000000000 C
   0.7602050000000000    0.4687400000000000    0.2715900000000000 C
   0.8069050000000000    0.4073500000000000    0.2709700000000000 C
   0.8264500000000000    0.3510200000000000    0.3126500000000000 C
   0.7550049999999999    0.2646700000000000    0.4690100000000000 C
   0.7200550000000000    0.2673000000000000    0.0105750000000000 C
   0.7407250000000000    0.2819800000000000    0.0612800000000000 C
   0.7112000000000001    0.2812600000000000    0.1019250000000000 C
   0.6599300000000000    0.2625100000000000    0.0928550000000000 C
   0.6393350000000000    0.2448900000000000    0.0420800000000000 C
   0.6683399999999999    0.2496100000000000    0.0009300000000000 C
   0.6416500000000001    0.2479600000000000    0.4472650000000000 C
   0.6537250000000000    0.2669700000000000    0.1902500000000000 C
   0.8754000000000000    0.7274900000000000    0.3639600000000000 C
   0.6239850000000000    0.2717100000000000    0.1358250000000000 C
   0.1925000000000000    0.1312000000000000    0.8325400000000001 C
   0.2339750000000000    0.0916400000000000    0.8066750000000000 C
   0.2275900000000000    0.0207800000000000    0.7648950000000000 C
   0.1781000000000000    0.9917100000000000    0.7522100000000000 C
   0.1384200000000000    0.0345700000000000    0.7797000000000001 C
   0.0065950000000000    0.2861300000000000    0.7944200000000000 C
   0.0098400000000000    0.4562300000000000    0.7654700000000000 C
   0.0556550000000000    0.4581700000000000    0.7973800000000000 C
   0.0749950000000000    0.3747500000000000    0.8256000000000000 C
   0.0050400000000000    0.0604500000000000    0.8657450000000000 C
   0.4701700000000000    0.9779700000000000    0.8646400000000001 C
   0.4911550000000000    0.8767600000000000    0.8573400000000000 C
   0.4619300000000000    0.7957000000000000    0.8581200000000000 C
   0.4106750000000000    0.8139500000000000    0.8678450000000000 C
   0.3896500000000000    0.9153400000000000    0.8762950000000000 C
   0.4184100000000000    0.9975400000000000    0.8735950000000000 C
   0.3916600000000000    0.1049900000000000    0.8746499999999999 C
   0.4061450000000000    0.6194300000000000    0.8680350000000000 C
   0.0552200000000000    0.6654500000000000    0.5644500000000000 C
   0.0139950000000000    0.6132600000000000    0.5451150000000000 C
   0.0207350000000000    0.5290200000000000    0.5101150000000000 C
   0.0703650000000000    0.5034800000000000    0.9955450000000000 C
   0.1098050000000000    0.5588600000000000    0.5166050000000000 C
   0.2417000000000000    0.5896000000000000    0.6425850000000000 C
   0.2633900000000000    0.5313000000000000    0.6830000000000001 C
   0.2387200000000000    0.5310600000000000    0.7277750000000001 C
   0.1922850000000000    0.5932700000000000    0.7286500000000000 C
   0.1725750000000000    0.6492700000000000    0.6869000000000001 C
   0.2436200000000000    0.7346900000000000    0.5302400000000000 C
   0.2788000000000000    0.7316100000000000    0.9888200000000000 C
   0.2584450000000000    0.7162700000000000    0.9380400000000000 C
   0.2881750000000000    0.7166900000000000    0.8975299999999999 C
   0.3393350000000000    0.7360700000000000    0.9068200000000000 C
   0.3597000000000000    0.7539000000000000    0.9576750000000001 C
   0.3305250000000000    0.7492700000000000    0.9987300000000000 C
   0.3571750000000000    0.7512600000000000    0.5524750000000000 C
   0.3459250000000000    0.7324000000000001    0.8092500000000000 C
   0.3057700000000000    0.8692700000000000    0.6676200000000000 C
   0.2643450000000000    0.9086300000000000    0.6936100000000001 C
   0.2707650000000000    0.9794300000000000    0.7354150000000000 C
   0.3202600000000000    0.0000000000000000    0.7480350000000000 C
   0.3599050000000000    0.9658200000000000    0.7204500000000000 C
   0.0133300000000000    0.6328900000000000    0.7343000000000000 C
   0.4938050000000000    0.9395700000000000    0.6345450000000000 C
   0.0286850000000000    0.0221800000000000    0.6358750000000000 C
   0.0079500000000000    0.1235200000000000    0.6433800000000001 C
   0.0372900000000000    0.2044000000000000    0.6423750000000000 C
   0.0884250000000000    0.1858100000000000    0.6322500000000000 C
   0.1092250000000000    0.0843000000000000    0.6237500000000000 C
   0.0803700000000000    0.0023400000000000    0.6266400000000000 C
   0.1071550000000000    0.8949500000000000    0.6253299999999999 C
   0.0936850000000000    0.3803200000000000    0.6318950000000000 C
   0.4431850000000000    0.3336600000000000    0.9353350000000000 C
   0.4844500000000000    0.3856500000000000    0.9547950000000001 C
   0.4777650000000000    0.4697100000000000    0.9899100000000001 C
   0.4281700000000000    0.4951900000000000    0.5000000000000000 C
   0.3886900000000000    0.4400100000000000    0.9834149999999999 C
   0.2567700000000000    0.4092700000000000    0.8565000000000000 C
   0.2351650000000000    0.4675900000000000    0.8160750000000000 C
   0.2602050000000000    0.4687400000000000    0.7715900000000000 C
   0.3069050000000000    0.4073500000000000    0.7709699999999999 C
   0.3264500000000000    0.3510200000000000    0.8126500000000000 C
   0.2550050000000000    0.2646700000000000    0.9690099999999999 C
   0.2200550000000000    0.2673000000000000    0.5105750000000000 C
   0.2407250000000000    0.2819800000000000    0.5612800000000000 C
   0.2112000000000000    0.2812600000000000    0.6019250000000000 C
   0.1599300000000000    0.2625100000000000    0.5928550000000000 C
   0.1393350000000000    0.2448900000000000    0.5420800000000000 C
   0.1683400000000000    0.2496100000000000    0.5009300000000000 C
   0.1416500000000000    0.2479600000000000    0.9472650000000000 C
   0.1537250000000000    0.2669700000000000    0.6902500000000000 C
   0.3754000000000000    0.7274900000000000    0.8639600000000001 C
   0.1239850000000000    0.2717100000000000    0.6358250000000000 C
   0.6925000000000000    0.1312000000000000    0.8325400000000001 C
   0.7339750000000000    0.0916400000000000    0.8066750000000000 C
   0.7275900000000000    0.0207800000000000    0.7648950000000000 C
   0.6781000000000000    0.9917100000000000    0.7522100000000000 C
   0.6384200000000000    0.0345700000000000    0.7797000000000001 C
   0.9853450000000000    0.3667800000000000    0.7650000000000000 C
   0.5050400000000000    0.0604500000000000    0.8657450000000000 C
   0.9701700000000000    0.9779700000000000    0.8646400000000001 C
   0.9911550000000000    0.8767600000000000    0.8573400000000000 C
   0.9619300000000000    0.7957000000000000    0.8581200000000000 C
   0.9106750000000000    0.8139500000000000    0.8678450000000000 C
   0.8896500000000001    0.9153400000000000    0.8762950000000000 C
   0.9184099999999999    0.9975400000000000    0.8735950000000000 C
   0.8916600000000000    0.1049900000000000    0.8746499999999999 C
   0.9061450000000000    0.6194300000000000    0.8680350000000000 C
   0.5552200000000000    0.6654500000000000    0.5644500000000000 C
   0.5139950000000000    0.6132600000000000    0.5451150000000000 C
   0.5207349999999999    0.5290200000000000    0.5101150000000000 C
   0.5703650000000000    0.5034800000000000    0.9955450000000000 C
   0.6098050000000000    0.5588600000000000    0.5166050000000000 C
   0.7417000000000000    0.5896000000000000    0.6425850000000000 C
   0.7633900000000000    0.5313000000000000    0.6830000000000001 C
   0.7387200000000000    0.5310600000000000    0.7277750000000001 C