Sr24 H52 C138 S23 O96
1.0
  18.1338401877754443    0.0000000000000000   -0.2050976455745435
  -0.0008239264726853   14.0409977859338397   -0.0078419733610293
   0.0000000000000000    0.0000000000000000   31.2669999999999995
Sr H C S O
24 52 138 23 96
direct
   0.2444600000000000    0.9915300000000000    0.9693700000000001 Sr
   0.5888899999999999    0.4918200000000000    0.7807150000000000 Sr
   0.9111266666666666    0.9915300000000000    0.9693700000000001 Sr
   0.2555566666666667    0.4918200000000000    0.7807150000000000 Sr
   0.7444666666666666    0.5081700000000000    0.2192850000000000 Sr
   0.0778000000000000    0.5081700000000000    0.2192850000000000 Sr
   0.4222366666666666    0.0084500000000000    0.0306300000000000 Sr
   0.4111333333333333    0.5081700000000000    0.2192850000000000 Sr
   0.5777933333333334    0.9915300000000000    0.9693700000000001 Sr
   0.7555700000000000    0.0084500000000000    0.0306300000000000 Sr
   0.0889033333333333    0.0084500000000000    0.0306300000000000 Sr
   0.9222233333333333    0.4918200000000000    0.7807150000000000 Sr
   0.5777933333333334    0.9915300000000000    0.4693700000000000 Sr
   0.9222233333333333    0.4918200000000000    0.2807150000000000 Sr
   0.2444600000000000    0.9915300000000000    0.4693700000000000 Sr
   0.5888899999999999    0.4918200000000000    0.2807150000000000 Sr
   0.9111266666666666    0.9915300000000000    0.4693700000000000 Sr
   0.2555566666666667    0.4918200000000000    0.2807150000000000 Sr
   0.4222366666666666    0.0084500000000000    0.5306300000000000 Sr
   0.0778000000000000    0.5081700000000000    0.7192850000000000 Sr
   0.7555700000000000    0.0084500000000000    0.5306300000000000 Sr
   0.4111333333333333    0.5081700000000000    0.7192850000000000 Sr
   0.0889033333333333    0.0084500000000000    0.5306300000000000 Sr
   0.7444666666666666    0.5081700000000000    0.7192850000000000 Sr
   0.5589499999999999    0.6825200000000000    0.8458200000000000 H
   0.5507266666666666    0.7992300000000000    0.9111199999999999 H
   0.2743700000000000    0.1833400000000000    0.9044650000000001 H
   0.2824933333333333    0.3008200000000000    0.8395100000000000 H
   0.2256166666666666    0.6825200000000000    0.8458200000000000 H
   0.2173933333333333    0.7992300000000000    0.9111199999999999 H
   0.9410366666666666    0.1833400000000000    0.9044650000000001 H
   0.9491600000000000    0.3008200000000000    0.8395100000000000 H
   0.0589933333333333    0.8166400000000000    0.0955350000000000 H
   0.0508700000000000    0.6991600000000000    0.1604900000000000 H
   0.3923266666666667    0.8166400000000000    0.0955350000000000 H
   0.3842033333333333    0.6991600000000000    0.1604900000000000 H
   0.1077400000000000    0.3174600000000000    0.1541800000000000 H
   0.1159633333333333    0.2007600000000000    0.0888850000000000 H
   0.9237718807111204    0.3831832193637177    0.2103538725683122 H
   1.0272734165547714    0.3687315744238024    0.2032020852028308 H
   0.8013138117568572    0.4030002122938097    0.2196869671565554 H
   0.7256600000000000    0.8166400000000000    0.0955350000000000 H
   0.7175366666666666    0.6991600000000000    0.1604900000000000 H
   0.8922833333333333    0.6825200000000000    0.8458200000000000 H
   0.8840600000000000    0.7992300000000000    0.9111199999999999 H
   0.4410733333333333    0.3174600000000000    0.1541800000000000 H
   0.4492966666666666    0.2007600000000000    0.0888850000000000 H
   0.6077033333333333    0.1833400000000000    0.9044650000000001 H
   0.6158266666666666    0.3008200000000000    0.8395100000000000 H
   1.0197905514851442    0.0622934801377230    0.0882213578328755 H
   0.8890059086059869    0.0729492764119776    0.0485984032670449 H
   0.8325850080080799    0.0711646921573084    0.0334063963046786 H
   0.8922833333333333    0.6825200000000000    0.3458200000000000 H
   0.8840600000000000    0.7992300000000000    0.4111200000000000 H
   0.6077033333333333    0.1833400000000000    0.4044650000000000 H
   0.6158266666666666    0.3008200000000000    0.3395100000000000 H
   0.5589499999999999    0.6825200000000000    0.3458200000000000 H
   0.5507266666666666    0.7992300000000000    0.4111200000000000 H
   0.2743700000000000    0.1833400000000000    0.4044650000000000 H
   0.2824933333333333    0.3008200000000000    0.3395100000000000 H
   0.2256166666666666    0.6825200000000000    0.3458200000000000 H
   0.2173933333333333    0.7992300000000000    0.4111200000000000 H
   0.9410366666666666    0.1833400000000000    0.4044650000000000 H
   0.9491600000000000    0.3008200000000000    0.3395100000000000 H
   0.1077400000000000    0.3174600000000000    0.6541800000000000 H
   0.1159633333333333    0.2007600000000000    0.5888850000000000 H
   0.3923266666666667    0.8166400000000000    0.5955350000000000 H
   0.3842033333333333    0.6991600000000000    0.6604900000000000 H
   0.4410733333333333    0.3174600000000000    0.6541800000000000 H
   0.4492966666666666    0.2007600000000000    0.5888850000000000 H
   0.7256600000000000    0.8166400000000000    0.5955350000000000 H
   0.7175366666666666    0.6991600000000000    0.6604900000000000 H
   0.7744066666666667    0.3174600000000000    0.6541800000000000 H
   0.7826299999999999    0.2007600000000000    0.5888850000000000 H
   0.0589933333333333    0.8166400000000000    0.5955350000000000 H
   0.0508700000000000    0.6991600000000000    0.6604900000000000 H
   0.4040200000000000    0.8756699999999999    0.9314899999999999 C
   0.4238666666666666    0.6323800000000001    0.8014700000000000 C
   0.5079066666666666    0.7137900000000000    0.8570650000000000 C
   0.4399266666666666    0.6958600000000000    0.8379250000000000 C
   0.5033833333333333    0.7772600000000000    0.8918450000000000 C
   0.4318866666666666    0.8086100000000001    0.8987200000000000 C
   0.4292133333333333    0.3773300000000000    0.8191800000000000 C
   0.4095000000000000    0.1325000000000000    0.9485300000000000 C
   0.3253900000000000    0.2147800000000000    0.8932850000000000 C
   0.3934133333333333    0.1966200000000000    0.9123350000000000 C
   0.3298800000000000    0.2786400000000000    0.8586849999999999 C
   0.4013533333333333    0.3101400000000000    0.8518749999999999 C
   0.0706866666666667    0.8756699999999999    0.9314899999999999 C
   0.0905333333333333    0.6323800000000001    0.8014700000000000 C
   0.1745733333333333    0.7137900000000000    0.8570650000000000 C
   0.1065933333333333    0.6958600000000000    0.8379250000000000 C
   0.1700500000000000    0.7772600000000000    0.8918450000000000 C
   0.0985533333333333    0.8086100000000001    0.8987200000000000 C
   0.0958800000000000    0.3773300000000000    0.8191800000000000 C
   0.0761666666666667    0.1325000000000000    0.9485300000000000 C
   0.9920566666666666    0.2147800000000000    0.8932850000000000 C
   0.0600800000000000    0.1966200000000000    0.9123350000000000 C
   0.9965466666666666    0.2786400000000000    0.8586849999999999 C
   0.0680200000000000    0.3101400000000000    0.8518749999999999 C
   0.9041466666666667    0.6226600000000000    0.1808250000000000 C
   0.9238599999999999    0.8674900000000000    0.0514700000000000 C
   0.0079733333333333    0.7852100000000000    0.1067150000000000 C
   0.9399466666666666    0.8033600000000000    0.0876650000000000 C
   0.0034766666666667    0.7213500000000000    0.1413150000000000 C
   0.9320033333333333    0.6898400000000000    0.1481250000000000 C
   0.2374800000000000    0.6226600000000000    0.1808250000000000 C
   0.2571933333333333    0.8674900000000000    0.0514700000000000 C
   0.3413066666666666    0.7852100000000000    0.1067150000000000 C
   0.2732800000000000    0.8033600000000000    0.0876650000000000 C
   0.3368100000000000    0.7213500000000000    0.1413150000000000 C
   0.2653366666666667    0.6898400000000000    0.1481250000000000 C
   0.2626700000000000    0.1243200000000000    0.0685100000000000 C
   0.2428233333333333    0.3676100000000000    0.1985300000000000 C
   0.1587800000000000    0.2861900000000000    0.1429350000000000 C
   0.2267600000000000    0.3041200000000000    0.1620750000000000 C
   0.1633066666666667    0.2227300000000000    0.1081550000000000 C
   0.2348033333333333    0.1913800000000000    0.1012800000000000 C
   0.5708133333333333    0.6226600000000000    0.1808250000000000 C
   0.5905266666666666    0.8674900000000000    0.0514700000000000 C
   0.6746399999999999    0.7852100000000000    0.1067150000000000 C
   0.6066133333333332    0.8033600000000000    0.0876650000000000 C
   0.6701433333333333    0.7213500000000000    0.1413150000000000 C
   0.5986700000000000    0.6898400000000000    0.1481250000000000 C
   0.7373533333333333    0.8756699999999999    0.9314899999999999 C
   0.7572000000000000    0.6323800000000001    0.8014700000000000 C
   0.8412400000000000    0.7137900000000000    0.8570650000000000 C
   0.7732599999999999    0.6958600000000000    0.8379250000000000 C
   0.8367166666666666    0.7772600000000000    0.8918450000000000 C
   0.7652200000000000    0.8086100000000001    0.8987200000000000 C
   0.5960033333333332    0.1243200000000000    0.0685100000000000 C
   0.5761566666666667    0.3676100000000000    0.1985300000000000 C
   0.4921133333333333    0.2861900000000000    0.1429350000000000 C
   0.5600933333333333    0.3041200000000000    0.1620750000000000 C
   0.4966400000000000    0.2227300000000000    0.1081550000000000 C
   0.5681366666666666    0.1913800000000000    0.1012800000000000 C
   0.7625466666666666    0.3773300000000000    0.8191800000000000 C
   0.7428333333333332    0.1325000000000000    0.9485300000000000 C
   0.6587233333333333    0.2147800000000000    0.8932850000000000 C
   0.7267466666666667    0.1966200000000000    0.9123350000000000 C
   0.6632133333333332    0.2786400000000000    0.8586849999999999 C
   0.7346866666666666    0.3101400000000000    0.8518749999999999 C
   0.7373533333333333    0.8756699999999999    0.4314900000000000 C
   0.7572000000000000    0.6323800000000001    0.3014700000000000 C
   0.8412400000000000    0.7137900000000000    0.3570650000000000 C
   0.7732599999999999    0.6958600000000000    0.3379250000000000 C
   0.8367166666666666    0.7772600000000000    0.3918450000000000 C
   0.7652200000000000    0.8086100000000001    0.3987200000000000 C
   0.7625466666666666    0.3773300000000000    0.3191800000000000 C
   0.7428333333333332    0.1325000000000000    0.4485300000000000 C
   0.6587233333333333    0.2147800000000000    0.3932850000000000 C
   0.7267466666666667    0.1966200000000000    0.4123350000000000 C
   0.6632133333333332    0.2786400000000000    0.3586850000000000 C
   0.7346866666666666    0.3101400000000000    0.3518750000000000 C
   0.4040200000000000    0.8756699999999999    0.4314900000000000 C
   0.4238666666666666    0.6323800000000001    0.3014700000000000 C
   0.5079066666666666    0.7137900000000000    0.3570650000000000 C
   0.4399266666666666    0.6958600000000000    0.3379250000000000 C
   0.5033833333333333    0.7772600000000000    0.3918450000000000 C
   0.4318866666666666    0.8086100000000001    0.3987200000000000 C
   0.4292133333333333    0.3773300000000000    0.3191800000000000 C
   0.4095000000000000    0.1325000000000000    0.4485300000000000 C
   0.3253900000000000    0.2147800000000000    0.3932850000000000 C
   0.3934133333333333    0.1966200000000000    0.4123350000000000 C
   0.3298800000000000    0.2786400000000000    0.3586850000000000 C
   0.4013533333333333    0.3101400000000000    0.3518750000000000 C
   0.0706866666666667    0.8756699999999999    0.4314900000000000 C
   0.0905333333333333    0.6323800000000001    0.3014700000000000 C
   0.1745733333333333    0.7137900000000000    0.3570650000000000 C
   0.1065933333333333    0.6958600000000000    0.3379250000000000 C
   0.1700500000000000    0.7772600000000000    0.3918450000000000 C
   0.0985533333333333    0.8086100000000001    0.3987200000000000 C
   0.0958800000000000    0.3773300000000000    0.3191800000000000 C
   0.0761666666666667    0.1325000000000000    0.4485300000000000 C
   0.9920566666666666    0.2147800000000000    0.3932850000000000 C
   0.0600800000000000    0.1966200000000000    0.4123350000000000 C
   0.9965466666666666    0.2786400000000000    0.3586850000000000 C
   0.0680200000000000    0.3101400000000000    0.3518750000000000 C
   0.2626700000000000    0.1243200000000000    0.5685100000000000 C
   0.2428233333333333    0.3676100000000000    0.6985300000000000 C
   0.1587800000000000    0.2861900000000000    0.6429350000000000 C
   0.2267600000000000    0.3041200000000000    0.6620750000000000 C
   0.1633066666666667    0.2227300000000000    0.6081550000000000 C
   0.2348033333333333    0.1913800000000000    0.6012800000000000 C
   0.2374800000000000    0.6226600000000000    0.6808250000000000 C
   0.2571933333333333    0.8674900000000000    0.5514700000000000 C
   0.3413066666666666    0.7852100000000000    0.6067150000000000 C
   0.2732800000000000    0.8033600000000000    0.5876650000000000 C
   0.3368100000000000    0.7213500000000000    0.6413150000000000 C
   0.2653366666666667    0.6898400000000000    0.6481250000000001 C
   0.5960033333333332    0.1243200000000000    0.5685100000000000 C
   0.5761566666666667    0.3676100000000000    0.6985300000000000 C
   0.4921133333333333    0.2861900000000000    0.6429350000000000 C
   0.5600933333333333    0.3041200000000000    0.6620750000000000 C
   0.4966400000000000    0.2227300000000000    0.6081550000000000 C
   0.5681366666666666    0.1913800000000000    0.6012800000000000 C
   0.5708133333333333    0.6226600000000000    0.6808250000000000 C
   0.5905266666666666    0.8674900000000000    0.5514700000000000 C
   0.6746399999999999    0.7852100000000000    0.6067150000000000 C
   0.6066133333333332    0.8033600000000000    0.5876650000000000 C
   0.6701433333333333    0.7213500000000000    0.6413150000000000 C
   0.5986700000000000    0.6898400000000000    0.6481250000000001 C
   0.9293366666666666    0.1243200000000000    0.5685100000000000 C
   0.9094899999999999    0.3676100000000000    0.6985300000000000 C
   0.8254466666666667    0.2861900000000000    0.6429350000000000 C
   0.8934266666666666    0.3041200000000000    0.6620750000000000 C
   0.8299733333333332    0.2227300000000000    0.6081550000000000 C
   0.9014700000000000    0.1913800000000000    0.6012800000000000 C
   0.9041466666666667    0.6226600000000000    0.6808250000000000 C
   0.9238599999999999    0.8674900000000000    0.5514700000000000 C
   0.0079733333333333    0.7852100000000000    0.6067150000000000 C
   0.9399466666666666    0.8033600000000000    0.5876650000000000 C
   0.0034766666666667    0.7213500000000000    0.6413150000000000 C
   0.9320033333333333    0.6898400000000000    0.6481250000000001 C
   0.3705300000000000    0.7589100000000000    0.8624400000000000 S
   0.4627433333333333    0.2601500000000000    0.8880300000000000 S
   0.0371966666666667    0.7589100000000000    0.8624400000000000 S
   0.1294100000000000    0.2601500000000000    0.8880300000000000 S
   0.8706133333333332    0.7398400000000001    0.1119700000000000 S
   0.2039466666666667    0.7398400000000001    0.1119700000000000 S
   0.2961600000000000    0.2410800000000000    0.1375650000000000 S
   0.5372800000000000    0.7398400000000001    0.1119700000000000 S
   0.7038633333333333    0.7589100000000000    0.8624400000000000 S
   0.6294933333333332    0.2410800000000000    0.1375650000000000 S
   0.7960766666666667    0.2601500000000000    0.8880300000000000 S
   0.7038633333333333    0.7589100000000000    0.3624400000000000 S
   0.7960766666666667    0.2601500000000000    0.3880300000000000 S
   0.3705300000000000    0.7589100000000000    0.3624400000000000 S
   0.4627433333333333    0.2601500000000000    0.3880300000000000 S
   0.0371966666666667    0.7589100000000000    0.3624400000000000 S
   0.1294100000000000    0.2601500000000000    0.3880300000000000 S
   0.2961600000000000    0.2410800000000000    0.6375649999999999 S
   0.2039466666666667    0.7398400000000001    0.6119700000000000 S
   0.6294933333333332    0.2410800000000000    0.6375649999999999 S
   0.5372800000000000    0.7398400000000001    0.6119700000000000 S
   0.9628266666666666    0.2410800000000000    0.6375649999999999 S
   0.8706133333333332    0.7398400000000001    0.6119700000000000 S
   0.3349200000000000    0.8916600000000000    0.9314400000000000 O
   0.4509900000000000    0.9127300000000000    0.9575150000000000 O
   0.3570666666666666    0.6160600000000001    0.7906850000000001 O
   0.4786066666666666    0.5962300000000000    0.7813700000000000 O
   0.4981166666666667    0.3947200000000000    0.8197850000000000 O
   0.3824533333333333    0.4129000000000000    0.7926200000000000 O
   0.4762900000000000    0.1160400000000000    0.9592800000000000 O
   0.3547366666666666    0.0959100000000000    0.9684400000000000 O
   0.0015866666666667    0.8916600000000000    0.9314400000000000 O
   0.1176566666666667    0.9127300000000000    0.9575150000000000 O
   0.0237333333333333    0.6160600000000001    0.7906850000000001 O
   0.1452733333333333    0.5962300000000000    0.7813700000000000 O
   0.1647833333333333    0.3947200000000000    0.8197850000000000 O
   0.0491200000000000    0.4129000000000000    0.7926200000000000 O
   0.1429566666666666    0.1160400000000000    0.9592800000000000 O
   0.0214033333333333    0.0959100000000000    0.9684400000000000 O
   0.8352400000000000    0.6052700000000000    0.1802150000000000 O
   0.9509033333333332    0.5870900000000000    0.2073800000000000 O
   0.8570700000000000    0.8839500000000000    0.0407200000000000 O
   0.9786166666666666    0.9040800000000000    0.0315600000000000 O
   0.1685733333333333    0.6052700000000000    0.1802150000000000 O
   0.2842366666666666    0.5870900000000000    0.2073800000000000 O
   0.1904033333333333    0.8839500000000000    0.0407200000000000 O
   0.3119499999999999    0.9040800000000000    0.0315600000000000 O
   0.3317766666666667    0.1083300000000000    0.0685550000000000 O
   0.2157033333333333    0.0872600000000000    0.0424850000000000 O
   0.3096233333333333    0.3839300000000000    0.2093150000000000 O
   0.1880800000000000    0.4037600000000000    0.2186300000000000 O
   0.9762899999999999    0.3839300000000000    0.2093150000000000 O
   0.8547466666666665    0.4037600000000000    0.2186300000000000 O
   0.5019066666666666    0.6052700000000000    0.1802150000000000 O
   0.6175700000000000    0.5870900000000000    0.2073800000000000 O
   0.5237366666666666    0.8839500000000000    0.0407200000000000 O
   0.6452833333333332    0.9040800000000000    0.0315600000000000 O
   0.6682533333333333    0.8916600000000000    0.9314400000000000 O
   0.7843233333333333    0.9127300000000000    0.9575150000000000 O
   0.6904000000000000    0.6160600000000001    0.7906850000000001 O
   0.8119399999999999    0.5962300000000000    0.7813700000000000 O
   0.6651100000000000    0.1083300000000000    0.0685550000000000 O
   0.5490366666666666    0.0872600000000000    0.0424850000000000 O
   0.6429566666666666    0.3839300000000000    0.2093150000000000 O
   0.5214133333333333    0.4037600000000000    0.2186300000000000 O
   0.8314500000000000    0.3947200000000000    0.8197850000000000 O
   0.7157866666666666    0.4129000000000000    0.7926200000000000 O
   0.8096233333333333    0.1160400000000000    0.9592800000000000 O
   0.6880700000000000    0.0959100000000000    0.9684400000000000 O
   0.9984433333333333    0.1083300000000000    0.0685550000000000 O
   0.8823699999999999    0.0872600000000000    0.0424850000000000 O
   0.6682533333333333    0.8916600000000000    0.4314400000000000 O
   0.7843233333333333    0.9127300000000000    0.4575150000000000 O
   0.6904000000000000    0.6160600000000001    0.2906850000000000 O
   0.8119399999999999    0.5962300000000000    0.2813700000000000 O
   0.8314500000000000    0.3947200000000000    0.3197850000000000 O
   0.7157866666666666    0.4129000000000000    0.2926200000000000 O
   0.8096233333333333    0.1160400000000000    0.4592800000000000 O
   0.6880700000000000    0.0959100000000000    0.4684400000000000 O
   0.3349200000000000    0.8916600000000000    0.4314400000000000 O
   0.4509900000000000    0.9127300000000000    0.4575150000000000 O
   0.3570666666666666    0.6160600000000001    0.2906850000000000 O
   0.4786066666666666    0.5962300000000000    0.2813700000000000 O
   0.4981166666666667    0.3947200000000000    0.3197850000000000 O
   0.3824533333333333    0.4129000000000000    0.2926200000000000 O
   0.4762900000000000    0.1160400000000000    0.4592800000000000 O
   0.3547366666666666    0.0959100000000000    0.4684400000000000 O
   0.0015866666666667    0.8916600000000000    0.4314400000000000 O
   0.1176566666666667    0.9127300000000000    0.4575150000000000 O
   0.0237333333333333    0.6160600000000001    0.2906850000000000 O
   0.1452733333333333    0.5962300000000000    0.2813700000000000 O
   0.1647833333333333    0.3947200000000000    0.3197850000000000 O
   0.0491200000000000    0.4129000000000000    0.2926200000000000 O
   0.1429566666666666    0.1160400000000000    0.4592800000000000 O
   0.0214033333333333    0.0959100000000000    0.4684400000000000 O
   0.3317766666666667    0.1083300000000000    0.5685550000000000 O
   0.2157033333333333    0.0872600000000000    0.5424850000000000 O
   0.3096233333333333    0.3839300000000000    0.7093150000000000 O
   0.1880800000000000    0.4037600000000000    0.7186300000000000 O
   0.1685733333333333    0.6052700000000000    0.6802150000000000 O
   0.2842366666666666    0.5870900000000000    0.7073800000000000 O
   0.1904033333333333    0.8839500000000000    0.5407200000000000 O
   0.3119499999999999    0.9040800000000000    0.5315600000000000 O
   0.6651100000000000    0.1083300000000000    0.5685550000000000 O
   0.5490366666666666    0.0872600000000000    0.5424850000000000 O
   0.6429566666666666    0.3839300000000000    0.7093150000000000 O
   0.5214133333333333    0.4037600000000000    0.7186300000000000 O
   0.5019066666666666    0.6052700000000000    0.6802150000000000 O
   0.6175700000000000    0.5870900000000000    0.7073800000000000 O
   0.5237366666666666    0.8839500000000000    0.5407200000000000 O
   0.6452833333333332    0.9040800000000000    0.5315600000000000 O
   0.9984433333333333    0.1083300000000000    0.5685550000000000 O
   0.8823699999999999    0.0872600000000000    0.5424850000000000 O
   0.9762899999999999    0.3839300000000000    0.7093150000000000 O
   0.8547466666666665    0.4037600000000000    0.7186300000000000 O
   0.8352400000000000    0.6052700000000000    0.6802150000000000 O
   0.9509033333333332    0.5870900000000000    0.7073800000000000 O
   0.8570700000000000    0.8839500000000000    0.5407200000000000 O
   0.9786166666666666    0.9040800000000000    0.5315600000000000 O
