H6 O4
1.0
  18.1338401877754443    0.0000000000000000   -0.2050976455745435
  -0.0008239264726853   14.0409977859338397   -0.0078419733610293
   0.0000000000000000    0.0000000000000000   31.2669999999999995
H O
6 4
direct
   0.9237718807111204    0.3831832193637177    0.2103538725683122 H
   1.0272734165547714    0.3687315744238024    0.2032020852028308 H
   0.8013138117568572    0.4030002122938097    0.2196869671565554 H
   0.8890059086059869    0.0729492764119776    0.0485984032670449 H
   0.8325850080080799    0.0711646921573084    0.0334063963046786 H
   1.0197905514851442    0.0622934801377230    0.0882213578328755 H
   0.9762899999999999    0.3839300000000000    0.2093150000000000 O
   0.8547466666666665    0.4037600000000000    0.2186300000000000 O
   0.8823699999999999    0.0872600000000000    0.0424850000000000 O
   0.9984433333333333    0.1083300000000000    0.0685550000000000 O
