Ca8 H21 C49 N7 O28
1.0
   6.3284925356708346    0.0000000000000000   -0.0097198744092337
  -1.3653142299862207   13.5328009312392687   -0.0042730371774916
   0.0000000000000000    0.0000000000000000   29.3320000000000007
Ca H C N O
8 21 49 7 28
direct
   0.2712700000000000    0.0513800000000000    0.2771850000000000 Ca
   0.7708100000000000    0.5509400000000000    0.4724050000000000 Ca
   0.7209300000000000    0.9493200000000001    0.2222850000000000 Ca
   0.2205100000000000    0.4495100000000000    0.0274200000000000 Ca
   0.2712700000000000    0.0513800000000000    0.7771850000000000 Ca
   0.7708100000000000    0.5509400000000000    0.9724050000000000 Ca
   0.7209300000000000    0.9493200000000001    0.7222850000000001 Ca
   0.2205100000000000    0.4495100000000000    0.5274200000000000 Ca
   0.7993700000000000    0.2626300000000000    0.1260900000000000 H
   0.1622600000000000    0.1269600000000000    0.1495600000000000 H
   0.0427800000000000    0.2351000000000000    0.0876200000000000 H
   0.6930500000000001    0.2377000000000000    0.3760500000000000 H
   0.3301000000000000    0.3739100000000000    0.3995550000000000 H
   0.4491000000000000    0.2658700000000000    0.3376100000000000 H
   0.1922600000000000    0.7378700000000000    0.3735700000000000 H
   0.8298400000000000    0.8728800000000000    0.3501200000000000 H
   0.9486500000000000    0.7651300000000000    0.4123250000000000 H
   0.7993700000000000    0.2626300000000000    0.6260900000000000 H
   0.1622600000000000    0.1269600000000000    0.6495600000000000 H
   0.0427800000000000    0.2351000000000000    0.5876200000000000 H
   0.6930500000000001    0.2377000000000000    0.8760500000000000 H
   0.3301000000000000    0.3739100000000000    0.8995550000000000 H
   0.4491000000000000    0.2658700000000000    0.8376100000000000 H
   0.1922600000000000    0.7378700000000000    0.8735700000000000 H
   0.8298400000000000    0.8728800000000000    0.8501200000000000 H
   0.9486500000000000    0.7651300000000000    0.9123250000000001 H
   0.2988300000000000    0.7627000000000000    0.6237400000000000 H
   0.6619000000000000    0.6264200000000000    0.6001350000000000 H
   0.5426299999999999    0.7344200000000000    0.6620850000000000 H
   0.5491200000000001    0.3127300000000000    0.0851900000000000 C
   0.5788900000000000    0.1187900000000000    0.1773250000000000 C
   0.6304100000000000    0.2543700000000000    0.1186800000000000 C
   0.2768300000000000    0.1788000000000000    0.1319650000000000 C
   0.4931500000000000    0.1862100000000000    0.1427150000000000 C
   0.6940000000000000    0.3842900000000000    0.0570700000000000 C
   0.2089600000000000    0.2392000000000000    0.0976450000000000 C
   0.9429300000000000    0.1878100000000000    0.3351500000000000 C
   0.9133500000000000    0.3817900000000000    0.4273200000000000 C
   0.8619000000000000    0.2461300000000000    0.3686500000000000 C
   0.2153800000000000    0.3219800000000000    0.3819650000000000 C
   0.9991900000000000    0.3144600000000000    0.3927000000000000 C
   0.7977800000000000    0.1161500000000000    0.3070100000000000 C
   0.2830200000000000    0.2616100000000000    0.3476250000000000 C
   0.4421000000000000    0.6878500000000000    0.4146600000000000 C
   0.4148100000000000    0.8810000000000000    0.3219100000000000 C
   0.3611500000000000    0.7461100000000001    0.3810650000000000 C
   0.7150700000000000    0.8213300000000000    0.3678150000000000 C
   0.4988300000000000    0.8139800000000000    0.3569600000000000 C
   0.2971900000000000    0.6162800000000000    0.4428050000000000 C
   0.7825400000000000    0.7611300000000000    0.4022500000000000 C
   0.5491200000000001    0.3127300000000000    0.5851900000000000 C
   0.5788900000000000    0.1187900000000000    0.6773250000000000 C
   0.6304100000000000    0.2543700000000000    0.6186800000000000 C
   0.2768300000000000    0.1788000000000000    0.6319650000000000 C
   0.4931500000000000    0.1862100000000000    0.6427150000000000 C
   0.6940000000000000    0.3842900000000000    0.5570700000000000 C
   0.2089600000000000    0.2392000000000000    0.5976450000000000 C
   0.9429300000000000    0.1878100000000000    0.8351500000000001 C
   0.9133500000000000    0.3817900000000000    0.9273199999999999 C
   0.8619000000000000    0.2461300000000000    0.8686499999999999 C
   0.2153800000000000    0.3219800000000000    0.8819650000000000 C
   0.9991900000000000    0.3144600000000000    0.8927000000000000 C
   0.7977800000000000    0.1161500000000000    0.8070100000000000 C
   0.2830200000000000    0.2616100000000000    0.8476250000000001 C
   0.4421000000000000    0.6878500000000000    0.9146600000000000 C
   0.4148100000000000    0.8810000000000000    0.8219099999999999 C
   0.3611500000000000    0.7461100000000001    0.8810650000000000 C
   0.7150700000000000    0.8213300000000000    0.8678150000000000 C
   0.4988300000000000    0.8139800000000000    0.8569599999999999 C
   0.2971900000000000    0.6162800000000000    0.9428050000000000 C
   0.7825400000000000    0.7611300000000000    0.9022500000000000 C
   0.0487600000000000    0.8125900000000000    0.6645850000000000 C
   0.0786200000000000    0.6185900000000000    0.5724650000000000 C
   0.1299400000000000    0.7542800000000000    0.6311050000000000 C
   0.7764799999999999    0.6783900000000000    0.6177450000000000 C
   0.9927100000000000    0.6859900000000000    0.6070250000000000 C
   0.1938100000000000    0.8842500000000000    0.6927449999999999 C
   0.7087200000000000    0.7387300000000000    0.6520800000000000 C
   0.3396900000000000    0.3061900000000000    0.0748850000000000 N
   0.1522000000000000    0.1945100000000000    0.3248300000000000 N
   0.6514600000000000    0.6943100000000000    0.4250300000000000 N
   0.3396900000000000    0.3061900000000000    0.5748850000000000 N
   0.1522000000000000    0.1945100000000000    0.8248300000000000 N
   0.6514600000000000    0.6943100000000000    0.9250300000000000 N
   0.8394500000000000    0.8058600000000000    0.6748750000000000 N
   0.6019700000000000    0.4388400000000000    0.0290050000000000 O
   0.4708500000000000    0.0988300000000000    0.2134200000000000 O
   0.7506300000000000    0.0826600000000000    0.1680450000000000 O
   0.8910900000000000    0.3839600000000000    0.0625600000000000 O
   0.8895600000000000    0.0618300000000000    0.2788700000000000 O
   0.0217600000000000    0.4021100000000000    0.4634050000000000 O
   0.7408500000000000    0.4174300000000000    0.4180800000000000 O
   0.6007200000000000    0.1162300000000000    0.3125750000000000 O
   0.3892700000000000    0.5618200000000000    0.4708950000000000 O
   0.5264200000000000    0.9010600000000000    0.2863400000000000 O
   0.2415600000000000    0.9166900000000000    0.3303200000000000 O
   0.1000900000000000    0.6164500000000001    0.4372950000000000 O
   0.6019700000000000    0.4388400000000000    0.5290049999999999 O
   0.4708500000000000    0.0988300000000000    0.7134199999999999 O
   0.7506300000000000    0.0826600000000000    0.6680450000000000 O
   0.8910900000000000    0.3839600000000000    0.5625599999999999 O
   0.8895600000000000    0.0618300000000000    0.7788700000000000 O
   0.0217600000000000    0.4021100000000000    0.9634050000000001 O
   0.7408500000000000    0.4174300000000000    0.9180800000000000 O
   0.6007200000000000    0.1162300000000000    0.8125750000000000 O
   0.3892700000000000    0.5618200000000000    0.9708950000000001 O
   0.5264200000000000    0.9010600000000000    0.7863400000000000 O
   0.2415600000000000    0.9166900000000000    0.8303199999999999 O
   0.1000900000000000    0.6164500000000001    0.9372950000000000 O
   0.1020400000000000    0.9389200000000000    0.7207450000000000 O
   0.9709100000000001    0.5985800000000000    0.5362500000000000 O
   0.2504500000000000    0.5825700000000000    0.5818900000000000 O
   0.3908500000000000    0.8838800000000000    0.6873400000000001 O
