K12 H54 C60 N10 O32
1.0
   3.9493274318676370    0.0000000000000000   -0.2208915704543127
  -0.0008679251059143   24.3494999827143985   -0.0002974852623388
   0.0000000000000000    0.0000000000000000   26.6392999999999986
K H C N O
12 54 60 10 32
direct
   0.6661200000000000    0.2582466666666666    0.7243500000000000 K
   0.1661200000000000    0.2417500000000000    0.2243500000000000 K
   0.3334600000000000    0.0755200000000000    0.2755200000000000 K
   0.8334400000000000    0.0911466666666667    0.7755300000000001 K
   0.6661200000000000    0.5915800000000000    0.7243500000000000 K
   0.1661200000000000    0.5750833333333333    0.2243500000000000 K
   0.3334600000000000    0.4088533333333333    0.2755200000000000 K
   0.8334400000000000    0.4244800000000000    0.7755300000000001 K
   0.6661200000000000    0.9249133333333333    0.7243500000000000 K
   0.1661200000000000    0.9084166666666667    0.2243500000000000 K
   0.3334600000000000    0.7421866666666667    0.2755200000000000 K
   0.8334400000000000    0.7578133333333333    0.7755300000000001 K
   0.0826500000000000    0.2217266666666667    0.6176400000000000 H
   0.5817900000000000    0.0654200000000000    0.6192600000000000 H
   0.7110100000000000    0.0821633333333333    0.5284600000000000 H
   0.4219600000000000    0.0548733333333333    0.8824100000000000 H
   0.9146700000000000    0.2326000000000000    0.8802800000000000 H
   0.7927100000000000    0.2486300000000000    0.9716100000000000 H
   0.9219700000000000    0.1117766666666667    0.3823900000000000 H
   0.4147900000000000    0.2674033333333333    0.3803000000000000 H
   0.2928700000000000    0.2513833333333333    0.4716100000000000 H
   0.5826100000000000    0.2782833333333333    0.1176300000000000 H
   0.0819000000000000    0.1012366666666667    0.1192600000000000 H
   0.2110800000000000    0.0844600000000000    0.0284500000000000 H
   0.2960600000000000    0.1921066666666667    0.8218600000000000 H
   0.3600000000000000    0.1525100000000000    0.8676199999999999 H
   0.1981400000000000    0.0255000000000000    0.6778200000000000 H
   0.1326000000000000    0.3191166666666667    0.6321800000000000 H
   0.6981600000000000    0.1411633333333333    0.1778100000000000 H
   0.6326100000000000    0.1808933333333334    0.1321700000000000 H
   0.7960800000000000    0.3079066666666667    0.3218600000000000 H
   0.8601000000000000    0.0141666666666667    0.3676100000000000 H
   0.4219600000000000    0.3882066666666666    0.8824100000000000 H
   0.9146700000000000    0.5659333333333333    0.8802800000000000 H
   0.7927100000000000    0.5819633333333334    0.9716100000000000 H
   0.5826100000000000    0.6116166666666667    0.1176300000000000 H
   0.0819000000000000    0.4345700000000000    0.1192600000000000 H
   0.2110800000000000    0.4177933333333333    0.0284500000000000 H
   0.2960600000000000    0.5254400000000000    0.8218600000000000 H
   0.3600000000000000    0.4858433333333333    0.8676199999999999 H
   0.1981400000000000    0.3588333333333333    0.6778200000000000 H
   0.1326000000000000    0.6524500000000000    0.6321800000000000 H
   0.6981600000000000    0.4744966666666666    0.1778100000000000 H
   0.6326100000000000    0.5142266666666666    0.1321700000000000 H
   0.7960800000000000    0.6412400000000000    0.3218600000000000 H
   0.8601000000000000    0.3475000000000000    0.3676100000000000 H
   0.0826500000000000    0.8883933333333333    0.6176400000000000 H
   0.5817900000000000    0.7320866666666667    0.6192600000000000 H
   0.7110100000000000    0.7488300000000000    0.5284600000000000 H
   0.4219600000000000    0.7215400000000000    0.8824100000000000 H
   0.9146700000000000    0.8992666666666667    0.8802800000000000 H
   0.7927100000000000    0.9152966666666666    0.9716100000000000 H
   0.9219700000000000    0.7784433333333333    0.3823900000000000 H
   0.4147900000000000    0.9340700000000000    0.3803000000000000 H
   0.2928700000000000    0.9180499999999999    0.4716100000000000 H
   0.5826100000000000    0.9449500000000000    0.1176300000000000 H
   0.0819000000000000    0.7679033333333333    0.1192600000000000 H
   0.2110800000000000    0.7511266666666666    0.0284500000000000 H
   0.2960600000000000    0.8587733333333333    0.8218600000000000 H
   0.3600000000000000    0.8191766666666667    0.8676199999999999 H
   0.1981400000000000    0.6921666666666666    0.6778200000000000 H
   0.1326000000000000    0.9857833333333332    0.6321800000000000 H
   0.6981600000000000    0.8078299999999999    0.1778100000000000 H
   0.6326100000000000    0.8475600000000000    0.1321700000000000 H
   0.7960800000000000    0.9745733333333333    0.3218600000000000 H
   0.8601000000000000    0.6808333333333333    0.3676100000000000 H
   0.4623200000000000    0.1609333333333333    0.5264000000000000 C
   0.2244100000000000    0.1902000000000000    0.5986600000000000 C
   0.3203400000000000    0.1425466666666667    0.6253500000000000 C
   0.4970100000000000    0.1026466666666667    0.5995700000000000 C
   0.5677000000000000    0.1116166666666667    0.5497200000000000 C
   0.2312300000000000    0.1352100000000000    0.6792500000000000 C
   0.0378100000000000    0.3277400000000000    0.9733800000000000 C
   0.2782000000000000    0.0235033333333333    0.9012700000000000 C
   0.1802400000000000    0.3093666666666667    0.8744700000000000 C
   0.0011000000000000    0.2696499999999999    0.9000899999999999 C
   0.9303000000000000    0.2786000000000000    0.9499400000000000 C
   0.2695800000000000    0.3018866666666666    0.8206100000000000 C
   0.5378700000000000    0.1722500000000000    0.4733800000000000 C
   0.7782400000000000    0.1431466666666666    0.4012600000000000 C
   0.6802900000000000    0.1906333333333333    0.3744800000000000 C
   0.5011900000000000    0.2303466666666666    0.4001100000000000 C
   0.4303900000000000    0.2213933333333333    0.4499500000000000 C
   0.7696000000000000    0.1981200000000000    0.3206100000000000 C
   0.9623400000000000    0.0057300000000000    0.0263900000000000 C
   0.7244000000000000    0.3098066666666667    0.0986600000000000 C
   0.8203600000000000    0.0241166666666667    0.1253400000000000 C
   0.9970900000000000    0.0640133333333333    0.0995700000000000 C
   0.0677700000000000    0.0550433333333333    0.0497200000000000 C
   0.7312400000000000    0.0314566666666667    0.1792400000000000 C
   0.0378100000000000    0.6610733333333333    0.9733800000000000 C
   0.2782000000000000    0.3568366666666666    0.9012700000000000 C
   0.1802400000000000    0.6427000000000000    0.8744700000000000 C
   0.0011000000000000    0.6029833333333332    0.9000899999999999 C
   0.9303000000000000    0.6119333333333332    0.9499400000000000 C
   0.2695800000000000    0.6352199999999999    0.8206100000000000 C
   0.9623400000000000    0.3390633333333333    0.0263900000000000 C
   0.7244000000000000    0.6431400000000000    0.0986600000000000 C
   0.8203600000000000    0.3574500000000000    0.1253400000000000 C
   0.9970900000000000    0.3973466666666666    0.0995700000000000 C
   0.0677700000000000    0.3883766666666666    0.0497200000000000 C
   0.7312400000000000    0.3647899999999999    0.1792400000000000 C
   0.4623200000000000    0.8275999999999999    0.5264000000000000 C
   0.2244100000000000    0.8568666666666667    0.5986600000000000 C
   0.3203400000000000    0.8092133333333333    0.6253500000000000 C
   0.4970100000000000    0.7693133333333333    0.5995700000000000 C
   0.5677000000000000    0.7782833333333333    0.5497200000000000 C
   0.2312300000000000    0.8018766666666666    0.6792500000000000 C
   0.0378100000000000    0.9944066666666667    0.9733800000000000 C
   0.2782000000000000    0.6901700000000000    0.9012700000000000 C
   0.1802400000000000    0.9760333333333333    0.8744700000000000 C
   0.0011000000000000    0.9363166666666666    0.9000899999999999 C
   0.9303000000000000    0.9452666666666666    0.9499400000000000 C
   0.2695800000000000    0.9685533333333333    0.8206100000000000 C
   0.5378700000000000    0.8389166666666666    0.4733800000000000 C
   0.7782400000000000    0.8098133333333333    0.4012600000000000 C
   0.6802900000000000    0.8573000000000000    0.3744800000000000 C
   0.5011900000000000    0.8970133333333332    0.4001100000000000 C
   0.4303900000000000    0.8880600000000000    0.4499500000000000 C
   0.7696000000000000    0.8647866666666666    0.3206100000000000 C
   0.9623400000000000    0.6723966666666666    0.0263900000000000 C
   0.7244000000000000    0.9764733333333333    0.0986600000000000 C
   0.8203600000000000    0.6907833333333333    0.1253400000000000 C
   0.9970900000000000    0.7306800000000000    0.0995700000000000 C
   0.0677700000000000    0.7217100000000000    0.0497200000000000 C
   0.7312400000000000    0.6981233333333333    0.1792400000000000 C
   0.2921400000000000    0.2000033333333333    0.5508100000000000 N
   0.2101200000000000    0.0333033333333333    0.9491100000000000 N
   0.7101700000000000    0.1333366666666667    0.4491000000000000 N
   0.7921200000000000    0.3000033333333333    0.0508000000000000 N
   0.2101200000000000    0.3666366666666667    0.9491100000000000 N
   0.7921200000000000    0.6333366666666667    0.0508000000000000 N
   0.2921400000000000    0.8666699999999999    0.5508100000000000 N
   0.2101200000000000    0.6999700000000000    0.9491100000000000 N
   0.7101700000000000    0.8000033333333333    0.4491000000000000 N
   0.7921200000000000    0.9666699999999999    0.0508000000000000 N
   0.2876500000000000    0.0881266666666667    0.6996900000000000 O
   0.1089600000000000    0.1758133333333333    0.7018100000000000 O
   0.2076200000000000    0.2550000000000000    0.8000699999999999 O
   0.3972200000000000    0.0088000000000000    0.7982100000000000 O
   0.7076400000000000    0.2450033333333334    0.3000800000000000 O
   0.8972599999999999    0.1578633333333333    0.2982100000000000 O
   0.7876900000000000    0.0785433333333333    0.1996800000000000 O
   0.6089800000000000    0.3241966666666666    0.2018100000000000 O
   0.3561500000000000    0.1530566666666667    0.8311100000000000 O
   0.1374600000000000    0.3197633333333333    0.6686900000000000 O
   0.6374800000000000    0.1802433333333333    0.1686800000000000 O
   0.8561600000000000    0.0136166666666667    0.3311000000000000 O
   0.2076200000000000    0.5883333333333334    0.8000699999999999 O
   0.3972200000000000    0.3421333333333333    0.7982100000000000 O
   0.7876900000000000    0.4118766666666667    0.1996800000000000 O
   0.6089800000000000    0.6575299999999999    0.2018100000000000 O
   0.3561500000000000    0.4863900000000000    0.8311100000000000 O
   0.1374600000000000    0.6530966666666667    0.6686900000000000 O
   0.6374800000000000    0.5135766666666667    0.1686800000000000 O
   0.8561600000000000    0.3469500000000000    0.3311000000000000 O
   0.2876500000000000    0.7547933333333333    0.6996900000000000 O
   0.1089600000000000    0.8424799999999999    0.7018100000000000 O
   0.2076200000000000    0.9216666666666666    0.8000699999999999 O
   0.3972200000000000    0.6754666666666667    0.7982100000000000 O
   0.7076400000000000    0.9116700000000000    0.3000800000000000 O
   0.8972599999999999    0.8245300000000000    0.2982100000000000 O
   0.7876900000000000    0.7452099999999999    0.1996800000000000 O
   0.6089800000000000    0.9908633333333332    0.2018100000000000 O
   0.3561500000000000    0.8197233333333334    0.8311100000000000 O
   0.1374600000000000    0.9864299999999999    0.6686900000000000 O
   0.6374800000000000    0.8469099999999999    0.1686800000000000 O
   0.8561600000000000    0.6802833333333334    0.3311000000000000 O
