H14 C18 N4 O2
1.0
  29.7654518696225665    0.0000000000000000   -2.2715146922664844
   0.0050061833107173   39.9879996622705107    0.0013958445222903
   0.0000000000000000    0.0000000000000000   20.5249999999999986
H C N O
14 18 4 2
direct
   0.5471150000000000    0.2365100000000000    0.3395000000000000 H
   0.5905899999999999    0.2907600000000000    0.0140700000000000 H
   0.5639500000000000    0.3225100000000000    0.2095000000000000 H
   0.5572200000000000    0.3102200000000000    0.0906300000000000 H
   0.5618350000000000    0.2046900000000000    0.1333000000000000 H
   0.5660849999999999    0.2169900000000000    0.2515900000000000 H
   0.5862200000000000    0.3184100000000000    0.5474500000000000 H
   0.5857200000000000    0.3155550000000000    0.4259800000000000 H
   0.5436350000000000    0.2125900000000000    0.4387700000000000 H
   0.5453000000000000    0.2197500000000000    0.5592500000000000 H
   0.6110050000000000    0.3160950000000000    0.7985700000000000 H
   0.6131250000000000    0.3159750000000000    0.9201900000000000 H
   0.5376050000000000    0.2237000000000000    0.9071600000000000 H
   0.5381450000000000    0.2280450000000000    0.7859100000000000 H
   0.5735250000000000    0.2814000000000000    0.3085600000000000 C
   0.5590349999999999    0.2465700000000000    0.0335000000000000 C
   0.5659950000000000    0.2709150000000000    0.2383600000000000 C
   0.5634200000000000    0.2968000000000000    0.1919600000000000 C
   0.5607450000000000    0.2896300000000000    0.1255400000000000 C
   0.5611200000000000    0.2562750000000000    0.1039600000000000 C
   0.5623500000000000    0.2304850000000000    0.1503200000000000 C
   0.5646650000000000    0.2376150000000000    0.2168800000000000 C
   0.5771650000000000    0.2953050000000000    0.5214400000000000 C
   0.5769299999999999    0.2938100000000000    0.4538500000000000 C
   0.5650200000000000    0.2635000000000000    0.4221400000000000 C
   0.5537000000000000    0.2363450000000000    0.4612800000000000 C
   0.5547299999999999    0.2402450000000000    0.5282500000000000 C
   0.5948950000000000    0.2961800000000000    0.8245600000000000 C
   0.5957100000000000    0.2960600000000000    0.8922099999999999 C
   0.5746750000000000    0.2698650000000000    0.9240100000000000 C
   0.5539499999999999    0.2445700000000000    0.8850900000000000 C
   0.5545550000000000    0.2469200000000000    0.8177200000000000 C
   0.5631150000000000    0.2584050000000000    0.3548700000000000 N
   0.5664899999999999    0.2692000000000000    0.5589400000000000 N
   0.5751750000000000    0.2705500000000000    0.9920700000000000 N
   0.5745550000000000    0.2720450000000000    0.7871100000000000 N
   0.5895049999999999    0.3093050000000000    0.3220200000000000 O
   0.5448150000000000    0.2191000000000000    0.0139900000000000 O
