H6 O4
1.0
  29.7654518696225665    0.0000000000000000   -2.2715146922664844
   0.0050061833107173   39.9879996622705107    0.0013958445222903
   0.0000000000000000    0.0000000000000000   20.5249999999999986
H O
6 4
direct
   0.8166075156731059    0.8963865738551555    0.6725606467796971 H
   0.7095273569924030    0.9591320847112734    0.6725581547067856 H
   0.7610114621711164    0.9265252066741841    0.6725776686528249 H
   0.7546059767016573    0.7859305001274847    0.6780990206180718 H
   0.6178483804157223    0.7960805028245663    0.6756171164385822 H
   0.6848985682264741    0.7925170240047666    0.6770429223320547 H
   0.7995800000000000    0.9170499999999999    0.6724800000000000 O
   0.7403900000000000    0.9515500000000000    0.6724800000000000 O
   0.7226700000000000    0.7812049999999999    0.6764700000000000 O
   0.6479850000000000    0.7870550000000001    0.6751600000000000 O
