H6 O4
1.0
  30.8799999247473131    0.0000000000000000   -0.0021558306903115
   0.0007720648388944   16.4674809625378664   -6.7309858232185240
   0.0000000000000000    0.0000000000000000   36.6360000000000028
H O
6 4
direct
   0.0674635654854265    0.9263615103012253    0.7990901748692902 H
   0.0975879771528937    0.8780139595895595    0.8912417041117796 H
   0.0879318121426911    0.8931682992273802    0.8444822275346971 H
   0.1828429656046613    0.5720062505941187    0.7842197540138836 H
   0.1527698404986725    0.6224937867223796    0.6925822379066240 H
   0.1624789587910182    0.6062952446695661    0.7390189792699249 H
   0.0610100000000000    0.9376600000000000    0.8265750000000001 O
   0.0797400000000000    0.9075100000000000    0.8793700000000000 O
   0.1891600000000000    0.5611200000000000    0.7567500000000000 O
   0.1704550000000000    0.5925500000000000    0.7043349999999999 O
