Zn72 H188 C376 O188
1.0
  30.8799999247473131    0.0000000000000000   -0.0021558306903115
   0.0007720648388944   16.4674809625378664   -6.7309858232185240
   0.0000000000000000    0.0000000000000000   36.6360000000000028
Zn H C O
72 188 376 188
direct
   0.0483250000000000    0.0029500000000000    0.0834000000000000 Zn
   0.2995400000000000    0.4967700000000000    0.4982950000000000 Zn
   0.4500450000000000    0.0000000000000000    0.0831400000000000 Zn
   0.0000000000000000    0.9973600000000000    0.3329950000000000 Zn
   0.2983300000000000    0.4970600000000000    0.1666000000000000 Zn
   0.0495400000000000    0.0032000000000000    0.2517150000000000 Zn
   0.2000400000000000    0.4999400000000000    0.1668500000000000 Zn
   0.2499900000000000    0.4973500000000000    0.0829950000000000 Zn
   0.4516850000000000    0.9970700000000000    0.4166000000000000 Zn
   0.2004650000000000    0.5032200000000000    0.0017100000000000 Zn
   0.0499600000000000    0.9999300000000000    0.4168550000000000 Zn
   0.4999850000000000    0.0026400000000000    0.1670050000000000 Zn
   0.2016800000000000    0.5029500000000000    0.3334000000000000 Zn
   0.4504700000000000    0.9968000000000000    0.2482850000000000 Zn
   0.2999650000000000    0.5000500000000000    0.3331450000000000 Zn
   0.0000000000000000    0.9999900000000000    0.4999950000000000 Zn
   0.2500050000000000    0.4999900000000000    0.2500000000000000 Zn
   0.2500150000000000    0.5026600000000000    0.4170100000000000 Zn
   0.5483250000000000    0.0029500000000000    0.0834000000000000 Zn
   0.7995399999999999    0.4967700000000000    0.4982950000000000 Zn
   0.9500450000000000    0.0000000000000000    0.0831400000000000 Zn
   0.5000000000000000    0.9973600000000000    0.3329950000000000 Zn
   0.7983300000000000    0.4970600000000000    0.1666000000000000 Zn
   0.5495400000000000    0.0032000000000000    0.2517150000000000 Zn
   0.7000400000000000    0.4999400000000000    0.1668500000000000 Zn
   0.7499899999999999    0.4973500000000000    0.0829950000000000 Zn
   0.9516850000000000    0.9970700000000000    0.4166000000000000 Zn
   0.7004650000000000    0.5032200000000000    0.0017100000000000 Zn
   0.5499600000000000    0.9999300000000000    0.4168550000000000 Zn
   0.9999850000000000    0.0026400000000000    0.1670050000000000 Zn
   0.7016800000000000    0.5029500000000000    0.3334000000000000 Zn
   0.9504699999999999    0.9968000000000000    0.2482850000000000 Zn
   0.7999650000000000    0.5000500000000000    0.3331450000000000 Zn
   0.5000000000000000    0.9999900000000000    0.4999950000000000 Zn
   0.7500050000000000    0.4999900000000000    0.2500000000000000 Zn
   0.7500150000000000    0.5026600000000000    0.4170100000000000 Zn
   0.0483250000000000    0.0029500000000000    0.5834000000000000 Zn
   0.2995400000000000    0.4967700000000000    0.9982949999999999 Zn
   0.4500450000000000    0.0000000000000000    0.5831400000000000 Zn
   0.0000000000000000    0.9973600000000000    0.8329949999999999 Zn
   0.2983300000000000    0.4970600000000000    0.6666000000000000 Zn
   0.0495400000000000    0.0032000000000000    0.7517150000000000 Zn
   0.2000400000000000    0.4999400000000000    0.6668499999999999 Zn
   0.2499900000000000    0.4973500000000000    0.5829950000000000 Zn
   0.4516850000000000    0.9970700000000000    0.9166000000000001 Zn
   0.2004650000000000    0.5032200000000000    0.5017100000000000 Zn
   0.0499600000000000    0.9999300000000000    0.9168550000000000 Zn
   0.4999850000000000    0.0026400000000000    0.6670050000000000 Zn
   0.2016800000000000    0.5029500000000000    0.8333999999999999 Zn
   0.4504700000000000    0.9968000000000000    0.7482850000000000 Zn
   0.2999650000000000    0.5000500000000000    0.8331450000000000 Zn
   0.0000000000000000    0.9999900000000000    0.9999950000000000 Zn
   0.2500050000000000    0.4999900000000000    0.7500000000000000 Zn
   0.2500150000000000    0.5026600000000000    0.9170100000000000 Zn
   0.5483250000000000    0.0029500000000000    0.5834000000000000 Zn
   0.7995399999999999    0.4967700000000000    0.9982949999999999 Zn
   0.9500450000000000    0.0000000000000000    0.5831400000000000 Zn
   0.5000000000000000    0.9973600000000000    0.8329949999999999 Zn
   0.7983300000000000    0.4970600000000000    0.6666000000000000 Zn
   0.5495400000000000    0.0032000000000000    0.7517150000000000 Zn
   0.7000400000000000    0.4999400000000000    0.6668499999999999 Zn
   0.7499899999999999    0.4973500000000000    0.5829950000000000 Zn
   0.9516850000000000    0.9970700000000000    0.9166000000000001 Zn
   0.7004650000000000    0.5032200000000000    0.5017100000000000 Zn
   0.5499600000000000    0.9999300000000000    0.9168550000000000 Zn
   0.9999850000000000    0.0026400000000000    0.6670050000000000 Zn
   0.7016800000000000    0.5029500000000000    0.8333999999999999 Zn
   0.9504699999999999    0.9968000000000000    0.7482850000000000 Zn
   0.7999650000000000    0.5000500000000000    0.8331450000000000 Zn
   0.5000000000000000    0.9999900000000000    0.9999950000000000 Zn
   0.7500050000000000    0.4999900000000000    0.7500000000000000 Zn
   0.7500150000000000    0.5026600000000000    0.9170100000000000 Zn
   0.4160550000000000    0.1626400000000000    0.4031300000000000 H
   0.3736800000000000    0.2828600000000000    0.4463000000000000 H
   0.3109400000000000    0.2955900000000000    0.3440550000000000 H
   0.3549550000000000    0.1779100000000000    0.3007800000000000 H
   0.0527450000000000    0.7732800000000000    0.4360350000000000 H
   0.1015900000000000    0.6647700000000000    0.3917700000000000 H
   0.1989650000000000    0.7325700000000001    0.4821950000000000 H
   0.1501350000000000    0.8413000000000000    0.0264450000000000 H
   0.3391850000000000    0.6608500000000000    0.4871050000000000 H
   0.3770500000000000    0.7870900000000000    0.0305400000000000 H
   0.4104650000000000    0.8407500000000000    0.4290650000000000 H
   0.3721800000000000    0.7151400000000000    0.3856300000000000 H
   0.1660400000000000    0.3373300000000000    0.3468700000000000 H
   0.1236800000000000    0.2170900000000000    0.3036750000000000 H
   0.0609500000000000    0.2043800000000000    0.4059550000000000 H
   0.1049550000000000    0.3220800000000000    0.4492250000000000 H
   0.3027950000000000    0.7267200000000000    0.3139800000000000 H
   0.3516550000000000    0.8352100000000000    0.3582350000000000 H
   0.4490200000000000    0.7673100000000000    0.2678100000000000 H
   0.4001700000000000    0.6586000000000000    0.2235650000000000 H
   0.0891750000000000    0.8391800000000000    0.2629000000000000 H
   0.1270450000000000    0.7129500000000000    0.2194500000000000 H
   0.1604550000000000    0.6592300000000000    0.3209250000000000 H
   0.1221700000000000    0.7848400000000000    0.3643600000000000 H
   0.0839500000000000    0.8373600000000000    0.0968500000000000 H
   0.1263200000000000    0.7171300000000000    0.0536650000000000 H
   0.1890600000000000    0.7044000000000000    0.1559450000000000 H
   0.1450500000000000    0.8220900000000000    0.1992000000000000 H
   0.4472550000000000    0.2267100000000000    0.0639700000000000 H
   0.3984050000000000    0.3352200000000000    0.1082350000000000 H
   0.3010350000000000    0.2674200000000000    0.0178100000000000 H
   0.3498650000000000    0.1586900000000000    0.4735600000000000 H
   0.1608200000000000    0.3391500000000000    0.0128500000000000 H
   0.1229500000000000    0.2129200000000000    0.4694550000000000 H
   0.0895350000000000    0.1592600000000000    0.0709300000000000 H
   0.1278200000000000    0.2848600000000000    0.1143650000000000 H
   0.3339650000000000    0.6626700000000000    0.1531250000000000 H
   0.3763300000000000    0.7829100000000000    0.1963250000000000 H
   0.4390550000000000    0.7956200000000000    0.0940450000000000 H
   0.3950500000000000    0.6779300000000000    0.0507750000000000 H
   0.1972050000000000    0.2732900000000000    0.1860200000000000 H
   0.1483400000000000    0.1648000000000000    0.1417650000000000 H
   0.0509750000000000    0.2327100000000000    0.2321950000000000 H
   0.0998300000000000    0.3414200000000000    0.2764400000000000 H
   0.4108300000000000    0.1608100000000000    0.2371000000000000 H
   0.3729650000000000    0.2870500000000000    0.2805450000000000 H
   0.3395450000000000    0.3407500000000000    0.1790500000000000 H
   0.3778250000000000    0.2151400000000000    0.1356350000000000 H
   0.9160550000000001    0.1626400000000000    0.4031300000000000 H
   0.8736800000000000    0.2828600000000000    0.4463000000000000 H
   0.8109400000000000    0.2955900000000000    0.3440550000000000 H
   0.8549550000000000    0.1779100000000000    0.3007800000000000 H
   0.5527450000000000    0.7732800000000000    0.4360350000000000 H
   0.6015900000000000    0.6647700000000000    0.3917700000000000 H
   0.6989650000000001    0.7325700000000001    0.4821950000000000 H
   0.6501350000000000    0.8413000000000000    0.0264450000000000 H
   0.8391850000000001    0.6608500000000000    0.4871050000000000 H
   0.8770500000000000    0.7870900000000000    0.0305400000000000 H
   0.9104650000000001    0.8407500000000000    0.4290650000000000 H
   0.8721800000000000    0.7151400000000000    0.3856300000000000 H
   0.6660400000000000    0.3373300000000000    0.3468700000000000 H
   0.6236800000000000    0.2170900000000000    0.3036750000000000 H
   0.5609499999999999    0.2043800000000000    0.4059550000000000 H
   0.6049550000000000    0.3220800000000000    0.4492250000000000 H
   0.8027949999999999    0.7267200000000000    0.3139800000000000 H
   0.8516550000000001    0.8352100000000000    0.3582350000000000 H
   0.9490200000000000    0.7673100000000000    0.2678100000000000 H
   0.9001700000000000    0.6586000000000000    0.2235650000000000 H
   0.5891750000000000    0.8391800000000000    0.2629000000000000 H
   0.6270450000000000    0.7129500000000000    0.2194500000000000 H
   0.6604550000000000    0.6592300000000000    0.3209250000000000 H
   0.6221700000000000    0.7848400000000000    0.3643600000000000 H
   0.5839500000000000    0.8373600000000000    0.0968500000000000 H
   0.6263200000000000    0.7171300000000000    0.0536650000000000 H
   0.6890600000000000    0.7044000000000000    0.1559450000000000 H
   0.6450500000000000    0.8220900000000000    0.1992000000000000 H
   0.9472550000000000    0.2267100000000000    0.0639700000000000 H
   0.8984050000000000    0.3352200000000000    0.1082350000000000 H
   0.8010349999999999    0.2674200000000000    0.0178100000000000 H
   0.8498650000000000    0.1586900000000000    0.4735600000000000 H
   0.6608200000000000    0.3391500000000000    0.0128500000000000 H
   0.6229500000000000    0.2129200000000000    0.4694550000000000 H
   0.5895350000000000    0.1592600000000000    0.0709300000000000 H
   0.6278200000000000    0.2848600000000000    0.1143650000000000 H
   0.8339650000000001    0.6626700000000000    0.1531250000000000 H
   0.8763300000000001    0.7829100000000000    0.1963250000000000 H
   0.9390550000000000    0.7956200000000000    0.0940450000000000 H
   0.8950500000000000    0.6779300000000000    0.0507750000000000 H
   0.6972050000000000    0.2732900000000000    0.1860200000000000 H
   0.6483400000000000    0.1648000000000000    0.1417650000000000 H
   0.5509750000000000    0.2327100000000000    0.2321950000000000 H
   0.5998300000000000    0.3414200000000000    0.2764400000000000 H
   0.9108300000000000    0.1608100000000000    0.2371000000000000 H
   0.8729650000000000    0.2870500000000000    0.2805450000000000 H
   0.8395450000000000    0.3407500000000000    0.1790500000000000 H
   0.8778250000000001    0.2151400000000000    0.1356350000000000 H
   0.4160550000000000    0.1626400000000000    0.9031300000000000 H
   0.3736800000000000    0.2828600000000000    0.9462999999999999 H
   0.3109400000000000    0.2955900000000000    0.8440550000000000 H
   0.3549550000000000    0.1779100000000000    0.8007800000000000 H
   0.0527450000000000    0.7732800000000000    0.9360350000000000 H
   0.1015900000000000    0.6647700000000000    0.8917700000000000 H
   0.1989650000000000    0.7325700000000001    0.9821949999999999 H
   0.1501350000000000    0.8413000000000000    0.5264450000000001 H
   0.3391850000000000    0.6608500000000000    0.9871050000000000 H
   0.3770500000000000    0.7870900000000000    0.5305400000000000 H
   0.4104650000000000    0.8407500000000000    0.9290650000000000 H
   0.3721800000000000    0.7151400000000000    0.8856299999999999 H
   0.1660400000000000    0.3373300000000000    0.8468700000000000 H
   0.1236800000000000    0.2170900000000000    0.8036749999999999 H
   0.0609500000000000    0.2043800000000000    0.9059550000000001 H
   0.1049550000000000    0.3220800000000000    0.9492250000000000 H
   0.3027950000000000    0.7267200000000000    0.8139799999999999 H
   0.3516550000000000    0.8352100000000000    0.8582350000000001 H
   0.4490200000000000    0.7673100000000000    0.7678100000000000 H
   0.4001700000000000    0.6586000000000000    0.7235650000000000 H
   0.0839500000000000    0.8373600000000000    0.5968500000000000 H
   0.1263200000000000    0.7171300000000000    0.5536650000000000 H
   0.1890600000000000    0.7044000000000000    0.6559450000000000 H
   0.1450500000000000    0.8220900000000000    0.6992000000000000 H
   0.4472550000000000    0.2267100000000000    0.5639700000000000 H
   0.3984050000000000    0.3352200000000000    0.6082350000000000 H
   0.3010350000000000    0.2674200000000000    0.5178100000000000 H
   0.3498650000000000    0.1586900000000000    0.9735600000000000 H
   0.1608200000000000    0.3391500000000000    0.5128500000000000 H
   0.1229500000000000    0.2129200000000000    0.9694550000000000 H
   0.0895350000000000    0.1592600000000000    0.5709300000000000 H
   0.1278200000000000    0.2848600000000000    0.6143650000000000 H
   0.3339650000000000    0.6626700000000000    0.6531250000000000 H
   0.3763300000000000    0.7829100000000000    0.6963250000000000 H
   0.4390550000000000    0.7956200000000000    0.5940450000000000 H
   0.3950500000000000    0.6779300000000000    0.5507750000000000 H
   0.1972050000000000    0.2732900000000000    0.6860200000000000 H
   0.1483400000000000    0.1648000000000000    0.6417650000000000 H
   0.0509750000000000    0.2327100000000000    0.7321950000000000 H
   0.0998300000000000    0.3414200000000000    0.7764400000000000 H
   0.4108300000000000    0.1608100000000000    0.7371000000000000 H
   0.3729650000000000    0.2870500000000000    0.7805450000000000 H
   0.3395450000000000    0.3407500000000000    0.6790499999999999 H
   0.3778250000000000    0.2151400000000000    0.6356350000000000 H
   0.9160550000000001    0.1626400000000000    0.9031300000000000 H
   0.8736800000000000    0.2828600000000000    0.9462999999999999 H
   0.8109400000000000    0.2955900000000000    0.8440550000000000 H
   0.8549550000000000    0.1779100000000000    0.8007800000000000 H
   0.5527450000000000    0.7732800000000000    0.9360350000000000 H
   0.6015900000000000    0.6647700000000000    0.8917700000000000 H
   0.6989650000000001    0.7325700000000001    0.9821949999999999 H
   0.6501350000000000    0.8413000000000000    0.5264450000000001 H
   0.8391850000000001    0.6608500000000000    0.9871050000000000 H
   0.8770500000000000    0.7870900000000000    0.5305400000000000 H
   0.9104650000000001    0.8407500000000000    0.9290650000000000 H
   0.8721800000000000    0.7151400000000000    0.8856299999999999 H
   0.6660400000000000    0.3373300000000000    0.8468700000000000 H
   0.6236800000000000    0.2170900000000000    0.8036749999999999 H
   0.5609499999999999    0.2043800000000000    0.9059550000000001 H
   0.6049550000000000    0.3220800000000000    0.9492250000000000 H
   0.8027949999999999    0.7267200000000000    0.8139799999999999 H
   0.8516550000000001    0.8352100000000000    0.8582350000000001 H
   0.9490200000000000    0.7673100000000000    0.7678100000000000 H
   0.9001700000000000    0.6586000000000000    0.7235650000000000 H
   0.5891750000000000    0.8391800000000000    0.7629000000000000 H
   0.6270450000000000    0.7129500000000000    0.7194500000000000 H
   0.6604550000000000    0.6592300000000000    0.8209250000000000 H
   0.6221700000000000    0.7848400000000000    0.8643600000000000 H
   0.5839500000000000    0.8373600000000000    0.5968500000000000 H
   0.6263200000000000    0.7171300000000000    0.5536650000000000 H
   0.6890600000000000    0.7044000000000000    0.6559450000000000 H
   0.6450500000000000    0.8220900000000000    0.6992000000000000 H
   0.9472550000000000    0.2267100000000000    0.5639700000000000 H
   0.8984050000000000    0.3352200000000000    0.6082350000000000 H
   0.8010349999999999    0.2674200000000000    0.5178100000000000 H
   0.8498650000000000    0.1586900000000000    0.9735600000000000 H
   0.6608200000000000    0.3391500000000000    0.5128500000000000 H
   0.6229500000000000    0.2129200000000000    0.9694550000000000 H
   0.5895350000000000    0.1592600000000000    0.5709300000000000 H
   0.6278200000000000    0.2848600000000000    0.6143650000000000 H
   0.8339650000000001    0.6626700000000000    0.6531250000000000 H
   0.8763300000000001    0.7829100000000000    0.6963250000000000 H
   0.9390550000000000    0.7956200000000000    0.5940450000000000 H
   0.8950500000000000    0.6779300000000000    0.5507750000000000 H
   0.6972050000000000    0.2732900000000000    0.6860200000000000 H
   0.6483400000000000    0.1648000000000000    0.6417650000000000 H
   0.5509750000000000    0.2327100000000000    0.7321950000000000 H
   0.5998300000000000    0.3414200000000000    0.7764400000000000 H
   0.9108300000000000    0.1608100000000000    0.7371000000000000 H
   0.8729650000000000    0.2870500000000000    0.7805450000000000 H
   0.8395450000000000    0.3407500000000000    0.6790499999999999 H
   0.8778250000000001    0.2151400000000000    0.6356350000000000 H
   0.4168250000000000    0.0955800000000000    0.3234550000000000 C
   0.3888850000000000    0.1640100000000000    0.3491500000000000 C
   0.3934850000000000    0.1928000000000000    0.3903300000000000 C
   0.3695500000000000    0.2593000000000000    0.4144600000000000 C
   0.3396950000000000    0.2968700000000000    0.3979100000000000 C
   0.3142200000000000    0.3692000000000000    0.4237100000000000 C
   0.3341550000000000    0.2665100000000000    0.3568450000000000 C
   0.3587700000000000    0.2011100000000000    0.3326700000000000 C
   0.0691350000000000    0.8793700000000000    0.0101050000000000 C
   0.0984500000000000    0.8140300000000000    0.4839000000000000 C
   0.0848950000000000    0.7642099999999999    0.4458600000000000 C
   0.1120150000000000    0.7038200000000000    0.4212500000000000 C
   0.1532950000000000    0.6920700000000000    0.4342850000000000 C
   0.1824800000000000    0.6265300000000000    0.4079850000000000 C
   0.1668450000000000    0.7418100000000000    0.4723450000000000 C
   0.1397450000000000    0.8023100000000000    0.4969450000000000 C
   0.3294500000000000    0.6062700000000000    0.4078750000000000 C
   0.3532150000000000    0.6805800000000000    0.4337000000000000 C
   0.3546100000000000    0.7006599999999999    0.4745850000000000 C
   0.3759650000000000    0.7705300000000000    0.4987750000000000 C
   0.3965200000000000    0.8209300000000000    0.4824700000000000 C
   0.4206100000000000    0.8946100000000000    0.0084650000000000 C
   0.3950050000000000    0.8010000000000000    0.4416000000000000 C
   0.3735250000000000    0.7312400000000000    0.4173850000000000 C
   0.1668150000000000    0.4044100000000000    0.4265000000000000 C
   0.1388800000000000    0.3359700000000000    0.4008100000000000 C
   0.1434800000000000    0.3071600000000000    0.3596750000000000 C
   0.1195500000000000    0.2406600000000000    0.3355000000000000 C
   0.0897050000000000    0.2030800000000000    0.3520950000000000 C
   0.0642350000000000    0.1307500000000000    0.3263000000000000 C
   0.0841650000000000    0.2334600000000000    0.3931600000000000 C
   0.1087700000000000    0.2988700000000000    0.4173350000000000 C
   0.3191550000000000    0.6206199999999999    0.2399000000000000 C
   0.3484950000000000    0.6859300000000000    0.2661100000000000 C
   0.3349450000000000    0.7357700000000000    0.3041500000000000 C
   0.3620700000000000    0.7961400000000000    0.3287550000000000 C
   0.4033550000000000    0.8078700000000000    0.3157150000000000 C
   0.4325250000000000    0.8734400000000000    0.3420150000000000 C
   0.4169000000000000    0.7581000000000000    0.2776600000000000 C
   0.3897900000000000    0.6976100000000000    0.2530700000000000 C
   0.0794400000000000    0.8937400000000000    0.3421300000000000 C
   0.1032050000000000    0.8194300000000000    0.3163000000000000 C
   0.1046050000000000    0.7993600000000000    0.2754200000000000 C
   0.1259600000000000    0.7295000000000000    0.2512000000000000 C
   0.1465100000000000    0.6790800000000000    0.2675200000000000 C
   0.1706000000000000    0.6054000000000000    0.2415150000000000 C
   0.1450000000000000    0.6990000000000000    0.3083900000000000 C
   0.1235150000000000    0.7687500000000000    0.3326100000000000 C
   0.0831800000000000    0.9044200000000000    0.1765450000000000 C
   0.1111150000000000    0.8359900000000000    0.1508050000000000 C
   0.1065150000000000    0.8071900000000000    0.1096700000000000 C
   0.1304500000000000    0.7406900000000000    0.0855400000000000 C
   0.1603050000000000    0.7031200000000000    0.1020900000000000 C
   0.1857750000000000    0.6307900000000000    0.0762900000000000 C
   0.1658450000000000    0.7334800000000000    0.1431550000000000 C
   0.1412300000000000    0.7988800000000000    0.1673250000000000 C
   0.4308700000000000    0.1206300000000000    0.4895000000000000 C
   0.4015450000000000    0.1859600000000000    0.0161000000000000 C
   0.4151050000000000    0.2357800000000000    0.0541400000000000 C
   0.3879850000000000    0.2961700000000000    0.0787500000000000 C
   0.3467000000000000    0.3079200000000000    0.0657150000000000 C
   0.3175200000000000    0.3734700000000000    0.0920200000000000 C
   0.3331550000000000    0.2581800000000000    0.0276550000000000 C
   0.3602550000000000    0.1976800000000000    0.0030600000000000 C
   0.1705550000000000    0.3937300000000000    0.0921250000000000 C
   0.1467900000000000    0.3194300000000000    0.0660000000000000 C
   0.1453900000000000    0.2993400000000000    0.0254150000000000 C
   0.1240350000000000    0.2294800000000000    0.0012200000000000 C
   0.1034850000000000    0.1790700000000000    0.0175250000000000 C
   0.0793950000000000    0.1053900000000000    0.4915000000000000 C
   0.1049950000000000    0.1990100000000000    0.0583950000000000 C
   0.1264750000000000    0.2687700000000000    0.0826150000000000 C
   0.3331900000000000    0.5956000000000000    0.0734500000000000 C
   0.3611250000000000    0.6640300000000000    0.0991850000000000 C
   0.3565300000000000    0.6928400000000000    0.1403250000000000 C
   0.3804550000000000    0.7593400000000000    0.1644500000000000 C
   0.4103050000000000    0.7969100000000000    0.1479000000000000 C
   0.4357800000000000    0.8692400000000000    0.1737000000000000 C
   0.4158400000000000    0.7665400000000000    0.1068350000000000 C
   0.3912300000000000    0.7011400000000000    0.0826650000000000 C
   0.1808450000000000    0.3793900000000000    0.2601000000000000 C
   0.1515050000000000    0.3140800000000000    0.2338900000000000 C
   0.1650550000000000    0.2642500000000000    0.1958500000000000 C
   0.1379250000000000    0.2038700000000000    0.1712500000000000 C
   0.0966400000000000    0.1921400000000000    0.1842500000000000 C
   0.0674750000000000    0.1265700000000000    0.1579900000000000 C
   0.0831000000000000    0.2419100000000000    0.2223450000000000 C
   0.1102100000000000    0.3024000000000000    0.2469350000000000 C
   0.4205650000000000    0.1062500000000000    0.1578700000000000 C
   0.3967950000000000    0.1805600000000000    0.1836950000000000 C
   0.3954000000000000    0.2006300000000000    0.2245800000000000 C
   0.3740400000000000    0.2704900000000000    0.2487750000000000 C
   0.3534900000000000    0.3209100000000000    0.2324750000000000 C
   0.3294050000000000    0.3945900000000000    0.2584800000000000 C
   0.3550000000000000    0.3009900000000000    0.1916050000000000 C
   0.3764800000000000    0.2312300000000000    0.1673850000000000 C
   0.9168250000000000    0.0955800000000000    0.3234550000000000 C
   0.8888849999999999    0.1640100000000000    0.3491500000000000 C
   0.8934850000000000    0.1928000000000000    0.3903300000000000 C
   0.8695500000000000    0.2593000000000000    0.4144600000000000 C
   0.8396950000000001    0.2968700000000000    0.3979100000000000 C
   0.8142199999999999    0.3692000000000000    0.4237100000000000 C
   0.8341550000000000    0.2665100000000000    0.3568450000000000 C
   0.8587700000000000    0.2011100000000000    0.3326700000000000 C
   0.5691349999999999    0.8793700000000000    0.0101050000000000 C
   0.5984500000000000    0.8140300000000000    0.4839000000000000 C
   0.5848949999999999    0.7642099999999999    0.4458600000000000 C
   0.6120150000000000    0.7038200000000000    0.4212500000000000 C
   0.6532950000000000    0.6920700000000000    0.4342850000000000 C
   0.6824800000000000    0.6265300000000000    0.4079850000000000 C
   0.6668450000000000    0.7418100000000000    0.4723450000000000 C
   0.6397450000000000    0.8023100000000000    0.4969450000000000 C
   0.8294500000000000    0.6062700000000000    0.4078750000000000 C
   0.8532150000000001    0.6805800000000000    0.4337000000000000 C
   0.8546100000000000    0.7006599999999999    0.4745850000000000 C
   0.8759650000000000    0.7705300000000000    0.4987750000000000 C
   0.8965200000000000    0.8209300000000000    0.4824700000000000 C
   0.9206099999999999    0.8946100000000000    0.0084650000000000 C
   0.8950050000000001    0.8010000000000000    0.4416000000000000 C
   0.8735250000000000    0.7312400000000000    0.4173850000000000 C
   0.6668149999999999    0.4044100000000000    0.4265000000000000 C
   0.6388800000000000    0.3359700000000000    0.4008100000000000 C
   0.6434800000000001    0.3071600000000000    0.3596750000000000 C
   0.6195500000000000    0.2406600000000000    0.3355000000000000 C
   0.5897050000000000    0.2030800000000000    0.3520950000000000 C
   0.5642350000000000    0.1307500000000000    0.3263000000000000 C
   0.5841650000000000    0.2334600000000000    0.3931600000000000 C
   0.6087700000000000    0.2988700000000000    0.4173350000000000 C
   0.8191550000000001    0.6206199999999999    0.2399000000000000 C
   0.8484950000000000    0.6859300000000000    0.2661100000000000 C
   0.8349450000000000    0.7357700000000000    0.3041500000000000 C
   0.8620700000000000    0.7961400000000000    0.3287550000000000 C
   0.9033550000000000    0.8078700000000000    0.3157150000000000 C
   0.9325250000000000    0.8734400000000000    0.3420150000000000 C
   0.9169000000000000    0.7581000000000000    0.2776600000000000 C
   0.8897900000000001    0.6976100000000000    0.2530700000000000 C
   0.5794400000000000    0.8937400000000000    0.3421300000000000 C
   0.6032050000000000    0.8194300000000000    0.3163000000000000 C
   0.6046050000000001    0.7993600000000000    0.2754200000000000 C
   0.6259600000000000    0.7295000000000000    0.2512000000000000 C
   0.6465100000000000    0.6790800000000000    0.2675200000000000 C
   0.6706000000000000    0.6054000000000000    0.2415150000000000 C
   0.6450000000000000    0.6990000000000000    0.3083900000000000 C
   0.6235150000000000    0.7687500000000000    0.3326100000000000 C
   0.5831800000000000    0.9044200000000000    0.1765450000000000 C
   0.6111150000000000    0.8359900000000000    0.1508050000000000 C
   0.6065150000000000    0.8071900000000000    0.1096700000000000 C
   0.6304500000000000    0.7406900000000000    0.0855400000000000 C
   0.6603050000000000    0.7031200000000000    0.1020900000000000 C
   0.6857750000000000    0.6307900000000000    0.0762900000000000 C
   0.6658450000000000    0.7334800000000000    0.1431550000000000 C
   0.6412300000000000    0.7988800000000000    0.1673250000000000 C
   0.9308700000000000    0.1206300000000000    0.4895000000000000 C
   0.9015450000000000    0.1859600000000000    0.0161000000000000 C
   0.9151050000000001    0.2357800000000000    0.0541400000000000 C
   0.8879850000000000    0.2961700000000000    0.0787500000000000 C
   0.8467000000000000    0.3079200000000000    0.0657150000000000 C
   0.8175200000000000    0.3734700000000000    0.0920200000000000 C
   0.8331550000000000    0.2581800000000000    0.0276550000000000 C
   0.8602550000000000    0.1976800000000000    0.0030600000000000 C
   0.6705550000000000    0.3937300000000000    0.0921250000000000 C
   0.6467900000000000    0.3194300000000000    0.0660000000000000 C
   0.6453900000000000    0.2993400000000000    0.0254150000000000 C
   0.6240350000000000    0.2294800000000000    0.0012200000000000 C
   0.6034850000000000    0.1790700000000000    0.0175250000000000 C
   0.5793950000000000    0.1053900000000000    0.4915000000000000 C
   0.6049949999999999    0.1990100000000000    0.0583950000000000 C
   0.6264750000000000    0.2687700000000000    0.0826150000000000 C
   0.8331900000000000    0.5956000000000000    0.0734500000000000 C
   0.8611249999999999    0.6640300000000000    0.0991850000000000 C
   0.8565300000000000    0.6928400000000000    0.1403250000000000 C
   0.8804550000000000    0.7593400000000000    0.1644500000000000 C
   0.9103049999999999    0.7969100000000000    0.1479000000000000 C
   0.9357800000000001    0.8692400000000000    0.1737000000000000 C
   0.9158400000000000    0.7665400000000000    0.1068350000000000 C
   0.8912300000000000    0.7011400000000000    0.0826650000000000 C