H12 C6 N4
1.0
  39.7438779401645519    0.0000000000000000    0.0985001385871959
   0.0007489421617914   14.5439990946454980    0.0050768136251026
   0.0000000000000000    0.0000000000000000   18.1239999999999988
H C N
12 6 4
direct
   0.4771733333333333    0.0397100000000000    0.0000000000000000 H
   0.4711633333333333    0.1260400000000000    0.0604100000000000 H
   0.4353533333333333    0.9207800000000000    0.9728800000000000 H
   0.4451733333333333    0.0390200000000000    0.8830000000000000 H
   0.4142233333333333    0.1262000000000000    0.8666700000000001 H
   0.4045766666666666    0.2433900000000000    0.9583199999999999 H
   0.3561166666666666    0.0394900000000000    0.0084600000000000 H
   0.3620566666666666    0.1257600000000000    0.9396200000000000 H
   0.3979933333333333    0.9207000000000000    0.0274200000000000 H
   0.3880933333333333    0.0391400000000000    0.1171700000000000 H
   0.4190300000000000    0.1264500000000000    0.1333300000000000 H
   0.4286033333333333    0.2435100000000000    0.0414900000000000 H
   0.3747800000000000    0.0837400000000000    0.9812200000000000 C
   0.4069033333333333    0.0839300000000000    0.0910500000000000 C
   0.4584700000000000    0.0839100000000000    0.0188600000000000 C
   0.4263500000000000    0.0838000000000000    0.9090400000000000 C
   0.4166500000000000    0.9646800000000000    0.0001100000000000 C
   0.4165966666666666    0.1994400000000000    0.9999400000000001 C
   0.3998933333333333    0.0229600000000000    0.9431300000000000 N
   0.3906966666666666    0.1424400000000000    0.0363200000000000 N
   0.4333733333333333    0.0231000000000000    0.0570400000000000 N
   0.4425266666666666    0.1424500000000000    0.9636800000000000 N
