H8 O5
1.0
  39.7438779401645519    0.0000000000000000    0.0985001385871959
   0.0007489421617914   14.5439990946454980    0.0050768136251026
   0.0000000000000000    0.0000000000000000   18.1239999999999988
H O
8 5
direct
   0.8204152245786628    0.7886399859770045    0.2358407549447880 H
   0.8500416504907886    0.8708053827755423    0.2368685809405280 H
   0.8942564108832044    0.5744988904598887    0.2220891088081455 H
   0.9138514343311472    0.7277397049224100    0.4021762678546835 H
   0.9021191523372518    0.6557335746549046    0.3121267970787634 H
   0.7811818110136112    0.6221926168911103    0.2370782328192071 H
   0.8617329416705075    0.5692049880130666    0.3675326211985032 H
   0.8234053439147606    0.5998379242558785    0.3028032313493327 H
   0.8272366666666666    0.8515300000000000    0.2237700000000000 O
   0.9065033333333332    0.5936700000000000    0.2656800000000000 O
   0.9172633333333333    0.6794400000000000    0.3660300000000000 O
   0.7953933333333333    0.5893300000000000    0.2716200000000000 O
   0.8401533333333333    0.5611100000000000    0.3435100000000000 O
