H5 C4 N2
1.0
  31.2716887029934263    0.0000000000000000  -15.4547521009905999
  -3.4088170613806903   22.9245529971239463   -2.1487233707705231
   0.0000000000000000    0.0000000000000000   23.3014000000000010
H C N
5 4 2
direct
   0.1841066666666667    0.6693100000000000    0.5636700000000000 H
   0.2677600000000000    0.6431000000000000    0.6216400000000000 H
   0.1812333333333333    0.6329450000000000    0.7620000000000000 H
   0.2294500000000000    0.6005250000000000    0.7931349999999999 H
   0.2322466666666667    0.6776000000000000    0.8074300000000000 H
   0.2184766666666667    0.6428300000000000    0.7104950000000000 C
   0.2031400000000000    0.6590900000000000    0.6118600000000000 C
   0.2445533333333333    0.6458950000000000    0.6405350000000000 C
   0.2152433333333333    0.6382150000000000    0.7715500000000000 C
   0.1867166666666667    0.6570250000000000    0.6561399999999999 N
   0.2540500000000000    0.6353150000000000    0.7026749999999999 N
