Ag96 H475 C380 N190
1.0
  31.2716887029934263    0.0000000000000000  -15.4547521009905999
  -3.4088170613806903   22.9245529971239463   -2.1487233707705231
   0.0000000000000000    0.0000000000000000   23.3014000000000010
Ag H C N
96 475 380 190
direct
   0.3133166666666666    0.1239950000000000    0.2801800000000000 Ag
   0.0686900000000000    0.0715350000000000    0.0594600000000000 Ag
   0.0003933333333333    0.2509300000000000    0.2502350000000000 Ag
   0.3331600000000000    0.4990750000000000    0.2493950000000000 Ag
   0.2061566666666667    0.3220450000000000    0.3533250000000000 Ag
   0.0200266666666667    0.3760050000000000    0.2198300000000000 Ag
   0.2646533333333333    0.4284650000000000    0.4405550000000000 Ag
   0.1271866666666667    0.1779550000000000    0.1466850000000000 Ag
   0.6466499999999999    0.1239950000000000    0.2801800000000000 Ag
   0.4020233333333333    0.0715350000000000    0.0594600000000000 Ag
   0.3337266666666667    0.2509300000000000    0.2502350000000000 Ag
   0.6664933333333334    0.4990750000000000    0.2493950000000000 Ag
   0.5394900000000000    0.3220450000000000    0.3533250000000000 Ag
   0.3533600000000000    0.3760050000000000    0.2198300000000000 Ag
   0.5979866666666667    0.4284650000000000    0.4405550000000000 Ag
   0.4605200000000000    0.1779550000000000    0.1466850000000000 Ag
   0.9799833333333332    0.1239950000000000    0.2801800000000000 Ag
   0.7353566666666667    0.0715350000000000    0.0594600000000000 Ag
   0.6670600000000000    0.2509300000000000    0.2502350000000000 Ag
   0.9998266666666666    0.4990750000000000    0.2493950000000000 Ag
   0.8728233333333333    0.3220450000000000    0.3533250000000000 Ag
   0.6866933333333333    0.3760050000000000    0.2198300000000000 Ag
   0.9313199999999999    0.4284650000000000    0.4405550000000000 Ag
   0.7938533333333333    0.1779550000000000    0.1466850000000000 Ag
   0.3133166666666666    0.6239950000000000    0.2801800000000000 Ag
   0.0686900000000000    0.5715350000000000    0.0594600000000000 Ag
   0.0003933333333333    0.7509300000000000    0.2502350000000000 Ag
   0.3331600000000000    0.9990749999999999    0.2493950000000000 Ag
   0.2061566666666667    0.8220450000000000    0.3533250000000000 Ag
   0.0200266666666667    0.8760049999999999    0.2198300000000000 Ag
   0.2646533333333333    0.9284650000000000    0.4405550000000000 Ag
   0.1271866666666667    0.6779550000000000    0.1466850000000000 Ag
   0.6466499999999999    0.6239950000000000    0.2801800000000000 Ag
   0.4020233333333333    0.5715350000000000    0.0594600000000000 Ag
   0.3337266666666667    0.7509300000000000    0.2502350000000000 Ag
   0.6664933333333334    0.9990749999999999    0.2493950000000000 Ag
   0.5394900000000000    0.8220450000000000    0.3533250000000000 Ag
   0.3533600000000000    0.8760049999999999    0.2198300000000000 Ag
   0.5979866666666667    0.9284650000000000    0.4405550000000000 Ag
   0.4605200000000000    0.6779550000000000    0.1466850000000000 Ag
   0.9799833333333332    0.6239950000000000    0.2801800000000000 Ag
   0.7353566666666667    0.5715350000000000    0.0594600000000000 Ag
   0.6670600000000000    0.7509300000000000    0.2502350000000000 Ag
   0.9998266666666666    0.9990749999999999    0.2493950000000000 Ag
   0.8728233333333333    0.8220450000000000    0.3533250000000000 Ag
   0.6866933333333333    0.8760049999999999    0.2198300000000000 Ag
   0.9313199999999999    0.9284650000000000    0.4405550000000000 Ag
   0.7938533333333333    0.6779550000000000    0.1466850000000000 Ag
   0.3133166666666666    0.1239950000000000    0.7801800000000000 Ag
   0.0686900000000000    0.0715350000000000    0.5594600000000000 Ag
   0.0003933333333333    0.2509300000000000    0.7502350000000000 Ag
   0.3331600000000000    0.4990750000000000    0.7493950000000000 Ag
   0.2061566666666667    0.3220450000000000    0.8533250000000000 Ag
   0.0200266666666667    0.3760050000000000    0.7198300000000000 Ag
   0.2646533333333333    0.4284650000000000    0.9405550000000000 Ag
   0.1271866666666667    0.1779550000000000    0.6466850000000000 Ag
   0.6466499999999999    0.1239950000000000    0.7801800000000000 Ag
   0.4020233333333333    0.0715350000000000    0.5594600000000000 Ag
   0.3337266666666667    0.2509300000000000    0.7502350000000000 Ag
   0.6664933333333334    0.4990750000000000    0.7493950000000000 Ag
   0.5394900000000000    0.3220450000000000    0.8533250000000000 Ag
   0.3533600000000000    0.3760050000000000    0.7198300000000000 Ag
   0.5979866666666667    0.4284650000000000    0.9405550000000000 Ag
   0.4605200000000000    0.1779550000000000    0.6466850000000000 Ag
   0.9799833333333332    0.1239950000000000    0.7801800000000000 Ag
   0.7353566666666667    0.0715350000000000    0.5594600000000000 Ag
   0.6670600000000000    0.2509300000000000    0.7502350000000000 Ag
   0.9998266666666666    0.4990750000000000    0.7493950000000000 Ag
   0.8728233333333333    0.3220450000000000    0.8533250000000000 Ag
   0.6866933333333333    0.3760050000000000    0.7198300000000000 Ag
   0.9313199999999999    0.4284650000000000    0.9405550000000000 Ag
   0.7938533333333333    0.1779550000000000    0.6466850000000000 Ag
   0.3133166666666666    0.6239950000000000    0.7801800000000000 Ag
   0.0686900000000000    0.5715350000000000    0.5594600000000000 Ag
   0.0003933333333333    0.7509300000000000    0.7502350000000000 Ag
   0.3331600000000000    0.9990749999999999    0.7493950000000000 Ag
   0.2061566666666667    0.8220450000000000    0.8533250000000000 Ag
   0.0200266666666667    0.8760049999999999    0.7198300000000000 Ag
   0.2646533333333333    0.9284650000000000    0.9405550000000000 Ag
   0.1271866666666667    0.6779550000000000    0.6466850000000000 Ag
   0.6466499999999999    0.6239950000000000    0.7801800000000000 Ag
   0.4020233333333333    0.5715350000000000    0.5594600000000000 Ag
   0.3337266666666667    0.7509300000000000    0.7502350000000000 Ag
   0.6664933333333334    0.9990749999999999    0.7493950000000000 Ag
   0.5394900000000000    0.8220450000000000    0.8533250000000000 Ag
   0.3533600000000000    0.8760049999999999    0.7198300000000000 Ag
   0.5979866666666667    0.9284650000000000    0.9405550000000000 Ag
   0.4605200000000000    0.6779550000000000    0.6466850000000000 Ag
   0.9799833333333332    0.6239950000000000    0.7801800000000000 Ag
   0.7353566666666667    0.5715350000000000    0.5594600000000000 Ag
   0.6670600000000000    0.7509300000000000    0.7502350000000000 Ag
   0.9998266666666666    0.9990749999999999    0.7493950000000000 Ag
   0.8728233333333333    0.8220450000000000    0.8533250000000000 Ag
   0.6866933333333333    0.8760049999999999    0.7198300000000000 Ag
   0.9313199999999999    0.9284650000000000    0.9405550000000000 Ag
   0.7938533333333333    0.6779550000000000    0.6466850000000000 Ag
   0.1841066666666667    0.1693100000000000    0.0636700000000000 H
   0.2677600000000000    0.1431000000000000    0.1216400000000000 H
   0.1812333333333333    0.1329450000000000    0.2620000000000000 H
   0.2294500000000000    0.1005250000000000    0.2931350000000000 H
   0.2322466666666667    0.1776000000000000    0.3074300000000000 H
   0.0857733333333333    0.1042950000000000    0.3488900000000000 H
   0.1242300000000000    0.0786100000000000    0.4743450000000000 H
   0.3044000000000000    0.1483950000000000    0.4053600000000000 H
   0.2948166666666666    0.0714400000000000    0.4019500000000000 H
   0.3251433333333333    0.1166900000000000    0.4779800000000000 H
   0.2993966666666666    0.2777750000000000    0.4505400000000000 H
   0.0238900000000000    0.2502150000000000    0.4037150000000000 H
   0.2081533333333333    0.2848550000000000    0.2191150000000000 H
   0.2526000000000000    0.2965700000000000    0.2016350000000000 H
   0.2393866666666667    0.3554000000000000    0.2410350000000000 H
   0.0343166666666667    0.2227000000000000    0.0495750000000000 H
   0.3101833333333333    0.2513950000000000    0.0966850000000000 H
   0.0815166666666667    0.2052650000000000    0.2988650000000000 H
   0.1258300000000000    0.2159650000000000    0.2809350000000000 H
   0.0941866666666667    0.1457700000000000    0.2595450000000000 H
   0.1996366666666667    0.4723200000000000    0.3013100000000000 H
   0.2307100000000000    0.4997750000000000    0.2145450000000000 H
   0.0210500000000000    0.4656850000000000    0.4375400000000000 H
   0.0325300000000000    0.4534950000000000    0.3708400000000000 H
   0.0063733333333333    0.3949450000000000    0.3910800000000000 H
   0.1336200000000000    0.0272250000000000    0.1981600000000000 H
   0.1023233333333333    0.4986400000000000    0.2843500000000000 H
   0.3004533333333334    0.0446850000000000    0.1279400000000000 H
   0.3122433333333333    0.0334650000000000    0.0614450000000000 H
   0.3265700000000000    0.1038800000000000    0.1084850000000000 H
   0.1492333333333333    0.3306900000000000    0.4363400000000000 H
   0.0655833333333333    0.3569000000000000    0.3783750000000000 H
   0.1521066666666667    0.3670550000000000    0.2380150000000000 H
   0.1038933333333333    0.3994750000000000    0.2068800000000000 H
   0.1010966666666667    0.3224000000000000    0.1925850000000000 H
   0.2475700000000000    0.3957050000000000    0.1511250000000000 H
   0.2091100000000000    0.4213950000000000    0.0256700000000000 H
   0.0289433333333333    0.3516050000000000    0.0946550000000000 H
   0.0385266666666667    0.4285600000000000    0.0980650000000000 H
   0.0082000000000000    0.3833100000000000    0.0220350000000000 H
   0.5174400000000000    0.1693100000000000    0.0636700000000000 H
   0.6010933333333333    0.1431000000000000    0.1216400000000000 H
   0.5145666666666666    0.1329450000000000    0.2620000000000000 H
   0.5627833333333333    0.1005250000000000    0.2931350000000000 H
   0.5655800000000000    0.1776000000000000    0.3074300000000000 H
   0.4191066666666666    0.1042950000000000    0.3488900000000000 H
   0.4575633333333333    0.0786100000000000    0.4743450000000000 H
   0.6377333333333333    0.1483950000000000    0.4053600000000000 H
   0.6281500000000000    0.0714400000000000    0.4019500000000000 H
   0.6584766666666666    0.1166900000000000    0.4779800000000000 H
   0.6327300000000000    0.2777750000000000    0.4505400000000000 H
   0.3572233333333333    0.2502150000000000    0.4037150000000000 H
   0.5414866666666667    0.2848550000000000    0.2191150000000000 H
   0.5859333333333333    0.2965700000000000    0.2016350000000000 H
   0.5727200000000000    0.3554000000000000    0.2410350000000000 H
   0.3676500000000000    0.2227000000000000    0.0495750000000000 H
   0.6435166666666666    0.2513950000000000    0.0966850000000000 H
   0.4148499999999999    0.2052650000000000    0.2988650000000000 H
   0.4591633333333333    0.2159650000000000    0.2809350000000000 H
   0.4275200000000000    0.1457700000000000    0.2595450000000000 H
   0.5329699999999999    0.4723200000000000    0.3013100000000000 H
   0.5640433333333333    0.4997750000000000    0.2145450000000000 H
   0.3543833333333333    0.4656850000000000    0.4375400000000000 H
   0.3658633333333333    0.4534950000000000    0.3708400000000000 H
   0.3397066666666667    0.3949450000000000    0.3910800000000000 H
   0.4669533333333333    0.0272250000000000    0.1981600000000000 H
   0.4356566666666666    0.4986400000000000    0.2843500000000000 H
   0.6337866666666667    0.0446850000000000    0.1279400000000000 H
   0.6455766666666667    0.0334650000000000    0.0614450000000000 H
   0.6599033333333333    0.1038800000000000    0.1084850000000000 H
   0.4825666666666666    0.3306900000000000    0.4363400000000000 H
   0.3989166666666666    0.3569000000000000    0.3783750000000000 H
   0.4854400000000000    0.3670550000000000    0.2380150000000000 H
   0.4372266666666667    0.3994750000000000    0.2068800000000000 H
   0.4344300000000000    0.3224000000000000    0.1925850000000000 H
   0.5809033333333333    0.3957050000000000    0.1511250000000000 H
   0.5424433333333334    0.4213950000000000    0.0256700000000000 H
   0.3622766666666666    0.3516050000000000    0.0946550000000000 H
   0.3718600000000000    0.4285600000000000    0.0980650000000000 H
   0.3415333333333333    0.3833100000000000    0.0220350000000000 H
   0.8507733333333333    0.1693100000000000    0.0636700000000000 H
   0.9344266666666666    0.1431000000000000    0.1216400000000000 H
   0.8478999999999999    0.1329450000000000    0.2620000000000000 H
   0.8961166666666667    0.1005250000000000    0.2931350000000000 H
   0.8989133333333332    0.1776000000000000    0.3074300000000000 H
   0.7524400000000000    0.1042950000000000    0.3488900000000000 H
   0.7908966666666666    0.0786100000000000    0.4743450000000000 H
   0.9710666666666666    0.1483950000000000    0.4053600000000000 H
   0.9614833333333332    0.0714400000000000    0.4019500000000000 H
   0.9918100000000000    0.1166900000000000    0.4779800000000000 H
   0.9660633333333333    0.2777750000000000    0.4505400000000000 H
   0.6905566666666666    0.2502150000000000    0.4037150000000000 H
   0.8748199999999999    0.2848550000000000    0.2191150000000000 H
   0.9192666666666667    0.2965700000000000    0.2016350000000000 H
   0.9060533333333333    0.3554000000000000    0.2410350000000000 H
   0.7009833333333333    0.2227000000000000    0.0495750000000000 H
   0.9768500000000000    0.2513950000000000    0.0966850000000000 H
   0.7481833333333333    0.2052650000000000    0.2988650000000000 H
   0.7924966666666666    0.2159650000000000    0.2809350000000000 H
   0.7608533333333333    0.1457700000000000    0.2595450000000000 H
   0.8663033333333333    0.4723200000000000    0.3013100000000000 H
   0.8973766666666666    0.4997750000000000    0.2145450000000000 H
   0.6877166666666666    0.4656850000000000    0.4375400000000000 H
   0.6991966666666666    0.4534950000000000    0.3708400000000000 H
   0.6730400000000000    0.3949450000000000    0.3910800000000000 H
   0.8002866666666666    0.0272250000000000    0.1981600000000000 H
   0.7689900000000000    0.4986400000000000    0.2843500000000000 H
   0.9671200000000000    0.0446850000000000    0.1279400000000000 H
   0.9789099999999999    0.0334650000000000    0.0614450000000000 H
   0.9932366666666665    0.1038800000000000    0.1084850000000000 H
   0.8159000000000000    0.3306900000000000    0.4363400000000000 H
   0.7322500000000000    0.3569000000000000    0.3783750000000000 H
   0.8187733333333334    0.3670550000000000    0.2380150000000000 H
   0.7705599999999999    0.3994750000000000    0.2068800000000000 H
   0.7677633333333334    0.3224000000000000    0.1925850000000000 H
   0.9142366666666666    0.3957050000000000    0.1511250000000000 H
   0.8757766666666666    0.4213950000000000    0.0256700000000000 H
   0.6956100000000000    0.3516050000000000    0.0946550000000000 H
   0.7051933333333333    0.4285600000000000    0.0980650000000000 H
   0.6748666666666666    0.3833100000000000    0.0220350000000000 H
   0.1841066666666667    0.6693100000000000    0.0636700000000000 H
   0.2677600000000000    0.6431000000000000    0.1216400000000000 H
   0.1812333333333333    0.6329450000000000    0.2620000000000000 H
   0.2294500000000000    0.6005250000000000    0.2931350000000000 H
   0.2322466666666667    0.6776000000000000    0.3074300000000000 H
   0.0857733333333333    0.6042950000000000    0.3488900000000000 H
   0.1242300000000000    0.5786100000000000    0.4743450000000000 H
   0.3044000000000000    0.6483950000000001    0.4053600000000000 H
   0.2948166666666666    0.5714399999999999    0.4019500000000000 H
   0.3251433333333333    0.6166900000000000    0.4779800000000000 H
   0.2993966666666666    0.7777750000000000    0.4505400000000000 H
   0.0238900000000000    0.7502150000000001    0.4037150000000000 H
   0.2081533333333333    0.7848550000000001    0.2191150000000000 H
   0.2526000000000000    0.7965700000000000    0.2016350000000000 H
   0.2393866666666667    0.8553999999999999    0.2410350000000000 H
   0.0343166666666667    0.7227000000000000    0.0495750000000000 H
   0.3101833333333333    0.7513950000000000    0.0966850000000000 H
   0.0815166666666667    0.7052650000000000    0.2988650000000000 H
   0.1258300000000000    0.7159650000000000    0.2809350000000000 H
   0.0941866666666667    0.6457700000000000    0.2595450000000000 H
   0.1996366666666667    0.9723200000000001    0.3013100000000000 H
   0.2307100000000000    0.9997750000000001    0.2145450000000000 H
   0.0210500000000000    0.9656850000000000    0.4375400000000000 H
   0.0325300000000000    0.9534950000000000    0.3708400000000000 H
   0.0063733333333333    0.8949450000000000    0.3910800000000000 H
   0.1336200000000000    0.5272250000000001    0.1981600000000000 H
   0.1023233333333333    0.9986400000000000    0.2843500000000000 H
   0.3004533333333334    0.5446850000000000    0.1279400000000000 H
   0.3122433333333333    0.5334650000000000    0.0614450000000000 H
   0.3265700000000000    0.6038800000000000    0.1084850000000000 H
   0.1492333333333333    0.8306899999999999    0.4363400000000000 H
   0.0655833333333333    0.8569000000000000    0.3783750000000000 H
   0.1521066666666667    0.8670550000000000    0.2380150000000000 H
   0.1038933333333333    0.8994750000000000    0.2068800000000000 H
   0.1010966666666667    0.8224000000000000    0.1925850000000000 H
   0.2475700000000000    0.8957050000000000    0.1511250000000000 H
   0.2091100000000000    0.9213950000000000    0.0256700000000000 H
   0.0289433333333333    0.8516049999999999    0.0946550000000000 H
   0.0385266666666667    0.9285600000000001    0.0980650000000000 H
   0.0082000000000000    0.8833100000000000    0.0220350000000000 H
   0.5174400000000000    0.6693100000000000    0.0636700000000000 H
   0.6010933333333333    0.6431000000000000    0.1216400000000000 H
   0.5145666666666666    0.6329450000000000    0.2620000000000000 H
   0.5627833333333333    0.6005250000000000    0.2931350000000000 H
   0.5655800000000000    0.6776000000000000    0.3074300000000000 H
   0.4191066666666666    0.6042950000000000    0.3488900000000000 H
   0.4575633333333333    0.5786100000000000    0.4743450000000000 H
   0.6377333333333333    0.6483950000000001    0.4053600000000000 H
   0.6281500000000000    0.5714399999999999    0.4019500000000000 H
   0.6584766666666666    0.6166900000000000    0.4779800000000000 H
   0.6327300000000000    0.7777750000000000    0.4505400000000000 H
   0.3572233333333333    0.7502150000000001    0.4037150000000000 H
   0.5414866666666667    0.7848550000000001    0.2191150000000000 H
   0.5859333333333333    0.7965700000000000    0.2016350000000000 H
   0.5727200000000000    0.8553999999999999    0.2410350000000000 H
   0.3676500000000000    0.7227000000000000    0.0495750000000000 H
   0.6435166666666666    0.7513950000000000    0.0966850000000000 H
   0.4148499999999999    0.7052650000000000    0.2988650000000000 H
   0.4591633333333333    0.7159650000000000    0.2809350000000000 H
   0.4275200000000000    0.6457700000000000    0.2595450000000000 H
   0.5329699999999999    0.9723200000000001    0.3013100000000000 H
   0.5640433333333333    0.9997750000000001    0.2145450000000000 H
   0.3543833333333333    0.9656850000000000    0.4375400000000000 H
   0.3658633333333333    0.9534950000000000    0.3708400000000000 H
   0.3397066666666667    0.8949450000000000    0.3910800000000000 H
   0.4669533333333333    0.5272250000000001    0.1981600000000000 H
   0.4356566666666666    0.9986400000000000    0.2843500000000000 H
   0.6337866666666667    0.5446850000000000    0.1279400000000000 H
   0.6455766666666667    0.5334650000000000    0.0614450000000000 H
   0.6599033333333333    0.6038800000000000    0.1084850000000000 H
   0.4825666666666666    0.8306899999999999    0.4363400000000000 H
   0.3989166666666666    0.8569000000000000    0.3783750000000000 H
   0.4854400000000000    0.8670550000000000    0.2380150000000000 H
   0.4372266666666667    0.8994750000000000    0.2068800000000000 H
   0.4344300000000000    0.8224000000000000    0.1925850000000000 H
   0.5809033333333333    0.8957050000000000    0.1511250000000000 H
   0.5424433333333334    0.9213950000000000    0.0256700000000000 H
   0.3622766666666666    0.8516049999999999    0.0946550000000000 H
   0.3718600000000000    0.9285600000000001    0.0980650000000000 H
   0.3415333333333333    0.8833100000000000    0.0220350000000000 H
   0.8507733333333333    0.6693100000000000    0.0636700000000000 H
   0.9344266666666666    0.6431000000000000    0.1216400000000000 H
   0.8478999999999999    0.6329450000000000    0.2620000000000000 H
   0.8961166666666667    0.6005250000000000    0.2931350000000000 H
   0.8989133333333332    0.6776000000000000    0.3074300000000000 H
   0.7524400000000000    0.6042950000000000    0.3488900000000000 H
   0.7908966666666666    0.5786100000000000    0.4743450000000000 H
   0.9710666666666666    0.6483950000000001    0.4053600000000000 H
   0.9614833333333332    0.5714399999999999    0.4019500000000000 H
   0.9918100000000000    0.6166900000000000    0.4779800000000000 H
   0.9660633333333333    0.7777750000000000    0.4505400000000000 H
   0.6905566666666666    0.7502150000000001    0.4037150000000000 H
   0.8748199999999999    0.7848550000000001    0.2191150000000000 H
   0.9192666666666667    0.7965700000000000    0.2016350000000000 H
   0.9060533333333333    0.8553999999999999    0.2410350000000000 H
   0.7009833333333333    0.7227000000000000    0.0495750000000000 H
   0.9768500000000000    0.7513950000000000    0.0966850000000000 H
   0.7481833333333333    0.7052650000000000    0.2988650000000000 H
   0.7924966666666666    0.7159650000000000    0.2809350000000000 H
   0.7608533333333333    0.6457700000000000    0.2595450000000000 H
   0.8663033333333333    0.9723200000000001    0.3013100000000000 H
   0.8973766666666666    0.9997750000000001    0.2145450000000000 H
   0.6877166666666666    0.9656850000000000    0.4375400000000000 H
   0.6991966666666666    0.9534950000000000    0.3708400000000000 H
   0.6730400000000000    0.8949450000000000    0.3910800000000000 H
   0.8002866666666666    0.5272250000000001    0.1981600000000000 H
   0.7689900000000000    0.9986400000000000    0.2843500000000000 H
   0.9671200000000000    0.5446850000000000    0.1279400000000000 H
   0.9789099999999999    0.5334650000000000    0.0614450000000000 H
   0.9932366666666665    0.6038800000000000    0.1084850000000000 H
   0.8159000000000000    0.8306899999999999    0.4363400000000000 H
   0.7322500000000000    0.8569000000000000    0.3783750000000000 H
   0.8187733333333334    0.8670550000000000    0.2380150000000000 H
   0.7705599999999999    0.8994750000000000    0.2068800000000000 H
   0.7677633333333334    0.8224000000000000    0.1925850000000000 H
   0.9142366666666666    0.8957050000000000    0.1511250000000000 H
   0.8757766666666666    0.9213950000000000    0.0256700000000000 H
   0.6956100000000000    0.8516049999999999    0.0946550000000000 H
   0.7051933333333333    0.9285600000000001    0.0980650000000000 H
   0.6748666666666666    0.8833100000000000    0.0220350000000000 H
   0.1841066666666667    0.1693100000000000    0.5636700000000000 H
   0.2677600000000000    0.1431000000000000    0.6216400000000000 H
   0.1812333333333333    0.1329450000000000    0.7620000000000000 H
   0.2294500000000000    0.1005250000000000    0.7931349999999999 H
   0.2322466666666667    0.1776000000000000    0.8074300000000000 H
   0.0857733333333333    0.1042950000000000    0.8488899999999999 H
   0.1242300000000000    0.0786100000000000    0.9743450000000000 H
   0.3044000000000000    0.1483950000000000    0.9053599999999999 H
   0.2948166666666666    0.0714400000000000    0.9019500000000000 H
   0.3251433333333333    0.1166900000000000    0.9779800000000001 H
   0.2993966666666666    0.2777750000000000    0.9505399999999999 H
   0.0238900000000000    0.2502150000000000    0.9037150000000000 H
   0.2081533333333333    0.2848550000000000    0.7191149999999999 H
   0.2526000000000000    0.2965700000000000    0.7016350000000000 H
   0.2393866666666667    0.3554000000000000    0.7410350000000000 H
   0.0343166666666667    0.2227000000000000    0.5495750000000000 H
   0.3101833333333333    0.2513950000000000    0.5966850000000000 H
   0.0815166666666667    0.2052650000000000    0.7988649999999999 H
   0.1258300000000000    0.2159650000000000    0.7809349999999999 H
   0.0941866666666667    0.1457700000000000    0.7595450000000000 H
   0.1996366666666667    0.4723200000000000    0.8013100000000000 H
   0.2307100000000000    0.4997750000000000    0.7145450000000000 H
   0.0210500000000000    0.4656850000000000    0.9375400000000000 H
   0.0325300000000000    0.4534950000000000    0.8708400000000001 H
   0.0063733333333333    0.3949450000000000    0.8910800000000000 H
   0.1336200000000000    0.0272250000000000    0.6981600000000000 H
   0.1023233333333333    0.4986400000000000    0.7843500000000000 H
   0.3004533333333334    0.0446850000000000    0.6279399999999999 H
   0.3122433333333333    0.0334650000000000    0.5614450000000000 H
   0.3265700000000000    0.1038800000000000    0.6084849999999999 H
   0.1492333333333333    0.3306900000000000    0.9363400000000000 H
   0.0655833333333333    0.3569000000000000    0.8783750000000000 H
   0.1521066666666667    0.3670550000000000    0.7380150000000000 H
   0.1038933333333333    0.3994750000000000    0.7068800000000000 H
   0.1010966666666667    0.3224000000000000    0.6925850000000000 H
   0.2475700000000000    0.3957050000000000    0.6511250000000000 H
   0.2091100000000000    0.4213950000000000    0.5256700000000000 H
   0.0289433333333333    0.3516050000000000    0.5946550000000000 H
   0.0385266666666667    0.4285600000000000    0.5980650000000000 H
   0.0082000000000000    0.3833100000000000    0.5220350000000000 H
   0.5174400000000000    0.1693100000000000    0.5636700000000000 H
   0.6010933333333333    0.1431000000000000    0.6216400000000000 H
   0.5145666666666666    0.1329450000000000    0.7620000000000000 H
   0.5627833333333333    0.1005250000000000    0.7931349999999999 H
   0.5655800000000000    0.1776000000000000    0.8074300000000000 H
   0.4191066666666666    0.1042950000000000    0.8488899999999999 H
   0.4575633333333333    0.0786100000000000    0.9743450000000000 H
   0.6377333333333333    0.1483950000000000    0.9053599999999999 H
   0.6281500000000000    0.0714400000000000    0.9019500000000000 H
   0.6584766666666666    0.1166900000000000    0.9779800000000001 H
   0.6327300000000000    0.2777750000000000    0.9505399999999999 H
   0.3572233333333333    0.2502150000000000    0.9037150000000000 H
   0.5414866666666667    0.2848550000000000    0.7191149999999999 H
   0.5859333333333333    0.2965700000000000    0.7016350000000000 H
   0.5727200000000000    0.3554000000000000    0.7410350000000000 H
   0.3676500000000000    0.2227000000000000    0.5495750000000000 H
   0.6435166666666666    0.2513950000000000    0.5966850000000000 H
   0.4148499999999999    0.2052650000000000    0.7988649999999999 H
   0.4591633333333333    0.2159650000000000    0.7809349999999999 H
   0.4275200000000000    0.1457700000000000    0.7595450000000000 H
   0.5329699999999999    0.4723200000000000    0.8013100000000000 H
   0.5640433333333333    0.4997750000000000    0.7145450000000000 H
   0.3543833333333333    0.4656850000000000    0.9375400000000000 H
   0.3658633333333333    0.4534950000000000    0.8708400000000001 H
   0.3397066666666667    0.3949450000000000    0.8910800000000000 H
   0.4669533333333333    0.0272250000000000    0.6981600000000000 H
   0.4356566666666666    0.4986400000000000    0.7843500000000000 H
   0.6337866666666667    0.0446850000000000    0.6279399999999999 H
   0.6455766666666667    0.0334650000000000    0.5614450000000000 H
   0.6599033333333333    0.1038800000000000    0.6084849999999999 H
   0.4825666666666666    0.3306900000000000    0.9363400000000000 H
   0.3989166666666666    0.3569000000000000    0.8783750000000000 H
   0.4854400000000000    0.3670550000000000    0.7380150000000000 H
   0.4372266666666667    0.3994750000000000    0.7068800000000000 H
   0.4344300000000000    0.3224000000000000    0.6925850000000000 H
   0.5809033333333333    0.3957050000000000    0.6511250000000000 H
   0.5424433333333334    0.4213950000000000    0.5256700000000000 H
   0.3622766666666666    0.3516050000000000    0.5946550000000000 H
   0.3718600000000000    0.4285600000000000    0.5980650000000000 H
   0.3415333333333333    0.3833100000000000    0.5220350000000000 H
   0.8507733333333333    0.1693100000000000    0.5636700000000000 H
   0.9344266666666666    0.1431000000000000    0.6216400000000000 H
   0.8478999999999999    0.1329450000000000    0.7620000000000000 H
   0.8961166666666667    0.1005250000000000    0.7931349999999999 H
   0.8989133333333332    0.1776000000000000    0.8074300000000000 H
   0.7524400000000000    0.1042950000000000    0.8488899999999999 H
   0.7908966666666666    0.0786100000000000    0.9743450000000000 H
   0.9710666666666666    0.1483950000000000    0.9053599999999999 H
   0.9614833333333332    0.0714400000000000    0.9019500000000000 H
   0.9918100000000000    0.1166900000000000    0.9779800000000001 H
   0.9660633333333333    0.2777750000000000    0.9505399999999999 H
   0.6905566666666666    0.2502150000000000    0.9037150000000000 H
   0.8748199999999999    0.2848550000000000    0.7191149999999999 H
   0.9192666666666667    0.2965700000000000    0.7016350000000000 H
   0.9060533333333333    0.3554000000000000    0.7410350000000000 H
   0.7009833333333333    0.2227000000000000    0.5495750000000000 H
   0.9768500000000000    0.2513950000000000    0.5966850000000000 H
   0.7481833333333333    0.2052650000000000    0.7988649999999999 H
   0.7924966666666666    0.2159650000000000    0.7809349999999999 H
   0.7608533333333333    0.1457700000000000    0.7595450000000000 H