H3 C9 O6
1.0
  13.5869651704167396    0.0000000000000000   -3.5338220750176959
   0.9978866566653265   17.1833268040093863   -3.6786822595953836
   0.0000000000000000    0.0000000000000000   19.9540000000000006
H C O
3 9 6
direct
   0.0920900000000000    0.7805500000000000    0.9661900000000000 H
   0.3233500000000000    0.9241100000000000    0.0969500000000000 H
   0.3620000000000000    0.9525800000000000    0.9905000000000000 H
   0.2463400000000000    0.8853200000000000    0.9180000000000000 C
   0.1719600000000000    0.8343000000000000    0.9112200000000000 C
   0.1489000000000000    0.8203600000000000    0.9714400000000000 C
   0.2007500000000000    0.8549099999999999    0.0388800000000000 C
   0.2800200000000000    0.8997600000000000    0.0450100000000000 C
   0.3023600000000000    0.9152200000000000    0.9849900000000000 C
   0.2611600000000000    0.9132200000000000    0.8552999999999999 C
   0.1278400000000000    0.7882300000000000    0.8404000000000000 C
   0.1744400000000000    0.8393300000000000    0.1031900000000000 C
   0.2045600000000000    0.8801700000000000    0.1637400000000000 O
   0.3411600000000000    0.8968800000000000    0.8341000000000000 O
   0.1925900000000000    0.9592500000000000    0.8281700000000000 O
   0.1796500000000000    0.7833900000000000    0.7943700000000000 O
   1.0499800000000001    0.7531099999999999    0.8283700000000001 O
   0.1215200000000000    0.7802800000000000    0.0910300000000000 O
