H9 O6
1.0
  13.5869651704167396    0.0000000000000000   -3.5338220750176959
   0.9978866566653265   17.1833268040093863   -3.6786822595953836
   0.0000000000000000    0.0000000000000000   19.9540000000000006
H O
9 6
direct
   0.2414379398559390    0.9161474448714966    0.1508444536046902 H
   0.1524860567387530    0.8104899196310366    0.0802017318561092 H
   0.0946805695494483    0.7443661906410799    0.0479735422518491 H
   0.1291651850382288    0.9747919938394417    0.8394345122279560 H
   0.3991281041055180    0.8632501794238876    0.8479827761531419 H
   0.2700704860860675    0.9143001972518989    0.8467257947972825 H
   1.0410188314257169    0.7470047358948254    0.8735574895924453 H
   0.2471933976889070    0.7968251947243407    0.8016114723119129 H
   1.1703482429844021    0.7770526922313057    0.8412749371016215 H
   0.2045600000000000    0.8801700000000000    0.1637400000000000 O
   0.1215200000000000    0.7802800000000000    0.0910300000000000 O
   0.1925900000000000    0.9592500000000000    0.8281700000000000 O
   0.3411600000000000    0.8968800000000000    0.8341000000000000 O
   1.0499800000000001    0.7531099999999999    0.8283700000000001 O
   0.1796500000000000    0.7833900000000000    0.7943700000000000 O
