Cd24 H45 C135 O90
1.0
  13.5869651704167396    0.0000000000000000   -3.5338220750176959
   0.9978866566653265   17.1833268040093863   -3.6786822595953836
   0.0000000000000000    0.0000000000000000   19.9540000000000006
Cd H C O
24 45 135 90
direct
   0.3845600000000000    0.2650000000000000    0.8158400000000000 Cd
   0.3845600000000000    0.7650100000000000    0.3158400000000000 Cd
   0.3845600000000000    0.7650000000000000    0.8158400000000000 Cd
   0.8845100000000000    0.2650700000000000    0.3157800000000000 Cd
   0.8845100000000000    0.2650700000000000    0.8157799999999999 Cd
   0.8845200000000000    0.7650700000000000    0.3157700000000000 Cd
   0.8845100000000000    0.7650700000000000    0.8157700000000000 Cd
   0.1158000000000000    0.2350800000000000    0.1834800000000000 Cd
   0.1158000000000000    0.2350800000000000    0.6834800000000000 Cd
   0.1158000000000000    0.7350800000000000    0.1834800000000000 Cd
   0.1158000000000000    0.7350800000000000    0.6834800000000000 Cd
   0.6160700000000000    0.2350400000000000    0.1834900000000000 Cd
   0.6160600000000001    0.2350400000000000    0.6834000000000000 Cd
   0.6160600000000001    0.7350400000000000    0.1834800000000000 Cd
   0.6160600000000001    0.7350400000000000    0.6834800000000000 Cd
   0.2501800000000000    0.9999800000000000    0.2496700000000000 Cd
   0.2501800000000000    0.9999800000000000    0.7496800000000000 Cd
   0.2501800000000000    0.4999800000000000    0.2496800000000000 Cd
   0.2501800000000000    0.4999700000000000    0.7496800000000000 Cd
   0.7509800000000000    0.9998600000000000    0.2497700000000000 Cd
   0.7509700000000000    0.9998600000000000    0.7497700000000000 Cd
   0.7509800000000000    0.4998600000000000    0.2497600000000000 Cd
   0.7509700000000000    0.4998500000000000    0.7497600000000000 Cd
   0.3845600000000000    0.2650100000000000    0.3158400000000000 Cd
   0.0921100000000000    0.2805600000000000    0.4662000000000000 H
   0.0921000000000000    0.2805600000000000    0.9661999999999999 H
   0.0920900000000000    0.7805600000000000    0.4661900000000000 H
   0.5928099999999999    0.2807300000000000    0.4666300000000000 H
   0.5928099999999999    0.2807300000000000    0.9666300000000000 H
   0.5928000000000000    0.7807300000000000    0.4666000000000000 H
   0.5927900000000000    0.7807300000000000    0.9666300000000000 H
   0.3233700000000000    0.4241000000000000    0.0969500000000000 H
   0.3233700000000000    0.4241000000000000    0.5969500000000000 H
   0.3233600000000000    0.9241000000000000    0.5969500000000000 H
   0.8245800000000000    0.4241000000000000    0.0968000000000000 H
   0.8245800000000000    0.4241000000000000    0.5968100000000000 H
   0.8245800000000000    0.9241000000000000    0.0968200000000000 H
   0.8245700000000000    0.9240900000000000    0.5968100000000000 H
   0.3620200000000000    0.4525800000000000    0.4905000000000000 H
   0.3620200000000000    0.4525700000000000    0.9905200000000000 H
   0.3620100000000000    0.9525700000000000    0.4905300000000000 H
   0.8625200000000000    0.4526700000000000    0.4901300000000000 H
   0.8625200000000000    0.4526600000000000    0.9901000000000000 H
   0.8625300000000000    0.9526500000000000    0.4901300000000000 H
   0.8625200000000000    0.9526500000000000    0.9901300000000000 H
   0.4087200000000000    0.2194400000000000    0.0333000000000000 H
   0.4087300000000000    0.2194400000000000    0.5333100000000000 H
   0.4087200000000000    0.7194500000000000    0.0333000000000000 H
   0.4087200000000000    0.7194500000000000    0.5333100000000000 H
   0.9086800000000000    0.2195000000000000    0.0332800000000000 H
   0.9086800000000000    0.2195000000000000    0.5332900000000000 H
   0.9086700000000000    0.7195000000000000    0.0332800000000000 H
   0.9086700000000000    0.7195000000000000    0.5332800000000000 H
   0.1775200000000000    0.0759600000000000    0.4024100000000000 H
   0.1775100000000000    0.0759600000000000    0.9024000000000000 H
   0.1775300000000000    0.5759600000000000    0.4024000000000000 H
   0.1775300000000000    0.5759600000000000    0.9024000000000000 H
   0.6776200000000000    0.0759200000000000    0.4023000000000000 H
   0.6776100000000000    0.0759200000000000    0.9022900000000000 H
   0.6776100000000000    0.5759200000000000    0.4022900000000000 H
   0.6776100000000000    0.5759200000000000    0.9022000000000000 H
   0.1387100000000000    0.0474100000000000    0.0087700000000000 H
   0.1387100000000000    0.0474000000000000    0.5087699999999999 H
   0.1387200000000000    0.5474000000000000    0.0087700000000000 H
   0.1387100000000000    0.5474000000000000    0.5087699999999999 H
   0.6387400000000000    0.0473300000000000    0.0086400000000000 H
   0.6387400000000000    0.0473200000000000    0.5086400000000000 H
   0.6387300000000000    0.5473300000000000    0.0086300000000000 H
   0.6387300000000000    0.5473300000000000    0.5086300000000000 H
   0.2463500000000000    0.3853200000000000    0.4180200000000000 C
   0.2463500000000000    0.3853200000000000    0.9180199999999999 C
   0.2463500000000000    0.8853200000000000    0.4180200000000000 C
   0.7466500000000000    0.3853700000000000    0.4179300000000000 C
   0.7466400000000000    0.3853600000000000    0.9179300000000000 C
   0.7466500000000000    0.8853600000000000    0.4179300000000000 C
   0.7466500000000000    0.8853600000000000    0.9179300000000000 C
   0.1719700000000000    0.3343000000000000    0.4112200000000000 C
   0.1719600000000000    0.3343000000000000    0.9112200000000000 C
   0.1719600000000000    0.8343000000000000    0.4112200000000000 C
   0.6723000000000000    0.3344000000000000    0.4113400000000000 C
   0.6722900000000001    0.3343900000000000    0.9113400000000000 C
   0.6723000000000000    0.8343900000000000    0.4113400000000000 C
   0.6722900000000001    0.8343900000000000    0.9113400000000000 C
   0.1489200000000000    0.3203600000000000    0.4714500000000000 C
   0.1489100000000000    0.3203600000000000    0.9714500000000000 C
   0.1489000000000000    0.8203600000000000    0.4714400000000000 C
   0.6496300000000000    0.3204600000000000    0.4717000000000000 C
   0.6496200000000000    0.3204600000000000    0.9717000000000000 C
   0.6496100000000000    0.8204700000000000    0.4716900000000000 C
   0.6496100000000000    0.8204600000000000    0.9710000000000000 C
   0.2007600000000000    0.3549100000000000    0.0388900000000000 C
   0.2007600000000000    0.3549000000000000    0.5387999999999999 C
   0.2007500000000000    0.8549000000000000    0.5388800000000000 C
   0.7390600000000001    0.5868700000000000    0.6438500000000000 C
   0.3726400000000000    0.2117900000000000    0.1590600000000000 C
   0.3726400000000000    0.2117900000000000    0.6590600000000000 C
   0.3726400000000000    0.7117900000000000    0.1590600000000000 C
   0.7018600000000000    0.3549600000000000    0.0390200000000000 C
   0.7018600000000000    0.3549600000000000    0.5390200000000001 C
   0.7018500000000000    0.8549600000000001    0.0390200000000000 C
   0.7018500000000000    0.8549600000000001    0.5390200000000001 C
   0.2800300000000000    0.3997600000000000    0.0450100000000000 C
   0.2800300000000000    0.3997600000000000    0.5450100000000000 C
   0.2800200000000000    0.8997500000000000    0.5450100000000000 C
   0.7810500000000000    0.3998000000000000    0.0449300000000000 C
   0.7810500000000000    0.3998000000000000    0.5449300000000000 C
   0.7810500000000000    0.8998000000000000    0.0449300000000000 C
   0.7810500000000000    0.8997900000000000    0.5449300000000000 C
   0.3023800000000000    0.4152200000000000    0.4850000000000000 C
   0.3023800000000000    0.4152200000000000    0.9800000000000000 C
   0.3023700000000000    0.9152200000000000    0.4850000000000000 C
   0.8029700000000000    0.4153000000000000    0.4848000000000000 C
   0.8029700000000000    0.4153000000000000    0.9848000000000000 C
   0.8029700000000000    0.9152900000000000    0.4848000000000000 C
   0.8029700000000000    0.9152900000000000    0.9848000000000000 C
   0.2611700000000000    0.4132300000000000    0.3553000000000000 C
   0.2611700000000000    0.4132300000000000    0.8552999999999999 C
   0.2611700000000000    0.9132200000000000    0.3553000000000000 C
   0.7612200000000000    0.4132700000000000    0.3551600000000000 C
   0.7612100000000001    0.4132600000000000    0.8551600000000000 C
   0.7612200000000000    0.9132600000000000    0.3551000000000000 C
   0.7612100000000001    0.9132600000000000    0.8551600000000000 C
   0.1278400000000000    0.2882300000000000    0.3404000000000000 C
   0.1278400000000000    0.2882300000000000    0.8404000000000000 C
   0.1278400000000000    0.7882300000000000    0.3404000000000000 C
   0.6279300000000000    0.2882600000000000    0.3406000000000000 C
   0.6279200000000000    0.2882600000000000    0.8406000000000000 C
   0.6279300000000000    0.7882600000000000    0.3406000000000000 C
   0.6279200000000000    0.7882600000000000    0.8406000000000000 C
   0.1744500000000000    0.3393300000000000    0.1032000000000000 C
   0.1744500000000000    0.3393300000000000    0.6031900000000000 C
   0.1744400000000000    0.8393300000000000    0.6031900000000000 C
   0.6761300000000000    0.3394900000000000    0.1035500000000000 C
   0.6761300000000000    0.3394900000000000    0.6035500000000000 C
   0.6761100000000000    0.8395000000000000    0.1035500000000000 C
   0.6761000000000000    0.8394900000000000    0.6035500000000000 C
   0.2542700000000000    0.1147000000000000    0.0813300000000000 C
   0.2542700000000000    0.1147000000000000    0.5813300000000000 C
   0.2542800000000000    0.6147000000000000    0.0813300000000000 C
   0.2542700000000000    0.6147000000000000    0.5813300000000000 C
   0.7542100000000000    0.1147000000000000    0.0812200000000000 C
   0.7542100000000000    0.1147000000000000    0.5812200000000000 C
   0.7542100000000000    0.6147100000000000    0.0812000000000000 C
   0.7542000000000000    0.6147000000000000    0.5812100000000000 C
   0.3287500000000000    0.1656700000000000    0.0882200000000000 C
   0.3287500000000000    0.1656700000000000    0.5882200000000000 C
   0.3287500000000000    0.6656800000000000    0.0882200000000000 C
   0.3287400000000000    0.6656700000000000    0.5882200000000000 C
   0.8286500000000000    0.1657100000000000    0.0881500000000000 C
   0.8286500000000000    0.1657100000000000    0.5881500000000000 C
   0.8286400000000000    0.6657200000000000    0.0881400000000000 C
   0.8286400000000000    0.6657100000000000    0.5881400000000000 C
   0.3518800000000000    0.1796600000000000    0.0280300000000000 C
   0.3518800000000000    0.1796500000000000    0.5280300000000000 C
   0.3518800000000000    0.6796600000000000    0.0280300000000000 C
   0.3518800000000000    0.6796600000000000    0.5280300000000000 C
   0.8518500000000000    0.1796900000000000    0.0279800000000000 C
   0.8518500000000000    0.1796900000000000    0.5279000000000000 C
   0.8518400000000000    0.6796900000000000    0.0279000000000000 C
   0.8518400000000000    0.6796900000000000    0.5279000000000000 C
   0.3000600000000000    0.1451300000000000    0.4605900000000000 C
   0.3000500000000000    0.1451300000000000    0.9605900000000001 C
   0.3000600000000000    0.6451300000000000    0.4605900000000000 C
   0.3000600000000000    0.6451300000000000    0.9605000000000000 C
   0.8000699999999999    0.1451500000000000    0.4605300000000000 C
   0.8000699999999999    0.1451500000000000    0.9605300000000000 C
   0.8000600000000000    0.6451500000000000    0.4605200000000000 C
   0.8000600000000000    0.6451500000000000    0.9605200000000000 C
   0.2207700000000000    0.1002700000000000    0.4543800000000000 C
   0.2207700000000000    0.1002700000000000    0.9543800000000000 C
   0.2207700000000000    0.6002700000000000    0.4543800000000000 C
   0.2207800000000000    0.6002700000000000    0.9543000000000000 C
   0.7208200000000000    0.1002400000000000    0.4542800000000000 C
   0.7208200000000000    0.1002400000000000    0.9542800000000000 C
   0.7208100000000000    0.6002400000000000    0.4542700000000000 C
   0.7208100000000000    0.6002400000000000    0.9542700000000000 C
   0.1983500000000000    0.0847600000000000    0.0143000000000000 C
   0.1983600000000000    0.0847500000000000    0.5143300000000000 C
   0.1983600000000000    0.5847599999999999    0.0143300000000000 C
   0.1983600000000000    0.5847500000000000    0.5143300000000000 C
   0.6983500000000000    0.0847300000000000    0.0142200000000000 C
   0.6983500000000000    0.0847200000000000    0.5142200000000000 C
   0.6983400000000000    0.5847300000000000    0.0142100000000000 C
   0.6983400000000000    0.5847300000000000    0.5142099999999999 C
   0.2391100000000000    0.0868400000000000    0.1439500000000000 C
   0.2391100000000000    0.0868400000000000    0.6439500000000000 C
   0.2391100000000000    0.5868400000000000    0.1439500000000000 C
   0.2391100000000000    0.5868400000000000    0.6439400000000000 C
   0.7390800000000000    0.0868700000000000    0.1438500000000000 C
   0.7390800000000000    0.0868600000000000    0.6438600000000000 C
   0.7390700000000000    0.5868700000000000    0.1438500000000000 C
   0.3726300000000000    0.7117900000000000    0.6590600000000000 C
   0.8725200000000000    0.2118000000000000    0.1590100000000000 C
   0.8725100000000000    0.2117900000000000    0.6590100000000000 C
   0.8725200000000000    0.7117900000000000    0.1590000000000000 C
   0.8725100000000000    0.7117900000000000    0.6590000000000000 C
   0.3261000000000000    0.1607600000000000    0.3962400000000000 C
   0.3261000000000000    0.1607600000000000    0.8962000000000000 C
   0.3261000000000000    0.6607600000000000    0.3962400000000000 C
   0.3261000000000000    0.6607600000000000    0.8962300000000000 C
   0.8261700000000000    0.1607700000000000    0.3962000000000000 C
   0.8261700000000000    0.1607600000000000    0.8961900000000000 C
   0.8261700000000000    0.6607600000000000    0.3961900000000000 C
   0.8261700000000000    0.6607600000000000    0.8961900000000000 C
   0.2045700000000000    0.3801800000000000    0.1637400000000000 O
   0.2045600000000000    0.3801800000000000    0.6637400000000000 O
   0.2045600000000000    0.8801700000000000    0.6637400000000000 O
   0.7077800000000000    0.3799200000000000    0.1640500000000000 O
   0.3411600000000000    0.3968800000000000    0.3341800000000000 O
   0.3411600000000000    0.3968800000000000    0.8341800000000000 O
   0.3411700000000000    0.8968800000000000    0.3341800000000000 O
   0.8412200000000000    0.3969600000000000    0.3340200000000000 O
   0.8412100000000000    0.3969600000000000    0.8340200000000000 O
   0.8412200000000000    0.8969600000000000    0.3340200000000000 O
   0.8412200000000000    0.8969500000000000    0.8340200000000000 O
   0.1926000000000000    0.4592600000000000    0.3281800000000000 O
   0.1926000000000000    0.4592600000000000    0.8280999999999999 O
   0.1926000000000000    0.9592500000000000    0.3281700000000000 O
   0.6926400000000000    0.4592700000000000    0.3280400000000000 O
   0.6926300000000000    0.4592700000000000    0.8280400000000000 O
   0.6926400000000000    0.9592600000000000    0.3280000000000000 O
   0.6926300000000000    0.9592600000000000    0.8280400000000000 O
   0.1796500000000000    0.2834000000000000    0.2943700000000000 O
   0.1796500000000000    0.2834000000000000    0.7943700000000000 O
   0.1796600000000000    0.7834000000000000    0.2943700000000000 O
   0.6795200000000000    0.2834100000000000    0.2944000000000000 O
   0.6795099999999999    0.2834000000000000    0.7944000000000000 O
   0.6795200000000000    0.7834000000000000    0.2944200000000000 O
   0.6795200000000000    0.7834000000000000    0.7944200000000000 O
   0.0499800000000000    0.2531200000000000    0.3283000000000000 O
   0.0499800000000000    0.2531100000000000    0.8283900000000000 O
   0.0499800000000000    0.7531099999999999    0.3283700000000000 O
   0.5501100000000000    0.2531700000000000    0.3288500000000000 O
   0.5501100000000000    0.2531700000000000    0.8288500000000000 O
   0.5501100000000000    0.7531700000000000    0.3288400000000000 O
   0.5501100000000000    0.7531700000000000    0.8288400000000000 O
   0.1215400000000000    0.2802800000000000    0.0910400000000000 O
   0.1215300000000000    0.2802800000000000    0.5910400000000000 O
   0.1215300000000000    0.7802800000000000    0.5910300000000001 O
   0.6222200000000000    0.2810600000000000    0.0915700000000000 O
   0.6222299999999999    0.2810500000000000    0.5915700000000000 O
   0.6221800000000000    0.7810800000000000    0.0915700000000000 O
   0.6221800000000000    0.7810800000000000    0.5915600000000000 O
   0.7077800000000000    0.3799200000000000    0.6640500000000000 O
   0.7077800000000000    0.8799100000000000    0.1640500000000000 O
   0.7077800000000000    0.8799100000000000    0.6640500000000000 O
   0.1588600000000000    0.1031600000000000    0.1646900000000000 O
   0.1588600000000000    0.1031600000000000    0.6640000000000000 O
   0.1588600000000000    0.6031600000000000    0.1646900000000000 O
   0.1588500000000000    0.6031600000000000    0.6646900000000000 O
   0.6588100000000000    0.1031500000000000    0.1645800000000000 O
   0.6588000000000001    0.1031400000000000    0.6645799999999999 O
   0.6588000000000001    0.6031500000000000    0.1645700000000000 O
   0.6587900000000000    0.6031500000000000    0.6645700000000000 O
   0.3076100000000000    0.0409000000000000    0.1712900000000000 O
   0.3076100000000000    0.0409000000000000    0.6712900000000001 O
   0.3076100000000000    0.5409000000000000    0.1712900000000000 O
   0.3076000000000000    0.5409000000000000    0.6712900000000001 O
   0.8076800000000000    0.0410200000000000    0.1712200000000000 O
   0.8076700000000000    0.0410200000000000    0.6712200000000000 O
   0.8076700000000000    0.5410300000000000    0.1712100000000000 O
   0.8076600000000000    0.5410199999999999    0.6712100000000000 O
   0.3206600000000000    0.2166100000000000    0.2049900000000000 O
   0.3206500000000000    0.2166000000000000    0.7049900000000000 O
   0.3206600000000000    0.7166100000000000    0.2049900000000000 O
   0.3206500000000000    0.7166000000000000    0.7049900000000000 O
   0.8206000000000000    0.2165200000000000    0.2049700000000000 O
   0.8206000000000000    0.2165200000000000    0.7049700000000000 O
   0.8206000000000000    0.7165200000000000    0.2049600000000000 O
   0.8206000000000000    0.7165200000000000    0.7049600000000000 O
   0.4505400000000000    0.2469100000000000    0.1712300000000000 O
   0.4505400000000000    0.2469100000000000    0.6712300000000000 O
   0.4505400000000000    0.7469100000000000    0.1712300000000000 O
   0.4505300000000000    0.7469100000000000    0.6712300000000000 O
   0.9503500000000000    0.2469800000000000    0.1711600000000000 O
   0.9503500000000000    0.2469700000000000    0.6711600000000000 O
   0.9503500000000000    0.7469800000000000    0.1711400000000000 O
   0.9503500000000000    0.7469700000000000    0.6711400000000000 O
   0.3789600000000000    0.2198300000000000    0.4083000000000000 O
   0.3789600000000000    0.2198200000000000    0.9083100000000000 O
   0.3789700000000000    0.7198200000000000    0.4083100000000000 O
   0.3789700000000000    0.7198200000000000    0.9083100000000000 O
   0.8789900000000000    0.2198600000000000    0.4082700000000000 O
   0.8789900000000000    0.2198500000000000    0.9082700000000000 O
   0.8789900000000000    0.7198500000000000    0.4082600000000000 O
   0.8789900000000000    0.7198500000000000    0.9082600000000000 O
   0.2957400000000000    0.1198900000000000    0.3357400000000000 O
   0.2957400000000000    0.1198900000000000    0.8357400000000000 O
   0.2957400000000000    0.6198900000000001    0.3357400000000000 O
   0.2957400000000000    0.6198800000000000    0.8357400000000000 O
   0.7958300000000000    0.1198800000000000    0.3357000000000000 O
   0.7958300000000000    0.1198800000000000    0.8357000000000000 O
   0.7958300000000000    0.6198800000000000    0.3357000000000000 O
   0.7958300000000000    0.6198700000000000    0.8350000000000000 O
