H6 O4
1.0
  16.1580000000000013    0.0000000000000000    0.0000000000000010
  -0.8259862459067813   18.0851475725682924    0.0000000000000011
   0.0000000000000000    0.0000000000000000   18.8069999999999986
H O
6 4
direct
   0.1564652829533824    0.7580773802840092    0.4322829437076509 H
   0.4015368626284082    0.7682804138168989    0.4052580190273257 H
   0.2795194945842932    0.7692887197752207    0.4137457423616671 H
   0.4024534881517725    0.0589271409005243    0.0867278260449057 H
   0.1576437757028247    0.0578405447617219    0.1166775561276766 H
   0.2785655932140231    0.0534385046000921    0.1075886905064459 H
   0.2114600000000000    0.7411600000000000    0.4418900000000000 O
   0.3508700000000000    0.7473400000000000    0.4262100000000000 O
   0.3475300000000000    0.0746800000000000    0.0749700000000000 O
   0.2085500000000000    0.0735200000000000    0.0926000000000000 O
