H5 C12 O4
1.0
  16.1580000000000013    0.0000000000000000    0.0000000000000010
  -0.8259862459067813   18.0851475725682924    0.0000000000000011
   0.0000000000000000    0.0000000000000000   18.8069999999999986
H C O
5 12 4
direct
   0.4235000000000000    0.9984499999999999    0.1547700000000000 H
   0.4621600000000000    0.9244599999999999    0.2473300000000000 H
   0.3985600000000000    0.8362100000000000    0.3362400000000000 H
   0.1376700000000000    0.8361300000000000    0.3781500000000000 H
   0.1210500000000000    0.9353600000000000    0.2881500000000000 H
   0.2814900000000000    0.0545700000000000    0.1080300000000000 C
   0.2909400000000000    0.0011800000000000    0.1682100000000000 C
   0.3918100000000000    0.9979500000000000    0.1844000000000000 C
   0.4010700000000000    0.9448400000000000    0.2357000000000000 C
   0.3314300000000000    0.9150000000000000    0.2700000000000000 C
   0.3383600000000000    0.8585600000000000    0.3253500000000000 C
   0.2695300000000000    0.8300800000000000    0.3616000000000000 C
   0.1906300000000000    0.8587000000000000    0.3481900000000000 C
   0.1817800000000000    0.9136200000000000    0.2985700000000000 C
   0.2511900000000000    0.9427700000000000    0.2595800000000000 C
   0.2437800000000000    0.9971900000000000    0.2062700000000000 C
   0.2780000000000000    0.7683300000000000    0.4140300000000000 C
   0.3475300000000000    0.0746800000000000    0.0749700000000000 O
   0.2085500000000000    0.0735200000000000    0.0926000000000000 O
   0.2114600000000000    0.7411600000000000    0.4418900000000000 O
   0.3508700000000000    0.7473400000000000    0.4262100000000000 O
