Ag8 H50 C64 N22 O18
1.0
   8.6080962748859822    0.0000000000000000    1.5469953207085287
  -0.1426115031321534   12.0263104795292293    0.9292401245856164
   0.0000000000000000    0.0000000000000000   24.0786000000000016
Ag H C N O
8 50 64 22 18
direct
   0.4117100000000000    0.0000000000000000    0.7963800000000000 Ag
   0.0094200000000000    0.5113600000000000    0.6642200000000000 Ag
   0.9843000000000000    0.4926300000000000    0.3352300000000000 Ag
   0.5809500000000000    0.0072100000000000    0.2038900000000000 Ag
   0.3366300000000000    0.0143700000000000    0.6647800000000000 Ag
   0.6561800000000000    0.9893500000000000    0.3355300000000000 Ag
   0.1841500000000000    0.5091700000000000    0.2071500000000000 Ag
   0.8088900000000000    0.4926600000000000    0.7925600000000000 Ag
   0.6802400000000000    0.4643100000000000    0.1179900000000000 H
   0.4943200000000000    0.5156500000000001    0.1429800000000000 H
   0.2444600000000000    0.1797600000000000    0.2089400000000000 H
   0.7100300000000000    0.2458600000000000    0.1321700000000000 H
   0.2759200000000000    0.4624300000000000    0.0798600000000000 H
   0.2256000000000000    0.5031000000000000    0.9820700000000000 H
   0.7170700000000000    0.5406300000000001    0.9202900000000001 H
   0.7673900000000000    0.4999500000000000    0.0180900000000000 H
   0.3127900000000000    0.5381800000000000    0.8821600000000001 H
   0.4989400000000000    0.4872000000000000    0.8571800000000001 H
   0.7472000000000000    0.8232800000000000    0.7907300000000000 H
   0.2824100000000000    0.7568400000000000    0.8683000000000000 H
   0.7596200000000000    0.3457700000000000    0.6577300000000000 H
   0.1489500000000000    0.2962800000000000    0.7337200000000000 H
   0.8249800000000000    0.0254500000000000    0.7404800000000000 H
   0.8260400000000000    0.1527100000000000    0.5113500000000000 H
   0.6684400000000000    0.2169300000000000    0.5526100000000000 H
   0.6029400000000000    0.4975300000000000    0.4116100000000000 H
   0.9462300000000000    0.2546100000000000    0.4153700000000000 H
   0.4849300000000000    0.8337900000000000    0.5664600000000000 H
   0.6617800000000000    0.9885300000000000    0.5738500000000000 H
   0.5087400000000000    0.1704200000000000    0.4331100000000000 H
   0.3318700000000000    0.0156900000000000    0.4257200000000000 H
   0.1677200000000000    0.8514800000000000    0.4881400000000000 H
   0.3254300000000000    0.7873400000000000    0.4469000000000000 H
   0.3905300000000000    0.5065800000000000    0.5878700000000000 H
   0.0473500000000000    0.7495800000000000    0.5840400000000000 H
   0.8446800000000000    0.7078600000000000    0.2661100000000000 H
   0.2347600000000000    0.6578400000000000    0.3416400000000000 H
   0.1673500000000000    0.9791100000000000    0.2601900000000000 H
   0.2558114353638591    0.1788871157313063    0.5833416876072910 H
   0.7375914712700761    0.8238119905712804    0.4167863589141005 H
   0.3993400000000000    0.1573800000000000    0.3423900000000000 H
   0.8622500000000000    0.2013700000000000    0.2655900000000000 H
   0.5483300000000000    0.4756100000000000    0.2581700000000000 H
   0.7026000000000000    0.0000000000000000    0.8640900000000000 H
   0.8296700000000000    0.0546400000000000    0.8990700000000000 H
   0.4861900000000000    0.3113000000000000    0.7889400000000000 H
   0.8719800000000000    0.2623800000000000    0.8705100000000000 H
   0.5566600000000000    0.1988700000000000    0.9667600000000000 H
   0.3840200000000000    0.1526100000000000    0.0581400000000000 H
   0.4361800000000000    0.8034000000000000    0.0334800000000000 H
   0.6087900000000001    0.8496700000000000    0.9421000000000000 H
   0.2894300000000000    0.0163900000000000    0.1360900000000000 H
   0.1629700000000000    0.9473700000000000    0.1008700000000000 H
   0.5060700000000000    0.6908700000000000    0.2112400000000000 H
   0.1207800000000000    0.7397100000000000    0.1294100000000000 H
   0.4460300000000000    0.5274600000000000    0.7414200000000000 H
   0.1302500000000000    0.7998300000000000    0.7344300000000000 H
   0.5929600000000000    0.8465300000000000    0.6577700000000000 H
   0.5568800000000000    0.4560200000000000    0.1152600000000000 C
   0.3495800000000000    0.2210300000000000    0.1860300000000000 C
   0.5862000000000001    0.2522800000000000    0.1471200000000000 C
   0.3728600000000000    0.4795400000000000    0.0449200000000000 C
   0.3447800000000000    0.5026200000000000    0.9899200000000000 C
   0.4676600000000000    0.5249500000000000    0.9445000000000000 C
   0.6201400000000000    0.5235300000000001    0.9552300000000000 C
   0.6482200000000000    0.5004400000000000    0.0102300000000000 C
   0.5253400000000000    0.4780400000000000    0.0556500000000000 C
   0.4361200000000000    0.5467600000000000    0.8848800000000000 C
   0.6424100000000000    0.7819000000000000    0.8138400000000000 C
   0.4061400000000000    0.7504900000000000    0.8531200000000000 C
   0.0970000000000000    0.0782200000000000    0.7752700000000000 C
   0.6304600000000000    0.1393900000000000    0.6766900000000000 C
   0.8279200000000000    0.2887000000000000    0.6803900000000001 C
   0.0430900000000000    0.2618900000000000    0.7236200000000000 C
   0.7765500000000000    0.1793000000000000    0.6951900000000000 C
   0.8629100000000000    0.1108300000000000    0.7272600000000000 C
   0.9986100000000000    0.1518500000000000    0.7418200000000000 C
   0.7075700000000000    0.1832600000000000    0.5112300000000000 C
   0.6646900000000000    0.4242200000000000    0.4239500000000000 C
   0.8396100000000000    0.3010100000000000    0.4248000000000000 C
   0.4890100000000000    0.9074900000000000    0.5371200000000000 C
   0.5899900000000000    0.9947600000000000    0.5410300000000000 C
   0.3946000000000000    0.9137999999999999    0.4958500000000000 C
   0.5046600000000000    0.0967300000000000    0.4624400000000000 C
   0.4036800000000000    0.0094600000000000    0.4585300000000000 C
   0.5990700000000000    0.0904200000000000    0.5037199999999999 C
   0.2861800000000000    0.8209600000000000    0.4882900000000000 C
   0.3288400000000000    0.5799100000000000    0.5755300000000000 C
   0.1539500000000000    0.7031400000000000    0.5746500000000000 C
   0.8954299999999999    0.9264200000000000    0.2254000000000000 C
   0.3629000000000000    0.8647600000000000    0.3232600000000000 C
   0.9505400000000001    0.7421800000000000    0.2762500000000000 C
   0.1661000000000000    0.7151100000000000    0.3192300000000000 C
   0.2168800000000000    0.8247400000000000    0.3048000000000000 C
   0.1299900000000000    0.8935000000000000    0.2730700000000000 C
   0.9943900000000000    0.8524800000000000    0.2584500000000000 C
   0.2909600000000000    0.3645700000000000    0.3231200000000000 C
   0.8539500000000000    0.4185300000000000    0.2233200000000000 C
   0.4902100000000000    0.2134100000000000    0.3193800000000000 C
   0.7474600000000000    0.2374300000000000    0.2759000000000000 C
   0.4544400000000000    0.3231100000000000    0.3042800000000000 C
   0.5726599999999999    0.3901700000000000    0.2717500000000000 C
   0.7219000000000000    0.3475600000000000    0.2573500000000000 C
   0.7083900000000000    0.0516200000000000    0.8926700000000000 C
   0.5682700000000001    0.2743700000000000    0.8136400000000000 C
   0.7644900000000000    0.2519400000000000    0.8548300000000000 C
   0.5313000000000000    0.1117600000000000    0.9810800000000000 C
   0.4330400000000000    0.0857000000000000    0.0327500000000000 C
   0.5961600000000000    0.0274100000000000    0.9478600000000000 C
   0.4615200000000000    0.8905200000000000    0.0191600000000000 C
   0.5597600000000000    0.9165800000000000    0.9674900000000000 C
   0.3965800000000000    0.9748800000000000    0.0523600000000000 C
   0.2840600000000000    0.9505900000000000    0.1074700000000000 C
   0.4240900000000000    0.7278100000000000    0.1864800000000000 C
   0.2281200000000000    0.7502000000000000    0.1451700000000000 C
   0.7026500000000000    0.6395500000000000    0.6766799999999999 C
   0.1400300000000000    0.5826200000000000    0.7764200000000000 C
   0.4210700000000000    0.6128600000000000    0.7279800000000000 C
   0.2717300000000000    0.6542000000000000    0.7424700000000000 C
   0.2454300000000000    0.7643700000000000    0.7241400000000000 C
   0.5024000000000000    0.7901100000000000    0.6806600000000000 C
   0.5388800000000000    0.6804600000000000    0.6955800000000000 C
   0.3520700000000000    0.3272300000000000    0.1662500000000000 N
   0.4917200000000000    0.1710500000000000    0.1749900000000000 N
   0.5041800000000000    0.3457800000000000    0.1415400000000000 N
   0.6403000000000000    0.6757000000000000    0.8335900000000001 N
   0.5002799999999999    0.8317800000000000    0.8251200000000000 N
   0.4884000000000000    0.6570600000000000    0.8585400000000000 N
   0.9583600000000000    0.3300500000000000    0.6941700000000000 N
   0.6073600000000000    0.3540200000000000    0.4679700000000000 N
   0.8074000000000000    0.3951400000000000    0.3961100000000000 N
   0.7209100000000001    0.2753900000000000    0.4677400000000000 N
   0.3862700000000000    0.6501600000000000    0.5315299999999999 N
   0.1860800000000000    0.6089800000000000    0.6033300000000000 N
   0.2727500000000000    0.7288000000000000    0.5317499999999999 N
   0.0356600000000000    0.6738100000000000    0.3054400000000000 N
   0.6333299999999999    0.1706200000000000    0.3056000000000000 N
   0.5537400000000000    0.1699200000000000    0.8361100000000000 N
   0.6965700000000000    0.3287500000000000    0.8243400000000000 N
   0.6802900000000000    0.1569500000000000    0.8622200000000000 N
   0.4385500000000000    0.8323199999999999    0.1641100000000000 N
   0.2959900000000000    0.6733800000000000    0.1756600000000000 N
   0.3121500000000000    0.8452700000000000    0.1379300000000000 N
   0.3589400000000000    0.8323700000000001    0.6944500000000000 N
   0.0367700000000000    0.0000000000000000    0.8028200000000000 O
   0.2384200000000000    0.1130300000000000    0.7706200000000000 O
   0.5687600000000000    0.2036000000000000    0.6435000000000000 O
   0.5827500000000000    0.0412000000000000    0.6964200000000000 O
   0.9543700000000001    0.0138900000000000    0.1990600000000000 O
   0.7550600000000000    0.8896200000000000    0.2290100000000000 O
   0.4249300000000000    0.8006200000000000    0.3563900000000000 O
   0.4103300000000000    0.9630300000000001    0.3035800000000000 O
   0.2131800000000000    0.1108800000000000    0.6053700000000000 O
   0.7800000000000000    0.8919200000000000    0.3948000000000000 O
   0.1966600000000000    0.3012000000000000    0.3564700000000000 O
   0.2632600000000000    0.4633200000000000    0.3036000000000000 O
   0.8236800000000000    0.4962600000000000    0.1896000000000000 O
   0.9890000000000000    0.3900800000000000    0.2339200000000000 O
   0.7966800000000001    0.7034000000000000    0.6435000000000000 O
   0.7307700000000000    0.5407000000000000    0.6959300000000000 O
   0.1705600000000000    0.5045500000000001    0.8098900000000000 O
   0.0047900000000000    0.6110800000000000    0.7660000000000000 O
