H2 O2
1.0
   8.6080962748859822    0.0000000000000000    1.5469953207085287
  -0.1426115031321534   12.0263104795292293    0.9292401245856164
   0.0000000000000000    0.0000000000000000   24.0786000000000016
H O
2 2
direct
   0.7375914712700761    0.8238119905712804    0.4167863589141005 H
   0.2558114353638591    0.1788871157313063    0.5833416876072910 H
   0.7800000000000000    0.8919200000000000    0.3948000000000000 O
   0.2131800000000000    0.1108800000000000    0.6053700000000000 O
