H12 C12 N6
1.0
   8.6080962748859822    0.0000000000000000    1.5469953207085287
  -0.1426115031321534   12.0263104795292293    0.9292401245856164
   0.0000000000000000    0.0000000000000000   24.0786000000000016
H C N
12 12 6
direct
   0.3704300000000000    0.2508200000000000    0.5828700000000000 H
   0.0206000000000000    0.0082500000000000    0.5933700000000000 H
   0.3361100000000000    0.3485300000000000    0.4871200000000000 H
   0.2146000000000000    0.2826900000000000    0.4479900000000000 H
   0.9424700000000000    0.3333900000000000    0.5667300000000000 H
   0.2336600000000000    0.5130000000000000    0.4257300000000000 H
   0.6231900000000000    0.7517000000000000    0.4172500000000000 H
   0.9722200000000000    0.9948399999999999    0.4068500000000000 H
   0.6577700000000000    0.6540400000000000    0.5128900000000000 H
   0.7792700000000000    0.7198600000000001    0.5520400000000000 H
   0.0514300000000000    0.6692800000000000    0.4331700000000000 H
   0.7602000000000000    0.4896600000000000    0.5741700000000000 H
   0.2715100000000000    0.2039300000000000    0.5752300000000000 C
   0.0942000000000000    0.0809300000000000    0.5794100000000000 C
   0.2168300000000000    0.3183000000000000    0.4886600000000000 C
   0.1021100000000000    0.4121700000000000    0.4960700000000000 C
   0.9676300000000000    0.4070100000000000    0.5374200000000000 C
   0.1301500000000000    0.5075499999999999    0.4586400000000000 C
   0.7219800000000000    0.7987400000000000    0.4248800000000000 C
   0.8989000000000000    0.9220000000000000    0.4207600000000000 C
   0.7770100000000000    0.6843200000000000    0.5113600000000000 C
   0.8918199999999999    0.5905200000000000    0.5038700000000000 C
   0.0262800000000000    0.5956800000000000    0.4625100000000000 C
   0.8637700000000000    0.4951200000000000    0.5412900000000000 C
   0.2131800000000000    0.1108800000000000    0.6053700000000000 N
   0.0761100000000000    0.1495300000000000    0.5351800000000000 N
   0.1904500000000000    0.2280800000000000    0.5332600000000000 N
   0.7800000000000000    0.8919200000000000    0.3948000000000000 N
   0.9172600000000000    0.8533300000000000    0.4649300000000000 N
   0.8031700000000001    0.7746200000000000    0.4668100000000000 N
