H3 C7 N1 O4
1.0
   8.6080962748859822    0.0000000000000000    1.5469953207085287
  -0.1426115031321534   12.0263104795292293    0.9292401245856164
   0.0000000000000000    0.0000000000000000   24.0786000000000016
H C N O
3 7 1 4
direct
   0.3993400000000000    0.1573800000000000    0.3423900000000000 H
   0.8622500000000000    0.2013700000000000    0.2655900000000000 H
   0.5483300000000000    0.4756100000000000    0.2581700000000000 H
   0.2909600000000000    0.3645700000000000    0.3231200000000000 C
   0.4544400000000000    0.3231100000000000    0.3042800000000000 C
   0.4902100000000000    0.2134100000000000    0.3193800000000000 C
   0.7474600000000000    0.2374300000000000    0.2759000000000000 C
   0.7219000000000000    0.3475600000000000    0.2573500000000000 C
   0.5726599999999999    0.3901700000000000    0.2717500000000000 C
   0.8539500000000000    0.4185300000000000    0.2233200000000000 C
   0.6333299999999999    0.1706200000000000    0.3056000000000000 N
   0.2632600000000000    0.4633200000000000    0.3036000000000000 O
   0.1966600000000000    0.3012000000000000    0.3564700000000000 O
   0.8236800000000000    0.4962600000000000    0.1896000000000000 O
   0.9890000000000000    0.3900800000000000    0.2339200000000000 O
