H8 C14 N2 O4
1.0
  22.9149932430620211    0.0000000000000000    0.0175974549865074
  -5.7480929752011507   12.2183953505544594   -2.4699739282009352
   0.0000000000000000    0.0000000000000000   18.1780000000000008
H C N O
8 14 2 4
direct
   0.3951000000000000    0.3396900000000000    0.1385400000000000 H
   0.3104500000000000    0.2048600000000000    0.0391000000000000 H
   0.3109700000000000    0.9405800000000000    0.1348300000000000 H
   0.3937900000000000    0.0773500000000000    0.2365500000000000 H
   0.1049000000000000    0.6603800000000000    0.8614400000000000 H
   0.1895600000000000    0.7952100000000000    0.9608100000000001 H
   0.1890500000000000    0.0594900000000000    0.8651400000000000 H
   0.1062400000000000    0.9227200000000000    0.7634200000000000 H
   0.1702200000000000    0.9719000000000000    0.8640400000000000 C
   0.1242400000000000    0.8963600000000000    0.8077900000000000 C
   0.4459100000000000    0.2978800000000000    0.2575500000000000 C
   0.3996800000000000    0.2162600000000000    0.1937100000000000 C
   0.3769100000000000    0.2521800000000000    0.1369600000000000 C
   0.3303600000000000    0.1776800000000000    0.0810000000000000 C
   0.3063100000000000    0.0646300000000000    0.0801300000000000 C
   0.3298000000000000    0.0281700000000000    0.1359300000000000 C
   0.3757800000000000    0.1037100000000000    0.1921800000000000 C
   0.0541000000000000    0.7021900000000000    0.7423999999999999 C
   0.1003300000000000    0.7838100000000000    0.8062700000000000 C
   0.1231000000000000    0.7478900000000001    0.8630100000000001 C
   0.1696500000000000    0.8223900000000000    0.9186800000000001 C
   0.1937000000000000    0.9354400000000000    0.9198400000000000 C
   0.2582100000000000    0.9824800000000000    0.0267200000000000 N
   0.2418100000000000    0.0175900000000000    0.9732499999999999 N
   0.4798000000000000    0.3947200000000000    0.2500100000000000 O
   0.4460700000000000    0.2631300000000000    0.3189000000000000 O
   0.0202000000000000    0.6053600000000000    0.7499800000000000 O
   0.0539400000000000    0.7369400000000000    0.6810800000000000 O
