H8 C10 N2
1.0
  22.9149932430620211    0.0000000000000000    0.0175974549865074
  -5.7480929752011507   12.2183953505544594   -2.4699739282009352
   0.0000000000000000    0.0000000000000000   18.1780000000000008
H C N
8 10 2
direct
   0.9154700000000000    0.6895600000000000    0.0131300000000000 H
   0.0240300000000000    0.6887000000000000    0.0120200000000000 H
   0.9756899999999999    0.5229600000000000    0.2002900000000000 H
   0.8693600000000000    0.5315900000000000    0.1923300000000000 H
   0.1236100000000000    0.7536700000000000    0.0650700000000000 H
   0.2269700000000000    0.7370800000000000    0.0593900000000000 H
   0.1525900000000000    0.4523900000000000    0.1440500000000000 H
   0.0451200000000000    0.4565000000000000    0.1548300000000000 H
   0.9314100000000000    0.6544100000000000    0.0537200000000000 C
   0.9920099999999999    0.6543600000000001    0.0541800000000000 C
   0.0101300000000000    0.6069000000000000    0.1070100000000000 C
   0.9652200000000000    0.5621200000000000    0.1581300000000000 C
   0.9055700000000000    0.5656000000000000    0.1538500000000000 C
   0.0737300000000000    0.6032100000000000    0.1071700000000000 C
   0.1267800000000000    0.6834200000000000    0.0814300000000000 C
   0.1850200000000000    0.6750000000000000    0.0782900000000000 C
   0.1435900000000000    0.5168500000000000    0.1261500000000000 C
   0.0836500000000000    0.5195300000000000    0.1318200000000000 C
   0.8882700000000000    0.6101500000000000    0.1022900000000000 N
   0.1935300000000000    0.5917700000000000    0.0985900000000000 N
