H2 C10 O8
1.0
  14.3569999650128608    0.0000000000000000   -0.0010023076820208
  -1.9761579199546899   15.1143590085190915    0.0007981216132787
   0.0000000000000000    0.0000000000000000   16.4050000000000011
H C O
2 10 8
direct
   0.7952399999999999    0.3343300000000000    0.7927000000000000 H
   0.4496500000000000    0.2641800000000000    0.7748000000000000 H
   0.5732800000000000    0.3351300000000000    0.7199000000000000 C
   0.6719200000000000    0.3561000000000000    0.7262500000000000 C
   0.7194900000000000    0.3169300000000000    0.7879300000000000 C
   0.6723900000000000    0.2559800000000000    0.8421000000000000 C
   0.5740900000000000    0.2381200000000000    0.8384900000000000 C
   0.5259000000000000    0.2781600000000000    0.7775800000000000 C
   0.5132900000000000    0.3746700000000000    0.6576900000000000 C
   0.7314000000000001    0.4134600000000000    0.6665300000000000 C
   0.7306000000000000    0.2150000000000000    0.9032600000000000 C
   0.5205300000000000    0.1807500000000000    0.9016400000000000 C
   0.5210800000000000    0.4588200000000000    0.6525700000000000 O
   0.4554900000000000    0.3199100000000000    0.6180099999999999 O
   0.8094500000000000    0.4531600000000000    0.6939600000000000 O
   0.7023200000000001    0.4145200000000000    0.5937100000000000 O
   0.7445900000000000    0.1328800000000000   -0.1045000000000000 O
   0.7716100000000000    0.2613900000000000   -0.0410700000000000 O
   0.4558500000000000    0.2144400000000000   -0.0619200000000000 O
   0.5443100000000000    0.1041100000000000    0.9144000000000000 O
