Zn20 H34 C70 O72
1.0
  14.3569999650128608    0.0000000000000000   -0.0010023076820208
  -1.9761579199546899   15.1143590085190915    0.0007981216132787
   0.0000000000000000    0.0000000000000000   16.4050000000000011
Zn H C O
20 34 70 72
direct
   0.3433200000000000    0.9778800000000000    0.1249600000000000 Zn
   0.0934900000000000    0.4779600000000000    0.3750000000000000 Zn
   0.6524500000000000    0.8376300000000000    0.9933200000000000 Zn
   0.9022000000000000    0.3375800000000000    0.5066400000000000 Zn
   0.8433700000000000    0.9778400000000000    0.1249500000000000 Zn
   0.5935500000000000    0.4779400000000000    0.3749900000000000 Zn
   0.1524500000000000    0.8376900000000000    0.9932800000000001 Zn
   0.4022900000000000    0.3375900000000000    0.5065900000000000 Zn
   0.6566900000000000    0.0221200000000000    0.8750200000000000 Zn
   0.3475600000000000    0.1623800000000000    0.0066600000000000 Zn
   0.0978100000000000    0.6624200000000000    0.4933500000000000 Zn
   0.9065200000000000    0.5220399999999999    0.6249900000000000 Zn
   0.1566400000000000    0.0221500000000000    0.8750300000000000 Zn
   0.4064500000000000    0.5220500000000000    0.6250000000000000 Zn
   0.8475600000000000    0.1623100000000000    0.0067100000000000 Zn
   0.5977200000000000    0.6624100000000001    0.4930000000000000 Zn
   0.5000000000000000    0.0000000000000000    0.9999900000000000 Zn
   0.0000000000000000    0.0000000000000000    0.9999900000000000 Zn
   0.7500300000000000    0.5000000000000000    0.4999900000000000 Zn
   0.2499800000000000    0.5000000000000000    0.5000000000000000 Zn
   0.3303000000000000    0.0013000000000000    0.9639500000000000 H
   0.6697200000000000    0.9987100000000000    0.0360400000000000 H
   0.1696900000000000    0.9987600000000000    0.0360600000000000 H
   0.8303199999999999    0.0012400000000000    0.9639200000000000 H
   0.4195800000000000    0.4986800000000000    0.4639200000000000 H
   0.5804300000000000    0.5013100000000000    0.5360700000000000 H
   0.0804100000000000    0.5013400000000000    0.5360000000000000 H
   0.9196000000000000    0.4986500000000000    0.4639000000000000 H
   0.4588467914027507    0.2576433151749162    0.6278171442200927 H
   0.5686414360650602    0.4935694486930561    0.6852753722541176 H
   0.5257992980716550    0.3712795453317190    0.6663578203478480 H
   0.4546200000000000    0.1647100000000000    0.2930300000000000 H
   0.8000400000000000    0.2360800000000000    0.2746400000000000 H
   0.2047700000000000    0.6656900000000000    0.2073000000000000 H
   0.5503700000000000    0.7358200000000000    0.2250000000000000 H
   0.9544899999999999    0.1653200000000000    0.2927200000000000 H
   0.3000100000000000    0.2360800000000000    0.2746800000000000 H
   0.7050100000000000    0.6655000000000000    0.2073300000000000 H
   0.0505100000000000    0.7362400000000000    0.2251900000000000 H
   0.7574214130192568    0.3218165428051298   -0.0381109850265959 H
   0.5963734202947331    0.0828551459080737    0.8861776556499541 H
   0.4424619829543652    0.2741713999615384   -0.0724100214602524 H
   0.5259999492614521    0.1858013333955503    0.9000533776039444 H
   0.7126924968305631    0.0960061018132172   -0.1468202664550485 H
   0.7266255139692158    0.2093873918625314   -0.1007535252293449 H
   0.5453900000000000    0.8352800000000000    0.7069600000000000 H
   0.1999600000000000    0.7639200000000000    0.7253500000000001 H
   0.6438464500996844    0.3806763458862151    0.5762214116040094 H
   0.8308582764467564    0.4486488462903629    0.7497037925939043 H
   0.7319148581109429    0.4082837691532336    0.6707703666523739 H
   0.0455200000000000    0.8346600000000000    0.7072700000000000 H
   0.7000000000000000    0.7639300000000000    0.7252999999999999 H
   0.2950000000000000    0.3345000000000000    0.7926000000000000 H
   0.9495000000000000    0.2637500000000000    0.7748000000000000 H
   0.7366100000000000    0.1250500000000000    0.1578100000000000 C
   0.5185300000000000    0.0858800000000000    0.1667000000000000 C
   0.7292600000000000    0.3194000000000000    0.4013000000000000 C
   0.5189600000000000    0.2846100000000000    0.4031300000000000 C
   0.5303300000000000    0.1823700000000000    0.2881200000000000 C
   0.5773000000000000    0.2436400000000000    0.3421000000000000 C
   0.5779400000000000    0.1432900000000000    0.2264400000000000 C
   0.7238100000000000    0.2218600000000000    0.2774500000000000 C
   0.6765400000000000    0.1646100000000000    0.2199500000000000 C
   0.6755700000000000    0.2618800000000000    0.3383300000000000 C
   0.4867200000000000    0.6253400000000000    0.3423000000000000 C
   0.2686100000000000    0.5865500000000000    0.3334700000000000 C
   0.4794800000000000    0.8192400000000000    0.0983300000000000 C
   0.2694200000000000    0.7850100000000000    0.0967300000000000 C
   0.2805300000000000    0.6830900000000000    0.2120600000000000 C
   0.3276300000000000    0.7440300000000000    0.1578900000000000 C
   0.3280900000000000    0.6439100000000000    0.2737400000000000 C
   0.4741100000000000    0.7218500000000000    0.2224000000000000 C
   0.4259300000000000    0.7618800000000000    0.1614900000000000 C
   0.4267300000000000    0.6648700000000000    0.2800600000000000 C
   0.2365100000000000    0.1252000000000000    0.1577500000000000 C
   0.0184700000000000    0.0860600000000000    0.1666000000000000 C
   0.2292000000000000    0.3194400000000000    0.4013800000000000 C
   0.0189500000000000    0.2849300000000000    0.4030500000000000 C
   0.0302300000000000    0.1828000000000000    0.2879100000000000 C
   0.0772400000000000    0.2439600000000000    0.3419700000000000 C
   0.0778500000000000    0.1435900000000000    0.2263200000000000 C
   0.2237600000000000    0.2219700000000000    0.2774400000000000 C
   0.1764600000000000    0.1647900000000000    0.2199000000000000 C
   0.1755300000000000    0.2619900000000000    0.3383200000000000 C
   0.9871500000000000    0.6256400000000000    0.3422800000000000 C
   0.7688300000000000    0.5866600000000000    0.3335700000000000 C
   0.9795600000000000    0.8192800000000000    0.0982900000000000 C
   0.7693800000000000    0.7848200000000000    0.0967400000000000 C
   0.7807400000000000    0.6830100000000000    0.2121000000000000 C
   0.8277200000000000    0.7439700000000000    0.1578000000000000 C
   0.8283600000000000    0.6440100000000000    0.2738500000000000 C
   0.9742700000000000    0.7221500000000000    0.2224700000000000 C
   0.9270000000000000    0.6651400000000000    0.2801600000000000 C
   0.9260100000000000    0.7619800000000000    0.1614800000000000 C
   0.2634000000000000    0.8749500000000000    0.8421700000000000 C
   0.4814800000000000    0.9141100000000000    0.8332900000000000 C
   0.2707400000000000    0.6806000000000000    0.5986399999999999 C
   0.4810400000000000    0.7153800000000000    0.5968599999999999 C
   0.4696800000000000    0.8176200000000000    0.7118700000000000 C
   0.4227100000000000    0.7563500000000000    0.6578800000000000 C
   0.4220700000000000    0.8567100000000000    0.7735500000000000 C
   0.2762000000000000    0.7781300000000000    0.7225300000000000 C
   0.3234700000000000    0.8353900000000000    0.7800000000000000 C
   0.3244300000000000    0.7381200000000000    0.6616000000000000 C
   0.7635100000000000    0.8748200000000000    0.8422300000000000 C
   0.9815400000000000    0.9139300000000000    0.8333400000000000 C
   0.7708100000000000    0.6805600000000001    0.5986000000000000 C
   0.9810600000000000    0.7150700000000000    0.5969400000000000 C
   0.9697800000000000    0.8171900000000000    0.7120700000000000 C
   0.9227700000000000    0.7560400000000000    0.6580200000000000 C
   0.9221700000000000    0.8564100000000000    0.7736700000000000 C
   0.7762500000000000    0.7780400000000000    0.7225400000000000 C
   0.8235500000000000    0.8352200000000000    0.7800800000000000 C
   0.8244700000000000    0.7380100000000001    0.6616700000000000 C
   0.0128600000000000    0.3743500000000000    0.6577100000000000 C
   0.2311800000000000    0.4133400000000000    0.6664200000000000 C
   0.0204500000000000    0.1807100000000000    0.9016999999999999 C
   0.2306400000000000    0.2151900000000000    0.9032400000000000 C
   0.2192700000000000    0.3169900000000000    0.7877999999999999 C
   0.1716500000000000    0.3559800000000000    0.7261400000000000 C
   0.1722900000000000    0.2560300000000000    0.8421100000000000 C
   0.0257400000000000    0.2778400000000000    0.7775200000000000 C
   0.0740000000000000    0.2380100000000000    0.8385000000000000 C
   0.0730100000000000    0.3348500000000000    0.7198200000000000 C
   0.3631000000000000    0.0322600000000000    0.0103000000000000 O
   0.6369100000000000    0.9677400000000000    0.9896200000000001 O
   0.1369200000000000    0.9677900000000000    0.9896400000000000 O
   0.8630800000000000    0.0322100000000000    0.0103500000000000 O
   0.3868000000000000    0.4676900000000000    0.5103200000000000 O
   0.6132100000000000    0.5323000000000000    0.4896700000000000 O
   0.1131700000000000    0.5323300000000000    0.4896700000000000 O
   0.8868400000000000    0.4676700000000000    0.5103100000000000 O
   0.4554900000000000    0.3199100000000000    0.6180099999999999 O
   0.5210800000000000    0.4588200000000000    0.6525700000000000 O
   0.7285000000000000    0.0409000000000000    0.1525100000000000 O
   0.7948300000000000    0.1796700000000000    0.1184000000000000 O
   0.5474300000000000    0.0853100000000000    0.0938200000000000 O
   0.4407000000000000    0.0457000000000000    0.1941400000000000 O
   0.7936100000000000    0.2855500000000000    0.4380900000000000 O
   0.7060600000000000    0.3963600000000000    0.4137100000000000 O
   0.4770800000000000    0.2380000000000000    0.4582600000000000 O
   0.5058500000000000    0.3670100000000000    0.3958300000000000 O
   0.4789400000000000    0.5411800000000000    0.3474000000000000 O
   0.5445300000000000    0.6800900000000000    0.3819800000000000 O
   0.2976900000000000    0.5854700000000000    0.4062800000000000 O
   0.1905500000000000    0.5468600000000000    0.3060300000000000 O
   0.5441800000000000    0.7855600000000000    0.0619200000000000 O
   0.4556700000000000    0.8958600000000000    0.0854600000000000 O
   0.2284300000000000    0.7386300000000000    0.0410400000000000 O
   0.2554100000000000    0.8671300000000000    0.1045000000000000 O
   0.2284700000000000    0.0410500000000000    0.1525200000000000 O
   0.2946200000000000    0.1798500000000000    0.1182500000000000 O
   0.0474200000000000    0.0853600000000000    0.0937900000000000 O
   0.9406600000000001    0.0458700000000000    0.1941200000000000 O
   0.2936100000000000    0.2856300000000000    0.4380800000000000 O
   0.2058600000000000    0.3963300000000000    0.4138500000000000 O
   0.9774100000000000    0.2383800000000000    0.4583000000000000 O
   0.0055000000000000    0.3672200000000000    0.3956000000000000 O
   0.9791400000000000    0.5414900000000000    0.3475000000000000 O
   0.0453100000000000    0.6803200000000000    0.3817200000000000 O
   0.7979400000000000    0.5854900000000000    0.4063600000000000 O
   0.6906800000000000    0.5471000000000000    0.3061600000000000 O
   0.0442400000000000    0.7855600000000000    0.0618900000000000 O
   0.9557600000000001    0.8959000000000000    0.0853800000000000 O
   0.7280300000000000    0.7382800000000000    0.0413200000000000 O
   0.7556100000000000    0.8670200000000000    0.1043200000000000 O
   0.7716100000000000    0.2613900000000000   -0.0410700000000000 O
   0.5443100000000000    0.1041100000000000    0.9144000000000000 O
   0.4558500000000000    0.2144400000000000   -0.0619200000000000 O
   0.7445900000000000    0.1328800000000000   -0.1045000000000000 O
   0.2715200000000000    0.9591000000000000    0.8474800000000000 O
   0.2051700000000000    0.8203300000000000    0.8815900000000000 O
   0.4525800000000000    0.9146800000000000    0.9061700000000000 O
   0.5593300000000000    0.9542700000000000    0.8058000000000000 O
   0.2064000000000000    0.7144400000000000    0.5618900000000000 O
   0.2939400000000000    0.6036300000000000    0.5862800000000000 O
   0.5229300000000000    0.7619899999999999    0.5417200000000000 O
   0.4941500000000000    0.6329800000000000    0.6041000000000000 O
   0.7023200000000001    0.4145200000000000    0.5937100000000000 O
   0.8094500000000000    0.4531600000000000    0.6939600000000000 O
   0.7715600000000000    0.9589700000000000    0.8474699999999999 O
   0.7053900000000000    0.8201800000000000    0.8817300000000000 O
   0.9526000000000000    0.9146300000000001    0.9062000000000000 O
   0.0593500000000000    0.9541300000000000    0.8058000000000000 O
   0.7063900000000000    0.7143699999999999    0.5619100000000000 O
   0.7941600000000000    0.6036700000000000    0.5861000000000000 O
   0.0226000000000000    0.7616200000000000    0.5416000000000000 O
   0.9945100000000000    0.6327800000000000    0.6043900000000000 O
   0.0208700000000000    0.4585000000000000    0.6524900000000000 O
   0.9546900000000000    0.3196800000000000    0.6182700000000000 O
   0.2020600000000000    0.4145100000000000    0.5936300000000000 O
   0.3093300000000000    0.4528900000000000    0.6938000000000000 O
   0.9557700000000000    0.2144400000000000    0.9381000000000000 O
   0.0442400000000000    0.1040900000000000    0.9145900000000000 O
   0.2720000000000000    0.2617300000000000    0.9586500000000000 O
   0.2444000000000000    0.1329700000000000    0.8956800000000000 O
