H6 O4
1.0
  14.8024017469092097    0.0000000000000000   -1.3518130503509687
   1.1285640948672171   13.0356646981209341   -0.5504588648938127
   0.0000000000000000    0.0000000000000000   26.1999999999999993
H O
6 4
direct
   0.3711213796733213    0.0286433348140769    0.0833019512929320 H
   0.3710232850055996    0.8334404357363265    0.9856982369845164 H
   0.4030976483660655    0.9127986449601115    1.0436271571172098 H
   0.1288694621095732    0.9713435991360085    0.9166975597170339 H
   0.1289861816249865    0.1665572806338655    0.0143004959328754 H
   0.0968954422021636    1.0871957475321730    0.9563752084079405 H
   0.3288800000000000    0.0173100000000000    0.0535750000000000 O
   0.3288200000000000    0.8928700000000001    0.9913550000000000 O
   0.1711200000000000    0.9826800000000000    0.9464200000000000 O
   0.1711900000000000    0.1071300000000000    0.0086400000000000 O
