H2 O2
1.0
  14.8024017469092097    0.0000000000000000   -1.3518130503509687
   1.1285640948672171   13.0356646981209341   -0.5504588648938127
   0.0000000000000000    0.0000000000000000   26.1999999999999993
H O
2 2
direct
   0.8151095919570464    0.1792625872088479    0.6837816300612106 H
   0.9398347795402433    0.2160563653209786    0.6890687244662439 H
   0.8325000000000000    0.1792700000000000    0.6486450000000000 O
   0.9211400000000000    0.2068500000000000    0.6525000000000000 O
