H8 C14 O4
1.0
  17.2083485189623389    0.0000000000000000    0.9214283748217863
   0.1582934120279490   17.2276899392999283    0.9752838310218130
   0.0000000000000000    0.0000000000000000   34.8140000000000001
H C O
8 14 4
direct
   0.8429600000000000    0.1744200000000000    0.8095650000000000 H
   0.6990600000000000    0.1654800000000000    0.8085750000000000 H
   0.6914300000000000    0.0599700000000000    0.9239400000000000 H
   0.8355300000000000    0.0661100000000000    0.9238350000000000 H
   0.5935400000000000    0.0733100000000000    0.8091450000000000 H
   0.4492500000000000    0.0817200000000000    0.8088050000000000 H
   0.4397200000000000    0.1661600000000000    0.9226500000000000 H
   0.5837100000000000    0.1554700000000000    0.9239400000000000 H
   0.9339300000000000    0.1307400000000000    0.8678150000000000 C
   0.8479900000000000    0.1220600000000000    0.8669500000000000 C
   0.8091800000000000    0.1487400000000000    0.8342849999999999 C
   0.7288400000000000    0.1432900000000000    0.8338400000000000 C
   0.6848100000000000    0.1131500000000000    0.8663900000000000 C
   0.7243700000000000    0.0853400000000000    0.8987950000000000 C
   0.8050200000000000    0.0887000000000000    0.8989250000000000 C
   0.5989800000000000    0.1140200000000000    0.8665499999999999 C
   0.5599900000000000    0.0936600000000000    0.8341250000000000 C
   0.4793900000000000    0.0981600000000000    0.8337800000000000 C
   0.4355900000000000    0.1249000000000000    0.8655950000000000 C
   0.4739200000000000    0.1449700000000000    0.8981300000000000 C
   0.5543800000000000    0.1385700000000000    0.8987550000000000 C
   0.3493700000000000    0.1329700000000000    0.8646199999999999 C
  -0.0324000000000000    0.0931200000000000    0.8950150000000000 O
  -0.0333000000000000    0.1757800000000000    0.8415349999999999 O
   0.3148000000000000    0.1697100000000000    0.8916100000000000 O
   0.3171400000000000    0.1028800000000000    0.8368200000000000 O
