In12 H50 C88 O48
1.0
  14.6089995638847245    0.0000000000000000   -0.0035696520704124
   0.0053099191053414   19.1853208717477237   10.7381390777378325
   0.0000000000000000    0.0000000000000000   21.9720000000000013
In H C O
12 50 88 48
direct
   0.7499500000000000    0.5019100000000000    0.0000000000000000 In
   0.2499400000000000    0.5019100000000000    0.0000000000000000 In
   0.5001500000000000    0.5018400000000000    0.0000000000000000 In
   0.7499400000000001    0.9979400000000000    0.0025600000000000 In
   0.5000599999999999    0.9980599999999999    0.0024700000000000 In
   0.0001400000000000    0.5018400000000000    0.0000000000000000 In
   0.0000500000000000    0.9980599999999999    0.0024000000000000 In
   0.2499300000000000    0.9979500000000000    0.0025600000000000 In
   0.9998400000000000    0.9996800000000000    0.5001000000000000 In
   0.4998600000000000    0.9996800000000000    0.5001000000000000 In
   0.7501800000000000    0.9996900000000000    0.5000900000000000 In
   0.2501700000000000    0.9996900000000000    0.5000900000000000 In
   0.4865722413958078    0.3995272872118417    0.1220254719958538 H
   0.7637943810311372    0.3982841892304886    0.1214896505259523 H
   0.6252237936886000    0.3942098099122628    0.1273100838169940 H
   0.5218500000000000    0.3222800000000000    0.9688000000000000 H
   0.5217700000000000    0.2096100000000000    0.9661999999999999 H
   0.2280400000000000    0.2099600000000000    0.9656700000000000 H
   0.2280400000000000    0.3226800000000000    0.9682100000000000 H
   0.7280500000000000    0.2099600000000000    0.9656700000000000 H
   0.7280500000000000    0.3226900000000000    0.9682100000000000 H
   0.0217500000000000    0.2096100000000000    0.9661999999999999 H
   0.0218400000000000    0.3222800000000000    0.9688300000000000 H
   0.9781500000000000    0.3159600000000000    0.2031300000000000 H
   0.9780900000000000    0.2025500000000000    0.3152200000000000 H
   0.2719300000000000    0.3155000000000000    0.2029500000000000 H
   0.2718700000000000    0.2021300000000000    0.3150700000000000 H
   0.4868259565506310    1.1207054901750528    0.3967341387074108 H
   0.7631196509524312    1.1206842420800158    0.3966485588422698 H
   0.6249761831557265    1.1265159855242755    0.3917171654640555 H
   0.9780900000000000    0.0339000000000000    0.7909700000000000 H
   0.9781400000000000    0.0311000000000000    0.6781000000000000 H
   0.2719000000000000    0.0307200000000000    0.6783600000000000 H
   0.2719200000000000    0.0335100000000000    0.7912300000000000 H
   0.4780700000000000    0.0339000000000000    0.7909700000000000 H
   0.4781300000000000    0.0311000000000000    0.6781000000000000 H
   0.7719400000000000    0.0335100000000000    0.7912300000000000 H
   0.7719100000000000    0.0307200000000000    0.6783600000000000 H
   0.7280700000000000    0.7986100000000000    0.6863200000000000 H
   0.7280300000000000    0.6862100000000000    0.7997000000000000 H
   0.0219800000000000    0.7974700000000000    0.6855700000000000 H
   0.0218200000000000    0.6849800000000000    0.7989000000000001 H
   0.5219900000000000    0.7974700000000000    0.6855700000000000 H
   0.5218300000000000    0.6849800000000000    0.7989000000000001 H
   0.2280200000000000    0.6862100000000000    0.7997000000000000 H
   0.2280600000000000    0.7986100000000000    0.6863200000000000 H
   0.4780300000000000    0.7906000000000000    0.0374300000000000 H
   0.4778800000000000    0.6789600000000000    0.0319200000000000 H
   0.7718400000000000    0.6777500000000000    0.0339100000000000 H
   0.7719400000000000    0.7894700000000000    0.0392800000000000 H
   0.0220000000000000    0.9623400000000000    0.2107400000000000 H
   0.0219900000000000    0.9667800000000000    0.3230000000000000 H
   0.7281100000000000    0.9669600000000000    0.3228000000000000 H
   0.7281100000000000    0.9625000000000000    0.2106000000000000 H
   0.9778900000000000    0.6789700000000000    0.0319200000000000 H
   0.9780400000000000    0.7906000000000000    0.0374300000000000 H
   0.2718200000000000    0.6777500000000000    0.0339100000000000 H
   0.2719200000000000    0.7894700000000000    0.0392900000000000 H
   0.5220200000000000    0.9623400000000000    0.2107400000000000 H
   0.5220000000000000    0.9667800000000000    0.3230400000000000 H
   0.2281000000000000    0.9625100000000000    0.2106000000000000 H
   0.2280900000000000    0.9669600000000000    0.3228900000000000 H
   0.3749300000000000    0.1331700000000000    0.9692200000000000 C
   0.3750900000000000    0.3951100000000000    0.9731100000000000 C
   0.4578700000000000    0.2975400000000000    0.9676100000000000 C
   0.4578200000000000    0.2349300000000000    0.9663700000000000 C
   0.2920100000000000    0.2351200000000000    0.9660600000000000 C
   0.2920000000000000    0.2977700000000000    0.9672700000000000 C
   0.3749000000000000    0.2028900000000000    0.9661100000000000 C
   0.3749500000000000    0.3292700000000000    0.9685300000000000 C
   0.8749400000000001    0.1331700000000000    0.9692300000000000 C
   0.8751000000000000    0.3951100000000000    0.9731100000000000 C
   0.7920300000000000    0.2351300000000000    0.9660500000000000 C
   0.7920199999999999    0.2977600000000000    0.9671999999999999 C
   0.9578300000000000    0.2349300000000000    0.9663600000000000 C
   0.9578900000000000    0.2975300000000000    0.9676200000000000 C
   0.8749200000000000    0.2028900000000000    0.9661000000000000 C
   0.8749600000000000    0.3292700000000000    0.9685300000000000 C
   0.1251200000000000    0.3896900000000000    0.1286400000000000 C
   0.1249600000000000    0.1273300000000000    0.3883000000000000 C
   0.0420800000000000    0.2909000000000000    0.2283400000000000 C
   0.0420400000000000    0.2280500000000000    0.2905700000000000 C
   0.1250300000000000    0.3227600000000000    0.1966600000000000 C
   0.2079500000000000    0.2906400000000000    0.2282400000000000 C
   0.2079300000000000    0.2278100000000000    0.2904800000000000 C
   0.1249700000000000    0.1959500000000000    0.3221400000000000 C
   0.1250100000000000    0.0255600000000000    0.6063200000000000 C
   0.1249700000000000    0.0305400000000000    0.8676199999999999 C
   0.0420300000000000    0.0333300000000000    0.7658800000000000 C
   0.0419400000000000    0.0318800000000000    0.7033199999999999 C
   0.2080600000000000    0.0316600000000000    0.7034000000000000 C
   0.2079600000000000    0.0331100000000000    0.7660200000000000 C
   0.1250000000000000    0.0304300000000000    0.6720300000000000 C
   0.1249900000000000    0.0333900000000000    0.7980600000000000 C
   0.6250200000000000    0.0255600000000000    0.6063200000000000 C
   0.6249900000000000    0.0305400000000000    0.8676199999999999 C
   0.5420500000000000    0.0333300000000000    0.7658800000000000 C
   0.5419500000000000    0.0318800000000000    0.7033199999999999 C
   0.7079700000000000    0.0331100000000000    0.7660200000000000 C
   0.7080800000000000    0.0316600000000000    0.7034600000000000 C
   0.6250200000000000    0.0304300000000000    0.6720300000000000 C
   0.6250000000000000    0.0333800000000000    0.7980600000000000 C
   0.8748600000000000    0.6132500000000000    0.8744499999999999 C
   0.8750700000000000    0.8724700000000000    0.6123000000000000 C
   0.7920000000000000    0.7731300000000000    0.7111400000000000 C
   0.7918800000000000    0.7109400000000000    0.7740000000000000 C
   0.9580200000000000    0.7724800000000001    0.7107000000000000 C
   0.9580400000000000    0.7102500000000000    0.7735800000000000 C
   0.8749300000000000    0.6792300000000000    0.8057299999999999 C
   0.8750400000000000    0.8044500000000000    0.6790300000000000 C
   0.3748400000000000    0.6132500000000000    0.8744499999999999 C
   0.3750500000000000    0.8724700000000000    0.6123300000000000 C
   0.4580000000000000    0.7724800000000001    0.7107100000000000 C
   0.4580200000000000    0.7102600000000000    0.7735800000000000 C
   0.2918700000000000    0.7109400000000000    0.7740400000000000 C
   0.2919900000000000    0.7731200000000000    0.7111400000000000 C
   0.3749200000000000    0.6792300000000000    0.8057299999999999 C
   0.3750200000000000    0.8044500000000000    0.6790300000000000 C
   0.6250599999999999    0.8652000000000000    0.0367400000000000 C
   0.6248200000000000    0.6078700000000000    0.0254100000000000 C
   0.5417900000000000    0.7650900000000000    0.0371300000000000 C
   0.5417300000000000    0.7034700000000000    0.0339400000000000 C
   0.7080400000000000    0.7027900000000000    0.0350500000000000 C
   0.7081100000000000    0.7644500000000000    0.0381800000000000 C
   0.6249900000000000    0.7962200000000000    0.0386600000000000 C
   0.6248600000000000    0.6722600000000000    0.0323600000000000 C
   0.8750599999999999    0.9644400000000000    0.1352700000000000 C
   0.8750400000000000    0.9736000000000000    0.3900000000000000 C
   0.9582300000000000    0.9629200000000000    0.2360700000000000 C
   0.9582100000000000    0.9655400000000000    0.2980000000000000 C
   0.7919200000000000    0.9656400000000001    0.2979500000000000 C
   0.7919100000000000    0.9630100000000000    0.2359900000000000 C
   0.8750700000000000    0.9622200000000000    0.2044200000000000 C
   0.8750599999999999    0.9674500000000000    0.3290400000000000 C
   0.1250500000000000    0.8652000000000000    0.0367400000000000 C
   0.1248100000000000    0.6078700000000000    0.0254100000000000 C
   0.0417100000000000    0.7034600000000000    0.0339000000000000 C
   0.0417800000000000    0.7650900000000000    0.0371200000000000 C
   0.2080200000000000    0.7027900000000000    0.0350000000000000 C
   0.2080900000000000    0.7644500000000000    0.0381800000000000 C
   0.1248400000000000    0.6722600000000000    0.0323600000000000 C
   0.1249700000000000    0.7962200000000000    0.0386600000000000 C
   0.3750300000000000    0.9736000000000000    0.3940000000000000 C
   0.3750500000000000    0.9644400000000000    0.1352700000000000 C
   0.4582100000000000    0.9629100000000000    0.2360000000000000 C
   0.4581900000000000    0.9655500000000000    0.2980300000000000 C
   0.3750600000000000    0.9622200000000000    0.2044200000000000 C
   0.2918900000000000    0.9630000000000000    0.2360000000000000 C
   0.2919000000000000    0.9656500000000000    0.2979500000000000 C
   0.3750400000000000    0.9674500000000000    0.3290400000000000 C
   0.5471300000000000    0.4155000000000000    0.1027000000000000 O
   0.7032500000000000    0.4147900000000000    0.1024100000000000 O
   0.2969000000000000    0.1063200000000000    0.9709000000000000 O
   0.4530100000000000    0.1063700000000000    0.9708700000000000 O
   0.2971400000000000    0.4206700000000000    0.9744000000000000 O
   0.4532600000000000    0.4196100000000000    0.9758000000000000 O
   0.7969100000000000    0.1063200000000000    0.9709000000000000 O
   0.9530300000000000    0.1063700000000000    0.9708700000000000 O
   0.9532700000000000    0.4196100000000000    0.9758000000000000 O
   0.7971600000000000    0.4206700000000000    0.9744400000000000 O
   0.2032300000000000    0.4147900000000000    0.1024100000000000 O
   0.0471200000000000    0.4155000000000000    0.1027000000000000 O
   0.2029300000000000    0.1009900000000000    0.4135000000000000 O
   0.0470100000000000    0.1010000000000000    0.4135500000000000 O
   0.5470200000000000    1.1010000000000000    0.4135500000000000 O
   0.7029500000000000    1.1009899999999999    0.4135000000000000 O
   0.2030900000000000    0.0235100000000000    0.5814900000000000 O
   0.0469200000000000    0.0236300000000000    0.5814100000000000 O
   0.0469400000000000    0.0291000000000000    0.8944800000000001 O
   0.2030100000000000    0.0288800000000000    0.8946000000000000 O
   0.7030999999999999    0.0235100000000000    0.5814900000000000 O
   0.5469300000000000    0.0236300000000000    0.5814100000000000 O
   0.7030300000000000    0.0288800000000000    0.8946000000000000 O
   0.5469500000000000    0.0291000000000000    0.8944800000000001 O
   0.9527400000000000    0.5873100000000000    0.9001300000000000 O
   0.7968700000000000    0.5889700000000000    0.9012600000000000 O
   0.9530000000000000    0.8987300000000000    0.5867599999999999 O
   0.7971300000000000    0.8987600000000000    0.5867300000000000 O
   0.4527200000000000    0.5873100000000000    0.9001300000000000 O
   0.2968500000000000    0.5889700000000000    0.9012600000000000 O
   0.2971100000000000    0.8987600000000000    0.5867300000000000 O
   0.4529900000000000    0.8987300000000000    0.5867599999999999 O
   0.5471800000000000    0.8920500000000000    0.0352000000000000 O
   0.7029800000000000    0.8918500000000000    0.0355800000000000 O
   0.7027000000000000    0.5826000000000000    0.0236700000000000 O
   0.5468700000000000    0.5840100000000000    0.0213700000000000 O
   0.9529600000000000    0.9658900000000000    0.1084400000000000 O
   0.7971200000000001    0.9658400000000000    0.1084800000000000 O
   0.7969700000000000    0.9761800000000000    0.4186100000000000 O
   0.9531200000000000    0.9761500000000000    0.4186500000000000 O
   0.2029700000000000    0.8918500000000000    0.0355800000000000 O
   0.0471600000000000    0.8920500000000000    0.0352900000000000 O
   0.2026900000000000    0.5826000000000000    0.0236700000000000 O
   0.0468500000000000    0.5840100000000000    0.0213700000000000 O
   0.2969600000000000    0.9761800000000000    0.4186100000000000 O
   0.4531000000000000    0.9761500000000000    0.4186500000000000 O
   0.4529500000000000    0.9658900000000000    0.1084400000000000 O
   0.2971100000000000    0.9658400000000000    0.1084800000000000 O
