H3 O2
1.0
  30.2579834091965196    0.0000000000000000   -0.0316860977128264
  -0.0086027897677318   34.7844113292226211   -0.6770047794936090
   0.0000000000000000    0.0000000000000000   29.5859999999999985
H O
3 2
direct
   0.3591413101809404    0.7052621059397164    0.3739411662296614 H
   0.3678465882339746    0.6401882677681032    0.4159796067486020 H
   0.3558717106695469    0.5864342945847751    0.2468243222844354 H
   0.3611333333333333    0.7167133333333333    0.4040300000000000 O
   0.3686400000000000    0.6598333333333333    0.4396850000000000 O
