H1 C1 O2
1.0
  30.2579834091965196    0.0000000000000000   -0.0316860977128264
  -0.0086027897677318   34.7844113292226211   -0.6770047794936090
   0.0000000000000000    0.0000000000000000   29.5859999999999985
H C O
1 1 2
direct
   0.4007800000000000    0.6732766666666666    0.3824250000000000 H
   0.3769866666666666    0.6827666666666666    0.4087700000000000 C
   0.3686400000000000    0.6598333333333333    0.4396850000000000 O
   0.3611333333333333    0.7167133333333333    0.4040300000000000 O
