Zn216 H431 C431 O862
1.0
  30.2579834091965196    0.0000000000000000   -0.0316860977128264
  -0.0086027897677318   34.7844113292226211   -0.6770047794936090
   0.0000000000000000    0.0000000000000000   29.5859999999999985
Zn H C O
216 431 431 862
direct
   0.2958866666666666    0.2468133333333333    0.1547400000000000 Zn
   0.1921366666666667    0.2483633333333333    0.1853550000000000 Zn
   0.1290666666666667    0.2531833333333333    0.0953550000000000 Zn
   0.3082766666666666    0.0816900000000000    0.4353300000000000 Zn
   0.0374333333333333    0.0865233333333333    0.3452450000000000 Zn
   0.1411866666666667    0.0849733333333333    0.3146300000000000 Zn
   0.2042566666666667    0.0801500000000000    0.4046300000000000 Zn
   0.3333300000000000    0.1666666666666667    0.4999950000000000 Zn
   0.1666633333333333    0.0000000000000000    0.2499950000000000 Zn
   0.0000000000000000    0.0000000000000000    0.0000000000000000 Zn
   0.1666600000000000    0.1666666666666667    0.2499950000000000 Zn
   0.0250500000000000    0.2516433333333333    0.0646550000000000 Zn
   0.6292199999999999    0.2468133333333333    0.1547400000000000 Zn
   0.5254700000000000    0.2483633333333333    0.1853550000000000 Zn
   0.4624000000000000    0.2531833333333333    0.0953550000000000 Zn
   0.6416100000000000    0.0816900000000000    0.4353300000000000 Zn
   0.3707666666666666    0.0865233333333333    0.3452450000000000 Zn
   0.4745199999999999    0.0849733333333333    0.3146300000000000 Zn
   0.5375900000000000    0.0801500000000000    0.4046300000000000 Zn
   0.6666633333333334    0.1666666666666667    0.4999950000000000 Zn
   0.4999966666666666    0.0000000000000000    0.2499950000000000 Zn
   0.3333333333333333    0.0000000000000000    0.0000000000000000 Zn
   0.4999933333333333    0.1666666666666667    0.2499950000000000 Zn
   0.3583833333333333    0.2516433333333333    0.0646550000000000 Zn
   0.9625533333333333    0.2468133333333333    0.1547400000000000 Zn
   0.8588033333333333    0.2483633333333333    0.1853550000000000 Zn
   0.7957333333333333    0.2531833333333333    0.0953550000000000 Zn
   0.9749433333333333    0.0816900000000000    0.4353300000000000 Zn
   0.7040999999999999    0.0865233333333333    0.3452450000000000 Zn
   0.8078533333333333    0.0849733333333333    0.3146300000000000 Zn
   0.8709233333333333    0.0801500000000000    0.4046300000000000 Zn
   0.9999966666666666    0.1666666666666667    0.4999950000000000 Zn
   0.8333299999999999    0.0000000000000000    0.2499950000000000 Zn
   0.6666666666666666    0.0000000000000000    0.0000000000000000 Zn
   0.8333266666666665    0.1666666666666667    0.2499950000000000 Zn
   0.6917166666666666    0.2516433333333333    0.0646550000000000 Zn
   0.2958866666666666    0.5801466666666666    0.1547400000000000 Zn
   0.1921366666666667    0.5816966666666666    0.1853550000000000 Zn
   0.1290666666666667    0.5865166666666666    0.0953550000000000 Zn
   0.3082766666666666    0.4150233333333333    0.4353300000000000 Zn
   0.0374333333333333    0.4198566666666667    0.3452450000000000 Zn
   0.1411866666666667    0.4183066666666666    0.3146300000000000 Zn
   0.2042566666666667    0.4134833333333333    0.4046300000000000 Zn
   0.3333300000000000    0.5000000000000000    0.4999950000000000 Zn
   0.1666633333333333    0.3333333333333333    0.2499950000000000 Zn
   0.0000000000000000    0.3333333333333333    0.0000000000000000 Zn
   0.1666600000000000    0.5000000000000000    0.2499950000000000 Zn
   0.0250500000000000    0.5849766666666667    0.0646550000000000 Zn
   0.6292199999999999    0.5801466666666666    0.1547400000000000 Zn
   0.5254700000000000    0.5816966666666666    0.1853550000000000 Zn
   0.4624000000000000    0.5865166666666666    0.0953550000000000 Zn
   0.6416100000000000    0.4150233333333333    0.4353300000000000 Zn
   0.3707666666666666    0.4198566666666667    0.3452450000000000 Zn
   0.4745199999999999    0.4183066666666666    0.3146300000000000 Zn
   0.5375900000000000    0.4134833333333333    0.4046300000000000 Zn
   0.6666633333333334    0.5000000000000000    0.4999950000000000 Zn
   0.4999966666666666    0.3333333333333333    0.2499950000000000 Zn
   0.3333333333333333    0.3333333333333333    0.0000000000000000 Zn
   0.4999933333333333    0.5000000000000000    0.2499950000000000 Zn
   0.3583833333333333    0.5849766666666667    0.0646550000000000 Zn
   0.9625533333333333    0.5801466666666666    0.1547400000000000 Zn
   0.8588033333333333    0.5816966666666666    0.1853550000000000 Zn
   0.7957333333333333    0.5865166666666666    0.0953550000000000 Zn
   0.9749433333333333    0.4150233333333333    0.4353300000000000 Zn
   0.7040999999999999    0.4198566666666667    0.3452450000000000 Zn
   0.8078533333333333    0.4183066666666666    0.3146300000000000 Zn
   0.8709233333333333    0.4134833333333333    0.4046300000000000 Zn
   0.9999966666666666    0.5000000000000000    0.4999950000000000 Zn
   0.8333299999999999    0.3333333333333333    0.2499950000000000 Zn
   0.6666666666666666    0.3333333333333333    0.0000000000000000 Zn
   0.8333266666666665    0.5000000000000000    0.2499950000000000 Zn
   0.6917166666666666    0.5849766666666667    0.0646550000000000 Zn
   0.2958866666666666    0.9134800000000000    0.1547400000000000 Zn
   0.1921366666666667    0.9150300000000000    0.1853550000000000 Zn
   0.1290666666666667    0.9198499999999999    0.0953550000000000 Zn
   0.3082766666666666    0.7483566666666667    0.4353300000000000 Zn
   0.0374333333333333    0.7531900000000000    0.3452450000000000 Zn
   0.1411866666666667    0.7516400000000000    0.3146300000000000 Zn
   0.2042566666666667    0.7468166666666667    0.4046300000000000 Zn
   0.3333300000000000    0.8333333333333333    0.4999950000000000 Zn
   0.1666633333333333    0.6666666666666666    0.2499950000000000 Zn
   0.0000000000000000    0.6666666666666666    0.0000000000000000 Zn
   0.1666600000000000    0.8333333333333333    0.2499950000000000 Zn
   0.0250500000000000    0.9183100000000000    0.0646550000000000 Zn
   0.6292199999999999    0.9134800000000000    0.1547400000000000 Zn
   0.5254700000000000    0.9150300000000000    0.1853550000000000 Zn
   0.4624000000000000    0.9198499999999999    0.0953550000000000 Zn
   0.6416100000000000    0.7483566666666667    0.4353300000000000 Zn
   0.3707666666666666    0.7531900000000000    0.3452450000000000 Zn
   0.4745199999999999    0.7516400000000000    0.3146300000000000 Zn
   0.5375900000000000    0.7468166666666667    0.4046300000000000 Zn
   0.6666633333333334    0.8333333333333333    0.4999950000000000 Zn
   0.4999966666666666    0.6666666666666666    0.2499950000000000 Zn
   0.3333333333333333    0.6666666666666666    0.0000000000000000 Zn
   0.4999933333333333    0.8333333333333333    0.2499950000000000 Zn
   0.3583833333333333    0.9183100000000000    0.0646550000000000 Zn
   0.9625533333333333    0.9134800000000000    0.1547400000000000 Zn
   0.8588033333333333    0.9150300000000000    0.1853550000000000 Zn
   0.7957333333333333    0.9198499999999999    0.0953550000000000 Zn
   0.9749433333333333    0.7483566666666667    0.4353300000000000 Zn
   0.7040999999999999    0.7531900000000000    0.3452450000000000 Zn
   0.8078533333333333    0.7516400000000000    0.3146300000000000 Zn
   0.8709233333333333    0.7468166666666667    0.4046300000000000 Zn
   0.9999966666666666    0.8333333333333333    0.4999950000000000 Zn
   0.8333299999999999    0.6666666666666666    0.2499950000000000 Zn
   0.6666666666666666    0.6666666666666666    0.0000000000000000 Zn
   0.8333266666666665    0.8333333333333333    0.2499950000000000 Zn
   0.6917166666666666    0.9183100000000000    0.0646550000000000 Zn
   0.2958866666666666    0.2468133333333333    0.6547400000000000 Zn
   0.1921366666666667    0.2483633333333333    0.6853549999999999 Zn
   0.1290666666666667    0.2531833333333333    0.5953550000000000 Zn
   0.3082766666666666    0.0816900000000000    0.9353300000000000 Zn
   0.0374333333333333    0.0865233333333333    0.8452450000000000 Zn
   0.1411866666666667    0.0849733333333333    0.8146300000000000 Zn
   0.2042566666666667    0.0801500000000000    0.9046300000000000 Zn
   0.3333300000000000    0.1666666666666667    0.9999950000000000 Zn
   0.1666633333333333    0.0000000000000000    0.7499950000000000 Zn
   0.0000000000000000    0.0000000000000000    0.5000000000000000 Zn
   0.1666600000000000    0.1666666666666667    0.7499950000000000 Zn
   0.0250500000000000    0.2516433333333333    0.5646550000000000 Zn
   0.6292199999999999    0.2468133333333333    0.6547400000000000 Zn
   0.5254700000000000    0.2483633333333333    0.6853549999999999 Zn
   0.4624000000000000    0.2531833333333333    0.5953550000000000 Zn
   0.6416100000000000    0.0816900000000000    0.9353300000000000 Zn
   0.3707666666666666    0.0865233333333333    0.8452450000000000 Zn
   0.4745199999999999    0.0849733333333333    0.8146300000000000 Zn
   0.5375900000000000    0.0801500000000000    0.9046300000000000 Zn
   0.6666633333333334    0.1666666666666667    0.9999950000000000 Zn
   0.4999966666666666    0.0000000000000000    0.7499950000000000 Zn
   0.3333333333333333    0.0000000000000000    0.5000000000000000 Zn
   0.4999933333333333    0.1666666666666667    0.7499950000000000 Zn
   0.3583833333333333    0.2516433333333333    0.5646550000000000 Zn
   0.9625533333333333    0.2468133333333333    0.6547400000000000 Zn
   0.8588033333333333    0.2483633333333333    0.6853549999999999 Zn
   0.7957333333333333    0.2531833333333333    0.5953550000000000 Zn
   0.9749433333333333    0.0816900000000000    0.9353300000000000 Zn
   0.7040999999999999    0.0865233333333333    0.8452450000000000 Zn
   0.8078533333333333    0.0849733333333333    0.8146300000000000 Zn
   0.8709233333333333    0.0801500000000000    0.9046300000000000 Zn
   0.9999966666666666    0.1666666666666667    0.9999950000000000 Zn
   0.8333299999999999    0.0000000000000000    0.7499950000000000 Zn
   0.6666666666666666    0.0000000000000000    0.5000000000000000 Zn
   0.8333266666666665    0.1666666666666667    0.7499950000000000 Zn
   0.6917166666666666    0.2516433333333333    0.5646550000000000 Zn
   0.2958866666666666    0.5801466666666666    0.6547400000000000 Zn
   0.1921366666666667    0.5816966666666666    0.6853549999999999 Zn
   0.1290666666666667    0.5865166666666666    0.5953550000000000 Zn
   0.3082766666666666    0.4150233333333333    0.9353300000000000 Zn
   0.0374333333333333    0.4198566666666667    0.8452450000000000 Zn
   0.1411866666666667    0.4183066666666666    0.8146300000000000 Zn
   0.2042566666666667    0.4134833333333333    0.9046300000000000 Zn
   0.3333300000000000    0.5000000000000000    0.9999950000000000 Zn
   0.1666633333333333    0.3333333333333333    0.7499950000000000 Zn
   0.0000000000000000    0.3333333333333333    0.5000000000000000 Zn
   0.1666600000000000    0.5000000000000000    0.7499950000000000 Zn
   0.0250500000000000    0.5849766666666667    0.5646550000000000 Zn
   0.6292199999999999    0.5801466666666666    0.6547400000000000 Zn
   0.5254700000000000    0.5816966666666666    0.6853549999999999 Zn
   0.4624000000000000    0.5865166666666666    0.5953550000000000 Zn
   0.6416100000000000    0.4150233333333333    0.9353300000000000 Zn
   0.3707666666666666    0.4198566666666667    0.8452450000000000 Zn
   0.4745199999999999    0.4183066666666666    0.8146300000000000 Zn
   0.5375900000000000    0.4134833333333333    0.9046300000000000 Zn
   0.6666633333333334    0.5000000000000000    0.9999950000000000 Zn
   0.4999966666666666    0.3333333333333333    0.7499950000000000 Zn
   0.3333333333333333    0.3333333333333333    0.5000000000000000 Zn
   0.4999933333333333    0.5000000000000000    0.7499950000000000 Zn
   0.3583833333333333    0.5849766666666667    0.5646550000000000 Zn
   0.9625533333333333    0.5801466666666666    0.6547400000000000 Zn
   0.8588033333333333    0.5816966666666666    0.6853549999999999 Zn
   0.7957333333333333    0.5865166666666666    0.5953550000000000 Zn
   0.9749433333333333    0.4150233333333333    0.9353300000000000 Zn
   0.7040999999999999    0.4198566666666667    0.8452450000000000 Zn
   0.8078533333333333    0.4183066666666666    0.8146300000000000 Zn
   0.8709233333333333    0.4134833333333333    0.9046300000000000 Zn
   0.9999966666666666    0.5000000000000000    0.9999950000000000 Zn
   0.8333299999999999    0.3333333333333333    0.7499950000000000 Zn
   0.6666666666666666    0.3333333333333333    0.5000000000000000 Zn
   0.8333266666666665    0.5000000000000000    0.7499950000000000 Zn
   0.6917166666666666    0.5849766666666667    0.5646550000000000 Zn
   0.2958866666666666    0.9134800000000000    0.6547400000000000 Zn
   0.1921366666666667    0.9150300000000000    0.6853549999999999 Zn
   0.1290666666666667    0.9198499999999999    0.5953550000000000 Zn
   0.3082766666666666    0.7483566666666667    0.9353300000000000 Zn
   0.0374333333333333    0.7531900000000000    0.8452450000000000 Zn
   0.1411866666666667    0.7516400000000000    0.8146300000000000 Zn
   0.2042566666666667    0.7468166666666667    0.9046300000000000 Zn
   0.3333300000000000    0.8333333333333333    0.9999950000000000 Zn
   0.1666633333333333    0.6666666666666666    0.7499950000000000 Zn
   0.0000000000000000    0.6666666666666666    0.5000000000000000 Zn
   0.1666600000000000    0.8333333333333333    0.7499950000000000 Zn
   0.0250500000000000    0.9183100000000000    0.5646550000000000 Zn
   0.6292199999999999    0.9134800000000000    0.6547400000000000 Zn
   0.5254700000000000    0.9150300000000000    0.6853549999999999 Zn
   0.4624000000000000    0.9198499999999999    0.5953550000000000 Zn
   0.6416100000000000    0.7483566666666667    0.9353300000000000 Zn
   0.3707666666666666    0.7531900000000000    0.8452450000000000 Zn
   0.4745199999999999    0.7516400000000000    0.8146300000000000 Zn
   0.5375900000000000    0.7468166666666667    0.9046300000000000 Zn
   0.6666633333333334    0.8333333333333333    0.9999950000000000 Zn
   0.4999966666666666    0.6666666666666666    0.7499950000000000 Zn
   0.3333333333333333    0.6666666666666666    0.5000000000000000 Zn
   0.4999933333333333    0.8333333333333333    0.7499950000000000 Zn
   0.3583833333333333    0.9183100000000000    0.5646550000000000 Zn
   0.9625533333333333    0.9134800000000000    0.6547400000000000 Zn
   0.8588033333333333    0.9150300000000000    0.6853549999999999 Zn
   0.7957333333333333    0.9198499999999999    0.5953550000000000 Zn
   0.9749433333333333    0.7483566666666667    0.9353300000000000 Zn
   0.7040999999999999    0.7531900000000000    0.8452450000000000 Zn
   0.8078533333333333    0.7516400000000000    0.8146300000000000 Zn
   0.8709233333333333    0.7468166666666667    0.9046300000000000 Zn
   0.9999966666666666    0.8333333333333333    0.9999950000000000 Zn
   0.8333299999999999    0.6666666666666666    0.7499950000000000 Zn
   0.6666666666666666    0.6666666666666666    0.5000000000000000 Zn
   0.8333266666666665    0.8333333333333333    0.7499950000000000 Zn
   0.6917166666666666    0.9183100000000000    0.5646550000000000 Zn
   0.0825800000000000    0.2855733333333333    0.1861500000000000 H
   0.3178266666666666    0.1584900000000000    0.1359900000000000 H
   0.1306766666666667    0.1873066666666666    0.0213600000000000 H
   0.2658733333333333    0.3267266666666667    0.1175550000000000 H
   0.2787900000000000    0.2302866666666667    0.4601550000000000 H
   0.0977300000000000    0.0012600000000000    0.0061050000000000 H
   0.2490800000000000    0.2144866666666667    0.0638500000000000 H
   0.1511033333333333    0.0081900000000000    0.1141100000000000 H
   0.2975833333333333    0.3128733333333333    0.2287600000000000 H
   0.0991400000000000    0.1733433333333333    0.1324150000000000 H
   0.1121166666666667    0.2697733333333333    0.2894250000000000 H
   0.2645966666666666    0.1653000000000000    0.2438750000000000 H
   0.2507433333333333    0.0477600000000000    0.3138350000000000 H
   0.0154966666666667    0.1748400000000000    0.3639900000000000 H
   0.2026433333333333    0.1460266666666667    0.4786200000000000 H
   0.0674466666666667    0.0066100000000000    0.3824250000000000 H
   0.0545333333333333    0.1030466666666667    0.0398200000000000 H
   0.2355933333333333    0.3320733333333333    0.4938800000000000 H
   0.0842433333333333    0.1188500000000000    0.4361300000000000 H
   0.1822133333333333    0.3251400000000000    0.3858700000000000 H
   0.0357400000000000    0.0204633333333333    0.2712200000000000 H
   0.2341866666666667    0.1599900000000000    0.3675650000000000 H
   0.2212066666666667    0.0635633333333333    0.2105550000000000 H
   0.0687266666666667    0.1680333333333333    0.2561050000000000 H
   0.4159133333333333    0.2855733333333333    0.1861500000000000 H
   0.6511600000000000    0.1584900000000000    0.1359900000000000 H
   0.4640100000000000    0.1873066666666666    0.0213600000000000 H
   0.5992066666666667    0.3267266666666667    0.1175550000000000 H
   0.6121233333333334    0.2302866666666667    0.4601550000000000 H
   0.4310633333333333    0.0012600000000000    0.0061050000000000 H
   0.5824133333333333    0.2144866666666667    0.0638500000000000 H
   0.4844366666666666    0.0081900000000000    0.1141100000000000 H
   0.6309166666666666    0.3128733333333333    0.2287600000000000 H
   0.4324733333333333    0.1733433333333333    0.1324150000000000 H
   0.4454500000000000    0.2697733333333333    0.2894250000000000 H
   0.5979300000000000    0.1653000000000000    0.2438750000000000 H
   0.5840766666666666    0.0477600000000000    0.3138350000000000 H
   0.3488300000000000    0.1748400000000000    0.3639900000000000 H
   0.5359766666666667    0.1460266666666667    0.4786200000000000 H
   0.4007800000000000    0.0066100000000000    0.3824250000000000 H
   0.3878666666666666    0.1030466666666667    0.0398200000000000 H
   0.5689266666666666    0.3320733333333333    0.4938800000000000 H
   0.4175766666666667    0.1188500000000000    0.4361300000000000 H
   0.5155466666666666    0.3251400000000000    0.3858700000000000 H
   0.3690733333333333    0.0204633333333333    0.2712200000000000 H
   0.5675200000000000    0.1599900000000000    0.3675650000000000 H
   0.5545400000000000    0.0635633333333333    0.2105550000000000 H
   0.4020600000000000    0.1680333333333333    0.2561050000000000 H
   0.7492466666666666    0.2855733333333333    0.1861500000000000 H
   0.9844933333333332    0.1584900000000000    0.1359900000000000 H
   0.7973433333333333    0.1873066666666666    0.0213600000000000 H
   0.9325399999999999    0.3267266666666667    0.1175550000000000 H
   0.9454566666666666    0.2302866666666667    0.4601550000000000 H
   0.7643966666666666    0.0012600000000000    0.0061050000000000 H
   0.9157466666666666    0.2144866666666667    0.0638500000000000 H
   0.8177699999999999    0.0081900000000000    0.1141100000000000 H
   0.9642499999999999    0.3128733333333333    0.2287600000000000 H
   0.7658066666666666    0.1733433333333333    0.1324150000000000 H
   0.7787833333333333    0.2697733333333333    0.2894250000000000 H
   0.9312633333333333    0.1653000000000000    0.2438750000000000 H
   0.9174099999999999    0.0477600000000000    0.3138350000000000 H
   0.6821633333333333    0.1748400000000000    0.3639900000000000 H
   0.8693099999999999    0.1460266666666667    0.4786200000000000 H
   0.7341133333333333    0.0066100000000000    0.3824250000000000 H
   0.7212000000000000    0.1030466666666667    0.0398200000000000 H
   0.9022600000000000    0.3320733333333333    0.4938800000000000 H
   0.7509100000000000    0.1188500000000000    0.4361300000000000 H
   0.8488800000000000    0.3251400000000000    0.3858700000000000 H
   0.7024066666666666    0.0204633333333333    0.2712200000000000 H
   0.9008533333333333    0.1599900000000000    0.3675650000000000 H
   0.8878733333333333    0.0635633333333333    0.2105550000000000 H
   0.7353933333333333    0.1680333333333333    0.2561050000000000 H
   0.0825800000000000    0.6189066666666667    0.1861500000000000 H
   0.3178266666666666    0.4918233333333333    0.1359900000000000 H
   0.1306766666666667    0.5206400000000000    0.0213600000000000 H
   0.2658733333333333    0.6600600000000000    0.1175550000000000 H
   0.2787900000000000    0.5636200000000000    0.4601550000000000 H
   0.0977300000000000    0.3345933333333333    0.0061050000000000 H
   0.2490800000000000    0.5478200000000000    0.0638500000000000 H
   0.1511033333333333    0.3415233333333333    0.1141100000000000 H
   0.2975833333333333    0.6462066666666666    0.2287600000000000 H
   0.0991400000000000    0.5066766666666667    0.1324150000000000 H
   0.1121166666666667    0.6031066666666667    0.2894250000000000 H
   0.2645966666666666    0.4986333333333333    0.2438750000000000 H
   0.2507433333333333    0.3810933333333333    0.3138350000000000 H
   0.0154966666666667    0.5081733333333334    0.3639900000000000 H
   0.2026433333333333    0.4793600000000000    0.4786200000000000 H
   0.0674466666666667    0.3399433333333333    0.3824250000000000 H
   0.0545333333333333    0.4363800000000000    0.0398200000000000 H
   0.2355933333333333    0.6654066666666667    0.4938800000000000 H
   0.0842433333333333    0.4521833333333333    0.4361300000000000 H
   0.1822133333333333    0.6584733333333332    0.3858700000000000 H
   0.0357400000000000    0.3537966666666666    0.2712200000000000 H
   0.2341866666666667    0.4933233333333333    0.3675650000000000 H
   0.2212066666666667    0.3968966666666667    0.2105550000000000 H
   0.0687266666666667    0.5013666666666666    0.2561050000000000 H
   0.4159133333333333    0.6189066666666667    0.1861500000000000 H
   0.6511600000000000    0.4918233333333333    0.1359900000000000 H
   0.4640100000000000    0.5206400000000000    0.0213600000000000 H
   0.5992066666666667    0.6600600000000000    0.1175550000000000 H
   0.6121233333333334    0.5636200000000000    0.4601550000000000 H
   0.4310633333333333    0.3345933333333333    0.0061050000000000 H
   0.5824133333333333    0.5478200000000000    0.0638500000000000 H
   0.4844366666666666    0.3415233333333333    0.1141100000000000 H
   0.6309166666666666    0.6462066666666666    0.2287600000000000 H
   0.4324733333333333    0.5066766666666667    0.1324150000000000 H
   0.4454500000000000    0.6031066666666667    0.2894250000000000 H
   0.5979300000000000    0.4986333333333333    0.2438750000000000 H
   0.5840766666666666    0.3810933333333333    0.3138350000000000 H
   0.3488300000000000    0.5081733333333334    0.3639900000000000 H
   0.5359766666666667    0.4793600000000000    0.4786200000000000 H
   0.4007800000000000    0.3399433333333333    0.3824250000000000 H
   0.3878666666666666    0.4363800000000000    0.0398200000000000 H
   0.5689266666666666    0.6654066666666667    0.4938800000000000 H
   0.4175766666666667    0.4521833333333333    0.4361300000000000 H
   0.5155466666666666    0.6584733333333332    0.3858700000000000 H
   0.3690733333333333    0.3537966666666666    0.2712200000000000 H
   0.5675200000000000    0.4933233333333333    0.3675650000000000 H
   0.5545400000000000    0.3968966666666667    0.2105550000000000 H
   0.4020600000000000    0.5013666666666666    0.2561050000000000 H
   0.7492466666666666    0.6189066666666667    0.1861500000000000 H
   0.9844933333333332    0.4918233333333333    0.1359900000000000 H
   0.7973433333333333    0.5206400000000000    0.0213600000000000 H
   0.9325399999999999    0.6600600000000000    0.1175550000000000 H
   0.9454566666666666    0.5636200000000000    0.4601550000000000 H
   0.7643966666666666    0.3345933333333333    0.0061050000000000 H
   0.9157466666666666    0.5478200000000000    0.0638500000000000 H
   0.8177699999999999    0.3415233333333333    0.1141100000000000 H
   0.9642499999999999    0.6462066666666666    0.2287600000000000 H
   0.7658066666666666    0.5066766666666667    0.1324150000000000 H
   0.7787833333333333    0.6031066666666667    0.2894250000000000 H
   0.9312633333333333    0.4986333333333333    0.2438750000000000 H
   0.9174099999999999    0.3810933333333333    0.3138350000000000 H
   0.6821633333333333    0.5081733333333334    0.3639900000000000 H
   0.8693099999999999    0.4793600000000000    0.4786200000000000 H
   0.7341133333333333    0.3399433333333333    0.3824250000000000 H
   0.7212000000000000    0.4363800000000000    0.0398200000000000 H
   0.9022600000000000    0.6654066666666667    0.4938800000000000 H
   0.7509100000000000    0.4521833333333333    0.4361300000000000 H
   0.8488800000000000    0.6584733333333332    0.3858700000000000 H
   0.7024066666666666    0.3537966666666666    0.2712200000000000 H
   0.9008533333333333    0.4933233333333333    0.3675650000000000 H
   0.8878733333333333    0.3968966666666667    0.2105550000000000 H
   0.7353933333333333    0.5013666666666666    0.2561050000000000 H
   0.0825800000000000    0.9522400000000000    0.1861500000000000 H
   0.3178266666666666    0.8251566666666666    0.1359900000000000 H
   0.1306766666666667    0.8539733333333333    0.0213600000000000 H
   0.2658733333333333    0.9933933333333334    0.1175550000000000 H
   0.2787900000000000    0.8969533333333333    0.4601550000000000 H
   0.0977300000000000    0.6679266666666667    0.0061050000000000 H
   0.2490800000000000    0.8811533333333332    0.0638500000000000 H
   0.1511033333333333    0.6748566666666667    0.1141100000000000 H
   0.2975833333333333    0.9795400000000000    0.2287600000000000 H
   0.0991400000000000    0.8400099999999999    0.1324150000000000 H
   0.1121166666666667    0.9364399999999999    0.2894250000000000 H
   0.2645966666666666    0.8319666666666666    0.2438750000000000 H
   0.2507433333333333    0.7144266666666667    0.3138350000000000 H
   0.0154966666666667    0.8415066666666666    0.3639900000000000 H
   0.2026433333333333    0.8126933333333333    0.4786200000000000 H
   0.0674466666666667    0.6732766666666666    0.3824250000000000 H
   0.0545333333333333    0.7697133333333332    0.0398200000000000 H
   0.2355933333333333    0.9987400000000000    0.4938800000000000 H
   0.0842433333333333    0.7855166666666666    0.4361300000000000 H
   0.1822133333333333    0.9918066666666666    0.3858700000000000 H
   0.0357400000000000    0.6871300000000000    0.2712200000000000 H
   0.2341866666666667    0.8266566666666666    0.3675650000000000 H
   0.2212066666666667    0.7302299999999999    0.2105550000000000 H
   0.0687266666666667    0.8347000000000000    0.2561050000000000 H
   0.4159133333333333    0.9522400000000000    0.1861500000000000 H
   0.6511600000000000    0.8251566666666666    0.1359900000000000 H
   0.4640100000000000    0.8539733333333333    0.0213600000000000 H
   0.5992066666666667    0.9933933333333334    0.1175550000000000 H
   0.6121233333333334    0.8969533333333333    0.4601550000000000 H
   0.4310633333333333    0.6679266666666667    0.0061050000000000 H
   0.5824133333333333    0.8811533333333332    0.0638500000000000 H
   0.4844366666666666    0.6748566666666667    0.1141100000000000 H
   0.6309166666666666    0.9795400000000000    0.2287600000000000 H
   0.4324733333333333    0.8400099999999999    0.1324150000000000 H
   0.4454500000000000    0.9364399999999999    0.2894250000000000 H
   0.5979300000000000    0.8319666666666666    0.2438750000000000 H
   0.5840766666666666    0.7144266666666667    0.3138350000000000 H
   0.3488300000000000    0.8415066666666666    0.3639900000000000 H
   0.5359766666666667    0.8126933333333333    0.4786200000000000 H
   0.3878666666666666    0.7697133333333332    0.0398200000000000 H
   0.5689266666666666    0.9987400000000000    0.4938800000000000 H
   0.4175766666666667    0.7855166666666666    0.4361300000000000 H
   0.5155466666666666    0.9918066666666666    0.3858700000000000 H
   0.3690733333333333    0.6871300000000000    0.2712200000000000 H
   0.5675200000000000    0.8266566666666666    0.3675650000000000 H
   0.5545400000000000    0.7302299999999999    0.2105550000000000 H
   0.4020600000000000    0.8347000000000000    0.2561050000000000 H
   0.7492466666666666    0.9522400000000000    0.1861500000000000 H
   0.9844933333333332    0.8251566666666666    0.1359900000000000 H
   0.7973433333333333    0.8539733333333333    0.0213600000000000 H
   0.9325399999999999    0.9933933333333334    0.1175550000000000 H
   0.9454566666666666    0.8969533333333333    0.4601550000000000 H
   0.7643966666666666    0.6679266666666667    0.0061050000000000 H
   0.9157466666666666    0.8811533333333332    0.0638500000000000 H
   0.8177699999999999    0.6748566666666667    0.1141100000000000 H
   0.9642499999999999    0.9795400000000000    0.2287600000000000 H
   0.7658066666666666    0.8400099999999999    0.1324150000000000 H
   0.7787833333333333    0.9364399999999999    0.2894250000000000 H
   0.9312633333333333    0.8319666666666666    0.2438750000000000 H
   0.9174099999999999    0.7144266666666667    0.3138350000000000 H
   0.6821633333333333    0.8415066666666666    0.3639900000000000 H
   0.8693099999999999    0.8126933333333333    0.4786200000000000 H
   0.7341133333333333    0.6732766666666666    0.3824250000000000 H
   0.7212000000000000    0.7697133333333332    0.0398200000000000 H
   0.9022600000000000    0.9987400000000000    0.4938800000000000 H
   0.7509100000000000    0.7855166666666666    0.4361300000000000 H
   0.8488800000000000    0.9918066666666666    0.3858700000000000 H
   0.7024066666666666    0.6871300000000000    0.2712200000000000 H
   0.9008533333333333    0.8266566666666666    0.3675650000000000 H
   0.8878733333333333    0.7302299999999999    0.2105550000000000 H
   0.7353933333333333    0.8347000000000000    0.2561050000000000 H
   0.0825800000000000    0.2855733333333333    0.6861500000000000 H
   0.3178266666666666    0.1584900000000000    0.6359900000000001 H
   0.1306766666666667    0.1873066666666666    0.5213600000000000 H