H3 O2
1.0
  36.0619999121190915    0.0000000000000000   -0.0025176025373709
  -3.2734184181935988    8.4023828297518559   -0.0009443103900646
   0.0000000000000000    0.0000000000000000   39.0439999999999969
H O
3 2
direct
   0.0658867287367538    0.1868285682696651    0.5781156744166362 H
   0.1286444621395050    0.9954698478073275    0.6057353470486758 H
   0.1112926033089560    0.1818314131498943    0.6166399258308460 H
   0.0658500000000000    0.0946700000000000    0.5652800000000000 O
   0.1112050000000000    0.9620200000000000    0.5860250000000000 O
