P1 O5
1.0
  36.0619999121190915    0.0000000000000000   -0.0025176025373709
  -3.2734184181935988    8.4023828297518559   -0.0009443103900646
   0.0000000000000000    0.0000000000000000   39.0439999999999969
P O
1 5
direct
   0.9253175000000000    0.9928500000000000    0.6718250000000000 P
   0.8925075000000000    0.7702100000000000    0.6305499999999999 O
   0.9290674999999999    0.9181000000000000    0.6349200000000000 O
   0.9659700000000000    0.1254600000000000    0.6751900000000000 O
   0.8908825000000000    0.0538000000000000    0.6722000000000000 O
   0.9186225000000000    0.8681200000000000    0.6998250000000000 O
