H3 C9 O6
1.0
  12.9839872366674420    0.0000000000000000    0.9541679296942297
   8.8091692833323521   24.2827789525540680    1.9127955664395999
   0.0000000000000000    0.0000000000000000   21.1170000000000009
H C O
3 9 6
direct
   0.2176400000000000    0.6148950000000000    0.8143800000000000 H
   0.0403400000000000    0.5343000000000000    0.9435800000000000 H
   0.2268100000000000    0.6232800000000001    0.0166000000000000 H
   0.1926600000000000    0.6047950000000000    0.8626000000000000 C
   0.0861600000000000    0.5536449999999999    0.8163600000000000 C
   0.1242200000000000    0.5729299999999999    0.8728000000000000 C
   0.2995200000000000    0.6588750000000000    0.9049199999999999 C
   0.1316900000000000    0.5767949999999999    0.9869200000000000 C
   0.0929800000000000    0.5592350000000000    0.9351100000000000 C
   0.1980500000000000    0.6093500000000001    0.9762200000000000 C
   0.2283700000000000    0.6238150000000000    0.9142800000000000 C
   0.1053000000000000    0.5603250000000000    0.0541000000000000 C
   0.1428900000000000    0.5529800000000000    0.7639700000000000 O
   1.0003400000000000    0.5404400000000000    0.8222200000000000 O
   0.0483600000000000    0.5288950000000000    0.0643800000000000 O
   0.3290600000000000    0.6730950000000000    0.8497600000000000 O
   0.3286400000000000    0.6733800000000000    0.9560100000000000 O
   0.1428600000000000    0.5777000000000000    0.0994200000000000 O
