H9 O6
1.0
  12.9839872366674420    0.0000000000000000    0.9541679296942297
   8.8091692833323521   24.2827789525540680    1.9127955664395999
   0.0000000000000000    0.0000000000000000   21.1170000000000009
H O
9 6
direct
   0.9556174923590642    0.5788865413830930    0.8256682773309916 H
   0.1540222362008392    0.5868261376220317    0.7479228069315913 H
   1.0349770184171028    0.6457494159171482    0.7722905058870941 H
   0.1861797956100720    0.6017548400925099    0.0956558054774982 H
   0.0159685962353011    0.5137435425159043    0.0337786427278731 H
   0.1009346991867784    0.5580889508033072    0.0598116175338777 H
   0.3075851177941588    0.6639140625141087    0.9991234146787785 H
   0.3109954320373337    0.6646234901386399    0.8089086757405409 H
   0.3041823161366828    0.6619103921764238    0.9007012444183228 H
   1.0003400000000000    0.5404400000000000    0.8222200000000000 O
   0.1428900000000000    0.5529800000000000    0.7639700000000000 O
   0.1428600000000000    0.5777000000000000    0.0994200000000000 O
   0.0483600000000000    0.5288950000000000    0.0643800000000000 O
   0.3286400000000000    0.6733800000000000    0.9560100000000000 O
   0.3290600000000000    0.6730950000000000    0.8497600000000000 O
