H4 O3
1.0
  17.2161925497719643    0.0000000000000000    3.0939906414170575
  -0.2852230062643069   24.0526209590584585    1.8584802491712329
   0.0000000000000000    0.0000000000000000   24.0786000000000016
H O
4 3
direct
   0.6421762867914317    0.6940626779547339    0.3184637919255412 H
   0.9433613426937146    0.7058130085180586    0.2258923099970881 H
   0.7647619009538094    0.6008279821701125    0.3155947555178383 H
   0.8580667709874218    0.6095459793189315    0.2840520704753101 H
   0.6316300000000000    0.7316600000000000    0.3036000000000000 O
   0.9944999999999999    0.6950400000000000    0.2339200000000000 O
   0.8166650000000000    0.5853100000000000    0.3056000000000000 O
