H1 O1
1.0
  14.9149976737952255    0.0000000000000000    0.0083301070208517
   0.2218807241559607    7.4859602054897838    0.1836872234843406
   0.0000000000000000    0.0000000000000000   26.1000000000000014
H O
1 1
direct
   0.5014701853332862    0.3014559019382229    0.5531901621566402 H
   0.5010350000000000    0.2045100000000000    0.5790000000000000 O
