Zn8 Ni8 H1 C31 N31 O1
1.0
  14.9149976737952255    0.0000000000000000    0.0083301070208517
   0.2218807241559607    7.4859602054897838    0.1836872234843406
   0.0000000000000000    0.0000000000000000   26.1000000000000014
Zn Ni H C N O
8 8 1 31 31 1
direct
   0.9997650000000000    0.0146900000000000    0.8754000000000000 Zn
   0.0002600000000000    0.9853100000000000    0.1246150000000000 Zn
   0.4997650000000000    0.0146900000000000    0.3754000000000000 Zn
   0.5002600000000000    0.9853100000000000    0.6246150000000000 Zn
   0.4997650000000000    0.0146900000000000    0.8754000000000000 Zn
   0.5002600000000000    0.9853100000000000    0.1246150000000000 Zn
   0.9997650000000000    0.0146900000000000    0.3754000000000000 Zn
   0.0002600000000000    0.9853100000000000    0.6246150000000000 Zn
   0.7497300000000000    0.0038500000000000    0.7499800000000000 Ni
   0.9981050000000000    0.4999900000000000    0.0010550000000000 Ni
   0.2497300000000000    0.0038500000000000    0.2499800000000000 Ni
   0.4981050000000000    0.4999900000000000    0.5010550000000000 Ni
   0.2497300000000000    0.0038500000000000    0.7499800000000000 Ni
   0.4981050000000000    0.4999900000000000    0.0010550000000000 Ni
   0.7497300000000000    0.0038500000000000    0.2499800000000000 Ni
   0.9981050000000000    0.4999900000000000    0.5010550000000000 Ni
   0.5014701853332862    0.3014559019382229    0.5531901621566402 H
   0.8376700000000000    0.0066800000000000    0.7993700000000000 C
   0.8373349999999999    0.9987900000000000    0.7004500000000000 C
   0.6623550000000000    0.9935200000000000    0.7006550000000000 C
   0.6627000000000001    0.0013100000000000    0.7995450000000000 C
   0.9984649999999999    0.6795500000000000    0.9518599999999999 C
   0.9969700000000000    0.3312900000000000    0.9512200000000000 C
   0.0015550000000000    0.3203500000000000    0.0481600000000000 C
   0.0030800000000000    0.6685900000000000    0.0488350000000000 C
   0.3376700000000000    0.0066800000000000    0.2993700000000000 C
   0.3373350000000000    0.9987900000000000    0.2004500000000000 C
   0.1623550000000000    0.9935200000000000    0.2006550000000000 C
   0.1627000000000000    0.0013100000000000    0.2995450000000000 C
   0.4984650000000000    0.6795500000000000    0.4518600000000000 C
   0.4969700000000000    0.3312900000000000    0.4512200000000000 C
   0.5030800000000000    0.6685900000000000    0.5488350000000000 C
   0.3376700000000000    0.0066800000000000    0.7993700000000000 C
   0.3373350000000000    0.9987900000000000    0.7004500000000000 C
   0.1623550000000000    0.9935200000000000    0.7006550000000000 C
   0.1627000000000000    0.0013100000000000    0.7995450000000000 C
   0.4984650000000000    0.6795500000000000    0.9518599999999999 C
   0.4969700000000000    0.3312900000000000    0.9512200000000000 C
   0.5015550000000000    0.3203500000000000    0.0481600000000000 C
   0.5030800000000000    0.6685900000000000    0.0488350000000000 C
   0.8376700000000000    0.0066800000000000    0.2993700000000000 C
   0.8373349999999999    0.9987900000000000    0.2004500000000000 C
   0.6623550000000000    0.9935200000000000    0.2006550000000000 C
   0.6627000000000001    0.0013100000000000    0.2995450000000000 C
   0.9984649999999999    0.6795500000000000    0.4518600000000000 C
   0.9969700000000000    0.3312900000000000    0.4512200000000000 C
   0.0015550000000000    0.3203500000000000    0.5481600000000000 C
   0.0030800000000000    0.6685900000000000    0.5488350000000000 C
   0.8939100000000000    0.0142000000000000    0.8303800000000000 N
   0.8938699999999999    0.9963100000000000    0.6693850000000000 N
   0.6060800000000000    0.9860600000000000    0.6696650000000000 N
   0.6061550000000000    0.0037700000000000    0.8306000000000000 N
   0.9990600000000001    0.7953700000000000    0.9210100000000000 N
   0.9967250000000001    0.2220700000000000    0.9199750000000000 N
   0.0010350000000000    0.2045100000000000    0.0790000000000000 N
   0.0033750000000000    0.7777800000000000    0.0800900000000000 N
   0.3939100000000000    0.0142000000000000    0.3303800000000000 N
   0.3938700000000000    0.9963100000000000    0.1693850000000000 N
   0.1060800000000000    0.9860600000000000    0.1696650000000000 N
   0.1061550000000000    0.0037700000000000    0.3306000000000000 N
   0.4990600000000000    0.7953700000000000    0.4210100000000000 N
   0.4967250000000000    0.2220700000000000    0.4199750000000000 N
   0.5033750000000000    0.7777800000000000    0.5800900000000000 N
   0.3939100000000000    0.0142000000000000    0.8303800000000000 N
   0.3938700000000000    0.9963100000000000    0.6693850000000000 N
   0.1060800000000000    0.9860600000000000    0.6696650000000000 N
   0.1061550000000000    0.0037700000000000    0.8306000000000000 N
   0.4990600000000000    0.7953700000000000    0.9210100000000000 N
   0.4967250000000000    0.2220700000000000    0.9199750000000000 N
   0.5010350000000000    0.2045100000000000    0.0790000000000000 N
   0.5033750000000000    0.7777800000000000    0.0800900000000000 N
   0.8939100000000000    0.0142000000000000    0.3303800000000000 N
   0.8938699999999999    0.9963100000000000    0.1693850000000000 N
   0.6060800000000000    0.9860600000000000    0.1696650000000000 N
   0.6061550000000000    0.0037700000000000    0.3306000000000000 N
   0.9990600000000001    0.7953700000000000    0.4210100000000000 N
   0.9967250000000001    0.2220700000000000    0.4199750000000000 N
   0.0010350000000000    0.2045100000000000    0.5790000000000000 N
   0.0033750000000000    0.7777800000000000    0.5800900000000000 N
   0.5010350000000000    0.2045100000000000    0.5790000000000000 O
