H4 O2
1.0
  14.4179999999999993    0.0000000000000000    0.0000000000000009
   0.0037447784003015   14.3039984553557140    0.0054923415815579
   0.0000000000000000    0.0000000000000000   15.4359999999999999
H O
4 2
direct
   0.9383236864035628    0.7499705924521657    0.3041886125125047 H
   0.9383484214769913    0.7498182372372029    0.1958252291438217 H
   0.0616797775845949    0.7499849115451477    0.1958494621126518 H
   0.0616534295913872    0.7501517660994701    0.3042158215811264 H
   0.9031000000000000    0.7498400000000000    0.2500000000000000 O
   0.0969000000000000    0.7501300000000000    0.2500400000000000 O
