H4 C4 N2
1.0
  14.4179999999999993    0.0000000000000000    0.0000000000000009
   0.0037447784003015   14.3039984553557140    0.0054923415815579
   0.0000000000000000    0.0000000000000000   15.4359999999999999
H C N
4 4 2
direct
   0.0869600000000000    0.7502700000000000    0.3853000000000000 H
   0.9129800000000000    0.7499900000000000    0.3853000000000000 H
   0.9130400000000000    0.7496200000000000    0.1147000000000000 H
   0.0870200000000000    0.7498300000000000    0.1147300000000000 H
   0.0483200000000000    0.7501600000000000    0.3247100000000000 C
   0.9516500000000000    0.7500200000000000    0.3246900000000000 C
   0.9516900000000000    0.7498100000000000    0.1753200000000000 C
   0.0483500000000000    0.7499300000000000    0.1753400000000000 C
   0.0969000000000000    0.7501300000000000    0.2500400000000000 N
   0.9031000000000000    0.7498400000000000    0.2500000000000000 N
