Zn7 H44 C40 N20 O2 F2
1.0
  14.4179999999999993    0.0000000000000000    0.0000000000000009
   0.0037447784003015   14.3039984553557140    0.0054923415815579
   0.0000000000000000    0.0000000000000000   15.4359999999999999
Zn H C N O F
7 44 40 20 2 2
direct
   0.7499900000000000    0.7495900000000000    0.2499700000000000 Zn
   0.7499900000000000    0.2504200000000000    0.2500000000000000 Zn
   0.2500000000000000    0.7499300000000000    0.2501000000000000 Zn
   0.2500000000000000    0.2506700000000000    0.2499600000000000 Zn
   0.7499900000000000    0.2504300000000000    0.7499900000000000 Zn
   0.7499900000000000    0.7495900000000000    0.7499700000000000 Zn
   0.2500000000000000    0.2505300000000000    0.7498500000000000 Zn
   0.7500000000000000    0.0874800000000000    0.3853500000000000 H
   0.7499700000000000    0.0876000000000000    0.1146400000000000 H
   0.7499500000000000    0.9124200000000000    0.3853400000000000 H
   0.7499600000000000    0.9125400000000000    0.1146300000000000 H
   0.7499500000000000    0.5876200000000000    0.3853100000000000 H
   0.7499500000000000    0.5877200000000000    0.1146500000000000 H
   0.7499100000000000    0.4123100000000000    0.3853100000000000 H
   0.7499500000000000    0.4124100000000000    0.1146500000000000 H
   0.5869500000000000    0.2498800000000000    0.3853100000000000 H
   0.5870000000000000    0.2505000000000000    0.1147100000000000 H
   0.4129900000000000    0.2501400000000000    0.3852800000000000 H
   0.4130700000000000    0.2508900000000000    0.1146600000000000 H
   0.9130400000000000    0.2507100000000000    0.3852700000000000 H
   0.9130000000000000    0.2497700000000000    0.1146700000000000 H
   0.0869500000000000    0.2495500000000000    0.1146200000000000 H
   0.0870200000000000    0.2509700000000000    0.3852400000000000 H
   0.2498100000000000    0.0879900000000000    0.3848700000000000 H
   0.2506900000000000    0.0880500000000000    0.1141800000000000 H
   0.2497900000000000    0.9129600000000000    0.3849100000000000 H
   0.2503400000000000    0.9129100000000000    0.1142400000000000 H
   0.9383236864035628    0.7499705924521657    0.3041886125125047 H
   0.9383484214769913    0.7498182372372029    0.1958252291438217 H
   0.0616797775845949    0.7499849115451477    0.1958494621126518 H
   0.0616534295913872    0.7501517660994701    0.3042158215811264 H
   0.2504300000000000    0.5880000000000000    0.3858100000000000 H
   0.2496300000000000    0.5881900000000000    0.1151100000000000 H
   0.2504100000000000    0.4126800000000000    0.3857100000000000 H
   0.2492700000000000    0.4129800000000000    0.1150000000000000 H
   0.7499900000000000    0.9124200000000000    0.8853000000000000 H
   0.7499200000000000    0.9125400000000000    0.6146000000000000 H
   0.7499700000000000    0.0876000000000000    0.6146300000000000 H
   0.7500000000000000    0.0874800000000000    0.8853400000000000 H
   0.7499400000000001    0.4124100000000000    0.6146500000000000 H
   0.7499000000000000    0.4123000000000000    0.8853100000000000 H
   0.7499900000000000    0.5877200000000000    0.6146500000000000 H
   0.7499000000000000    0.5876100000000000    0.8853200000000000 H
   0.4130200000000000    0.2499900000000000    0.6146000000000000 H
   0.4130300000000000    0.2505900000000000    0.8852700000000000 H
   0.5869799999999999    0.2499200000000000    0.6146500000000000 H
   0.5869700000000000    0.2503700000000000    0.8852500000000000 H
   0.9130100000000000    0.2506900000000000    0.6146900000000000 H
   0.9130200000000001    0.2496900000000000    0.8852900000000000 H
   0.0869800000000000    0.2493000000000000    0.8853000000000000 H
   0.0869800000000000    0.2507500000000000    0.6146800000000000 H
   0.7499900000000000    0.0486500000000000    0.3247000000000000 C
   0.7499800000000000    0.0487100000000000    0.1752900000000000 C
   0.7499700000000000    0.9513100000000000    0.3246900000000000 C
   0.7499700000000000    0.9513700000000000    0.1752800000000000 C
   0.7499500000000000    0.5486500000000000    0.3247300000000000 C
   0.7499500000000000    0.5487100000000000    0.1752400000000000 C
   0.7499300000000000    0.4513200000000000    0.3247300000000000 C
   0.7499400000000001    0.4513700000000000    0.1752000000000000 C
   0.5483000000000000    0.2500200000000000    0.3246900000000000 C
   0.5483300000000000    0.2503700000000000    0.1753200000000000 C
   0.4516600000000000    0.2501800000000000    0.3246700000000000 C
   0.4516900000000000    0.2505400000000000    0.1752900000000000 C
   0.9516900000000000    0.2505100000000000    0.3246500000000000 C
   0.9516600000000000    0.2499500000000000    0.1752800000000000 C
   0.0483200000000000    0.2499700000000000    0.1752600000000000 C
   0.0483500000000000    0.2506300000000000    0.3246300000000000 C
   0.2499300000000000    0.0491500000000000    0.3242300000000000 C
   0.2503200000000000    0.0491500000000000    0.1748200000000000 C
   0.2499000000000000    0.9518300000000000    0.3242700000000000 C
   0.2502300000000000    0.9518000000000000    0.1748600000000000 C
   0.2502500000000000    0.5490800000000000    0.3251900000000000 C
   0.2497900000000000    0.5491800000000000    0.1756900000000000 C
   0.2502200000000000    0.4517300000000000    0.3251500000000000 C
   0.2496900000000000    0.4518500000000000    0.1756600000000000 C
   0.7499900000000000    0.9513100000000000    0.8246800000000000 C
   0.7499500000000000    0.9513700000000000    0.6752700000000000 C
   0.7499700000000000    0.0487100000000000    0.6752700000000000 C
   0.7499900000000000    0.0486500000000000    0.8246000000000000 C
   0.7499400000000001    0.4513800000000000    0.6752300000000000 C
   0.7499100000000000    0.4513100000000000    0.8247300000000000 C
   0.7499600000000000    0.5487100000000000    0.6752000000000000 C
   0.7499200000000000    0.5486500000000000    0.8247300000000000 C
   0.4516800000000000    0.2500300000000000    0.6752600000000000 C
   0.4516700000000000    0.2503100000000000    0.8246400000000000 C
   0.5483200000000000    0.2499800000000000    0.6752000000000000 C
   0.5483100000000000    0.2502400000000000    0.8246300000000000 C
   0.9516700000000000    0.2504300000000000    0.6753000000000000 C
   0.9516800000000000    0.2498500000000000    0.8246700000000000 C
   0.0483400000000000    0.2497700000000000    0.8246700000000000 C
   0.0483300000000000    0.2504400000000000    0.6753000000000000 C
   0.7500200000000000    0.0975900000000000    0.2000000000000000 N
   0.7499600000000000    0.9024300000000000    0.2499000000000000 N
   0.7499700000000000    0.5974900000000000    0.2499800000000000 N
   0.7499200000000000    0.4025300000000000    0.2499000000000000 N
   0.5968900000000000    0.2501600000000000    0.2500100000000000 N
   0.4031000000000000    0.2504400000000000    0.2499700000000000 N
   0.9031000000000000    0.2502000000000000    0.2499700000000000 N
   0.0969100000000000    0.2503700000000000    0.2499400000000000 N
   0.2501400000000000    0.0980500000000000    0.2495000000000000 N
   0.2500100000000000    0.9029000000000000    0.2495900000000000 N
   0.2500500000000000    0.5979400000000000    0.2504500000000000 N
   0.2499300000000000    0.4029600000000000    0.2503800000000000 N
   0.7499600000000000    0.9024300000000000    0.7499700000000000 N
   0.7500100000000000    0.0975900000000000    0.7499800000000000 N
   0.7499200000000000    0.4025300000000000    0.7499800000000000 N
   0.7499600000000000    0.5974900000000000    0.7499800000000000 N
   0.4031000000000000    0.2502000000000000    0.7499500000000000 N
   0.5968900000000000    0.2501200000000000    0.7499500000000000 N
   0.9031000000000000    0.2501600000000000    0.7499900000000000 N
   0.0969100000000000    0.2501200000000000    0.7499800000000000 N
   0.9031000000000000    0.7498400000000000    0.2500000000000000 O
   0.0969000000000000    0.7501300000000000    0.2500400000000000 O
   0.1673900000000000    0.6668300000000000    0.2000000000000000 F
   0.2500000000000000    0.7493100000000000    0.1149500000000000 F
