Zn64 H194 C376 O208
1.0
  32.0048257066137509    0.0000000000000000   18.3456597452715151
  10.5974156153499521   30.1455696730538314   18.3417487542108191
   0.0000000000000000    0.0000000000000000   36.8260000000000005
Zn H C O
64 194 376 208
direct
   0.8966350000000001    0.8967400000000000    0.8096950000000001 Zn
   0.3966350000000000    0.8967400000000000    0.8096950000000001 Zn
   0.8966350000000001    0.8967400000000000    0.3096950000000000 Zn
   0.3966350000000000    0.8967400000000000    0.3096950000000000 Zn
   0.8966350000000001    0.3967400000000000    0.8096950000000001 Zn
   0.3966350000000000    0.3967400000000000    0.8096950000000001 Zn
   0.8966350000000001    0.3967400000000000    0.3096950000000000 Zn
   0.3966350000000000    0.3967400000000000    0.3096950000000000 Zn
   0.8966000000000001    0.8097449999999999    0.8967499999999999 Zn
   0.8966000000000001    0.3097450000000000    0.8967499999999999 Zn
   0.8966000000000001    0.3097450000000000    0.3967500000000000 Zn
   0.1900650000000000    0.6034000000000000    0.1033650000000000 Zn
   0.1034000000000000    0.6902450000000000    0.1032550000000000 Zn
   0.1033650000000000    0.6032550000000000    0.1903100000000000 Zn
   0.1031950000000000    0.6031400000000000    0.1031000000000000 Zn
   0.3099350000000000    0.3965900000000000    0.3966400000000000 Zn
   0.1900650000000000    0.1034000000000000    0.6033650000000000 Zn
   0.1034000000000000    0.1902450000000000    0.6032550000000000 Zn
   0.1033650000000000    0.1032550000000000    0.6903100000000000 Zn
   0.1031950000000000    0.1031400000000000    0.6031000000000000 Zn
   0.3099350000000000    0.8965900000000000    0.8966400000000000 Zn
   0.1900650000000000    0.1034000000000000    0.1033650000000000 Zn
   0.1034000000000000    0.1902450000000000    0.1032550000000000 Zn
   0.1033650000000000    0.1032550000000000    0.1903100000000000 Zn
   0.1031950000000000    0.1031400000000000    0.1031000000000000 Zn
   0.3099350000000000    0.8965900000000000    0.3966400000000000 Zn
   0.1900650000000000    0.6034000000000000    0.6033650000000000 Zn
   0.1034000000000000    0.6902450000000000    0.6032550000000000 Zn
   0.1033650000000000    0.6032550000000000    0.6903100000000000 Zn
   0.1031950000000000    0.6031400000000000    0.6031000000000000 Zn
   0.3099350000000000    0.3965900000000000    0.8966400000000000 Zn
   0.8966000000000001    0.8097449999999999    0.3967500000000000 Zn
   0.3966000000000000    0.8097449999999999    0.8967499999999999 Zn
   0.3966000000000000    0.8097449999999999    0.3967500000000000 Zn
   0.3966000000000000    0.3097450000000000    0.8967499999999999 Zn
   0.6900650000000000    0.6034000000000000    0.1033650000000000 Zn
   0.6034000000000000    0.6902450000000000    0.1032550000000000 Zn
   0.6033650000000000    0.6032550000000000    0.1903100000000000 Zn
   0.6031950000000000    0.6031400000000000    0.1031000000000000 Zn
   0.8099350000000001    0.3965900000000000    0.3966400000000000 Zn
   0.6900650000000000    0.1034000000000000    0.6033650000000000 Zn
   0.6034000000000000    0.1902450000000000    0.6032550000000000 Zn
   0.6033650000000000    0.1032550000000000    0.6903100000000000 Zn
   0.6031950000000000    0.1031400000000000    0.6031000000000000 Zn
   0.8099350000000001    0.8965900000000000    0.8966400000000000 Zn
   0.6900650000000000    0.1034000000000000    0.1033650000000000 Zn
   0.6034000000000000    0.1902450000000000    0.1032550000000000 Zn
   0.6033650000000000    0.1032550000000000    0.1903100000000000 Zn
   0.6031950000000000    0.1031400000000000    0.1031000000000000 Zn
   0.8099350000000001    0.8965900000000000    0.3966400000000000 Zn
   0.6900650000000000    0.6034000000000000    0.6033650000000000 Zn
   0.6034000000000000    0.6902450000000000    0.6032550000000000 Zn
   0.6033650000000000    0.6032550000000000    0.6903100000000000 Zn
   0.6031950000000000    0.6031400000000000    0.6031000000000000 Zn
   0.8099350000000001    0.3965900000000000    0.8966400000000000 Zn
   0.3966000000000000    0.3097450000000000    0.3967500000000000 Zn
   0.8968050000000001    0.8968550000000000    0.3969000000000000 Zn
   0.8968050000000001    0.8968550000000000    0.8969000000000000 Zn
   0.3968050000000000    0.8968550000000000    0.3969000000000000 Zn
   0.3968050000000000    0.8968550000000000    0.8969000000000000 Zn
   0.3968050000000000    0.3968550000000000    0.3969000000000000 Zn
   0.3968050000000000    0.3968550000000000    0.8969000000000000 Zn
   0.8968050000000001    0.3968550000000000    0.3969000000000000 Zn
   0.8968050000000001    0.3968550000000000    0.8969000000000000 Zn
   0.4756850000000000    0.4759150000000000    0.7159300000000000 H
   0.5238600000000000    0.5239200000000001    0.6677600000000000 H
   0.4761400000000000    0.4760750000000000    0.8322450000000000 H
   0.5243200000000000    0.5240800000000000    0.7840800000000000 H
   0.4756850000000000    0.4759150000000000    0.2159300000000000 H
   0.5238600000000000    0.5239200000000001    0.1677600000000000 H
   0.4761400000000000    0.4760750000000000    0.3322450000000000 H
   0.5243200000000000    0.5240800000000000    0.2840800000000000 H
   0.4756850000000000    0.9759150000000000    0.2159300000000000 H
   0.5238600000000000    0.0239200000000000    0.1677600000000000 H
   0.4761400000000000    0.9760750000000000    0.3322450000000000 H
   0.5243200000000000    0.0240800000000000    0.2840800000000000 H
   0.4756850000000000    0.9759150000000000    0.7159300000000000 H
   0.5238600000000000    0.0239200000000000    0.6677600000000000 H
   0.4761400000000000    0.9760750000000000    0.8322450000000000 H
   0.5243200000000000    0.0240800000000000    0.7840800000000000 H
   0.9756850000000000    0.4759150000000000    0.7159300000000000 H
   0.0238600000000000    0.5239200000000001    0.6677600000000000 H
   0.9761400000000000    0.4760750000000000    0.8322450000000000 H
   0.0243200000000000    0.5240800000000000    0.7840800000000000 H
   0.9756850000000000    0.4759150000000000    0.2159300000000000 H
   0.0238600000000000    0.5239200000000001    0.1677600000000000 H
   0.9761400000000000    0.4760750000000000    0.3322450000000000 H
   0.0243200000000000    0.5240800000000000    0.2840800000000000 H
   0.9756850000000000    0.9759150000000000    0.7159300000000000 H
   0.0238600000000000    0.0239200000000000    0.6677600000000000 H
   0.9761400000000000    0.9760750000000000    0.8322450000000000 H
   0.0243200000000000    0.0240800000000000    0.7840800000000000 H
   0.9756850000000000    0.9759150000000000    0.2159300000000000 H
   0.0238600000000000    0.0239200000000000    0.1677600000000000 H
   0.9761400000000000    0.9760750000000000    0.3322450000000000 H
   0.0243200000000000    0.0240800000000000    0.2840800000000000 H
   0.5568569689188791    0.7463806111249341    0.0565384944545498 H
   0.5565077004547059    0.6402925387178406    0.0563955062759696 H
   0.5527965220131694    0.6972210177157943    0.0525732480295562 H
   0.9761800000000000    0.8321850000000000    0.9761100000000000 H
   0.0243750000000000    0.7840050000000001    0.0240900000000000 H
   0.9756250000000000    0.7159900000000000    0.9759150000000000 H
   0.0238150000000000    0.6678100000000000    0.0235000000000000 H
   0.4761800000000000    0.8321850000000000    0.4761100000000000 H
   0.5243750000000000    0.7840050000000001    0.5240899999999999 H
   0.4756250000000000    0.7159900000000000    0.4759150000000000 H
   0.5238150000000000    0.6678100000000000    0.5235000000000000 H
   0.9761800000000000    0.8321850000000000    0.4761100000000000 H
   0.0243750000000000    0.7840050000000001    0.5240899999999999 H
   0.9756250000000000    0.7159900000000000    0.4759150000000000 H
   0.0238150000000000    0.6678100000000000    0.5235000000000000 H
   0.9761800000000000    0.3321850000000000    0.9761100000000000 H
   0.0243750000000000    0.2840050000000000    0.0240900000000000 H
   0.9756250000000000    0.2159900000000000    0.9759150000000000 H
   0.0238150000000000    0.1678100000000000    0.0235000000000000 H
   0.4761800000000000    0.3321850000000000    0.9761100000000000 H
   0.5243750000000000    0.2840050000000000    0.0240900000000000 H
   0.4756250000000000    0.2159900000000000    0.9759150000000000 H
   0.5238150000000000    0.1678100000000000    0.0235000000000000 H
   0.9761800000000000    0.3321850000000000    0.4761100000000000 H
   0.0243750000000000    0.2840050000000000    0.5240899999999999 H
   0.9756250000000000    0.2159900000000000    0.4759150000000000 H
   0.0238150000000000    0.1678100000000000    0.5235000000000000 H
   0.4761800000000000    0.3321850000000000    0.4761100000000000 H
   0.5243750000000000    0.2840050000000000    0.5240899999999999 H
   0.4756250000000000    0.2159900000000000    0.4759150000000000 H
   0.5238150000000000    0.1678100000000000    0.5235000000000000 H
   0.4431332161888959    0.7536096561085925    0.9434711942111217 H
   0.4434901336670435    0.8597057128368920    0.9436132367699013 H
   0.4471966118287040    0.8027749080767798    0.9474361477413208 H
   0.0241050000000000    0.6678050000000000    0.7841750000000001 H
   0.9757950000000000    0.7159350000000000    0.8322550000000000 H
   0.9758950000000000    0.8321900000000000    0.7158300000000000 H
   0.0242050000000000    0.7840600000000000    0.6677500000000001 H
   0.0241050000000000    0.1678050000000000    0.7841750000000001 H
   0.9757950000000000    0.2159350000000000    0.8322550000000000 H
   0.9758950000000000    0.3321900000000000    0.7158300000000000 H
   0.0242050000000000    0.2840600000000000    0.6677500000000001 H
   0.0241050000000000    0.1678050000000000    0.2841750000000000 H
   0.9757950000000000    0.2159350000000000    0.3322550000000000 H
   0.9758950000000000    0.3321900000000000    0.2158300000000000 H
   0.0242050000000000    0.2840600000000000    0.1677500000000000 H
   0.1679650000000000    0.5237200000000000    0.0237050000000000 H
   0.2162800000000000    0.4755850000000000    0.9756549999999999 H
   0.3320400000000000    0.4762750000000000    0.9762950000000000 H
   0.2837200000000000    0.5244100000000000    0.0243500000000000 H
   0.1679500000000000    0.2842050000000000    0.5239000000000000 H
   0.2161450000000000    0.3322000000000000    0.4756900000000000 H
   0.2838550000000000    0.1677950000000000    0.5243150000000000 H
   0.3320550000000000    0.2157900000000000    0.4761050000000000 H
   0.2838400000000000    0.5243350000000000    0.1677450000000000 H
   0.3320500000000000    0.4761150000000000    0.2157300000000000 H
   0.2161600000000000    0.4756550000000000    0.3322600000000000 H
   0.1679500000000000    0.5238750000000000    0.2842750000000000 H
   0.1679650000000000    0.0237200000000000    0.5237050000000000 H
   0.2162800000000000    0.9755849999999999    0.4756550000000000 H
   0.3320400000000000    0.9762750000000000    0.4762950000000000 H
   0.2837200000000000    0.0244100000000000    0.5243500000000000 H
   0.1679500000000000    0.7842050000000000    0.0239000000000000 H
   0.2161450000000000    0.8322000000000001    0.9756899999999999 H
   0.2838550000000000    0.6677950000000000    0.0243150000000000 H
   0.3320550000000000    0.7157900000000000    0.9761050000000000 H
   0.2838400000000000    0.0243350000000000    0.6677450000000000 H
   0.3320500000000000    0.9761150000000001    0.7157300000000000 H
   0.2161600000000000    0.9756549999999999    0.8322600000000000 H
   0.1679500000000000    0.0238750000000000    0.7842750000000001 H
   0.1679650000000000    0.0237200000000000    0.0237050000000000 H
   0.2162800000000000    0.9755849999999999    0.9756549999999999 H
   0.3320400000000000    0.9762750000000000    0.9762950000000000 H
   0.2837200000000000    0.0244100000000000    0.0243500000000000 H
   0.1679500000000000    0.7842050000000000    0.5239000000000000 H
   0.2161450000000000    0.8322000000000001    0.4756900000000000 H
   0.2838550000000000    0.6677950000000000    0.5243150000000000 H
   0.3320550000000000    0.7157900000000000    0.4761050000000000 H
   0.2838400000000000    0.0243350000000000    0.1677450000000000 H
   0.3320500000000000    0.9761150000000001    0.2157300000000000 H
   0.2161600000000000    0.9756549999999999    0.3322600000000000 H
   0.1679500000000000    0.0238750000000000    0.2842750000000000 H
   0.1679650000000000    0.5237200000000000    0.5237050000000000 H
   0.2162800000000000    0.4755850000000000    0.4756550000000000 H
   0.3320400000000000    0.4762750000000000    0.4762950000000000 H
   0.2837200000000000    0.5244100000000000    0.5243500000000000 H
   0.1679500000000000    0.2842050000000000    0.0239000000000000 H
   0.2161450000000000    0.3322000000000000    0.9756899999999999 H
   0.2838550000000000    0.1677950000000000    0.0243150000000000 H
   0.3320550000000000    0.2157900000000000    0.9761050000000000 H
   0.2838400000000000    0.5243350000000000    0.6677450000000000 H
   0.3320500000000000    0.4761150000000000    0.7157300000000000 H
   0.2161600000000000    0.4756550000000000    0.8322600000000000 H
   0.1679500000000000    0.5238750000000000    0.7842750000000001 H
   0.0241050000000000    0.6678050000000000    0.2841750000000000 H
   0.9757950000000000    0.7159350000000000    0.3322550000000000 H
   0.9758950000000000    0.8321900000000000    0.2158300000000000 H
   0.0242050000000000    0.7840600000000000    0.1677500000000000 H
   0.5241050000000000    0.6678050000000000    0.7841750000000001 H
   0.4757950000000000    0.7159350000000000    0.8322550000000000 H
   0.4758950000000000    0.8321900000000000    0.7158300000000000 H
   0.5242050000000000    0.7840600000000000    0.6677500000000001 H
   0.5241050000000000    0.6678050000000000    0.2841750000000000 H
   0.4757950000000000    0.7159350000000000    0.3322550000000000 H
   0.4758950000000000    0.8321900000000000    0.2158300000000000 H
   0.5242050000000000    0.7840600000000000    0.1677500000000000 H
   0.5241050000000000    0.1678050000000000    0.7841750000000001 H
   0.4757950000000000    0.2159350000000000    0.8322550000000000 H
   0.4758950000000000    0.3321900000000000    0.7158300000000000 H
   0.5242050000000000    0.2840600000000000    0.6677500000000001 H
   0.6679650000000000    0.5237200000000000    0.0237050000000000 H
   0.7162800000000000    0.4755850000000000    0.9756549999999999 H
   0.8320400000000000    0.4762750000000000    0.9762950000000000 H
   0.7837200000000000    0.5244100000000000    0.0243500000000000 H
   0.6679500000000000    0.2842050000000000    0.5239000000000000 H
   0.7161450000000000    0.3322000000000000    0.4756900000000000 H
   0.7838550000000000    0.1677950000000000    0.5243150000000000 H
   0.8320550000000000    0.2157900000000000    0.4761050000000000 H
   0.7838400000000000    0.5243350000000000    0.1677450000000000 H
   0.8320500000000000    0.4761150000000000    0.2157300000000000 H
   0.7161600000000000    0.4756550000000000    0.3322600000000000 H
   0.6679500000000000    0.5238750000000000    0.2842750000000000 H
   0.6679650000000000    0.0237200000000000    0.5237050000000000 H
   0.7162800000000000    0.9755849999999999    0.4756550000000000 H
   0.8320400000000000    0.9762750000000000    0.4762950000000000 H
   0.7837200000000000    0.0244100000000000    0.5243500000000000 H
   0.6679500000000000    0.7842050000000000    0.0239000000000000 H
   0.7161450000000000    0.8322000000000001    0.9756899999999999 H
   0.7838550000000000    0.6677950000000000    0.0243150000000000 H
   0.8320550000000000    0.7157900000000000    0.9761050000000000 H
   0.7838400000000000    0.0243350000000000    0.6677450000000000 H
   0.8320500000000000    0.9761150000000001    0.7157300000000000 H
   0.7161600000000000    0.9756549999999999    0.8322600000000000 H
   0.6679500000000000    0.0238750000000000    0.7842750000000001 H
   0.6679650000000000    0.0237200000000000    0.0237050000000000 H
   0.7162800000000000    0.9755849999999999    0.9756549999999999 H
   0.8320400000000000    0.9762750000000000    0.9762950000000000 H
   0.7837200000000000    0.0244100000000000    0.0243500000000000 H
   0.6679500000000000    0.7842050000000000    0.5239000000000000 H
   0.7161450000000000    0.8322000000000001    0.4756900000000000 H
   0.7838550000000000    0.6677950000000000    0.5243150000000000 H
   0.8320550000000000    0.7157900000000000    0.4761050000000000 H
   0.7838400000000000    0.0243350000000000    0.1677450000000000 H
   0.8320500000000000    0.9761150000000001    0.2157300000000000 H
   0.7161600000000000    0.9756549999999999    0.3322600000000000 H
   0.6679500000000000    0.0238750000000000    0.2842750000000000 H
   0.6679650000000000    0.5237200000000000    0.5237050000000000 H
   0.7162800000000000    0.4755850000000000    0.4756550000000000 H
   0.8320400000000000    0.4762750000000000    0.4762950000000000 H
   0.7837200000000000    0.5244100000000000    0.5243500000000000 H
   0.6679500000000000    0.2842050000000000    0.0239000000000000 H
   0.7161450000000000    0.3322000000000000    0.9756899999999999 H
   0.7838550000000000    0.1677950000000000    0.0243150000000000 H
   0.8320550000000000    0.2157900000000000    0.9761050000000000 H
   0.7838400000000000    0.5243350000000000    0.6677450000000000 H
   0.8320500000000000    0.4761150000000000    0.7157300000000000 H
   0.7161600000000000    0.4756550000000000    0.8322600000000000 H
   0.6679500000000000    0.5238750000000000    0.7842750000000001 H
   0.5241050000000000    0.1678050000000000    0.2841750000000000 H
   0.4757950000000000    0.2159350000000000    0.3322550000000000 H
   0.4758950000000000    0.3321900000000000    0.2158300000000000 H
   0.5242050000000000    0.2840600000000000    0.1677500000000000 H
   0.4444400000000000    0.4446000000000000    0.8055500000000000 C
   0.5555550000000000    0.5554000000000000    0.6944550000000000 C
   0.4865300000000000    0.4866550000000000    0.7304700000000000 C
   0.5132150000000000    0.5132550000000000    0.7037900000000000 C
   0.5268600000000000    0.5267700000000000    0.7231450000000000 C
   0.4867850000000000    0.4867400000000000    0.7962199999999999 C
   0.5134700000000000    0.5133400000000000    0.7695350000000001 C
   0.4731400000000000    0.4732250000000000    0.7768600000000000 C
   0.4444400000000000    0.4446000000000000    0.3055500000000000 C
   0.5555550000000000    0.5554000000000000    0.1944550000000000 C
   0.4865300000000000    0.4866550000000000    0.2304700000000000 C
   0.5132150000000000    0.5132550000000000    0.2037900000000000 C
   0.5268600000000000    0.5267700000000000    0.2231450000000000 C
   0.4867850000000000    0.4867400000000000    0.2962200000000000 C
   0.5134700000000000    0.5133400000000000    0.2695350000000000 C
   0.4731400000000000    0.4732250000000000    0.2768600000000000 C
   0.4444400000000000    0.9446000000000000    0.3055500000000000 C
   0.5555550000000000    0.0554000000000000    0.1944550000000000 C
   0.4865300000000000    0.9866550000000001    0.2304700000000000 C
   0.5132150000000000    0.0132550000000000    0.2037900000000000 C
   0.5268600000000000    0.0267700000000000    0.2231450000000000 C
   0.4867850000000000    0.9867400000000000    0.2962200000000000 C
   0.5134700000000000    0.0133400000000000    0.2695350000000000 C
   0.4731400000000000    0.9732250000000000    0.2768600000000000 C
   0.4444400000000000    0.9446000000000000    0.8055500000000000 C
   0.5555550000000000    0.0554000000000000    0.6944550000000000 C
   0.4865300000000000    0.9866550000000001    0.7304700000000000 C
   0.5132150000000000    0.0132550000000000    0.7037900000000000 C
   0.5268600000000000    0.0267700000000000    0.7231450000000000 C
   0.4867850000000000    0.9867400000000000    0.7962199999999999 C
   0.5134700000000000    0.0133400000000000    0.7695350000000001 C
   0.4731400000000000    0.9732250000000000    0.7768600000000000 C
   0.9444399999999999    0.4446000000000000    0.8055500000000000 C
   0.0555550000000000    0.5554000000000000    0.6944550000000000 C
   0.9865300000000000    0.4866550000000000    0.7304700000000000 C
   0.0132150000000000    0.5132550000000000    0.7037900000000000 C
   0.0268600000000000    0.5267700000000000    0.7231450000000000 C
   0.9867850000000000    0.4867400000000000    0.7962199999999999 C
   0.0134700000000000    0.5133400000000000    0.7695350000000001 C
   0.9731400000000000    0.4732250000000000    0.7768600000000000 C
   0.9444399999999999    0.4446000000000000    0.3055500000000000 C
   0.0555550000000000    0.5554000000000000    0.1944550000000000 C
   0.9865300000000000    0.4866550000000000    0.2304700000000000 C
   0.0132150000000000    0.5132550000000000    0.2037900000000000 C
   0.0268600000000000    0.5267700000000000    0.2231450000000000 C
   0.9867850000000000    0.4867400000000000    0.2962200000000000 C
   0.0134700000000000    0.5133400000000000    0.2695350000000000 C
   0.9731400000000000    0.4732250000000000    0.2768600000000000 C
   0.9444399999999999    0.9446000000000000    0.8055500000000000 C
   0.0555550000000000    0.0554000000000000    0.6944550000000000 C
   0.9865300000000000    0.9866550000000001    0.7304700000000000 C
   0.0132150000000000    0.0132550000000000    0.7037900000000000 C
   0.0268600000000000    0.0267700000000000    0.7231450000000000 C
   0.9867850000000000    0.9867400000000000    0.7962199999999999 C
   0.0134700000000000    0.0133400000000000    0.7695350000000001 C
   0.9731400000000000    0.9732250000000000    0.7768600000000000 C
   0.9444399999999999    0.9446000000000000    0.3055500000000000 C
   0.0555550000000000    0.0554000000000000    0.1944550000000000 C
   0.9865300000000000    0.9866550000000001    0.2304700000000000 C
   0.0132150000000000    0.0132550000000000    0.2037900000000000 C
   0.0268600000000000    0.0267700000000000    0.2231450000000000 C
   0.9867850000000000    0.9867400000000000    0.2962200000000000 C
   0.0134700000000000    0.0133400000000000    0.2695350000000000 C
   0.9731400000000000    0.9732250000000000    0.2768600000000000 C
   0.9444350000000000    0.8055550000000000    0.9446200000000000 C
   0.0555750000000000    0.6944399999999999    0.0553500000000000 C
   0.9868100000000000    0.7961800000000000    0.9867500000000000 C
   0.0135000000000000    0.7694900000000000    0.0133450000000000 C
   0.9731350000000000    0.7768600000000000    0.9732450000000000 C
   0.9864999999999999    0.7305050000000000    0.9866600000000000 C
   0.0131900000000000    0.7038150000000000    0.0132400000000000 C
   0.0268600000000000    0.7231350000000000    0.0267650000000000 C
   0.4444350000000000    0.8055550000000000    0.4446200000000000 C
   0.5555750000000000    0.6944399999999999    0.5553500000000000 C
   0.4868100000000000    0.7961800000000000    0.4867500000000000 C
   0.5135000000000000    0.7694900000000000    0.5133450000000001 C
   0.4731350000000000    0.7768600000000000    0.4732450000000000 C
   0.4865000000000000    0.7305050000000000    0.4866600000000000 C
   0.5131900000000000    0.7038150000000000    0.5132400000000000 C
   0.5268600000000000    0.7231350000000000    0.5267650000000000 C
   0.9444350000000000    0.8055550000000000    0.4446200000000000 C
   0.0555750000000000    0.6944399999999999    0.5553500000000000 C
   0.9868100000000000    0.7961800000000000    0.4867500000000000 C
   0.0135000000000000    0.7694900000000000    0.5133450000000001 C
   0.9731350000000000    0.7768600000000000    0.4732450000000000 C
   0.9864999999999999    0.7305050000000000    0.4866600000000000 C
   0.0131900000000000    0.7038150000000000    0.5132400000000000 C
   0.0268600000000000    0.7231350000000000    0.5267650000000000 C
   0.9444350000000000    0.3055550000000000    0.9446200000000000 C
   0.0555750000000000    0.1944400000000000    0.0553500000000000 C
   0.9868100000000000    0.2961800000000000    0.9867500000000000 C
   0.0135000000000000    0.2694900000000000    0.0133450000000000 C
   0.9731350000000000    0.2768600000000000    0.9732450000000000 C
   0.9864999999999999    0.2305050000000000    0.9866600000000000 C
   0.0131900000000000    0.2038150000000000    0.0132400000000000 C
   0.0268600000000000    0.2231350000000000    0.0267650000000000 C
   0.4444350000000000    0.3055550000000000    0.9446200000000000 C
   0.5555750000000000    0.1944400000000000    0.0553500000000000 C
   0.4868100000000000    0.2961800000000000    0.9867500000000000 C
   0.5135000000000000    0.2694900000000000    0.0133450000000000 C
   0.4731350000000000    0.2768600000000000    0.9732450000000000 C
   0.4865000000000000    0.2305050000000000    0.9866600000000000 C
   0.5131900000000000    0.2038150000000000    0.0132400000000000 C
   0.5268600000000000    0.2231350000000000    0.0267650000000000 C
   0.9444350000000000    0.3055550000000000    0.4446200000000000 C
   0.0555750000000000    0.1944400000000000    0.5553500000000000 C
   0.9868100000000000    0.2961800000000000    0.4867500000000000 C
   0.0135000000000000    0.2694900000000000    0.5133450000000001 C
   0.9731350000000000    0.2768600000000000    0.4732450000000000 C
   0.9864999999999999    0.2305050000000000    0.4866600000000000 C
   0.0131900000000000    0.2038150000000000    0.5132400000000000 C
   0.0268600000000000    0.2231350000000000    0.5267650000000000 C
   0.4444350000000000    0.3055550000000000    0.4446200000000000 C
   0.5555750000000000    0.1944400000000000    0.5553500000000000 C
   0.4868100000000000    0.2961800000000000    0.4867500000000000 C
   0.5135000000000000    0.2694900000000000    0.5133450000000001 C
   0.4731350000000000    0.2768600000000000    0.4732450000000000 C
   0.4865000000000000    0.2305050000000000    0.4866600000000000 C
   0.5131900000000000    0.2038150000000000    0.5132400000000000 C
   0.5268600000000000    0.2231350000000000    0.5267650000000000 C
   0.9443150000000000    0.8054900000000000    0.8054500000000000 C
   0.0556900000000000    0.6945050000000000    0.6945600000000001 C
   0.0133500000000000    0.7038100000000000    0.7695950000000000 C
   0.9865950000000000    0.7304650000000000    0.7962000000000000 C
   0.9730750000000000    0.7768200000000001    0.7767999999999999 C
   0.9866500000000000    0.7961849999999999    0.7304100000000000 C
   0.0134050000000000    0.7695250000000000    0.7037850000000000 C
   0.0269250000000000    0.7231700000000000    0.7232000000000001 C
   0.9443150000000000    0.3054900000000000    0.8054500000000000 C
   0.0556900000000000    0.1945050000000000    0.6945600000000001 C
   0.0133500000000000    0.2038100000000000    0.7695950000000000 C
   0.9865950000000000    0.2304650000000000    0.7962000000000000 C
   0.9730750000000000    0.2768200000000000    0.7767999999999999 C
   0.9866500000000000    0.2961850000000000    0.7304100000000000 C
   0.0134050000000000    0.2695250000000000    0.7037850000000000 C
   0.0269250000000000    0.2231700000000000    0.7232000000000001 C
   0.9443150000000000    0.3054900000000000    0.3054500000000000 C
   0.0556900000000000    0.1945050000000000    0.1945600000000000 C
   0.0133500000000000    0.2038100000000000    0.2695950000000000 C
   0.9865950000000000    0.2304650000000000    0.2962000000000000 C
   0.9730750000000000    0.2768200000000000    0.2768000000000000 C
   0.9866500000000000    0.2961850000000000    0.2304100000000000 C
   0.0134050000000000    0.2695250000000000    0.2037850000000000 C
   0.0269250000000000    0.2231700000000000    0.2232000000000000 C
   0.1943200000000000    0.5554950000000000    0.0554700000000000 C
   0.3056800000000000    0.4444550000000000    0.9445800000000000 C
   0.2039000000000000    0.5131400000000000    0.0131300000000000 C
   0.2306650000000000    0.4864700000000000    0.9865200000000001 C
   0.2230650000000000    0.5268450000000000    0.0267500000000000 C
   0.2961000000000000    0.4868550000000000    0.9868749999999999 C
   0.2693350000000000    0.5135250000000000    0.0134500000000000 C
   0.2769350000000000    0.4731700000000000    0.9732000000000001 C
   0.3055450000000000    0.3053650000000000    0.4444000000000000 C
   0.1944550000000000    0.1946300000000000    0.5555950000000000 C
   0.2038900000000000    0.2696100000000000    0.5132350000000000 C
   0.2305850000000000    0.2961900000000000    0.4865400000000000 C
   0.2694150000000000    0.2038050000000000    0.5134700000000000 C
   0.2961100000000000    0.2303850000000000    0.4867700000000000 C
   0.2768600000000000    0.2767450000000000    0.4731300000000000 C
   0.2231400000000000    0.2232450000000000    0.5268850000000000 C
   0.1944400000000000    0.5556100000000000    0.1946000000000000 C
   0.3055600000000000    0.4444000000000000    0.3053650000000000 C
   0.2694050000000000    0.5134800000000000    0.2037800000000000 C
   0.2961050000000000    0.4867700000000000    0.2303550000000000 C
   0.2305950000000000    0.4865150000000000    0.2962250000000000 C
   0.2038950000000000    0.5132200000000000    0.2696500000000000 C
   0.2231350000000000    0.5268750000000000    0.2232600000000000 C
   0.2768700000000000    0.4731100000000000    0.2767500000000000 C
   0.1943200000000000    0.0554950000000000    0.5554700000000000 C
   0.3056800000000000    0.9444550000000000    0.4445800000000000 C
   0.2039000000000000    0.0131400000000000    0.5131300000000000 C
   0.2306650000000000    0.9864700000000000    0.4865200000000000 C
   0.2230650000000000    0.0268450000000000    0.5267500000000001 C
   0.2961000000000000    0.9868550000000000    0.4868750000000000 C
   0.2693350000000000    0.0135250000000000    0.5134500000000000 C
   0.2769350000000000    0.9731700000000000    0.4732000000000000 C
   0.3055450000000000    0.8053650000000000    0.9444000000000000 C
   0.1944550000000000    0.6946300000000000    0.0555950000000000 C