H4 O2
1.0
  27.6785324397236039    0.0000000000000000   -3.1036665386552476
  -2.5225593408022822   13.1525560820598404   -6.8753093661595965
   0.0000000000000000    0.0000000000000000   30.0820000000000007
H O
4 2
direct
   0.0209809509084531    0.3573091589023064    0.8558622560927526 H
   0.0156220377235691    0.3815837936479242    0.8062722017094567 H
   0.2287687927305345    0.2881117915016587    0.8214666590976664 H
   0.2345689035072059    0.3873879117469619    0.8094422581734254 H
   0.0007700000000000    0.3718300000000000    0.8320900000000000 O
   0.2492050000000000    0.3356500000000000    0.8142750000000001 O
