H6 O4
1.0
  27.6785324397236039    0.0000000000000000   -3.1036665386552476
  -2.5225593408022822   13.1525560820598404   -6.8753093661595965
   0.0000000000000000    0.0000000000000000   30.0820000000000007
H O
6 4
direct
   0.3107966630320135    0.3552911313063263    0.9012247807756932 H
   0.4571729246227129    0.4394269279449848    0.9277940207944615 H
   0.3855605702409682    0.4004517448961435    0.9199135941932735 H
   0.4401397503513549    0.3251123885438695    0.2460918871560241 H
   0.2937365697208671    0.3014002901918020    0.2178546628470617 H
   0.3644048166114178    0.3107465740178695    0.2266962123763754 H
   0.3415500000000000    0.3660000000000000    0.8905000000000001 O
   0.4248700000000000    0.4141400000000000    0.9062049999999999 O
   0.4081950000000000    0.3270300000000000    0.2561050000000000 O
   0.3252000000000000    0.3131000000000000    0.2389850000000000 O
