Cd12 H272 C275 N44 O48
1.0
  12.5630000000000006    0.0000000000000000    0.0000000000000008
   0.0052615393591368   37.6829996326752621    0.0000000000000023
   0.0000000000000000    0.0000000000000000   25.8279999999999994
Cd H C N O
12 272 275 44 48
direct
   0.2500000000000000    0.4166666666666666    0.4162400000000000 Cd
   0.2500000000000000    0.7500033333333334    0.0837600000000000 Cd
   0.2500000000000000    0.0833366666666667    0.0837600000000000 Cd
   0.2500000000000000    0.4166700000000000    0.0837600000000000 Cd
   0.2500000000000000    0.0833333333333333    0.4162400000000000 Cd
   0.2500000000000000    0.7500000000000000    0.4162400000000000 Cd
   0.7500100000000000    0.5833400000000000    0.9162500000000000 Cd
   0.7500100000000000    0.2500066666666667    0.9162500000000000 Cd
   0.7500100000000000    0.9166733333333332    0.9162500000000000 Cd
   0.7500100000000000    0.9166733333333332    0.5837700000000000 Cd
   0.7500100000000000    0.2500066666666667    0.5837700000000000 Cd
   0.7500100000000000    0.5833400000000000    0.5837700000000000 Cd
   0.4259075033060377    0.4033269634980419    0.5014930170345574 H
   0.4030773844983742    0.4469061793633455    0.5050469157634586 H
   0.0969326155016258    0.3864304873033211    0.5050469157634585 H
   0.0741024966939622    0.4300097031686247    0.5014930170345574 H
   0.6675926900658230    0.3127195853245927    0.8428775440058179 H
   0.7833769562489719    0.2999160446807002    0.8171238274226433 H
   0.7166319912986957    0.5334337268620677    0.8171292876029214 H
   0.8324279016417216    0.5206321759897118    0.8428122810671793 H
   0.1723000000000000    0.5475500000000000    0.7802200000000000 H
   0.0838400000000000    0.5686233333333333    0.8259400000000000 H
   0.9873700000000000    0.5456633333333333    0.7592800000000000 H
   0.0913100000000000    0.6451100000000000    0.6920500000000001 H
   0.9417600000000000    0.6387966666666667    0.6281800000000000 H
   0.8483600000000000    0.5430600000000000    0.6910900000000000 H
   0.3277000000000000    0.6191333333333333    0.7802200000000000 H
   0.4161600000000000    0.5980600000000000    0.8259400000000000 H
   0.5126500000000001    0.6210199999999999    0.7592800000000000 H
   0.4086900000000000    0.5215733333333333    0.6920600000000000 H
   0.5582600000000000    0.5278833333333333    0.6281800000000000 H
   0.6516700000000000    0.6236200000000000    0.6911000000000000 H
   0.3433500000000000    0.5619766666666667    0.8972400000000000 H
   0.3256000000000000    0.5317233333333333    0.8450400000000000 H
   0.3831900000000000    0.5181466666666666    0.9416500000000000 H
   0.0431700000000000    0.4992500000000000    0.9322800000000000 H
   0.0653100000000000    0.4544566666666666    0.0027400000000000 H
   0.3884400000000000    0.4733666666666666    0.0127800000000000 H
   0.1566500000000000    0.6047066666666666    0.8972000000000000 H
   0.1744000000000000    0.6349633333333333    0.8450400000000000 H
   0.1168100000000000    0.6485399999999999    0.9416500000000000 H
   0.4568400000000000    0.6674166666666667    0.9322000000000000 H
   0.4346900000000000    0.7122133333333333    0.0027500000000000 H
   0.1115600000000000    0.6933133333333333    0.0127700000000000 H
   0.8573800000000000    0.7240933333333333    0.7198400000000000 H
   0.7941900000000000    0.6946033333333332    0.6741100000000000 H
   0.8631200000000000    0.6624699999999999    0.7408200000000000 H
   0.5646700000000000    0.6970833333333333    0.8079000000000000 H
   0.5835800000000000    0.6472266666666666    0.8718200000000000 H
   0.8708900000000001    0.6161233333333334    0.8090000000000001 H
   0.6426500000000001    0.7759100000000000    0.7198400000000000 H
   0.7058300000000000    0.8053999999999999    0.6741100000000000 H
   0.6368900000000000    0.8375433333333333    0.7408300000000000 H
   0.9353600000000000    0.8029266666666666    0.8079400000000000 H
   0.9164500000000000    0.8527966666666666    0.8718100000000000 H
   0.6291099999999999    0.8838900000000000    0.8090100000000000 H
   0.8140700000000000    0.7811333333333332    0.6028200000000000 H
   0.9048400000000000    0.7752000000000000    0.6550000000000000 H
   0.9455400000000000    0.7944133333333333    0.5584000000000000 H
   0.0022400000000000    0.6810533333333333    0.5677400000000000 H
   0.1366200000000000    0.6884366666666666    0.4972700000000000 H
   0.0798700000000000    0.7961699999999999    0.4872700000000000 H
   0.6859600000000000    0.7188733333333333    0.6028200000000000 H
   0.5951900000000000    0.7248033333333332    0.6550000000000000 H
   0.5544900000000000    0.7055899999999999    0.5584000000000000 H
   0.4977700000000000    0.8189500000000000    0.5677400000000000 H
   0.3633800000000000    0.8115666666666665    0.4972700000000000 H
   0.4201300000000000    0.7038333333333333    0.4872700000000000 H
   0.1723000000000000    0.2142166666666667    0.7802200000000000 H
   0.0838400000000000    0.2352900000000000    0.8259400000000000 H
   0.9873700000000000    0.2123300000000000    0.7592800000000000 H
   0.0913100000000000    0.3117766666666666    0.6920500000000001 H
   0.9417600000000000    0.3054633333333333    0.6281800000000000 H
   0.8483600000000000    0.2097266666666666    0.6910900000000000 H
   0.3277000000000000    0.2858000000000000    0.7802200000000000 H
   0.4161600000000000    0.2647266666666667    0.8259400000000000 H
   0.5126500000000001    0.2876866666666666    0.7592800000000000 H
   0.4086900000000000    0.1882400000000000    0.6920600000000000 H
   0.5582600000000000    0.1945500000000000    0.6281800000000000 H
   0.6516700000000000    0.2902866666666666    0.6911000000000000 H
   0.3433500000000000    0.2286433333333333    0.8972400000000000 H
   0.3256000000000000    0.1983900000000000    0.8450400000000000 H
   0.3831900000000000    0.1848133333333333    0.9416500000000000 H
   0.0431700000000000    0.1659166666666667    0.9322800000000000 H
   0.0653100000000000    0.1211233333333333    0.0027400000000000 H
   0.3884400000000000    0.1400333333333333    0.0127800000000000 H
   0.1566500000000000    0.2713733333333333    0.8972000000000000 H
   0.1744000000000000    0.3016300000000000    0.8450400000000000 H
   0.1168100000000000    0.3152066666666666    0.9416500000000000 H
   0.4568400000000000    0.3340833333333333    0.9322000000000000 H
   0.4346900000000000    0.3788800000000000    0.0027500000000000 H
   0.1115600000000000    0.3599800000000000    0.0127700000000000 H
   0.1723000000000000    0.8808833333333332    0.7802200000000000 H
   0.0838400000000000    0.9019566666666666    0.8259400000000000 H
   0.9873700000000000    0.8789966666666666    0.7592800000000000 H
   0.0913100000000000    0.9784433333333333    0.6920500000000001 H
   0.9417600000000000    0.9721299999999999    0.6281800000000000 H
   0.8483600000000000    0.8763933333333332    0.6910900000000000 H
   0.3277000000000000    0.9524666666666666    0.7802200000000000 H
   0.4161600000000000    0.9313933333333333    0.8259400000000000 H
   0.5126500000000001    0.9543533333333333    0.7592800000000000 H
   0.4086900000000000    0.8549066666666666    0.6920600000000000 H
   0.5582600000000000    0.8612166666666666    0.6281800000000000 H
   0.6516700000000000    0.9569533333333333    0.6911000000000000 H
   0.3433500000000000    0.8953099999999999    0.8972400000000000 H
   0.3256000000000000    0.8650566666666666    0.8450400000000000 H
   0.3831900000000000    0.8514800000000000    0.9416500000000000 H
   0.0431700000000000    0.8325833333333332    0.9322800000000000 H
   0.0653100000000000    0.7877900000000000    0.0027400000000000 H
   0.3884400000000000    0.8067000000000000    0.0127800000000000 H
   0.1566500000000000    0.9380400000000000    0.8972000000000000 H
   0.1744000000000000    0.9682966666666666    0.8450400000000000 H
   0.1168100000000000    0.9818733333333333    0.9416500000000000 H
   0.4568400000000000    0.0007500000000000    0.9322000000000000 H
   0.4346900000000000    0.0455466666666667    0.0027500000000000 H
   0.1115600000000000    0.0266466666666667    0.0127700000000000 H
   0.8573800000000000    0.0574266666666667    0.7198400000000000 H
   0.7941900000000000    0.0279366666666667    0.6741100000000000 H
   0.8631200000000000    0.9958033333333333    0.7408200000000000 H
   0.5646700000000000    0.0304166666666667    0.8079000000000000 H
   0.5835800000000000    0.9805599999999999    0.8718200000000000 H
   0.8708900000000001    0.9494566666666666    0.8090000000000001 H
   0.6426500000000001    0.1092433333333333    0.7198400000000000 H
   0.7058300000000000    0.1387333333333333    0.6741100000000000 H
   0.6368900000000000    0.1708766666666667    0.7408300000000000 H
   0.9353600000000000    0.1362600000000000    0.8079400000000000 H
   0.9164500000000000    0.1861300000000000    0.8718100000000000 H
   0.6291099999999999    0.2172233333333333    0.8090100000000000 H
   0.8140700000000000    0.1144666666666667    0.6028200000000000 H
   0.9048400000000000    0.1085333333333333    0.6550000000000000 H
   0.9455400000000000    0.1277466666666667    0.5584000000000000 H
   0.0022400000000000    0.0143866666666667    0.5677400000000000 H
   0.1366200000000000    0.0217700000000000    0.4972700000000000 H
   0.0798700000000000    0.1295033333333333    0.4872700000000000 H
   0.6859600000000000    0.0522066666666667    0.6028200000000000 H
   0.5951900000000000    0.0581366666666667    0.6550000000000000 H
   0.5544900000000000    0.0389233333333333    0.5584000000000000 H
   0.4977700000000000    0.1522833333333333    0.5677400000000000 H
   0.3633800000000000    0.1449000000000000    0.4972700000000000 H
   0.4201300000000000    0.0371666666666667    0.4872700000000000 H
   0.6723100000000000    0.0475433333333333    0.2197900000000000 H
   0.5838500000000000    0.0686166666666667    0.1740700000000000 H
   0.4873600000000000    0.0456566666666667    0.2407300000000000 H
   0.5913200000000000    0.1451033333333333    0.3079600000000000 H
   0.4417600000000000    0.1387933333333333    0.3718300000000000 H
   0.3483500000000000    0.0430566666666667    0.3089100000000000 H
   0.8277099999999999    0.1191266666666667    0.2197900000000000 H
   0.9161700000000000    0.0980566666666667    0.1740700000000000 H
   0.0126400000000000    0.1210133333333333    0.2407300000000000 H
   0.9087100000000000    0.0215666666666667    0.3079500000000000 H
   0.0582600000000000    0.0278766666666667    0.3718300000000000 H
   0.1516600000000000    0.1236133333333333    0.3089100000000000 H
   0.8433600000000000    0.0619700000000000    0.1027700000000000 H
   0.8256200000000000    0.0317166666666667    0.1549600000000000 H
   0.8832000000000000    0.0181400000000000    0.0583600000000000 H
   0.5431700000000000    0.9992533333333333    0.0677300000000000 H
   0.5653200000000000    0.9544600000000000    0.9972700000000000 H
   0.8884500000000000    0.9733700000000000    0.9872300000000001 H
   0.6566600000000000    0.1047000000000000    0.1027700000000000 H
   0.6744100000000000    0.1349566666666667    0.1549000000000000 H
   0.6168200000000000    0.1485366666666667    0.0583600000000000 H
   0.9568400000000000    0.1674266666666666    0.0677000000000000 H
   0.9347000000000000    0.2122166666666667    0.9972600000000000 H
   0.6115699999999999    0.1933166666666666    0.9872400000000000 H
   0.3573600000000000    0.8907633333333334    0.2801700000000000 H
   0.2941800000000000    0.8612766666666666    0.3259000000000000 H
   0.3631100000000000    0.8291299999999999    0.2591900000000000 H
   0.0646600000000000    0.8637533333333333    0.1920000000000000 H
   0.0835700000000000    0.8138866666666666    0.1281900000000000 H
   0.3708900000000000    0.7827833333333333    0.1910000000000000 H
   0.1426400000000000    0.9425866666666667    0.2801700000000000 H
   0.2058200000000000    0.9720733333333333    0.3259000000000000 H
   0.1368800000000000    0.0042033333333333    0.2591800000000000 H
   0.4353500000000000    0.9696000000000000    0.1920700000000000 H
   0.4164400000000000    0.0194566666666667    0.1282000000000000 H
   0.1291100000000000    0.0505533333333333    0.1910000000000000 H
   0.1859500000000000    0.8855466666666666    0.3971900000000000 H
   0.0951700000000000    0.8914766666666666    0.3450000000000000 H
   0.0544700000000000    0.8722633333333333    0.4416100000000000 H
   0.9977700000000000    0.9856233333333333    0.4322700000000000 H
   0.8633900000000000    0.9782400000000000    0.5027400000000000 H
   0.9201300000000000    0.8705066666666665    0.5127400000000000 H
   0.3140500000000000    0.9478066666666666    0.3971900000000000 H
   0.4048300000000000    0.9418733333333333    0.3450000000000000 H
   0.4455300000000000    0.9610866666666666    0.4416100000000000 H
   0.5022400000000000    0.8477266666666666    0.4322700000000000 H
   0.6366200000000000    0.8551099999999999    0.5027400000000000 H
   0.5798800000000000    0.9628433333333333    0.5127400000000000 H
   0.6723100000000000    0.7142100000000000    0.2197900000000000 H
   0.5838500000000000    0.7352833333333333    0.1740700000000000 H
   0.4873600000000000    0.7123233333333333    0.2407300000000000 H
   0.5913200000000000    0.8117699999999999    0.3079600000000000 H
   0.4417600000000000    0.8054600000000000    0.3718300000000000 H
   0.3483500000000000    0.7097233333333333    0.3089100000000000 H
   0.8277099999999999    0.7857933333333333    0.2197900000000000 H
   0.9161700000000000    0.7647233333333333    0.1740700000000000 H
   0.0126400000000000    0.7876799999999999    0.2407300000000000 H
   0.9087100000000000    0.6882333333333333    0.3079500000000000 H
   0.0582600000000000    0.6945433333333333    0.3718300000000000 H
   0.1516600000000000    0.7902800000000000    0.3089100000000000 H
   0.6566600000000000    0.7713666666666666    0.1027700000000000 H
   0.6744100000000000    0.8016233333333334    0.1549000000000000 H
   0.6168200000000000    0.8152033333333333    0.0583600000000000 H
   0.9568400000000000    0.8340933333333332    0.0677000000000000 H
   0.9347000000000000    0.8788833333333332    0.9972600000000000 H
   0.6115699999999999    0.8599833333333333    0.9872400000000000 H
   0.8433600000000000    0.7286366666666666    0.1027700000000000 H
   0.8256200000000000    0.6983833333333332    0.1549600000000000 H
   0.8832000000000000    0.6848066666666667    0.0583600000000000 H
   0.5431700000000000    0.6659200000000000    0.0677300000000000 H
   0.5653200000000000    0.6211266666666666    0.9972700000000000 H
   0.8884500000000000    0.6400366666666666    0.9872300000000001 H
   0.3573600000000000    0.5574300000000000    0.2801700000000000 H
   0.2941800000000000    0.5279433333333333    0.3259000000000000 H
   0.3631100000000000    0.4957966666666667    0.2591900000000000 H
   0.0646600000000000    0.5304200000000000    0.1920000000000000 H
   0.0835700000000000    0.4805533333333333    0.1281900000000000 H
   0.3708900000000000    0.4494500000000000    0.1910000000000000 H
   0.1426400000000000    0.6092533333333333    0.2801700000000000 H
   0.2058200000000000    0.6387400000000000    0.3259000000000000 H
   0.1368800000000000    0.6708700000000000    0.2591800000000000 H
   0.4353500000000000    0.6362666666666666    0.1920700000000000 H
   0.4164400000000000    0.6861233333333333    0.1282000000000000 H
   0.1291100000000000    0.7172200000000000    0.1910000000000000 H
   0.1859500000000000    0.5522133333333333    0.3971900000000000 H
   0.0951700000000000    0.5581433333333333    0.3450000000000000 H
   0.0544700000000000    0.5389299999999999    0.4416100000000000 H
   0.9977700000000000    0.6522900000000000    0.4322700000000000 H
   0.8633900000000000    0.6449066666666666    0.5027400000000000 H
   0.9201300000000000    0.5371733333333333    0.5127400000000000 H
   0.3140500000000000    0.6144733333333332    0.3971900000000000 H
   0.4048300000000000    0.6085400000000000    0.3450000000000000 H
   0.4455300000000000    0.6277533333333334    0.4416100000000000 H
   0.5022400000000000    0.5143933333333333    0.4322700000000000 H
   0.6366200000000000    0.5217766666666667    0.5027400000000000 H
   0.5798800000000000    0.6295100000000000    0.5127400000000000 H
   0.6723100000000000    0.3808766666666666    0.2197900000000000 H
   0.5838500000000000    0.4019500000000000    0.1740700000000000 H
   0.4873600000000000    0.3789900000000000    0.2407300000000000 H
   0.5913200000000000    0.4784366666666666    0.3079600000000000 H
   0.4417600000000000    0.4721266666666666    0.3718300000000000 H
   0.3483500000000000    0.3763900000000000    0.3089100000000000 H
   0.8277099999999999    0.4524600000000000    0.2197900000000000 H
   0.9161700000000000    0.4313899999999999    0.1740700000000000 H
   0.0126400000000000    0.4543466666666666    0.2407300000000000 H
   0.9087100000000000    0.3549000000000000    0.3079500000000000 H
   0.0582600000000000    0.3612100000000000    0.3718300000000000 H
   0.1516600000000000    0.4569466666666666    0.3089100000000000 H
   0.6566600000000000    0.4380333333333333    0.1027700000000000 H
   0.6744100000000000    0.4682900000000000    0.1549000000000000 H
   0.6168200000000000    0.4818700000000000    0.0583600000000000 H
   0.9568400000000000    0.5007600000000000    0.0677000000000000 H
   0.9347000000000000    0.5455500000000000    0.9972600000000000 H
   0.6115699999999999    0.5266500000000000    0.9872400000000000 H
   0.8433600000000000    0.3953033333333333    0.1027700000000000 H
   0.8256200000000000    0.3650500000000000    0.1549600000000000 H
   0.8832000000000000    0.3514733333333333    0.0583600000000000 H
   0.5431700000000000    0.3325866666666666    0.0677300000000000 H
   0.5653200000000000    0.2877933333333333    0.9972700000000000 H
   0.8884500000000000    0.3067033333333333    0.9872300000000001 H
   0.3573600000000000    0.2240966666666667    0.2801700000000000 H
   0.2941800000000000    0.1946100000000000    0.3259000000000000 H
   0.3631100000000000    0.1624633333333333    0.2591900000000000 H
   0.0646600000000000    0.1970866666666667    0.1920000000000000 H
   0.0835700000000000    0.1472200000000000    0.1281900000000000 H
   0.3708900000000000    0.1161166666666667    0.1910000000000000 H
   0.1426400000000000    0.2759200000000000    0.2801700000000000 H
   0.2058200000000000    0.3054066666666667    0.3259000000000000 H
   0.1368800000000000    0.3375366666666667    0.2591800000000000 H
   0.4353500000000000    0.3029333333333333    0.1920700000000000 H
   0.4164400000000000    0.3527900000000000    0.1282000000000000 H
   0.1291100000000000    0.3838866666666667    0.1910000000000000 H
   0.1859500000000000    0.2188800000000000    0.3971900000000000 H
   0.0951700000000000    0.2248100000000000    0.3450000000000000 H
   0.0544700000000000    0.2055966666666666    0.4416100000000000 H
   0.9977700000000000    0.3189566666666667    0.4322700000000000 H
   0.8633900000000000    0.3115733333333333    0.5027400000000000 H
   0.9201300000000000    0.2038400000000000    0.5127400000000000 H
   0.3140500000000000    0.2811399999999999    0.3971900000000000 H
   0.4048300000000000    0.2752066666666667    0.3450000000000000 H
   0.4455300000000000    0.2944200000000000    0.4416100000000000 H
   0.5022400000000000    0.1810600000000000    0.4322700000000000 H
   0.6366200000000000    0.1884433333333333    0.5027400000000000 H
   0.5798800000000000    0.2961766666666666    0.5127400000000000 H
   0.1543400000000000    0.5722499999999999    0.8011900000000000 C
   0.0524500000000000    0.5957133333333333    0.7306400000000000 C
   0.9824000000000001    0.5667733333333334    0.7307100000000000 C
   0.0381600000000000    0.6222733333333332    0.6930700000000000 C
   0.9564500000000000    0.6184799999999999    0.6574300000000000 C
   0.9034600000000000    0.5654266666666666    0.6928299999999999 C
   0.3456600000000000    0.5944333333333334    0.8011900000000000 C
   0.4475600000000000    0.5709700000000000    0.7306400000000000 C
   0.5176200000000000    0.5999066666666666    0.7307100000000000 C
   0.4618500000000000    0.5444066666666667    0.6930700000000000 C
   0.5435800000000000    0.5482033333333334    0.6574000000000000 C
   0.5965700000000000    0.6012533333333333    0.6928299999999999 C
   0.2859100000000000    0.5522000000000000    0.8685200000000000 C
   0.2109100000000000    0.5126400000000000    0.9310000000000000 C
   0.3099800000000000    0.5050166666666667    0.9538200000000000 C
   0.1209700000000000    0.4942799999999999    0.9493000000000000 C
   0.1334200000000000    0.4696433333333333    0.9887400000000000 C
   0.3134100000000000    0.4800966666666666    0.9936900000000000 C
   0.2140900000000000    0.6144833333333333    0.8685200000000000 C
   0.2890900000000000    0.6540433333333333    0.9310000000000000 C
   0.1900200000000000    0.6616700000000000    0.9538200000000000 C
   0.3790400000000000    0.6723899999999999    0.9493900000000000 C
   0.3665900000000000    0.6970266666666667    0.9887000000000000 C
   0.1866000000000000    0.6865766666666666    0.9936000000000000 C
   0.2500000000000000    0.5833433333333333    0.8344900000000000 C
   0.7832900000000000    0.7181033333333333    0.6988600000000000 C
   0.7129100000000000    0.6841400000000000    0.7694100000000000 C
   0.7997500000000000    0.6608033333333333    0.7693600000000000 C
   0.6331900000000000    0.6793666666666667    0.8069499999999999 C
   0.6445700000000000    0.6521333333333332    0.8425900000000000 C
   0.8037800000000000    0.6344866666666666    0.8072400000000000 C
   0.7167300000000000    0.7818999999999999    0.6988600000000000 C
   0.7871100000000000    0.8158633333333333    0.7694100000000000 C
   0.7002699999999999    0.8392100000000000    0.7693600000000000 C
   0.8668400000000001    0.8206399999999999    0.8069499999999999 C
   0.8554600000000000    0.8478833333333333    0.8425000000000000 C
   0.6962300000000000    0.8655299999999999    0.8072500000000000 C
   0.8434100000000000    0.7619733333333333    0.6315300000000000 C
   0.9620800000000000    0.7369766666666666    0.5686400000000000 C
   0.9849400000000000    0.7700066666666666    0.5462200000000000 C
   0.0171400000000000    0.7069933333333333    0.5506400000000000 C
   0.0910600000000000    0.7111433333333332    0.5112900000000000 C
   0.0596900000000000    0.7711533333333334    0.5063600000000000 C
   0.6566200000000000    0.7380300000000000    0.6315300000000000 C
   0.5379500000000000    0.7630266666666666    0.5686400000000000 C
   0.5150800000000000    0.7300000000000000    0.5462200000000000 C
   0.4828600000000000    0.7930100000000000    0.5506400000000000 C
   0.4089500000000000    0.7888600000000000    0.5112900000000000 C
   0.4403200000000000    0.7288500000000000    0.5063600000000000 C
   0.7500100000000000    0.7500033333333334    0.6655600000000000 C
   0.1543400000000000    0.2389166666666667    0.8011900000000000 C
   0.0524500000000000    0.2623799999999999    0.7306400000000000 C
   0.9824000000000001    0.2334400000000000    0.7307100000000000 C
   0.0381600000000000    0.2889400000000000    0.6930700000000000 C
   0.9564500000000000    0.2851466666666667    0.6574300000000000 C
   0.9034600000000000    0.2320933333333333    0.6928299999999999 C
   0.3456600000000000    0.2611000000000000    0.8011900000000000 C
   0.4475600000000000    0.2376366666666667    0.7306400000000000 C
   0.5176200000000000    0.2665733333333333    0.7307100000000000 C
   0.4618500000000000    0.2110733333333333    0.6930700000000000 C
   0.5435800000000000    0.2148700000000000    0.6574000000000000 C
   0.5965700000000000    0.2679200000000000    0.6928299999999999 C
   0.2859100000000000    0.2188666666666667    0.8685200000000000 C
   0.2109100000000000    0.1793066666666666    0.9310000000000000 C
   0.3099800000000000    0.1716833333333333    0.9538200000000000 C
   0.1209700000000000    0.1609466666666667    0.9493000000000000 C
   0.1334200000000000    0.1363100000000000    0.9887400000000000 C
   0.3134100000000000    0.1467633333333333    0.9936900000000000 C
   0.2140900000000000    0.2811500000000000    0.8685200000000000 C
   0.2890900000000000    0.3207100000000000    0.9310000000000000 C
   0.1900200000000000    0.3283366666666667    0.9538200000000000 C
   0.3790400000000000    0.3390566666666667    0.9493900000000000 C
   0.3665900000000000    0.3636933333333333    0.9887000000000000 C
   0.1866000000000000    0.3532433333333333    0.9936000000000000 C
   0.2500000000000000    0.2500100000000000    0.8344900000000000 C
   0.1543400000000000    0.9055833333333333    0.8011900000000000 C
   0.0524500000000000    0.9290466666666666    0.7306400000000000 C
   0.9824000000000001    0.9001066666666666    0.7307100000000000 C
   0.0381600000000000    0.9556066666666666    0.6930700000000000 C
   0.9564500000000000    0.9518133333333333    0.6574300000000000 C
   0.9034600000000000    0.8987600000000000    0.6928299999999999 C
   0.3456600000000000    0.9277666666666666    0.8011900000000000 C
   0.4475600000000000    0.9043033333333332    0.7306400000000000 C
   0.5176200000000000    0.9332400000000000    0.7307100000000000 C
   0.4618500000000000    0.8777400000000000    0.6930700000000000 C
   0.5435800000000000    0.8815366666666666    0.6574000000000000 C
   0.5965700000000000    0.9345866666666667    0.6928299999999999 C
   0.2859100000000000    0.8855333333333333    0.8685200000000000 C
   0.2109100000000000    0.8459733333333332    0.9310000000000000 C
   0.3099800000000000    0.8383499999999999    0.9538200000000000 C
   0.1209700000000000    0.8276133333333333    0.9493000000000000 C
   0.1334200000000000    0.8029766666666667    0.9887400000000000 C
   0.3134100000000000    0.8134300000000000    0.9936900000000000 C
   0.2140900000000000    0.9478166666666666    0.8685200000000000 C
   0.2890900000000000    0.9873766666666666    0.9310000000000000 C
   0.1900200000000000    0.9950033333333332    0.9538200000000000 C
   0.3790400000000000    0.0057233333333333    0.9493900000000000 C
   0.3665900000000000    0.0303600000000000    0.9887000000000000 C
   0.1866000000000000    0.0199100000000000    0.9936000000000000 C
   0.2500000000000000    0.9166766666666666    0.8344900000000000 C
   0.7832900000000000    0.0514366666666667    0.6988600000000000 C
   0.7129100000000000    0.0174733333333333    0.7694100000000000 C
   0.7997500000000000    0.9941366666666667    0.7693600000000000 C
   0.6331900000000000    0.0127000000000000    0.8069499999999999 C
   0.6445700000000000    0.9854666666666666    0.8425900000000000 C
   0.8037800000000000    0.9678199999999999    0.8072400000000000 C
   0.7167300000000000    0.1152333333333333    0.6988600000000000 C
   0.7871100000000000    0.1491966666666666    0.7694100000000000 C
   0.7002699999999999    0.1725433333333333    0.7693600000000000 C
   0.8668400000000001    0.1539733333333333    0.8069499999999999 C
   0.8554600000000000    0.1812166666666666    0.8425000000000000 C
   0.6962300000000000    0.1988633333333333    0.8072500000000000 C
   0.8434100000000000    0.0953066666666667    0.6315300000000000 C
   0.9620800000000000    0.0703100000000000    0.5686400000000000 C
   0.9849400000000000    0.1033400000000000    0.5462200000000000 C
   0.0171400000000000    0.0403266666666667    0.5506400000000000 C
   0.0910600000000000    0.0444766666666667    0.5112900000000000 C
   0.0596900000000000    0.1044866666666667    0.5063600000000000 C
   0.6566200000000000    0.0713633333333333    0.6315300000000000 C
   0.5379500000000000    0.0963600000000000    0.5686400000000000 C
   0.5150800000000000    0.0633333333333333    0.5462200000000000 C
   0.4828600000000000    0.1263433333333333    0.5506400000000000 C
   0.4089500000000000    0.1221933333333333    0.5112900000000000 C
   0.4403200000000000    0.0621833333333333    0.5063600000000000 C
   0.7500100000000000    0.0833366666666667    0.6655600000000000 C
   0.6543400000000000    0.0722433333333333    0.1988200000000000 C
   0.5524600000000000    0.0957066666666667    0.2693700000000000 C
   0.4824000000000000    0.0667700000000000    0.2693000000000000 C
   0.5381700000000000    0.1222700000000000    0.3069400000000000 C
   0.4564400000000000    0.1184733333333333    0.3425800000000000 C
   0.4034500000000000    0.0654200000000000    0.3071800000000000 C
   0.8456800000000000    0.0944266666666667    0.1988200000000000 C
   0.9475700000000000    0.0709633333333333    0.2693700000000000 C
   0.0176100000000000    0.0999033333333333    0.2690000000000000 C
   0.9618600000000000    0.0444033333333333    0.3069400000000000 C
   0.0435700000000000    0.0481966666666667    0.3425700000000000 C
   0.0965600000000000    0.1012500000000000    0.3071800000000000 C
   0.7859200000000000    0.0521966666666667    0.1314900000000000 C
   0.7109200000000000    0.0126333333333333    0.0686100000000000 C
   0.8099900000000000    0.0050100000000000    0.0461900000000000 C
   0.6209700000000000    0.9942866666666665    0.0506200000000000 C
   0.6334200000000000    0.9696466666666665    0.0112700000000000 C
   0.8134100000000000    0.9801033333333333    0.0063200000000000 C
   0.7141000000000000    0.1144766666666667    0.1314900000000000 C
   0.7891000000000000    0.1540366666666667    0.0686100000000000 C
   0.6900300000000000    0.1616633333333333    0.0461900000000000 C
   0.8790400000000000    0.1723966666666667    0.0506200000000000 C
   0.8665900000000000    0.1970333333333333    0.0112000000000000 C
   0.6866000000000000    0.1865833333333333    0.0063200000000000 C
   0.7500100000000000    0.0833366666666667    0.1655200000000000 C
   0.2832800000000000    0.8847799999999999    0.3011500000000000 C
   0.2129000000000000    0.8508133333333333    0.2306000000000000 C
   0.2997400000000000    0.8274666666666666    0.2306500000000000 C