H24 C25 N4 O4
1.0
  12.5630000000000006    0.0000000000000000    0.0000000000000008
   0.0052615393591368   37.6829996326752621    0.0000000000000023
   0.0000000000000000    0.0000000000000000   25.8279999999999994
H C N O
24 25 4 4
direct
   0.5835800000000000    0.3138933333333333    0.8718200000000000 H
   0.8631200000000000    0.3291366666666666    0.7408200000000000 H
   0.8708900000000001    0.2827900000000000    0.8090000000000001 H
   0.9164500000000000    0.5194633333333334    0.8718100000000000 H
   0.9353600000000000    0.4695933333333333    0.8079400000000000 H
   0.6368900000000000    0.5042100000000000    0.7408300000000000 H
   0.6291099999999999    0.5505566666666666    0.8090100000000000 H
   0.6426500000000001    0.4425766666666666    0.7198400000000000 H
   0.7058300000000000    0.4720666666666666    0.6741100000000000 H
   0.5951900000000000    0.3914700000000000    0.6550000000000000 H
   0.6859600000000000    0.3855400000000000    0.6028200000000000 H
   0.4201300000000000    0.3705000000000000    0.4872700000000000 H
   0.5544900000000000    0.3722566666666666    0.5584000000000000 H
   0.4977700000000000    0.4856166666666666    0.5677400000000000 H
   0.3633800000000000    0.4782333333333333    0.4972700000000000 H
   0.5646700000000000    0.3637500000000000    0.8079000000000000 H
   0.8573800000000000    0.3907600000000000    0.7198400000000000 H
   0.7941900000000000    0.3612700000000000    0.6741100000000000 H
   0.9048400000000000    0.4418666666666666    0.6550000000000000 H
   0.8140700000000000    0.4478000000000000    0.6028200000000000 H
   0.0798700000000000    0.4628366666666667    0.4872700000000000 H
   0.9455400000000000    0.4610800000000000    0.5584000000000000 H
   0.0022400000000000    0.3477200000000000    0.5677400000000000 H
   0.1366200000000000    0.3551033333333333    0.4972700000000000 H
   0.6445700000000000    0.3188000000000000    0.8425900000000000 C
   0.7997500000000000    0.3274700000000000    0.7693600000000000 C
   0.8037800000000000    0.3011533333333333    0.8072400000000000 C
   0.8554600000000000    0.5145500000000000    0.8425000000000000 C
   0.8668400000000001    0.4873066666666667    0.8069499999999999 C
   0.7871100000000000    0.4825300000000000    0.7694100000000000 C
   0.7002699999999999    0.5058766666666666    0.7693600000000000 C
   0.6962300000000000    0.5321966666666667    0.8072500000000000 C
   0.7167300000000000    0.4485666666666667    0.6988600000000000 C
   0.6566200000000000    0.4046966666666666    0.6315300000000000 C
   0.4403200000000000    0.3955166666666666    0.5063600000000000 C
   0.5150800000000000    0.3966666666666666    0.5462200000000000 C
   0.5379500000000000    0.4296933333333333    0.5686400000000000 C
   0.4828600000000000    0.4596766666666666    0.5506400000000000 C
   0.4089500000000000    0.4555266666666666    0.5112900000000000 C
   0.6331900000000000    0.3460333333333333    0.8069499999999999 C
   0.7129100000000000    0.3508066666666667    0.7694100000000000 C
   0.7832900000000000    0.3847700000000000    0.6988600000000000 C
   0.8434100000000000    0.4286400000000000    0.6315300000000000 C
   0.0596900000000000    0.4378200000000000    0.5063600000000000 C
   0.9849400000000000    0.4366733333333333    0.5462200000000000 C
   0.9620800000000000    0.4036433333333333    0.5686400000000000 C
   0.0171400000000000    0.3736600000000000    0.5506400000000000 C
   0.0910600000000000    0.3778100000000000    0.5112900000000000 C
   0.7500100000000000    0.4166700000000000    0.6655600000000000 C
   0.7286400000000000    0.2965966666666666    0.8436399999999999 N
   0.7713800000000000    0.5367533333333333    0.8436399999999999 N
   0.3875500000000000    0.4241133333333333    0.4885400000000000 N
   0.1124600000000000    0.4092233333333333    0.4885400000000000 N
   0.8008900000000000    0.4552700000000000    0.7357500000000000 O
   0.6104000000000001    0.4354100000000000    0.6068000000000000 O
   0.6991300000000000    0.3780700000000000    0.7357500000000000 O
   0.8896300000000000    0.3979266666666667    0.6068100000000000 O
