Zn4 H18 C27 N36 O5
1.0
  13.8279999978938744    0.0000000000000000   -0.0002413441289551
   0.0117361004575043   15.6379948244051121   -0.0049128225108712
   0.0000000000000000    0.0000000000000000   15.6410000000000000
Zn H C N O
4 18 27 36 5
direct
   0.6384000000000000    0.0000200000000000    0.1000000000000000 Zn
   0.3615600000000000    0.9999800000000000    0.9999000000000000 Zn
   0.8614600000000000    0.4999900000000000    0.5000700000000000 Zn
   0.1385200000000000    0.5000300000000000    0.4998900000000000 Zn
   0.8440500000000000    0.7372900000000000    0.7371700000000000 H
   0.1560300000000000    0.7371500000000000    0.7372000000000000 H
   0.0000000000000000    0.9069000000000000    0.9068500000000000 H
   0.5220959055404856    0.9277490944073080    0.0723254617751033 H
   0.5724856824862914    0.8861714853721248    0.1141021887553808 H
   0.6423669693108621    0.8561118061104073    0.1031179254554924 H
   0.4274536350257211    0.8859907256677474    0.1137198246067216 H
   0.5222854466737180    0.8465235415277714    0.1535518765387083 H
   0.8439500000000000    0.2628600000000000    0.2627800000000000 H
   0.1559300000000000    0.2627300000000000    0.2627900000000000 H
   0.0000200000000000    0.0931100000000000    0.0931200000000000 H
   0.8191883593899193    0.6150963850878955    0.3849059457236468 H
   0.7154065460396872    0.5812141131652087    0.4189103937156609 H
   0.1808084959845785    0.6151827213262877    0.3848090636162204 H
   0.2846181020196925    0.5811374990984610    0.4187105746814358 H
   0.3440600000000000    0.2372600000000000    0.7628000000000000 H
   0.6560100000000000    0.2371200000000000    0.7627800000000000 H
   0.4999700000000000    0.4068100000000000    0.5931700000000000 H
   0.0000500000000000    0.6629200000000000    0.6628900000000000 C
   0.8207100000000001    0.8561700000000000    0.8561100000000000 C
   0.1792900000000000    0.8561100000000000    0.8560700000000000 C
   0.9129100000000000    0.7611599999999999    0.7610800000000000 C
   0.0871500000000000    0.7610900000000000    0.7610900000000000 C
   0.0000500000000000    0.7290200000000000    0.7289800000000000 C
   0.0000200000000000    0.8576900000000000    0.8576400000000000 C
   0.0873800000000000    0.8257500000000000    0.8257100000000001 C
   0.9126500000000000    0.8257800000000000    0.8257300000000000 C
   0.9999600000000000    0.3370900000000000    0.3370800000000000 C
   0.1792700000000000    0.1438500000000000    0.1438500000000000 C
   0.8206900000000000    0.1439000000000000    0.1439000000000000 C
   0.9128300000000000    0.2389200000000000    0.2388800000000000 C
   0.0870600000000000    0.2388500000000000    0.2388800000000000 C
   0.9999600000000000    0.2709900000000000    0.2709800000000000 C
   0.0000000000000000    0.1423300000000000    0.1423300000000000 C
   0.0873300000000000    0.1742400000000000    0.1742300000000000 C
   0.9126000000000000    0.1742600000000000    0.1742600000000000 C
   0.5000300000000000    0.1629100000000000    0.8370600000000000 C
   0.6792600000000000    0.3560700000000000    0.6439000000000000 C
   0.3207300000000000    0.3561200000000000    0.6438500000000000 C
   0.4129200000000000    0.2611200000000000    0.7388800000000000 C
   0.5871300000000000    0.2610500000000000    0.7388800000000000 C
   0.5000400000000000    0.2289900000000000    0.7709800000000000 C
   0.4999900000000000    0.3576100000000000    0.6423600000000000 C
   0.4126500000000000    0.3257200000000000    0.6742000000000000 C
   0.5873600000000000    0.3257000000000000    0.6742800000000000 C
   0.9513300000000000    0.5722100000000000    0.5723700000000000 N
   0.9189500000000000    0.6287100000000000    0.6289900000000000 N
   0.0486600000000000    0.5723700000000000    0.5721000000000001 N
   0.0810900000000000    0.6289500000000000    0.6286100000000000 N
   0.7333200000000000    0.8266000000000000    0.8264700000000000 N
   0.6668200000000000    0.8687000000000000    0.8686100000000000 N
   0.7141700000000000    0.9238499999999999    0.9239000000000001 N
   0.8089700000000000    0.9170900000000000    0.9171899999999999 N
   0.2667100000000000    0.8264500000000000    0.8264800000000000 N
   0.3331700000000000    0.8685600000000000    0.8685600000000000 N
   0.2857800000000000    0.9238600000000000    0.9237200000000000 N
   0.1909800000000000    0.9171800000000000    0.9169900000000000 N
   0.9513200000000001    0.4276500000000000    0.4278300000000000 N
   0.9188900000000000    0.3710600000000000    0.3713600000000000 N
   0.0486400000000000    0.4278000000000000    0.4275900000000000 N
   0.0810300000000000    0.3713000000000000    0.3709700000000000 N
   0.2666600000000000    0.1734200000000000    0.1734800000000000 N
   0.3331600000000000    0.1313200000000000    0.1313400000000000 N
   0.2858100000000000    0.0761700000000000    0.0760000000000000 N
   0.1910100000000000    0.0829300000000000    0.0827700000000000 N
   0.7332700000000000    0.1735600000000000    0.1735000000000000 N
   0.6668100000000000    0.1314400000000000    0.1314200000000000 N
   0.7141999999999999    0.0761500000000000    0.0762400000000000 N
   0.8090000000000001    0.0828300000000000    0.0829700000000000 N
   0.4513500000000000    0.0722300000000000    0.9275000000000000 N
   0.4189600000000000    0.1287100000000000    0.8709000000000000 N
   0.5486500000000000    0.0723800000000000    0.9277900000000000 N
   0.5810800000000000    0.1289400000000000    0.8713300000000000 N
   0.7667000000000000    0.3264700000000000    0.6734000000000000 N
   0.8331200000000000    0.3686000000000000    0.6313000000000000 N
   0.7856700000000000    0.4238500000000000    0.5762200000000000 N
   0.6908900000000000    0.4171300000000000    0.5829900000000000 N
   0.2333100000000000    0.3266100000000000    0.6734500000000000 N
   0.1668600000000000    0.3687300000000000    0.6313000000000000 N
   0.2142600000000000    0.4238300000000000    0.5760500000000000 N
   0.3090500000000000    0.4170500000000000    0.5828000000000000 N
   0.5486300000000000    0.9277900000000000    0.0724100000000000 O
   0.5810100000000000    0.8713000000000000    0.1290000000000000 O
   0.4513300000000000    0.9276400000000000    0.0721000000000001 O
   0.7857200000000000    0.5761700000000000    0.4239100000000000 O
   0.2143100000000000    0.5761600000000000    0.4237400000000000 O
