H8 C14 O5
1.0
  36.9278441978257561    0.0000000000000000   -2.2935396009458366
   0.0068751034626216   13.7929981521057332   -0.0019258661035602
   0.0000000000000000    0.0000000000000000   35.1360000000000028
H C O
8 14 5
direct
   0.8437133333333333    0.2910500000000000    0.8540250000000000 H
   0.8446000000000000    0.2268000000000000    0.7874600000000000 H
   0.7839733333333333    0.4756200000000000    0.7458500000000000 H
   0.7833933333333333    0.5395600000000000    0.8122500000000000 H
   0.7451500000000000    0.2874800000000000    0.7348200000000000 H
   0.6972766666666667    0.3125700000000000    0.6822150000000000 H
   0.7789966666666667    0.3910000000000000    0.6061900000000000 H
   0.8271333333333333    0.3632200000000000    0.6581000000000000 H
   0.8113933333333333    0.4567600000000000    0.8769300000000000 C
   0.8129833333333333    0.4187900000000000    0.8375349999999999 C
   0.8305300000000000    0.3309600000000000    0.8303000000000000 C
   0.8311966666666666    0.2950300000000000    0.7933800000000000 C
   0.8138833333333333    0.3466200000000000    0.7631500000000000 C
   0.7967166666666666    0.4351500000000000    0.7696499999999999 C
   0.7964533333333332    0.4705900000000000    0.8067250000000000 C
   0.7886433333333333    0.3257300000000000    0.6993250000000000 C
   0.7523099999999999    0.3104600000000000    0.7065800000000000 C
   0.7257066666666666    0.3247600000000000    0.6773400000000001 C
   0.7351433333333333    0.3546700000000000    0.6410700000000000 C
   0.7717999999999999    0.3681100000000000    0.6343799999999999 C
   0.7986833333333333    0.3531400000000000    0.6632750000000001 C
   0.7063733333333333    0.3704000000000000    0.6099550000000000 C
   0.8164033333333333    0.3081600000000000    0.7271000000000000 O
   0.6738933333333333    0.3499400000000000    0.6149150000000000 O
   0.7174366666666666    0.4040300000000000    0.5780350000000000 O
   0.7994066666666666    0.5406600000000000    0.8831500000000000 O
   0.8227233333333333    0.4004100000000000    0.9050400000000001 O
