Zn48 H332 C418 N192 O118
1.0
  36.9278441978257561    0.0000000000000000   -2.2935396009458366
   0.0068751034626216   13.7929981521057332   -0.0019258661035602
   0.0000000000000000    0.0000000000000000   35.1360000000000028
Zn H C N O
48 332 418 192 118
direct
   0.9874233333333333    0.5950200000000000    0.4631000000000000 Zn
   0.0125633333333333    0.4050000000000000    0.0368700000000000 Zn
   0.8550266666666666    0.5250500000000000    0.0482500000000000 Zn
   0.1449566666666667    0.4749800000000000    0.4517250000000000 Zn
   0.6792300000000000    0.4050000000000000    0.5368700000000000 Zn
   0.6540899999999999    0.5950200000000000    0.9631000000000001 Zn
   0.5216933333333333    0.5250500000000000    0.5482500000000000 Zn
   0.8116233333333333    0.4749800000000000    0.9517249999999999 Zn
   0.3207566666666666    0.5950200000000000    0.9631000000000001 Zn
   0.3458966666666666    0.4050000000000000    0.5368700000000000 Zn
   0.1883600000000000    0.5250500000000000    0.5482500000000000 Zn
   0.4782900000000000    0.4749800000000000    0.9517249999999999 Zn
   0.6540899999999999    0.5950200000000000    0.4631000000000000 Zn
   0.6792300000000000    0.4050000000000000    0.0368700000000000 Zn
   0.5216933333333333    0.5250500000000000    0.0482500000000000 Zn
   0.8116233333333333    0.4749800000000000    0.4517250000000000 Zn
   0.9874233333333333    0.5950200000000000    0.9631000000000001 Zn
   0.0125633333333333    0.4050000000000000    0.5368700000000000 Zn
   0.8550266666666666    0.5250500000000000    0.5482500000000000 Zn
   0.1449566666666667    0.4749800000000000    0.9517249999999999 Zn
   0.3207566666666666    0.5950200000000000    0.4631000000000000 Zn
   0.3458966666666666    0.4050000000000000    0.0368700000000000 Zn
   0.1883600000000000    0.5250500000000000    0.0482500000000000 Zn
   0.4782900000000000    0.4749800000000000    0.4517250000000000 Zn
   0.5125500000000000    0.0949800000000000    0.0368800000000000 Zn
   0.4874366666666666    0.9050400000000000    0.4631050000000000 Zn
   0.6449466666666666    0.0250300000000000    0.4517200000000000 Zn
   0.3550366666666667    0.9750000000000000    0.0482650000000000 Zn
   0.5125500000000000    0.0949800000000000    0.5368800000000000 Zn
   0.4874366666666666    0.9050400000000000    0.9631050000000000 Zn
   0.6449466666666666    0.0250300000000000    0.9517200000000000 Zn
   0.3550366666666667    0.9750000000000000    0.5482650000000000 Zn
   0.8458833333333333    0.0949800000000000    0.5368800000000000 Zn
   0.8207700000000000    0.9050400000000000    0.9631050000000000 Zn
   0.9782799999999999    0.0250300000000000    0.9517200000000000 Zn
   0.6883699999999999    0.9750000000000000    0.5482650000000000 Zn
   0.1792166666666666    0.0949800000000000    0.0368800000000000 Zn
   0.1541033333333333    0.9050400000000000    0.4631050000000000 Zn
   0.3116133333333333    0.0250300000000000    0.4517200000000000 Zn
   0.0217033333333333    0.9750000000000000    0.0482650000000000 Zn
   0.8458833333333333    0.0949800000000000    0.0368800000000000 Zn
   0.8207700000000000    0.9050400000000000    0.4631050000000000 Zn
   0.9782799999999999    0.0250300000000000    0.4517200000000000 Zn
   0.6883699999999999    0.9750000000000000    0.0482650000000000 Zn
   0.1792166666666666    0.0949800000000000    0.5368800000000000 Zn
   0.1541033333333333    0.9050400000000000    0.9631050000000000 Zn
   0.3116133333333333    0.0250300000000000    0.9517200000000000 Zn
   0.0217033333333333    0.9750000000000000    0.5482650000000000 Zn
   0.8218533333333333    0.6966800000000000    0.9210300000000000 H
   0.8338300000000000    0.8385000000000000    0.0458150000000000 H
   0.8425033333333333    0.7292200000000000    0.0689550000000000 H
   0.0864800000000000    0.5797099999999999    0.3977050000000000 H
   0.0400966666666667    0.6121799999999999    0.4007150000000000 H
   0.0924500000000000    0.3891900000000000    0.5116300000000000 H
   0.8826799999999999    0.5244100000000000    0.2541250000000000 H
   0.8832599999999999    0.4604700000000000    0.1877400000000000 H
   0.8229366666666666    0.7089800000000001    0.1459600000000000 H
   0.8220499999999999    0.7732300000000000    0.2125300000000000 H
   0.9693733333333333    0.6874600000000000    0.3177500000000000 H
   0.9215000000000000    0.7125400000000000    0.2651700000000000 H
   0.8395166666666666    0.6368100000000000    0.3418900000000000 H
   0.8876533333333333    0.6090300000000000    0.3937950000000000 H
   0.9135033333333333    0.4203100000000000    0.1022850000000000 H
   0.9598899999999999    0.3878400000000000    0.0992500000000000 H
   0.9075333333333333    0.6108400000000000    0.9883550000000000 H
   0.1173066666666667    0.4756200000000000    0.2458500000000000 H
   0.1167266666666667    0.5395600000000000    0.3122500000000000 H
   0.1770466666666666    0.2910500000000000    0.3540250000000000 H
   0.1779333333333333    0.2268000000000000    0.2874600000000000 H
   0.0306100000000000    0.3125700000000000    0.1822150000000000 H
   0.0784833333333333    0.2874800000000000    0.2348200000000000 H
   0.1604666666666666    0.3632200000000000    0.1581000000000000 H
   0.1123300000000000    0.3910000000000000    0.1061900000000000 H
   0.5114633333333334    0.3033500000000000    0.5789600000000000 H
   0.4994866666666666    0.1615300000000000    0.4541500000000000 H
   0.4908133333333333    0.2708100000000000    0.4310350000000000 H
   0.4885200000000000    0.6966800000000000    0.4210300000000000 H
   0.5004966666666666    0.8385000000000000    0.5458150000000001 H
   0.5091700000000000    0.7292200000000000    0.5689550000000000 H
   0.7091280856614830    0.3787738162816216    0.6020069709869355 H
   0.8447966666666666    0.3033500000000000    0.0789600000000000 H
   0.8328199999999999    0.1615300000000000    0.9541500000000001 H
   0.8241466666666666    0.2708100000000000    0.9310350000000001 H
   0.8328272263702680    0.3375553479908252    0.8993067766300256 H
   0.7913613628606181    0.5874440466074560    0.8638255083354186 H
   0.8108958021593139    0.4691879831608665    0.8766307524321109 H
   0.5801700000000000    0.4203100000000000    0.6022850000000000 H
   0.6265566666666667    0.3878400000000000    0.5992500000000001 H
   0.5742000000000000    0.6108400000000000    0.4883550000000000 H
   0.7531466666666666    0.5797099999999999    0.8977050000000000 H
   0.7067633333333333    0.6121799999999999    0.9007149999999999 H
   0.7591166666666667    0.3891900000000000    0.0116300000000000 H
   0.5493466666666666    0.5244100000000000    0.7541249999999999 H
   0.5499266666666667    0.4604700000000000    0.6877400000000000 H
   0.4896033333333333    0.7089800000000001    0.6459600000000000 H
   0.4887166666666666    0.7732300000000000    0.7125300000000000 H
   0.6360399999999999    0.6874600000000000    0.8177500000000000 H
   0.5881666666666666    0.7125400000000000    0.7651700000000000 H
   0.5061833333333333    0.6368100000000000    0.8418900000000000 H
   0.5543199999999999    0.6090300000000000    0.8937950000000000 H
   0.1781300000000000    0.3033500000000000    0.5789600000000000 H
   0.1661533333333333    0.1615300000000000    0.4541500000000000 H
   0.1574800000000000    0.2708100000000000    0.4310350000000000 H
   0.1551866666666666    0.6966800000000000    0.4210300000000000 H
   0.1671633333333333    0.8385000000000000    0.5458150000000001 H
   0.1758366666666667    0.7292200000000000    0.5689550000000000 H
   0.4198133333333333    0.5797099999999999    0.8977050000000000 H
   0.3734300000000000    0.6121799999999999    0.9007149999999999 H
   0.4257833333333333    0.3891900000000000    0.0116300000000000 H
   0.2160133333333333    0.5244100000000000    0.7541249999999999 H
   0.2165933333333333    0.4604700000000000    0.6877400000000000 H
   0.1562700000000000    0.7089800000000001    0.6459600000000000 H
   0.1553833333333333    0.7732300000000000    0.7125300000000000 H
   0.3027066666666667    0.6874600000000000    0.8177500000000000 H
   0.2548333333333333    0.7125400000000000    0.7651700000000000 H
   0.1728500000000000    0.6368100000000000    0.8418900000000000 H
   0.2209866666666667    0.6090300000000000    0.8937950000000000 H
   0.2468366666666666    0.4203100000000000    0.6022850000000000 H
   0.2932233333333333    0.3878400000000000    0.5992500000000001 H
   0.2408666666666667    0.6108400000000000    0.4883550000000000 H
   0.4506400000000000    0.4756200000000000    0.7458500000000000 H
   0.4500600000000000    0.5395600000000000    0.8122500000000000 H
   0.5103799999999999    0.2910500000000000    0.8540250000000000 H
   0.5112666666666666    0.2268000000000000    0.7874600000000000 H
   0.3639433333333333    0.3125700000000000    0.6822150000000000 H
   0.4118166666666666    0.2874800000000000    0.7348200000000000 H
   0.4938000000000000    0.3632200000000000    0.6581000000000000 H
   0.4456633333333333    0.3910000000000000    0.6061900000000000 H
   0.5114633333333334    0.3033500000000000    0.0789600000000000 H
   0.4994866666666666    0.1615300000000000    0.9541500000000001 H
   0.4908133333333333    0.2708100000000000    0.9310350000000001 H
   0.4885200000000000    0.6966800000000000    0.9210300000000000 H
   0.5004966666666666    0.8385000000000000    0.0458150000000000 H
   0.5091700000000000    0.7292200000000000    0.0689550000000000 H
   0.7531466666666666    0.5797099999999999    0.3977050000000000 H
   0.7067633333333333    0.6121799999999999    0.4007150000000000 H
   0.7591166666666667    0.3891900000000000    0.5116300000000000 H
   0.5493466666666666    0.5244100000000000    0.2541250000000000 H
   0.5499266666666667    0.4604700000000000    0.1877400000000000 H
   0.4896033333333333    0.7089800000000001    0.1459600000000000 H
   0.4887166666666666    0.7732300000000000    0.2125300000000000 H
   0.6360399999999999    0.6874600000000000    0.3177500000000000 H
   0.5881666666666666    0.7125400000000000    0.2651700000000000 H
   0.5061833333333333    0.6368100000000000    0.3418900000000000 H
   0.5543199999999999    0.6090300000000000    0.3937950000000000 H
   0.5801700000000000    0.4203100000000000    0.1022850000000000 H
   0.6265566666666667    0.3878400000000000    0.0992500000000000 H
   0.5742000000000000    0.6108400000000000    0.9883550000000000 H
   0.7839733333333333    0.4756200000000000    0.2458500000000000 H
   0.7833933333333333    0.5395600000000000    0.3122500000000000 H
   0.8437133333333333    0.2910500000000000    0.3540250000000000 H
   0.8446000000000000    0.2268000000000000    0.2874600000000000 H
   0.6972766666666667    0.3125700000000000    0.1822150000000000 H
   0.7451500000000000    0.2874800000000000    0.2348200000000000 H
   0.8271333333333333    0.3632200000000000    0.1581000000000000 H
   0.7789966666666667    0.3910000000000000    0.1061900000000000 H
   0.8447966666666666    0.3033500000000000    0.5789600000000000 H
   0.8328199999999999    0.1615300000000000    0.4541500000000000 H
   0.8241466666666666    0.2708100000000000    0.4310350000000000 H
   0.8218533333333333    0.6966800000000000    0.4210300000000000 H
   0.8338300000000000    0.8385000000000000    0.5458150000000001 H
   0.8425033333333333    0.7292200000000000    0.5689550000000000 H
   0.0864800000000000    0.5797099999999999    0.8977050000000000 H
   0.0400966666666667    0.6121799999999999    0.9007149999999999 H
   0.0924500000000000    0.3891900000000000    0.0116300000000000 H
   0.8826799999999999    0.5244100000000000    0.7541249999999999 H
   0.8832599999999999    0.4604700000000000    0.6877400000000000 H
   0.8229366666666666    0.7089800000000001    0.6459600000000000 H
   0.8220499999999999    0.7732300000000000    0.7125300000000000 H
   0.9693733333333333    0.6874600000000000    0.8177500000000000 H
   0.9215000000000000    0.7125400000000000    0.7651700000000000 H
   0.8395166666666666    0.6368100000000000    0.8418900000000000 H
   0.8876533333333333    0.6090300000000000    0.8937950000000000 H
   0.9135033333333333    0.4203100000000000    0.6022850000000000 H
   0.9598899999999999    0.3878400000000000    0.5992500000000001 H
   0.9075333333333333    0.6108400000000000    0.4883550000000000 H
   0.1173066666666667    0.4756200000000000    0.7458500000000000 H
   0.1167266666666667    0.5395600000000000    0.8122500000000000 H
   0.1770466666666666    0.2910500000000000    0.8540250000000000 H
   0.1779333333333333    0.2268000000000000    0.7874600000000000 H
   0.0306100000000000    0.3125700000000000    0.6822150000000000 H
   0.0784833333333333    0.2874800000000000    0.7348200000000000 H
   0.1604666666666666    0.3632200000000000    0.6581000000000000 H
   0.1123300000000000    0.3910000000000000    0.6061900000000000 H
   0.1781300000000000    0.3033500000000000    0.0789600000000000 H
   0.1661533333333333    0.1615300000000000    0.9541500000000001 H
   0.1574800000000000    0.2708100000000000    0.9310350000000001 H
   0.1551866666666666    0.6966800000000000    0.9210300000000000 H
   0.1671633333333333    0.8385000000000000    0.0458150000000000 H
   0.1758366666666667    0.7292200000000000    0.0689550000000000 H
   0.4198133333333333    0.5797099999999999    0.3977050000000000 H
   0.3734300000000000    0.6121799999999999    0.4007150000000000 H
   0.4257833333333333    0.3891900000000000    0.5116300000000000 H
   0.2160133333333333    0.5244100000000000    0.2541250000000000 H
   0.2165933333333333    0.4604700000000000    0.1877400000000000 H
   0.1562700000000000    0.7089800000000001    0.1459600000000000 H
   0.1553833333333333    0.7732300000000000    0.2125300000000000 H
   0.3027066666666667    0.6874600000000000    0.3177500000000000 H
   0.2548333333333333    0.7125400000000000    0.2651700000000000 H
   0.1728500000000000    0.6368100000000000    0.3418900000000000 H
   0.2209866666666667    0.6090300000000000    0.3937950000000000 H
   0.2468366666666666    0.4203100000000000    0.1022850000000000 H
   0.2932233333333333    0.3878400000000000    0.0992500000000000 H
   0.2408666666666667    0.6108400000000000    0.9883550000000000 H
   0.4506400000000000    0.4756200000000000    0.2458500000000000 H
   0.4500600000000000    0.5395600000000000    0.3122500000000000 H
   0.5103799999999999    0.2910500000000000    0.3540250000000000 H
   0.5112666666666666    0.2268000000000000    0.2874600000000000 H
   0.3639433333333333    0.3125700000000000    0.1822150000000000 H
   0.4118166666666666    0.2874800000000000    0.2348200000000000 H
   0.4938000000000000    0.3632200000000000    0.1581000000000000 H
   0.4456633333333333    0.3910000000000000    0.1061900000000000 H
   0.6552066666666667    0.8033500000000000    0.4210150000000000 H
   0.6672000000000000    0.6616000000000000    0.5457950000000000 H
   0.6758966666666666    0.7708500000000000    0.5689350000000000 H
   0.3447766666666666    0.1966700000000000    0.0789750000000000 H
   0.3327866666666667    0.3384200000000000    0.9541950000000000 H
   0.3240900000000000    0.2291700000000000    0.9310550000000000 H
   0.4075433333333333    0.8895400000000000    0.9882850000000001 H
   0.4135066666666666    0.0795800000000000    0.1023550000000000 H
   0.4598833333333333    0.1120700000000000    0.0993400000000000 H
   0.6173433333333334    0.0244300000000000    0.2458550000000000 H
   0.6167633333333333    0.9605500000000000    0.3122400000000000 H
   0.6769033333333333    0.2091900000000000    0.3540600000000000 H
   0.6777833333333333    0.2734100000000000    0.2874950000000000 H
   0.5305800000000001    0.1876600000000000    0.1822100000000000 H
   0.5784466666666667    0.2127700000000000    0.2348100000000000 H
   0.6604433333333333    0.1366800000000000    0.1581150000000000 H
   0.6123166666666666    0.1088800000000000    0.1062150000000000 H
   0.5924400000000000    0.1104900000000000    0.5117000000000000 H
   0.5864766666666666    0.9204400000000000    0.3976300000000000 H
   0.5401033333333334    0.8879500000000000    0.4006500000000000 H
   0.3826400000000000    0.9755900000000000    0.2541000000000000 H
   0.3832200000000000    0.0394700000000000    0.1877450000000000 H
   0.3230833333333333    0.7908300000000000    0.1459300000000000 H
   0.3222033333333333    0.7266100000000000    0.2124950000000000 H
   0.4694033333333333    0.8123700000000000    0.3177750000000000 H
   0.4215366666666667    0.7872600000000000    0.2651800000000000 H
   0.3395400000000000    0.8633400000000000    0.3418700000000000 H
   0.3876700000000000    0.8911500000000000    0.3937750000000000 H
   0.6552066666666667    0.8033500000000000    0.9210149999999999 H
   0.6672000000000000    0.6616000000000000    0.0457950000000000 H
   0.6758966666666666    0.7708500000000000    0.0689350000000000 H
   0.3447766666666666    0.1966700000000000    0.5789750000000000 H
   0.3327866666666667    0.3384200000000000    0.4541950000000000 H
   0.3240900000000000    0.2291700000000000    0.4310550000000000 H
   0.4075433333333333    0.8895400000000000    0.4882850000000000 H
   0.4135066666666666    0.0795800000000000    0.6023550000000000 H
   0.4598833333333333    0.1120700000000000    0.5993400000000000 H
   0.6173433333333334    0.0244300000000000    0.7458549999999999 H
   0.6167633333333333    0.9605500000000000    0.8122400000000001 H
   0.6769033333333333    0.2091900000000000    0.8540600000000000 H
   0.6777833333333333    0.2734100000000000    0.7874950000000001 H
   0.5305800000000001    0.1876600000000000    0.6822100000000000 H
   0.5784466666666667    0.2127700000000000    0.7348100000000000 H
   0.6604433333333333    0.1366800000000000    0.6581150000000000 H
   0.6123166666666666    0.1088800000000000    0.6062149999999999 H
   0.5924400000000000    0.1104900000000000    0.0117000000000000 H
   0.5864766666666666    0.9204400000000000    0.8976299999999999 H
   0.5401033333333334    0.8879500000000000    0.9006500000000000 H
   0.3826400000000000    0.9755900000000000    0.7541000000000000 H
   0.3832200000000000    0.0394700000000000    0.6877450000000001 H
   0.3230833333333333    0.7908300000000000    0.6459300000000000 H
   0.3222033333333333    0.7266100000000000    0.7124950000000000 H
   0.4694033333333333    0.8123700000000000    0.8177749999999999 H
   0.4215366666666667    0.7872600000000000    0.7651800000000000 H
   0.3395400000000000    0.8633400000000000    0.8418700000000000 H
   0.3876700000000000    0.8911500000000000    0.8937750000000000 H
   0.9885400000000000    0.8033500000000000    0.9210149999999999 H
   0.0005333333333333    0.6616000000000000    0.0457950000000000 H
   0.0092300000000000    0.7708500000000000    0.0689350000000000 H
   0.6781100000000000    0.1966700000000000    0.5789750000000000 H
   0.6661200000000000    0.3384200000000000    0.4541950000000000 H
   0.6574233333333332    0.2291700000000000    0.4310550000000000 H
   0.7408766666666666    0.8895400000000000    0.4882850000000000 H
   0.7468399999999999    0.0795800000000000    0.6023550000000000 H
   0.7932166666666667    0.1120700000000000    0.5993400000000000 H
   0.9506766666666666    0.0244300000000000    0.7458549999999999 H
   0.9500966666666666    0.9605500000000000    0.8122400000000001 H
   0.0102366666666667    0.2091900000000000    0.8540600000000000 H
   0.0111166666666667    0.2734100000000000    0.7874950000000001 H
   0.8639133333333333    0.1876600000000000    0.6822100000000000 H
   0.9117799999999999    0.2127700000000000    0.7348100000000000 H
   0.9937766666666666    0.1366800000000000    0.6581150000000000 H
   0.9456499999999999    0.1088800000000000    0.6062149999999999 H
   0.9257733333333333    0.1104900000000000    0.0117000000000000 H
   0.9198100000000000    0.9204400000000000    0.8976299999999999 H
   0.8734366666666666    0.8879500000000000    0.9006500000000000 H
   0.7159733333333334    0.9755900000000000    0.7541000000000000 H
   0.7165533333333333    0.0394700000000000    0.6877450000000001 H
   0.6564166666666666    0.7908300000000000    0.6459300000000000 H
   0.6555366666666667    0.7266100000000000    0.7124950000000000 H
   0.8027366666666667    0.8123700000000000    0.8177749999999999 H
   0.7548699999999999    0.7872600000000000    0.7651800000000000 H
   0.6728733333333333    0.8633400000000000    0.8418700000000000 H
   0.7210033333333333    0.8911500000000000    0.8937750000000000 H
   0.3218733333333333    0.8033500000000000    0.4210150000000000 H
   0.3338666666666666    0.6616000000000000    0.5457950000000000 H
   0.3425633333333333    0.7708500000000000    0.5689350000000000 H
   0.0114433333333333    0.1966700000000000    0.0789750000000000 H
   0.9994533333333333    0.3384200000000000    0.9541950000000000 H
   0.9907566666666666    0.2291700000000000    0.9310550000000000 H
   0.0742100000000000    0.8895400000000000    0.9882850000000001 H
   0.0801733333333333    0.0795800000000000    0.1023550000000000 H
   0.1265500000000000    0.1120700000000000    0.0993400000000000 H
   0.2840100000000000    0.0244300000000000    0.2458550000000000 H
   0.2834300000000000    0.9605500000000000    0.3122400000000000 H
   0.3435700000000000    0.2091900000000000    0.3540600000000000 H
   0.3444500000000000    0.2734100000000000    0.2874950000000000 H
   0.1972466666666667    0.1876600000000000    0.1822100000000000 H
   0.2451133333333333    0.2127700000000000    0.2348100000000000 H
   0.3271100000000000    0.1366800000000000    0.1581150000000000 H
   0.2789833333333333    0.1088800000000000    0.1062150000000000 H
   0.2591066666666667    0.1104900000000000    0.5117000000000000 H
   0.2531433333333333    0.9204400000000000    0.3976300000000000 H
   0.2067700000000000    0.8879500000000000    0.4006500000000000 H
   0.0493066666666667    0.9755900000000000    0.2541000000000000 H
   0.0498866666666667    0.0394700000000000    0.1877450000000000 H
   0.9897499999999999    0.7908300000000000    0.1459300000000000 H
   0.9888699999999999    0.7266100000000000    0.2124950000000000 H
   0.1360700000000000    0.8123700000000000    0.3177750000000000 H
   0.0882033333333333    0.7872600000000000    0.2651800000000000 H
   0.0062066666666667    0.8633400000000000    0.3418700000000000 H
   0.0543366666666667    0.8911500000000000    0.3937750000000000 H
   0.9885400000000000    0.8033500000000000    0.4210150000000000 H
   0.0005333333333333    0.6616000000000000    0.5457950000000000 H
   0.0092300000000000    0.7708500000000000    0.5689350000000000 H
   0.6781100000000000    0.1966700000000000    0.0789750000000000 H
   0.6661200000000000    0.3384200000000000    0.9541950000000000 H
   0.6574233333333332    0.2291700000000000    0.9310550000000000 H
   0.7408766666666666    0.8895400000000000    0.9882850000000001 H
   0.7468399999999999    0.0795800000000000    0.1023550000000000 H
   0.7932166666666667    0.1120700000000000    0.0993400000000000 H
   0.9506766666666666    0.0244300000000000    0.2458550000000000 H
   0.9500966666666666    0.9605500000000000    0.3122400000000000 H
   0.0102366666666667    0.2091900000000000    0.3540600000000000 H
   0.0111166666666667    0.2734100000000000    0.2874950000000000 H
   0.8639133333333333    0.1876600000000000    0.1822100000000000 H
   0.9117799999999999    0.2127700000000000    0.2348100000000000 H
   0.9937766666666666    0.1366800000000000    0.1581150000000000 H
   0.9456499999999999    0.1088800000000000    0.1062150000000000 H
   0.9257733333333333    0.1104900000000000    0.5117000000000000 H
   0.9198100000000000    0.9204400000000000    0.3976300000000000 H
   0.8734366666666666    0.8879500000000000    0.4006500000000000 H
   0.7159733333333334    0.9755900000000000    0.2541000000000000 H
   0.7165533333333333    0.0394700000000000    0.1877450000000000 H
   0.6564166666666666    0.7908300000000000    0.1459300000000000 H
   0.6555366666666667    0.7266100000000000    0.2124950000000000 H
   0.8027366666666667    0.8123700000000000    0.3177750000000000 H
   0.7548699999999999    0.7872600000000000    0.2651800000000000 H
   0.6728733333333333    0.8633400000000000    0.3418700000000000 H
   0.7210033333333333    0.8911500000000000    0.3937750000000000 H
   0.3218733333333333    0.8033500000000000    0.9210149999999999 H
   0.3338666666666666    0.6616000000000000    0.0457950000000000 H
   0.3425633333333333    0.7708500000000000    0.0689350000000000 H
   0.0114433333333333    0.1966700000000000    0.5789750000000000 H
   0.9994533333333333    0.3384200000000000    0.4541950000000000 H
   0.9907566666666666    0.2291700000000000    0.4310550000000000 H
   0.0742100000000000    0.8895400000000000    0.4882850000000000 H
   0.0801733333333333    0.0795800000000000    0.6023550000000000 H
   0.1265500000000000    0.1120700000000000    0.5993400000000000 H
   0.2840100000000000    0.0244300000000000    0.7458549999999999 H
   0.2834300000000000    0.9605500000000000    0.8122400000000001 H
   0.3435700000000000    0.2091900000000000    0.8540600000000000 H
   0.3444500000000000    0.2734100000000000    0.7874950000000001 H
   0.1972466666666667    0.1876600000000000    0.6822100000000000 H
   0.2451133333333333    0.2127700000000000    0.7348100000000000 H
   0.3271100000000000    0.1366800000000000    0.6581150000000000 H
   0.2789833333333333    0.1088800000000000    0.6062149999999999 H
   0.2591066666666667    0.1104900000000000    0.0117000000000000 H
   0.2531433333333333    0.9204400000000000    0.8976299999999999 H
   0.2067700000000000    0.8879500000000000    0.9006500000000000 H
   0.0493066666666667    0.9755900000000000    0.7541000000000000 H
   0.0498866666666667    0.0394700000000000    0.6877450000000001 H
   0.9897499999999999    0.7908300000000000    0.6459300000000000 H
   0.9888699999999999    0.7266100000000000    0.7124950000000000 H
   0.1360700000000000    0.8123700000000000    0.8177749999999999 H
   0.0882033333333333    0.7872600000000000    0.7651800000000000 H
   0.0062066666666667    0.8633400000000000    0.8418700000000000 H
   0.0543366666666667    0.8911500000000000    0.8937750000000000 H
   0.8272466666666667    0.6888300000000001    0.9515650000000000 C
   0.8370299999999999    0.7212100000000000    0.0112600000000000 C
   0.0624366666666667    0.5295200000000000    0.4440700000000000 C
   0.0770866666666667    0.4347800000000000    0.4913500000000000 C
   0.9602799999999999    0.6296300000000000    0.3900350000000000 C
   0.8552533333333333    0.5432600000000000    0.1230550000000000 C
   0.8699300000000000    0.5648700000000000    0.2303050000000000 C
   0.8702033333333332    0.5294400000000000    0.1932650000000000 C
   0.8361266666666667    0.6690700000000001    0.1696900000000000 C
   0.8354533333333333    0.7049800000000001    0.2066100000000000 C
   0.9409466666666666    0.6752300000000000    0.3226450000000000 C
   0.9143399999999999    0.6895900000000000    0.2934100000000000 C
   0.8527699999999999    0.6534100000000000    0.2368400000000000 C
   0.8679666666666666    0.6469000000000000    0.3367150000000000 C
   0.8948533333333333    0.6318800000000000    0.3656000000000000 C
   0.8780100000000000    0.6742800000000000    0.3006600000000000 C
   0.9315066666666666    0.6453800000000000    0.3589200000000000 C
   0.8536666666666666    0.5812300000000000    0.1624550000000000 C
   0.9375499999999999    0.4705000000000000    0.0559150000000000 C
   0.9228966666666666    0.5652400000000000    0.0086400000000000 C
   0.0397066666666667    0.3704000000000000    0.1099550000000000 C
   0.1447266666666667    0.4567600000000000    0.3769300000000000 C
   0.1300500000000000    0.4351500000000000    0.2696500000000000 C
   0.1297866666666667    0.4705900000000000    0.3067250000000000 C
   0.1638633333333333    0.3309600000000000    0.3303000000000000 C
   0.1645300000000000    0.2950300000000000    0.2933800000000000 C
   0.0590400000000000    0.3247600000000000    0.1773400000000000 C
   0.0856433333333333    0.3104600000000000    0.2065800000000000 C
   0.1320166666666667    0.3531400000000000    0.1632750000000000 C
   0.1051333333333333    0.3681100000000000    0.1343800000000000 C
   0.1472166666666667    0.3466200000000000    0.2631500000000000 C
   0.1219766666666666    0.3257300000000000    0.1993250000000000 C
   0.0684766666666667    0.3546700000000000    0.1410700000000000 C
   0.1463166666666667    0.4187900000000000    0.3375350000000000 C
   0.5060700000000000    0.3112000000000000    0.5484250000000001 C
   0.4962866666666667    0.2788100000000000    0.4887300000000000 C
   0.4939133333333333    0.6888300000000001    0.4515650000000000 C
   0.5036966666666667    0.7212100000000000    0.5112600000000000 C
   0.8394033333333333    0.3112000000000000    0.0484250000000000 C
   0.8296200000000000    0.2788100000000000    0.9887300000000000 C
   0.6042166666666666    0.4705000000000000    0.5559150000000000 C
   0.5895633333333332    0.5652400000000000    0.5086400000000000 C
   0.7291033333333333    0.5295200000000000    0.9440700000000000 C
   0.7437533333333333    0.4347800000000000    0.9913500000000000 C
   0.6269466666666665    0.6296300000000000    0.8900350000000000 C
   0.5219199999999999    0.5432600000000000    0.6230550000000000 C
   0.5365966666666666    0.5648700000000000    0.7303050000000000 C
   0.5368700000000000    0.5294400000000000    0.6932650000000000 C
   0.5027933333333333    0.6690700000000001    0.6696900000000000 C
   0.5021200000000000    0.7049800000000001    0.7066100000000000 C
   0.6076133333333333    0.6752300000000000    0.8226450000000001 C
   0.5810066666666667    0.6895900000000000    0.7934099999999999 C
   0.5194366666666667    0.6534100000000000    0.7368399999999999 C
   0.5346333333333333    0.6469000000000000    0.8367150000000000 C
   0.5615200000000000    0.6318800000000000    0.8655999999999999 C
   0.5446766666666667    0.6742800000000000    0.8006599999999999 C