H2 O2
1.0
  39.5159984592304809    0.0000000000000000   -0.0110349487720718
  -0.1197781886139356   27.8957322284705889   -0.0243438493169965
   0.0000000000000000    0.0000000000000000   33.9819999999999993
H O
2 2
direct
   0.9335661790343950    0.5356270369421283    0.2584268203661610 H
   0.9408572095268104    0.4790387648582050    0.2908664108963444 H
   0.9569900000000000    0.5257750000000000    0.2539550000000000 O
   0.9621033333333333    0.4851750000000000    0.2769300000000000 O
