C2 O4
1.0
  39.5159984592304809    0.0000000000000000   -0.0110349487720718
  -0.1197781886139356   27.8957322284705889   -0.0243438493169965
   0.0000000000000000    0.0000000000000000   33.9819999999999993
C O
2 4
direct
   0.6782833333333333    0.2080050000000000    0.3780700000000000 C
   0.6927333333333333    0.2576150000000000    0.3898600000000000 C
   0.6756400000000000    0.1977550000000000    0.3418000000000000 O
   0.7022600000000000    0.2841400000000000    0.3618550000000000 O
   0.6694833333333333    0.1794900000000000    0.4052450000000000 O
   0.6933400000000000    0.2664500000000000    0.4264700000000000 O
