H6 O4
1.0
  39.5159984592304809    0.0000000000000000   -0.0110349487720718
  -0.1197781886139356   27.8957322284705889   -0.0243438493169965
   0.0000000000000000    0.0000000000000000   33.9819999999999993
H O
6 4
direct
   0.7109257670835046    0.3104135278901493    0.3460674959895421 H
   0.6960696983681526    0.2806904247641233    0.4523340535723505 H
   0.7065412098513164    0.3064744262129424    0.4024197166884080 H
   0.6691662396602104    0.1763299978177449    0.3205711858922585 H
   0.6602416588416382    0.1499369539788012    0.4158499474050537 H
   0.6567470170943427    0.1373389797441080    0.3634799553175264 H
   0.7022600000000000    0.2841400000000000    0.3618550000000000 O
   0.6933400000000000    0.2664500000000000    0.4264700000000000 O
   0.6756400000000000    0.1977550000000000    0.3418000000000000 O
   0.6694833333333333    0.1794900000000000    0.4052450000000000 O
