H6 O4
1.0
  12.0892267918502956    0.0000000000000000   -0.1367317637163623
  -0.0008239264726853   14.0409977859338397   -0.0078419733610293
   0.0000000000000000    0.0000000000000000   31.2669999999999995
H O
6 4
direct
   0.1898468618106489    0.5780329994485056    0.7847211802717707 H
   0.2946090474108394    0.5773211244225409    0.7784044985517652 H
  -0.0264914397722633    0.5757980037772218    0.7980996949142563 H
   0.0044769606447289    0.9029919138790055    0.9008598323976590 H
   0.2203238869231810   -0.0707511159432286    0.9328087342282305 H
   0.1853437399294466   -0.0393976289999363    0.8283271907442622 H
   0.2179100000000000    0.5962300000000000    0.7813700000000000 O
   0.0356000000000000    0.6160600000000001    0.7906850000000001 O
   0.0023800000000000    0.8916600000000000    0.9314400000000000 O
   0.1764850000000000   -0.0872699999999999    0.9575150000000000 O
