H2 O2
1.0
  10.5439819776639503    0.0000000000000000   -2.9074645835672364
  -0.0067970773843596   13.4629918537073205   -0.0131585238279604
   0.0000000000000000    0.0000000000000000   30.2600000000000016
H O
2 2
direct
   0.0581959541083936    0.9137605205502276    0.1828503806632810 H
   0.9436721805577375    0.0856793601348887    0.8173129849928910 H
   0.1411200000000000    0.9284700000000000    0.2037950000000000 O
   0.8609300000000000    0.0709500000000000    0.7962500000000000 O
