H16 C22 O4
1.0
  10.5439819776639503    0.0000000000000000   -2.9074645835672364
  -0.0067970773843596   13.4629918537073205   -0.0131585238279604
   0.0000000000000000    0.0000000000000000   30.2600000000000016
H C O
16 22 4
direct
   0.0218600000000000    0.2985200000000000    0.1775000000000000 H
   0.1001400000000000    0.3752800000000000    0.1147850000000000 H
   0.7207100000000000    0.4722300000000000    0.0491600000000000 H
   0.6460500000000000    0.3960800000000000    0.1123350000000000 H
   0.9280200000000000    0.6353799999999999    0.0884350000000000 H
   0.9148300000000000    0.7201900000000000    0.0421400000000000 H
   0.7868700000000000    0.6399100000000000    0.0435250000000000 H
   0.0201700000000000    0.3237200000000000    0.0226600000000000 H
   0.9763900000000000    0.7010300000000000    0.8223849999999999 H
   0.8987500000000000    0.6240700000000000    0.8852350000000000 H
   0.2796700000000000    0.5271100000000000    0.9509050000000000 H
   0.3549500000000000    0.6030500000000000    0.8878699999999999 H
   0.0705400000000000    0.3645300000000000    0.9114450000000001 H
   0.0840900000000000    0.2797900000000000    0.9577800000000001 H
   0.2120900000000000    0.3598300000000000    0.9561700000000000 H
   0.9786500000000000    0.6762899999999999    0.9771550000000000 H
   0.7780600000000000    0.2883200000000000    0.1830900000000000 C
   0.8293800000000000    0.3409600000000000    0.1481050000000000 C
   0.9581200000000000    0.3365200000000000    0.1489650000000000 C
   0.9997300000000000    0.3787300000000000    0.1137800000000000 C
   0.9159700000000000    0.4282100000000000    0.0772450000000000 C
   0.7879400000000000    0.4352400000000000    0.0773900000000000 C
   0.7454100000000000    0.3920700000000000    0.1123100000000000 C
   0.9590700000000000    0.4679200000000000    0.0382050000000000 C
   0.9445100000000000    0.5687500000000000    0.0250000000000000 C
   0.8908000000000000    0.6450100000000000    0.0512050000000000 C
   0.0135100000000000    0.4020500000000000    0.0129250000000000 C
   0.2238200000000000    0.7114200000000001    0.8170950000000000 C
   0.1720800000000000    0.6590000000000000    0.8520700000000000 C
   0.0433500000000000    0.6638800000000000    0.8512050000000000 C
   0.9991400000000000    0.6210200000000000    0.8861900000000000 C
   0.0846900000000000    0.5719100000000000    0.9228700000000001 C
   0.2126900000000000    0.5644300000000000    0.9227200000000000 C
   0.2556000000000000    0.6075000000000000    0.8878550000000001 C
   0.0412000000000000    0.5322400000000000    0.9618650000000000 C
   0.0550300000000000    0.4313200000000000    0.9749700000000000 C
   0.1081700000000000    0.3549100000000000    0.9486650000000000 C
   0.9858000000000000    0.5980300000000000    0.9870099999999999 C
   0.6628100000000000    0.2950200000000000    0.1816250000000000 O
   0.8582600000000000    0.2336600000000000    0.2127350000000000 O
   0.3391200000000000    0.7045000000000000    0.8186450000000001 O
   0.1439500000000000    0.7660700000000000    0.7873399999999999 O
