H3 O2
1.0
  39.4320000000000022    0.0000000000000000    0.0000000000000024
   0.0000000000000063   39.0390000000000015    0.0000000000000024
   0.0000000000000000    0.0000000000000000   23.5109999999999992
H O
3 2
direct
   0.7828324723993496    0.0450990508381532    0.0745497379665352 H
   0.8838341942673169    0.0450990508381532    0.0745497379665352 H
   0.8333333333333333    0.0478919806496083    0.0791665133028967 H
   0.8044733333333333    0.0367266666666667    0.0607100000000000 O
   0.8621933333333333    0.0367266666666667    0.0607100000000000 O
