H3 C7 N1 O4
1.0
  37.4909586582197036    0.0000000000000000    7.6725382297947071
   0.0136702440840538   36.8699960460646849    0.0102316959025189
   0.0000000000000000    0.0000000000000000   31.0252000000000017
H C N O
3 7 1 4
direct
   0.5816916666666667    0.4297633333333333    0.8692500000000001 H
   0.6641816666666667    0.3685700000000000    0.9131450000000000 H
   0.7083800000000000    0.4006400000000000    0.8563850000000000 H
   0.6192200000000000    0.3965633333333333    0.8959400000000000 C
   0.6095150000000000    0.4226666666666666    0.8677049999999999 C
   0.6554416666666667    0.3887400000000000    0.8919850000000000 C
   0.5921100000000000    0.3755766666666667    0.9280400000000000 C
   0.6683733333333333    0.4332233333333333    0.8344500000000000 C
   0.6802100000000000    0.4069466666666667    0.8605350000000000 C
   0.6945450000000000    0.4555399999999999    0.8020650000000000 C
   0.6333083333333334    0.4407733333333333    0.8375750000000000 N
   0.5636500000000000    0.3654666666666667    0.9165950000000000 O
   0.5999833333333333    0.3670900000000000    0.9648900000000000 O
   0.6813966666666667    0.4741033333333333    0.7739199999999999 O
   0.7267049999999999    0.4550166666666666    0.8056800000000000 O
