H8 O5
1.0
  37.4909586582197036    0.0000000000000000    7.6725382297947071
   0.0136702440840538   36.8699960460646849    0.0102316959025189
   0.0000000000000000    0.0000000000000000   31.0252000000000017
H O
8 5
direct
   0.5607661466978839    0.3800657440509977    0.8915275203783248 H
   0.6041199908573103    0.3862507558690955    0.9430296940558164 H
   0.6692432359768371    0.4878365735500123    0.7546582694991286 H
   0.7157197793540155    0.4674298426508579    0.7882697423554134 H
   0.7490595359909807    0.4506702430481042    0.8150259423353414 H
   0.6586385914280527    0.4353193636024013    0.8353175621974619 H
   0.6159897415898604    0.4275939286890989    0.8595058981184158 H
   0.5827906868642111    0.4541252094747660    0.8154453959034035 H
   0.5636500000000000    0.3654666666666667    0.9165950000000000 O
   0.5999833333333333    0.3670900000000000    0.9648900000000000 O
   0.6813966666666667    0.4741033333333333    0.7739199999999999 O
   0.7267049999999999    0.4550166666666666    0.8056800000000000 O
   0.6333083333333334    0.4407733333333333    0.8375750000000000 O
