Ca144 H429 C1001 N143 O572
1.0
  37.4909586582197036    0.0000000000000000    7.6725382297947071
   0.0136702440840538   36.8699960460646849    0.0102316959025189
   0.0000000000000000    0.0000000000000000   31.0252000000000017
Ca H C N O
144 429 1001 143 572
direct
   0.0494933333333333    0.1825366666666667    0.2206700000000000 Ca
   0.0494816666666667    0.3174866666666666    0.4706700000000000 Ca
   0.1171466666666666    0.1508433333333333    0.2793400000000000 Ca
   0.1171166666666667    0.0158166666666667    0.0294000000000000 Ca
   0.2161600000000000    0.1825366666666667    0.2206700000000000 Ca
   0.2161483333333333    0.3174866666666666    0.4706700000000000 Ca
   0.2838133333333333    0.1508433333333333    0.2793400000000000 Ca
   0.2837833333333333    0.0158166666666667    0.0294000000000000 Ca
   0.3828266666666666    0.1825366666666667    0.2206700000000000 Ca
   0.3828150000000000    0.3174866666666666    0.4706700000000000 Ca
   0.4504800000000000    0.1508433333333333    0.2793400000000000 Ca
   0.4504500000000000    0.0158166666666667    0.0294000000000000 Ca
   0.5494933333333334    0.1825366666666667    0.2206700000000000 Ca
   0.5494816666666666    0.3174866666666666    0.4706700000000000 Ca
   0.6171466666666666    0.1508433333333333    0.2793400000000000 Ca
   0.6171166666666666    0.0158166666666667    0.0294000000000000 Ca
   0.7161599999999999    0.1825366666666667    0.2206700000000000 Ca
   0.7161483333333333    0.3174866666666666    0.4706700000000000 Ca
   0.7838133333333333    0.1508433333333333    0.2793400000000000 Ca
   0.7837833333333333    0.0158166666666667    0.0294000000000000 Ca
   0.8828266666666666    0.1825366666666667    0.2206700000000000 Ca
   0.8828149999999999    0.3174866666666666    0.4706700000000000 Ca
   0.9504799999999999    0.1508433333333333    0.2793400000000000 Ca
   0.9504499999999999    0.0158166666666667    0.0294000000000000 Ca
   0.0494933333333333    0.5158700000000001    0.2206700000000000 Ca
   0.0494816666666667    0.6508200000000000    0.4706700000000000 Ca
   0.1171466666666666    0.4841766666666666    0.2793400000000000 Ca
   0.1171166666666667    0.3491500000000000    0.0294000000000000 Ca
   0.2161600000000000    0.5158700000000001    0.2206700000000000 Ca
   0.2161483333333333    0.6508200000000000    0.4706700000000000 Ca
   0.2838133333333333    0.4841766666666666    0.2793400000000000 Ca
   0.2837833333333333    0.3491500000000000    0.0294000000000000 Ca
   0.3828266666666666    0.5158700000000001    0.2206700000000000 Ca
   0.3828150000000000    0.6508200000000000    0.4706700000000000 Ca
   0.4504800000000000    0.4841766666666666    0.2793400000000000 Ca
   0.4504500000000000    0.3491500000000000    0.0294000000000000 Ca
   0.5494933333333334    0.5158700000000001    0.2206700000000000 Ca
   0.5494816666666666    0.6508200000000000    0.4706700000000000 Ca
   0.6171466666666666    0.4841766666666666    0.2793400000000000 Ca
   0.6171166666666666    0.3491500000000000    0.0294000000000000 Ca
   0.7161599999999999    0.5158700000000001    0.2206700000000000 Ca
   0.7161483333333333    0.6508200000000000    0.4706700000000000 Ca
   0.7838133333333333    0.4841766666666666    0.2793400000000000 Ca
   0.7837833333333333    0.3491500000000000    0.0294000000000000 Ca
   0.8828266666666666    0.5158700000000001    0.2206700000000000 Ca
   0.8828149999999999    0.6508200000000000    0.4706700000000000 Ca
   0.9504799999999999    0.4841766666666666    0.2793400000000000 Ca
   0.9504499999999999    0.3491500000000000    0.0294000000000000 Ca
   0.0494933333333333    0.8492033333333333    0.2206700000000000 Ca
   0.0494816666666667    0.9841533333333332    0.4706700000000000 Ca
   0.1171466666666666    0.8175100000000000    0.2793400000000000 Ca
   0.1171166666666667    0.6824833333333333    0.0294000000000000 Ca
   0.2161600000000000    0.8492033333333333    0.2206700000000000 Ca
   0.2161483333333333    0.9841533333333332    0.4706700000000000 Ca
   0.2838133333333333    0.8175100000000000    0.2793400000000000 Ca
   0.2837833333333333    0.6824833333333333    0.0294000000000000 Ca
   0.3828266666666666    0.8492033333333333    0.2206700000000000 Ca
   0.3828150000000000    0.9841533333333332    0.4706700000000000 Ca
   0.4504800000000000    0.8175100000000000    0.2793400000000000 Ca
   0.4504500000000000    0.6824833333333333    0.0294000000000000 Ca
   0.5494933333333334    0.8492033333333333    0.2206700000000000 Ca
   0.5494816666666666    0.9841533333333332    0.4706700000000000 Ca
   0.6171466666666666    0.8175100000000000    0.2793400000000000 Ca
   0.6171166666666666    0.6824833333333333    0.0294000000000000 Ca
   0.7161599999999999    0.8492033333333333    0.2206700000000000 Ca
   0.7161483333333333    0.9841533333333332    0.4706700000000000 Ca
   0.7838133333333333    0.8175100000000000    0.2793400000000000 Ca
   0.7837833333333333    0.6824833333333333    0.0294000000000000 Ca
   0.8828266666666666    0.8492033333333333    0.2206700000000000 Ca
   0.8828149999999999    0.9841533333333332    0.4706700000000000 Ca
   0.9504799999999999    0.8175100000000000    0.2793400000000000 Ca
   0.9504499999999999    0.6824833333333333    0.0294000000000000 Ca
   0.0494933333333333    0.1825366666666667    0.7206700000000000 Ca
   0.0494816666666667    0.3174866666666666    0.9706699999999999 Ca
   0.1171466666666666    0.1508433333333333    0.7793399999999999 Ca
   0.1171166666666667    0.0158166666666667    0.5294000000000000 Ca
   0.2161600000000000    0.1825366666666667    0.7206700000000000 Ca
   0.2161483333333333    0.3174866666666666    0.9706699999999999 Ca
   0.2838133333333333    0.1508433333333333    0.7793399999999999 Ca
   0.2837833333333333    0.0158166666666667    0.5294000000000000 Ca
   0.3828266666666666    0.1825366666666667    0.7206700000000000 Ca
   0.3828150000000000    0.3174866666666666    0.9706699999999999 Ca
   0.4504800000000000    0.1508433333333333    0.7793399999999999 Ca
   0.4504500000000000    0.0158166666666667    0.5294000000000000 Ca
   0.5494933333333334    0.1825366666666667    0.7206700000000000 Ca
   0.5494816666666666    0.3174866666666666    0.9706699999999999 Ca
   0.6171466666666666    0.1508433333333333    0.7793399999999999 Ca
   0.6171166666666666    0.0158166666666667    0.5294000000000000 Ca
   0.7161599999999999    0.1825366666666667    0.7206700000000000 Ca
   0.7161483333333333    0.3174866666666666    0.9706699999999999 Ca
   0.7838133333333333    0.1508433333333333    0.7793399999999999 Ca
   0.7837833333333333    0.0158166666666667    0.5294000000000000 Ca
   0.8828266666666666    0.1825366666666667    0.7206700000000000 Ca
   0.8828149999999999    0.3174866666666666    0.9706699999999999 Ca
   0.9504799999999999    0.1508433333333333    0.7793399999999999 Ca
   0.9504499999999999    0.0158166666666667    0.5294000000000000 Ca
   0.0494933333333333    0.5158700000000001    0.7206700000000000 Ca
   0.0494816666666667    0.6508200000000000    0.9706699999999999 Ca
   0.1171466666666666    0.4841766666666666    0.7793399999999999 Ca
   0.1171166666666667    0.3491500000000000    0.5294000000000000 Ca
   0.2161600000000000    0.5158700000000001    0.7206700000000000 Ca
   0.2161483333333333    0.6508200000000000    0.9706699999999999 Ca
   0.2838133333333333    0.4841766666666666    0.7793399999999999 Ca
   0.2837833333333333    0.3491500000000000    0.5294000000000000 Ca
   0.3828266666666666    0.5158700000000001    0.7206700000000000 Ca
   0.3828150000000000    0.6508200000000000    0.9706699999999999 Ca
   0.4504800000000000    0.4841766666666666    0.7793399999999999 Ca
   0.4504500000000000    0.3491500000000000    0.5294000000000000 Ca
   0.5494933333333334    0.5158700000000001    0.7206700000000000 Ca
   0.5494816666666666    0.6508200000000000    0.9706699999999999 Ca
   0.6171466666666666    0.4841766666666666    0.7793399999999999 Ca
   0.6171166666666666    0.3491500000000000    0.5294000000000000 Ca
   0.7161599999999999    0.5158700000000001    0.7206700000000000 Ca
   0.7161483333333333    0.6508200000000000    0.9706699999999999 Ca
   0.7838133333333333    0.4841766666666666    0.7793399999999999 Ca
   0.7837833333333333    0.3491500000000000    0.5294000000000000 Ca
   0.8828266666666666    0.5158700000000001    0.7206700000000000 Ca
   0.8828149999999999    0.6508200000000000    0.9706699999999999 Ca
   0.9504799999999999    0.4841766666666666    0.7793399999999999 Ca
   0.9504499999999999    0.3491500000000000    0.5294000000000000 Ca
   0.0494933333333333    0.8492033333333333    0.7206700000000000 Ca
   0.0494816666666667    0.9841533333333332    0.9706699999999999 Ca
   0.1171466666666666    0.8175100000000000    0.7793399999999999 Ca
   0.1171166666666667    0.6824833333333333    0.5294000000000000 Ca
   0.2161600000000000    0.8492033333333333    0.7206700000000000 Ca
   0.2161483333333333    0.9841533333333332    0.9706699999999999 Ca
   0.2838133333333333    0.8175100000000000    0.7793399999999999 Ca
   0.2837833333333333    0.6824833333333333    0.5294000000000000 Ca
   0.3828266666666666    0.8492033333333333    0.7206700000000000 Ca
   0.3828150000000000    0.9841533333333332    0.9706699999999999 Ca
   0.4504800000000000    0.8175100000000000    0.7793399999999999 Ca
   0.4504500000000000    0.6824833333333333    0.5294000000000000 Ca
   0.5494933333333334    0.8492033333333333    0.7206700000000000 Ca
   0.5494816666666666    0.9841533333333332    0.9706699999999999 Ca
   0.6171466666666666    0.8175100000000000    0.7793399999999999 Ca
   0.6171166666666666    0.6824833333333333    0.5294000000000000 Ca
   0.7161599999999999    0.8492033333333333    0.7206700000000000 Ca
   0.7161483333333333    0.9841533333333332    0.9706699999999999 Ca
   0.7838133333333333    0.8175100000000000    0.7793399999999999 Ca
   0.7837833333333333    0.6824833333333333    0.5294000000000000 Ca
   0.8828266666666666    0.8492033333333333    0.7206700000000000 Ca
   0.8828149999999999    0.9841533333333332    0.9706699999999999 Ca
   0.9504799999999999    0.8175100000000000    0.7793399999999999 Ca
   0.9504499999999999    0.6824833333333333    0.5294000000000000 Ca
   0.0417416666666667    0.0993500000000000    0.1063200000000000 H
   0.0816716666666667    0.0702533333333333    0.1194650000000000 H
   0.1642283333333333    0.1315133333333333    0.1630300000000000 H
   0.1249550000000000    0.2661400000000000    0.1437150000000000 H
   0.0849750000000000    0.2370000000000000    0.1308700000000000 H
   0.0024983333333333    0.2982033333333333    0.0869600000000000 H
   0.1249483333333333    0.2338933333333333    0.3939000000000000 H
   0.0849816666666666    0.2630066666666667    0.3808750000000000 H
   0.0024483333333333    0.2017766666666667    0.3371200000000000 H
   0.0417133333333333    0.0673066666666667    0.3563850000000000 H
   0.0816916666666667    0.0964300000000000    0.3692500000000000 H
   0.1641816666666667    0.0352366666666667    0.4131450000000000 H
   0.2084083333333333    0.0993500000000000    0.1063200000000000 H
   0.2483383333333333    0.0702533333333333    0.1194650000000000 H
   0.3308949999999999    0.1315133333333333    0.1630300000000000 H
   0.2916216666666667    0.2661400000000000    0.1437150000000000 H
   0.2516416666666667    0.2370000000000000    0.1308700000000000 H
   0.1691650000000000    0.2982033333333333    0.0869600000000000 H
   0.2916150000000000    0.2338933333333333    0.3939000000000000 H
   0.2516483333333333    0.2630066666666667    0.3808750000000000 H
   0.1691150000000000    0.2017766666666667    0.3371200000000000 H
   0.2083800000000000    0.0673066666666667    0.3563850000000000 H
   0.2483583333333333    0.0964300000000000    0.3692500000000000 H
   0.3308483333333333    0.0352366666666667    0.4131450000000000 H
   0.3750750000000000    0.0993500000000000    0.1063200000000000 H
   0.4150050000000000    0.0702533333333333    0.1194650000000000 H
   0.4975616666666666    0.1315133333333333    0.1630300000000000 H
   0.4582883333333333    0.2661400000000000    0.1437150000000000 H
   0.4183083333333333    0.2370000000000000    0.1308700000000000 H
   0.3358316666666666    0.2982033333333333    0.0869600000000000 H
   0.4582816666666666    0.2338933333333333    0.3939000000000000 H
   0.4183150000000000    0.2630066666666667    0.3808750000000000 H
   0.3357816666666666    0.2017766666666667    0.3371200000000000 H
   0.3750466666666666    0.0673066666666667    0.3563850000000000 H
   0.4150250000000000    0.0964300000000000    0.3692500000000000 H
   0.4975150000000000    0.0352366666666667    0.4131450000000000 H
   0.5417416666666667    0.0993500000000000    0.1063200000000000 H
   0.5816716666666667    0.0702533333333333    0.1194650000000000 H
   0.6642283333333333    0.1315133333333333    0.1630300000000000 H
   0.6249550000000000    0.2661400000000000    0.1437150000000000 H
   0.5849750000000000    0.2370000000000000    0.1308700000000000 H
   0.5024983333333334    0.2982033333333333    0.0869600000000000 H
   0.6249483333333333    0.2338933333333333    0.3939000000000000 H
   0.5849816666666666    0.2630066666666667    0.3808750000000000 H
   0.5024483333333334    0.2017766666666667    0.3371200000000000 H
   0.5417133333333334    0.0673066666666667    0.3563850000000000 H
   0.5816916666666667    0.0964300000000000    0.3692500000000000 H
   0.6641816666666667    0.0352366666666667    0.4131450000000000 H
   0.7084083333333333    0.0993500000000000    0.1063200000000000 H
   0.7483383333333333    0.0702533333333333    0.1194650000000000 H
   0.8308949999999999    0.1315133333333333    0.1630300000000000 H
   0.7916216666666667    0.2661400000000000    0.1437150000000000 H
   0.7516416666666667    0.2370000000000000    0.1308700000000000 H
   0.6691650000000000    0.2982033333333333    0.0869600000000000 H
   0.7916150000000000    0.2338933333333333    0.3939000000000000 H
   0.7516483333333333    0.2630066666666667    0.3808750000000000 H
   0.6691150000000000    0.2017766666666667    0.3371200000000000 H
   0.7083800000000000    0.0673066666666667    0.3563850000000000 H
   0.7483583333333332    0.0964300000000000    0.3692500000000000 H
   0.8308483333333333    0.0352366666666667    0.4131450000000000 H
   0.8750749999999999    0.0993500000000000    0.1063200000000000 H
   0.9150050000000000    0.0702533333333333    0.1194650000000000 H
   0.9975616666666666    0.1315133333333333    0.1630300000000000 H
   0.9582883333333333    0.2661400000000000    0.1437150000000000 H
   0.9183083333333333    0.2370000000000000    0.1308700000000000 H
   0.8358316666666666    0.2982033333333333    0.0869600000000000 H
   0.9582816666666666    0.2338933333333333    0.3939000000000000 H
   0.9183149999999999    0.2630066666666667    0.3808750000000000 H
   0.8357816666666666    0.2017766666666667    0.3371200000000000 H
   0.8750466666666666    0.0673066666666667    0.3563850000000000 H
   0.9150250000000000    0.0964300000000000    0.3692500000000000 H
   0.9975149999999999    0.0352366666666667    0.4131450000000000 H
   0.0417416666666667    0.4326833333333333    0.1063200000000000 H
   0.0816716666666667    0.4035866666666666    0.1194650000000000 H
   0.1642283333333333    0.4648466666666666    0.1630300000000000 H
   0.1249550000000000    0.5994733333333333    0.1437150000000000 H
   0.0849750000000000    0.5703333333333334    0.1308700000000000 H
   0.0024983333333333    0.6315366666666666    0.0869600000000000 H
   0.1249483333333333    0.5672266666666667    0.3939000000000000 H
   0.0849816666666666    0.5963400000000000    0.3808750000000000 H
   0.0024483333333333    0.5351100000000000    0.3371200000000000 H
   0.0417133333333333    0.4006400000000000    0.3563850000000000 H
   0.0816916666666667    0.4297633333333333    0.3692500000000000 H
   0.1641816666666667    0.3685700000000000    0.4131450000000000 H
   0.2084083333333333    0.4326833333333333    0.1063200000000000 H
   0.2483383333333333    0.4035866666666666    0.1194650000000000 H
   0.3308949999999999    0.4648466666666666    0.1630300000000000 H
   0.2916216666666667    0.5994733333333333    0.1437150000000000 H
   0.2516416666666667    0.5703333333333334    0.1308700000000000 H
   0.1691650000000000    0.6315366666666666    0.0869600000000000 H
   0.2916150000000000    0.5672266666666667    0.3939000000000000 H
   0.2516483333333333    0.5963400000000000    0.3808750000000000 H
   0.1691150000000000    0.5351100000000000    0.3371200000000000 H
   0.2083800000000000    0.4006400000000000    0.3563850000000000 H
   0.2483583333333333    0.4297633333333333    0.3692500000000000 H
   0.3308483333333333    0.3685700000000000    0.4131450000000000 H
   0.3750750000000000    0.4326833333333333    0.1063200000000000 H
   0.4150050000000000    0.4035866666666666    0.1194650000000000 H
   0.4975616666666666    0.4648466666666666    0.1630300000000000 H
   0.4582883333333333    0.5994733333333333    0.1437150000000000 H
   0.4183083333333333    0.5703333333333334    0.1308700000000000 H
   0.3358316666666666    0.6315366666666666    0.0869600000000000 H
   0.4582816666666666    0.5672266666666667    0.3939000000000000 H
   0.4183150000000000    0.5963400000000000    0.3808750000000000 H
   0.3357816666666666    0.5351100000000000    0.3371200000000000 H
   0.3750466666666666    0.4006400000000000    0.3563850000000000 H
   0.4150250000000000    0.4297633333333333    0.3692500000000000 H
   0.4975150000000000    0.3685700000000000    0.4131450000000000 H
   0.5417416666666667    0.4326833333333333    0.1063200000000000 H
   0.5816716666666667    0.4035866666666666    0.1194650000000000 H
   0.6642283333333333    0.4648466666666666    0.1630300000000000 H
   0.6249550000000000    0.5994733333333333    0.1437150000000000 H
   0.5849750000000000    0.5703333333333334    0.1308700000000000 H
   0.5024983333333334    0.6315366666666666    0.0869600000000000 H
   0.6249483333333333    0.5672266666666667    0.3939000000000000 H
   0.5849816666666666    0.5963400000000000    0.3808750000000000 H
   0.5024483333333334    0.5351100000000000    0.3371200000000000 H
   0.5417133333333334    0.4006400000000000    0.3563850000000000 H
   0.5816916666666667    0.4297633333333333    0.3692500000000000 H
   0.6641816666666667    0.3685700000000000    0.4131450000000000 H
   0.7084083333333333    0.4326833333333333    0.1063200000000000 H
   0.7483383333333333    0.4035866666666666    0.1194650000000000 H
   0.8308949999999999    0.4648466666666666    0.1630300000000000 H
   0.7916216666666667    0.5994733333333333    0.1437150000000000 H
   0.7516416666666667    0.5703333333333334    0.1308700000000000 H
   0.6691650000000000    0.6315366666666666    0.0869600000000000 H
   0.7916150000000000    0.5672266666666667    0.3939000000000000 H
   0.7516483333333333    0.5963400000000000    0.3808750000000000 H
   0.6691150000000000    0.5351100000000000    0.3371200000000000 H
   0.7083800000000000    0.4006400000000000    0.3563850000000000 H
   0.7483583333333332    0.4297633333333333    0.3692500000000000 H
   0.8308483333333333    0.3685700000000000    0.4131450000000000 H
   0.8750749999999999    0.4326833333333333    0.1063200000000000 H
   0.9150050000000000    0.4035866666666666    0.1194650000000000 H
   0.9975616666666666    0.4648466666666666    0.1630300000000000 H
   0.9582883333333333    0.5994733333333333    0.1437150000000000 H
   0.9183083333333333    0.5703333333333334    0.1308700000000000 H
   0.8358316666666666    0.6315366666666666    0.0869600000000000 H
   0.9582816666666666    0.5672266666666667    0.3939000000000000 H
   0.9183149999999999    0.5963400000000000    0.3808750000000000 H
   0.8357816666666666    0.5351100000000000    0.3371200000000000 H
   0.8750466666666666    0.4006400000000000    0.3563850000000000 H
   0.9150250000000000    0.4297633333333333    0.3692500000000000 H
   0.9975149999999999    0.3685700000000000    0.4131450000000000 H
   0.0417416666666667    0.7660166666666666    0.1063200000000000 H
   0.0816716666666667    0.7369200000000000    0.1194650000000000 H
   0.1642283333333333    0.7981799999999999    0.1630300000000000 H
   0.1249550000000000    0.9328066666666666    0.1437150000000000 H
   0.0849750000000000    0.9036666666666666    0.1308700000000000 H
   0.0024983333333333    0.9648699999999999    0.0869600000000000 H
   0.1249483333333333    0.9005599999999999    0.3939000000000000 H
   0.0849816666666666    0.9296733333333334    0.3808750000000000 H
   0.0024483333333333    0.8684433333333332    0.3371200000000000 H
   0.0417133333333333    0.7339733333333333    0.3563850000000000 H
   0.0816916666666667    0.7630966666666666    0.3692500000000000 H
   0.1641816666666667    0.7019033333333333    0.4131450000000000 H
   0.2084083333333333    0.7660166666666666    0.1063200000000000 H
   0.2483383333333333    0.7369200000000000    0.1194650000000000 H
   0.3308949999999999    0.7981799999999999    0.1630300000000000 H
   0.2916216666666667    0.9328066666666666    0.1437150000000000 H
   0.2516416666666667    0.9036666666666666    0.1308700000000000 H
   0.1691650000000000    0.9648699999999999    0.0869600000000000 H
   0.2916150000000000    0.9005599999999999    0.3939000000000000 H
   0.2516483333333333    0.9296733333333334    0.3808750000000000 H
   0.1691150000000000    0.8684433333333332    0.3371200000000000 H
   0.2083800000000000    0.7339733333333333    0.3563850000000000 H
   0.2483583333333333    0.7630966666666666    0.3692500000000000 H
   0.3308483333333333    0.7019033333333333    0.4131450000000000 H
   0.3750750000000000    0.7660166666666666    0.1063200000000000 H
   0.4150050000000000    0.7369200000000000    0.1194650000000000 H
   0.4975616666666666    0.7981799999999999    0.1630300000000000 H
   0.4582883333333333    0.9328066666666666    0.1437150000000000 H
   0.4183083333333333    0.9036666666666666    0.1308700000000000 H
   0.3358316666666666    0.9648699999999999    0.0869600000000000 H
   0.4582816666666666    0.9005599999999999    0.3939000000000000 H
   0.4183150000000000    0.9296733333333334    0.3808750000000000 H
   0.3357816666666666    0.8684433333333332    0.3371200000000000 H
   0.3750466666666666    0.7339733333333333    0.3563850000000000 H
   0.4150250000000000    0.7630966666666666    0.3692500000000000 H
   0.4975150000000000    0.7019033333333333    0.4131450000000000 H
   0.5417416666666667    0.7660166666666666    0.1063200000000000 H
   0.5816716666666667    0.7369200000000000    0.1194650000000000 H
   0.6642283333333333    0.7981799999999999    0.1630300000000000 H
   0.6249550000000000    0.9328066666666666    0.1437150000000000 H
   0.5849750000000000    0.9036666666666666    0.1308700000000000 H
   0.5024983333333334    0.9648699999999999    0.0869600000000000 H
   0.6249483333333333    0.9005599999999999    0.3939000000000000 H
   0.5849816666666666    0.9296733333333334    0.3808750000000000 H
   0.5024483333333334    0.8684433333333332    0.3371200000000000 H
   0.5417133333333334    0.7339733333333333    0.3563850000000000 H
   0.5816916666666667    0.7630966666666666    0.3692500000000000 H
   0.6641816666666667    0.7019033333333333    0.4131450000000000 H
   0.7084083333333333    0.7660166666666666    0.1063200000000000 H
   0.7483383333333333    0.7369200000000000    0.1194650000000000 H
   0.8308949999999999    0.7981799999999999    0.1630300000000000 H
   0.7916216666666667    0.9328066666666666    0.1437150000000000 H
   0.7516416666666667    0.9036666666666666    0.1308700000000000 H
   0.6691650000000000    0.9648699999999999    0.0869600000000000 H
   0.7916150000000000    0.9005599999999999    0.3939000000000000 H
   0.7516483333333333    0.9296733333333334    0.3808750000000000 H
   0.6691150000000000    0.8684433333333332    0.3371200000000000 H
   0.7083800000000000    0.7339733333333333    0.3563850000000000 H
   0.7483583333333332    0.7630966666666666    0.3692500000000000 H
   0.8308483333333333    0.7019033333333333    0.4131450000000000 H
   0.8750749999999999    0.7660166666666666    0.1063200000000000 H
   0.9150050000000000    0.7369200000000000    0.1194650000000000 H
   0.9975616666666666    0.7981799999999999    0.1630300000000000 H
   0.9582883333333333    0.9328066666666666    0.1437150000000000 H
   0.9183083333333333    0.9036666666666666    0.1308700000000000 H
   0.8358316666666666    0.9648699999999999    0.0869600000000000 H
   0.9582816666666666    0.9005599999999999    0.3939000000000000 H
   0.9183149999999999    0.9296733333333334    0.3808750000000000 H
   0.8357816666666666    0.8684433333333332    0.3371200000000000 H
   0.8750466666666666    0.7339733333333333    0.3563850000000000 H
   0.9150250000000000    0.7630966666666666    0.3692500000000000 H
   0.9975149999999999    0.7019033333333333    0.4131450000000000 H
   0.0417416666666667    0.0993500000000000    0.6063200000000000 H
   0.0816716666666667    0.0702533333333333    0.6194650000000000 H
   0.1642283333333333    0.1315133333333333    0.6630300000000000 H
   0.1249550000000000    0.2661400000000000    0.6437150000000000 H
   0.0849750000000000    0.2370000000000000    0.6308700000000000 H
   0.0024983333333333    0.2982033333333333    0.5869600000000000 H
   0.1249483333333333    0.2338933333333333    0.8938999999999999 H
   0.0849816666666666    0.2630066666666667    0.8808750000000001 H
   0.0024483333333333    0.2017766666666667    0.8371200000000000 H
   0.0417133333333333    0.0673066666666667    0.8563850000000000 H
   0.0816916666666667    0.0964300000000000    0.8692500000000001 H
   0.1641816666666667    0.0352366666666667    0.9131450000000000 H
   0.2084083333333333    0.0993500000000000    0.6063200000000000 H
   0.2483383333333333    0.0702533333333333    0.6194650000000000 H
   0.3308949999999999    0.1315133333333333    0.6630300000000000 H
   0.2916216666666667    0.2661400000000000    0.6437150000000000 H
   0.2516416666666667    0.2370000000000000    0.6308700000000000 H
   0.1691650000000000    0.2982033333333333    0.5869600000000000 H
   0.2916150000000000    0.2338933333333333    0.8938999999999999 H
   0.2516483333333333    0.2630066666666667    0.8808750000000001 H
   0.1691150000000000    0.2017766666666667    0.8371200000000000 H
   0.2083800000000000    0.0673066666666667    0.8563850000000000 H
   0.2483583333333333    0.0964300000000000    0.8692500000000001 H
   0.3308483333333333    0.0352366666666667    0.9131450000000000 H
   0.3750750000000000    0.0993500000000000    0.6063200000000000 H
   0.4150050000000000    0.0702533333333333    0.6194650000000000 H
   0.4975616666666666    0.1315133333333333    0.6630300000000000 H
   0.4582883333333333    0.2661400000000000    0.6437150000000000 H
   0.4183083333333333    0.2370000000000000    0.6308700000000000 H
   0.3358316666666666    0.2982033333333333    0.5869600000000000 H
   0.4582816666666666    0.2338933333333333    0.8938999999999999 H
   0.4183150000000000    0.2630066666666667    0.8808750000000001 H
   0.3357816666666666    0.2017766666666667    0.8371200000000000 H
   0.3750466666666666    0.0673066666666667    0.8563850000000000 H
   0.4150250000000000    0.0964300000000000    0.8692500000000001 H
   0.4975150000000000    0.0352366666666667    0.9131450000000000 H
   0.5417416666666667    0.0993500000000000    0.6063200000000000 H
   0.5816716666666667    0.0702533333333333    0.6194650000000000 H
   0.6642283333333333    0.1315133333333333    0.6630300000000000 H
   0.6249550000000000    0.2661400000000000    0.6437150000000000 H
   0.5849750000000000    0.2370000000000000    0.6308700000000000 H
   0.5024983333333334    0.2982033333333333    0.5869600000000000 H
   0.6249483333333333    0.2338933333333333    0.8938999999999999 H
   0.5849816666666666    0.2630066666666667    0.8808750000000001 H
   0.5024483333333334    0.2017766666666667    0.8371200000000000 H
   0.5417133333333334    0.0673066666666667    0.8563850000000000 H
   0.5816916666666667    0.0964300000000000    0.8692500000000001 H
   0.6641816666666667    0.0352366666666667    0.9131450000000000 H
   0.7084083333333333    0.0993500000000000    0.6063200000000000 H
   0.7483383333333333    0.0702533333333333    0.6194650000000000 H
   0.8308949999999999    0.1315133333333333    0.6630300000000000 H
   0.7916216666666667    0.2661400000000000    0.6437150000000000 H
   0.7516416666666667    0.2370000000000000    0.6308700000000000 H
   0.6691650000000000    0.2982033333333333    0.5869600000000000 H
   0.7916150000000000    0.2338933333333333    0.8938999999999999 H
   0.7516483333333333    0.2630066666666667    0.8808750000000001 H
   0.6691150000000000    0.2017766666666667    0.8371200000000000 H
   0.7083800000000000    0.0673066666666667    0.8563850000000000 H
   0.7483583333333332    0.0964300000000000    0.8692500000000001 H
   0.8308483333333333    0.0352366666666667    0.9131450000000000 H
   0.8750749999999999    0.0993500000000000    0.6063200000000000 H
   0.9150050000000000    0.0702533333333333    0.6194650000000000 H
   0.9975616666666666    0.1315133333333333    0.6630300000000000 H
   0.9582883333333333    0.2661400000000000    0.6437150000000000 H
   0.9183083333333333    0.2370000000000000    0.6308700000000000 H
   0.8358316666666666    0.2982033333333333    0.5869600000000000 H
   0.9582816666666666    0.2338933333333333    0.8938999999999999 H
   0.9183149999999999    0.2630066666666667    0.8808750000000001 H
   0.8357816666666666    0.2017766666666667    0.8371200000000000 H
   0.8750466666666666    0.0673066666666667    0.8563850000000000 H
   0.9150250000000000    0.0964300000000000    0.8692500000000001 H
   0.9975149999999999    0.0352366666666667    0.9131450000000000 H
   0.0417416666666667    0.4326833333333333    0.6063200000000000 H
   0.0816716666666667    0.4035866666666666    0.6194650000000000 H
   0.1642283333333333    0.4648466666666666    0.6630300000000000 H