H4 C8 O4
1.0
  20.7499995449015771    0.0000000000000000    0.0043458698056932
  -0.0157861828725212   25.1279928368413294   -0.0105255917187834
   0.0000000000000000    0.0000000000000000   20.2180000000000000
H C O
4 8 4
direct
   0.5243900000000000    0.4848000000000000    0.6770699999999999 H
   0.7199300000000000    0.5407400000000000    0.6811300000000000 H
   0.5324000000000000    0.4601500000000000    0.7971000000000000 H
   0.7278300000000000    0.5164000000000000    0.8011200000000001 H
   0.5687100000000000    0.4914400000000000    0.7046800000000000 C
   0.6170200000000000    0.5298700000000000    0.6008599999999999 C
   0.6217800000000000    0.5140700000000000    0.6720900000000000 C
   0.6791900000000000    0.5230800000000000    0.7070400000000000 C
   0.5730700000000000    0.4778900000000000    0.7712100000000000 C
   0.6835000000000000    0.5096100000000000    0.7736000000000000 C
   0.6304999999999999    0.4868600000000000    0.8061000000000000 C
   0.6352500000000000    0.4708100000000000    0.8773100000000000 C
   0.5628500000000000    0.5212700000000000    0.5722100000000000 O
   0.6891500000000000    0.4805100000000000    0.9063700000000000 O
   0.6666666666666666    0.5509600000000000    0.5748799999999999 O
   0.5862500000000000    0.4487900000000000    0.9029000000000000 O
