H6 O4
1.0
  20.7499995449015771    0.0000000000000000    0.0043458698056932
  -0.0157861828725212   25.1279928368413294   -0.0105255917187834
   0.0000000000000000    0.0000000000000000   20.2180000000000000
H O
6 4
direct
   0.7068422800557966    0.5524406293153222    0.5993336508635075 H
   0.5279226325720842    0.5019316019986035    0.5931894204659196 H
   0.6166223347672520    0.5232517219575110    0.6049395538160920 H
   0.5464751187081341    0.4467559795530233    0.8778247734879544 H
   0.7239005250867641    0.5004939242353720    0.8860248784517971 H
   0.6367488639038145    0.4778302941453845    0.8733348201472045 H
   0.6666666666666666    0.5509600000000000    0.5748799999999999 O
   0.5628500000000000    0.5212700000000000    0.5722100000000000 O
   0.5862500000000000    0.4487900000000000    0.9029000000000000 O
   0.6891500000000000    0.4805100000000000    0.9063700000000000 O
