Zn32 H124 C168 O108
1.0
  20.7499995449015771    0.0000000000000000    0.0043458698056932
  -0.0157861828725212   25.1279928368413294   -0.0105255917187834
   0.0000000000000000    0.0000000000000000   20.2180000000000000
Zn H C O
32 124 168 108
direct
   0.4662800000000000    0.8034400000000000    0.0111900000000000 Zn
   0.9662900000000000    0.3034300000000000    0.0111900000000000 Zn
   0.9662800000000000    0.8034400000000000    0.0111900000000000 Zn
   0.3141500000000000    0.3382500000000000    0.0112300000000000 Zn
   0.3141400000000000    0.8382600000000000    0.0112300000000000 Zn
   0.8141500000000000    0.3382500000000000    0.0112300000000000 Zn
   0.8141400000000000    0.8382600000000000    0.0112300000000000 Zn
   0.2837200000000000    0.1965600000000000    0.5111900000000000 Zn
   0.2837200000000000    0.6965700000000000    0.5111900000000000 Zn
   0.7837200000000000    0.1965600000000000    0.5111900000000000 Zn
   0.7837200000000000    0.6965700000000000    0.5111900000000000 Zn
   0.4358400000000000    0.1618400000000000    0.5111100000000000 Zn
   0.4358300000000000    0.6618500000000000    0.5111100000000000 Zn
   0.9358400000000000    0.1618400000000000    0.5111100000000000 Zn
   0.9358300000000001    0.6618500000000000    0.5111100000000000 Zn
   0.0336500000000000    0.0534600000000000    0.4888100000000000 Zn
   0.0336500000000000    0.5534600000000000    0.4888100000000000 Zn
   0.5336500000000000    0.0534600000000000    0.4888100000000000 Zn
   0.5336500000000000    0.5534600000000000    0.4888100000000000 Zn
   0.1858100000000000    0.0881600000000000    0.4880000000000000 Zn
   0.1858100000000000    0.5881700000000000    0.4889000000000000 Zn
   0.6858100000000000    0.0881600000000000    0.4880000000000000 Zn
   0.6858100000000000    0.5881700000000000    0.4889000000000000 Zn
   0.2163500000000000    0.4465400000000000    0.9888900000000000 Zn
   0.2163400000000000    0.9465600000000000    0.9888800000000000 Zn
   0.7163500000000000    0.4465400000000000    0.9888900000000000 Zn
   0.7163400000000000    0.9465600000000000    0.9888800000000000 Zn
   0.0641700000000000    0.4118100000000000    0.9888700000000000 Zn
   0.0641600000000000    0.9118200000000000    0.9888700000000000 Zn
   0.5641699999999999    0.4118100000000000    0.9888700000000000 Zn
   0.5641600000000000    0.9118200000000000    0.9888700000000000 Zn
   0.4662900000000000    0.3034300000000000    0.0111900000000000 Zn
   0.4753000000000000    0.2348400000000000    0.8231300000000000 H
   0.4753000000000000    0.7348700000000000    0.8231000000000001 H
   0.9752999999999999    0.2348400000000000    0.8231300000000000 H
   0.9752999999999999    0.7348700000000000    0.8231000000000001 H
   0.2799500000000000    0.2910400000000000    0.8186600000000001 H
   0.2800100000000000    0.7911899999999999    0.8186000000000000 H
   0.7799600000000000    0.2910500000000000    0.8186000000000000 H
   0.7800100000000000    0.7911899999999999    0.8186000000000000 H
   0.4675300000000000    0.2103000000000000    0.7029600000000000 H
   0.4675300000000000    0.7103200000000000    0.7029400000000000 H
   0.9675300000000000    0.2103000000000000    0.7029600000000000 H
   0.9675300000000000    0.7103200000000000    0.7029400000000000 H
   0.2723200000000000    0.2668300000000000    0.6985900000000000 H
   0.2723800000000000    0.7669899999999999    0.6985300000000000 H
   0.7723200000000000    0.2668400000000000    0.6985800000000000 H
   0.7723800000000000    0.7669899999999999    0.6985300000000000 H
   0.3596000000000000    0.4854800000000000    0.0000000000000000 H
   0.3595900000000000    0.9854900000000000    0.0000000000000000 H
   0.8596000000000000    0.4854800000000000    0.0000000000000000 H
   0.8595900000000000    0.9854900000000000    0.0000000000000000 H
   0.3108800000000000    0.4809800000000000    0.8873200000000000 H
   0.3108800000000000    0.9809700000000000    0.8873000000000000 H
   0.8108900000000000    0.4809800000000000    0.8873200000000000 H
   0.8108800000000000    0.9809700000000000    0.8873000000000000 H
   0.3969300000000000    0.4798500000000000    0.8833000000000000 H
   0.3969200000000000    0.9798300000000000    0.8833000000000000 H
   0.8969300000000000    0.4798500000000000    0.8833600000000000 H
   0.8969200000000001    0.9798300000000000    0.8833200000000000 H
   0.3516400000000000    0.4198300000000000    0.8723000000000000 H
   0.3516300000000000    0.9198100000000000    0.8722900000000000 H
   0.8516400000000000    0.4198300000000000    0.8723000000000000 H
   0.8516300000000000    0.9198100000000000    0.8722900000000000 H
   0.2746000000000000    0.2651200000000000    0.3231400000000000 H
   0.2746200000000000    0.7651600000000000    0.3231500000000000 H
   0.7746000000000000    0.2651200000000000    0.3231400000000000 H
   0.7746200000000000    0.7651600000000000    0.3231500000000000 H
   0.4700900000000000    0.2092500000000000    0.3186700000000000 H
   0.4700700000000000    0.7092200000000000    0.3186500000000000 H
   0.9700900000000000    0.2092500000000000    0.3186700000000000 H
   0.9700700000000000    0.7092200000000000    0.3186500000000000 H
   0.2823900000000000    0.2896600000000000    0.2029900000000000 H
   0.2824000000000000    0.7897100000000000    0.2030000000000000 H
   0.7823900000000000    0.2896600000000000    0.2029900000000000 H
   0.7824000000000000    0.7897100000000000    0.2030000000000000 H
   0.4777400000000000    0.2334600000000000    0.1986200000000000 H
   0.4777200000000000    0.7334200000000000    0.1986000000000000 H
   0.9777400000000001    0.2334600000000000    0.1986200000000000 H
   0.9777200000000000    0.7334200000000000    0.1986000000000000 H
   0.3907700000000000    0.0148000000000000    0.5000200000000000 H
   0.3907600000000000    0.5148100000000000    0.5000300000000000 H
   0.8907700000000000    0.0148000000000000    0.5000200000000000 H
   0.8907600000000000    0.5148100000000000    0.5000300000000000 H
   0.4385600000000000    0.0190100000000000    0.3861600000000000 H
   0.4385500000000000    0.5190000000000000    0.3861700000000000 H
   0.9385599999999999    0.0190100000000000    0.3861600000000000 H
   0.9385500000000000    0.5190000000000000    0.3861700000000000 H
   0.3524600000000000    0.0198000000000000    0.3829000000000000 H
   0.3524500000000000    0.5197900000000000    0.3829200000000000 H
   0.8524600000000000    0.0198000000000000    0.3829000000000000 H
   0.8524500000000000    0.5197900000000000    0.3829200000000000 H
   0.3973500000000000    0.0799400000000000    0.3711200000000000 H
   0.3973300000000000    0.5799299999999999    0.3711200000000000 H
   0.8973500000000000    0.0799400000000000    0.3711200000000000 H
   0.8973300000000000    0.5799299999999999    0.3711200000000000 H
   0.0243900000000000    0.4848000000000000    0.6770699999999999 H
   0.0242800000000000    0.9850900000000000    0.6771800000000000 H
   0.5242800000000000    0.9850900000000000    0.6771800000000000 H
   0.2200100000000000    0.0405900000000000    0.6810800000000000 H
   0.2199300000000000    0.5407500000000000    0.6811000000000000 H
   0.7200100000000000    0.0405900000000000    0.6810800000000000 H
   0.0324000000000000    0.4601500000000000    0.7971000000000000 H
   0.0322900000000000    0.9604500000000000    0.7972800000000000 H
   0.5322900000000000    0.9604500000000000    0.7972800000000000 H
   0.2279000000000000    0.0162800000000000    0.8010000000000000 H
   0.2278300000000000    0.5164000000000000    0.8011200000000001 H
   0.7279000000000000    0.0162800000000000    0.8010000000000000 H
   0.1409300000000000    0.2352100000000000    0.5000100000000000 H
   0.1409300000000000    0.7352100000000000    0.4999300000000000 H
   0.6409300000000000    0.2352100000000000    0.5000100000000000 H
   0.6409300000000000    0.7352100000000000    0.4999300000000000 H
   0.1888300000000000    0.2308600000000000    0.6138300000000000 H
   0.1888200000000000    0.7309500000000000    0.6137600000000000 H
   0.6888300000000001    0.2308600000000000    0.6138300000000000 H
   0.6888200000000000    0.7309500000000000    0.6137600000000000 H
   0.1027300000000000    0.2302700000000000    0.6171500000000000 H
   0.1027200000000000    0.7303600000000000    0.6170700000000000 H
   0.6027300000000000    0.2302700000000000    0.6171500000000000 H
   0.6027200000000000    0.7303600000000000    0.6170700000000000 H
   0.1473400000000000    0.1700300000000000    0.6288700000000000 H
   0.1473200000000000    0.6701300000000000    0.6288700000000000 H
   0.6473400000000000    0.1700300000000000    0.6288700000000000 H
   0.6473200000000000    0.6701300000000000    0.6288700000000000 H
   0.2254000000000000    0.0151500000000000    0.1769500000000000 H
   0.2253500000000000    0.5152500000000000    0.1769100000000000 H
   0.7254000000000000    0.0151500000000000    0.1769500000000000 H
   0.7253500000000001    0.5152500000000000    0.1769100000000000 H
   0.0298600000000000    0.4591900000000000    0.1812600000000000 H
   0.0298300000000000    0.9592700000000000    0.1812400000000000 H
   0.5298600000000000    0.4591900000000000    0.1812600000000000 H
   0.5298300000000000    0.9592700000000000    0.1812400000000000 H
   0.2175700000000000    0.0396800000000000    0.2971300000000000 H
   0.2175300000000000    0.5397700000000000    0.2970900000000000 H
   0.7175700000000000    0.0396800000000000    0.2971300000000000 H
   0.7175300000000000    0.5397800000000000    0.2970900000000000 H
   0.0221700000000000    0.4833800000000000    0.3013500000000000 H
   0.0221300000000000    0.9834600000000000    0.3013200000000000 H
   0.5221700000000000    0.4833800000000000    0.3013500000000000 H
   0.5221300000000000    0.9834600000000000    0.3013200000000000 H
   0.1091400000000000    0.2647700000000000    0.9998500000000000 H
   0.1091300000000000    0.7647699999999999    0.0000000000000000 H
   0.6091400000000000    0.2647700000000000    0.9998500000000000 H
   0.6091299999999999    0.7647699999999999    0.0000000000000000 H
   0.0610500000000000    0.2691100000000000    0.1136000000000000 H
   0.0610400000000000    0.7692800000000000    0.1137400000000000 H
   0.5610500000000000    0.2691100000000000    0.1136000000000000 H
   0.5610400000000000    0.7692800000000000    0.1137400000000000 H
   0.1471400000000000    0.2697600000000000    0.1170500000000000 H
   0.1471300000000000    0.7699300000000000    0.1172000000000000 H
   0.6471400000000000    0.2697600000000000    0.1170500000000000 H
   0.6471300000000000    0.7699300000000000    0.1172000000000000 H
   0.1024600000000000    0.3299800000000000    0.1287400000000000 H
   0.1024500000000000    0.8301700000000000    0.1287500000000000 H
   0.6024500000000000    0.3299800000000000    0.1287400000000000 H
   0.6024500000000000    0.8301700000000000    0.1287500000000000 H
   0.8567700000000000    0.9471900000000000    0.9740000000000000 C
   0.3540700000000000    0.4577300000000000    0.8993600000000000 C
   0.3540500000000000    0.9577100000000000    0.8993000000000000 C
   0.8540600000000000    0.4577300000000000    0.8993000000000000 C
   0.0687100000000000    0.4914400000000000    0.7046800000000000 C
   0.0686400000000000    0.9916400000000000    0.7047600000000001 C
   0.5686400000000000    0.9916400000000000    0.7047600000000001 C
   0.1792300000000000    0.0230300000000000    0.7070300000000000 C
   0.3827100000000000    0.2799300000000000    0.8991800000000000 C
   0.3827200000000000    0.7799700000000001    0.8991000000000000 C
   0.8827100000000000    0.2799400000000000    0.8991800000000000 C
   0.8827199999999999    0.7799700000000001    0.8991000000000000 C
   0.3780000000000000    0.2642200000000000    0.8279000000000000 C
   0.3780200000000000    0.7643000000000000    0.8278700000000000 C
   0.8780000000000000    0.2642300000000000    0.8279000000000000 C
   0.8780200000000000    0.7643000000000000    0.8278700000000000 C
   0.4310800000000000    0.2415500000000000    0.7954000000000000 C
   0.4310900000000000    0.7416100000000000    0.7953800000000000 C
   0.9310800000000000    0.2415600000000000    0.7954000000000000 C
   0.9310900000000000    0.7416100000000000    0.7953800000000000 C
   0.3207100000000000    0.2733500000000000    0.7928300000000000 C
   0.3207500000000000    0.7734799999999999    0.7927800000000000 C
   0.8207100000000001    0.2733600000000000    0.7928300000000000 C
   0.8207500000000000    0.7734799999999999    0.7927800000000000 C
   0.4268500000000000    0.2280800000000000    0.7288200000000000 C
   0.4268600000000000    0.7281400000000000    0.7288000000000000 C
   0.9268500000000000    0.2280800000000000    0.7288200000000000 C
   0.9268600000000000    0.7281400000000000    0.7288000000000000 C
   0.3165400000000000    0.2599500000000000    0.7262200000000000 C
   0.3165900000000000    0.7600800000000000    0.7261700000000000 C
   0.8165500000000000    0.2599600000000000    0.7262200000000000 C
   0.8165900000000000    0.7600800000000000    0.7261700000000000 C
   0.3695400000000000    0.2371500000000000    0.6937500000000000 C
   0.3695700000000000    0.7372400000000000    0.6937000000000000 C
   0.8695400000000000    0.2371600000000000    0.6937500000000000 C
   0.8695700000000000    0.7372400000000000    0.6937000000000000 C
   0.3648500000000000    0.2211000000000000    0.6225800000000000 C
   0.3648600000000000    0.7211400000000000    0.6225600000000000 C
   0.8648500000000000    0.2211000000000000    0.6225800000000000 C
   0.8648600000000000    0.7211400000000000    0.6225600000000000 C
   0.4190600000000000    0.4173600000000000    0.9901000000000000 C
   0.4190500000000000    0.9173700000000000    0.9900000000000000 C
   0.9190600000000000    0.4173600000000000    0.9901000000000000 C
   0.9190500000000000    0.9173700000000000    0.9900900000000000 C
   0.3567800000000000    0.4471800000000000    0.9740100000000000 C
   0.3567700000000000    0.9471900000000000    0.9740000000000000 C
   0.8567800000000000    0.4471800000000000    0.9740100000000000 C
   0.8540500000000000    0.9577100000000000    0.8993400000000000 C
   0.3672300000000000    0.2201400000000000    0.3991600000000000 C
   0.3672300000000000    0.7201500000000000    0.3991600000000000 C
   0.8672299999999999    0.2201400000000000    0.3991600000000000 C
   0.8672299999999999    0.7201500000000000    0.3991600000000000 C
   0.3719600000000000    0.2358900000000000    0.3279100000000000 C
   0.3719600000000000    0.7358900000000000    0.3279100000000000 C
   0.8719600000000000    0.2358900000000000    0.3279100000000000 C
   0.8719600000000000    0.7358900000000000    0.3279100000000000 C
   0.3188600000000000    0.2584700000000000    0.2954100000000000 C
   0.3188700000000000    0.7585000000000000    0.2954200000000000 C
   0.8188600000000000    0.2584700000000000    0.2954100000000000 C
   0.8188700000000000    0.7585000000000000    0.2954200000000000 C
   0.4293000000000000    0.2268700000000000    0.2928400000000000 C
   0.4292900000000000    0.7268500000000000    0.2928300000000000 C
   0.9293000000000000    0.2268700000000000    0.2928400000000000 C
   0.9292899999999999    0.7268500000000000    0.2928300000000000 C
   0.3230900000000000    0.2719500000000000    0.2288500000000000 C
   0.3231000000000000    0.7719700000000000    0.2288500000000000 C
   0.8230900000000000    0.2719500000000000    0.2288500000000000 C
   0.8231000000000001    0.7719700000000000    0.2288500000000000 C
   0.4334700000000000    0.2402600000000000    0.2262500000000000 C
   0.4334600000000000    0.7402400000000000    0.2262400000000000 C
   0.9334700000000000    0.2402600000000000    0.2262500000000000 C
   0.9334600000000000    0.7402400000000000    0.2262400000000000 C
   0.3804400000000000    0.2629500000000000    0.1937700000000000 C
   0.3804300000000000    0.7629500000000000    0.1937700000000000 C
   0.8804400000000000    0.2629500000000000    0.1937700000000000 C
   0.8804400000000000    0.7629500000000000    0.1937700000000000 C
   0.3851300000000000    0.2789500000000000    0.1226000000000000 C
   0.3851300000000000    0.7789500000000000    0.1225900000000000 C
   0.8851300000000000    0.2789500000000000    0.1226000000000000 C
   0.8851300000000000    0.7789500000000000    0.1225900000000000 C
   0.3309600000000000    0.0827000000000000    0.4897100000000000 C
   0.3309600000000000    0.5827100000000000    0.4897200000000000 C
   0.8309600000000000    0.0827000000000000    0.4897100000000000 C
   0.8309600000000000    0.5827100000000000    0.4897200000000000 C
   0.3932000000000000    0.0530000000000000    0.4730100000000000 C
   0.3931900000000000    0.5530100000000000    0.4730000000000000 C
   0.8932000000000000    0.0530000000000000    0.4730100000000000 C
   0.8931900000000000    0.5530100000000000    0.4730000000000000 C
   0.3953300000000000    0.0421500000000000    0.3984100000000000 C
   0.3953200000000000    0.5421400000000000    0.3984100000000000 C
   0.8953300000000000    0.0421500000000000    0.3984000000000000 C
   0.8953200000000000    0.5421400000000000    0.3984100000000000 C
   0.1170100000000000    0.0298900000000000    0.6008800000000000 C
   0.1170200000000000    0.5298700000000000    0.6008599999999999 C
   0.6170099999999999    0.0298900000000000    0.6008800000000000 C
   0.1217700000000000    0.0141300000000000    0.6721200000000001 C
   0.1217800000000000    0.5140700000000000    0.6720900000000000 C
   0.6217700000000000    0.0141300000000000    0.6721200000000001 C
   0.1791900000000000    0.5230800000000000    0.7070400000000000 C
   0.6792300000000000    0.0230300000000000    0.7070300000000000 C
   0.0730700000000000    0.4778900000000000    0.7712100000000000 C
   0.0730000000000000    0.9781100000000000    0.7713000000000000 C
   0.5730000000000000    0.9781100000000000    0.7713000000000000 C
   0.1835300000000000    0.0095800000000000    0.7735900000000000 C
   0.1834900000000000    0.5096100000000000    0.7736000000000000 C
   0.6835300000000000    0.0095800000000000    0.7735900000000000 C
   0.1305000000000000    0.4868600000000000    0.8061000000000000 C
   0.1304800000000000    0.9869599999999999    0.8062100000000000 C
   0.6304800000000000    0.9869599999999999    0.8062100000000000 C
   0.1352500000000000    0.4708100000000000    0.8773100000000000 C
   0.1352300000000000    0.9709000000000000    0.8773500000000000 C
   0.6352300000000000    0.9709000000000000    0.8773500000000000 C
   0.0810100000000000    0.1673100000000000    0.5103100000000000 C
   0.0810100000000000    0.6673200000000000    0.5103000000000000 C
   0.5810100000000000    0.1673100000000000    0.5103100000000000 C
   0.5810100000000000    0.6673200000000000    0.5103000000000000 C
   0.1433000000000000    0.1970000000000000    0.5270000000000000 C
   0.1432900000000000    0.6970200000000000    0.5269600000000000 C
   0.6433000000000000    0.1970000000000000    0.5270000000000000 C
   0.6432900000000000    0.6970200000000000    0.5269600000000000 C
   0.1454900000000000    0.2078300000000000    0.6016000000000000 C
   0.1454800000000000    0.7079100000000000    0.6015000000000000 C
   0.6454900000000000    0.2078300000000000    0.6016000000000000 C
   0.6454800000000001    0.7079000000000000    0.6015000000000000 C
   0.1327000000000000    0.4701900000000000    0.1008300000000000 C
   0.1327100000000000    0.9701900000000000    0.1008300000000000 C
   0.6327100000000000    0.4701900000000000    0.1008300000000000 C
   0.6327100000000000    0.9701900000000000    0.1008300000000000 C
   0.1279800000000000    0.4859300000000000    0.1720900000000000 C
   0.1279800000000000    0.9859300000000000    0.1721000000000000 C
   0.6279800000000000    0.4859300000000000    0.1720900000000000 C
   0.6279800000000000    0.9859300000000000    0.1721000000000000 C
   0.1811100000000000    0.0085100000000000    0.2046400000000000 C
   0.1810900000000000    0.5085700000000000    0.2046200000000000 C
   0.6811100000000000    0.0085100000000000    0.2046400000000000 C
   0.6810900000000000    0.5085700000000000    0.2046200000000000 C
   0.0706400000000000    0.4768400000000000    0.2071300000000000 C
   0.0706100000000000    0.9768900000000000    0.2071200000000000 C
   0.5706400000000000    0.4768400000000000    0.2071300000000000 C
   0.5706100000000000    0.9768900000000000    0.2071200000000000 C
   0.1768600000000000    0.0219600000000000    0.2712200000000000 C
   0.1768400000000000    0.5220200000000000    0.2712000000000000 C
   0.6768600000000000    0.0219600000000000    0.2712200000000000 C
   0.6768400000000000    0.5220200000000000    0.2712000000000000 C
   0.0664400000000000    0.4902200000000000    0.2737400000000000 C
   0.0664200000000000    0.9902600000000000    0.2737300000000000 C
   0.5664400000000001    0.4902200000000000    0.2737400000000000 C
   0.5664200000000000    0.9902600000000000    0.2737300000000000 C
   0.1194800000000000    0.0129500000000000    0.3062500000000000 C
   0.1194800000000000    0.5129600000000000    0.3062400000000000 C
   0.6194800000000000    0.0129500000000000    0.3062500000000000 C
   0.6194800000000000    0.5129600000000000    0.3062400000000000 C
   0.1148000000000000    0.0289500000000000    0.3774300000000000 C
   0.1147900000000000    0.5289500000000000    0.3774300000000000 C
   0.6148000000000000    0.0289500000000000    0.3774300000000000 C
   0.6147899999999999    0.5289600000000000    0.3774300000000000 C
   0.1690100000000000    0.3326900000000000    0.0102600000000000 C
   0.1690000000000000    0.8327100000000000    0.0102000000000000 C
   0.6690100000000000    0.3326900000000000    0.0102600000000000 C
   0.6690000000000000    0.8327100000000000    0.0102000000000000 C
   0.1067100000000000    0.3029800000000000    0.0268600000000000 C
   0.1067000000000000    0.8030200000000000    0.0269300000000000 C
   0.6067100000000000    0.3029800000000000    0.0268600000000000 C
   0.6067000000000000    0.8030200000000000    0.0269300000000000 C
   0.1043900000000000    0.2921700000000000    0.1014500000000000 C
   0.1043800000000000    0.7923200000000000    0.1015500000000000 C
   0.6043900000000000    0.2921700000000000    0.1014500000000000 C
   0.6043800000000000    0.7923200000000000    0.1015500000000000 C
   0.0628500000000000    0.5212700000000000    0.5722100000000000 O
   0.5628400000000000    0.0212900000000000    0.5722300000000000 O
   0.1891400000000000    0.4805100000000000    0.9063700000000000 O
   0.1891000000000000    0.9806600000000000    0.9064000000000000 O
   0.6891000000000000    0.9806600000000000    0.9064000000000000 O
   0.0862500000000000    0.4487900000000000    0.9029000000000000 O
   0.3331500000000000    0.3011200000000000    0.9251500000000000 O
   0.3331500000000000    0.8011300000000000    0.9251400000000000 O
   0.8331499999999999    0.3011200000000000    0.9251500000000000 O
   0.8331499999999999    0.8011300000000000    0.9251400000000000 O
   0.4367700000000000    0.2711600000000000    0.9278999999999999 O
   0.4367700000000000    0.7711800000000000    0.9278900000000000 O
   0.9367700000000000    0.2711600000000000    0.9278999999999999 O
   0.9367700000000000    0.7711800000000000    0.9278900000000000 O
   0.3110900000000000    0.2310300000000000    0.5934000000000000 O
   0.3111000000000000    0.7310600000000000    0.5933800000000000 O
   0.8111000000000000    0.2310300000000000    0.5930000000000000 O
   0.8111000000000000    0.7310600000000000    0.5933800000000000 O
   0.4137300000000000    0.1988400000000000    0.5970800000000001 O
   0.4137300000000000    0.6988600000000000    0.5970700000000000 O
   0.9137300000000000    0.1988400000000000    0.5970000000000000 O
   0.9137300000000000    0.6988600000000000    0.5970700000000000 O
   0.4120400000000000    0.3704500000000000    0.0142300000000000 O
   0.4120300000000000    0.8704600000000000    0.0142300000000000 O
   0.9120400000000000    0.3704500000000000    0.0142300000000000 O
   0.9120300000000000    0.8704600000000000    0.0142300000000000 O
   0.4720100000000000    0.4396100000000000    0.9779200000000000 O
   0.4720000000000000    0.9396099999999999    0.9779099999999999 O
   0.9720100000000000    0.4396100000000000    0.9779200000000000 O
   0.9720000000000000    0.9396099999999999    0.9779099999999999 O
   0.3023100000000000    0.4177700000000000    0.9967900000000000 O
   0.3023000000000000    0.9177800000000000    0.9967800000000000 O
   0.8023100000000000    0.4177700000000000    0.9967900000000000 O
   0.8023000000000000    0.9177800000000000    0.9967800000000000 O
   0.4168100000000000    0.1990200000000000    0.4251100000000000 O
   0.4168000000000000    0.6990200000000000    0.4251100000000000 O
   0.9168100000000000    0.1990200000000000    0.4251100000000000 O
   0.9167999999999999    0.6990200000000000    0.4251100000000000 O
   0.3131300000000000    0.2288300000000000    0.4278800000000000 O
   0.3131200000000000    0.7288400000000000    0.4278800000000000 O
   0.8131300000000000    0.2288300000000000    0.4278800000000000 O
   0.8131200000000000    0.7288400000000000    0.4278800000000000 O
   0.4389000000000000    0.2690200000000000    0.0934000000000000 O
   0.4389000000000000    0.7690200000000000    0.0934000000000000 O
   0.9389000000000000    0.2690200000000000    0.0934000000000000 O
   0.9389000000000000    0.7690200000000000    0.0934000000000000 O
   0.3362400000000000    0.3011500000000000    0.0970900000000000 O
   0.3362400000000000    0.8011500000000000    0.0970900000000000 O
   0.8362400000000000    0.3011500000000000    0.0970900000000000 O
   0.8362400000000000    0.8011500000000000    0.0970900000000000 O
   0.3380200000000000    0.1295300000000000    0.5141600000000000 O
   0.3380200000000000    0.6295400000000000    0.5141600000000000 O
   0.8380200000000000    0.1295300000000000    0.5141600000000000 O
   0.8380200000000000    0.6295400000000000    0.5141600000000000 O
   0.2779800000000000    0.0604000000000000    0.4778200000000000 O
   0.2779800000000000    0.5604100000000000    0.4778200000000000 O
   0.7779800000000000    0.0604000000000000    0.4778200000000000 O
   0.7779800000000000    0.5604100000000000    0.4778200000000000 O
   0.4477800000000000    0.0826400000000000    0.4949500000000000 O
   0.4477800000000000    0.5826500000000000    0.4949500000000000 O
   0.9477800000000000    0.0826400000000000    0.4949500000000000 O
   0.9477800000000000    0.5826500000000000    0.4949500000000000 O
   0.1666500000000000    0.0509500000000000    0.5748799999999999 O
   0.1666400000000000    0.5509600000000000    0.5748799999999999 O
   0.6666666666666666    0.0509500000000000    0.5748799999999999 O
   0.0628400000000000    0.0212900000000000    0.5722300000000000 O
   0.0862700000000000    0.9488100000000000    0.9029400000000000 O
   0.5862700000000000    0.9488100000000000    0.9029400000000000 O
   0.0880300000000000    0.1204800000000000    0.4858000000000000 O
   0.0880300000000000    0.6204900000000000    0.4858500000000000 O
   0.5880300000000001    0.1204800000000000    0.4858000000000000 O
   0.5880300000000001    0.6204900000000000    0.4858500000000000 O
   0.0280600000000000    0.1896000000000000    0.5222100000000000 O
   0.0280500000000000    0.6896000000000000    0.5222100000000000 O
   0.5280600000000000    0.1896000000000000    0.5222100000000000 O
   0.5280500000000000    0.6896000000000000    0.5222100000000000 O
   0.1978400000000000    0.1673700000000000    0.5050000000000000 O
   0.1978300000000000    0.6673700000000000    0.5050000000000000 O
   0.6978400000000000    0.1673700000000000    0.5050000000000000 O
   0.6978400000000000    0.6673700000000000    0.5050000000000000 O
   0.0831300000000000    0.4489800000000000    0.0748900000000000 O
   0.0831300000000000    0.9489900000000000    0.0748900000000000 O
   0.5831300000000000    0.4489900000000000    0.0748000000000000 O
   0.5831300000000000    0.9489900000000000    0.0748900000000000 O
   0.1867700000000000    0.4789600000000000    0.0720800000000000 O
   0.1867700000000000    0.9789600000000001    0.0720800000000000 O
   0.6867700000000000    0.4789600000000000    0.0720800000000000 O
   0.6867700000000000    0.9789600000000001    0.0720800000000000 O
   0.0610400000000000    0.0189800000000000    0.4066400000000000 O
   0.0610400000000000    0.5189900000000000    0.4066300000000000 O
   0.5610400000000000    0.0189800000000000    0.4066400000000000 O
   0.5610400000000000    0.5189900000000000    0.4066300000000000 O
   0.1637100000000000    0.0511800000000000    0.4029400000000000 O
   0.1637100000000000    0.5511900000000000    0.4029400000000000 O
   0.6637100000000000    0.0511800000000000    0.4029400000000000 O
   0.6637100000000000    0.5511900000000000    0.4029400000000000 O
   0.1620100000000000    0.3795000000000000    0.9858300000000000 O
   0.1620100000000000    0.8795200000000000    0.9858100000000000 O
   0.6620100000000000    0.3795000000000000    0.9858300000000000 O
   0.6620100000000000    0.8795200000000000    0.9858100000000000 O
   0.2219500000000000    0.3104100000000000    0.0221900000000000 O
   0.2219500000000000    0.8104200000000000    0.0222000000000000 O
   0.7219500000000000    0.3104100000000000    0.0221900000000000 O
   0.7219500000000000    0.8104200000000000    0.0222000000000000 O
   0.0521800000000000    0.3325800000000000    0.0048100000000000 O
   0.0521800000000000    0.8326000000000000    0.0048200000000000 O
   0.5521800000000000    0.3325800000000000    0.0048100000000000 O
   0.5521800000000000    0.8326000000000000    0.0048200000000000 O
