H6 O4
1.0
  27.3293960471419375    0.0000000000000000   -7.2003302492637502
  -4.6924087793611839   12.8293078953833053   -3.6120712579944607
   0.0000000000000000    0.0000000000000000   28.2659999999999982
H O
6 4
direct
   0.9182532614773279    0.4603902328104615    0.2981488122665652 H
   0.9004345165121936    0.1820365461484537    0.2810657603699797 H
   0.9034027368320444    0.3005585748864804    0.2764589459143927 H
   0.7698733232405912    0.1637658726184070    0.2018636858375346 H
   0.9090004802114731    0.1992611092256782    0.2189047361989178 H
   0.8497514394412141    0.1934221205560048    0.2235441693742216 H
   0.9258400000000000    0.4224200000000000    0.3215850000000000 O
   0.9132150000000000    0.2514500000000000    0.3067700000000000 O
   0.7888550000000000    0.1485100000000000    0.1784150000000000 O
   0.8743150000000000    0.1736800000000000    0.1932000000000000 O
