H6 C3 N6
1.0
  27.3293960471419375    0.0000000000000000   -7.2003302492637502
  -4.6924087793611839   12.8293078953833053   -3.6120712579944607
   0.0000000000000000    0.0000000000000000   28.2659999999999982
H C N
6 3 6
direct
   0.1990400000000000    0.1907400000000000    0.2391000000000000 H
   0.0952450000000000    0.4780200000000000    0.1989700000000000 H
   0.2390450000000000    0.3979600000000000    0.0952450000000000 H
   0.0952650000000000    0.3979900000000000    0.2390700000000000 H
   0.2390950000000000    0.1907300000000000    0.1990350000000000 H
   0.1989600000000000    0.4780100000000000    0.0952300000000000 H
   0.1941400000000000    0.2845900000000000    0.1941500000000000 C
   0.1422300000000000    0.3882100000000000    0.1941150000000000 C
   0.1941000000000000    0.3881900000000000    0.1422200000000000 C
   0.1587750000000000    0.3175900000000000    0.2123650000000000 N
   0.1587150000000000    0.4245600000000000    0.1587200000000000 N
   0.2123400000000000    0.3175600000000000    0.1587600000000000 N
   0.2116250000000000    0.2162700000000000    0.2116300000000000 N
   0.1080150000000000    0.4230900000000000    0.2115600000000000 N
   0.2115450000000000    0.4230700000000000    0.1080050000000000 N
