H2 C3 O4
1.0
  27.3293960471419375    0.0000000000000000   -7.2003302492637502
  -4.6924087793611839   12.8293078953833053   -3.6120712579944607
   0.0000000000000000    0.0000000000000000   28.2659999999999982
H C O
2 3 4
direct
   0.8190200000000001    0.2924400000000000    0.2655050000000000 H
   0.8537300000000000    0.3620900000000000    0.2346500000000000 H
   0.9010800000000000    0.3258800000000000    0.2957000000000000 C
   0.8371100000000000    0.1979700000000000    0.2043200000000000 C
   0.8512550000000000    0.2975500000000000    0.2500500000000000 C
   0.9258400000000000    0.4224200000000000    0.3215850000000000 O
   0.9132150000000000    0.2514500000000000    0.3067700000000000 O
   0.7888550000000000    0.1485100000000000    0.1784150000000000 O
   0.8743150000000000    0.1736800000000000    0.1932000000000000 O
