H1 O1
1.0
  27.3293960471419375    0.0000000000000000   -7.2003302492637502
  -4.6924087793611839   12.8293078953833053   -3.6120712579944607
   0.0000000000000000    0.0000000000000000   28.2659999999999982
H O
1 1
direct
   0.1841528369322760    0.2939092812451546    0.1992939608448633 H
   0.1587750000000000    0.3175900000000000    0.2123650000000000 O
