Ag48 H222 C141 N192 O60
1.0
  27.3293960471419375    0.0000000000000000   -7.2003302492637502
  -4.6924087793611839   12.8293078953833053   -3.6120712579944607
   0.0000000000000000    0.0000000000000000   28.2659999999999982
Ag H C N O
48 222 141 192 60
direct
   0.1377200000000000    0.7245300000000000    0.2000000000000000 Ag
   0.2606250000000000    0.7870600000000000    0.3935550000000000 Ag
   0.3936050000000000    0.5215400000000000    0.3936150000000000 Ag
   0.1064850000000000    0.2129700000000000    0.2394750000000000 Ag
   0.1064000000000000    0.4784300000000000    0.1063950000000000 Ag
   0.2393800000000000    0.2129100000000000    0.1064550000000000 Ag
   0.4999950000000000    0.2753800000000000    0.3623300000000000 Ag
   0.3623850000000000    0.0000100000000000    0.1376050000000000 Ag
   0.0000100000000000    0.7245900000000000    0.1376800000000000 Ag
   0.1376200000000000    0.9999900000000000    0.3624050000000000 Ag
   0.3622800000000000    0.2754400000000000    0.4999900000000000 Ag
   0.3935200000000000    0.7870000000000000    0.2605350000000000 Ag
   0.6377200000000001    0.7245300000000000    0.2000000000000000 Ag
   0.7606250000000000    0.7870600000000000    0.3935550000000000 Ag
   0.8936050000000000    0.5215400000000000    0.3936150000000000 Ag
   0.6064849999999999    0.2129700000000000    0.2394750000000000 Ag
   0.6064000000000001    0.4784300000000000    0.1063950000000000 Ag
   0.7393800000000000    0.2129100000000000    0.1064550000000000 Ag
   0.9999950000000000    0.2753800000000000    0.3623300000000000 Ag
   0.8623850000000000    0.0000100000000000    0.1376050000000000 Ag
   0.5000100000000000    0.7245900000000000    0.1376800000000000 Ag
   0.6376200000000000    0.9999900000000000    0.3624050000000000 Ag
   0.8622799999999999    0.2754400000000000    0.4999900000000000 Ag
   0.8935200000000000    0.7870000000000000    0.2605350000000000 Ag
   0.1377200000000000    0.7245300000000000    0.7000000000000000 Ag
   0.2606250000000000    0.7870600000000000    0.8935550000000000 Ag
   0.3936050000000000    0.5215400000000000    0.8936150000000000 Ag
   0.1064850000000000    0.2129700000000000    0.7394750000000000 Ag
   0.1064000000000000    0.4784300000000000    0.6063950000000000 Ag
   0.2393800000000000    0.2129100000000000    0.6064550000000000 Ag
   0.4999950000000000    0.2753800000000000    0.8623300000000000 Ag
   0.3623850000000000    0.0000100000000000    0.6376050000000000 Ag
   0.0000100000000000    0.7245900000000000    0.6376800000000000 Ag
   0.1376200000000000    0.9999900000000000    0.8624050000000000 Ag
   0.3622800000000000    0.2754400000000000    0.9999899999999999 Ag
   0.3935200000000000    0.7870000000000000    0.7605350000000000 Ag
   0.6377200000000001    0.7245300000000000    0.7000000000000000 Ag
   0.7606250000000000    0.7870600000000000    0.8935550000000000 Ag
   0.8936050000000000    0.5215400000000000    0.8936150000000000 Ag
   0.6064849999999999    0.2129700000000000    0.7394750000000000 Ag
   0.6064000000000001    0.4784300000000000    0.6063950000000000 Ag
   0.7393800000000000    0.2129100000000000    0.6064550000000000 Ag
   0.9999950000000000    0.2753800000000000    0.8623300000000000 Ag
   0.8623850000000000    0.0000100000000000    0.6376050000000000 Ag
   0.5000100000000000    0.7245900000000000    0.6376800000000000 Ag
   0.6376200000000000    0.9999900000000000    0.8624050000000000 Ag
   0.8622799999999999    0.2754400000000000    0.9999899999999999 Ag
   0.8935200000000000    0.7870000000000000    0.7605350000000000 Ag
   0.4107400000000000    0.1064800000000000    0.2871850000000000 H
   0.3818050000000000    0.9710100000000000    0.2537950000000000 H
   0.4047450000000000    0.6019800000000000    0.2609400000000000 H
   0.0876900000000000    0.2542000000000000    0.3724250000000000 H
   0.2871900000000000    0.8212500000000000    0.0532200000000000 H
   0.2538400000000000    0.7633700000000000    0.4855450000000000 H
   0.2609100000000000    0.8092500000000000    0.3009500000000000 H
   0.3723850000000000    0.1753600000000000    0.1270400000000000 H
   0.3190200000000000    0.2924400000000000    0.2655050000000000 H
   0.0532500000000000    0.5744000000000000    0.4107000000000000 H
   0.4855350000000000    0.5077700000000001    0.3817650000000000 H
   0.3010450000000000    0.5219700000000000    0.4047800000000000 H
   0.1270650000000000    0.7444900000000000    0.0876350000000000 H
   0.4467700000000000    0.1786600000000000    0.2128150000000000 H
   0.0144650000000000    0.2365400000000000    0.2462000000000000 H
   0.1990400000000000    0.1907400000000000    0.2391000000000000 H
   0.3729300000000000    0.8245800000000000    0.1275750000000000 H
   0.0893650000000000    0.4256000000000000    0.4467750000000000 H
   0.1183000000000000    0.4922100000000000    0.0144600000000000 H
   0.0952450000000000    0.4780200000000000    0.1989700000000000 H
   0.4123650000000000    0.2554700000000000    0.3729650000000000 H
   0.3537300000000000    0.3620900000000000    0.2346500000000000 H
   0.2128150000000000    0.8934900000000000    0.0892500000000000 H
   0.2461700000000000    0.0289700000000000    0.1181850000000000 H
   0.2390450000000000    0.3979600000000000    0.0952450000000000 H
   0.1276400000000000    0.7457900000000000    0.4123500000000000 H
   0.2346800000000000    0.3621100000000000    0.3537000000000000 H
   0.0892650000000000    0.8934900000000000    0.2128250000000000 H
   0.1182000000000000    0.0289600000000000    0.2462150000000000 H
   0.0952650000000000    0.3979900000000000    0.2390700000000000 H
   0.4123150000000000    0.7457800000000000    0.1275850000000000 H
   0.3536500000000000    0.4690100000000000    0.1810000000000000 H
   0.2128150000000000    0.1787200000000000    0.4467900000000000 H
   0.2461650000000000    0.2366100000000000    0.0144650000000000 H
   0.2390950000000000    0.1907300000000000    0.1990350000000000 H
   0.1276250000000000    0.8246200000000000    0.3729500000000000 H
   0.1809850000000000    0.7075500000000000    0.2345000000000000 H
   0.4467550000000000    0.4255800000000000    0.0893100000000000 H
   0.0144700000000000    0.4922000000000000    0.1182450000000000 H
   0.1989600000000000    0.4780100000000000    0.0952300000000000 H
   0.3729400000000000    0.2554800000000000    0.4123750000000000 H
   0.3189600000000000    0.5308400000000000    0.1463350000000000 H
   0.0532350000000000    0.8213200000000001    0.2871950000000000 H
   0.4855400000000000    0.7634300000000001    0.2538000000000000 H
   0.3009650000000000    0.8092400000000000    0.2609000000000000 H
   0.1270750000000000    0.1753900000000000    0.3724350000000000 H
   0.2655550000000000    0.2925300000000000    0.3190600000000000 H
   0.4106450000000000    0.5743700000000000    0.0532000000000000 H
   0.3817100000000000    0.5077600000000000    0.4855500000000000 H
   0.4047600000000000    0.5219600000000000    0.3010000000000000 H
   0.0876450000000000    0.7445000000000001    0.1270450000000000 H
   0.1462800000000000    0.6378800000000000    0.2653300000000000 H
   0.2871900000000000    0.1064900000000000    0.4107600000000000 H
   0.2538350000000000    0.9710000000000000    0.3818250000000000 H
   0.2609600000000000    0.6020100000000000    0.4047650000000000 H
   0.3723700000000000    0.2541800000000000    0.0876500000000000 H
   0.9107400000000000    0.1064800000000000    0.2871850000000000 H
   0.8818049999999999    0.9710100000000000    0.2537950000000000 H
   0.9047450000000000    0.6019800000000000    0.2609400000000000 H
   0.5876900000000000    0.2542000000000000    0.3724250000000000 H
   0.7871900000000001    0.8212500000000000    0.0532200000000000 H
   0.7538400000000001    0.7633700000000000    0.4855450000000000 H
   0.7609100000000000    0.8092500000000000    0.3009500000000000 H
   0.8723850000000000    0.1753600000000000    0.1270400000000000 H
   0.5532500000000000    0.5744000000000000    0.4107000000000000 H
   0.9855350000000000    0.5077700000000001    0.3817650000000000 H
   0.8010450000000000    0.5219700000000000    0.4047800000000000 H
   0.6270650000000000    0.7444900000000000    0.0876350000000000 H
   0.9467700000000000    0.1786600000000000    0.2128150000000000 H
   0.5144650000000000    0.2365400000000000    0.2462000000000000 H
   0.6990400000000000    0.1907400000000000    0.2391000000000000 H
   0.8729300000000000    0.8245800000000000    0.1275750000000000 H
   0.5893650000000000    0.4256000000000000    0.4467750000000000 H
   0.6183000000000000    0.4922100000000000    0.0144600000000000 H
   0.5952450000000000    0.4780200000000000    0.1989700000000000 H
   0.9123650000000000    0.2554700000000000    0.3729650000000000 H
   0.7128150000000000    0.8934900000000000    0.0892500000000000 H
   0.7461700000000000    0.0289700000000000    0.1181850000000000 H
   0.7390450000000000    0.3979600000000000    0.0952450000000000 H
   0.6276400000000000    0.7457900000000000    0.4123500000000000 H
   0.7346800000000000    0.3621100000000000    0.3537000000000000 H
   0.5892650000000000    0.8934900000000000    0.2128250000000000 H
   0.6182000000000000    0.0289600000000000    0.2462150000000000 H
   0.5952650000000000    0.3979900000000000    0.2390700000000000 H
   0.9123150000000000    0.7457800000000000    0.1275850000000000 H
   0.8536500000000000    0.4690100000000000    0.1810000000000000 H
   0.7128150000000000    0.1787200000000000    0.4467900000000000 H
   0.7461650000000000    0.2366100000000000    0.0144650000000000 H
   0.7390950000000001    0.1907300000000000    0.1990350000000000 H
   0.6276250000000000    0.8246200000000000    0.3729500000000000 H
   0.6809850000000000    0.7075500000000000    0.2345000000000000 H
   0.9467550000000000    0.4255800000000000    0.0893100000000000 H
   0.5144700000000000    0.4922000000000000    0.1182450000000000 H
   0.6989600000000000    0.4780100000000000    0.0952300000000000 H
   0.8729400000000000    0.2554800000000000    0.4123750000000000 H
   0.8189600000000000    0.5308400000000000    0.1463350000000000 H
   0.5532350000000000    0.8213200000000001    0.2871950000000000 H
   0.9855400000000001    0.7634300000000001    0.2538000000000000 H
   0.8009649999999999    0.8092400000000000    0.2609000000000000 H
   0.6270750000000000    0.1753900000000000    0.3724350000000000 H
   0.7655550000000000    0.2925300000000000    0.3190600000000000 H
   0.9106449999999999    0.5743700000000000    0.0532000000000000 H
   0.8817100000000000    0.5077600000000000    0.4855500000000000 H
   0.9047600000000000    0.5219600000000000    0.3010000000000000 H
   0.5876450000000000    0.7445000000000001    0.1270450000000000 H
   0.6462800000000000    0.6378800000000000    0.2653300000000000 H
   0.7871900000000001    0.1064900000000000    0.4107600000000000 H
   0.7538350000000000    0.9710000000000000    0.3818250000000000 H
   0.7609600000000001    0.6020100000000000    0.4047650000000000 H
   0.8723700000000000    0.2541800000000000    0.0876500000000000 H
   0.4107400000000000    0.1064800000000000    0.7871850000000000 H
   0.3818050000000000    0.9710100000000000    0.7537950000000000 H
   0.4047450000000000    0.6019800000000000    0.7609399999999999 H
   0.0876900000000000    0.2542000000000000    0.8724250000000000 H
   0.2871900000000000    0.8212500000000000    0.5532200000000000 H
   0.2538400000000000    0.7633700000000000    0.9855450000000000 H
   0.2609100000000000    0.8092500000000000    0.8009500000000001 H
   0.3723850000000000    0.1753600000000000    0.6270400000000000 H
   0.3190200000000000    0.2924400000000000    0.7655050000000000 H
   0.0532500000000000    0.5744000000000000    0.9107000000000001 H
   0.4855350000000000    0.5077700000000001    0.8817650000000000 H
   0.3010450000000000    0.5219700000000000    0.9047799999999999 H
   0.1270650000000000    0.7444900000000000    0.5876350000000000 H
   0.4467700000000000    0.1786600000000000    0.7128150000000000 H
   0.0144650000000000    0.2365400000000000    0.7462000000000000 H
   0.1990400000000000    0.1907400000000000    0.7391000000000000 H
   0.3729300000000000    0.8245800000000000    0.6275750000000000 H
   0.0893650000000000    0.4256000000000000    0.9467749999999999 H
   0.1183000000000000    0.4922100000000000    0.5144600000000000 H
   0.0952450000000000    0.4780200000000000    0.6989700000000000 H
   0.4123650000000000    0.2554700000000000    0.8729650000000000 H
   0.3537300000000000    0.3620900000000000    0.7346500000000000 H
   0.2128150000000000    0.8934900000000000    0.5892500000000001 H
   0.2461700000000000    0.0289700000000000    0.6181850000000000 H
   0.2390450000000000    0.3979600000000000    0.5952450000000000 H
   0.1276400000000000    0.7457900000000000    0.9123500000000000 H
   0.2346800000000000    0.3621100000000000    0.8537000000000000 H
   0.0892650000000000    0.8934900000000000    0.7128250000000000 H
   0.1182000000000000    0.0289600000000000    0.7462150000000000 H
   0.0952650000000000    0.3979900000000000    0.7390700000000000 H
   0.4123150000000000    0.7457800000000000    0.6275850000000001 H
   0.3536500000000000    0.4690100000000000    0.6810000000000000 H
   0.2128150000000000    0.1787200000000000    0.9467900000000000 H
   0.2461650000000000    0.2366100000000000    0.5144650000000000 H
   0.2390950000000000    0.1907300000000000    0.6990350000000000 H
   0.1276250000000000    0.8246200000000000    0.8729500000000000 H
   0.1809850000000000    0.7075500000000000    0.7344999999999999 H
   0.4467550000000000    0.4255800000000000    0.5893100000000000 H
   0.0144700000000000    0.4922000000000000    0.6182450000000000 H
   0.1989600000000000    0.4780100000000000    0.5952300000000000 H
   0.3729400000000000    0.2554800000000000    0.9123749999999999 H
   0.3189600000000000    0.5308400000000000    0.6463350000000000 H
   0.0532350000000000    0.8213200000000001    0.7871950000000000 H
   0.4855400000000000    0.7634300000000001    0.7538000000000000 H
   0.3009650000000000    0.8092400000000000    0.7609000000000000 H
   0.1270750000000000    0.1753900000000000    0.8724350000000001 H
   0.2655550000000000    0.2925300000000000    0.8190600000000000 H
   0.4106450000000000    0.5743700000000000    0.5532000000000000 H
   0.3817100000000000    0.5077600000000000    0.9855499999999999 H
   0.4047600000000000    0.5219600000000000    0.8009999999999999 H
   0.0876450000000000    0.7445000000000001    0.6270450000000000 H
   0.1462800000000000    0.6378800000000000    0.7653300000000001 H
   0.2871900000000000    0.1064900000000000    0.9107600000000000 H
   0.2538350000000000    0.9710000000000000    0.8818250000000001 H
   0.2609600000000000    0.6020100000000000    0.9047650000000000 H
   0.3723700000000000    0.2541800000000000    0.5876500000000000 H
   0.9107400000000000    0.1064800000000000    0.7871850000000000 H
   0.8818049999999999    0.9710100000000000    0.7537950000000000 H
   0.9047450000000000    0.6019800000000000    0.7609399999999999 H
   0.5876900000000000    0.2542000000000000    0.8724250000000000 H
   0.7871900000000001    0.8212500000000000    0.5532200000000000 H
   0.7538400000000001    0.7633700000000000    0.9855450000000000 H
   0.7609100000000000    0.8092500000000000    0.8009500000000001 H
   0.8723850000000000    0.1753600000000000    0.6270400000000000 H
   0.8190200000000001    0.2924400000000000    0.7655050000000000 H
   0.5532500000000000    0.5744000000000000    0.9107000000000001 H
   0.9855350000000000    0.5077700000000001    0.8817650000000000 H
   0.8010450000000000    0.5219700000000000    0.9047799999999999 H
   0.6270650000000000    0.7444900000000000    0.5876350000000000 H
   0.9467700000000000    0.1786600000000000    0.7128150000000000 H
   0.5144650000000000    0.2365400000000000    0.7462000000000000 H
   0.6990400000000000    0.1907400000000000    0.7391000000000000 H
   0.8729300000000000    0.8245800000000000    0.6275750000000000 H
   0.5893650000000000    0.4256000000000000    0.9467749999999999 H
   0.6183000000000000    0.4922100000000000    0.5144600000000000 H
   0.5952450000000000    0.4780200000000000    0.6989700000000000 H
   0.9123650000000000    0.2554700000000000    0.8729650000000000 H
   0.8537300000000000    0.3620900000000000    0.7346500000000000 H
   0.7128150000000000    0.8934900000000000    0.5892500000000001 H
   0.7461700000000000    0.0289700000000000    0.6181850000000000 H
   0.7390450000000000    0.3979600000000000    0.5952450000000000 H
   0.6276400000000000    0.7457900000000000    0.9123500000000000 H
   0.7346800000000000    0.3621100000000000    0.8537000000000000 H
   0.5892650000000000    0.8934900000000000    0.7128250000000000 H
   0.6182000000000000    0.0289600000000000    0.7462150000000000 H
   0.5952650000000000    0.3979900000000000    0.7390700000000000 H
   0.9123150000000000    0.7457800000000000    0.6275850000000001 H
   0.8536500000000000    0.4690100000000000    0.6810000000000000 H
   0.7128150000000000    0.1787200000000000    0.9467900000000000 H
   0.7461650000000000    0.2366100000000000    0.5144650000000000 H
   0.7390950000000001    0.1907300000000000    0.6990350000000000 H
   0.6276250000000000    0.8246200000000000    0.8729500000000000 H
   0.6809850000000000    0.7075500000000000    0.7344999999999999 H
   0.9467550000000000    0.4255800000000000    0.5893100000000000 H
   0.5144700000000000    0.4922000000000000    0.6182450000000000 H
   0.6989600000000000    0.4780100000000000    0.5952300000000000 H
   0.8729400000000000    0.2554800000000000    0.9123749999999999 H
   0.8189600000000000    0.5308400000000000    0.6463350000000000 H
   0.5532350000000000    0.8213200000000001    0.7871950000000000 H
   0.9855400000000001    0.7634300000000001    0.7538000000000000 H
   0.8009649999999999    0.8092400000000000    0.7609000000000000 H
   0.6270750000000000    0.1753900000000000    0.8724350000000001 H
   0.7655550000000000    0.2925300000000000    0.8190600000000000 H
   0.9106449999999999    0.5743700000000000    0.5532000000000000 H
   0.8817100000000000    0.5077600000000000    0.9855499999999999 H
   0.9047600000000000    0.5219600000000000    0.8009999999999999 H
   0.5876450000000000    0.7445000000000001    0.6270450000000000 H
   0.6462800000000000    0.6378800000000000    0.7653300000000001 H
   0.7871900000000001    0.1064900000000000    0.9107600000000000 H
   0.7538350000000000    0.9710000000000000    0.8818250000000001 H
   0.7609600000000001    0.6020100000000000    0.9047650000000000 H
   0.8723700000000000    0.2541800000000000    0.5876500000000000 H
   0.4597350000000000    0.0233100000000000    0.2973000000000000 C
   0.2973200000000000    0.9193300000000000    0.0116500000000000 C
   0.0116600000000000    0.5946500000000000    0.4597250000000000 C
   0.4010800000000000    0.3258800000000000    0.2957000000000000 C
   0.4883450000000000    0.0806000000000000    0.2027000000000000 C
   0.0403200000000000    0.4053400000000000    0.4883550000000000 C
   0.2026900000000000    0.9766700000000000    0.0402600000000000 C
   0.3371100000000000    0.1979700000000000    0.2043200000000000 C
   0.0402700000000000    0.9766700000000000    0.2027100000000000 C
   0.2043250000000000    0.1979900000000000    0.3371200000000000 C
   0.2026850000000000    0.0806400000000000    0.4883600000000000 C
   0.3370450000000000    0.4086300000000000    0.0989650000000000 C
   0.4883450000000000    0.4053300000000000    0.0402850000000000 C
   0.0989250000000000    0.6741000000000000    0.2043100000000000 C
   0.0116600000000000    0.9193700000000000    0.2973100000000000 C
   0.4010250000000000    0.5913100000000000    0.1629300000000000 C
   0.4596850000000000    0.5946399999999999    0.0116550000000000 C
   0.2957050000000000    0.3259200000000000    0.4010500000000000 C
   0.2973150000000000    0.0233000000000000    0.4597500000000000 C
   0.1628950000000000    0.8020000000000000    0.2956900000000000 C
   0.0485300000000000    0.0970700000000000    0.3396150000000000 C
   0.3395800000000000    0.0970500000000000    0.0485150000000000 C
   0.0485150000000000    0.6789900000000000    0.0485000000000000 C
   0.4514750000000000    0.9029000000000000    0.1603950000000000 C
   0.4514900000000000    0.3209900000000000    0.4500000000000000 C
   0.1604300000000000    0.9029199999999999    0.4514950000000000 C
   0.3512550000000000    0.2975500000000000    0.2500500000000000 C
   0.2500700000000000    0.2976000000000000    0.3512650000000000 C
   0.3511750000000000    0.4999500000000000    0.1488000000000000 C
   0.1487550000000000    0.7024200000000000    0.2499500000000000 C
   0.3577800000000000    0.6117600000000000    0.3058950000000000 C
   0.3058650000000000    0.7153900000000000    0.3058600000000000 C
   0.3059050000000000    0.6117800000000000    0.3577900000000000 C
   0.1941400000000000    0.2845900000000000    0.1941500000000000 C
   0.1422300000000000    0.3882100000000000    0.1941150000000000 C
   0.1941000000000000    0.3881900000000000    0.1422200000000000 C
   0.9597350000000000    0.0233100000000000    0.2973000000000000 C
   0.7973200000000000    0.9193300000000000    0.0116500000000000 C
   0.5116600000000000    0.5946500000000000    0.4597250000000000 C
   0.9883450000000000    0.0806000000000000    0.2027000000000000 C
   0.5403200000000000    0.4053400000000000    0.4883550000000000 C
   0.7026900000000000    0.9766700000000000    0.0402600000000000 C
   0.5402700000000000    0.9766700000000000    0.2027100000000000 C
   0.7043250000000000    0.1979900000000000    0.3371200000000000 C
   0.7026850000000000    0.0806400000000000    0.4883600000000000 C
   0.8370450000000000    0.4086300000000000    0.0989650000000000 C
   0.9883450000000000    0.4053300000000000    0.0402850000000000 C
   0.5989250000000000    0.6741000000000000    0.2043100000000000 C
   0.5116600000000000    0.9193700000000000    0.2973100000000000 C
   0.9010250000000000    0.5913100000000000    0.1629300000000000 C
   0.9596850000000000    0.5946399999999999    0.0116550000000000 C
   0.7957050000000000    0.3259200000000000    0.4010500000000000 C
   0.7973150000000000    0.0233000000000000    0.4597500000000000 C
   0.6628950000000000    0.8020000000000000    0.2956900000000000 C
   0.5485300000000000    0.0970700000000000    0.3396150000000000 C
   0.8395800000000000    0.0970500000000000    0.0485150000000000 C
   0.5485150000000000    0.6789900000000000    0.0485000000000000 C
   0.9514750000000001    0.9029000000000000    0.1603950000000000 C
   0.9514899999999999    0.3209900000000000    0.4500000000000000 C
   0.6604300000000000    0.9029199999999999    0.4514950000000000 C
   0.7500700000000000    0.2976000000000000    0.3512650000000000 C
   0.8511750000000000    0.4999500000000000    0.1488000000000000 C
   0.6487550000000000    0.7024200000000000    0.2499500000000000 C
   0.8577800000000000    0.6117600000000000    0.3058950000000000 C
   0.8058650000000001    0.7153900000000000    0.3058600000000000 C
   0.8059050000000000    0.6117800000000000    0.3577900000000000 C
   0.6941400000000000    0.2845900000000000    0.1941500000000000 C
   0.6422300000000000    0.3882100000000000    0.1941150000000000 C
   0.6940999999999999    0.3881900000000000    0.1422200000000000 C
   0.4597350000000000    0.0233100000000000    0.7973000000000000 C
   0.2973200000000000    0.9193300000000000    0.5116500000000000 C
   0.0116600000000000    0.5946500000000000    0.9597249999999999 C
   0.4010800000000000    0.3258800000000000    0.7957000000000001 C
   0.4883450000000000    0.0806000000000000    0.7027000000000000 C
   0.0403200000000000    0.4053400000000000    0.9883550000000000 C
   0.2026900000000000    0.9766700000000000    0.5402600000000000 C
   0.3371100000000000    0.1979700000000000    0.7043200000000001 C
   0.0402700000000000    0.9766700000000000    0.7027099999999999 C
   0.2043250000000000    0.1979900000000000    0.8371200000000000 C
   0.2026850000000000    0.0806400000000000    0.9883600000000000 C
   0.3370450000000000    0.4086300000000000    0.5989650000000000 C
   0.4883450000000000    0.4053300000000000    0.5402850000000000 C
   0.0989250000000000    0.6741000000000000    0.7043100000000000 C
   0.0116600000000000    0.9193700000000000    0.7973100000000000 C
   0.4010250000000000    0.5913100000000000    0.6629300000000000 C
   0.4596850000000000    0.5946399999999999    0.5116550000000000 C
   0.2957050000000000    0.3259200000000000    0.9010500000000000 C
   0.2973150000000000    0.0233000000000000    0.9597500000000000 C
   0.1628950000000000    0.8020000000000000    0.7956900000000000 C
   0.0485300000000000    0.0970700000000000    0.8396150000000000 C
   0.3395800000000000    0.0970500000000000    0.5485150000000000 C
   0.0485150000000000    0.6789900000000000    0.5485000000000000 C
   0.4514750000000000    0.9029000000000000    0.6603950000000001 C
   0.4514900000000000    0.3209900000000000    0.9500000000000000 C
   0.1604300000000000    0.9029199999999999    0.9514950000000000 C
   0.3512550000000000    0.2975500000000000    0.7500500000000000 C
   0.2500700000000000    0.2976000000000000    0.8512649999999999 C
   0.3511750000000000    0.4999500000000000    0.6488000000000000 C
   0.1487550000000000    0.7024200000000000    0.7499500000000000 C
   0.3577800000000000    0.6117600000000000    0.8058950000000000 C
   0.3058650000000000    0.7153900000000000    0.8058600000000000 C
   0.3059050000000000    0.6117800000000000    0.8577900000000001 C
   0.1941400000000000    0.2845900000000000    0.6941500000000000 C
   0.1422300000000000    0.3882100000000000    0.6941150000000000 C
   0.1941000000000000    0.3881900000000000    0.6422200000000000 C
   0.9597350000000000    0.0233100000000000    0.7973000000000000 C
   0.7973200000000000    0.9193300000000000    0.5116500000000000 C
   0.5116600000000000    0.5946500000000000    0.9597249999999999 C
   0.9010800000000000    0.3258800000000000    0.7957000000000001 C
   0.9883450000000000    0.0806000000000000    0.7027000000000000 C
   0.5403200000000000    0.4053400000000000    0.9883550000000000 C
   0.7026900000000000    0.9766700000000000    0.5402600000000000 C
   0.8371100000000000    0.1979700000000000    0.7043200000000001 C
   0.5402700000000000    0.9766700000000000    0.7027099999999999 C
   0.7043250000000000    0.1979900000000000    0.8371200000000000 C
   0.7026850000000000    0.0806400000000000    0.9883600000000000 C
   0.8370450000000000    0.4086300000000000    0.5989650000000000 C
   0.9883450000000000    0.4053300000000000    0.5402850000000000 C
   0.5989250000000000    0.6741000000000000    0.7043100000000000 C
   0.5116600000000000    0.9193700000000000    0.7973100000000000 C
   0.9010250000000000    0.5913100000000000    0.6629300000000000 C
   0.9596850000000000    0.5946399999999999    0.5116550000000000 C
   0.7957050000000000    0.3259200000000000    0.9010500000000000 C
   0.7973150000000000    0.0233000000000000    0.9597500000000000 C
   0.6628950000000000    0.8020000000000000    0.7956900000000000 C
   0.5485300000000000    0.0970700000000000    0.8396150000000000 C
   0.8395800000000000    0.0970500000000000    0.5485150000000000 C
   0.5485150000000000    0.6789900000000000    0.5485000000000000 C
   0.9514750000000001    0.9029000000000000    0.6603950000000001 C
   0.9514899999999999    0.3209900000000000    0.9500000000000000 C
   0.6604300000000000    0.9029199999999999    0.9514950000000000 C
   0.8512550000000000    0.2975500000000000    0.7500500000000000 C
   0.7500700000000000    0.2976000000000000    0.8512649999999999 C
   0.8511750000000000    0.4999500000000000    0.6488000000000000 C
   0.6487550000000000    0.7024200000000000    0.7499500000000000 C
   0.8577800000000000    0.6117600000000000    0.8058950000000000 C
   0.8058650000000001    0.7153900000000000    0.8058600000000000 C
   0.8059050000000000    0.6117800000000000    0.8577900000000001 C
   0.6941400000000000    0.2845900000000000    0.6941500000000000 C
   0.6422300000000000    0.3882100000000000    0.6941150000000000 C
   0.6940999999999999    0.3881900000000000    0.6422200000000000 C
   0.4128450000000000    0.0331800000000000    0.2817800000000000 N
   0.0017100000000000    0.1104400000000000    0.3261150000000000 N
   0.2818050000000000    0.8254899999999999    0.0165850000000000 N
   0.3261050000000000    0.0033400000000000    0.0550000000000000 N
   0.0166050000000000    0.5636900000000000    0.4128200000000000 N
   0.0552150000000000    0.6520700000000000    0.0016800000000000 N
   0.4834100000000000    0.1744200000000000    0.2182250000000000 N
   0.4447950000000000    0.9966000000000000    0.1738800000000000 N
   0.0872400000000000    0.4363000000000000    0.4834100000000000 N
   0.4983400000000000    0.3479000000000000    0.4448050000000000 N
   0.2181950000000000    0.9667900000000000    0.0870000000000000 N
   0.1739200000000000    0.8895300000000000    0.4983100000000000 N
   0.0871600000000000    0.9668000000000000    0.2182300000000000 N
   0.4982950000000000    0.8895300000000000    0.1738950000000000 N
   0.2182000000000000    0.1744800000000000    0.4834250000000000 N
   0.1739000000000000    0.9966300000000000    0.4448000000000000 N
   0.4834000000000000    0.4362800000000000    0.0871900000000000 N
   0.4447900000000000    0.3479000000000000    0.4983300000000000 N
   0.0165950000000000    0.8255500000000000    0.2817850000000000 N
   0.0552100000000000    0.0033800000000000    0.3261300000000000 N
   0.4127650000000000    0.5636700000000000    0.0165000000000000 N
   0.0016650000000000    0.6520800000000000    0.0552050000000000 N
   0.2818100000000000    0.0331800000000000    0.4128500000000000 N
   0.3260850000000000    0.1104400000000000    0.0017000000000000 N
   0.4629100000000000    0.9257400000000000    0.2833300000000000 N