H4 C8 N8
1.0
  19.8239999516901158    0.0000000000000000    0.0013839762825392
   2.4703262274487576   17.1217081205510908    0.0006038490144819
   0.0000000000000000    0.0000000000000000   18.3810000000000002
H C N
4 8 8
direct
   0.5326266666666666    0.8428200000000000    0.3642400000000000 H
   0.5618400000000000    0.6229200000000000    0.2515300000000000 H
   0.4517066666666666    0.6599000000000000    0.1869300000000000 H
   0.4232933333333333    0.8808600000000000    0.2977200000000000 H
   0.6180699999999999    0.7056500000000000    0.3515800000000000 C
   0.5544233333333333    0.7302400000000000    0.3124800000000000 C
   0.5145333333333333    0.8027400000000000    0.3255500000000000 C
   0.5313166666666667    0.6794900000000000    0.2613200000000000 C
   0.3679833333333333    0.7973100000000000    0.1958800000000000 C
   0.4305866666666667    0.7734100000000000    0.2370900000000000 C
   0.4701933333333333    0.7005400000000001    0.2247000000000000 C
   0.4536033333333333    0.8240600000000000    0.2883700000000000 C
   0.6640633333333332    0.6436600000000000    0.3304700000000000 N
   0.6372933333333333    0.7379000000000000    0.4137400000000000 N
   0.6259966666666666    0.8066700000000000    0.1129900000000000 N
   0.6064666666666667    0.8639700000000000    0.1612600000000000 N
   0.6533700000000000    0.8589300000000000    0.2137100000000000 N
   0.3522933333333333    0.7636900000000000    0.1330000000000000 N
   0.6963533333333333    0.6930300000000000    0.4300700000000000 N
   0.7128599999999999    0.6367600000000000    0.3801100000000000 N
