H4 O2
1.0
  19.8239999516901158    0.0000000000000000    0.0013839762825392
   2.4703262274487576   17.1217081205510908    0.0006038490144819
   0.0000000000000000    0.0000000000000000   18.3810000000000002
H O
4 2
direct
   0.6646737935602391    0.7685597870126865    0.1279259638369712 H
   0.6117915989899680    0.8483469266704983    0.1480989921533151 H
   0.6533225118971815    0.7257220582092809    0.4181720434464551 H
   0.7083696698081434    0.6520672019322961    0.3937006843528969 H
   0.6259966666666666    0.8066700000000000    0.1129900000000000 O
   0.6963533333333333    0.6930300000000000    0.4300700000000000 O
