H20 C24 N2 O2
1.0
  15.6891841142137274    0.0000000000000000   -3.8388287055173036
   0.0049194456774472   16.3859602657602039    0.0357486780454411
   0.0000000000000000    0.0000000000000000   17.2970000000000006
H C N O
20 24 2 2
direct
   0.3044100000000000    0.5304900000000000    0.6412800000000000 H
   0.3549200000000000    0.6623400000000000    0.7070200000000000 H
   0.2460800000000000    0.7703700000000000    0.7172500000000001 H
   0.0504900000000000    0.5958599999999999    0.6121700000000000 H
   0.9660000000000000    0.7973700000000000    0.6476100000000000 H
   0.9716100000000000    0.7005200000000000    0.6016700000000000 H
   0.9159200000000000    0.5874000000000000    0.6658300000000000 H
   0.8822800000000000    0.5245600000000000    0.7843900000000000 H
   0.9891500000000000    0.7337300000000000    0.9244100000000000 H
   0.0245700000000000    0.7949500000000000    0.8061900000000000 H
   0.8025800000000000    0.5188800000000000    0.8701300000000000 H
   0.7702200000000000    0.4556100000000000    0.9872400000000000 H
   0.9801700000000000    0.5840700000000000    0.1384500000000000 H
   0.0000000000000000    0.6438700000000001    0.0203000000000000 H
   0.8312900000000000    0.4137300000000000    0.1328900000000000 H
   0.9068800000000000    0.4780400000000000    0.1952300000000000 H
   0.6887600000000000    0.4455100000000000    0.0979500000000000 H
   0.5972700000000000    0.6243200000000000    0.2404100000000000 H
   0.7490599999999999    0.6685200000000000    0.2926300000000000 H
   0.8657600000000000    0.5968900000000000    0.2470900000000000 H
   0.2596800000000000    0.5768900000000000    0.6504600000000000 C
   0.2868800000000000    0.6516600000000000    0.6857799999999999 C
   0.2270900000000000    0.7103300000000000    0.6922000000000000 C
   0.1398100000000000    0.6925000000000000    0.6650000000000000 C
   0.1165700000000000    0.6150400000000000    0.6331900000000000 C
   0.9940800000000000    0.7360300000000000    0.6565400000000000 C
   0.9732800000000000    0.6953700000000000    0.7278400000000000 C
   0.9324600000000000    0.6194400000000000    0.7227000000000000 C
   0.9129900000000000    0.5842400000000000    0.7898600000000000 C
   0.9335900000000000    0.6235600000000000    0.8642700000000000 C
   0.9744699999999999    0.7000500000000000    0.8685300000000000 C
   0.9938800000000000    0.7352800000000000    0.8017000000000000 C
   0.9125000000000000    0.5865600000000000    0.9354600000000000 C
   0.8433000000000000    0.5326300000000000    0.9284800000000000 C
   0.8238200000000000    0.4976400000000000    0.9953400000000000 C
   0.8719500000000000    0.5160700000000000    0.0719300000000000 C
   0.9406500000000000    0.5700300000000000    0.0795100000000000 C
   0.9608600000000000    0.6042999999999999    0.0125500000000000 C
   0.8514000000000000    0.4774100000000000    0.1443700000000000 C
   0.6994500000000000    0.4953300000000000    0.1404100000000000 C
   0.6295900000000000    0.5325200000000000    0.1624000000000000 C
   0.6488900000000000    0.5953900000000000    0.2197800000000000 C
   0.7330300000000000    0.6197200000000000    0.2490600000000000 C
   0.7989600000000000    0.5817099999999999    0.2242100000000000 C
   0.1761000000000000    0.5595800000000000    0.6250500000000000 N
   0.7804500000000000    0.5197000000000001    0.1709100000000000 N
   0.5519700000000000    0.5074000000000000    0.1290700000000000 O
   0.0849700000000000    0.7535700000000000    0.6702000000000000 O
