H19 C24 N2 O2
1.0
  15.6891841142137274    0.0000000000000000   -3.8388287055173036
   0.0049194456774472   16.3859602657602039    0.0357486780454411
   0.0000000000000000    0.0000000000000000   17.2970000000000006
H C N O
19 24 2 2
direct
   0.8044800000000000    0.9688600000000001    0.6419500000000000 H
   0.8545600000000000    0.8364900000000000    0.7074200000000000 H
   0.7453800000000000    0.7286100000000000    0.7173600000000000 H
   0.5503500000000000    0.9040600000000000    0.6124200000000000 H
   0.4652700000000000    0.7026700000000000    0.6477300000000000 H
   0.4711000000000000    0.7997700000000000    0.6019500000000000 H
   0.4158700000000000    0.9125100000000000    0.6660700000000001 H
   0.3823900000000000    0.9750400000000000    0.7845900000000000 H
   0.4887800000000000    0.7652099999999999    0.9247800000000000 H
   0.5240300000000000    0.7043000000000000    0.8065400000000000 H
   0.3024300000000000    0.9802700000000000    0.8699500000000000 H
   0.2703200000000000    0.0439400000000000    0.9866200000000001 H
   0.4804700000000000    0.9157300000000000    0.1385400000000000 H
   0.5164400000000000    0.8554000000000000    0.0206900000000000 H
   0.4073500000000000    0.0000000000000000    0.1946400000000000 H
   0.1891300000000000    0.0544400000000000    0.0971500000000000 H
   0.0980000000000000    0.8764500000000000    0.2413800000000000 H
   0.2498900000000000    0.8327200000000000    0.2941600000000000 H
   0.3664400000000000    0.9042500000000000    0.2480600000000000 H
   0.7595900000000000    0.9224700000000000    0.6509300000000000 C
   0.7865600000000000    0.8474500000000000    0.6861400000000000 C
   0.7266000000000000    0.7888400000000000    0.6924200000000000 C
   0.6393799999999999    0.8070100000000000    0.6652700000000000 C
   0.6163800000000000    0.8846600000000000    0.6334600000000000 C
   0.4935300000000000    0.7638900000000000    0.6567499999999999 C
   0.4729400000000000    0.8042200000000000    0.7281300000000001 C
   0.4323000000000000    0.8802500000000000    0.7229600000000000 C
   0.4129400000000000    0.9152700000000000    0.7900900000000000 C
   0.4334600000000000    0.8756800000000000    0.8645300000000000 C
   0.4741800000000000    0.7991000000000000    0.8688000000000000 C
   0.4934900000000000    0.7640400000000001    0.8020300000000000 C
   0.4124400000000000    0.9126500000000000    0.9356000000000000 C
   0.3432300000000000    0.9666200000000000    0.9283500000000000 C
   0.3239100000000000    0.0000000000000000    0.9950100000000000 C
   0.3721900000000000    0.9836900000000000    0.0716800000000000 C
   0.4408400000000000    0.9296100000000000    0.0795400000000000 C
   0.4608900000000000    0.8950500000000000    0.0127600000000000 C
   0.3518000000000000    0.0000000000000000    0.1438400000000000 C
   0.1998600000000000    0.0000000000000000    0.1400700000000000 C
   0.1300800000000000    0.9678099999999999    0.1624600000000000 C
   0.1495500000000000    0.9052700000000000    0.2204600000000000 C
   0.2337600000000000    0.8812300000000000    0.2500600000000000 C
   0.2996000000000000    0.9191500000000000    0.2248800000000000 C
   0.6760699999999999    0.9400500000000001    0.6254100000000000 N
   0.2809300000000000    0.9807600000000000    0.1708900000000000 N
   0.0523600000000000    0.9926900000000000    0.1289000000000000 O
   0.5843200000000000    0.7460700000000000    0.6703000000000000 O
