H4 O2
1.0
  15.6891841142137274    0.0000000000000000   -3.8388287055173036
   0.0049194456774472   16.3859602657602039    0.0357486780454411
   0.0000000000000000    0.0000000000000000   17.2970000000000006
H O
4 2
direct
   0.1331025143049150    0.5996377953409947    0.6309293807081806 H
   0.2368185215153536    0.5721552286124764    0.6435096510134618 H
   0.6097041871765392    0.5260843955407712    0.1538610391470503 H
   0.4917136453608678    0.4883591743332902    0.1464928961766793 H
   0.1761000000000000    0.5595800000000000    0.6250500000000000 O
   0.5519700000000000    0.5074000000000000    0.1290700000000000 O
