Zn10 H121 C168 N8 O47
1.0
  15.6891841142137274    0.0000000000000000   -3.8388287055173036
   0.0049194456774472   16.3859602657602039    0.0357486780454411
   0.0000000000000000    0.0000000000000000   17.2970000000000006
Zn H C N O
10 121 168 8 47
direct
   0.3648100000000000    0.9585000000000000    0.4396400000000000 Zn
   0.1351300000000000    0.4583700000000000    0.5598800000000000 Zn
   0.5509600000000000    0.4897000000000000    0.8235900000000000 Zn
   0.4480600000000000    0.5101900000000000    0.1739800000000000 Zn
   0.9485800000000000    0.9895000000000000    0.1743400000000000 Zn
   0.0493700000000000    0.0104200000000000    0.8233000000000000 Zn
   0.6352500000000000    0.0414700000000000    0.5599000000000000 Zn
   0.8645800000000000    0.5417100000000000    0.4369100000000000 Zn
   0.0000100000000000    0.0002800000000000    0.9996699999999999 Zn
   0.4999600000000000    0.5000500000000000    0.9995700000000000 Zn
   0.4149300000000000    0.3440400000000000    0.5627700000000000 H
   0.5073299999999999    0.2190300000000000    0.5784600000000000 H
   0.1935800000000000    0.1925100000000000    0.5407500000000000 H
   0.2843300000000000    0.0673500000000000    0.5511200000000001 H
   0.0851300000000000    0.8438099999999999    0.4342000000000000 H
   0.9928700000000000    0.7187100000000000    0.4185000000000000 H
   0.3070000000000000    0.6924400000000001    0.4592400000000000 H
   0.2163100000000000    0.5671700000000000    0.4487200000000000 H
   0.6723600000000000    0.6818800000000000    0.0820400000000000 H
   0.7796999999999999    0.7927600000000000    0.1290700000000000 H
   0.7230700000000000    0.6936900000000000    0.8500400000000000 H
   0.8318300000000000    0.8028600000000000    0.8970700000000000 H
   0.9068800000000000    0.4780400000000000    0.1952300000000000 H
   0.8312900000000000    0.4137300000000000    0.1328900000000000 H
   0.5972700000000000    0.6243200000000000    0.2404100000000000 H
   0.7490599999999999    0.6685200000000000    0.2926300000000000 H
   0.8657600000000000    0.5968900000000000    0.2470900000000000 H
   0.6887600000000000    0.4455100000000000    0.0979500000000000 H
   0.9660000000000000    0.7973700000000000    0.6476100000000000 H
   0.9716100000000000    0.7005200000000000    0.6016700000000000 H
   0.0504900000000000    0.5958599999999999    0.6121700000000000 H
   0.3044100000000000    0.5304900000000000    0.6412800000000000 H
   0.3549200000000000    0.6623400000000000    0.7070200000000000 H
   0.2460800000000000    0.7703700000000000    0.7172500000000001 H
   0.7702200000000000    0.4556100000000000    0.9872400000000000 H
   0.8025800000000000    0.5188800000000000    0.8701300000000000 H
   0.0000000000000000    0.6438700000000001    0.0203000000000000 H
   0.9801700000000000    0.5840700000000000    0.1384500000000000 H
   0.9891500000000000    0.7337300000000000    0.9244100000000000 H
   0.0245700000000000    0.7949500000000000    0.8061900000000000 H
   0.8822800000000000    0.5245600000000000    0.7843900000000000 H
   0.9159200000000000    0.5874000000000000    0.6658300000000000 H
   0.5781776232553697    0.4149151388203340    0.6935376954159730 H
   0.4249850963639012    0.6093950703795429    0.6629164992877036 H
   0.4938462112711650    0.5200834663908467    0.6703106944790214 H
   0.4652700000000000    0.7026700000000000    0.6477300000000000 H
   0.4711000000000000    0.7997700000000000    0.6019500000000000 H
   0.5503500000000000    0.9040600000000000    0.6124200000000000 H
   0.8044800000000000    0.9688600000000001    0.6419500000000000 H
   0.8545600000000000    0.8364900000000000    0.7074200000000000 H
   0.7453800000000000    0.7286100000000000    0.7173600000000000 H
   0.5240300000000000    0.7043000000000000    0.8065400000000000 H
   0.4887800000000000    0.7652099999999999    0.9247800000000000 H
   0.3823900000000000    0.9750400000000000    0.7845900000000000 H
   0.4158700000000000    0.9125100000000000    0.6660700000000001 H
   0.5164400000000000    0.8554000000000000    0.0206900000000000 H
   0.4804700000000000    0.9157300000000000    0.1385400000000000 H
   0.3024300000000000    0.9802700000000000    0.8699500000000000 H
   0.2703200000000000    0.0439400000000000    0.9866200000000001 H
   0.0980000000000000    0.8764500000000000    0.2413800000000000 H
   0.2498900000000000    0.8327200000000000    0.2941600000000000 H
   0.4073500000000000    0.0000000000000000    0.1946400000000000 H
   0.3664400000000000    0.9042500000000000    0.2480600000000000 H
   0.1891300000000000    0.0544400000000000    0.0971500000000000 H
   0.3316800000000000    0.0864400000000000    0.1310000000000000 H
   0.3289700000000000    0.3165600000000000    0.9163500000000000 H
   0.2220500000000000    0.2052400000000000    0.8694200000000000 H
   0.2759200000000000    0.3067000000000000    0.1475200000000000 H
   0.1671700000000000    0.1975500000000000    0.1003700000000000 H
   0.5923100000000000    0.9767200000000000    0.8055900000000000 H
   0.6689800000000000    0.9135700000000000    0.8684600000000000 H
   0.8994000000000000    0.1253200000000000    0.7565900000000000 H
   0.7469800000000000    0.1675200000000000    0.7042400000000000 H
   0.6315800000000000    0.0951800000000000    0.7513700000000000 H
   0.8111400000000000    0.9471300000000000    0.9024900000000000 H
   0.5340200000000001    0.2976500000000000    0.3516100000000000 H
   0.5284600000000000    0.2007200000000000    0.3977500000000000 H
   0.4493400000000000    0.0962000000000000    0.3872900000000000 H
   0.1953500000000000    0.0306900000000000    0.3573500000000000 H
   0.1449900000000000    0.1627700000000000    0.2914600000000000 H
   0.2539100000000000    0.2710000000000000    0.2816000000000000 H
   0.6971200000000000    0.0196100000000000    0.1301000000000000 H
   0.7294600000000000    0.9558700000000000    0.0000000000000000 H
   0.4829600000000000    0.1440300000000000    0.9791000000000000 H
   0.5191800000000000    0.0837400000000000    0.8613900000000000 H
   0.5099900000000001    0.2341300000000000    0.0746900000000000 H
   0.4746700000000000    0.2953300000000000    0.1927000000000000 H
   0.6174600000000000    0.0251100000000000    0.2156000000000000 H
   0.5839100000000000    0.0879300000000000    0.3339000000000000 H
   0.4168817412597102    0.5821154862970215    0.3027751484314412 H
   0.5770626098449499    0.3921485184596744    0.3360865735348019 H
   0.5049387442086363    0.4792578330994413    0.3271793228329163 H
   0.0926300000000000    0.5217900000000000    0.8039500000000001 H
   0.1681900000000000    0.5859900000000000    0.8664500000000001 H
   0.4022000000000000    0.3765500000000000    0.7575800000000000 H
   0.2504200000000000    0.3326000000000000    0.7050200000000000 H
   0.1337500000000000    0.4037000000000000    0.7511000000000000 H
   0.3108400000000000    0.5540400000000000    0.9014100000000000 H
   0.0341200000000000    0.2022000000000000    0.3518300000000000 H
   0.0284000000000000    0.2992100000000000    0.3974000000000000 H
   0.9492100000000000    0.4040400000000000    0.3854000000000000 H
   0.6951300000000000    0.4692100000000000    0.3559300000000000 H
   0.6449000000000000    0.3366300000000000    0.2917400000000000 H
   0.7539500000000000    0.2284100000000000    0.2826000000000000 H
   0.1968100000000000    0.4805400000000000    0.1289400000000000 H
   0.2291300000000000    0.5440700000000001    0.0000000000000000 H
   0.9835300000000000    0.3549900000000000    0.9785300000000000 H
   0.0197800000000000    0.4150500000000000    0.8604900000000000 H
   0.0105200000000000    0.2652800000000000    0.0746800000000000 H
   0.9751700000000000    0.2042300000000000    0.1930300000000000 H
   0.1173100000000000    0.4746700000000000    0.2144300000000000 H
   0.0837900000000000    0.4119800000000000    0.3330600000000000 H
   0.1724800000000000    0.8184800000000000    0.0821200000000000 H
   0.2800200000000000    0.7076200000000000    0.1291700000000000 H
   0.2210500000000000    0.8059100000000000    0.8493500000000000 H
   0.3303800000000000    0.6971000000000001    0.8965300000000000 H
   0.7201700000000000    0.2931900000000000    0.8697100000000000 H
   0.8275200000000000    0.1821600000000000    0.9170000000000000 H
   0.7766000000000000    0.1935500000000000    0.1489700000000000 H
   0.6677100000000000    0.3026900000000000    0.1015500000000000 H
   0.9024600000000000    0.9043300000000000    0.5462700000000000 H
   0.9000100000000000    0.9137999999999999    0.4006100000000000 H
   0.0993800000000000    0.0855000000000000    0.5976700000000000 H
   0.5850400000000000    0.6558900000000000    0.4351100000000000 H
   0.4926600000000000    0.7808900000000000    0.4202600000000000 H
   0.8063000000000000    0.8075500000000000    0.4572000000000000 H
   0.7156000000000000    0.9326600000000000    0.4477900000000000 H
   0.0000000000000000    0.2812400000000000    0.5792300000000000 H
   0.9143500000000000    0.1561700000000000    0.5643700000000000 H
   0.6924600000000000    0.3076900000000000    0.5384200000000000 H
   0.7831900000000001    0.4329000000000000    0.5483700000000000 H
   0.2455400000000000    0.3504200000000000    0.5491900000000000 C
   0.4589000000000000    0.0628000000000000    0.5756100000000000 C
   0.3873800000000000    0.2832200000000000    0.5612000000000000 C
   0.4384700000000000    0.2139200000000000    0.5698000000000000 C
   0.2989500000000000    0.2754500000000000    0.5515700000000000 C
   0.2622500000000000    0.1974200000000000    0.5481000000000000 C
   0.3130400000000000    0.1278900000000000    0.5545600000000001 C
   0.4017800000000000    0.1357800000000000    0.5666300000000000 C
   0.2547900000000000    0.8501900000000000    0.4494800000000000 C
   0.0417000000000000    0.5625300000000000    0.4228600000000000 C
   0.1128100000000000    0.7830000000000000    0.4363000000000000 C
   0.0618100000000000    0.7136600000000000    0.4278200000000000 C
   0.2013500000000000    0.7752500000000000    0.4469400000000000 C
   0.2382400000000000    0.6972699999999999    0.4512200000000000 C
   0.1875100000000000    0.6277000000000000    0.4447100000000000 C
   0.0987000000000000    0.6355600000000000    0.4318600000000000 C
   0.8765600000000000    0.8711800000000000    0.0453000000000000 C
   0.6303100000000000    0.6116700000000000    0.9374700000000000 C
   0.7073100000000000    0.7092300000000000    0.0419800000000000 C
   0.7668400000000000    0.7705400000000000    0.0680800000000000 C
   0.7356500000000000    0.7160900000000000    0.9109100000000000 C
   0.7957400000000000    0.7771900000000000    0.9371100000000000 C
   0.6915900000000000    0.6809400000000000    0.9633600000000000 C
   0.8122400000000000    0.8047600000000000    0.0160900000000000 C
   0.8514000000000000    0.4774100000000000    0.1443700000000000 C
   0.6295900000000000    0.5325200000000000    0.1624000000000000 C
   0.6488900000000000    0.5953900000000000    0.2197800000000000 C
   0.7330300000000000    0.6197200000000000    0.2490600000000000 C
   0.7989600000000000    0.5817099999999999    0.2242100000000000 C
   0.6994500000000000    0.4953300000000000    0.1404100000000000 C
   0.9940800000000000    0.7360300000000000    0.6565400000000000 C
   0.1398100000000000    0.6925000000000000    0.6650000000000000 C
   0.1165700000000000    0.6150400000000000    0.6331900000000000 C
   0.2596800000000000    0.5768900000000000    0.6504600000000000 C
   0.2868800000000000    0.6516600000000000    0.6857799999999999 C
   0.2270900000000000    0.7103300000000000    0.6922000000000000 C
   0.8238200000000000    0.4976400000000000    0.9953400000000000 C
   0.8433000000000000    0.5326300000000000    0.9284800000000000 C
   0.9608600000000000    0.6042999999999999    0.0125500000000000 C
   0.9406500000000000    0.5700300000000000    0.0795100000000000 C
   0.8719500000000000    0.5160700000000000    0.0719300000000000 C
   0.9125000000000000    0.5865600000000000    0.9354600000000000 C
   0.9744699999999999    0.7000500000000000    0.8685300000000000 C
   0.9938800000000000    0.7352800000000000    0.8017000000000000 C
   0.9129900000000000    0.5842400000000000    0.7898600000000000 C
   0.9324600000000000    0.6194400000000000    0.7227000000000000 C
   0.9732800000000000    0.6953700000000000    0.7278400000000000 C
   0.9335900000000000    0.6235600000000000    0.8642700000000000 C
   0.4935300000000000    0.7638900000000000    0.6567499999999999 C
   0.6393799999999999    0.8070100000000000    0.6652700000000000 C
   0.6163800000000000    0.8846600000000000    0.6334600000000000 C
   0.7595900000000000    0.9224700000000000    0.6509300000000000 C
   0.7865600000000000    0.8474500000000000    0.6861400000000000 C
   0.7266000000000000    0.7888400000000000    0.6924200000000000 C
   0.4934900000000000    0.7640400000000001    0.8020300000000000 C
   0.4741800000000000    0.7991000000000000    0.8688000000000000 C
   0.4129400000000000    0.9152700000000000    0.7900900000000000 C
   0.4323000000000000    0.8802500000000000    0.7229600000000000 C
   0.4729400000000000    0.8042200000000000    0.7281300000000001 C
   0.4334600000000000    0.8756800000000000    0.8645300000000000 C
   0.4608900000000000    0.8950500000000000    0.0127600000000000 C
   0.4408400000000000    0.9296100000000000    0.0795400000000000 C
   0.3432300000000000    0.9666200000000000    0.9283500000000000 C
   0.3239100000000000    0.0000000000000000    0.9950100000000000 C
   0.1495500000000000    0.9052700000000000    0.2204600000000000 C
   0.2337600000000000    0.8812300000000000    0.2500600000000000 C
   0.1300800000000000    0.9678099999999999    0.1624600000000000 C
   0.3518000000000000    0.0000000000000000    0.1438400000000000 C
   0.2996000000000000    0.9191500000000000    0.2248800000000000 C
   0.1998600000000000    0.0000000000000000    0.1400700000000000 C
   0.3721900000000000    0.9836900000000000    0.0716800000000000 C
   0.4124400000000000    0.9126500000000000    0.9356000000000000 C
   0.1239400000000000    0.1279300000000000    0.9528700000000000 C
   0.3695800000000000    0.3878300000000000    0.0606000000000000 C
   0.2936100000000000    0.2895400000000000    0.9562500000000000 C
   0.2342900000000000    0.2280300000000000    0.9301900000000000 C
   0.2638900000000000    0.2838200000000000    0.0868500000000000 C
   0.2038800000000000    0.2227000000000000    0.0606100000000000 C
   0.3085700000000000    0.3184400000000000    0.0346300000000000 C
   0.1882300000000000    0.1944200000000000    0.9819200000000000 C
   0.6480500000000000    0.9769600000000001    0.8562100000000000 C
   0.8687800000000000    0.0341300000000000    0.8364600000000000 C
   0.8483500000000000    0.0961700000000000    0.7780000000000000 C
   0.7638300000000000    0.1193400000000000    0.7486100000000000 C
   0.6986100000000000    0.0809500000000000    0.7743600000000000 C
   0.7995900000000000    0.9964700000000000    0.8593200000000000 C
   0.5058200000000000    0.2363900000000000    0.3428500000000000 C
   0.3600800000000000    0.1929800000000000    0.3342400000000000 C
   0.3832600000000000    0.1153900000000000    0.3661300000000000 C
   0.2401400000000000    0.0771800000000000    0.3483700000000000 C
   0.2130100000000000    0.1520800000000000    0.3129700000000000 C
   0.2728300000000000    0.2108600000000000    0.3067800000000000 C
   0.6563300000000000    0.0331300000000000    0.0716700000000000 C
   0.6757900000000000    0.9978700000000000    0.0000000000000000 C
   0.6275400000000000    0.0159800000000000    0.9283500000000000 C
   0.5386000000000000    0.1044800000000000    0.9871000000000000 C
   0.5587800000000001    0.0699400000000000    0.9204100000000000 C
   0.5870300000000001    0.0870000000000000    0.0643200000000000 C
   0.5248400000000000    0.2004900000000000    0.1307400000000000 C
   0.5054800000000000    0.2357000000000000    0.1974700000000000 C
   0.5866800000000000    0.0847800000000000    0.2099000000000000 C
   0.5672800000000000    0.1199600000000000    0.2769400000000000 C
   0.5263400000000000    0.1958500000000000    0.2715300000000000 C
   0.5659100000000000    0.1240700000000000    0.1353100000000000 C
   0.1481700000000000    0.5223100000000001    0.8547000000000000 C
   0.3700100000000000    0.4676900000000000    0.8363200000000000 C
   0.3506300000000000    0.4052300000000000    0.7784700000000000 C
   0.2664700000000000    0.3810500000000000    0.7490000000000000 C
   0.2005500000000000    0.4187500000000000    0.7741200000000000 C
   0.3001300000000000    0.5045500000000001    0.8586100000000000 C
   0.0058800000000000    0.2634600000000000    0.3427300000000000 C
   0.8600700000000000    0.3068500000000000    0.3338000000000000 C
   0.8831700000000000    0.3846900000000000    0.3647300000000000 C
   0.7399900000000000    0.4227200000000000    0.3471900000000000 C
   0.7129300000000000    0.3475400000000000    0.3127600000000000 C
   0.7728200000000000    0.2887500000000000    0.3069500000000000 C
   0.1562200000000000    0.4667000000000000    0.0705000000000000 C
   0.1756900000000000    0.5018300000000000    0.0000000000000000 C
   0.1277300000000000    0.4833400000000000    0.9271100000000000 C
   0.0389700000000000    0.3947500000000000    0.9863600000000000 C
   0.0591900000000000    0.4291500000000000    0.9194500000000000 C
   0.0871500000000000    0.4125800000000000    0.0634900000000000 C
   0.0251800000000000    0.2990700000000000    0.1305100000000000 C
   0.0058100000000000    0.2639200000000000    0.1974000000000000 C
   0.0866500000000000    0.4149700000000000    0.2090300000000000 C
   0.0672400000000000    0.3798500000000000    0.2762400000000000 C
   0.0264500000000000    0.3039200000000000    0.2712300000000000 C
   0.0660400000000000    0.3755700000000000    0.1346700000000000 C
   0.3760900000000000    0.6289600000000000    0.0451700000000000 C
   0.1290200000000000    0.8881400000000000    0.9370500000000000 C
   0.2070200000000000    0.7909900000000000    0.0419000000000000 C
   0.2666900000000000    0.7297100000000000    0.0680000000000000 C
   0.2341900000000000    0.7837200000000000    0.9104200000000000 C
   0.2945400000000000    0.7227700000000000    0.9366900000000000 C
   0.1905800000000000    0.8190100000000000    0.9630300000000001 C
   0.3116400000000000    0.6953600000000000    0.0158600000000000 C
   0.6232500000000000    0.3713400000000000    0.9531700000000000 C
   0.8693300000000000    0.1117600000000000    0.0618000000000000 C
   0.7330100000000001    0.2708100000000000    0.9307400000000000 C
   0.7925200000000000    0.2094500000000000    0.9570200000000000 C
   0.7640500000000000    0.2160800000000000    0.0880500000000000 C
   0.7039299999999999    0.2771800000000000    0.0616500000000000 C
   0.8081700000000001    0.1810700000000000    0.0357200000000000 C
   0.6875500000000000    0.3048900000000000    0.9826000000000000 C
   0.0026900000000000    0.9875000000000000    0.6673000000000000 C
   0.9967300000000000    0.0123300000000000    0.3310300000000000 C
   0.9450700000000000    0.9456300000000000    0.5249900000000000 C
   0.9434900000000001    0.9510100000000000    0.4443700000000000 C
   0.0012100000000000    0.9941400000000000    0.5805500000000000 C
   0.0559100000000000    0.0482700000000000    0.5538999999999999 C
   0.0543500000000000    0.0536300000000000    0.4733400000000000 C
   0.9981500000000000    0.0051900000000000    0.4177000000000000 C
   0.5410600000000000    0.9372000000000000    0.4235600000000000 C
   0.7543100000000000    0.6496300000000000    0.4479700000000000 C
   0.6125800000000000    0.7167400000000000    0.4368000000000000 C
   0.5615000000000000    0.7860300000000000    0.4287500000000000 C
   0.7009700000000000    0.7245500000000000    0.4462200000000000 C
   0.7376600000000000    0.8026000000000000    0.4500300000000000 C
   0.6868900000000000    0.8721100000000001    0.4441100000000000 C
   0.5981700000000000    0.8642000000000000    0.4322000000000000 C
   0.9577599999999999    0.4374900000000000    0.5740800000000000 C
   0.7447000000000000    0.1498900000000000    0.5491300000000000 C
   0.9376500000000000    0.2863200000000000    0.5699300000000000 C
   0.8866500000000000    0.2170000000000000    0.5618500000000000 C
   0.7981000000000000    0.2247900000000000    0.5511900000000000 C
   0.7612200000000000    0.3028000000000000    0.5464900000000000 C
   0.8119600000000000    0.3723400000000000    0.5526600000000000 C
   0.9007700000000000    0.3644500000000000    0.5655000000000000 C
   0.7804500000000000    0.5197000000000001    0.1709100000000000 N
   0.1761000000000000    0.5595800000000000    0.6250500000000000 N
   0.6760699999999999    0.9400500000000001    0.6254100000000000 N
   0.2809300000000000    0.9807600000000000    0.1708900000000000 N
   0.7181999999999999    0.0196800000000000    0.8286600000000000 N
   0.3237000000000000    0.0598400000000000    0.3740900000000000 N
   0.2191100000000000    0.4803200000000000    0.8279200000000000 N
   0.8235400000000000    0.4402800000000000    0.3723000000000000 N
   0.2776700000000000    0.4205900000000000    0.5501000000000000 O
   0.1659900000000000    0.3404100000000000    0.5501000000000000 O
   0.5366400000000000    0.0730400000000000    0.6117500000000000 O
   0.4293400000000000    0.9930700000000000    0.5484900000000000 O
   0.2223000000000000    0.9203700000000000    0.4469400000000000 O
   0.3347500000000000    0.8402900000000000    0.4502200000000000 O
   0.9640800000000000    0.5727800000000000    0.3862000000000000 O
   0.0712100000000000    0.4928700000000000    0.4504900000000000 O
   0.9187300000000000    0.8980000000000000    0.9972900000000000 O
   0.8815900000000000    0.8958900000000000    0.1163000000000000 O
   0.5968400000000000    0.5802900000000000    0.9897800000000000 O
   0.6176000000000000    0.5893100000000000    0.8646000000000000 O
   0.5519700000000000    0.5074000000000000    0.1290700000000000 O
   0.0849700000000000    0.7535700000000000    0.6702000000000000 O
   0.5495000000000000    0.4590700000000000    0.7139000000000000 O
   0.4626800000000000    0.5680700000000000    0.6924400000000001 O
   0.5843200000000000    0.7460700000000000    0.6703000000000000 O
   0.0523600000000000    0.9926900000000000    0.1289000000000000 O
   0.1210900000000000    0.1008900000000000    0.8830700000000000 O
   0.4030900000000000    0.4194600000000000    0.0084400000000000 O
   0.3820700000000000    0.4101800000000000    0.1334400000000000 O
   0.9468400000000000    0.0102800000000000    0.8699500000000000 O
   0.4150200000000000    0.2541100000000000    0.3294400000000000 O
   0.4477700000000000    0.5388700000000000    0.2836000000000000 O
   0.5382500000000000    0.4326200000000000    0.3065000000000000 O
   0.4476500000000000    0.4926800000000000    0.8697000000000000 O
   0.9150700000000001    0.2457300000000000    0.3294100000000000 O
   0.4181400000000000    0.6021700000000000    0.9971500000000000 O
   0.3813100000000000    0.6041900000000000    0.1162000000000000 O
   0.0968800000000000    0.9202600000000000    0.9898100000000000 O
   0.1147100000000000    0.9096800000000000    0.8637800000000000 O
   0.5809800000000001    0.3979900000000000    0.0010600000000000 O
   0.6183700000000000    0.3962100000000000    0.8821700000000000 O
   0.9027300000000000    0.0801200000000000    0.0098000000000000 O
   0.8820600000000000    0.0894300000000000    0.1348500000000000 O
   0.9617900000000000    0.9327000000000000    0.6927400000000000 O
   0.0487200000000000    0.0415100000000000    0.7136700000000000 O
   0.0379600000000000    0.0672600000000000    0.3062700000000000 O
   0.9505300000000000    0.9587100000000000    0.2842000000000000 O
   0.4633000000000000    0.9270400000000000    0.3874200000000000 O
   0.5706800000000000    0.0068000000000000    0.4509400000000000 O
   0.7221800000000000    0.5794400000000000    0.4467500000000000 O
   0.8337800000000000    0.6596900000000000    0.4467100000000000 O
   0.0354700000000000    0.4272500000000000    0.6104100000000000 O
   0.9280500000000000    0.5071000000000000    0.5464400000000000 O
   0.7775400000000000    0.0797300000000000    0.5532100000000000 O
   0.6644600000000001    0.1597300000000000    0.5472100000000000 O
