H4 C8 O4
1.0
  13.7199999665651937    0.0000000000000000    0.0009578366927178
   0.0024847201011168   14.2359997484689416   -0.0009938602884480
   0.0000000000000000    0.0000000000000000   15.9749999999999996
H C O
4 8 4
direct
   0.2859500000000000    0.0386800000000000    0.8111800000000000 H
   0.2757500000000000    0.9213000000000000    0.6940600000000000 H
   0.9752700000000000    0.0748700000000000    0.8024600000000000 H
   0.9651300000000000    0.9575000000000000    0.6852900000000000 H
   0.1370400000000000    0.1331500000000000    0.8827900000000000 C
   0.1311500000000000    0.0636300000000000    0.8133700000000000 C
   0.2161900000000000    0.0204800000000000    0.7830400000000000 C
   0.2106000000000000    0.9554400000000000    0.7183500000000000 C
   0.0404000000000000    0.0407700000000000    0.7781500000000000 C
   0.0348300000000000    0.9757500000000000    0.7134500000000000 C
   0.1198600000000000    0.9326100000000001    0.6831300000000000 C
   0.1139400000000000    0.8629100000000000    0.6137500000000000 C
   0.2216000000000000    0.1527800000000000    0.9112900000000000 O
   1.0294600000000000    0.8436500000000000    0.5850800000000000 O
   0.0568300000000000    0.1685400000000000    0.9088000000000001 O
   0.1943000000000000    0.8273500000000000    0.5883000000000000 O
