H6 O4
1.0
  13.7199999665651937    0.0000000000000000    0.0009578366927178
   0.0024847201011168   14.2359997484689416   -0.0009938602884480
   0.0000000000000000    0.0000000000000000   15.9749999999999996
H O
6 4
direct
   0.9731017092605294    0.8747900319993137    0.6090532343760546 H
   0.2562364447644724    0.8451048923395774    0.6129288455217485 H
   0.1185688888761952    0.8691942289997849    0.6205138881912278 H
   0.2776316985918638    0.1217176817088156    0.8866804298728531 H
  -0.0048662287226718    0.1503320381265887    0.8839898925675183 H
   0.1326250467249749    0.1265214653948714    0.8755102093182038 H
   1.0294600000000000    0.8436500000000000    0.5850800000000000 O
   0.1943000000000000    0.8273500000000000    0.5883000000000000 O
   0.2216000000000000    0.1527800000000000    0.9112900000000000 O
   0.0568300000000000    0.1685400000000000    0.9088000000000001 O
