V8 H34 C56 O32
1.0
  13.7199999665651937    0.0000000000000000    0.0009578366927178
   0.0024847201011168   14.2359997484689416   -0.0009938602884480
   0.0000000000000000    0.0000000000000000   15.9749999999999996
V H C O
8 34 56 32
direct
   0.5311700000000000    0.2618700000000000    0.9990000000000000 V
   0.4692600000000000    0.7609600000000000    0.4989500000000000 V
   0.2194500000000000    0.7333400000000000    0.4980000000000000 V
   0.2810000000000000    0.2342600000000000    0.9984900000000000 V
   0.9692300000000000    0.7609500000000000    0.4979900000000000 V
   0.7811399999999999    0.2343900000000000    0.9984499999999999 V
   0.7194500000000000    0.7333400000000000    0.4988600000000000 V
   0.0311900000000000    0.2619500000000000    0.9985200000000000 V
   0.9731017092605294    0.8747900319993137    0.6090532343760546 H
   0.2562364447644724    0.8451048923395774    0.6129288455217485 H
   0.1185688888761952    0.8691942289997849    0.6205138881912278 H
   0.2776316985918638    0.1217176817088156    0.8866804298728531 H
  -0.0048662287226718    0.1503320381265887    0.8839898925675183 H
   0.1326250467249749    0.1265214653948714    0.8755102093182038 H
   0.7748600000000000    0.9154400000000000    0.2984800000000000 H
   0.7850200000000001    0.0314100000000000    0.1803000000000000 H
   0.4756300000000000    0.0753300000000000    0.1949000000000000 H
   0.4655200000000000    0.9593600000000000    0.3131100000000000 H
   0.9650300000000001    0.9580000000000000    0.3114400000000000 H
   0.9751600000000000    0.0741800000000000    0.1933300000000000 H
   0.2757100000000000    0.9217500000000000    0.3029400000000000 H
   0.2859000000000000    0.0379000000000000    0.1847000000000000 H
   0.4642300000000000    0.9546100000000000    0.6883000000000000 H
   0.4742900000000000    0.0721500000000000    0.8053700000000000 H
   0.7863800000000000    0.0473500000000000    0.8050800000000000 H
   0.7762400000000000    0.9298200000000000    0.6879999999999999 H
   0.5249500000000000    0.5750500000000000    0.6944600000000000 H
   0.5353900000000000    0.4591600000000000    0.8127000000000000 H
   0.2146100000000000    0.5362600000000000    0.6844500000000000 H
   0.2250300000000000    0.4204000000000000    0.8026900000000000 H
   0.2248200000000000    0.4228500000000000    0.1931000000000000 H
   0.2148100000000000    0.5404700000000000    0.3100400000000000 H
   0.5359400000000000    0.4564200000000000    0.1860100000000000 H
   0.5259400000000000    0.5740300000000000    0.3029300000000000 H
   0.7147000000000000    0.5428200000000000    0.6891500000000000 H
   0.7248700000000000    0.4268500000000000    0.8073700000000000 H
   0.0259600000000000    0.5752000000000000    0.6945700000000000 H
   0.0361200000000000    0.4592300000000000    0.8127700000000000 H
   0.0249300000000000    0.5735900000000000    0.3034000000000000 H
   0.0353000000000000    0.4560300000000000    0.1864300000000000 H
   0.7251900000000000    0.4163100000000000    0.1978800000000000 H
   0.7148200000000000    0.5338200000000000    0.3148900000000000 H
   0.6139300000000000    0.8622500000000000    0.3827000000000000 C
   0.6368900000000000    0.1297200000000000    0.1116700000000000 C
   0.7100000000000000    0.9509600000000000    0.2752400000000000 C
   0.7155600000000000    0.0152000000000000    0.2099300000000000 C
   0.5404900000000000    0.0397600000000000    0.2180000000000000 C
   0.5349400000000000    0.9755300000000000    0.2834100000000000 C
   0.6308800000000000    0.0601700000000000    0.1810300000000000 C
   0.6196500000000000    0.9307700000000000    0.3124700000000000 C
   0.1138100000000000    0.8641200000000000    0.3834000000000000 C
   0.1369000000000000    0.1316800000000000    0.1128200000000000 C
   0.0347100000000000    0.9759300000000000    0.2830700000000000 C
   0.0402600000000000    0.0402300000000000    0.2178400000000000 C
   0.2106000000000000    0.9556800000000000    0.2783600000000000 C
   0.2161600000000000    0.0199700000000000    0.2131200000000000 C
   0.1198200000000000    0.9332400000000000    0.3136000000000000 C
   0.1310500000000000    0.0626700000000000    0.1825000000000000 C
   0.6137200000000000    0.8649500000000000    0.6130000000000000 C
   0.6368000000000000    0.1353000000000000    0.8816800000000000 C
   0.5342400000000000    0.9754000000000000    0.7144900000000000 C
   0.5397600000000000    0.0404900000000000    0.7791000000000000 C
   0.7163500000000000    0.0265900000000000    0.7789199999999999 C
   0.7108100000000001    0.9615100000000000    0.7142800000000000 C
   0.6196800000000000    0.9353200000000000    0.6818000000000000 C
   0.6308700000000000    0.0664000000000000    0.8118500000000000 C
   0.3867300000000000    0.3643000000000000    0.8842000000000000 C
   0.3632900000000000    0.6312900000000000    0.6131000000000000 C
   0.4599500000000000    0.5406800000000000    0.7187300000000000 C
   0.4656600000000000    0.4765000000000000    0.7840600000000000 C
   0.3807700000000000    0.4331200000000000    0.8143700000000000 C
   0.2843200000000000    0.5189800000000000    0.7131300000000000 C
   0.2900400000000000    0.4548000000000000    0.7784600000000000 C
   0.3692200000000000    0.5624000000000000    0.6828600000000000 C
   0.3867600000000000    0.3630300000000000    0.1140400000000000 C
   0.3639300000000000    0.6332900000000000    0.3824600000000000 C
   0.2900700000000000    0.4564700000000000    0.2177200000000000 C
   0.2846000000000000    0.5216400000000000    0.2822000000000000 C
   0.3809100000000000    0.4327500000000000    0.1831300000000000 C
   0.4661500000000000    0.4752100000000000    0.2138000000000000 C
   0.4606800000000000    0.5403800000000000    0.2783600000000000 C
   0.3698400000000000    0.5639700000000000    0.3130600000000000 C
   0.8870200000000000    0.3666800000000000    0.8858700000000000 C
   0.8638800000000000    0.6337900000000000    0.6148600000000000 C
   0.7845600000000000    0.5241000000000000    0.7168300000000000 C
   0.7901300000000000    0.4598900000000000    0.7821500000000000 C
   0.8810500000000000    0.4362500000000000    0.8165900000000000 C
   0.9607200000000000    0.5422100000000000    0.7198099999999999 C
   0.9662700000000000    0.4779800000000000    0.7851000000000000 C
   0.8698100000000000    0.5655800000000000    0.6851500000000000 C
   0.8866900000000000    0.3606000000000000    0.1158000000000000 C
   0.8633500000000000    0.6307000000000000    0.3843500000000000 C
   0.9600100000000000    0.5386000000000000    0.2797600000000000 C
   0.9656900000000000    0.4734800000000000    0.2151600000000000 C
   0.7901600000000000    0.4512500000000000    0.2215000000000000 C
   0.7844700000000000    0.5163600000000000    0.2861700000000000 C
   0.8808000000000000    0.4294800000000000    0.1855900000000000 C
   0.8693200000000000    0.5606000000000000    0.3155500000000000 C
   1.0294600000000000    0.8436500000000000    0.5850800000000000 O
   0.1943000000000000    0.8273500000000000    0.5883000000000000 O
   0.2216000000000000    0.1527800000000000    0.9112900000000000 O
   0.0568300000000000    0.1685400000000000    0.9088000000000001 O
   0.5295500000000000    0.8436399999999999    0.4120300000000000 O
   0.6943400000000000    0.8269800000000000    0.4083200000000000 O
   0.7213700000000000    0.1492900000000000    0.0830400000000000 O
   0.5565800000000000    0.1653700000000000    0.0860600000000000 O
   0.0290200000000000    0.8432400000000000    0.4104300000000000 O
   0.1943200000000000    0.8306300000000000    0.4106000000000000 O
   0.2216000000000000    0.1526500000000000    0.0854000000000000 O
   0.0564500000000000    0.1654100000000000    0.0856100000000000 O
   0.5289000000000000    0.8433600000000000    0.5864700000000000 O
   0.6942000000000000    0.8311400000000000    0.5860600000000000 O
   0.7214500000000000    0.1563500000000000    0.9090000000000000 O
   0.5563300000000000    0.1686800000000000    0.9093700000000000 O
   0.4712000000000000    0.3450200000000000    0.9131100000000000 O
   0.3063600000000000    0.3290100000000000    0.9101000000000000 O
   0.2788500000000000    0.6506200000000000    0.5841200000000000 O
   0.4436500000000000    0.6665900000000000    0.5872000000000001 O
   0.4714800000000000    0.3416400000000000    0.0869700000000000 O
   0.3063500000000000    0.3291500000000000    0.0868700000000000 O
   0.2791600000000000    0.6543200000000000    0.4097400000000000 O
   0.4443500000000000    0.6669900000000000    0.4099200000000000 O
   0.9717600000000000    0.3452600000000000    0.9128500000000001 O
   0.8066200000000000    0.3328000000000000    0.9130700000000000 O
   0.7791500000000000    0.6544200000000000    0.5872900000000000 O
   0.9443100000000000    0.6670500000000000    0.5870100000000000 O
   0.9711300000000000    0.3414600000000000    0.0868300000000000 O
   0.8063399999999999    0.3253500000000000    0.0898400000000000 O
   0.7788900000000000    0.6504500000000000    0.4130200000000000 O
   0.9436700000000000    0.6664900000000000    0.4097700000000000 O
