H4 C8 O4
1.0
  11.8744633416415777    0.0000000000000000   -2.6196794361162494
  -3.4675564673962360   11.3575430345761070   -2.6261211630787904
   0.0000000000000000    0.0000000000000000   25.4220000000000006
H C O
4 8 4
direct
   0.9046800000000000    0.9533100000000000    0.2551400000000000 H
   0.9756500000000000    0.8024600000000000    0.2000900000000000 H
   0.6605200000000000    0.7103600000000000    0.0638500000000000 H
   0.5939500000000000    0.8664300000000000    0.1169700000000000 H
   0.7103300000000000    0.0172100000000000    0.2227050000000000 C
   0.7454700000000000    0.9202300000000000    0.1898900000000000 C
   0.8525500000000000    0.9006400000000000    0.2129550000000000 C
   0.8918199999999999    0.8163000000000000    0.1821700000000000 C
   0.8229600000000000    0.7476800000000000    0.1281100000000000 C
   0.7142100000000000    0.7645300000000000    0.1056050000000000 C
   0.6763800000000000    0.8512200000000000    0.1358400000000000 C
   0.8661799999999999    0.6568900000000000    0.0951800000000000 C
   0.7813200000000000    0.0903700000000000    0.2658750000000000 O
   0.6018900000000000    0.0207600000000000    0.2029300000000000 O
  -0.0252000000000000    0.6708300000000000    0.1034250000000000 O
   0.7848500000000000    0.5670200000000000    0.0598050000000000 O
