Ba4 Zn8 H60 C88 O52
1.0
  11.8744633416415777    0.0000000000000000   -2.6196794361162494
  -3.4675564673962360   11.3575430345761070   -2.6261211630787904
   0.0000000000000000    0.0000000000000000   25.4220000000000006
Ba Zn H C O
4 8 60 88 52
direct
   0.2044300000000000    0.7954599999999999    0.1248550000000000 Ba
   0.7956000000000000    0.2045800000000000    0.3751150000000000 Ba
   0.2044300000000000    0.7954599999999999    0.6248549999999999 Ba
   0.7956000000000000    0.2045800000000000    0.8751150000000000 Ba
   0.8228300000000000    0.4267600000000000    0.0243400000000000 Zn
   0.5734200000000000    0.1777500000000000    0.2263100000000000 Zn
   0.1772100000000000    0.5732800000000000    0.4756350000000000 Zn
   0.4266200000000000    0.8223000000000000    0.2736650000000000 Zn
   0.8228300000000000    0.4267600000000000    0.5243400000000000 Zn
   0.5734200000000000    0.1777500000000000    0.7263100000000000 Zn
   0.1772100000000000    0.5732800000000000    0.9756350000000000 Zn
   0.4266200000000000    0.8223000000000000    0.7736650000000000 Zn
   0.0473300000000000    0.0951100000000000    0.4950050000000000 H
   0.1981400000000000    0.0243600000000000    0.0501450000000000 H
   0.2899400000000000    0.3396900000000000    0.1862650000000000 H
   0.1340400000000000    0.4061900000000000    0.1330100000000000 H
   0.6043500000000001    0.1738300000000000    0.0828750000000000 H
   0.5194900000000000    0.0000000000000000    0.4057000000000000 H
   0.8258799999999999    0.3955200000000000    0.1673000000000000 H
   0.9905100000000000    0.4811700000000000    0.3443700000000000 H
   0.9527099999999999    0.9049300000000000    0.0000000000000000 H
   0.8018999999999999    0.9756800000000000    0.4498250000000000 H
   0.7101000000000000    0.6603599999999999    0.3137050000000000 H
   0.8659900000000000    0.5938500000000000    0.3669600000000000 H
   0.3956800000000000    0.8262100000000000    0.4170950000000000 H
   0.4805400000000000    0.9900800000000000    0.0942500000000000 H
   0.0953600000000000    0.0467400000000000    0.2448300000000000 H
   0.0243800000000000    0.1975800000000000    0.2998800000000000 H
   0.3395100000000000    0.2896900000000000    0.4361050000000000 H
   0.4060800000000000    0.1336200000000000    0.3830000000000000 H
   0.1741600000000000    0.6045199999999999    0.3326700000000000 H
   0.0000000000000000    0.5188700000000001    0.1556000000000000 H
   0.9022400000000000    0.5046600000000000    0.4448900000000000 H
   0.7630700000000000    0.4751300000000000    0.4274500000000000 H
   0.4957000000000000    0.0976500000000000    0.3054850000000000 H
   0.5248200000000000    0.2367900000000000    0.3231600000000000 H
   0.0977900000000000    0.4953900000000000    0.0550800000000000 H
   0.2369700000000000    0.5249200000000001    0.0725250000000000 H
   0.5043400000000000    0.9024000000000000    0.1944850000000000 H
   0.4752200000000000    0.7632600000000000    0.1768150000000000 H
   0.0473300000000000    0.0951100000000000    0.9950049999999999 H
   0.1981400000000000    0.0243600000000000    0.5501450000000000 H
   0.2899400000000000    0.3396900000000000    0.6862650000000000 H
   0.1340400000000000    0.4061900000000000    0.6330100000000000 H
   0.6043500000000001    0.1738300000000000    0.5828750000000000 H
   0.5194900000000000    0.0000000000000000    0.9056999999999999 H
   0.9046800000000000    0.9533100000000000    0.7551399999999999 H
   0.9756500000000000    0.8024600000000000    0.7000900000000000 H
   0.6605200000000000    0.7103600000000000    0.5638500000000000 H
   0.5939500000000000    0.8664300000000000    0.6169700000000000 H
   0.8258799999999999    0.3955200000000000    0.6673000000000000 H
   0.9905100000000000    0.4811700000000000    0.8443700000000001 H
   0.9527099999999999    0.9049300000000000    0.5000000000000000 H
   0.8018999999999999    0.9756800000000000    0.9498249999999999 H
   0.7101000000000000    0.6603599999999999    0.8137050000000000 H
   0.8659900000000000    0.5938500000000000    0.8669600000000000 H
   0.3956800000000000    0.8262100000000000    0.9170950000000000 H
   0.4805400000000000    0.9900800000000000    0.5942499999999999 H
   0.0953600000000000    0.0467400000000000    0.7448300000000000 H
   0.0243800000000000    0.1975800000000000    0.7998799999999999 H
   0.3395100000000000    0.2896900000000000    0.9361050000000000 H
   0.4060800000000000    0.1336200000000000    0.8830000000000000 H
   0.1741600000000000    0.6045199999999999    0.8326700000000000 H
   0.0000000000000000    0.5188700000000001    0.6556000000000000 H
   0.9022400000000000    0.5046600000000000    0.9448900000000000 H
   0.7630700000000000    0.4751300000000000    0.9274500000000000 H
   0.4957000000000000    0.0976500000000000    0.8054850000000000 H
   0.5248200000000000    0.2367900000000000    0.8231600000000000 H
   0.0977900000000000    0.4953900000000000    0.5550800000000000 H
   0.2369700000000000    0.5249200000000001    0.5725250000000000 H
   0.5043400000000000    0.9024000000000000    0.6944850000000000 H
   0.4752200000000000    0.7632600000000000    0.6768149999999999 H
   0.9832700000000000    0.2894200000000000    0.0273200000000000 C
   0.0802700000000000    0.2544400000000000    0.0601800000000000 C
   0.0999400000000000    0.1473500000000000    0.0371800000000000 C
   0.1842400000000000    0.1081900000000000    0.0680300000000000 C
   0.2527300000000000    0.1771300000000000    0.1221000000000000 C
   0.2358400000000000    0.2859200000000000    0.1445250000000000 C
   0.1492400000000000    0.3236900000000000    0.1142100000000000 C
   0.3432900000000000    0.1338800000000000    0.1551500000000000 C
   0.6423700000000000    0.2129600000000000    0.4857700000000000 C
   0.5685200000000000    0.1035500000000000    0.4934250000000000 C
   0.5583500000000000    0.0974900000000000    0.0467900000000000 C
   0.5098200000000001    0.0000000000000000    0.4468100000000000 C
   0.7871700000000000    0.3581400000000000    0.2645600000000000 C
   0.8965600000000000    0.4317300000000000    0.2567250000000000 C
   0.9023500000000000    0.4416000000000000    0.2033050000000000 C
   0.9950800000000000    0.4905700000000000    0.3032250000000000 C
   0.0167600000000000    0.7106200000000000    0.4726500000000000 C
   0.9197700000000000    0.7456000000000000    0.4397900000000000 C
   0.9001000000000000    0.8526899999999999    0.4627900000000000 C
   0.8158000000000000    0.8918600000000000    0.4319400000000000 C
   0.7473000000000000    0.8229100000000000    0.3778700000000000 C
   0.7642000000000000    0.7141300000000000    0.3554450000000000 C
   0.8507900000000000    0.6763500000000000    0.3857600000000000 C
   0.6567499999999999    0.8661700000000000    0.3448200000000000 C
   0.3576600000000000    0.7870800000000000    0.0142000000000000 C
   0.4315000000000000    0.8964900000000000    0.0065450000000000 C
   0.4416700000000000    0.9025500000000000    0.4531800000000000 C
   0.4902100000000000    0.9948300000000000    0.0531600000000000 C
   0.2897000000000000    0.9828300000000000    0.2772650000000000 C
   0.2545700000000000    0.0798200000000000    0.3100750000000000 C
   0.1474800000000000    0.0994000000000000    0.2870150000000000 C
   0.1082100000000000    0.1837500000000000    0.3177950000000000 C
   0.1770700000000000    0.2523700000000000    0.3718600000000000 C
   0.2858200000000000    0.2355100000000000    0.3943650000000000 C
   0.3236500000000000    0.1488300000000000    0.3641250000000000 C
   0.1338500000000000    0.3431500000000000    0.4047900000000000 C
   0.2128700000000000    0.6419000000000000    0.2354100000000000 C
   0.1034800000000000    0.5683200000000000    0.2432450000000000 C
   0.0976800000000000    0.5584400000000000    0.2966650000000000 C
   0.0000000000000000    0.5094700000000000    0.1967450000000000 C
   0.9832700000000000    0.2894200000000000    0.5273200000000000 C
   0.0802700000000000    0.2544400000000000    0.5601800000000000 C
   0.0999400000000000    0.1473500000000000    0.5371800000000000 C
   0.1842400000000000    0.1081900000000000    0.5680300000000000 C
   0.2527300000000000    0.1771300000000000    0.6221000000000000 C
   0.2358400000000000    0.2859200000000000    0.6445250000000000 C
   0.1492400000000000    0.3236900000000000    0.6142100000000000 C
   0.3432900000000000    0.1338800000000000    0.6551500000000000 C
   0.6423700000000000    0.2129600000000000    0.9857700000000000 C
   0.5685200000000000    0.1035500000000000    0.9934250000000000 C
   0.5583500000000000    0.0974900000000000    0.5467900000000000 C
   0.5098200000000001    0.0000000000000000    0.9468099999999999 C
   0.7103300000000000    0.0172100000000000    0.7227049999999999 C
   0.7454700000000000    0.9202300000000000    0.6898900000000000 C
   0.8525500000000000    0.9006400000000000    0.7129550000000000 C
   0.8918199999999999    0.8163000000000000    0.6821699999999999 C
   0.8229600000000000    0.7476800000000000    0.6281099999999999 C
   0.7142100000000000    0.7645300000000000    0.6056049999999999 C
   0.6763800000000000    0.8512200000000000    0.6358400000000000 C
   0.8661799999999999    0.6568900000000000    0.5951800000000000 C
   0.7871700000000000    0.3581400000000000    0.7645600000000000 C
   0.8965600000000000    0.4317300000000000    0.7567250000000000 C
   0.9023500000000000    0.4416000000000000    0.7033050000000001 C
   0.9950800000000000    0.4905700000000000    0.8032250000000001 C
   0.0167600000000000    0.7106200000000000    0.9726500000000000 C
   0.9197700000000000    0.7456000000000000    0.9397900000000000 C
   0.9001000000000000    0.8526899999999999    0.9627900000000000 C
   0.8158000000000000    0.8918600000000000    0.9319400000000000 C
   0.7473000000000000    0.8229100000000000    0.8778699999999999 C
   0.7642000000000000    0.7141300000000000    0.8554450000000000 C
   0.8507900000000000    0.6763500000000000    0.8857600000000000 C
   0.6567499999999999    0.8661700000000000    0.8448200000000000 C
   0.3576600000000000    0.7870800000000000    0.5142000000000000 C
   0.4315000000000000    0.8964900000000000    0.5065450000000000 C
   0.4416700000000000    0.9025500000000000    0.9531800000000000 C
   0.4902100000000000    0.9948300000000000    0.5531600000000000 C
   0.2897000000000000    0.9828300000000000    0.7772650000000000 C
   0.2545700000000000    0.0798200000000000    0.8100750000000000 C
   0.1474800000000000    0.0994000000000000    0.7870150000000000 C
   0.1082100000000000    0.1837500000000000    0.8177950000000000 C
   0.1770700000000000    0.2523700000000000    0.8718600000000001 C
   0.2858200000000000    0.2355100000000000    0.8943650000000001 C
   0.3236500000000000    0.1488300000000000    0.8641250000000000 C
   0.1338500000000000    0.3431500000000000    0.9047900000000000 C
   0.2128700000000000    0.6419000000000000    0.7354100000000000 C
   0.1034800000000000    0.5683200000000000    0.7432449999999999 C
   0.0976800000000000    0.5584400000000000    0.7966650000000000 C
   0.0000000000000000    0.5094700000000000    0.6967449999999999 C
   0.9101100000000000    0.2182900000000000    0.4841850000000000 O
   0.9797400000000001    0.3979200000000000    0.0470200000000000 O
   0.3294400000000000    0.0252400000000000    0.1467400000000000 O
   0.4328200000000000    0.2151700000000000    0.1907850000000000 O
   0.7068300000000000    0.2932900000000000    0.0312000000000000 O
   0.6393100000000000    0.2219600000000000    0.4369050000000000 O
   0.7065600000000000    0.2937800000000000    0.2192200000000000 O
   0.7784300000000000    0.3611500000000000    0.3134650000000000 O
   0.0899300000000000    0.7817499999999999    0.0157850000000000 O
   0.0203000000000000    0.6021200000000000    0.4529500000000000 O
   0.6706000000000000    0.9748000000000000    0.3532350000000000 O
   0.5672100000000000    0.7848800000000000    0.3091900000000000 O
   0.2931900000000000    0.7067500000000000    0.4687700000000000 O
   0.3607200000000000    0.7780800000000000    0.0630650000000000 O
   0.2187200000000000    0.9096700000000000    0.2340950000000000 O
   0.3981500000000000    0.9792900000000000    0.2970400000000000 O
   0.0252300000000000    0.3292100000000000    0.3965400000000000 O
   0.2151800000000000    0.4330100000000000    0.4401700000000000 O
   0.2934700000000000    0.7062800000000000    0.2807500000000000 O
   0.2216100000000000    0.6388900000000000    0.1865050000000000 O
   0.8262900000000000    0.4458500000000000    0.4442700000000000 O
   0.5544100000000000    0.1738500000000000    0.3062950000000000 O
   0.1737500000000000    0.5541900000000000    0.0557050000000000 O
   0.4456300000000000    0.8262000000000000    0.1936800000000000 O
   0.9101100000000000    0.2182900000000000    0.9841850000000000 O
   0.9797400000000001    0.3979200000000000    0.5470200000000000 O
   0.3294400000000000    0.0252400000000000    0.6467400000000000 O
   0.4328200000000000    0.2151700000000000    0.6907850000000000 O
   0.7068300000000000    0.2932900000000000    0.5312000000000000 O
   0.6393100000000000    0.2219600000000000    0.9369050000000000 O
   0.7813200000000000    0.0903700000000000    0.7658750000000000 O
   0.6018900000000000    0.0207600000000000    0.7029300000000001 O
   0.9748000000000000    0.6708300000000000    0.6034250000000000 O
   0.7848500000000000    0.5670200000000000    0.5598050000000000 O
   0.7065600000000000    0.2937800000000000    0.7192200000000000 O
   0.7784300000000000    0.3611500000000000    0.8134650000000000 O
   0.0899300000000000    0.7817499999999999    0.5157850000000000 O
   0.0203000000000000    0.6021200000000000    0.9529500000000000 O
   0.6706000000000000    0.9748000000000000    0.8532350000000000 O
   0.5672100000000000    0.7848800000000000    0.8091900000000001 O
   0.2931900000000000    0.7067500000000000    0.9687700000000000 O
   0.3607200000000000    0.7780800000000000    0.5630650000000000 O
   0.2187200000000000    0.9096700000000000    0.7340949999999999 O
   0.3981500000000000    0.9792900000000000    0.7970400000000000 O
   0.0252300000000000    0.3292100000000000    0.8965400000000000 O
   0.2151800000000000    0.4330100000000000    0.9401700000000000 O
   0.2934700000000000    0.7062800000000000    0.7807500000000001 O
   0.2216100000000000    0.6388900000000000    0.6865050000000000 O
   0.8262900000000000    0.4458500000000000    0.9442699999999999 O
   0.5544100000000000    0.1738500000000000    0.8062950000000000 O
   0.1737500000000000    0.5541900000000000    0.5557050000000000 O
   0.4456300000000000    0.8262000000000000    0.6936800000000000 O
