H12 C12 N6
1.0
  34.4323850995439287    0.0000000000000000    6.1879812828341150
  -0.4278345093964603   36.0789314385876878    2.7877203737568492
   0.0000000000000000    0.0000000000000000   24.0786000000000016
H C N
12 12 6
direct
   0.8223575000000000    0.0054633333333333    0.1360900000000000 H
   0.8460050000000000    0.0508700000000000    0.0581400000000000 H
   0.8715475000000000    0.1037666666666667    0.7889400000000000 H
   0.9679949999999999    0.0874600000000000    0.8705100000000000 H
   0.9256500000000000    0.0000000000000000    0.8640900000000000 H
   0.9574175000000000    0.0182133333333333    0.8990700000000000 H
   0.8891650000000000    0.0662900000000000    0.9667600000000000 H
   0.8765175000000001    0.8969566666666666    0.2112400000000000 H
   0.7801950000000000    0.9132366666666666    0.1294100000000000 H
   0.7907425000000000    0.9824566666666666    0.1008700000000000 H
   0.8590450000000001    0.9344666666666666    0.0334800000000000 H
   0.9021975000000000    0.9498899999999999    0.9421000000000000 H
   0.8582600000000000    0.0285666666666667    0.0327500000000000 C
   0.8920675000000000    0.0914566666666667    0.8136400000000000 C
   0.9411225000000000    0.0839800000000000    0.8548300000000000 C
   0.9270975000000000    0.0172066666666667    0.8926700000000000 C
   0.8990400000000001    0.0091366666666667    0.9478600000000000 C
   0.8828250000000000    0.0372533333333333    0.9810800000000000 C
   0.8560225000000000    0.9092699999999999    0.1864800000000000 C
   0.8070300000000000    0.9167333333333333    0.1451700000000000 C
   0.8210150000000001    0.9835300000000000    0.1074700000000000 C
   0.8491450000000000    0.9916266666666667    0.0523600000000000 C
   0.8653800000000000    0.9635066666666666    0.0191600000000000 C
   0.8899400000000000    0.9721933333333332    0.9674900000000000 C
   0.8884350000000000    0.0566400000000000    0.8361100000000000 N
   0.9241425000000000    0.1095833333333333    0.8243400000000000 N
   0.9200725000000000    0.0523166666666667    0.8622200000000000 N
   0.8596375000000001    0.9441066666666666    0.1641100000000000 N
   0.8239974999999999    0.8911266666666666    0.1756600000000000 N
   0.8280375000000000    0.9484233333333333    0.1379300000000000 N
