H2 O2
1.0
  34.4323850995439287    0.0000000000000000    6.1879812828341150
  -0.4278345093964603   36.0789314385876878    2.7877203737568492
   0.0000000000000000    0.0000000000000000   24.0786000000000016
H O
2 2
direct
   0.8911085396319061    0.0822652548339148    0.8195719585605151 H
   0.8569766139195055    0.9184645085963590    0.1805758427719677 H
   0.8884350000000000    0.0566400000000000    0.8361100000000000 O
   0.8596375000000001    0.9441066666666666    0.1641100000000000 O
