H3 C7 N1 O4
1.0
  34.4323850995439287    0.0000000000000000    6.1879812828341150
  -0.4278345093964603   36.0789314385876878    2.7877203737568492
   0.0000000000000000    0.0000000000000000   24.0786000000000016
H C N O
3 7 1 4
direct
   0.3982400000000000    0.6155100000000000    0.6577700000000000 H
   0.2825625000000000    0.5999433333333333    0.7344300000000000 H
   0.3615075000000000    0.5091533333333333    0.7414200000000000 H
   0.4256625000000000    0.5465166666666667    0.6766799999999999 C
   0.3847200000000000    0.5601533333333333    0.6955800000000000 C
   0.3756000000000000    0.5967033333333334    0.6806600000000000 C
   0.3113575000000000    0.5881233333333333    0.7241400000000000 C
   0.3179325000000000    0.5514000000000000    0.7424700000000000 C
   0.3552675000000000    0.5376200000000000    0.7279800000000000 C
   0.2850075000000000    0.5275400000000000    0.7764200000000000 C
   0.3397350000000000    0.6107899999999999    0.6944500000000000 N
   0.4326925000000000    0.5135666666666666    0.6959300000000000 O
   0.4491700000000000    0.5678000000000000    0.6435000000000000 O
   0.2926400000000000    0.5015166666666666    0.8098900000000000 O
   0.2511975000000000    0.5370266666666667    0.7660000000000000 O
