H4 O3
1.0
  34.4323850995439287    0.0000000000000000    6.1879812828341150
  -0.4278345093964603   36.0789314385876878    2.7877203737568492
   0.0000000000000000    0.0000000000000000   24.0786000000000016
H O
4 3
direct
   0.4273389703447787    0.5386589571559330    0.6812706193651479 H
   0.3657459452720560    0.6005737023356374    0.6844488586281430 H
   0.3192149726063211    0.5943995279385644    0.7159191080369421 H
   0.2767999220758242    0.5298429445698712    0.7738904832307036 H
   0.4326925000000000    0.5135666666666666    0.6959300000000000 O
   0.3397350000000000    0.6107899999999999    0.6944500000000000 O
   0.2511975000000000    0.5370266666666667    0.7660000000000000 O
