Ca4 H12 C27 O18
1.0
   6.7448906442513765    0.0000000000000000    1.0194667464367080
   2.1490496353520196    8.3114708881023294    3.6102029197706895
   0.0000000000000000    0.0000000000000000   20.3640000000000008
Ca H C O
4 12 27 18
direct
   0.7553600000000000    0.5448200000000000    0.4410400000000000 Ca
   0.2447500000000000    0.4551100000000000    0.0589600000000000 Ca
   0.7553600000000000    0.5448200000000000    0.9410400000000000 Ca
   0.2447500000000000    0.4551100000000000    0.5589600000000000 Ca
   0.2501400000000000    0.2729300000000000    0.2231100000000000 H
   0.2440500000000000    0.9126100000000000    0.1199650000000000 H
   0.2752500000000000    0.8927400000000000    0.3335150000000000 H
   0.2222200000000000    0.4772900000000000    0.2991950000000000 H
   0.2501400000000000    0.2729300000000000    0.7231100000000000 H
   0.2440500000000000    0.9126100000000000    0.6199650000000000 H
   0.2752500000000000    0.8927400000000000    0.8335150000000000 H
   0.2222200000000000    0.4772900000000000    0.7991950000000000 H
   0.7499800000000000    0.7270000000000000    0.7768900000000001 H
   0.7560800000000000    0.0873000000000000    0.8800350000000000 H
   0.7248900000000000    0.1071900000000000    0.6664800000000000 H
   0.7778900000000000    0.5226300000000000    0.7008099999999999 H
   0.2372000000000000    0.6857700000000000    0.2045250000000000 C
   0.2504500000000000    0.6754599999999999    0.3246650000000000 C
   0.2460600000000000    0.8468900000000000    0.1773450000000000 C
   0.2577800000000000    0.0953100000000000    0.1949450000000000 C
   0.2630900000000000    0.8353800000000000    0.2973300000000000 C
   0.2297500000000000    0.6057500000000000    0.1540000000000000 C
   0.2540700000000000    0.5879200000000000    0.4035700000000000 C
   0.2343600000000000    0.6012700000000000    0.2783350000000000 C
   0.2560800000000000    0.9227000000000000    0.2237150000000000 C
   0.2372000000000000    0.6857700000000000    0.7045250000000001 C
   0.2504500000000000    0.6754599999999999    0.8246650000000000 C
   0.2460600000000000    0.8468900000000000    0.6773450000000000 C
   0.2577800000000000    0.0953100000000000    0.6949450000000000 C
   0.2630900000000000    0.8353800000000000    0.7973300000000000 C
   0.2297500000000000    0.6057500000000000    0.6540000000000000 C
   0.2540700000000000    0.5879200000000000    0.9035700000000000 C
   0.2343600000000000    0.6012700000000000    0.7783350000000000 C
   0.2560800000000000    0.9227000000000000    0.7237150000000000 C
   0.7629400000000000    0.3141400000000000    0.7954800000000000 C
   0.7497100000000000    0.3244500000000000    0.6753350000000000 C
   0.7540800000000000    0.1530300000000000    0.8226550000000000 C
   0.7423800000000000    0.9046000000000000    0.8050500000000000 C
   0.7370600000000000    0.1645400000000000    0.7026700000000000 C
   0.7703400000000000    0.3941800000000000    0.8460050000000000 C
   0.7460700000000000    0.4120000000000000    0.5964350000000000 C
   0.7657700000000000    0.3986500000000000    0.7216700000000000 C
   0.7440700000000000    0.0772200000000000    0.7762800000000001 C
   0.2245400000000000    0.4567200000000000    0.1793700000000000 O
   0.3871000000000000    0.5996800000000000    0.4379800000000000 O
   0.2564000000000000    0.1534300000000000    0.2451050000000000 O
   0.1231200000000000    0.5062500000000000    0.4358700000000000 O
   0.2589600000000000    0.1767800000000000    0.1298950000000000 O
   0.2302000000000000    0.6849000000000000    0.0875300000000000 O
   0.2245400000000000    0.4567200000000000    0.6793700000000000 O
   0.3871000000000000    0.5996800000000000    0.9379800000000000 O
   0.2564000000000000    0.1534300000000000    0.7451050000000000 O
   0.1231200000000000    0.5062500000000000    0.9358700000000000 O
   0.2589600000000000    0.1767800000000000    0.6298950000000000 O
   0.2302000000000000    0.6849000000000000    0.5875300000000000 O
   0.7755400000000000    0.5432100000000000    0.8206350000000000 O
   0.6130200000000000    0.4002600000000000    0.5620250000000000 O
   0.7437300000000000    0.8464900000000000    0.7548950000000000 O
   0.8769800000000000    0.4937000000000000    0.5641350000000001 O
   0.7411500000000000    0.8231400000000000    0.8701000000000000 O
   0.7698700000000001    0.3150300000000000    0.9124749999999999 O
