Cd48 H282 C564 O188
1.0
  36.3569932165776919    0.0000000000000000   -0.0222092260839093
  -0.1502506863484353   14.5412237612101372   -0.0005076115595447
   0.0000000000000000    0.0000000000000000   30.4579999999999984
Cd H C O
48 282 564 188
direct
   0.0676333333333333    0.7080600000000000    0.4829900000000000 Cd
   0.1839133333333333    0.2919700000000000    0.2329900000000000 Cd
   0.0172400000000000    0.2919900000000000    0.2329950000000000 Cd
   0.2669366666666667    0.2075100000000000    0.2634950000000000 Cd
   0.1002633333333333    0.2075100000000000    0.2635000000000000 Cd
   0.3179633333333333    0.7925500000000000    0.0135000000000000 Cd
   0.1512933333333333    0.7925500000000000    0.0135050000000000 Cd
   0.2343033333333333    0.7080400000000000    0.4829900000000000 Cd
   0.4009666666666666    0.7080600000000000    0.4829900000000000 Cd
   0.5172466666666666    0.2919700000000000    0.2329900000000000 Cd
   0.3505733333333333    0.2919900000000000    0.2329950000000000 Cd
   0.6002700000000000    0.2075100000000000    0.2634950000000000 Cd
   0.4335966666666666    0.2075100000000000    0.2635000000000000 Cd
   0.6512966666666666    0.7925500000000000    0.0135000000000000 Cd
   0.4846266666666667    0.7925500000000000    0.0135050000000000 Cd
   0.5676366666666667    0.7080400000000000    0.4829900000000000 Cd
   0.7343000000000000    0.7080600000000000    0.4829900000000000 Cd
   0.8505799999999999    0.2919700000000000    0.2329900000000000 Cd
   0.6839066666666667    0.2919900000000000    0.2329950000000000 Cd
   0.9336033333333333    0.2075100000000000    0.2634950000000000 Cd
   0.7669300000000000    0.2075100000000000    0.2635000000000000 Cd
   0.9846299999999999    0.7925500000000000    0.0135000000000000 Cd
   0.8179600000000000    0.7925500000000000    0.0135050000000000 Cd
   0.9009699999999999    0.7080400000000000    0.4829900000000000 Cd
   0.0676333333333333    0.7080600000000000    0.9829900000000000 Cd
   0.1839133333333333    0.2919700000000000    0.7329900000000000 Cd
   0.0172400000000000    0.2919900000000000    0.7329950000000001 Cd
   0.2669366666666667    0.2075100000000000    0.7634950000000000 Cd
   0.1002633333333333    0.2075100000000000    0.7635000000000001 Cd
   0.3179633333333333    0.7925500000000000    0.5135000000000000 Cd
   0.1512933333333333    0.7925500000000000    0.5135050000000000 Cd
   0.2343033333333333    0.7080400000000000    0.9829900000000000 Cd
   0.4009666666666666    0.7080600000000000    0.9829900000000000 Cd
   0.5172466666666666    0.2919700000000000    0.7329900000000000 Cd
   0.3505733333333333    0.2919900000000000    0.7329950000000001 Cd
   0.6002700000000000    0.2075100000000000    0.7634950000000000 Cd
   0.4335966666666666    0.2075100000000000    0.7635000000000001 Cd
   0.6512966666666666    0.7925500000000000    0.5135000000000000 Cd
   0.4846266666666667    0.7925500000000000    0.5135050000000000 Cd
   0.5676366666666667    0.7080400000000000    0.9829900000000000 Cd
   0.7343000000000000    0.7080600000000000    0.9829900000000000 Cd
   0.8505799999999999    0.2919700000000000    0.7329900000000000 Cd
   0.6839066666666667    0.2919900000000000    0.7329950000000001 Cd
   0.9336033333333333    0.2075100000000000    0.7634950000000000 Cd
   0.7669300000000000    0.2075100000000000    0.7635000000000001 Cd
   0.9846299999999999    0.7925500000000000    0.5135000000000000 Cd
   0.8179600000000000    0.7925500000000000    0.5135050000000000 Cd
   0.9009699999999999    0.7080400000000000    0.9829900000000000 Cd
   0.1803833333333333    0.7507300000000000    0.3631650000000000 H
   0.0136600000000000    0.7507400000000000    0.3631900000000000 H
   0.1608100000000000    0.7024100000000000    0.2887600000000000 H
   0.0000000000000000    0.7024100000000000    0.2888050000000000 H
   0.1527666666666667    0.8191600000000000    0.2298300000000000 H
   0.0000000000000000    0.8191300000000000    0.2298600000000000 H
   0.1640433333333333    0.9839700000000000    0.2452700000000000 H
   0.0000000000000000    0.9839400000000000    0.2452750000000000 H
   0.2077600000000000    0.1537600000000000    0.3709950000000000 H
   0.0411033333333333    0.1537500000000000    0.3709700000000000 H
   0.2083500000000000    0.0395000000000000    0.4319700000000000 H
   0.0417000000000000    0.0395100000000000    0.4319550000000000 H
   0.2378133333333333    0.2493000000000000    0.1132550000000000 H
   0.0711033333333333    0.2493400000000000    0.1132600000000000 H
   0.2574600000000000    0.2977000000000000    0.0389250000000000 H
   0.0907266666666666    0.2977700000000000    0.0389300000000000 H
   0.2656100000000000    0.1810100000000000    0.4799900000000000 H
   0.0988833333333333    0.1811000000000000    0.4799850000000000 H
   0.2543200000000000    0.0161800000000000    0.4953450000000000 H
   0.0876200000000000    0.0162500000000000    0.4953400000000000 H
   0.2104400000000000    0.8462700000000000    0.1209100000000000 H
   0.0437700000000000    0.8463000000000001    0.1209050000000000 H
   0.2097900000000000    0.9604700000000000    0.1819050000000000 H
   0.0431200000000000    0.9604800000000000    0.1819050000000000 H
   0.3225466666666666    0.2528100000000000    0.3829450000000000 H
   0.1559233333333333    0.2528700000000000    0.3829150000000000 H
   0.0084600000000000    0.2058600000000000    0.4575300000000000 H
   0.1752066666666666    0.2059300000000000    0.4574900000000000 H
   0.0153000000000000    0.3230300000000000    0.0166600000000000 H
   0.1820433333333333    0.3230900000000000    0.0166200000000000 H
   0.0033366666666667    0.4868900000000000    0.0012250000000000 H
   0.1700600000000000    0.4869300000000000    0.0012000000000000 H
   0.2931433333333333    0.6534400000000000    0.3750100000000000 H
   0.1264866666666667    0.6534900000000000    0.3750000000000000 H
   0.2932500000000000    0.5391000000000000    0.3140850000000000 H
   0.1265933333333333    0.5391500000000000    0.3140700000000000 H
   0.2625033333333333    0.7472600000000000    0.1328650000000000 H
   0.0958000000000000    0.7472200000000000    0.1328700000000000 H
   0.2432066666666667    0.7943500000000000    0.2073800000000000 H
   0.0764833333333333    0.7942700000000000    0.2073850000000000 H
   0.2362133333333333    0.6772600000000000    0.2664950000000000 H
   0.0694966666666667    0.6771500000000000    0.2664900000000000 H
   0.2481200000000000    0.5133400000000000    0.2511350000000000 H
   0.0814266666666667    0.5132500000000000    0.2511200000000000 H
   0.2917733333333333    0.3465900000000000    0.1250900000000000 H
   0.1251300000000000    0.3465700000000000    0.1250750000000000 H
   0.2917166666666666    0.4608500000000000    0.0641350000000000 H
   0.1250733333333333    0.4608500000000000    0.0641300000000000 H
   0.5137166666666666    0.7507300000000000    0.3631650000000000 H
   0.3469933333333333    0.7507400000000000    0.3631900000000000 H
   0.4941433333333333    0.7024100000000000    0.2887600000000000 H
   0.3333333333333333    0.7024100000000000    0.2888050000000000 H
   0.4861000000000000    0.8191600000000000    0.2298300000000000 H
   0.3333333333333333    0.8191300000000000    0.2298600000000000 H
   0.4973766666666666    0.9839700000000000    0.2452700000000000 H
   0.3333333333333333    0.9839400000000000    0.2452750000000000 H
   0.5410933333333333    0.1537600000000000    0.3709950000000000 H
   0.3744366666666666    0.1537500000000000    0.3709700000000000 H
   0.5416833333333333    0.0395000000000000    0.4319700000000000 H
   0.3750333333333333    0.0395100000000000    0.4319550000000000 H
   0.5711466666666667    0.2493000000000000    0.1132550000000000 H
   0.4044366666666667    0.2493400000000000    0.1132600000000000 H
   0.5907933333333333    0.2977000000000000    0.0389250000000000 H
   0.4240600000000000    0.2977700000000000    0.0389300000000000 H
   0.5989433333333334    0.1810100000000000    0.4799900000000000 H
   0.4322166666666666    0.1811000000000000    0.4799850000000000 H
   0.5876533333333334    0.0161800000000000    0.4953450000000000 H
   0.4209533333333333    0.0162500000000000    0.4953400000000000 H
   0.5437733333333333    0.8462700000000000    0.1209100000000000 H
   0.3771033333333333    0.8463000000000001    0.1209050000000000 H
   0.5431233333333333    0.9604700000000000    0.1819050000000000 H
   0.3764533333333333    0.9604800000000000    0.1819050000000000 H
   0.6558800000000000    0.2528100000000000    0.3829450000000000 H
   0.4892566666666667    0.2528700000000000    0.3829150000000000 H
   0.3417933333333333    0.2058600000000000    0.4575300000000000 H
   0.5085400000000000    0.2059300000000000    0.4574900000000000 H
   0.3486333333333333    0.3230300000000000    0.0166600000000000 H
   0.5153766666666666    0.3230900000000000    0.0166200000000000 H
   0.3366700000000000    0.4868900000000000    0.0012250000000000 H
   0.5033933333333334    0.4869300000000000    0.0012000000000000 H
   0.6264766666666666    0.6534400000000000    0.3750100000000000 H
   0.4598200000000000    0.6534900000000000    0.3750000000000000 H
   0.6265833333333333    0.5391000000000000    0.3140850000000000 H
   0.4599266666666667    0.5391500000000000    0.3140700000000000 H
   0.5958366666666666    0.7472600000000000    0.1328650000000000 H
   0.4291333333333333    0.7472200000000000    0.1328700000000000 H
   0.5765400000000001    0.7943500000000000    0.2073800000000000 H
   0.4098166666666666    0.7942700000000000    0.2073850000000000 H
   0.5695466666666666    0.6772600000000000    0.2664950000000000 H
   0.4028300000000000    0.6771500000000000    0.2664900000000000 H
   0.5814533333333334    0.5133400000000000    0.2511350000000000 H
   0.4147600000000000    0.5132500000000000    0.2511200000000000 H
   0.6251066666666667    0.3465900000000000    0.1250900000000000 H
   0.4584633333333333    0.3465700000000000    0.1250750000000000 H
   0.6250499999999999    0.4608500000000000    0.0641350000000000 H
   0.4584066666666666    0.4608500000000000    0.0641300000000000 H
   0.8470500000000000    0.7507300000000000    0.3631650000000000 H
   0.6803266666666666    0.7507400000000000    0.3631900000000000 H
   0.8274766666666666    0.7024100000000000    0.2887600000000000 H
   0.6666666666666666    0.7024100000000000    0.2888050000000000 H
   0.8194333333333332    0.8191600000000000    0.2298300000000000 H
   0.6666666666666666    0.8191300000000000    0.2298600000000000 H
   0.8307099999999999    0.9839700000000000    0.2452700000000000 H
   0.6666666666666666    0.9839400000000000    0.2452750000000000 H
   0.8744266666666666    0.1537600000000000    0.3709950000000000 H
   0.7077700000000000    0.1537500000000000    0.3709700000000000 H
   0.8750166666666666    0.0395000000000000    0.4319700000000000 H
   0.7083666666666666    0.0395100000000000    0.4319550000000000 H
   0.9044800000000000    0.2493000000000000    0.1132550000000000 H
   0.7377699999999999    0.2493400000000000    0.1132600000000000 H
   0.9241266666666665    0.2977000000000000    0.0389250000000000 H
   0.7573933333333333    0.2977700000000000    0.0389300000000000 H
   0.9322766666666666    0.1810100000000000    0.4799900000000000 H
   0.7655500000000000    0.1811000000000000    0.4799850000000000 H
   0.9209866666666666    0.0161800000000000    0.4953450000000000 H
   0.7542866666666667    0.0162500000000000    0.4953400000000000 H
   0.8771066666666666    0.8462700000000000    0.1209100000000000 H
   0.7104366666666666    0.8463000000000001    0.1209050000000000 H
   0.8764566666666667    0.9604700000000000    0.1819050000000000 H
   0.7097866666666667    0.9604800000000000    0.1819050000000000 H
   0.9892133333333333    0.2528100000000000    0.3829450000000000 H
   0.8225899999999999    0.2528700000000000    0.3829150000000000 H
   0.6751266666666667    0.2058600000000000    0.4575300000000000 H
   0.8418733333333333    0.2059300000000000    0.4574900000000000 H
   0.6819666666666666    0.3230300000000000    0.0166600000000000 H
   0.8487100000000000    0.3230900000000000    0.0166200000000000 H
   0.6700033333333333    0.4868900000000000    0.0012250000000000 H
   0.8367266666666666    0.4869300000000000    0.0012000000000000 H
   0.9598099999999999    0.6534400000000000    0.3750100000000000 H
   0.7931533333333333    0.6534900000000000    0.3750000000000000 H
   0.9599166666666666    0.5391000000000000    0.3140850000000000 H
   0.7932600000000000    0.5391500000000000    0.3140700000000000 H
   0.9291699999999999    0.7472600000000000    0.1328650000000000 H
   0.7624666666666666    0.7472200000000000    0.1328700000000000 H
   0.9098733333333333    0.7943500000000000    0.2073800000000000 H
   0.7431500000000000    0.7942700000000000    0.2073850000000000 H
   0.9028799999999999    0.6772600000000000    0.2664950000000000 H
   0.7361633333333333    0.6771500000000000    0.2664900000000000 H
   0.9147866666666666    0.5133400000000000    0.2511350000000000 H
   0.7480933333333333    0.5132500000000000    0.2511200000000000 H
   0.9584400000000000    0.3465900000000000    0.1250900000000000 H
   0.7917966666666666    0.3465700000000000    0.1250750000000000 H
   0.9583833333333333    0.4608500000000000    0.0641350000000000 H
   0.7917399999999999    0.4608500000000000    0.0641300000000000 H
   0.1803833333333333    0.7507300000000000    0.8631650000000000 H
   0.0136600000000000    0.7507400000000000    0.8631900000000000 H
   0.1608100000000000    0.7024100000000000    0.7887600000000000 H
   0.0000000000000000    0.7024100000000000    0.7888050000000000 H
   0.1527666666666667    0.8191600000000000    0.7298300000000000 H
   0.0000000000000000    0.8191300000000000    0.7298600000000000 H
   0.1640433333333333    0.9839700000000000    0.7452700000000000 H
   0.0000000000000000    0.9839400000000000    0.7452750000000000 H
   0.2077600000000000    0.1537600000000000    0.8709950000000000 H
   0.0411033333333333    0.1537500000000000    0.8709700000000000 H
   0.2083500000000000    0.0395000000000000    0.9319700000000000 H
   0.0417000000000000    0.0395100000000000    0.9319550000000000 H
   0.2378133333333333    0.2493000000000000    0.6132550000000000 H
   0.0711033333333333    0.2493400000000000    0.6132600000000000 H
   0.2574600000000000    0.2977000000000000    0.5389250000000000 H
   0.0907266666666666    0.2977700000000000    0.5389300000000000 H
   0.2656100000000000    0.1810100000000000    0.9799900000000000 H
   0.0988833333333333    0.1811000000000000    0.9799850000000000 H
   0.2543200000000000    0.0161800000000000    0.9953449999999999 H
   0.0876200000000000    0.0162500000000000    0.9953400000000000 H
   0.2104400000000000    0.8462700000000000    0.6209100000000000 H
   0.0437700000000000    0.8463000000000001    0.6209050000000000 H
   0.2097900000000000    0.9604700000000000    0.6819050000000000 H
   0.0431200000000000    0.9604800000000000    0.6819050000000000 H
   0.3225466666666666    0.2528100000000000    0.8829450000000000 H
   0.1559233333333333    0.2528700000000000    0.8829150000000000 H
   0.0084600000000000    0.2058600000000000    0.9575300000000000 H
   0.1752066666666666    0.2059300000000000    0.9574900000000000 H
   0.0153000000000000    0.3230300000000000    0.5166600000000000 H
   0.1820433333333333    0.3230900000000000    0.5166200000000000 H
   0.0033366666666667    0.4868900000000000    0.5012250000000000 H
   0.1700600000000000    0.4869300000000000    0.5012000000000000 H
   0.2931433333333333    0.6534400000000000    0.8750100000000001 H
   0.1264866666666667    0.6534900000000000    0.8750000000000000 H
   0.2932500000000000    0.5391000000000000    0.8140849999999999 H
   0.1265933333333333    0.5391500000000000    0.8140700000000001 H
   0.2625033333333333    0.7472600000000000    0.6328650000000000 H
   0.2432066666666667    0.7943500000000000    0.7073800000000000 H
   0.2362133333333333    0.6772600000000000    0.7664949999999999 H
   0.2481200000000000    0.5133400000000000    0.7511350000000000 H
   0.2917733333333333    0.3465900000000000    0.6250900000000000 H
   0.2917166666666666    0.4608500000000000    0.5641350000000001 H
   0.5137166666666666    0.7507300000000000    0.8631650000000000 H
   0.3469933333333333    0.7507400000000000    0.8631900000000000 H
   0.4941433333333333    0.7024100000000000    0.7887600000000000 H
   0.3333333333333333    0.7024100000000000    0.7888050000000000 H
   0.4861000000000000    0.8191600000000000    0.7298300000000000 H
   0.3333333333333333    0.8191300000000000    0.7298600000000000 H
   0.4973766666666666    0.9839700000000000    0.7452700000000000 H
   0.3333333333333333    0.9839400000000000    0.7452750000000000 H
   0.5410933333333333    0.1537600000000000    0.8709950000000000 H
   0.3744366666666666    0.1537500000000000    0.8709700000000000 H
   0.5416833333333333    0.0395000000000000    0.9319700000000000 H
   0.3750333333333333    0.0395100000000000    0.9319550000000000 H
   0.5711466666666667    0.2493000000000000    0.6132550000000000 H
   0.4044366666666667    0.2493400000000000    0.6132600000000000 H
   0.5907933333333333    0.2977000000000000    0.5389250000000000 H
   0.4240600000000000    0.2977700000000000    0.5389300000000000 H
   0.5989433333333334    0.1810100000000000    0.9799900000000000 H
   0.4322166666666666    0.1811000000000000    0.9799850000000000 H
   0.5876533333333334    0.0161800000000000    0.9953449999999999 H
   0.4209533333333333    0.0162500000000000    0.9953400000000000 H
   0.5437733333333333    0.8462700000000000    0.6209100000000000 H
   0.3771033333333333    0.8463000000000001    0.6209050000000000 H
   0.5431233333333333    0.9604700000000000    0.6819050000000000 H
   0.3764533333333333    0.9604800000000000    0.6819050000000000 H
   0.6558800000000000    0.2528100000000000    0.8829450000000000 H
   0.4892566666666667    0.2528700000000000    0.8829150000000000 H
   0.3417933333333333    0.2058600000000000    0.9575300000000000 H
   0.5085400000000000    0.2059300000000000    0.9574900000000000 H
   0.3486333333333333    0.3230300000000000    0.5166600000000000 H
   0.5153766666666666    0.3230900000000000    0.5166200000000000 H
   0.3366700000000000    0.4868900000000000    0.5012250000000000 H
   0.5033933333333334    0.4869300000000000    0.5012000000000000 H
   0.6264766666666666    0.6534400000000000    0.8750100000000001 H
   0.4598200000000000    0.6534900000000000    0.8750000000000000 H
   0.6265833333333333    0.5391000000000000    0.8140849999999999 H
   0.4599266666666667    0.5391500000000000    0.8140700000000001 H
   0.5958366666666666    0.7472600000000000    0.6328650000000000 H
   0.4291333333333333    0.7472200000000000    0.6328700000000000 H
   0.5765400000000001    0.7943500000000000    0.7073800000000000 H
   0.4098166666666666    0.7942700000000000    0.7073850000000000 H
   0.5695466666666666    0.6772600000000000    0.7664949999999999 H
   0.4028300000000000    0.6771500000000000    0.7664900000000000 H
   0.5814533333333334    0.5133400000000000    0.7511350000000000 H
   0.4147600000000000    0.5132500000000000    0.7511200000000000 H
   0.6251066666666667    0.3465900000000000    0.6250900000000000 H
   0.4584633333333333    0.3465700000000000    0.6250750000000000 H
   0.6250499999999999    0.4608500000000000    0.5641350000000001 H
   0.4584066666666666    0.4608500000000000    0.5641300000000000 H
   0.8470500000000000    0.7507300000000000    0.8631650000000000 H
   0.6803266666666666    0.7507400000000000    0.8631900000000000 H
   0.8274766666666666    0.7024100000000000    0.7887600000000000 H
   0.6666666666666666    0.7024100000000000    0.7888050000000000 H
   0.8194333333333332    0.8191600000000000    0.7298300000000000 H
   0.6666666666666666    0.8191300000000000    0.7298600000000000 H
   0.8307099999999999    0.9839700000000000    0.7452700000000000 H
   0.6666666666666666    0.9839400000000000    0.7452750000000000 H
   0.8744266666666666    0.1537600000000000    0.8709950000000000 H
   0.7077700000000000    0.1537500000000000    0.8709700000000000 H
   0.8750166666666666    0.0395000000000000    0.9319700000000000 H
   0.7083666666666666    0.0395100000000000    0.9319550000000000 H
   0.9044800000000000    0.2493000000000000    0.6132550000000000 H
   0.7377699999999999    0.2493400000000000    0.6132600000000000 H
   0.9241266666666665    0.2977000000000000    0.5389250000000000 H
   0.7573933333333333    0.2977700000000000    0.5389300000000000 H
   0.9322766666666666    0.1810100000000000    0.9799900000000000 H
   0.7655500000000000    0.1811000000000000    0.9799850000000000 H
   0.9209866666666666    0.0161800000000000    0.9953449999999999 H
   0.7542866666666667    0.0162500000000000    0.9953400000000000 H
   0.8771066666666666    0.8462700000000000    0.6209100000000000 H
   0.7104366666666666    0.8463000000000001    0.6209050000000000 H
   0.8764566666666667    0.9604700000000000    0.6819050000000000 H
   0.7097866666666667    0.9604800000000000    0.6819050000000000 H
   0.9892133333333333    0.2528100000000000    0.8829450000000000 H
   0.8225899999999999    0.2528700000000000    0.8829150000000000 H
   0.6751266666666667    0.2058600000000000    0.9575300000000000 H
   0.8418733333333333    0.2059300000000000    0.9574900000000000 H
   0.6819666666666666    0.3230300000000000    0.5166600000000000 H
   0.8487100000000000    0.3230900000000000    0.5166200000000000 H
   0.6700033333333333    0.4868900000000000    0.5012250000000000 H
   0.8367266666666666    0.4869300000000000    0.5012000000000000 H
   0.9598099999999999    0.6534400000000000    0.8750100000000001 H
   0.7931533333333333    0.6534900000000000    0.8750000000000000 H
   0.9599166666666666    0.5391000000000000    0.8140849999999999 H
   0.7932600000000000    0.5391500000000000    0.8140700000000001 H
   0.9291699999999999    0.7472600000000000    0.6328650000000000 H
   0.7624666666666666    0.7472200000000000    0.6328700000000000 H
   0.9098733333333333    0.7943500000000000    0.7073800000000000 H
   0.7431500000000000    0.7942700000000000    0.7073850000000000 H
   0.9028799999999999    0.6772600000000000    0.7664949999999999 H
   0.7361633333333333    0.6771500000000000    0.7664900000000000 H
   0.9147866666666666    0.5133400000000000    0.7511350000000000 H
   0.7480933333333333    0.5132500000000000    0.7511200000000000 H
   0.9584400000000000    0.3465900000000000    0.6250900000000000 H
   0.7917966666666666    0.3465700000000000    0.6250750000000000 H
   0.9583833333333333    0.4608500000000000    0.5641350000000001 H
   0.7917399999999999    0.4608500000000000    0.5641300000000000 H
   0.1940500000000000    0.8612200000000000    0.4295100000000000 C
   0.0273800000000000    0.8612400000000000    0.4295150000000000 C
   0.1930933333333333    0.9258800000000000    0.3908650000000000 C
   0.0264166666666667    0.9258900000000000    0.3908650000000000 C
   0.1833033333333333    0.8958000000000000    0.3476350000000000 C
   0.0166100000000000    0.8958000000000000    0.3476450000000000 C
   0.1764266666666666    0.8017200000000000    0.3375350000000000 C
   0.0097066666666667    0.8017200000000000    0.3375550000000000 C
   0.1657966666666666    0.7749400000000000    0.2959800000000000 C
   0.0000000000000000    0.7749300000000000    0.2960100000000000 C
   0.1614100000000000    0.8411400000000000    0.2625100000000000 C
   0.0000000000000000    0.8411300000000000    0.2625350000000000 C
   0.1678866666666667    0.9330900000000000    0.2709750000000000 C
   0.0011766666666667    0.9330700000000000    0.2709850000000000 C
   0.1791533333333333    0.9634400000000000    0.3133300000000000 C
   0.0124600000000000    0.9634400000000000    0.3133300000000000 C
   0.1880400000000000    0.0576400000000000    0.3230000000000000 C
   0.0213666666666667    0.0576300000000000    0.3229900000000000 C
   0.1837966666666667    0.1335300000000000    0.2907100000000000 C
   0.0171233333333333    0.1335200000000000    0.2907000000000000 C
   0.2001833333333333    0.0823200000000000    0.3646700000000000 C
   0.0335166666666667    0.0823100000000000    0.3646550000000000 C
   0.2012133333333333    0.0176400000000000    0.3988000000000000 C
   0.0345533333333333    0.0176500000000000    0.3987900000000000 C
   0.2241366666666667    0.1387700000000000    0.1795250000000000 C
   0.0574600000000000    0.1387800000000000    0.1795300000000000 C
   0.2250900000000000    0.0741200000000000    0.1408700000000000 C
   0.0584100000000000    0.0741500000000000    0.1408750000000000 C
   0.2349266666666666    0.1042400000000000    0.0976800000000000 C
   0.0682300000000000    0.1042800000000000    0.0976800000000000 C
   0.2418033333333333    0.1983400000000000    0.0876200000000000 C
   0.0750933333333333    0.1983800000000000    0.0876250000000000 C
   0.2524833333333333    0.2251700000000000    0.0461100000000000 C
   0.0857600000000000    0.2252300000000000    0.0461100000000000 C
   0.2569200000000000    0.1589900000000000    0.0126400000000000 C
   0.0902033333333333    0.1590600000000000    0.0126400000000000 C
   0.2504400000000000    0.0670300000000000    0.0210650000000000 C
   0.0837333333333333    0.0671000000000000    0.0210600000000000 C
   0.2391066666666666    0.0366300000000000    0.0633650000000000 C
   0.0724200000000000    0.0366800000000000    0.0633650000000000 C
   0.2302066666666667    0.9424300000000000    0.0729900000000000 C
   0.0635266666666667    0.9424700000000000    0.0729850000000000 C
   0.2344466666666666    0.8665400000000000    0.0407000000000000 C
   0.0677766666666667    0.8665800000000000    0.0406950000000000 C
   0.2180200000000000    0.9177200000000000    0.1146200000000000 C
   0.0513466666666667    0.9177500000000000    0.1146200000000000 C
   0.2169600000000000    0.9823600000000000    0.1487650000000000 C
   0.0502833333333333    0.9823800000000000    0.1487650000000000 C
   0.3081933333333333    0.3615600000000000    0.3167850000000000 C
   0.1415266666666667    0.3615900000000000    0.3167700000000000 C
   0.3089066666666667    0.4267300000000000    0.3552900000000000 C
   0.1422600000000000    0.4267800000000000    0.3552700000000000 C
   0.3186700000000000    0.3975300000000000    0.3985800000000000 C
   0.1520300000000000    0.3975800000000000    0.3985600000000000 C
   0.3259966666666667    0.3040200000000000    0.4086700000000000 C
   0.1593833333333333    0.3040800000000000    0.4086400000000000 C
   0.0031300000000000    0.2779700000000000    0.4503100000000000 C
   0.1698566666666667    0.2780300000000000    0.4502750000000000 C
   0.0068533333333333    0.3444100000000000    0.4838750000000000 C
   0.1735900000000000    0.3444700000000000    0.4838400000000000 C
   0.3333133333333334    0.4358400000000000    0.4754050000000000 C
   0.1666900000000000    0.4358900000000000    0.4753800000000000 C
   0.3222200000000000    0.4654300000000000    0.4329600000000000 C
   0.1555966666666667    0.4654800000000000    0.4329350000000000 C
   0.3129500000000000    0.5589499999999999    0.4232100000000000 C
   0.1462933333333333    0.5589900000000000    0.4231950000000000 C
   0.3166566666666666    0.6352000000000000    0.4555000000000000 C
   0.1499933333333333    0.6352300000000000    0.4554900000000000 C
   0.3009666666666667    0.5826000000000000    0.3814150000000000 C
   0.1343200000000000    0.5826500000000000    0.3814000000000000 C
   0.3003900000000000    0.5178199999999999    0.3472850000000000 C
   0.1337366666666667    0.5178700000000001    0.3472700000000000 C
   0.2767466666666666    0.6384200000000000    0.0667600000000000 C
   0.1100733333333333    0.6384200000000000    0.0667650000000000 C
   0.2760500000000000    0.5732800000000000    0.1052750000000000 C
   0.1093766666666666    0.5732600000000000    0.1052750000000000 C
   0.2662833333333333    0.6025400000000000    0.1485400000000000 C
   0.0995966666666667    0.6025000000000000    0.1485350000000000 C
   0.2589866666666666    0.6960800000000000    0.1585850000000000 C
   0.0922866666666667    0.6960300000000000    0.1585850000000000 C
   0.2485033333333333    0.7222200000000000    0.2001900000000000 C
   0.0817900000000000    0.7221400000000000    0.2001900000000000 C
   0.2446933333333333    0.6558100000000000    0.2337550000000000 C
   0.0779833333333333    0.6557200000000000    0.2337450000000000 C
   0.2515400000000000    0.5643600000000000    0.2253250000000000 C
   0.0848466666666667    0.5642800000000000    0.2253150000000000 C
   0.2626700000000000    0.5346800000000000    0.1829200000000000 C
   0.0959833333333333    0.5346300000000000    0.1829100000000000 C
   0.2719366666666667    0.4411400000000000    0.1732150000000000 C
   0.1052700000000000    0.4410900000000000    0.1732050000000000 C
   0.2682099999999999    0.3648900000000000    0.2055000000000000 C
   0.1015433333333333    0.3648500000000000    0.2054900000000000 C
   0.2839533333333333    0.4174400000000000    0.1314600000000000 C
   0.1172966666666667    0.4174200000000000    0.1314500000000000 C
   0.2845600000000000    0.4821800000000000    0.0973100000000000 C
   0.1179066666666667    0.4821700000000000    0.0973050000000000 C
   0.5273833333333333    0.8612200000000000    0.4295100000000000 C
   0.3607133333333333    0.8612400000000000    0.4295150000000000 C
   0.5264266666666666    0.9258800000000000    0.3908650000000000 C
   0.3597500000000000    0.9258900000000000    0.3908650000000000 C
   0.5166366666666666    0.8958000000000000    0.3476350000000000 C
   0.3499433333333333    0.8958000000000000    0.3476450000000000 C
   0.5097600000000000    0.8017200000000000    0.3375350000000000 C
   0.3430400000000000    0.8017200000000000    0.3375550000000000 C
   0.4991300000000000    0.7749400000000000    0.2959800000000000 C
   0.3333333333333333    0.7749300000000000    0.2960100000000000 C