H6 O4
1.0
  31.9660987733768707    0.0000000000000000   18.3368054254472952
   5.3101138762916964   15.0777957118969912    9.1761315973080411
   0.0000000000000000    0.0000000000000000   36.8620000000000019
H O
6 4
direct
   0.0564553761963634    0.2806341545604241    0.5564837636047344 H
   0.0566819932216190    0.4927489031626999    0.5567103795576444 H
   0.0526789621639353    0.3944764228079938    0.5527086728840483 H
   0.9435398188626005    0.7193238190679706    0.4435221086978475 H
   0.9433134205462607    0.5072109394411108    0.4432957111805496 H
   0.9473168210061825    0.6054820115564599    0.4472980519602992 H
   0.0664550000000000    0.3051000000000000    0.5664800000000000 O
   0.0665850000000000    0.4285000000000000    0.5666100000000001 O
   0.9335400000000000    0.6948600000000000    0.4335250000000000 O
   0.9334100000000001    0.5714600000000000    0.4333950000000000 O
