H1 O1
1.0
  13.6603125462809913    0.0000000000000000   -3.5893226572597423
  -4.6991874869358261   12.8320709481273720   -3.6325187053683963
   0.0000000000000000    0.0000000000000000   28.2439999999999998
H O
1 1
direct
   0.7061352224144755    0.6314481620914850    0.8006302026788357 H
   0.6824000000000000    0.6820900000000000    0.7875500000000000 O
