H6 O4
1.0
  13.6603125462809913    0.0000000000000000   -3.5893226572597423
  -4.6991874869358261   12.8320709481273720   -3.6325187053683963
   0.0000000000000000    0.0000000000000000   28.2439999999999998
H O
6 4
direct
   0.8367274890370210    0.4604119325528642    0.2978870078143305 H
  -0.1997980009693234    0.1822503704504488    0.2809807026202655 H
  -0.1935584235629051    0.3006097096995543    0.2762038280178821 H
   0.5393928562336383    0.1636721446117634    0.2019558265148467 H
   0.8176781561736229    1.1994927570793907    0.2189662162460231 H
   0.6992179549297803    1.1935747611521195    0.2236937201416762 H
   0.8518500000000000    0.4226800000000000    0.3214300000000000 O
  -0.1739600000000000    0.2517100000000000    0.3067150000000000 O
   0.5772800000000000    0.1484000000000000    0.1784250000000000 O
   0.7483000000000000    1.1737899999999999    0.1932100000000000 O
