H9 O6
1.0
   9.1251749003621931    0.0000000000000000   -1.1431514719405591
  -3.1544695858582923   10.9347489515776513   -5.6365403394162357
   0.0000000000000000    0.0000000000000000   13.4962999999999997
H O
9 6
direct
   0.9719211587202519    0.8932461489356225    1.1044981631846675 H
   0.4198492728254885   -0.0478944134946838    0.2378569736368201 H
   1.2081285534753601    0.9202717219711682    1.1792992508715252 H
   1.0018922710816249    0.8411208569482558    0.7989705547678934 H
   0.4644228021671734   -0.0629468767190172   -0.0851785703724506 H
   1.2365751071638817    0.8852952240854890    0.8515006742359411 H
   0.4618920327208993    0.3351649542758730    0.3015082127522554 H
   0.1250746969280688    0.1521854884025281    0.0242449274250119 H
   0.2886210525363877    0.2526478479312700    0.1655838321453763 H
   1.0813500000000000    0.9246200000000000    1.1181200000000000 O
   0.3299200000000000   -0.0448100000000000    0.1944600000000000 O
   1.1021100000000001    0.8810700000000000    0.8506899999999999 O
   0.3580300000000000   -0.0662899999999999   -0.0858200000000000 O
   0.4050100000000000    0.2629400000000000    0.2308100000000000 O
   0.2158200000000000    0.1602100000000000    0.0751000000000000 O
