H12 C12 N3 O8
1.0
   9.1251749003621931    0.0000000000000000   -1.1431514719405591
  -3.1544695858582923   10.9347489515776513   -5.6365403394162357
   0.0000000000000000    0.0000000000000000   13.4962999999999997
H C N O
12 12 3 8
direct
   0.6612900000000000    0.5503600000000000    0.6073499999999999 H
   0.5683900000000000    0.4952400000000000    0.6901400000000000 H
   0.8014400000000000    0.6118400000000001    0.8530700000000000 H
   0.8940100000000000    0.6690500000000000    0.7726900000000000 H
   0.6242100000000000    0.1605100000000000    0.7042200000000000 H
   0.6961900000000000    0.0557500000000000    0.5960700000000000 H
   0.8953500000000000    0.2589400000000000    0.8291100000000000 H
   0.9538800000000000    0.1395100000000000    0.7270600000000000 H
   0.9522699999999999    0.3260800000000000    0.3806500000000000 H
   0.9529000000000000    0.1816300000000000    0.3723800000000000 H
   0.6648100000000000    0.1103900000000000    0.2949600000000000 H
   0.6740800000000000    0.2473700000000000    0.2881000000000000 H
   0.7999000000000001    0.3939100000000000    0.5342400000000000 C
   0.7242900000000000    0.3455800000000000    0.6825300000000000 C
   0.8158700000000000    0.1985200000000000    0.5283400000000000 C
   0.6792400000000000    0.5260500000000000    0.6752500000000000 C
   0.7813400000000000    0.6357300000000000    0.7845900000000000 C
   0.7114400000000000    0.7412800000000000    0.8253600000000000 C
   0.7247300000000000    0.1470400000000000    0.6698600000000000 C
   0.8555100000000000    0.1628700000000000    0.7614700000000000 C
   0.8085900000000000    0.0867000000000000    0.8192100000000000 C
   0.8837200000000000    0.2445200000000000    0.3790200000000000 C
   0.7386500000000000    0.1813100000000000    0.2832100000000000 C
   0.7613200000000000    0.1176700000000000    0.1636300000000000 C
   0.8407900000000000    0.2842800000000000    0.4891400000000000 N
   0.7432299999999999    0.4206300000000000    0.6316900000000000 N
   0.7616300000000000    0.2353900000000000    0.6273400000000000 N
   0.8116800000000000    0.4608700000000000    0.4908500000000000 O
   0.6752600000000000    0.3738900000000000    0.7684700000000000 O
   0.8395200000000000    0.0983800000000000    0.4789800000000000 O
   0.5884000000000000    0.7667000000000000    0.7667000000000000 O
   0.6641600000000000    1.0428800000000000    0.8028000000000000 O
   0.9127000000000000    1.0739600000000000    0.8796300000000000 O
   0.6359600000000000    0.0646200000000000    0.0831800000000000 O
   0.8918500000000000    1.1171500000000001    1.1466499999999999 O
