Zn48 H380 C329 N282 O2
1.0
  21.4956767899838717    0.0000000000000000   -2.0372391466268098
  -0.0231912079788013   37.7549827336042796    0.0276758580032235
   0.0000000000000000    0.0000000000000000   17.1739999999999995
Zn H C N O
48 380 329 282 2
direct
   0.1041300000000000    0.9135099999999999    0.4570000000000000 Zn
   0.1041300000000000    0.2468433333333333    0.4570000000000000 Zn
   0.1041300000000000    0.5801766666666667    0.4570000000000000 Zn
   0.8958400000000000    0.4198233333333333    0.5426600000000000 Zn
   0.8958400000000000    0.0864900000000000    0.5426600000000000 Zn
   0.8958400000000000    0.7531566666666666    0.5426600000000000 Zn
   0.3648600000000000    0.9119466666666667    0.6001300000000001 Zn
   0.8537500000000000    0.9198166666666666    0.9597200000000000 Zn
   0.1147300000000000    0.9214766666666666    0.1002400000000000 Zn
   0.6052800000000000    0.9133899999999999    0.4596200000000000 Zn
   0.8646300000000000    0.9118733333333333    0.6026300000000000 Zn
   0.3546600000000000    0.9199066666666667    0.9569600000000000 Zn
   0.6136700000000000    0.9214300000000000    0.1024700000000000 Zn
   0.1462200000000000    0.7468500000000000    0.0402500000000000 Zn
   0.6351100000000000    0.7547199999999999    0.3998400000000000 Zn
   0.6453100000000001    0.7467600000000000    0.0430200000000000 Zn
   0.8852400000000000    0.7451900000000000    0.8997200000000000 Zn
   0.3863000000000000    0.7452333333333333    0.8974900000000000 Zn
   0.3946900000000000    0.7532766666666666    0.5403500000000000 Zn
   0.1353400000000000    0.7547900000000000    0.3973300000000000 Zn
   0.3648600000000000    0.5786133333333333    0.6001300000000001 Zn
   0.8537500000000000    0.5864833333333332    0.9597200000000000 Zn
   0.1147300000000000    0.5881433333333332    0.1002400000000000 Zn
   0.6052800000000000    0.5800566666666667    0.4596200000000000 Zn
   0.8646300000000000    0.5785400000000001    0.6026300000000000 Zn
   0.3546600000000000    0.5865733333333333    0.9569600000000000 Zn
   0.6136700000000000    0.5880966666666667    0.1024700000000000 Zn
   0.1462200000000000    0.4135166666666666    0.0402500000000000 Zn
   0.6351100000000000    0.4213866666666666    0.3998400000000000 Zn
   0.8852400000000000    0.4118566666666666    0.8997200000000000 Zn
   0.3863000000000000    0.4119000000000000    0.8974900000000000 Zn
   0.3946900000000000    0.4199433333333333    0.5403500000000000 Zn
   0.1353400000000000    0.4214566666666666    0.3973300000000000 Zn
   0.6453100000000001    0.4134266666666666    0.0430200000000000 Zn
   0.3648600000000000    0.2452800000000000    0.6001300000000001 Zn
   0.8537500000000000    0.2531500000000000    0.9597200000000000 Zn
   0.1147300000000000    0.2548100000000000    0.1002400000000000 Zn
   0.6052800000000000    0.2467233333333333    0.4596200000000000 Zn
   0.8646300000000000    0.2452066666666667    0.6026300000000000 Zn
   0.3546600000000000    0.2532400000000000    0.9569600000000000 Zn
   0.6136700000000000    0.2547633333333333    0.1024700000000000 Zn
   0.1462200000000000    0.0801833333333333    0.0402500000000000 Zn
   0.6351100000000000    0.0880533333333333    0.3998400000000000 Zn
   0.6453100000000001    0.0800933333333333    0.0430200000000000 Zn
   0.8852400000000000    0.0785233333333333    0.8997200000000000 Zn
   0.3863000000000000    0.0785666666666667    0.8974900000000000 Zn
   0.3946900000000000    0.0866100000000000    0.5403500000000000 Zn
   0.1353400000000000    0.0881233333333333    0.3973300000000000 Zn
   0.8086500000000000    0.7934966666666666    0.6387699999999999 H
   0.8218600000000000    0.8357599999999999    0.6838500000000000 H
   0.7638400000000000    0.8306100000000000    0.6041299999999999 H
   0.9826600000000000    0.8753233333333332    0.4249900000000000 H
   0.9115900000000000    0.8994300000000000    0.4130800000000000 H
   0.9400100000000000    0.0000000000000000    0.6361800000000000 H
   0.0155100000000000    0.9947366666666666    0.6830100000000000 H
   0.9508600000000000    0.9685100000000000    0.7065600000000000 H
   0.8086500000000000    0.1268300000000000    0.6387699999999999 H
   0.8218600000000000    0.1690933333333333    0.6838500000000000 H
   0.7638400000000000    0.1639433333333333    0.6041299999999999 H
   0.9826600000000000    0.2086566666666667    0.4249900000000000 H
   0.9115900000000000    0.2327633333333333    0.4130800000000000 H
   0.9400100000000000    0.3333333333333333    0.6361800000000000 H
   0.0155100000000000    0.3280700000000000    0.6830100000000000 H
   0.9508600000000000    0.3018433333333333    0.7065600000000000 H
   0.8086500000000000    0.4601633333333333    0.6387699999999999 H
   0.8218600000000000    0.5024266666666666    0.6838500000000000 H
   0.7638400000000000    0.4972766666666666    0.6041299999999999 H
   0.9826600000000000    0.5419900000000000    0.4249900000000000 H
   0.9115900000000000    0.5660966666666667    0.4130800000000000 H
   0.9400100000000000    0.6666666666666666    0.6361800000000000 H
   0.0155100000000000    0.6614033333333333    0.6830100000000000 H
   0.9508600000000000    0.6351766666666666    0.7065600000000000 H
   0.7848870777078318    0.4202653304072979    0.9765326158831709 H
   0.7770822552541207    0.4497083439143752    0.9140834020301821 H
   0.1913200000000000    0.5398333333333334    0.3611800000000000 H
   0.1781200000000000    0.4975700000000000    0.3161100000000000 H
   0.2361300000000000    0.5027233333333333    0.3958300000000000 H
   0.0173100000000000    0.4580100000000000    0.5749600000000000 H
   0.0883800000000000    0.4339066666666667    0.5868800000000000 H
   0.9844700000000000    0.3385900000000000    0.3169500000000000 H
   0.0491200000000000    0.3648200000000000    0.2934000000000000 H
   0.0599700000000000    0.3302300000000000    0.3637800000000000 H
   0.1913200000000000    0.2065000000000000    0.3611800000000000 H
   0.1781200000000000    0.1642366666666666    0.3161100000000000 H
   0.2361300000000000    0.1693900000000000    0.3958300000000000 H
   0.0173100000000000    0.1246766666666667    0.5749600000000000 H
   0.0883800000000000    0.1005733333333333    0.5868800000000000 H
   0.9844700000000000    0.0052566666666667    0.3169500000000000 H
   0.0491200000000000    0.0314866666666667    0.2934000000000000 H
   0.0599700000000000    0.9968966666666665    0.3637800000000000 H
   0.1913200000000000    0.8731666666666666    0.3611800000000000 H
   0.1781200000000000    0.8309033333333333    0.3161100000000000 H
   0.2361300000000000    0.8360566666666667    0.3958300000000000 H
   0.0173100000000000    0.7913433333333333    0.5749600000000000 H
   0.0883800000000000    0.7672399999999999    0.5868800000000000 H
   0.9844700000000000    0.6719233333333333    0.3169500000000000 H
   0.0491200000000000    0.6981533333333333    0.2934000000000000 H
   0.0599700000000000    0.6635633333333333    0.3637800000000000 H
   0.8442705914579411    0.3189656090883541    1.0028607814506658 H
   0.8840499096171948    0.3237528532506695    0.9402306901044022 H
   0.0336600000000000    0.8788366666666666    0.2040000000000000 H
   0.0023600000000000    0.8929133333333332    0.2910900000000000 H
   0.0615200000000000    0.8601900000000000    0.2955200000000000 H
   0.2408100000000000    0.9826633333333332    0.3558500000000000 H
   0.1746100000000000    0.9954133333333333    0.4024100000000000 H
   0.2433600000000000    0.8908133333333332    0.6661899999999999 H
   0.1778600000000000    0.8761833333333333    0.6030200000000000 H
   0.1720700000000000    0.9150233333333333    0.6589699999999999 H
   0.5574700000000000    0.0396400000000000    0.1380900000000000 H
   0.5706800000000000    0.9974033333333333    0.1833600000000000 H
   0.5129300000000000    0.0024233333333333    0.1033200000000000 H
   0.7326100000000000    0.9579666666666666    0.9258300000000000 H
   0.6614400000000000    0.9339333333333333    0.9133500000000000 H
   0.7639300000000000    0.8385066666666666    0.1840500000000000 H
   0.6990600000000000    0.8646266666666667    0.2069500000000000 H
   0.6886600000000000    0.8299966666666666    0.1367000000000000 H
   0.7836600000000000    0.9546166666666667    0.7057500000000000 H
   0.7518700000000000    0.9404466666666667    0.7924200000000000 H
   0.8111100000000000    0.9731833333333333    0.7974000000000000 H
   0.9898400000000001    0.8504566666666666    0.8577700000000000 H
   0.9236400000000000    0.8377966666666666    0.9045200000000000 H
   0.9938900000000001    0.9428699999999999    0.1670100000000000 H
   0.9282200000000000    0.9573933333333333    0.1040200000000000 H
   0.9225000000000000    0.9187299999999999    0.1607100000000000 H
   0.3085500000000000    0.7938466666666666    0.6369300000000000 H
   0.3217100000000000    0.8362233333333333    0.6814500000000000 H
   0.2637000000000000    0.8308733333333334    0.6018000000000000 H
   0.4841400000000000    0.8753899999999999    0.4246500000000000 H
   0.4131000000000000    0.8994466666666666    0.4113700000000000 H
   0.4391200000000000    0.0000000000000000    0.6347000000000000 H
   0.5145700000000000    0.9951466666666666    0.6818700000000000 H
   0.4500500000000000    0.9687833333333333    0.7052200000000000 H
   0.5339000000000000    0.8788533333333333    0.2058900000000000 H
   0.5023300000000001    0.8929466666666666    0.2926800000000000 H
   0.5614200000000000    0.8601566666666667    0.2974100000000000 H
   0.7416400000000000    0.9823000000000000    0.3569200000000000 H
   0.6756700000000000    0.9954499999999999    0.4034200000000000 H
   0.7435500000000000    0.8909733333333333    0.6680300000000000 H
   0.6783800000000000    0.8763099999999999    0.6043700000000000 H
   0.6721300000000000    0.9150833333333332    0.6604300000000000 H
   0.0590000000000000    0.0397800000000000    0.1366800000000000 H
   0.0725600000000000    0.9975933333333333    0.1820600000000000 H
   0.0143200000000000    0.0025166666666667    0.1025300000000000 H
   0.2332800000000000    0.9580599999999999    0.9234800000000000 H
   0.1621100000000000    0.9340233333333332    0.9111300000000000 H
   0.2655300000000000    0.8388266666666666    0.1820000000000000 H
   0.2007600000000000    0.8649499999999999    0.2052300000000000 H
   0.1901000000000000    0.8302099999999999    0.1352600000000000 H
   0.2842100000000000    0.9544266666666666    0.7034600000000000 H
   0.2528900000000000    0.9404633333333332    0.7906000000000000 H
   0.3120400000000000    0.9732466666666666    0.7947200000000000 H
   0.4917600000000000    0.8511199999999999    0.8558600000000000 H
   0.4254900000000000    0.8379633333333333    0.9018200000000000 H
   0.4923300000000000    0.9422333333333333    0.1667800000000000 H
   0.4268900000000000    0.9566433333333333    0.1032600000000000 H
   0.4212400000000000    0.9177700000000000    0.1593100000000000 H
   0.4425000000000000    0.6270233333333333    0.8618000000000000 H
   0.4293000000000000    0.6692633333333333    0.8166000000000000 H
   0.4870500000000000    0.6642366666666666    0.8966400000000000 H
   0.2673600000000000    0.7087000000000000    0.0741300000000000 H
   0.3385400000000000    0.7327333333333332    0.0866100000000000 H
   0.2360400000000000    0.8281600000000000    0.8159200000000000 H
   0.3009100000000000    0.8020433333333332    0.7930199999999999 H
   0.3113000000000000    0.8366733333333333    0.8632000000000000 H
   0.9663200000000000    0.7878299999999999    0.7958900000000000 H
   0.9976100000000000    0.7737533333333333    0.7088600000000000 H
   0.9384500000000000    0.8064766666666666    0.7044300000000000 H
   0.7591700000000000    0.6839966666666666    0.6441000000000000 H
   0.8253700000000000    0.6712533333333333    0.5975500000000000 H
   0.7566000000000001    0.7758499999999999    0.3337000000000000 H
   0.8221000000000001    0.7904833333333333    0.3969300000000000 H
   0.8278900000000000    0.7516433333333333    0.3409800000000000 H
   0.9409700000000000    0.6268833333333332    0.8632900000000000 H
   0.9274100000000000    0.6690733333333333    0.8179000000000000 H
   0.9856500000000000    0.6641500000000000    0.8974299999999999 H
   0.7666900000000000    0.7086066666666666    0.0764800000000000 H
   0.8378600000000000    0.7326433333333333    0.0888300000000000 H
   0.7344400000000000    0.8278366666666666    0.8179000000000000 H
   0.7992100000000000    0.8017133333333333    0.7947300000000000 H
   0.8098700000000000    0.8364533333333333    0.8647000000000000 H
   0.2163100000000000    0.7120500000000000    0.2942200000000000 H
   0.2481000000000000    0.7262200000000000    0.2075500000000000 H
   0.1888600000000000    0.6934833333333333    0.2025700000000000 H
   0.0101300000000000    0.8162099999999999    0.1421900000000000 H
   0.0763300000000000    0.8288700000000000    0.0954400000000000 H
   0.0060800000000000    0.7237966666666666    0.8329000000000000 H
   0.0717500000000000    0.7092700000000000    0.8959500000000000 H
   0.0774800000000000    0.7479366666666666    0.8392500000000001 H
   0.7157600000000000    0.7122400000000000    0.2965000000000000 H
   0.7470700000000000    0.7262033333333333    0.2093700000000000 H
   0.6879300000000000    0.6934199999999999    0.2052500000000000 H
   0.5082000000000000    0.8155399999999999    0.1441100000000000 H
   0.5744600000000000    0.8287000000000000    0.0981400000000000 H
   0.5076400000000000    0.7244299999999999    0.8331900000000000 H
   0.5730900000000000    0.7100200000000000    0.8967100000000000 H
   0.5787400000000000    0.7488933333333333    0.8406600000000000 H
   0.6914100000000000    0.8728199999999999    0.3630400000000000 H
   0.6782600000000000    0.8304433333333333    0.3185200000000000 H
   0.7362700000000000    0.8357933333333333    0.3981700000000000 H
   0.5158300000000000    0.7912733333333333    0.5753000000000000 H
   0.5868700000000000    0.7672200000000000    0.5885899999999999 H
   0.4854000000000000    0.6715166666666667    0.3180000000000000 H
   0.5499200000000000    0.6978799999999999    0.2947500000000000 H
   0.5608500000000000    0.6633433333333333    0.3652700000000000 H
   0.4660700000000000    0.7878099999999999    0.7940700000000001 H
   0.4976300000000000    0.7737166666666666    0.7072800000000000 H
   0.4385500000000000    0.8065033333333333    0.7025400000000001 H
   0.2583300000000000    0.6843633333333333    0.6430300000000000 H
   0.3243000000000000    0.6712100000000000    0.5965400000000000 H
   0.2564300000000000    0.7756933333333333    0.3319300000000000 H
   0.3215900000000000    0.7903566666666666    0.3955900000000000 H
   0.3278400000000000    0.7515866666666666    0.3395300000000000 H
   0.0336600000000000    0.5455033333333333    0.2040000000000000 H
   0.0023600000000000    0.5595800000000000    0.2910900000000000 H
   0.0615200000000000    0.5268566666666666    0.2955200000000000 H
   0.2408100000000000    0.6493300000000000    0.3558500000000000 H
   0.1746100000000000    0.6620800000000000    0.4024100000000000 H
   0.2433600000000000    0.5574800000000000    0.6661899999999999 H
   0.1778600000000000    0.5428500000000001    0.6030200000000000 H
   0.1720700000000000    0.5816900000000000    0.6589699999999999 H
   0.5574700000000000    0.7063066666666666    0.1380900000000000 H
   0.5706800000000000    0.6640699999999999    0.1833600000000000 H
   0.5129300000000000    0.6690900000000000    0.1033200000000000 H
   0.7326100000000000    0.6246333333333334    0.9258300000000000 H
   0.6614400000000000    0.6006000000000000    0.9133500000000000 H
   0.7639300000000000    0.5051733333333333    0.1840500000000000 H
   0.6990600000000000    0.5312933333333333    0.2069500000000000 H
   0.6886600000000000    0.4966633333333333    0.1367000000000000 H
   0.7836600000000000    0.6212833333333333    0.7057500000000000 H
   0.7518700000000000    0.6071133333333333    0.7924200000000000 H
   0.8111100000000000    0.6398500000000000    0.7974000000000000 H
   0.9898400000000001    0.5171233333333334    0.8577700000000000 H
   0.9236400000000000    0.5044633333333333    0.9045200000000000 H
   0.9938900000000001    0.6095366666666666    0.1670100000000000 H
   0.9282200000000000    0.6240599999999999    0.1040200000000000 H
   0.9225000000000000    0.5853966666666666    0.1607100000000000 H
   0.3085500000000000    0.4605133333333333    0.6369300000000000 H
   0.3217100000000000    0.5028899999999999    0.6814500000000000 H
   0.2637000000000000    0.4975400000000000    0.6018000000000000 H
   0.4841400000000000    0.5420566666666666    0.4246500000000000 H
   0.4131000000000000    0.5661133333333332    0.4113700000000000 H
   0.4391200000000000    0.6666666666666666    0.6347000000000000 H
   0.5145700000000000    0.6618133333333334    0.6818700000000000 H
   0.4500500000000000    0.6354500000000000    0.7052200000000000 H
   0.5339000000000000    0.5455200000000000    0.2058900000000000 H
   0.5023300000000001    0.5596133333333333    0.2926800000000000 H
   0.5614200000000000    0.5268233333333333    0.2974100000000000 H
   0.7416400000000000    0.6489666666666667    0.3569200000000000 H
   0.6756700000000000    0.6621166666666667    0.4034200000000000 H
   0.7435500000000000    0.5576399999999999    0.6680300000000000 H
   0.6783800000000000    0.5429766666666667    0.6043700000000000 H
   0.6721300000000000    0.5817500000000000    0.6604300000000000 H
   0.0590000000000000    0.7064466666666667    0.1366800000000000 H
   0.0725600000000000    0.6642600000000000    0.1820600000000000 H
   0.0143200000000000    0.6691833333333332    0.1025300000000000 H
   0.2332800000000000    0.6247266666666667    0.9234800000000000 H
   0.1621100000000000    0.6006899999999999    0.9111300000000000 H
   0.2655300000000000    0.5054933333333334    0.1820000000000000 H
   0.2007600000000000    0.5316166666666666    0.2052300000000000 H
   0.1901000000000000    0.4968766666666666    0.1352600000000000 H
   0.2842100000000000    0.6210933333333333    0.7034600000000000 H
   0.2528900000000000    0.6071299999999999    0.7906000000000000 H
   0.3120400000000000    0.6399133333333333    0.7947200000000000 H
   0.4917600000000000    0.5177866666666666    0.8558600000000000 H
   0.4254900000000000    0.5046299999999999    0.9018200000000000 H
   0.4923300000000000    0.6089000000000000    0.1667800000000000 H
   0.4268900000000000    0.6233100000000000    0.1032600000000000 H
   0.4212400000000000    0.5844366666666667    0.1593100000000000 H
   0.4425000000000000    0.2936900000000000    0.8618000000000000 H
   0.4293000000000000    0.3359300000000000    0.8166000000000000 H
   0.4870500000000000    0.3309033333333333    0.8966400000000000 H
   0.2673600000000000    0.3753666666666666    0.0741300000000000 H
   0.3385400000000000    0.3994000000000000    0.0866100000000000 H
   0.2360400000000000    0.4948266666666666    0.8159200000000000 H
   0.3009100000000000    0.4687100000000000    0.7930199999999999 H
   0.3113000000000000    0.5033400000000000    0.8632000000000000 H
   0.9663200000000000    0.4544966666666667    0.7958900000000000 H
   0.9976100000000000    0.4404200000000000    0.7088600000000000 H
   0.9384500000000000    0.4731433333333333    0.7044300000000000 H
   0.7591700000000000    0.3506633333333333    0.6441000000000000 H
   0.8253700000000000    0.3379200000000000    0.5975500000000000 H
   0.7566000000000001    0.4425166666666667    0.3337000000000000 H
   0.8221000000000001    0.4571499999999999    0.3969300000000000 H
   0.8278900000000000    0.4183100000000000    0.3409800000000000 H
   0.2163100000000000    0.3787166666666666    0.2942200000000000 H
   0.2481000000000000    0.3928866666666667    0.2075500000000000 H
   0.1888600000000000    0.3601500000000000    0.2025700000000000 H
   0.0101300000000000    0.4828766666666666    0.1421900000000000 H
   0.0763300000000000    0.4955366666666666    0.0954400000000000 H
   0.0060800000000000    0.3904633333333333    0.8329000000000000 H
   0.0717500000000000    0.3759366666666666    0.8959500000000000 H
   0.0774800000000000    0.4146033333333333    0.8392500000000001 H
   0.7157600000000000    0.3789066666666667    0.2965000000000000 H
   0.7470700000000000    0.3928700000000000    0.2093700000000000 H
   0.6879300000000000    0.3600866666666667    0.2052500000000000 H
   0.5082000000000000    0.4822066666666667    0.1441100000000000 H
   0.5744600000000000    0.4953666666666666    0.0981400000000000 H
   0.5076400000000000    0.3910966666666666    0.8331900000000000 H
   0.5730900000000000    0.3766866666666667    0.8967100000000000 H
   0.5787400000000000    0.4155600000000000    0.8406600000000000 H
   0.6914100000000000    0.5394866666666667    0.3630400000000000 H
   0.6782600000000000    0.4971099999999999    0.3185200000000000 H
   0.7362700000000000    0.5024600000000000    0.3981700000000000 H
   0.5158300000000000    0.4579400000000000    0.5753000000000000 H
   0.5868700000000000    0.4338866666666666    0.5885899999999999 H
   0.4854000000000000    0.3381833333333333    0.3180000000000000 H
   0.5499200000000000    0.3645466666666666    0.2947500000000000 H
   0.5608500000000000    0.3300100000000000    0.3652700000000000 H
   0.4660700000000000    0.4544766666666666    0.7940700000000001 H
   0.4976300000000000    0.4403833333333333    0.7072800000000000 H
   0.4385500000000000    0.4731700000000000    0.7025400000000001 H
   0.2583300000000000    0.3510300000000000    0.6430300000000000 H
   0.3243000000000000    0.3378766666666667    0.5965400000000000 H
   0.2564300000000000    0.4423600000000000    0.3319300000000000 H
   0.3215900000000000    0.4570233333333333    0.3955900000000000 H
   0.3278400000000000    0.4182533333333333    0.3395300000000000 H
   0.0336600000000000    0.2121700000000000    0.2040000000000000 H
   0.0023600000000000    0.2262466666666667    0.2910900000000000 H
   0.0615200000000000    0.1935233333333333    0.2955200000000000 H
   0.2408100000000000    0.3159966666666666    0.3558500000000000 H
   0.1746100000000000    0.3287466666666666    0.4024100000000000 H
   0.2433600000000000    0.2241466666666667    0.6661899999999999 H
   0.1778600000000000    0.2095166666666667    0.6030200000000000 H
   0.1720700000000000    0.2483566666666667    0.6589699999999999 H
   0.5574700000000000    0.3729733333333333    0.1380900000000000 H
   0.5706800000000000    0.3307366666666667    0.1833600000000000 H
   0.5129300000000000    0.3357566666666666    0.1033200000000000 H
   0.7326100000000000    0.2913000000000000    0.9258300000000000 H
   0.6614400000000000    0.2672666666666667    0.9133500000000000 H
   0.7639300000000000    0.1718400000000000    0.1840500000000000 H
   0.6990600000000000    0.1979600000000000    0.2069500000000000 H
   0.6886600000000000    0.1633300000000000    0.1367000000000000 H
   0.7836600000000000    0.2879500000000000    0.7057500000000000 H
   0.7518700000000000    0.2737800000000000    0.7924200000000000 H
   0.8111100000000000    0.3065166666666667    0.7974000000000000 H
   0.9898400000000001    0.1837900000000000    0.8577700000000000 H
   0.9236400000000000    0.1711300000000000    0.9045200000000000 H
   0.9938900000000001    0.2762033333333333    0.1670100000000000 H
   0.9282200000000000    0.2907266666666666    0.1040200000000000 H
   0.9225000000000000    0.2520633333333333    0.1607100000000000 H
   0.3085500000000000    0.1271800000000000    0.6369300000000000 H
   0.3217100000000000    0.1695566666666666    0.6814500000000000 H
   0.2637000000000000    0.1642066666666667    0.6018000000000000 H
   0.4841400000000000    0.2087233333333333    0.4246500000000000 H
   0.4131000000000000    0.2327800000000000    0.4113700000000000 H
   0.4391200000000000    0.3333333333333333    0.6347000000000000 H
   0.5145700000000000    0.3284800000000000    0.6818700000000000 H
   0.4500500000000000    0.3021166666666666    0.7052200000000000 H
   0.5339000000000000    0.2121866666666667    0.2058900000000000 H
   0.5023300000000001    0.2262800000000000    0.2926800000000000 H
   0.5614200000000000    0.1934900000000000    0.2974100000000000 H
   0.7416400000000000    0.3156333333333333    0.3569200000000000 H
   0.6756700000000000    0.3287833333333333    0.4034200000000000 H
   0.7435500000000000    0.2243066666666667    0.6680300000000000 H
   0.6783800000000000    0.2096433333333333    0.6043700000000000 H
   0.6721300000000000    0.2484166666666666    0.6604300000000000 H
   0.0590000000000000    0.3731133333333333    0.1366800000000000 H
   0.0725600000000000    0.3309266666666666    0.1820600000000000 H
   0.0143200000000000    0.3358500000000000    0.1025300000000000 H
   0.2332800000000000    0.2913933333333333    0.9234800000000000 H
   0.1621100000000000    0.2673566666666666    0.9111300000000000 H
   0.2655300000000000    0.1721600000000000    0.1820000000000000 H
   0.2007600000000000    0.1982833333333333    0.2052300000000000 H
   0.1901000000000000    0.1635433333333333    0.1352600000000000 H
   0.2842100000000000    0.2877600000000000    0.7034600000000000 H
   0.2528900000000000    0.2737966666666666    0.7906000000000000 H
   0.3120400000000000    0.3065800000000000    0.7947200000000000 H
   0.4917600000000000    0.1844533333333333    0.8558600000000000 H
   0.4254900000000000    0.1712966666666667    0.9018200000000000 H
   0.4923300000000000    0.2755666666666666    0.1667800000000000 H
   0.4268900000000000    0.2899766666666667    0.1032600000000000 H
   0.4212400000000000    0.2511033333333333    0.1593100000000000 H
   0.4425000000000000    0.9603566666666666    0.8618000000000000 H
   0.4293000000000000    0.0025966666666667    0.8166000000000000 H
   0.4870500000000000    0.9975700000000000    0.8966400000000000 H
   0.2673600000000000    0.0420333333333333    0.0741300000000000 H
   0.3385400000000000    0.0660666666666667    0.0866100000000000 H
   0.2360400000000000    0.1614933333333333    0.8159200000000000 H
   0.3009100000000000    0.1353766666666666    0.7930199999999999 H
   0.3113000000000000    0.1700066666666667    0.8632000000000000 H
   0.9663200000000000    0.1211633333333333    0.7958900000000000 H
   0.9976100000000000    0.1070866666666667    0.7088600000000000 H
   0.9384500000000000    0.1398100000000000    0.7044300000000000 H
   0.7591700000000000    0.0173300000000000    0.6441000000000000 H
   0.8253700000000000    0.0045866666666667    0.5975500000000000 H
   0.7566000000000001    0.1091833333333333    0.3337000000000000 H
   0.8221000000000001    0.1238166666666667    0.3969300000000000 H
   0.8278900000000000    0.0849766666666667    0.3409800000000000 H
   0.9409700000000000    0.9602166666666666    0.8632900000000000 H
   0.9274100000000000    0.0024066666666667    0.8179000000000000 H
   0.9856500000000000    0.9974833333333333    0.8974299999999999 H
   0.7666900000000000    0.0419400000000000    0.0764800000000000 H
   0.8378600000000000    0.0659766666666667    0.0888300000000000 H
   0.7344400000000000    0.1611700000000000    0.8179000000000000 H
   0.7992100000000000    0.1350466666666666    0.7947300000000000 H
   0.8098700000000000    0.1697866666666667    0.8647000000000000 H
   0.2163100000000000    0.0453833333333333    0.2942200000000000 H
   0.2481000000000000    0.0595533333333333    0.2075500000000000 H
   0.1888600000000000    0.0268166666666667    0.2025700000000000 H
   0.0101300000000000    0.1495433333333333    0.1421900000000000 H
   0.0763300000000000    0.1622033333333333    0.0954400000000000 H
   0.0060800000000000    0.0571300000000000    0.8329000000000000 H
   0.0717500000000000    0.0426033333333333    0.8959500000000000 H
   0.0774800000000000    0.0812700000000000    0.8392500000000001 H
   0.7157600000000000    0.0455733333333333    0.2965000000000000 H
   0.7470700000000000    0.0595366666666667    0.2093700000000000 H
   0.6879300000000000    0.0267533333333333    0.2052500000000000 H
   0.5082000000000000    0.1488733333333333    0.1441100000000000 H
   0.5744600000000000    0.1620333333333333    0.0981400000000000 H
   0.5076400000000000    0.0577633333333333    0.8331900000000000 H
   0.5730900000000000    0.0433533333333333    0.8967100000000000 H
   0.5787400000000000    0.0822266666666667    0.8406600000000000 H
   0.6914100000000000    0.2061533333333333    0.3630400000000000 H
   0.6782600000000000    0.1637766666666667    0.3185200000000000 H
   0.7362700000000000    0.1691266666666667    0.3981700000000000 H
   0.5158300000000000    0.1246066666666667    0.5753000000000000 H
   0.5868700000000000    0.1005533333333333    0.5885899999999999 H
   0.4854000000000000    0.0048500000000000    0.3180000000000000 H
   0.5499200000000000    0.0312133333333333    0.2947500000000000 H
   0.5608500000000000    0.9966766666666667    0.3652700000000000 H
   0.4660700000000000    0.1211433333333333    0.7940700000000001 H
   0.4976300000000000    0.1070500000000000    0.7072800000000000 H
   0.4385500000000000    0.1398366666666667    0.7025400000000001 H
   0.2583300000000000    0.0176966666666667    0.6430300000000000 H
   0.3243000000000000    0.0045433333333333    0.5965400000000000 H
   0.2564300000000000    0.1090266666666667    0.3319300000000000 H
   0.3215900000000000    0.1236900000000000    0.3955900000000000 H
   0.3278400000000000    0.0849200000000000    0.3395300000000000 H
   0.8104600000000000    0.8220466666666666    0.6279700000000000 C
   0.9155100000000000    0.8579200000000000    0.4976300000000000 C
   0.8572300000000000    0.8303333333333333    0.5724000000000000 C
   0.9460700000000000    0.8871866666666666    0.4565800000000000 C
   0.9720299999999999    0.9821366666666667    0.6591000000000000 C
   0.9851000000000000    0.9568399999999999    0.5965100000000000 C
   0.9734100000000000    0.9156500000000000    0.5097500000000000 C
   0.8104600000000000    0.1553800000000000    0.6279700000000000 C