H4 O2
1.0
  21.4956767899838717    0.0000000000000000   -2.0372391466268098
  -0.0231912079788013   37.7549827336042796    0.0276758580032235
   0.0000000000000000    0.0000000000000000   17.1739999999999995
H O
4 2
direct
   0.8442705914579411    0.3189656090883541    1.0028607814506658 H
   0.8840499096171948    0.3237528532506695    0.9402306901044022 H
   0.7848870777078318    0.4202653304072979    0.9765326158831709 H
   0.7770822552541207    0.4497083439143752    0.9140834020301821 H
   0.8618400000000001    0.3061566666666666    0.9689100000000000 O
   0.8069800000000000    0.4322199999999999    0.9368000000000000 O
