H3 O3
1.0
  14.1530373134598921    0.0000000000000000   -1.5622598387630748
   1.2391993816077134   12.7808012683038363   -1.7541675611942449
   0.0000000000000000    0.0000000000000000   25.9200000000000017
H O
3 3
direct
   0.0869105639060566    0.6582824379812268    0.0811628995735168 H
   0.0875720932430933    0.8368394903938132    0.2386851747207644 H
   0.0000000000000000    0.6665239179051365    0.3539000220616706 H
   0.1015900000000000    0.6845800000000000    0.0496050000000000 O
   0.1089400000000000    0.9065100000000000    0.2491800000000000 O
   0.0000000000000000    0.6975000000000000    0.3904900000000000 O
