H7 O5
1.0
  26.9758318654512408    0.0000000000000000    4.0623755570977922
   2.1376445088146925    8.3156317168056848    3.6104882768525575
   0.0000000000000000    0.0000000000000000   20.3670000000000009
H O
7 5
direct
   0.7286123558000092    0.5864715574187923    0.8144386745056851 H
   0.6581584827385448    0.4488514804079217    0.8121179865434370 H
   0.6210552301155163    0.3765925047271014    0.8108959880879985 H
   0.6856258673221401    0.8870327631581726    0.0688518476682406 H
   0.6924055782049728    0.2023875268684098    0.1856458307910626 H
   0.6950585955389215    0.6127296124756616    0.0207623126512961 H
   0.6939296718570312    0.4029545475339650    0.0994838290087628 H
   0.7192900000000000    0.4937600000000000    0.8140800000000000 O
   0.6532725000000000    0.4002600000000000    0.8119300000000000 O
   0.6854000000000000    0.8230200000000000    0.1199450000000000 O
   0.6922349999999999    0.3152200000000000    0.1623600000000000 O
   0.6937175000000000    0.5433000000000000    0.0705200000000000 O
