H5 O3
1.0
  20.4719999875277452    0.0000000000000000   -0.0007146076087883
  -0.0026455150838022   12.6309994901722682   -0.0024249779011150
   0.0000000000000000    0.0000000000000000   30.7719999999999985
H O
5 3
direct
   0.9290597703400312    0.0977319133394766    0.3274237083611598 H
   0.9828833446490405    0.0306502956290234    0.3493576603595919 H
   0.8792957764134527    0.0211752704999085    0.4584592302710771 H
   0.9668669113177939    0.2673882914012418    0.4646332164472646 H
   1.0178892281399066    0.2580271371930346    0.5013685182098462 H
   0.9654400000000000    0.0501100000000000    0.3208500000000000 O
   0.8582300000000000    0.0554400000000000    0.4833000000000000 O
   0.9908600000000000    0.3097200000000000    0.4859600000000000 O
