H2 O2
1.0
  13.5919994017179881    0.0000000000000000   -0.0040328275236546
   0.0031815149266886   21.1445460480408265    6.8030218506369557
   0.0000000000000000    0.0000000000000000   22.2220000000000013
H O
2 2
direct
   0.3305472850869131    0.4671615693231979    0.6717356029907440 H
   0.1695873081458875    0.3281995252320100    0.5327763665029345 H
   0.3492800000000000    0.5075300000000000    0.6776100000000000 O
   0.1508700000000000    0.3223000000000000    0.4924300000000000 O
