H2 C6 N6
1.0
  26.7020440587815244    0.0000000000000000   15.3946915228233863
   4.4436099572262462   12.5952583233731925    7.7065036375478408
   0.0000000000000000    0.0000000000000000   30.8219999999999992
H C N
2 6 6
direct
   0.3336800000000000    0.3328500000000000    0.4998700000000000 H
   0.1663300000000000    0.6671600000000000    0.5001250000000000 H
   0.2534100000000000    0.5999600000000000    0.4733000000000000 C
   0.2999800000000000    0.5069000000000000    0.4732550000000000 C
   0.2983100000000000    0.4034900000000000    0.4999250000000000 C
   0.2000350000000000    0.4931000000000000    0.5267550000000000 C
   0.2466000000000000    0.4000400000000000    0.5266900000000000 C
   0.2017000000000000    0.5965200000000001    0.5000700000000000 C
   0.2711300000000000    0.6854700000000000    0.4430500000000000 N
   0.3427300000000000    0.5423800000000000    0.4429800000000000 N
   0.3241350000000000    0.6483400000000000    0.4258200000000000 N
   0.1572850000000000    0.4576200000000000    0.5570250000000000 N
   0.2288800000000000    0.3145300000000000    0.5569350000000000 N
   0.1758800000000000    0.3516600000000000    0.5741499999999999 N
