H8 C10 N2
1.0
  38.1201009512506914    0.0000000000000000   -9.0688345153308401
  -4.0925546600308698   13.2876605554250506   -3.1815471579816057
   0.0000000000000000    0.0000000000000000   28.5399999999999991
H C N
8 10 2
direct
   0.7923050000000000    0.0162600000000000    0.2018850000000000 H
   0.7608200000000001    0.0370300000000000    0.3391500000000000 H
   0.8565150000000000    0.0840700000000000    0.2547700000000000 H
   0.8267949999999999    0.1002800000000000    0.3858400000000000 H
   0.7077300000000000    0.9833200000000000    0.2980500000000000 H
   0.7392000000000000    0.9636100000000000    0.1608550000000000 H
   0.6435150000000001    0.9155200000000000    0.2452000000000000 H
   0.6732300000000000    0.9001800000000000    0.1141600000000000 H
   0.7696550000000000    0.0199200000000000    0.2651650000000000 C
   0.7978799999999999    0.0344300000000000    0.2424700000000000 C
   0.7805949999999999    0.0447800000000000    0.3180400000000000 C
   0.8343350000000000    0.0717900000000000    0.2717500000000000 C
   0.8176250000000000    0.0811500000000000    0.3449050000000000 C
   0.7303750000000000    0.9801800000000001    0.2348200000000000 C
   0.7021500000000001    0.9653900000000000    0.2575100000000000 C
   0.7194300000000000    0.9555800000000000    0.1819550000000000 C
   0.6656950000000000    0.9280100000000000    0.2282100000000000 C
   0.6824000000000000    0.9191300000000000    0.1550900000000000 C
   0.8444150000000000    0.0951500000000000    0.3225000000000000 N
   0.6556100000000000    0.9048600000000000    0.1774850000000000 N
