H14 C10 N4
1.0
  34.4719999947496163    0.0000000000000000   -0.0006016498997209
   0.2419266558071727   16.9442620939089146    0.0192246230540824
   0.0000000000000000    0.0000000000000000   35.7060000000000031
H C N
14 10 4
direct
   0.5689000000000000    0.9688800000000000    0.3476150000000000 H
   0.6041650000000000    0.1635400000000000    0.4771400000000000 H
   0.6554200000000000    0.1654200000000000    0.4811000000000000 H
   0.6335800000000000    0.1307000000000000    0.4390500000000000 H
   0.6044700000000000    0.8143300000000000    0.4708400000000000 H
   0.6558550000000000    0.8108600000000000    0.4695600000000000 H
   0.5445550000000000    0.0906600000000000    0.4054750000000000 H
   0.5241650000000000    0.9986300000000000    0.4181400000000000 H
   0.5538900000000000    0.0493600000000000    0.4503650000000000 H
   0.6980600000000000    0.8967800000000000    0.3740000000000000 H
   0.6987500000000000    0.9231400000000000    0.4225950000000000 H
   0.6797100000000000    0.8312900000000000    0.4080400000000000 H
   0.6347050000000000    0.9270500000000000    0.5501400000000000 H
   0.6312700000000000    0.8007000000000000    0.5131050000000000 H
   0.6311100000000001    0.1319500000000000    0.4696750000000000 C
   0.6314649999999999    0.0499600000000000    0.4847100000000000 C
   0.6280450000000000    0.9788300000000000    0.4643500000000000 C
   0.6314150000000001    0.9182500000000000    0.4908900000000000 C
   0.6307550000000000    0.8313199999999999    0.4860600000000000 C
   0.5501549999999999    0.0351800000000000    0.4206600000000000 C
   0.5854200000000001    0.9938000000000000    0.4061000000000000 C
   0.6197200000000000    0.9695800000000000    0.4244550000000000 C
   0.6428250000000000    0.9319100000000000    0.3968500000000000 C
   0.6819550000000000    0.8941000000000000    0.4005650000000000 C
   0.6237000000000000    0.9335599999999999    0.3638750000000000 N
   0.5891100000000000    0.9715900000000000    0.3699700000000000 N
   0.6359700000000000    0.0343800000000000    0.5215750000000000 N
   0.6361600000000001    0.9539200000000000    0.5245700000000000 N
