H4 C8 O4
1.0
  34.4719999947496163    0.0000000000000000   -0.0006016498997209
   0.2419266558071727   16.9442620939089146    0.0192246230540824
   0.0000000000000000    0.0000000000000000   35.7060000000000031
H C O
4 8 4
direct
   0.7941300000000000    0.2256500000000000    0.4810350000000000 H
   0.7402400000000000    0.4548500000000000    0.4853050000000000 H
   0.7421350000000000    0.1731400000000000    0.5231400000000000 H
   0.6917050000000000    0.4057200000000000    0.5311800000000000 H
   0.7704550000000000    0.3437800000000000    0.4807600000000000 C
   0.7712600000000001    0.2642800000000000    0.4918500000000000 C
   0.8009750000000000    0.3765900000000000    0.4553700000000000 C
   0.7410700000000000    0.3937800000000000    0.4945650000000000 C
   0.7426450000000000    0.2353700000000000    0.5155250000000000 C
   0.7136000000000000    0.3658600000000000    0.5196300000000000 C
   0.6807500000000000    0.2547000000000000    0.5531850000000000 C
   0.7135650000000000    0.2859400000000000    0.5297850000000000 C
   0.8319600000000000    0.3334400000000000    0.4515900000000000 O
   0.7950850000000000    0.4432800000000000    0.4403900000000000 O
   0.6801050000000000    0.1774700000000000    0.5547350000000000 O
   0.6563150000000000    0.3001600000000000    0.5675850000000000 O
