H10 O7
1.0
  28.5458787441680215    0.0000000000000000    0.0832029041336569
 -14.3331797237512575   26.1419998441637951  -11.2911559706872318
   0.0000000000000000    0.0000000000000000   39.4600000000000009
H O
10 7
direct
   0.8562860994733992    0.2863991277433529    0.7475724504874423 H
   0.9726886473963950    0.3210213992030774    0.6191896749217327 H
   0.9416881990808715    0.2994613197952975    0.6328542253939080 H
   0.9440245862958715    0.2075189570262714    0.6496319484398336 H
   0.9406696788898117    0.2852707886526238    0.6783467189820193 H
   0.7339766462914373    0.1815745916979490    0.7015760287204948 H
   0.7669516271322477    0.1992613739754666    0.6890905244563973 H
   0.8542391239444757    0.2411925858166580    0.6144410910673404 H
   0.7958610820459254    0.2387734073007693    0.6505618294333978 H
   0.6367680418947650    0.2646100273838290    0.6569312589746710 H
   0.8466450000000000    0.3054500000000000    0.7692500000000000 O
   0.9382550000000001    0.2984900000000000    0.6027300000000000 O
   0.9786950000000000    0.2091350000000000    0.6517999999999999 O
   0.9717700000000000    0.2802250000000000    0.6778800000000000 O
   0.7315550000000000    0.1961400000000000    0.6842650000000000 O
   0.8514200000000001    0.2403950000000000    0.5897050000000000 O
   0.7608950000000000    0.2356900000000000    0.6457950000000000 O
