H8 C10 N4
1.0
  28.5458787441680215    0.0000000000000000    0.0832029041336569
 -14.3331797237512575   26.1419998441637951  -11.2911559706872318
   0.0000000000000000    0.0000000000000000   39.4600000000000009
H C N
8 10 4
direct
   0.3754350000000000    0.1024850000000000    0.0686650000000000 H
   0.4250900000000000    0.1974450000000000    0.0881700000000000 H
   0.4219600000000000    0.1835400000000000    0.9792250000000000 H
   0.3766200000000000    0.0883450000000000    0.9556249999999999 H
   0.3297550000000000    0.8482400000000000    0.9097900000000000 H
   0.3826050000000000    0.9441950000000000    0.9321050000000000 H
   0.2489350000000000    0.9523650000000000    0.9797050000000000 H
   0.2000150000000000    0.8559749999999999    0.9531650000000000 H
   0.3723700000000000    0.0882800000000000    0.0105000000000000 C
   0.3856500000000000    0.1192350000000000    0.0482300000000000 C
   0.4125200000000000    0.1719550000000000    0.0591750000000000 C
   0.4115550000000000    0.1643550000000000    0.9981949999999999 C
   0.3863350000000000    0.1113650000000000    0.9851150000000000 C
   0.3134550000000000    0.8728500000000000    0.9250600000000000 C
   0.3425400000000000    0.9257200000000000    0.9376599999999999 C
   0.3200550000000000    0.9552250000000000    0.9580000000000000 C
   0.2680200000000000    0.9305000000000000    0.9645699999999999 C
   0.2409150000000000    0.8773800000000000    0.9499949999999999 C
   0.4241400000000000    0.1942150000000000    0.0346000000000000 N
   0.3429550000000000    0.0345450000000000    0.0000000000000000 N
   0.3516250000000000    0.0089650000000000    0.9702600000000000 N
   0.2632200000000000    0.8490400000000000    0.9309050000000000 N
