H4 C8 O4
1.0
  15.9813629666020951    0.0000000000000000    9.1592815072864262
   5.3083971878092058   15.0791342032461451    9.1668868748856926
   0.0000000000000000    0.0000000000000000   18.4299999999999997
H C O
4 8 4
direct
   0.5679200000000000    0.0485400000000000    0.0485200000000000 H
   0.3356600000000000    0.0476400000000000    0.0476200000000000 H
   0.4321000000000000    0.9514800000000000    0.9514400000000000 H
   0.6643600000000000    0.9523800000000000    0.9523400000000000 H
   0.5389400000000000    0.0268900000000000    0.0268000000000000 C
   0.4076500000000000    0.0263900000000000    0.0263700000000000 C
   0.4610800000000000    0.9731300000000001    0.9730900000000000 C
   0.5923700000000000    0.9736300000000000    0.9735900000000000 C
   0.3888300000000000    0.1109100000000000    0.1109200000000000 C
   0.4462400000000000    0.0536100000000000    0.0536100000000000 C
   0.6111900000000000    0.8891100000000000    0.8890400000000001 C
   0.5537800000000000    0.9464100000000000    0.9463600000000000 C
   0.4284100000000000    0.1331800000000000    0.1331900000000000 O
   0.3050200000000000    0.1328300000000000    0.1328400000000000 O
   0.5716100000000000    0.8668300000000000    0.8667800000000000 O
   0.6950000000000000    0.8671900000000000    0.8671200000000000 O
