H6 O4
1.0
  15.9813629666020951    0.0000000000000000    9.1592815072864262
   5.3083971878092058   15.0791342032461451    9.1668868748856926
   0.0000000000000000    0.0000000000000000   18.4299999999999997
H O
6 4
direct
   0.4926729706758180    0.1134029910782665    0.1134129910782665 H
   0.2805488715915871    0.1128230628868993    0.1128330628868992 H
   0.3943545521237252    0.1053371807949456    0.1053471807949456 H
   0.5073470294974630    0.8866047679800271    0.8865592503011422 H
   0.7194711279841206    0.8872018844353841    0.8871219905234432 H
   0.6056654473305050    0.8946797042235082    0.8946159352792563 H
   0.4284100000000000    0.1331800000000000    0.1331900000000000 O
   0.3050200000000000    0.1328300000000000    0.1328400000000000 O
   0.5716100000000000    0.8668300000000000    0.8667800000000000 O
   0.6950000000000000    0.8671900000000000    0.8671200000000000 O
