H24 C25 N4 O4
1.0
  37.6890000000000001    0.0000000000000000    0.0000000000000023
   0.0035076929060912   25.1219997551168390    0.0000000000000015
   0.0000000000000000    0.0000000000000000   25.8279999999999994
H C N O
24 25 4 4
direct
   0.6400433333333333    0.3057600000000000    0.5127400000000000 H
   0.6659233333333333    0.4784350000000000    0.4322700000000000 H
   0.6211300000000000    0.4673600000000000    0.5027400000000000 H
   0.6945233333333333    0.2208300000000000    0.1281900000000000 H
   0.6882199999999999    0.2956300000000000    0.1920000000000000 H
   0.7877033333333333    0.2436950000000000    0.2591900000000000 H
   0.7902966666666666    0.1741750000000000    0.1910000000000000 H
   0.7857866666666666    0.3361450000000000    0.2801700000000000 H
   0.7647266666666667    0.2919150000000000    0.3259000000000000 H
   0.8016099999999999    0.4128100000000000    0.3450000000000000 H
   0.7713500000000000    0.4217100000000000    0.3971900000000000 H
   0.8599599999999999    0.4442650000000000    0.5127400000000000 H
   0.8151766666666667    0.4416300000000000    0.4416100000000000 H
   0.8340799999999999    0.2715900000000000    0.4322700000000000 H
   0.8788733333333333    0.2826650000000000    0.5027400000000000 H
   0.8117833333333333    0.4544000000000000    0.1920700000000000 H
   0.7142133333333333    0.4138800000000000    0.2801700000000000 H
   0.7352733333333333    0.4581100000000000    0.3259000000000000 H
   0.6983900000000000    0.3372150000000000    0.3450000000000000 H
   0.7286500000000000    0.3283200000000000    0.3971900000000000 H
   0.6848233333333333    0.3083950000000000    0.4416100000000000 H
   0.8054800000000000    0.5291850000000000    0.1282000000000000 H
   0.7122933333333333    0.5063050000000000    0.2591800000000000 H
   0.7097033333333334    0.5758300000000000    0.1910000000000000 H
   0.6467733333333333    0.3432850000000000    0.4936400000000000 C
   0.6609533333333333    0.4395250000000000    0.4493700000000000 C
   0.6363166666666666    0.4333000000000000    0.4887200000000000 C
   0.7148533333333333    0.2281900000000000    0.1574200000000000 C
   0.7110599999999999    0.2690600000000000    0.1930600000000000 C
   0.7376333333333333    0.2762200000000000    0.2306000000000000 C
   0.7665799999999999    0.2412000000000000    0.2306500000000000 C
   0.7679233333333333    0.2017200000000000    0.1927000000000000 C
   0.7610933333333333    0.3271700000000000    0.3011500000000000 C
   0.7811333333333332    0.3929700000000000    0.3684800000000000 C
   0.8532299999999999    0.4067350000000000    0.4936500000000000 C
   0.8283100000000000    0.4050150000000000    0.4537000000000000 C
   0.8206866666666666    0.3554750000000000    0.4313700000000000 C
   0.8390500000000000    0.3105000000000000    0.4493700000000000 C
   0.8636866666666666    0.3167250000000000    0.4887200000000000 C
   0.7889400000000000    0.4809700000000000    0.1930600000000000 C
   0.7623666666666666    0.4738050000000000    0.2306000000000000 C
   0.7389066666666666    0.4228550000000000    0.3011500000000000 C
   0.7188666666666667    0.3570550000000000    0.3684800000000000 C
   0.6716866666666667    0.3450050000000000    0.4537800000000000 C
   0.6793100000000000    0.3945500000000000    0.4313700000000000 C
   0.7500000000000000    0.3750150000000000    0.3344600000000000 C
   0.7851500000000000    0.5218200000000000    0.1574200000000000 C
   0.7334200000000000    0.5088050000000000    0.2306000000000000 C
   0.7320733333333334    0.5482850000000000    0.1927600000000000 C
   0.6291833333333332    0.3861800000000000    0.5114700000000000 N
   0.7428766666666666    0.1948850000000000    0.1563700000000000 N
   0.8708199999999999    0.3638400000000000    0.5114700000000000 N
   0.7571233333333333    0.5551250000000000    0.1563000000000000 N
   0.7330399999999999    0.3171150000000000    0.2642600000000000 O
   0.7965400000000000    0.3469000000000000    0.3932000000000000 O
   0.7669600000000000    0.4329150000000000    0.2642600000000000 O
   0.7034600000000000    0.4031250000000000    0.3932000000000000 O
