H6 O4
1.0
  20.0483865237542780    0.0000000000000000   -5.4692009283027545
   8.6399647599747063   35.1194904699895361   -4.4137991656518700
   0.0000000000000000    0.0000000000000000   36.4320000000000022
H O
6 4
direct
   0.8953668070537030    0.9371113229983093    0.5827511675858996 H
   0.0249684102869834    0.9466143409312290    0.6277935194956493 H
  -0.0514340493716621    0.8811707546654978    0.6168659656394714 H
   0.8335039774165646    0.9605044551544984    0.3860797461690613 H
   0.9395422993632616    0.9401350680136561    0.3601891029423996 H
   0.8373293093660565    0.8602101465074247    0.4550402000080712 H
   0.9116600000000000    0.9597666666666667    0.5828100000000001 O
   0.0133800000000000    0.9712933333333333    0.6171000000000000 O
   0.8483900000000000    0.9747833333333333    0.3704133333333333 O
   0.9414700000000000    0.9601033333333333    0.3454400000000000 O
