H6 C12 O4
1.0
  20.0483865237542780    0.0000000000000000   -5.4692009283027545
   8.6399647599747063   35.1194904699895361   -4.4137991656518700
   0.0000000000000000    0.0000000000000000   36.4320000000000022
H C O
6 12 4
direct
   0.0499500000000000    0.9362166666666666    0.3903633333333333 H
   0.1304200000000000    0.9273000000000000    0.4537000000000000 H
   0.8776000000000000    0.9700366666666667    0.4415766666666666 H
   0.8975000000000000    0.9662700000000000    0.5123599999999999 H
   0.1034500000000000    0.9529833333333333    0.5816500000000000 H
   0.1504100000000000    0.9364699999999999    0.5243966666666666 H
   0.9122700000000000    0.9639933333333333    0.3739833333333333 C
   0.9586000000000000    0.9544433333333333    0.4121333333333333 C
   0.0305000000000000    0.9411333333333333    0.4158600000000000 C
   0.0751300000000000    0.9363633333333332    0.4511666666666666 C
   0.0504200000000000    0.9440200000000000    0.4847333333333333 C
   0.9774000000000000    0.9544133333333333    0.4811799999999999 C
   0.9327700000000000    0.9599733333333333    0.4443833333333333 C
   0.9526200000000000    0.9600433333333332    0.5146999999999999 C
   0.9723100000000000    0.9639300000000000    0.5859633333333333 C
   0.9976100000000000    0.9584566666666666    0.5504433333333333 C
   0.0692800000000000    0.9515166666666666    0.5535500000000000 C
   0.0950800000000000    0.9430833333333333    0.5216300000000000 C
   0.9414700000000000    0.9601033333333333    0.3454400000000000 O
   0.9116600000000000    0.9597666666666667    0.5828100000000001 O
   0.0133800000000000    0.9712933333333333    0.6171000000000000 O
   0.8483900000000000    0.9747833333333333    0.3704133333333333 O
