Cd32 H96 C94 I16 N141 O2
1.0
  16.2009998001281730    0.0000000000000000   -0.0025448471185747
   0.0000000000000035   21.5169999999999995    0.0000000000000013
   0.0000000000000000    0.0000000000000000   18.8709999999999987
Cd H C I N O
32 96 94 16 141 2
direct
   0.5619300000000000    0.3750300000000000    0.0794200000000000 Cd
   0.7594400000000000    0.3750100000000000    0.7629600000000000 Cd
   0.9379999999999999    0.1250200000000000    0.9206299999999999 Cd
   0.7404400000000000    0.1250400000000000    0.2370800000000000 Cd
   0.5619700000000000    0.8749900000000000    0.0794100000000000 Cd
   0.7595300000000000    0.8749800000000000    0.7629500000000000 Cd
   0.9380500000000001    0.6249900000000000    0.9206100000000000 Cd
   0.7405400000000000    0.6250100000000000    0.2370800000000000 Cd
   0.1879900000000000    0.6249800000000000    0.5793900000000000 Cd
   0.9905200000000000    0.6250100000000000    0.2629300000000000 Cd
   0.8120100000000000    0.8749900000000000    0.4206500000000000 Cd
   0.0095400000000000    0.8749800000000000    0.7371100000000000 Cd
   0.8119800000000000    0.3750400000000000    0.4206500000000000 Cd
   0.0094500000000000    0.3750000000000000    0.7371100000000000 Cd
   0.1879500000000000    0.1250200000000000    0.5793800000000000 Cd
   0.9904200000000000    0.1250300000000000    0.2629300000000000 Cd
   0.0619200000000000    0.3750300000000000    0.0794200000000000 Cd
   0.2594300000000000    0.3750100000000000    0.7629600000000000 Cd
   0.4379900000000000    0.1250200000000000    0.9206299999999999 Cd
   0.2404200000000000    0.1250400000000000    0.2370800000000000 Cd
   0.0619600000000000    0.8749900000000000    0.0794100000000000 Cd
   0.2595200000000000    0.8749800000000000    0.7629500000000000 Cd
   0.4380400000000000    0.6249900000000000    0.9206000000000000 Cd
   0.2405200000000000    0.6250100000000000    0.2370800000000000 Cd
   0.5095499999999999    0.8749800000000000    0.7371100000000000 Cd
   0.3119900000000000    0.8749900000000000    0.4206500000000000 Cd
   0.6879999999999999    0.6249800000000000    0.5793900000000000 Cd
   0.4905100000000000    0.6250100000000000    0.2629300000000000 Cd
   0.3119700000000000    0.3750400000000000    0.4206500000000000 Cd
   0.5094600000000000    0.3750000000000000    0.7371100000000000 Cd
   0.6879700000000000    0.1250200000000000    0.5793800000000000 Cd
   0.4904100000000000    0.1250300000000000    0.2629300000000000 Cd
   0.7287100000000000    0.4808600000000000    0.1331000000000000 H
   0.4739800000000000    0.4831100000000000    0.1763600000000000 H
   0.7286600000000000    0.2691600000000000    0.1331800000000000 H
   0.4739200000000000    0.2669700000000000    0.1763400000000000 H
   0.7384900000000000    0.3750700000000000    0.9584400000000000 H
   0.4827600000000000    0.3750000000000000    0.9193300000000000 H
   0.7713400000000000    0.0190500000000000    0.8669500000000000 H
   0.0260300000000000    0.0169900000000000    0.8236700000000000 H
   0.7712500000000000    0.2309300000000000    0.8669000000000000 H
   0.0259300000000000    0.2330300000000000    0.8236300000000000 H
   0.7614100000000000    0.1250700000000000    0.0415900000000000 H
   0.0171100000000000    0.1250700000000000    0.0807400000000000 H
   0.7286300000000000    0.9809700000000000    0.1330900000000000 H
   0.4739200000000000    0.9830200000000000    0.1763700000000000 H
   0.7287300000000000    0.7691000000000000    0.1331100000000000 H
   0.4740200000000000    0.7669800000000000    0.1764100000000000 H
   0.7385600000000000    0.8749400000000001    0.9584500000000000 H
   0.4828400000000000    0.8749400000000001    0.9193000000000000 H
   0.7712700000000000    0.5191600000000000    0.8668000000000000 H
   0.0259700000000000    0.5169100000000000    0.8236800000000000 H
   0.7713100000000001    0.7308500000000000    0.8668600000000000 H
   0.0260200000000000    0.7330500000000000    0.8237000000000000 H
   0.7614900000000000    0.6249500000000000    0.0416000000000000 H
   0.0171900000000000    0.6250200000000000    0.0807100000000000 H
   0.0212500000000000    0.5191200000000000    0.6331200000000000 H
   0.2760100000000000    0.5169000000000000    0.6763200000000000 H
   0.0212900000000000    0.7308800000000000    0.6331300000000000 H
   0.2760500000000000    0.7330500000000000    0.6763100000000000 H
   0.0114000000000000    0.6249500000000000    0.4583600000000000 H
   0.2671200000000000    0.6250200000000000    0.4193000000000000 H
   0.9786200000000000    0.9809900000000000    0.3600000000000000 H
   0.7238900000000000    0.9830200000000000    0.3236800000000000 H
   0.9787100000000000    0.7690700000000000    0.3669000000000000 H
   0.7239900000000000    0.7669700000000000    0.3236500000000000 H
   0.9886300000000000    0.8749500000000000    0.5416000000000000 H
   0.7329100000000000    0.8749500000000000    0.5807300000000000 H
   0.9786600000000000    0.2691300000000000    0.3669100000000000 H
   0.7239100000000001    0.2669700000000000    0.3237200000000000 H
   0.9787100000000000    0.4809000000000000    0.3669300000000000 H
   0.7239600000000000    0.4831100000000000    0.3237200000000000 H
   0.9885699999999999    0.3750700000000000    0.5416800000000001 H
   0.7328500000000000    0.3750000000000000    0.5807099999999999 H
   0.0113300000000000    0.1250700000000000    0.4583800000000000 H
   0.2670500000000000    0.1250600000000000    0.4193000000000000 H
   0.0213400000000000    0.0190300000000000    0.6330400000000000 H
   0.2760700000000000    0.0169900000000000    0.6763500000000000 H
   0.0212500000000000    0.2309500000000000    0.6330600000000000 H
   0.2759700000000000    0.2330500000000000    0.6763800000000000 H
   0.2287000000000000    0.4808600000000000    0.1331800000000000 H
   0.9739900000000000    0.4831100000000000    0.1763600000000000 H
   0.2286500000000000    0.2691600000000000    0.1331800000000000 H
   0.9739400000000000    0.2669700000000000    0.1763400000000000 H
   0.2384800000000000    0.3750700000000000    0.9584400000000000 H
   0.9827800000000000    0.3750000000000000    0.9193300000000000 H
   0.2713300000000000    0.0190500000000000    0.8669500000000000 H
   0.5260400000000000    0.0169900000000000    0.8236700000000000 H
   0.2712300000000000    0.2309300000000000    0.8669400000000000 H
   0.5259400000000000    0.2330300000000000    0.8236300000000000 H
   0.2614000000000000    0.1250700000000000    0.0415900000000000 H
   0.5171200000000000    0.1250700000000000    0.0807400000000000 H
   0.2286200000000000    0.9809700000000000    0.1330900000000000 H
   0.9739300000000000    0.9830200000000000    0.1763700000000000 H
   0.2287200000000000    0.7691000000000000    0.1331100000000000 H
   0.9740300000000000    0.7669800000000000    0.1764100000000000 H
   0.2385500000000000    0.8749400000000001    0.9584500000000000 H
   0.9828500000000000    0.8749400000000001    0.9193000000000000 H
   0.2712500000000000    0.5191600000000000    0.8668700000000000 H
   0.5259900000000000    0.5169100000000000    0.8236800000000000 H
   0.2712900000000000    0.7308500000000000    0.8668600000000000 H
   0.5260400000000000    0.7330500000000000    0.8237000000000000 H
   0.2614800000000000    0.6249500000000000    0.0416000000000000 H
   0.5172000000000000    0.6250200000000000    0.0807100000000000 H
   0.4266110485851820    0.8749473359139601    0.5868725403441842 H
   0.3089912528593147    0.8749473593316460    0.6050441326354933 H
   0.4786100000000000    0.9809900000000000    0.3600000000000000 H
   0.2238800000000000    0.9830200000000000    0.3236800000000000 H
   0.4787000000000000    0.7690700000000000    0.3669000000000000 H
   0.2239800000000000    0.7669700000000000    0.3236500000000000 H
   0.5212700000000000    0.5191200000000000    0.6331200000000000 H
   0.7760200000000000    0.5169000000000000    0.6763200000000000 H
   0.5213100000000001    0.7308800000000000    0.6331300000000000 H
   0.7760700000000000    0.7330500000000000    0.6763100000000000 H
   0.5114100000000000    0.6249500000000000    0.4583600000000000 H
   0.7671400000000000    0.6250200000000000    0.4193000000000000 H
   0.4786500000000000    0.2691300000000000    0.3669000000000000 H
   0.2239000000000000    0.2669700000000000    0.3237000000000000 H
   0.4787000000000000    0.4809000000000000    0.3669300000000000 H
   0.2239500000000000    0.4831100000000000    0.3237200000000000 H
   0.4885600000000000    0.3750700000000000    0.5416800000000001 H
   0.2328300000000000    0.3750000000000000    0.5807099999999999 H
   0.5213500000000000    0.0190300000000000    0.6330400000000000 H
   0.7760800000000000    0.0169900000000000    0.6763500000000000 H
   0.5113400000000000    0.1250700000000000    0.4583800000000000 H
   0.7670600000000000    0.1250600000000000    0.4193000000000000 H
   0.5212599999999999    0.2309500000000000    0.6330600000000000 H
   0.7759900000000000    0.2330500000000000    0.6763800000000000 H
   0.6681300000000000    0.4942800000000000    0.1524800000000000 C
   0.5389500000000000    0.4953800000000000    0.1750600000000000 C
   0.6680700000000001    0.2557600000000000    0.1524700000000000 C
   0.5388900000000000    0.2546900000000000    0.1750500000000000 C
   0.6789400000000000    0.3750500000000000    0.9319300000000000 C
   0.5491600000000000    0.3750200000000000    0.9116700000000000 C
   0.8319299999999999    0.0056800000000000    0.8476200000000000 C
   0.9611000000000000    0.0046800000000000    0.8249800000000000 C
   0.8318300000000000    0.2443100000000000    0.8476000000000000 C
   0.9610000000000000    0.2453300000000000    0.8249500000000000 C
   0.8209600000000000    0.1250700000000000    0.0681100000000000 C
   0.9507400000000000    0.1250700000000000    0.0883900000000000 C
   0.6680400000000000    0.9943400000000000    0.1524200000000000 C
   0.5388700000000000    0.9953400000000000    0.1750600000000000 C
   0.6681400000000000    0.7557100000000000    0.1524400000000000 C
   0.5389800000000000    0.7546800000000000    0.1750900000000000 C
   0.6790200000000000    0.8749400000000001    0.9319000000000000 C
   0.5492300000000000    0.8749400000000001    0.9116500000000000 C
   0.8318500000000000    0.5057400000000000    0.8475600000000000 C
   0.9610300000000001    0.5046400000000000    0.8249800000000000 C
   0.8319000000000000    0.7442600000000000    0.8475600000000000 C
   0.9610800000000000    0.7453300000000000    0.8249900000000000 C
   0.8210400000000000    0.6249700000000000    0.0681100000000000 C
   0.9508200000000000    0.6250000000000000    0.0883700000000000 C
   0.0818400000000000    0.5057199999999999    0.6524400000000000 C
   0.2110400000000000    0.5046300000000000    0.6750300000000000 C
   0.0818900000000000    0.7442700000000000    0.6524500000000000 C
   0.2110900000000000    0.7453400000000000    0.6750200000000000 C
   0.0709500000000000    0.6249700000000000    0.4318700000000000 C
   0.2007300000000000    0.6250000000000000    0.4116500000000000 C
   0.9180199999999999    0.9943500000000000    0.3476400000000000 C
   0.7888500000000001    0.9953400000000000    0.3249900000000000 C
   0.9181300000000000    0.7556900000000000    0.3476300000000000 C
   0.7889500000000000    0.7546700000000000    0.3249700000000000 C
   0.9290900000000000    0.8749500000000000    0.5681600000000000 C
   0.7993100000000000    0.8749500000000000    0.5884000000000000 C
   0.9180600000000000    0.2557400000000000    0.3476000000000000 C
   0.7888700000000000    0.2546900000000000    0.3250100000000000 C
   0.9181200000000000    0.4943000000000000    0.3476000000000000 C
   0.7889300000000000    0.4953900000000000    0.3250100000000000 C
   0.9290200000000000    0.3750500000000000    0.5681700000000000 C
   0.7992400000000000    0.3750200000000000    0.5883900000000000 C
   0.0708700000000000    0.1250700000000000    0.4318000000000000 C
   0.2006500000000000    0.1250700000000000    0.4116000000000000 C
   0.0819300000000000    0.0056700000000000    0.6523900000000000 C
   0.2111100000000000    0.0046800000000000    0.6750400000000000 C
   0.0818400000000000    0.2443200000000000    0.6524100000000000 C
   0.2110200000000000    0.2453500000000000    0.6750600000000000 C
   0.1681100000000000    0.4942800000000000    0.1524800000000000 C
   0.0389300000000000    0.4953800000000000    0.1750600000000000 C
   0.1680600000000000    0.2557600000000000    0.1524700000000000 C
   0.0388700000000000    0.2546900000000000    0.1750500000000000 C
   0.1789300000000000    0.3750500000000000    0.9319300000000000 C
   0.0491400000000000    0.3750200000000000    0.9116700000000000 C
   0.3319200000000000    0.0056800000000000    0.8476200000000000 C
   0.4610900000000000    0.0046800000000000    0.8249800000000000 C
   0.3318200000000000    0.2443100000000000    0.8476000000000000 C
   0.4609900000000000    0.2453400000000000    0.8249500000000000 C
   0.3209400000000000    0.1250700000000000    0.0681100000000000 C
   0.4507200000000000    0.1250800000000000    0.0883900000000000 C
   0.1680200000000000    0.9943400000000000    0.1524200000000000 C
   0.0388600000000000    0.9953400000000000    0.1750600000000000 C
   0.1681300000000000    0.7557100000000000    0.1524400000000000 C
   0.0389600000000000    0.7546800000000000    0.1750900000000000 C
   0.1790000000000000    0.8749400000000001    0.9319000000000000 C
   0.0492200000000000    0.8749400000000001    0.9116500000000000 C
   0.3318400000000000    0.5057400000000000    0.8475600000000000 C
   0.4610200000000000    0.5046400000000000    0.8249800000000000 C
   0.3318900000000000    0.7442600000000000    0.8475600000000000 C
   0.4610700000000000    0.7453300000000000    0.8249900000000000 C
   0.3210300000000000    0.6249700000000000    0.0681100000000000 C
   0.4508100000000000    0.6250000000000000    0.0883700000000000 C
   0.4180100000000000    0.9943500000000000    0.3476400000000000 C
   0.2888300000000000    0.9953400000000000    0.3249900000000000 C
   0.4181100000000000    0.7556900000000000    0.3476300000000000 C
   0.2889400000000000    0.7546700000000000    0.3249700000000000 C
   0.5818600000000000    0.5057199999999999    0.6524400000000000 C
   0.7110500000000000    0.5046300000000000    0.6750300000000000 C
   0.5819100000000000    0.7442700000000000    0.6524500000000000 C
   0.7111000000000000    0.7453400000000000    0.6750200000000000 C
   0.5709600000000000    0.6249700000000000    0.4318700000000000 C
   0.7007400000000000    0.6250000000000000    0.4116500000000000 C
   0.4180500000000000    0.2557400000000000    0.3476000000000000 C
   0.2888600000000000    0.2546900000000000    0.3250100000000000 C
   0.4181100000000000    0.4943000000000000    0.3476000000000000 C
   0.2889200000000000    0.4953900000000000    0.3250100000000000 C
   0.4290100000000000    0.3750500000000000    0.5681700000000000 C
   0.2992200000000000    0.3750200000000000    0.5883900000000000 C
   0.5819500000000000    0.0056700000000000    0.6523900000000000 C
   0.7111300000000000    0.0046800000000000    0.6750400000000000 C
   0.5708900000000000    0.1250700000000000    0.4318000000000000 C
   0.7006599999999999    0.1250700000000000    0.4116000000000000 C
   0.5818500000000000    0.2443200000000000    0.6524100000000000 C
   0.7110300000000001    0.2453500000000000    0.6750600000000000 C
   0.8879899999999999    0.3750300000000000    0.0770500000000000 I
   0.1119800000000000    0.6249900000000000    0.9229900000000000 I
   0.8880300000000000    0.8749700000000000    0.0770300000000000 I
   0.1119300000000000    0.1250400000000000    0.9230100000000000 I
   0.3879800000000000    0.3750300000000000    0.0770500000000000 I
   0.3880200000000000    0.8749700000000000    0.0770300000000000 I
   0.6119400000000000    0.1250400000000000    0.9230100000000000 I
   0.6119900000000000    0.6249900000000000    0.9229900000000000 I
   0.1380200000000000    0.3750300000000000    0.4231600000000000 I
   0.6380300000000000    0.3750300000000000    0.4231600000000000 I
   0.3619400000000000    0.6249900000000000    0.5768799999999999 I
   0.8619500000000000    0.6249900000000000    0.5768799999999999 I
   0.1380400000000000    0.8749700000000000    0.4231700000000000 I
   0.6380600000000000    0.8749700000000000    0.4231700000000000 I
   0.3619000000000000    0.1250500000000000    0.5768600000000000 I
   0.8619200000000000    0.1250500000000000    0.5768600000000000 I
   0.6540600000000000    0.5450199999999999    0.1913000000000000 N
   0.5705900000000000    0.5455600000000000    0.2059400000000000 N
   0.5975400000000000    0.4615400000000000    0.1408000000000000 N
   0.6539800000000000    0.2050200000000000    0.1913100000000000 N
   0.5705100000000000    0.2045000000000000    0.2059300000000000 N
   0.5974900000000000    0.2885000000000000    0.1407800000000000 N
   0.6696900000000000    0.3750300000000000    0.8616900000000000 N
   0.5858400000000000    0.3750200000000000    0.8486399999999999 N
   0.6047200000000000    0.3750400000000000    0.9657000000000000 N
   0.8460299999999999    0.9549500000000000    0.8087400000000000 N
   0.9295000000000000    0.9544700000000000    0.7940800000000000 N
   0.9024900000000000    0.0384600000000000    0.8592900000000000 N
   0.8459200000000000    0.2950300000000000    0.8087400000000000 N
   0.9293800000000000    0.2955300000000000    0.7940000000000000 N
   0.9024000000000000    0.2115400000000000    0.8592600000000000 N
   0.8301900000000000    0.1250800000000000    0.1383500000000000 N
   0.9140300000000000    0.1250800000000000    0.1514100000000000 N
   0.8951900000000000    0.1250700000000000    0.0343100000000000 N
   0.6539300000000000    0.0450700000000000    0.1910000000000000 N
   0.5704700000000000    0.0455500000000000    0.2059600000000000 N
   0.5974800000000000    0.9615600000000000    0.1407500000000000 N
   0.6540600000000000    0.7049900000000000    0.1913000000000000 N
   0.5706000000000000    0.7044899999999999    0.2059000000000000 N
   0.5975700000000000    0.7884700000000000    0.1407800000000000 N
   0.6697800000000000    0.8749400000000001    0.8616000000000000 N
   0.5859400000000000    0.8749400000000001    0.8486300000000000 N
   0.6047800000000000    0.8749400000000001    0.9657200000000000 N
   0.8459200000000000    0.4550000000000000    0.8087299999999999 N
   0.9293900000000000    0.4544500000000000    0.7941000000000000 N
   0.9024400000000000    0.5384700000000000    0.8592500000000000 N
   0.8459900000000000    0.7950000000000000    0.8087299999999999 N
   0.9294600000000000    0.7955300000000000    0.7941100000000000 N
   0.9024799999999999    0.7115100000000000    0.8592500000000000 N
   0.8302800000000000    0.6249800000000000    0.1383500000000000 N
   0.9141400000000000    0.6250000000000000    0.1510000000000000 N
   0.8952599999999999    0.6249800000000000    0.0343000000000000 N
   0.0959300000000000    0.4549900000000000    0.6913000000000000 N
   0.1794000000000000    0.4544600000000000    0.7059299999999999 N
   0.1524300000000000    0.5384500000000000    0.6407400000000000 N
   0.0960000000000000    0.7950000000000000    0.6913000000000000 N
   0.1794800000000000    0.7955200000000000    0.7059299999999999 N
   0.1524700000000000    0.7115300000000000    0.6407000000000000 N
   0.0802000000000000    0.6249800000000000    0.3616400000000000 N
   0.1640500000000000    0.6250000000000000    0.3486000000000000 N
   0.1451700000000000    0.6249800000000000    0.4657000000000000 N
   0.9039100000000000    0.0450700000000000    0.3087500000000000 N
   0.8204399999999999    0.0455400000000000    0.2940800000000000 N
   0.8474699999999999    0.9615700000000000    0.3593200000000000 N
   0.9040300000000000    0.7049800000000001    0.3087000000000000 N
   0.8205700000000000    0.7044899999999999    0.2940600000000000 N
   0.8475600000000000    0.7884500000000000    0.3593000000000000 N
   0.9198600000000000    0.8749400000000001    0.6384000000000000 N
   0.8360100000000000    0.8749400000000001    0.6514300000000000 N
   0.8548600000000000    0.8749500000000000    0.5343400000000000 N
   0.9039500000000000    0.2050200000000000    0.3087400000000000 N
   0.8204800000000000    0.2045000000000000    0.2941100000000000 N
   0.8474900000000000    0.2884900000000000    0.3593000000000000 N
   0.9040400000000000    0.5450300000000000    0.3087400000000000 N
   0.8205700000000000    0.5455600000000000    0.2941000000000000 N
   0.8475300000000000    0.4615700000000000    0.3593000000000000 N
   0.9197700000000000    0.3750400000000000    0.6384000000000000 N
   0.8359200000000000    0.3750200000000000    0.6514000000000000 N
   0.8548000000000000    0.3750400000000000    0.5343400000000000 N
   0.0801100000000000    0.1250700000000000    0.3616400000000000 N
   0.1639500000000000    0.1250700000000000    0.3486000000000000 N
   0.1451000000000000    0.1250600000000000    0.4650000000000000 N
   0.0960500000000000    0.9549500000000000    0.6912900000000000 N
   0.1795200000000000    0.9544800000000000    0.7059000000000000 N
   0.1524900000000000    0.0384400000000000    0.6407100000000000 N
   0.0959400000000000    0.2950300000000000    0.6913000000000000 N
   0.1794000000000000    0.2955200000000000    0.7059700000000000 N
   0.1524100000000000    0.2115700000000000    0.6407300000000000 N
   0.1540500000000000    0.5450199999999999    0.1913000000000000 N
   0.0705800000000000    0.5455600000000000    0.2059400000000000 N
   0.0975200000000000    0.4615400000000000    0.1408000000000000 N
   0.1539600000000000    0.2050200000000000    0.1913100000000000 N
   0.0704900000000000    0.2045000000000000    0.2059300000000000 N
   0.0974800000000000    0.2885000000000000    0.1407800000000000 N
   0.1696800000000000    0.3750300000000000    0.8616900000000000 N
   0.0858300000000000    0.3750200000000000    0.8486000000000000 N
   0.1047100000000000    0.3750400000000000    0.9657000000000000 N
   0.3460200000000000    0.9549500000000000    0.8087400000000000 N
   0.4294800000000000    0.9544700000000000    0.7940800000000000 N
   0.4024800000000000    0.0384600000000000    0.8592900000000000 N
   0.3459100000000000    0.2950300000000000    0.8087400000000000 N
   0.4293700000000000    0.2955300000000000    0.7940000000000000 N
   0.4023900000000000    0.2115400000000000    0.8592600000000000 N
   0.3301700000000000    0.1250800000000000    0.1383500000000000 N
   0.4140200000000000    0.1250800000000000    0.1514100000000000 N
   0.3951700000000000    0.1250700000000000    0.0343100000000000 N
   0.1539200000000000    0.0450700000000000    0.1910000000000000 N
   0.0704600000000000    0.0455500000000000    0.2059000000000000 N
   0.0974700000000000    0.9615600000000000    0.1407500000000000 N
   0.1540400000000000    0.7049900000000000    0.1913100000000000 N
   0.0705900000000000    0.7044899999999999    0.2059800000000000 N
   0.0975600000000000    0.7884700000000000    0.1407800000000000 N
   0.1697700000000000    0.8749400000000001    0.8616000000000000 N
   0.0859200000000000    0.8749400000000001    0.8486300000000000 N
   0.1047700000000000    0.8749400000000001    0.9657200000000000 N
   0.3459100000000000    0.4550000000000000    0.8087299999999999 N
   0.4293700000000000    0.4544600000000000    0.7941000000000000 N
   0.4024300000000000    0.5384700000000000    0.8592500000000000 N
   0.3459800000000000    0.7950000000000000    0.8087299999999999 N
   0.4294500000000000    0.7955300000000000    0.7941100000000000 N
   0.4024700000000000    0.7115100000000000    0.8592500000000000 N
   0.3302700000000000    0.6249800000000000    0.1383500000000000 N
   0.4141200000000000    0.6250000000000000    0.1510000000000000 N
   0.3952500000000000    0.6249800000000000    0.0343000000000000 N
   0.4038900000000000    0.0450700000000000    0.3087500000000000 N
   0.3204300000000000    0.0455400000000000    0.2940800000000000 N
   0.3474600000000000    0.9615700000000000    0.3593200000000000 N
   0.4040200000000000    0.7049800000000001    0.3087000000000000 N
   0.3205600000000000    0.7044899999999999    0.2940600000000000 N
   0.3475400000000000    0.7884500000000000    0.3593000000000000 N
   0.5959400000000000    0.4549900000000000    0.6913000000000000 N
   0.6794200000000000    0.4544600000000000    0.7059299999999999 N
   0.6524500000000000    0.5384500000000000    0.6407400000000000 N
   0.5960200000000000    0.7950000000000000    0.6913000000000000 N
   0.6794900000000000    0.7955200000000000    0.7059299999999999 N
   0.6524799999999999    0.7115300000000000    0.6407000000000000 N
   0.5802100000000000    0.6249800000000000    0.3616400000000000 N
   0.6640600000000000    0.6250000000000000    0.3486000000000000 N
   0.6451800000000000    0.6249800000000000    0.4657000000000000 N
   0.4039400000000000    0.2050200000000000    0.3087400000000000 N
   0.3204700000000000    0.2045000000000000    0.2941100000000000 N
   0.3474800000000000    0.2884900000000000    0.3593000000000000 N
   0.4040200000000000    0.5450300000000000    0.3087400000000000 N
   0.3205500000000000    0.5455600000000000    0.2941100000000000 N
   0.3475200000000000    0.4615700000000000    0.3593000000000000 N
   0.4197600000000000    0.3750400000000000    0.6384000000000000 N
   0.3359100000000000    0.3750200000000000    0.6514000000000000 N
   0.3547900000000000    0.3750400000000000    0.5343400000000000 N
   0.5960600000000000    0.9549500000000000    0.6912900000000000 N
   0.6795300000000000    0.9544800000000000    0.7059000000000000 N
   0.6525000000000000    0.0384400000000000    0.6407100000000000 N
   0.5801200000000000    0.1250700000000000    0.3616400000000000 N
   0.6639699999999999    0.1250700000000000    0.3486000000000000 N
   0.6451200000000000    0.1250600000000000    0.4650000000000000 N
   0.5959500000000000    0.2950300000000000    0.6913000000000000 N
   0.6794100000000000    0.2955200000000000    0.7059700000000000 N
   0.6524200000000000    0.2115700000000000    0.6407300000000000 N
   0.4198400000000000    0.8749400000000001    0.6384000000000000 O
   0.3360000000000000    0.8749400000000001    0.6514300000000000 O
