H2 C2 N3
1.0
  16.2009998001281730    0.0000000000000000   -0.0025448471185747
   0.0000000000000035   21.5169999999999995    0.0000000000000013
   0.0000000000000000    0.0000000000000000   18.8709999999999987
H C N
2 2 3
direct
   0.4886200000000000    0.8749400000000001    0.5416000000000000 H
   0.2329000000000000    0.8749500000000000    0.5807300000000000 H
   0.4290700000000000    0.8749500000000000    0.5681600000000000 C
   0.2993000000000000    0.8749500000000000    0.5884000000000000 C
   0.4198400000000000    0.8749400000000001    0.6384000000000000 N
   0.3360000000000000    0.8749400000000001    0.6514300000000000 N
   0.3548500000000000    0.8749500000000000    0.5343400000000000 N
