Ba80 H477 Pt80 C948 N158 O318
1.0
  38.4774853488549695    0.0000000000000000   -0.0335779488849560
  -1.0467756874531557   29.3153153115031131   -0.0102394974476559
   0.0000000000000000    0.0000000000000000   31.6260000000000012
Ba H Pt C N O
80 477 80 948 158 318
direct
   0.1508620000000000    0.0337250000000000    0.0305300000000000 Ba
   0.1508620000000000    0.0337250000000000    0.5305299999999999 Ba
   0.3489960000000000    0.2163350000000000    0.2804600000000000 Ba
   0.3489960000000000    0.2163350000000000    0.7804599999999999 Ba
   0.3508620000000000    0.0337250000000000    0.0305300000000000 Ba
   0.3508620000000000    0.0337250000000000    0.5305299999999999 Ba
   0.5489960000000000    0.2163350000000000    0.2804600000000000 Ba
   0.5489960000000000    0.2163350000000000    0.7804599999999999 Ba
   0.9508620000000001    0.0337250000000000    0.0305300000000000 Ba
   0.9508620000000001    0.0337250000000000    0.5305299999999999 Ba
   0.1489960000000000    0.2163350000000000    0.2804600000000000 Ba
   0.1489960000000000    0.2163350000000000    0.7804599999999999 Ba
   0.5508620000000001    0.0337250000000000    0.0305300000000000 Ba
   0.5508620000000001    0.0337250000000000    0.5305299999999999 Ba
   0.7489960000000001    0.2163350000000000    0.2804600000000000 Ba
   0.7489960000000001    0.2163350000000000    0.7804599999999999 Ba
   0.7508620000000001    0.0337250000000000    0.0305300000000000 Ba
   0.7508620000000001    0.0337250000000000    0.5305299999999999 Ba
   0.9489960000000001    0.2163350000000000    0.2804600000000000 Ba
   0.9489960000000001    0.2163350000000000    0.7804599999999999 Ba
   0.0491340000000000    0.9662750000000000    0.4694600000000000 Ba
   0.0491340000000000    0.9662750000000000    0.9694600000000000 Ba
   0.8510020000000000    0.7836650000000001    0.7195300000000000 Ba
   0.8510020000000000    0.7836650000000001    0.2195300000000000 Ba
   0.8491340000000001    0.9662750000000000    0.4694600000000000 Ba
   0.8491340000000001    0.9662750000000000    0.9694600000000000 Ba
   0.6510020000000001    0.7836650000000001    0.7195300000000000 Ba
   0.6510020000000001    0.7836650000000001    0.2195300000000000 Ba
   0.6491340000000001    0.9662750000000000    0.9694600000000000 Ba
   0.6491340000000001    0.9662750000000000    0.4694600000000000 Ba
   0.4510020000000000    0.7836650000000001    0.7195300000000000 Ba
   0.4510020000000000    0.7836650000000001    0.2195300000000000 Ba
   0.2491340000000000    0.9662750000000000    0.9694600000000000 Ba
   0.2491340000000000    0.9662750000000000    0.4694600000000000 Ba
   0.0510020000000000    0.7836650000000001    0.2195300000000000 Ba
   0.0510020000000000    0.7836650000000001    0.7195300000000000 Ba
   0.4491340000000000    0.9662750000000000    0.9694600000000000 Ba
   0.4491340000000000    0.9662750000000000    0.4694600000000000 Ba
   0.2510020000000000    0.7836650000000001    0.7195300000000000 Ba
   0.2510020000000000    0.7836650000000001    0.2195300000000000 Ba
   0.3508620000000000    0.5337250000000000    0.0305300000000000 Ba
   0.3508620000000000    0.5337250000000000    0.5305299999999999 Ba
   0.5489960000000000    0.7163349999999999    0.2804600000000000 Ba
   0.5489960000000000    0.7163349999999999    0.7804599999999999 Ba
   0.6491340000000001    0.4662750000000000    0.4694600000000000 Ba
   0.6491340000000001    0.4662750000000000    0.9694600000000000 Ba
   0.4510020000000000    0.2836650000000000    0.2195300000000000 Ba
   0.4510020000000000    0.2836650000000000    0.7195300000000000 Ba
   0.4491340000000000    0.4662750000000000    0.4694600000000000 Ba
   0.4491340000000000    0.4662750000000000    0.9694600000000000 Ba
   0.2510020000000000    0.2836650000000000    0.7195300000000000 Ba
   0.2510020000000000    0.2836650000000000    0.2195300000000000 Ba
   0.8491340000000001    0.4662750000000000    0.4694600000000000 Ba
   0.8491340000000001    0.4662750000000000    0.9694600000000000 Ba
   0.6510020000000001    0.2836650000000000    0.2195300000000000 Ba
   0.6510020000000001    0.2836650000000000    0.7195300000000000 Ba
   0.0491340000000000    0.4662750000000000    0.4694600000000000 Ba
   0.0491340000000000    0.4662750000000000    0.9694600000000000 Ba
   0.8510020000000000    0.2836650000000000    0.2195300000000000 Ba
   0.8510020000000000    0.2836650000000000    0.7195300000000000 Ba
   0.2491340000000000    0.4662750000000000    0.4694600000000000 Ba
   0.2491340000000000    0.4662750000000000    0.9694600000000000 Ba
   0.1508620000000000    0.5337250000000000    0.0305300000000000 Ba
   0.1508620000000000    0.5337250000000000    0.5305299999999999 Ba
   0.0510020000000000    0.2836650000000000    0.2195300000000000 Ba
   0.0510020000000000    0.2836650000000000    0.7195300000000000 Ba
   0.3489960000000000    0.7163349999999999    0.2804600000000000 Ba
   0.3489960000000000    0.7163349999999999    0.7804599999999999 Ba
   0.9508620000000001    0.5337250000000000    0.0305300000000000 Ba
   0.9508620000000001    0.5337250000000000    0.5305299999999999 Ba
   0.1489960000000000    0.7163349999999999    0.2804600000000000 Ba
   0.1489960000000000    0.7163349999999999    0.7804599999999999 Ba
   0.7508620000000001    0.5337250000000000    0.0305300000000000 Ba
   0.7508620000000001    0.5337250000000000    0.5305299999999999 Ba
   0.9489960000000001    0.7163349999999999    0.2804600000000000 Ba
   0.9489960000000001    0.7163349999999999    0.7804599999999999 Ba
   0.5508620000000001    0.5337250000000000    0.0305300000000000 Ba
   0.5508620000000001    0.5337250000000000    0.5305299999999999 Ba
   0.7489960000000001    0.7163349999999999    0.2804600000000000 Ba
   0.7489960000000001    0.7163349999999999    0.7804599999999999 Ba
   0.2135200000000000    0.0678050000000000    0.6717450000000000 H
   0.2165120000000000    0.9270350000000001    0.6374350000000000 H
   0.2451040000000000    0.9119400000000000    0.7078250000000000 H
   0.2272300000000000    0.1156200000000000    0.7164800000000000 H
   0.2752540000000000    0.1414350000000000    0.8374100000000000 H
   0.2791760000000000    0.0564150000000000    0.8464250000000000 H
   0.2863200000000000    0.1819250000000000    0.4216250000000000 H
   0.2833260000000000    0.3226450000000000    0.3872600000000000 H
   0.2549120000000000    0.3378850000000000    0.4576950000000000 H
   0.2723900000000000    0.1341100000000000    0.4662750000000000 H
   0.2246760000000000    0.1085750000000000    0.5873100000000000 H
   0.2208640000000000    0.1936350000000000    0.5962850000000000 H
   0.2135200000000000    0.0678050000000000    0.1717450000000000 H
   0.2165120000000000    0.9270350000000001    0.1374350000000000 H
   0.2451040000000000    0.9119400000000000    0.2078250000000000 H
   0.2272300000000000    0.1156200000000000    0.2164800000000000 H
   0.2752540000000000    0.1414350000000000    0.3374100000000000 H
   0.2791760000000000    0.0564150000000000    0.3464250000000000 H
   0.2863200000000000    0.1819250000000000    0.9216250000000000 H
   0.2833260000000000    0.3226450000000000    0.8872599999999999 H
   0.2549120000000000    0.3378850000000000    0.9576950000000000 H
   0.2723900000000000    0.1341100000000000    0.9662750000000000 H
   0.2246760000000000    0.1085750000000000    0.0873100000000000 H
   0.2208640000000000    0.1936350000000000    0.0962850000000000 H
   0.4135200000000000    0.0678050000000000    0.6717450000000000 H
   0.4165120000000000    0.9270350000000001    0.6374350000000000 H
   0.4451040000000001    0.9119400000000000    0.7078250000000000 H
   0.4272300000000000    0.1156200000000000    0.7164800000000000 H
   0.4752540000000000    0.1414350000000000    0.8374100000000000 H
   0.4791760000000000    0.0564150000000000    0.8464250000000000 H
   0.4863200000000000    0.1819250000000000    0.4216250000000000 H
   0.4833260000000000    0.3226450000000000    0.3872600000000000 H
   0.4549120000000000    0.3378850000000000    0.4576950000000000 H
   0.4723900000000000    0.1341100000000000    0.4662750000000000 H
   0.4246760000000001    0.1085750000000000    0.5873100000000000 H
   0.4208640000000000    0.1936350000000000    0.5962850000000000 H
   0.4135200000000000    0.0678050000000000    0.1717450000000000 H
   0.4165120000000000    0.9270350000000001    0.1374350000000000 H
   0.4451040000000001    0.9119400000000000    0.2078250000000000 H
   0.4272300000000000    0.1156200000000000    0.2164800000000000 H
   0.4752540000000000    0.1414350000000000    0.3374100000000000 H
   0.4791760000000000    0.0564150000000000    0.3464250000000000 H
   0.4863200000000000    0.1819250000000000    0.9216250000000000 H
   0.4833260000000000    0.3226450000000000    0.8872599999999999 H
   0.4549120000000000    0.3378850000000000    0.9576950000000000 H
   0.4723900000000000    0.1341100000000000    0.9662750000000000 H
   0.4246760000000001    0.1085750000000000    0.0873100000000000 H
   0.4208640000000000    0.1936350000000000    0.0962850000000000 H
   0.0135200000000000    0.0678050000000000    0.1717450000000000 H
   0.0165120000000000    0.9270350000000001    0.1374350000000000 H
   0.0451040000000000    0.9119400000000000    0.2078250000000000 H
   0.0272300000000000    0.1156200000000000    0.2164800000000000 H
   0.0752540000000000    0.1414350000000000    0.3374100000000000 H
   0.0791760000000000    0.0564150000000000    0.3464250000000000 H
   0.0863200000000000    0.1819250000000000    0.9216250000000000 H
   0.0833260000000000    0.3226450000000000    0.8872599999999999 H
   0.0549120000000000    0.3378850000000000    0.9576950000000000 H
   0.0723900000000000    0.1341100000000000    0.9662750000000000 H
   0.0246760000000000    0.1085750000000000    0.0873100000000000 H
   0.0208640000000000    0.1936350000000000    0.0962850000000000 H
   0.0135200000000000    0.0678050000000000    0.6717450000000000 H
   0.0165120000000000    0.9270350000000001    0.6374350000000000 H
   0.0451040000000000    0.9119400000000000    0.7078250000000000 H
   0.0272300000000000    0.1156200000000000    0.7164800000000000 H
   0.0752540000000000    0.1414350000000000    0.8374100000000000 H
   0.0791760000000000    0.0564150000000000    0.8464250000000000 H
   0.0863200000000000    0.1819250000000000    0.4216250000000000 H
   0.0833260000000000    0.3226450000000000    0.3872600000000000 H
   0.0549120000000000    0.3378850000000000    0.4576950000000000 H
   0.0723900000000000    0.1341100000000000    0.4662750000000000 H
   0.0246760000000000    0.1085750000000000    0.5873100000000000 H
   0.0208640000000000    0.1936350000000000    0.5962850000000000 H
   0.6135200000000001    0.0678050000000000    0.6717450000000000 H
   0.6165120000000001    0.9270350000000001    0.6374350000000000 H
   0.6451040000000001    0.9119400000000000    0.7078250000000000 H
   0.6272300000000001    0.1156200000000000    0.7164800000000000 H
   0.6752540000000001    0.1414350000000000    0.8374100000000000 H
   0.6791760000000001    0.0564150000000000    0.8464250000000000 H
   0.6863200000000000    0.1819250000000000    0.4216250000000000 H
   0.6833260000000001    0.3226450000000000    0.3872600000000000 H
   0.6549120000000000    0.3378850000000000    0.4576950000000000 H
   0.6723900000000000    0.1341100000000000    0.4662750000000000 H
   0.6246760000000001    0.1085750000000000    0.5873100000000000 H
   0.6208640000000001    0.1936350000000000    0.5962850000000000 H
   0.6135200000000001    0.0678050000000000    0.1717450000000000 H
   0.6165120000000001    0.9270350000000001    0.1374350000000000 H
   0.6451040000000001    0.9119400000000000    0.2078250000000000 H
   0.6272300000000001    0.1156200000000000    0.2164800000000000 H
   0.6752540000000001    0.1414350000000000    0.3374100000000000 H
   0.6791760000000001    0.0564150000000000    0.3464250000000000 H
   0.6863200000000000    0.1819250000000000    0.9216250000000000 H
   0.6833260000000001    0.3226450000000000    0.8872599999999999 H
   0.6549120000000000    0.3378850000000000    0.9576950000000000 H
   0.6723900000000000    0.1341100000000000    0.9662750000000000 H
   0.6246760000000001    0.1085750000000000    0.0873100000000000 H
   0.6208640000000001    0.1936350000000000    0.0962850000000000 H
   0.8135200000000000    0.0678050000000000    0.1717450000000000 H
   0.8165120000000000    0.9270350000000001    0.1374350000000000 H
   0.8451040000000001    0.9119400000000000    0.2078250000000000 H
   0.8272300000000000    0.1156200000000000    0.2164800000000000 H
   0.8752540000000001    0.1414350000000000    0.3374100000000000 H
   0.8791760000000001    0.0564150000000000    0.3464250000000000 H
   0.8863200000000000    0.1819250000000000    0.9216250000000000 H
   0.8833260000000001    0.3226450000000000    0.8872599999999999 H
   0.8549120000000000    0.3378850000000000    0.9576950000000000 H
   0.8723900000000000    0.1341100000000000    0.9662750000000000 H
   0.8246760000000001    0.1085750000000000    0.0873100000000000 H
   0.8208640000000000    0.1936350000000000    0.0962850000000000 H
   0.8135200000000000    0.0678050000000000    0.6717450000000000 H
   0.8165120000000000    0.9270350000000001    0.6374350000000000 H
   0.8451040000000001    0.9119400000000000    0.7078250000000000 H
   0.8272300000000000    0.1156200000000000    0.7164800000000000 H
   0.8752540000000001    0.1414350000000000    0.8374100000000000 H
   0.8791760000000001    0.0564150000000000    0.8464250000000000 H
   0.8863200000000000    0.1819250000000000    0.4216250000000000 H
   0.8833260000000001    0.3226450000000000    0.3872600000000000 H
   0.8549120000000000    0.3378850000000000    0.4576950000000000 H
   0.8723900000000000    0.1341100000000000    0.4662750000000000 H
   0.8246760000000001    0.1085750000000000    0.5873100000000000 H
   0.8208640000000000    0.1936350000000000    0.5962850000000000 H
   0.9864780000000001    0.9321999999999999    0.8282450000000000 H
   0.9834840000000000    0.0729650000000000    0.8625550000000000 H
   0.9548900000000000    0.0880600000000000    0.7921700000000000 H
   0.9727680000000001    0.8843799999999999    0.7835150000000000 H
   0.9247460000000001    0.8585650000000000    0.6625850000000000 H
   0.9208220000000000    0.9435850000000000    0.6535650000000000 H
   0.9136780000000000    0.8180750000000000    0.0783700000000000 H
   0.9166720000000000    0.6773500000000000    0.1127300000000000 H
   0.9450880000000000    0.6621150000000000    0.0422950000000000 H
   0.9276080000000001    0.8658900000000000    0.0337150000000000 H
   0.9753220000000000    0.8914299999999999    0.9126750000000000 H
   0.9791340000000001    0.8063700000000000    0.9037050000000000 H
   0.9864780000000001    0.9321999999999999    0.3282450000000000 H
   0.9834840000000000    0.0729650000000000    0.3625550000000000 H
   0.9548900000000000    0.0880600000000000    0.2921700000000000 H
   0.9727680000000001    0.8843799999999999    0.2835150000000000 H
   0.9247460000000001    0.8585650000000000    0.1625850000000000 H
   0.9208220000000000    0.9435850000000000    0.1535650000000000 H
   0.9136780000000000    0.8180750000000000    0.5783700000000001 H
   0.9166720000000000    0.6773500000000000    0.6127300000000000 H
   0.9450880000000000    0.6621150000000000    0.5422950000000000 H
   0.9276080000000001    0.8658900000000000    0.5337150000000001 H
   0.9753220000000000    0.8914299999999999    0.4126750000000000 H
   0.9791340000000001    0.8063700000000000    0.4037050000000000 H
   0.7864780000000001    0.9321999999999999    0.8282450000000000 H
   0.7834840000000001    0.0729650000000000    0.8625550000000000 H
   0.7548900000000001    0.0880600000000000    0.7921700000000000 H
   0.7727680000000001    0.8843799999999999    0.7835150000000000 H
   0.7247460000000001    0.8585650000000000    0.6625850000000000 H
   0.7208220000000001    0.9435850000000000    0.6535650000000000 H
   0.7136780000000000    0.8180750000000000    0.0783700000000000 H
   0.7166720000000001    0.6773500000000000    0.1127300000000000 H
   0.7450880000000001    0.6621150000000000    0.0422950000000000 H
   0.7276080000000001    0.8658900000000000    0.0337150000000000 H
   0.7753220000000001    0.8914299999999999    0.9126750000000000 H
   0.7791340000000001    0.8063700000000000    0.9037050000000000 H
   0.7864780000000001    0.9321999999999999    0.3282450000000000 H
   0.7834840000000001    0.0729650000000000    0.3625550000000000 H
   0.7548900000000001    0.0880600000000000    0.2921700000000000 H
   0.7727680000000001    0.8843799999999999    0.2835150000000000 H
   0.7247460000000001    0.8585650000000000    0.1625850000000000 H
   0.7208220000000001    0.9435850000000000    0.1535650000000000 H
   0.7136780000000000    0.8180750000000000    0.5783700000000001 H
   0.7166720000000001    0.6773500000000000    0.6127300000000000 H
   0.7450880000000001    0.6621150000000000    0.5422950000000000 H
   0.7276080000000001    0.8658900000000000    0.5337150000000001 H
   0.7753220000000001    0.8914299999999999    0.4126750000000000 H
   0.7791340000000001    0.8063700000000000    0.4037050000000000 H
   0.5864780000000001    0.9321999999999999    0.8282450000000000 H
   0.5834840000000000    0.0729650000000000    0.8625550000000000 H
   0.5548900000000000    0.0880600000000000    0.7921700000000000 H
   0.5727680000000001    0.8843799999999999    0.7835150000000000 H
   0.5247460000000000    0.8585650000000000    0.6625850000000000 H
   0.5208220000000000    0.9435850000000000    0.6535650000000000 H
   0.5136780000000001    0.8180750000000000    0.0783700000000000 H
   0.5166720000000000    0.6773500000000000    0.1127300000000000 H
   0.5450880000000000    0.6621150000000000    0.0422950000000000 H
   0.5276080000000001    0.8658900000000000    0.0337150000000000 H
   0.5753220000000000    0.8914299999999999    0.9126750000000000 H
   0.5791340000000000    0.8063700000000000    0.9037050000000000 H
   0.5864780000000001    0.9321999999999999    0.3282450000000000 H
   0.5834840000000000    0.0729650000000000    0.3625550000000000 H
   0.5548900000000000    0.0880600000000000    0.2921700000000000 H
   0.5727680000000001    0.8843799999999999    0.2835150000000000 H
   0.5247460000000000    0.8585650000000000    0.1625850000000000 H
   0.5208220000000000    0.9435850000000000    0.1535650000000000 H
   0.5136780000000001    0.8180750000000000    0.5783700000000001 H
   0.5166720000000000    0.6773500000000000    0.6127300000000000 H
   0.5450880000000000    0.6621150000000000    0.5422950000000000 H
   0.5276080000000001    0.8658900000000000    0.5337150000000001 H
   0.5753220000000000    0.8914299999999999    0.4126750000000000 H
   0.5791340000000000    0.8063700000000000    0.4037050000000000 H
   0.1864780000000000    0.9321999999999999    0.8282450000000000 H
   0.1834840000000000    0.0729650000000000    0.8625550000000000 H
   0.1548900000000000    0.0880600000000000    0.7921700000000000 H
   0.1727680000000000    0.8843799999999999    0.7835150000000000 H
   0.1247460000000000    0.8585650000000000    0.6625850000000000 H
   0.1208220000000000    0.9435850000000000    0.6535650000000000 H
   0.1136780000000000    0.8180750000000000    0.0783700000000000 H
   0.1166720000000000    0.6773500000000000    0.1127300000000000 H
   0.1450880000000000    0.6621150000000000    0.0422950000000000 H
   0.1276080000000000    0.8658900000000000    0.0337150000000000 H
   0.1753220000000000    0.8914299999999999    0.9126750000000000 H
   0.1791340000000000    0.8063700000000000    0.9037050000000000 H
   0.1864780000000000    0.9321999999999999    0.3282450000000000 H
   0.1834840000000000    0.0729650000000000    0.3625550000000000 H
   0.1548900000000000    0.0880600000000000    0.2921700000000000 H
   0.1727680000000000    0.8843799999999999    0.2835150000000000 H
   0.1247460000000000    0.8585650000000000    0.1625850000000000 H
   0.1208220000000000    0.9435850000000000    0.1535650000000000 H
   0.1136780000000000    0.8180750000000000    0.5783700000000001 H
   0.1166720000000000    0.6773500000000000    0.6127300000000000 H
   0.1450880000000000    0.6621150000000000    0.5422950000000000 H
   0.1276080000000000    0.8658900000000000    0.5337150000000001 H
   0.1753220000000000    0.8914299999999999    0.4126750000000000 H
   0.1791340000000000    0.8063700000000000    0.4037050000000000 H
   0.3864780000000000    0.9321999999999999    0.8282450000000000 H
   0.3834840000000000    0.0729650000000000    0.8625550000000000 H
   0.3548900000000000    0.0880600000000000    0.7921700000000000 H
   0.3727680000000000    0.8843799999999999    0.7835150000000000 H
   0.3247460000000000    0.8585650000000000    0.6625850000000000 H
   0.3208220000000001    0.9435850000000000    0.6535650000000000 H
   0.3136780000000000    0.8180750000000000    0.0783700000000000 H
   0.3166720000000000    0.6773500000000000    0.1127300000000000 H
   0.3450880000000000    0.6621150000000000    0.0422950000000000 H
   0.3276080000000000    0.8658900000000000    0.0337150000000000 H
   0.3753220000000000    0.8914299999999999    0.9126750000000000 H
   0.3791340000000000    0.8063700000000000    0.9037050000000000 H
   0.3864780000000000    0.9321999999999999    0.3282450000000000 H
   0.3834840000000000    0.0729650000000000    0.3625550000000000 H
   0.3548900000000000    0.0880600000000000    0.2921700000000000 H
   0.3727680000000000    0.8843799999999999    0.2835150000000000 H
   0.3247460000000000    0.8585650000000000    0.1625850000000000 H
   0.3208220000000001    0.9435850000000000    0.1535650000000000 H
   0.3136780000000000    0.8180750000000000    0.5783700000000001 H
   0.3166720000000000    0.6773500000000000    0.6127300000000000 H
   0.3450880000000000    0.6621150000000000    0.5422950000000000 H
   0.3276080000000000    0.8658900000000000    0.5337150000000001 H
   0.3753220000000000    0.8914299999999999    0.4126750000000000 H
   0.3791340000000000    0.8063700000000000    0.4037050000000000 H
   0.4135200000000000    0.5678050000000000    0.6717450000000000 H
   0.4165120000000000    0.4270350000000000    0.6374350000000000 H
   0.4451040000000001    0.4119400000000000    0.7078250000000000 H
   0.4272300000000000    0.6156200000000001    0.7164800000000000 H
   0.4752540000000000    0.6414350000000000    0.8374100000000000 H
   0.4791760000000000    0.5564150000000000    0.8464250000000000 H
   0.4863200000000000    0.6819250000000000    0.4216250000000000 H
   0.4833260000000000    0.8226450000000001    0.3872600000000000 H
   0.4549120000000000    0.8378850000000000    0.4576950000000000 H
   0.4723900000000000    0.6341100000000000    0.4662750000000000 H
   0.4246760000000001    0.6085750000000000    0.5873100000000000 H
   0.4208640000000000    0.6936350000000000    0.5962850000000000 H
   0.4135200000000000    0.5678050000000000    0.1717450000000000 H
   0.4165120000000000    0.4270350000000000    0.1374350000000000 H
   0.4451040000000001    0.4119400000000000    0.2078250000000000 H
   0.4272300000000000    0.6156200000000001    0.2164800000000000 H
   0.4752540000000000    0.6414350000000000    0.3374100000000000 H
   0.4791760000000000    0.5564150000000000    0.3464250000000000 H
   0.4863200000000000    0.6819250000000000    0.9216250000000000 H
   0.4833260000000000    0.8226450000000001    0.8872599999999999 H
   0.4549120000000000    0.8378850000000000    0.9576950000000000 H
   0.4723900000000000    0.6341100000000000    0.9662750000000000 H
   0.4246760000000001    0.6085750000000000    0.0873100000000000 H
   0.4208640000000000    0.6936350000000000    0.0962850000000000 H
   0.5864780000000001    0.4322000000000000    0.8282450000000000 H
   0.5834840000000000    0.5729649999999999    0.8625550000000000 H
   0.5548900000000000    0.5880600000000000    0.7921700000000000 H
   0.5727680000000001    0.3843800000000000    0.7835150000000000 H
   0.5247460000000000    0.3585650000000000    0.6625850000000000 H
   0.5208220000000000    0.4435850000000000    0.6535650000000000 H
   0.5136780000000001    0.3180750000000000    0.0783700000000000 H
   0.5166720000000000    0.1773500000000000    0.1127300000000000 H
   0.5450880000000000    0.1621150000000000    0.0422950000000000 H
   0.5276080000000001    0.3658900000000000    0.0337150000000000 H
   0.5753220000000000    0.3914300000000000    0.9126750000000000 H
   0.5791340000000000    0.3063700000000000    0.9037050000000000 H
   0.5864780000000001    0.4322000000000000    0.3282450000000000 H
   0.5834840000000000    0.5729649999999999    0.3625550000000000 H
   0.5548900000000000    0.5880600000000000    0.2921700000000000 H
   0.5727680000000001    0.3843800000000000    0.2835150000000000 H
   0.5247460000000000    0.3585650000000000    0.1625850000000000 H
   0.5208220000000000    0.4435850000000000    0.1535650000000000 H
   0.5136780000000001    0.3180750000000000    0.5783700000000001 H
   0.5166720000000000    0.1773500000000000    0.6127300000000000 H
   0.5450880000000000    0.1621150000000000    0.5422950000000000 H
   0.5276080000000001    0.3658900000000000    0.5337150000000001 H
   0.5753220000000000    0.3914300000000000    0.4126750000000000 H
   0.5791340000000000    0.3063700000000000    0.4037050000000000 H
   0.3864780000000000    0.4322000000000000    0.8282450000000000 H
   0.3834840000000000    0.5729649999999999    0.8625550000000000 H
   0.3548900000000000    0.5880600000000000    0.7921700000000000 H
   0.3727680000000000    0.3843800000000000    0.7835150000000000 H
   0.3247460000000000    0.3585650000000000    0.6625850000000000 H
   0.3208220000000001    0.4435850000000000    0.6535650000000000 H
   0.3136780000000000    0.3180750000000000    0.0783700000000000 H
   0.3166720000000000    0.1773500000000000    0.1127300000000000 H
   0.3450880000000000    0.1621150000000000    0.0422950000000000 H
   0.3276080000000000    0.3658900000000000    0.0337150000000000 H
   0.3753220000000000    0.3914300000000000    0.9126750000000000 H
   0.3791340000000000    0.3063700000000000    0.9037050000000000 H
   0.3864780000000000    0.4322000000000000    0.3282450000000000 H
   0.3834840000000000    0.5729649999999999    0.3625550000000000 H
   0.3548900000000000    0.5880600000000000    0.2921700000000000 H
   0.3727680000000000    0.3843800000000000    0.2835150000000000 H
   0.3247460000000000    0.3585650000000000    0.1625850000000000 H
   0.3208220000000001    0.4435850000000000    0.1535650000000000 H
   0.3136780000000000    0.3180750000000000    0.5783700000000001 H
   0.3166720000000000    0.1773500000000000    0.6127300000000000 H
   0.3450880000000000    0.1621150000000000    0.5422950000000000 H
   0.3276080000000000    0.3658900000000000    0.5337150000000001 H
   0.3753220000000000    0.3914300000000000    0.4126750000000000 H
   0.3791340000000000    0.3063700000000000    0.4037050000000000 H
   0.7864780000000001    0.4322000000000000    0.8282450000000000 H
   0.7834840000000001    0.5729649999999999    0.8625550000000000 H
   0.7548900000000001    0.5880600000000000    0.7921700000000000 H
   0.7727680000000001    0.3843800000000000    0.7835150000000000 H
   0.7247460000000001    0.3585650000000000    0.6625850000000000 H
   0.7208220000000001    0.4435850000000000    0.6535650000000000 H
   0.7136780000000000    0.3180750000000000    0.0783700000000000 H
   0.7166720000000001    0.1773500000000000    0.1127300000000000 H
   0.7450880000000001    0.1621150000000000    0.0422950000000000 H
   0.7276080000000001    0.3658900000000000    0.0337150000000000 H
   0.7753220000000001    0.3914300000000000    0.9126750000000000 H
   0.7791340000000001    0.3063700000000000    0.9037050000000000 H
   0.7864780000000001    0.4322000000000000    0.3282450000000000 H
   0.7834840000000001    0.5729649999999999    0.3625550000000000 H
   0.7548900000000001    0.5880600000000000    0.2921700000000000 H
   0.7727680000000001    0.3843800000000000    0.2835150000000000 H
   0.7247460000000001    0.3585650000000000    0.1625850000000000 H
   0.7208220000000001    0.4435850000000000    0.1535650000000000 H
   0.7136780000000000    0.3180750000000000    0.5783700000000001 H
   0.7166720000000001    0.1773500000000000    0.6127300000000000 H
   0.7450880000000001    0.1621150000000000    0.5422950000000000 H
   0.7276080000000001    0.3658900000000000    0.5337150000000001 H
   0.7753220000000001    0.3914300000000000    0.4126750000000000 H
   0.7791340000000001    0.3063700000000000    0.4037050000000000 H
   0.9864780000000001    0.4322000000000000    0.3282450000000000 H
   0.9834840000000000    0.5729649999999999    0.3625550000000000 H
   0.9548900000000000    0.5880600000000000    0.2921700000000000 H
   0.9727680000000001    0.3843800000000000    0.2835150000000000 H
   0.9247460000000001    0.3585650000000000    0.1625850000000000 H
   0.9208220000000000    0.4435850000000000    0.1535650000000000 H
   0.9136780000000000    0.3180750000000000    0.5783700000000001 H
   0.9166720000000000    0.1773500000000000    0.6127300000000000 H
   0.9450880000000000    0.1621150000000000    0.5422950000000000 H
   0.9276080000000001    0.3658900000000000    0.5337150000000001 H
   0.9753220000000000    0.3914300000000000    0.4126750000000000 H
   0.9791340000000001    0.3063700000000000    0.4037050000000000 H
   0.9864780000000001    0.4322000000000000    0.8282450000000000 H
   0.9834840000000000    0.5729649999999999    0.8625550000000000 H
   0.9548900000000000    0.5880600000000000    0.7921700000000000 H
   0.9727680000000001    0.3843800000000000    0.7835150000000000 H
   0.9247460000000001    0.3585650000000000    0.6625850000000000 H
   0.9208220000000000    0.4435850000000000    0.6535650000000000 H
   0.9136780000000000    0.3180750000000000    0.0783700000000000 H