H6 C12 N2 O4
1.0
  38.4774853488549695    0.0000000000000000   -0.0335779488849560
  -1.0467756874531557   29.3153153115031131   -0.0102394974476559
   0.0000000000000000    0.0000000000000000   31.6260000000000012
H C N O
6 12 2 4
direct
   0.1208220000000000    0.4435850000000000    0.1535650000000000 H
   0.1247460000000000    0.3585650000000000    0.1625850000000000 H
   0.1727680000000000    0.3843800000000000    0.2835150000000000 H
   0.1864780000000000    0.4322000000000000    0.3282450000000000 H
   0.1834840000000000    0.5729649999999999    0.3625550000000000 H
   0.1548900000000000    0.5880600000000000    0.2921700000000000 H
   0.1312820000000000    0.4288400000000000    0.1822550000000000 C
   0.1344380000000000    0.3820350000000000    0.1870250000000000 C
   0.1493300000000000    0.3653100000000000    0.2240800000000000 C
   0.1605400000000000    0.3965850000000000    0.2548650000000000 C
   0.1550900000000000    0.4428900000000000    0.2494800000000000 C
   0.1637140000000000    0.4769750000000000    0.2819950000000000 C
   0.1794300000000000    0.4667000000000000    0.3202900000000000 C
   0.1523160000000000    0.3149750000000000    0.2332750000000000 C
   0.2063540000000000    0.4898000000000000    0.3897550000000000 C
   0.1869820000000000    0.5000000000000000    0.3496550000000000 C
   0.1778320000000000    0.5455250000000000    0.3400950000000000 C
   0.1622120000000000    0.5541000000000000    0.3015050000000000 C
   0.1406480000000000    0.4589150000000000    0.2130250000000000 N
   0.1555960000000000    0.5208450000000000    0.2726200000000000 N
   0.1244960000000000    0.2906600000000000    0.2334150000000000 O
   0.1822280000000000    0.3007250000000000    0.2426200000000000 O
   0.2092280000000000    0.4476800000000000    0.3980800000000000 O
   0.2190520000000000    0.5230000000000000    0.4110300000000000 O
