H3 O2
1.0
  38.4774853488549695    0.0000000000000000   -0.0335779488849560
  -1.0467756874531557   29.3153153115031131   -0.0102394974476559
   0.0000000000000000    0.0000000000000000   31.6260000000000012
H O
3 2
direct
   0.2141345512157373    0.4785624526667105    0.4079328270878569 H
   0.2236909675240304    0.5545145281194058    0.4191814643128126 H
   0.2362383042319574    0.6311727681261663    0.4455417530483852 H
   0.2092280000000000    0.4476800000000000    0.3980800000000000 O
   0.2190520000000000    0.5230000000000000    0.4110300000000000 O
