H6 O4
1.0
  15.9930295312617812    0.0000000000000000    9.1670803646629277
   5.3047141730999225   15.0744754978147562    9.1666310609457469
   0.0000000000000000    0.0000000000000000   36.8419999999999987
H O
6 4
direct
   0.0072579720869377    0.2190947686922622    0.6931545173792638 H
   0.2191299474077562    0.0069668198689331    0.6933646296042831 H
   0.1054296353480082    0.1052357039931612    0.6971438718743801 H
   0.9927216758530997    0.7809189035921026    0.8068504223459921 H
   0.7808494064304595    0.9930631532859998    0.8066320095982781 H
   0.8945488464774428    0.8947858888151220    0.8028581555084218 H
   0.0714700000000000    0.1946400000000000    0.6832600000000000 O
   0.1947200000000000    0.0712300000000000    0.6833850000000000 O
   0.9285099999999999    0.8053800000000000    0.8167400000000000 O
   0.8052600000000000    0.9288000000000000    0.8166100000000001 O
