Zn16 H188 C294 N14 O66
1.0
  27.9129769179480292    0.0000000000000000    2.3051645446910229
   1.1528763588969551   15.3260782754765081    0.4840762285668833
   0.0000000000000000    0.0000000000000000   30.6960000000000015
Zn H C N O
16 188 294 14 66
direct
   0.1560000000000000    0.1480000000000000    0.1926650000000000 Zn
   0.5544900000000000    0.1626400000000000    0.2000650000000000 Zn
   0.6560000000000000    0.1480000000000000    0.1926650000000000 Zn
   0.0544900000000000    0.1626400000000000    0.2000650000000000 Zn
   0.1560000000000000    0.1480000000000000    0.6926650000000000 Zn
   0.5544900000000000    0.1626400000000000    0.7000649999999999 Zn
   0.6560000000000000    0.1480000000000000    0.6926650000000000 Zn
   0.0544900000000000    0.1626400000000000    0.7000649999999999 Zn
   0.3440050000000000    0.8520100000000000    0.3073400000000000 Zn
   0.9455150000000000    0.8373699999999999    0.2999400000000000 Zn
   0.8440050000000000    0.8520100000000000    0.3073400000000000 Zn
   0.4455150000000000    0.8373699999999999    0.2999400000000000 Zn
   0.8440050000000000    0.8520100000000000    0.8073399999999999 Zn
   0.4455150000000000    0.8373699999999999    0.7999400000000000 Zn
   0.3440050000000000    0.8520100000000000    0.8073399999999999 Zn
   0.9455150000000000    0.8373699999999999    0.7999400000000000 Zn
   0.6717500000000001    0.4226300000000000    0.1582100000000000 H
   0.6735650000000000    0.5838200000000000    0.1553650000000000 H
   0.5334050000000000    0.4452600000000000    0.2293950000000000 H
   0.5352550000000000    0.6064900000000000    0.2286250000000000 H
   0.6857700000000000    0.8612600000000000    0.1956150000000000 H
   0.6836400000000000    0.7004200000000000    0.1938900000000000 H
   0.5322650000000000    0.8905300000000000    0.1952000000000000 H
   0.5293300000000000    0.7312900000000000    0.1914500000000000 H
   0.1717500000000000    0.4226300000000000    0.1582100000000000 H
   0.1735650000000000    0.5838200000000000    0.1553650000000000 H
   0.0334050000000000    0.4452600000000000    0.2293950000000000 H
   0.0352550000000000    0.6064900000000000    0.2286250000000000 H
   0.1857700000000000    0.8612600000000000    0.1956150000000000 H
   0.1836400000000000    0.7004200000000000    0.1938900000000000 H
   0.0322650000000000    0.8905300000000000    0.1952000000000000 H
   0.0293300000000000    0.7312900000000000    0.1914500000000000 H
   0.0356050000000000    0.2162000000000000    0.0630800000000000 H
   0.0342900000000000    0.2168700000000000    0.9821800000000001 H
   0.1789850000000000    0.0951300000000000    0.0529000000000000 H
   0.1776200000000000    0.0908600000000000    0.9721050000000000 H
   0.1786250000000000    0.1711800000000000    0.8287900000000000 H
   0.1805900000000000    0.1718400000000000    0.9095900000000000 H
   0.0275500000000000    0.1373900000000000    0.8434600000000000 H
   0.0290500000000000    0.1343500000000000    0.9239600000000000 H
   0.3811150000000000    0.2953300000000000    0.2034450000000000 H
   0.3995550000000000    0.0164700000000000    0.1843800000000000 H
   0.4869650000000000    0.0262900000000000    0.1898550000000000 H
   0.4697900000000000    0.2935500000000000    0.2049600000000000 H
   0.3266400000000000    0.0170700000000000    0.2151800000000000 H
   0.3162550000000000    0.2871100000000000    0.1699100000000000 H
   0.2381700000000000    0.0180800000000000    0.2104850000000000 H
   0.2274950000000000    0.2779200000000000    0.1713650000000000 H
   0.5356050000000000    0.2162000000000000    0.0630800000000000 H
   0.5342900000000000    0.2168700000000000    0.9821800000000001 H
   0.6789849999999999    0.0951300000000000    0.0529000000000000 H
   0.6776200000000000    0.0908600000000000    0.9721050000000000 H
   0.6786250000000000    0.1711800000000000    0.8287900000000000 H
   0.6805900000000000    0.1718400000000000    0.9095900000000000 H
   0.5275500000000000    0.1373900000000000    0.8434600000000000 H
   0.5290500000000000    0.1343500000000000    0.9239600000000000 H
   0.8811150000000000    0.2953300000000000    0.2034450000000000 H
   0.8995550000000000    0.0164700000000000    0.1843800000000000 H
   0.9869650000000000    0.0262900000000000    0.1898550000000000 H
   0.9697899999999999    0.2935500000000000    0.2049600000000000 H
   0.8266400000000000    0.0170700000000000    0.2151800000000000 H
   0.8162550000000000    0.2871100000000000    0.1699100000000000 H
   0.7381700000000000    0.0180800000000000    0.2104850000000000 H
   0.7274950000000000    0.2779200000000000    0.1713650000000000 H
   0.6717500000000001    0.4226300000000000    0.6582100000000000 H
   0.6735650000000000    0.5838200000000000    0.6553650000000000 H
   0.5334050000000000    0.4452600000000000    0.7293950000000000 H
   0.5352550000000000    0.6064900000000000    0.7286250000000000 H
   0.6857700000000000    0.8612600000000000    0.6956150000000000 H
   0.6836400000000000    0.7004200000000000    0.6938900000000000 H
   0.5322650000000000    0.8905300000000000    0.6952000000000000 H
   0.5293300000000000    0.7312900000000000    0.6914500000000000 H
   0.1717500000000000    0.4226300000000000    0.6582100000000000 H
   0.1735650000000000    0.5838200000000000    0.6553650000000000 H
   0.0334050000000000    0.4452600000000000    0.7293950000000000 H
   0.0352550000000000    0.6064900000000000    0.7286250000000000 H
   0.1857700000000000    0.8612600000000000    0.6956150000000000 H
   0.1836400000000000    0.7004200000000000    0.6938900000000000 H
   0.0322650000000000    0.8905300000000000    0.6952000000000000 H
   0.0293300000000000    0.7312900000000000    0.6914500000000000 H
   0.0356050000000000    0.2162000000000000    0.5630800000000000 H
   0.0342900000000000    0.2168700000000000    0.4821800000000000 H
   0.1789850000000000    0.0951300000000000    0.5528999999999999 H
   0.1776200000000000    0.0908600000000000    0.4721050000000000 H
   0.1786250000000000    0.1711800000000000    0.3287900000000000 H
   0.1805900000000000    0.1718400000000000    0.4095900000000000 H
   0.0275500000000000    0.1373900000000000    0.3434600000000000 H
   0.0290500000000000    0.1343500000000000    0.4239600000000000 H
   0.3811150000000000    0.2953300000000000    0.7034450000000000 H
   0.3995550000000000    0.0164700000000000    0.6843800000000000 H
   0.4869650000000000    0.0262900000000000    0.6898550000000000 H
   0.4697900000000000    0.2935500000000000    0.7049600000000000 H
   0.3266400000000000    0.0170700000000000    0.7151800000000000 H
   0.3162550000000000    0.2871100000000000    0.6699100000000000 H
   0.2381700000000000    0.0180800000000000    0.7104850000000000 H
   0.2274950000000000    0.2779200000000000    0.6713650000000000 H
   0.5356050000000000    0.2162000000000000    0.5630800000000000 H
   0.5342900000000000    0.2168700000000000    0.4821800000000000 H
   0.6789849999999999    0.0951300000000000    0.5528999999999999 H
   0.6776200000000000    0.0908600000000000    0.4721050000000000 H
   0.6786250000000000    0.1711800000000000    0.3287900000000000 H
   0.6805900000000000    0.1718400000000000    0.4095900000000000 H
   0.5275500000000000    0.1373900000000000    0.3434600000000000 H
   0.5290500000000000    0.1343500000000000    0.4239600000000000 H
   0.8811150000000000    0.2953300000000000    0.7034450000000000 H
   0.8995550000000000    0.0164700000000000    0.6843800000000000 H
   0.9869650000000000    0.0262900000000000    0.6898550000000000 H
   0.9697899999999999    0.2935500000000000    0.7049600000000000 H
   0.8266400000000000    0.0170700000000000    0.7151800000000000 H
   0.8162550000000000    0.2871100000000000    0.6699100000000000 H
   0.7381700000000000    0.0180800000000000    0.7104850000000000 H
   0.7274950000000000    0.2779200000000000    0.6713650000000000 H
   0.3142400000000000    0.1387500000000000    0.3043950000000000 H
   0.3163650000000000    0.2995900000000000    0.3061200000000000 H
   0.4677400000000000    0.1094800000000000    0.3048050000000000 H
   0.4706750000000000    0.2687100000000000    0.3085500000000000 H
   0.3282600000000000    0.5773800000000000    0.3417950000000000 H
   0.3264450000000000    0.4161900000000000    0.3446000000000000 H
   0.4666050000000000    0.5547500000000000    0.2706150000000000 H
   0.4647550000000000    0.3935200000000000    0.2713800000000000 H
   0.8142400000000001    0.1387500000000000    0.3043950000000000 H
   0.8163650000000000    0.2995900000000000    0.3061200000000000 H
   0.9677400000000000    0.1094800000000000    0.3048050000000000 H
   0.9706750000000000    0.2687100000000000    0.3085500000000000 H
   0.8282600000000000    0.5773800000000000    0.3417950000000000 H
   0.8264450000000000    0.4161900000000000    0.3446000000000000 H
   0.9666049999999999    0.5547500000000000    0.2706150000000000 H
   0.9647550000000000    0.3935200000000000    0.2713800000000000 H
   0.4644000000000000    0.7838100000000000    0.4369300000000000 H
   0.4657150000000000    0.7831399999999999    0.5178250000000000 H
   0.3210200000000000    0.9048800000000000    0.4470500000000000 H
   0.3223850000000000    0.9091500000000000    0.5279000000000000 H
   0.3213800000000000    0.8288400000000000    0.6712150000000000 H
   0.3194150000000000    0.8281700000000000    0.5904150000000000 H
   0.4724550000000000    0.8626300000000000    0.6565449999999999 H
   0.4709550000000000    0.8656600000000000    0.5760450000000000 H
   0.1188900000000000    0.7046800000000000    0.2965600000000000 H
   0.1004500000000000    0.9835400000000000    0.3156300000000000 H
   0.0130400000000000    0.9737200000000000    0.3101500000000000 H
   0.0302150000000000    0.7064600000000000    0.2950500000000000 H
   0.1733700000000000    0.9829400000000000    0.2848250000000000 H
   0.1837550000000000    0.7129000000000000    0.3300950000000000 H
   0.2618350000000000    0.9819300000000000    0.2895200000000000 H
   0.2725100000000000    0.7220900000000000    0.3286400000000000 H
   0.9643999999999999    0.7838100000000000    0.4369300000000000 H
   0.9657150000000000    0.7831399999999999    0.5178250000000000 H
   0.8210200000000001    0.9048800000000000    0.4470500000000000 H
   0.8223849999999999    0.9091500000000000    0.5279000000000000 H
   0.8213800000000000    0.8288400000000000    0.6712150000000000 H
   0.8194150000000000    0.8281700000000000    0.5904150000000000 H
   0.9724550000000001    0.8626300000000000    0.6565449999999999 H
   0.9709550000000000    0.8656600000000000    0.5760450000000000 H
   0.6188899999999999    0.7046800000000000    0.2965600000000000 H
   0.6004500000000000    0.9835400000000000    0.3156300000000000 H
   0.5130400000000001    0.9737200000000000    0.3101500000000000 H
   0.5302150000000000    0.7064600000000000    0.2950500000000000 H
   0.6733700000000000    0.9829400000000000    0.2848250000000000 H
   0.6837550000000000    0.7129000000000000    0.3300950000000000 H
   0.7618350000000000    0.9819300000000000    0.2895200000000000 H
   0.7725100000000000    0.7220900000000000    0.3286400000000000 H
   0.3142400000000000    0.1387500000000000    0.8043950000000000 H
   0.3163650000000000    0.2995900000000000    0.8061199999999999 H
   0.4677400000000000    0.1094800000000000    0.8048050000000000 H
   0.4706750000000000    0.2687100000000000    0.8085500000000000 H
   0.3282600000000000    0.5773800000000000    0.8417950000000001 H
   0.3264450000000000    0.4161900000000000    0.8446000000000000 H
   0.4666050000000000    0.5547500000000000    0.7706150000000000 H
   0.4647550000000000    0.3935200000000000    0.7713800000000000 H
   0.8142400000000001    0.1387500000000000    0.8043950000000000 H
   0.8163650000000000    0.2995900000000000    0.8061199999999999 H
   0.9677400000000000    0.1094800000000000    0.8048050000000000 H
   0.9706750000000000    0.2687100000000000    0.8085500000000000 H
   0.8282600000000000    0.5773800000000000    0.8417950000000001 H
   0.8264450000000000    0.4161900000000000    0.8446000000000000 H
   0.9666049999999999    0.5547500000000000    0.7706150000000000 H
   0.9647550000000000    0.3935200000000000    0.7713800000000000 H
   0.7502538531315733    0.9040694580856009    0.8007529208400224 H
   0.7545509323383636    0.7984281265890290    0.8169556207456066 H
   0.9643999999999999    0.7838100000000000    0.9369300000000000 H
   0.9657150000000000    0.7831399999999999    0.0178250000000000 H
   0.8210200000000001    0.9048800000000000    0.9470499999999999 H
   0.8223849999999999    0.9091500000000000    0.0279000000000000 H
   0.8213800000000000    0.8288400000000000    0.1712150000000000 H
   0.8194150000000000    0.8281700000000000    0.0904150000000000 H
   0.9724550000000001    0.8626300000000000    0.1565450000000000 H
   0.9709550000000000    0.8656600000000000    0.0760450000000000 H
   0.5326833268843203    0.8951175301233903    0.8062908278950691 H
   0.5396880452867310    0.7864223396055020    0.8000830802167239 H
   0.4644000000000000    0.7838100000000000    0.9369300000000000 H
   0.4657150000000000    0.7831399999999999    0.0178250000000000 H
   0.3210200000000000    0.9048800000000000    0.9470499999999999 H
   0.3223850000000000    0.9091500000000000    0.0279000000000000 H
   0.3213800000000000    0.8288400000000000    0.1712150000000000 H
   0.3194150000000000    0.8281700000000000    0.0904150000000000 H
   0.4724550000000000    0.8626300000000000    0.1565450000000000 H
   0.4709550000000000    0.8656600000000000    0.0760450000000000 H
   0.1188900000000000    0.7046800000000000    0.7965599999999999 H
   0.1004500000000000    0.9835400000000000    0.8156300000000001 H
   0.0130400000000000    0.9737200000000000    0.8101499999999999 H
   0.0302150000000000    0.7064600000000000    0.7950500000000000 H
   0.1733700000000000    0.9829400000000000    0.7848250000000000 H
   0.1837550000000000    0.7129000000000000    0.8300950000000000 H
   0.2618350000000000    0.9819300000000000    0.7895200000000000 H
   0.2725100000000000    0.7220900000000000    0.8286400000000000 H
   0.6020449999999999    0.3261100000000000    0.1957100000000000 C
   0.6101200000000000    0.9836300000000000    0.1971450000000000 C
   0.6421500000000000    0.4636400000000000    0.1737500000000000 C
   0.6431200000000000    0.5539300000000000    0.1725800000000000 C
   0.5640750000000000    0.4763700000000000    0.2135000000000000 C
   0.5652350000000000    0.5666900000000000    0.2125000000000000 C
   0.6026700000000000    0.4236100000000000    0.1942900000000000 C
   0.6048600000000000    0.6074300000000000    0.1923800000000000 C
   0.6517300000000000    0.8319600000000000    0.1944650000000000 C
   0.6503050000000000    0.7418600000000000    0.1931400000000000 C
   0.5654350000000000    0.8486300000000000    0.1939950000000000 C
   0.5639650000000000    0.7586700000000000    0.1925000000000000 C
   0.6092150000000001    0.8865499999999999    0.1950400000000000 C
   0.6064000000000001    0.7032500000000000    0.1922000000000000 C
   0.1020450000000000    0.3261100000000000    0.1957100000000000 C
   0.1101200000000000    0.9836300000000000    0.1971450000000000 C
   0.1421500000000000    0.4636400000000000    0.1737500000000000 C
   0.1431200000000000    0.5539300000000000    0.1725800000000000 C
   0.0640750000000000    0.4763700000000000    0.2135000000000000 C
   0.0652350000000000    0.5666900000000000    0.2125000000000000 C
   0.1026700000000000    0.4236100000000000    0.1942900000000000 C
   0.1048600000000000    0.6074300000000000    0.1923800000000000 C
   0.1517300000000000    0.8319600000000000    0.1944650000000000 C
   0.1503050000000000    0.7418600000000000    0.1931400000000000 C
   0.0654350000000000    0.8486300000000000    0.1939950000000000 C
   0.0639650000000000    0.7586700000000000    0.1925000000000000 C
   0.1092150000000000    0.8865499999999999    0.1950400000000000 C
   0.1064000000000000    0.7032500000000000    0.1922000000000000 C
   0.1022900000000000    0.1539300000000000    0.7820800000000000 C
   0.1079350000000000    0.1567600000000000    0.1117050000000000 C
   0.0665400000000000    0.1892100000000000    0.0426850000000000 C
   0.0658700000000000    0.1884900000000000    0.9974700000000001 C
   0.1474800000000000    0.1214200000000000    0.0369400000000000 C
   0.1465950000000000    0.1199600000000000    0.9917350000000000 C
   0.1073900000000000    0.1558400000000000    0.0629450000000000 C
   0.1058400000000000    0.1537300000000000    0.9710400000000000 C
   0.1461200000000000    0.1629200000000000    0.8500799999999999 C
   0.1470150000000000    0.1626600000000000    0.8953100000000001 C
   0.0610150000000000    0.1445300000000000    0.8581850000000000 C
   0.0619650000000000    0.1437800000000000    0.9034050000000000 C
   0.1030550000000000    0.1540100000000000    0.8308750000000000 C
   0.1049750000000000    0.1530700000000000    0.9229800000000000 C
   0.4029700000000000    0.2341300000000000    0.1990450000000000 C
   0.4130150000000000    0.0794000000000000    0.1897200000000000 C
   0.4619550000000000    0.0840400000000000    0.1922050000000000 C
   0.4523150000000000    0.2338200000000000    0.2007600000000000 C
   0.3821200000000000    0.1554800000000000    0.1936000000000000 C
   0.3067200000000000    0.0759700000000000    0.2038750000000000 C
   0.3006600000000000    0.2262500000000000    0.1800150000000000 C
   0.2573050000000000    0.0762500000000000    0.2023700000000000 C
   0.2513700000000000    0.2218400000000000    0.1800400000000000 C
   0.3296450000000000    0.1525100000000000    0.1924150000000000 C
   0.6022900000000000    0.1539300000000000    0.7820800000000000 C
   0.6079350000000000    0.1567600000000000    0.1117050000000000 C
   0.5665400000000000    0.1892100000000000    0.0426850000000000 C
   0.5658700000000000    0.1884900000000000    0.9974700000000001 C
   0.6474800000000001    0.1214200000000000    0.0369400000000000 C
   0.6465950000000000    0.1199600000000000    0.9917350000000000 C
   0.6073900000000000    0.1558400000000000    0.0629450000000000 C
   0.6058400000000000    0.1537300000000000    0.9710400000000000 C
   0.6461200000000000    0.1629200000000000    0.8500799999999999 C
   0.6470150000000000    0.1626600000000000    0.8953100000000001 C
   0.5610150000000000    0.1445300000000000    0.8581850000000000 C
   0.5619650000000000    0.1437800000000000    0.9034050000000000 C
   0.6030550000000000    0.1540100000000000    0.8308750000000000 C
   0.6049750000000000    0.1530700000000000    0.9229800000000000 C
   0.9029700000000001    0.2341300000000000    0.1990450000000000 C
   0.9130150000000000    0.0794000000000000    0.1897200000000000 C
   0.9619550000000000    0.0840400000000000    0.1922050000000000 C
   0.9523150000000000    0.2338200000000000    0.2007600000000000 C
   0.8821200000000000    0.1554800000000000    0.1936000000000000 C
   0.8067200000000000    0.0759700000000000    0.2038750000000000 C
   0.8006599999999999    0.2262500000000000    0.1800150000000000 C
   0.7573050000000000    0.0762500000000000    0.2023700000000000 C
   0.7513700000000000    0.2218400000000000    0.1800400000000000 C
   0.8296450000000000    0.1525100000000000    0.1924150000000000 C
   0.6020449999999999    0.3261100000000000    0.6957100000000001 C
   0.6101200000000000    0.9836300000000000    0.6971450000000000 C
   0.6421500000000000    0.4636400000000000    0.6737500000000000 C
   0.6431200000000000    0.5539300000000000    0.6725800000000000 C
   0.5640750000000000    0.4763700000000000    0.7135000000000000 C
   0.5652350000000000    0.5666900000000000    0.7125000000000000 C
   0.6026700000000000    0.4236100000000000    0.6942900000000000 C
   0.6048600000000000    0.6074300000000000    0.6923800000000000 C
   0.6517300000000000    0.8319600000000000    0.6944650000000000 C
   0.6503050000000000    0.7418600000000000    0.6931400000000000 C
   0.5654350000000000    0.8486300000000000    0.6939950000000000 C
   0.5639650000000000    0.7586700000000000    0.6925000000000000 C
   0.6092150000000001    0.8865499999999999    0.6950400000000000 C
   0.6064000000000001    0.7032500000000000    0.6922000000000000 C
   0.1020450000000000    0.3261100000000000    0.6957100000000001 C
   0.1101200000000000    0.9836300000000000    0.6971450000000000 C
   0.1421500000000000    0.4636400000000000    0.6737500000000000 C
   0.1431200000000000    0.5539300000000000    0.6725800000000000 C
   0.0640750000000000    0.4763700000000000    0.7135000000000000 C
   0.0652350000000000    0.5666900000000000    0.7125000000000000 C
   0.1026700000000000    0.4236100000000000    0.6942900000000000 C
   0.1048600000000000    0.6074300000000000    0.6923800000000000 C
   0.1517300000000000    0.8319600000000000    0.6944650000000000 C
   0.1503050000000000    0.7418600000000000    0.6931400000000000 C
   0.0654350000000000    0.8486300000000000    0.6939950000000000 C
   0.0639650000000000    0.7586700000000000    0.6925000000000000 C
   0.1092150000000000    0.8865499999999999    0.6950400000000000 C
   0.1064000000000000    0.7032500000000000    0.6922000000000000 C
   0.1022900000000000    0.1539300000000000    0.2820800000000000 C
   0.1079350000000000    0.1567600000000000    0.6117049999999999 C
   0.0665400000000000    0.1892100000000000    0.5426850000000000 C
   0.0658700000000000    0.1884900000000000    0.4974700000000000 C
   0.1474800000000000    0.1214200000000000    0.5369400000000000 C
   0.1465950000000000    0.1199600000000000    0.4917350000000000 C
   0.1073900000000000    0.1558400000000000    0.5629450000000000 C
   0.1058400000000000    0.1537300000000000    0.4710400000000000 C
   0.1461200000000000    0.1629200000000000    0.3500800000000000 C
   0.1470150000000000    0.1626600000000000    0.3953100000000000 C
   0.0610150000000000    0.1445300000000000    0.3581850000000000 C
   0.0619650000000000    0.1437800000000000    0.4034050000000000 C
   0.1030550000000000    0.1540100000000000    0.3308750000000000 C
   0.1049750000000000    0.1530700000000000    0.4229800000000000 C
   0.4029700000000000    0.2341300000000000    0.6990450000000000 C
   0.4130150000000000    0.0794000000000000    0.6897200000000000 C
   0.4619550000000000    0.0840400000000000    0.6922050000000000 C
   0.4523150000000000    0.2338200000000000    0.7007600000000000 C
   0.3821200000000000    0.1554800000000000    0.6936000000000000 C
   0.3067200000000000    0.0759700000000000    0.7038750000000000 C
   0.3006600000000000    0.2262500000000000    0.6800150000000000 C
   0.2573050000000000    0.0762500000000000    0.7023699999999999 C
   0.2513700000000000    0.2218400000000000    0.6800400000000000 C
   0.3296450000000000    0.1525100000000000    0.6924150000000000 C
   0.6022900000000000    0.1539300000000000    0.2820800000000000 C
   0.6079350000000000    0.1567600000000000    0.6117049999999999 C
   0.5665400000000000    0.1892100000000000    0.5426850000000000 C
   0.5658700000000000    0.1884900000000000    0.4974700000000000 C
   0.6474800000000001    0.1214200000000000    0.5369400000000000 C
   0.6465950000000000    0.1199600000000000    0.4917350000000000 C
   0.6073900000000000    0.1558400000000000    0.5629450000000000 C
   0.6058400000000000    0.1537300000000000    0.4710400000000000 C
   0.6461200000000000    0.1629200000000000    0.3500800000000000 C
   0.6470150000000000    0.1626600000000000    0.3953100000000000 C
   0.5610150000000000    0.1445300000000000    0.3581850000000000 C
   0.5619650000000000    0.1437800000000000    0.4034050000000000 C
   0.6030550000000000    0.1540100000000000    0.3308750000000000 C
   0.6049750000000000    0.1530700000000000    0.4229800000000000 C
   0.9029700000000001    0.2341300000000000    0.6990450000000000 C
   0.9130150000000000    0.0794000000000000    0.6897200000000000 C
   0.9619550000000000    0.0840400000000000    0.6922050000000000 C
   0.9523150000000000    0.2338200000000000    0.7007600000000000 C
   0.8821200000000000    0.1554800000000000    0.6936000000000000 C
   0.8067200000000000    0.0759700000000000    0.7038750000000000 C
   0.8006599999999999    0.2262500000000000    0.6800150000000000 C
   0.7573050000000000    0.0762500000000000    0.7023699999999999 C
   0.7513700000000000    0.2218400000000000    0.6800400000000000 C
   0.8296450000000000    0.1525100000000000    0.6924150000000000 C
   0.3979650000000000    0.6739000000000001    0.3042950000000000 C
   0.3898900000000000    0.0163800000000000    0.3028600000000000 C
   0.3482800000000000    0.1680500000000000    0.3055450000000000 C
   0.3497050000000000    0.2581500000000000    0.3068650000000000 C
   0.4345750000000000    0.1513800000000000    0.3060150000000000 C
   0.4360400000000000    0.2413400000000000    0.3075000000000000 C
   0.3907950000000000    0.1134700000000000    0.3049650000000000 C
   0.3936050000000000    0.2967600000000000    0.3077900000000000 C
   0.3578550000000000    0.5363700000000000    0.3262350000000000 C
   0.3568900000000000    0.4460700000000000    0.3274350000000000 C
   0.4359300000000000    0.5236400000000000    0.2865050000000000 C
   0.4347750000000000    0.4333200000000000    0.2872650000000000 C
   0.3973400000000000    0.5764000000000000    0.3057250000000000 C
   0.3951450000000000    0.3925800000000000    0.3076250000000000 C
   0.8979650000000000    0.6739000000000001    0.3042950000000000 C
   0.8898900000000001    0.0163800000000000    0.3028600000000000 C
   0.8482799999999999    0.1680500000000000    0.3055450000000000 C
   0.8497049999999999    0.2581500000000000    0.3068650000000000 C
   0.9345749999999999    0.1513800000000000    0.3060150000000000 C
   0.9360400000000000    0.2413400000000000    0.3075000000000000 C
   0.8907950000000000    0.1134700000000000    0.3049650000000000 C
   0.8936050000000000    0.2967600000000000    0.3077900000000000 C
   0.8578550000000000    0.5363700000000000    0.3262350000000000 C
   0.8568899999999999    0.4460700000000000    0.3274350000000000 C
   0.9359299999999999    0.5236400000000000    0.2865050000000000 C
   0.9347750000000000    0.4333200000000000    0.2872650000000000 C
   0.8973400000000000    0.5764000000000000    0.3057250000000000 C
   0.8951450000000001    0.3925800000000000    0.3076250000000000 C
   0.3977200000000000    0.8460800000000001    0.7179250000000000 C
   0.3920750000000000    0.8432600000000000    0.3883000000000000 C
   0.4334650000000000    0.8108100000000000    0.4573200000000000 C
   0.4341300000000000    0.8115100000000000    0.5025400000000000 C
   0.3525300000000000    0.8786000000000000    0.4630650000000000 C
   0.3534050000000000    0.8800400000000000    0.5082500000000000 C
   0.3926100000000000    0.8441500000000000    0.4370650000000000 C
   0.3941650000000000    0.8463100000000000    0.5289650000000000 C
   0.3538900000000000    0.8370800000000000    0.6499300000000000 C
   0.3529850000000000    0.8373699999999999    0.6047000000000000 C
   0.4389950000000000    0.8554700000000000    0.6418200000000001 C
   0.4380350000000000    0.8562500000000000    0.5965950000000000 C
   0.3969550000000000    0.8460100000000000    0.6691300000000000 C
   0.3950300000000000    0.8469300000000000    0.5770250000000000 C
   0.0970350000000000    0.7658800000000000    0.3009500000000000 C
   0.0869900000000000    0.9206100000000000    0.3102850000000000 C
   0.0380550000000000    0.9159700000000000    0.3078050000000000 C
   0.0476900000000000    0.7661900000000000    0.2992500000000000 C
   0.1178900000000000    0.8445300000000000    0.3064100000000000 C
   0.1932850000000000    0.9240400000000000    0.2961000000000000 C
   0.1993500000000000    0.7737600000000000    0.3199900000000000 C
   0.2427000000000000    0.9237600000000000    0.2976350000000000 C
   0.2486350000000000    0.7781700000000000    0.3199650000000000 C
   0.1703600000000000    0.8475000000000000    0.3075900000000000 C
   0.8977200000000001    0.8460800000000001    0.7179250000000000 C
   0.8920750000000000    0.8432600000000000    0.3883000000000000 C
   0.9334650000000000    0.8108100000000000    0.4573200000000000 C
   0.9341300000000000    0.8115100000000000    0.5025400000000000 C
   0.8525300000000000    0.8786000000000000    0.4630650000000000 C
   0.8534050000000000    0.8800400000000000    0.5082500000000000 C
   0.8926100000000000    0.8441500000000000    0.4370650000000000 C
   0.8941650000000000    0.8463100000000000    0.5289650000000000 C
   0.8538900000000000    0.8370800000000000    0.6499300000000000 C
   0.8529850000000000    0.8373699999999999    0.6047000000000000 C
   0.9389950000000000    0.8554700000000000    0.6418200000000001 C
   0.9380350000000000    0.8562500000000000    0.5965950000000000 C
   0.8969549999999999    0.8460100000000000    0.6691300000000000 C
   0.8950300000000000    0.8469300000000000    0.5770250000000000 C
   0.5970350000000000    0.7658800000000000    0.3009500000000000 C
   0.5869900000000000    0.9206100000000000    0.3102850000000000 C
   0.5380549999999999    0.9159700000000000    0.3078050000000000 C
   0.5476900000000000    0.7661900000000000    0.2992500000000000 C
   0.6178900000000001    0.8445300000000000    0.3064100000000000 C
   0.6932850000000000    0.9240400000000000    0.2961000000000000 C
   0.6993500000000000    0.7737600000000000    0.3199900000000000 C
   0.7427000000000000    0.9237600000000000    0.2976350000000000 C
   0.7486349999999999    0.7781700000000000    0.3199650000000000 C
   0.6703600000000001    0.8475000000000000    0.3075900000000000 C
   0.3979650000000000    0.6739000000000001    0.8042950000000000 C
   0.3898900000000000    0.0163800000000000    0.8028600000000000 C
   0.3482800000000000    0.1680500000000000    0.8055450000000000 C
   0.3497050000000000    0.2581500000000000    0.8068649999999999 C
   0.4345750000000000    0.1513800000000000    0.8060149999999999 C