H8 C10 N2
1.0
  27.9129769179480292    0.0000000000000000    2.3051645446910229
   1.1528763588969551   15.3260782754765081    0.4840762285668833
   0.0000000000000000    0.0000000000000000   30.6960000000000015
H C N
8 10 2
direct
   0.5130400000000001    0.9737200000000000    0.8101499999999999 H
   0.5302150000000000    0.7064600000000000    0.7950500000000000 H
   0.6188899999999999    0.7046800000000000    0.7965599999999999 H
   0.6004500000000000    0.9835400000000000    0.8156300000000001 H
   0.6837550000000000    0.7129000000000000    0.8300950000000000 H
   0.6733700000000000    0.9829400000000000    0.7848250000000000 H
   0.7725100000000000    0.7220900000000000    0.8286400000000000 H
   0.7618350000000000    0.9819300000000000    0.7895200000000000 H
   0.5380549999999999    0.9159700000000000    0.8078050000000000 C
   0.5476900000000000    0.7661900000000000    0.7992500000000000 C
   0.5970350000000000    0.7658800000000000    0.8009500000000001 C
   0.6178900000000001    0.8445300000000000    0.8064100000000001 C
   0.5869900000000000    0.9206100000000000    0.8102849999999999 C
   0.6703600000000001    0.8475000000000000    0.8075900000000000 C
   0.6993500000000000    0.7737600000000000    0.8199900000000000 C
   0.6932850000000000    0.9240400000000000    0.7961000000000000 C
   0.7486349999999999    0.7781700000000000    0.8199650000000001 C
   0.7427000000000000    0.9237600000000000    0.7976350000000000 C
   0.5184900000000000    0.8400200000000000    0.8022899999999999 N
   0.7702100000000001    0.8520500000000000    0.8089900000000000 N
