H6 O4
1.0
  27.9129769179480292    0.0000000000000000    2.3051645446910229
   1.1528763588969551   15.3260782754765081    0.4840762285668833
   0.0000000000000000    0.0000000000000000   30.6960000000000015
H O
6 4
direct
   0.1724926708128188    0.1684694578132625    0.7720323372780471 H
   0.0318079427902850    0.1374285050357988    0.7835945065627760 H
   0.1012662052261228    0.1526567224609218    0.7825603976418629 H
   0.0393195107820006    0.1994136575934006    0.1199437584267018 H
   0.1773458305151879    0.1158906696975434    0.1107494479096196 H
   0.1090628841897391    0.1574763672075951    0.1101791319262249 H
   0.1421850000000000    0.1620900000000000    0.7597250000000000 O
   0.0621350000000000    0.1444200000000000    0.7666700000000000 O
   0.0686900000000000    0.1808400000000000    0.1333950000000000 O
   0.1476250000000000    0.1330900000000000    0.1278400000000000 O
