H1 C1 O2
1.0
  30.3539995376821494    0.0000000000000000   -0.0052977723846116
  -0.0272799060524630   34.5725120642240284   -0.6946118526269334
   0.0000000000000000    0.0000000000000000   29.8539999999999992
H C O
1 1 2
direct
   0.1122566666666667    0.6035299999999999    0.2886450000000000 H
   0.1326833333333333    0.5855966666666665    0.2658450000000000 C
   0.1573733333333333    0.6047899999999999    0.2388150000000000 O
   0.1295900000000000    0.5496966666666666    0.2680050000000000 O
