H12 O8
1.0
  22.2176323249645478    0.0000000000000000   -0.4405654011499640
   0.0002934314972077   16.1679999874871605    0.0005643696668098
   0.0000000000000000    0.0000000000000000   31.8440000000000012
H O
12 8
direct
   0.1707000858184075    0.3896869008017008    0.6880304979732381 H
   0.1714179191902687    0.3904258055337272    0.8134802059124887 H
   0.1666371582185058    0.3838974304578898    0.7510815382858020 H
   0.1706976749038036    0.6103292064619478    0.6880314042460991 H
   0.1714155771373187    0.6095726212160255    0.8134793253609568 H
   0.1666334242479977    0.6161113487944939    0.7510815871748182 H
   0.8293099141815927    0.6103230991982995    0.8119495020267620 H
   0.8285920808097312    0.6095841944662727    0.6864997940875115 H
   0.8333728417814943    0.6161125695421102    0.7488984617141979 H
   0.8293111155425430    0.3896852281550959    0.8119497295569433 H
   0.8285926841196570    0.3904249671156971    0.6865006617048851 H
   0.8333742413578877    0.3838954812480990    0.7488984433894916 H
   0.1849600000000000    0.4094900000000000    0.7152050000000000 O
   0.1852100000000000    0.4096900000000000    0.7864750000000000 O
   0.1849600000000000    0.5905200000000000    0.7152050000000000 O
   0.1852100000000000    0.5903100000000000    0.7864750000000000 O
   0.8150500000000001    0.5905200000000000    0.7847750000000000 O
   0.8148000000000000    0.5903200000000000    0.7135050000000001 O
   0.8150500000000001    0.4094900000000000    0.7847750000000000 O
   0.8148000000000000    0.4096900000000000    0.7135050000000001 O
