H8 C10 N4
1.0
  22.2176323249645478    0.0000000000000000   -0.4405654011499640
   0.0002934314972077   16.1679999874871605    0.0005643696668098
   0.0000000000000000    0.0000000000000000   31.8440000000000012
H C N
8 10 4
direct
   0.1511300000000000    0.5000300000000000    0.1428500000000000 H
   0.3367500000000000    0.5000100000000000    0.1360000000000000 H
   0.3331300000000000    0.5000100000000000    0.0567950000000000 H
   0.1394900000000000    0.5000400000000000    0.0633550000000000 H
   0.3488800000000000    0.4999800000000000    0.8571299999999999 H
   0.1632500000000000    0.5000000000000000    0.8636850000000000 H
   0.1668700000000000    0.4999900000000000    0.9431499999999999 H
   0.3605100000000000    0.4999700000000000    0.9366250000000000 H
   0.1898100000000000    0.5000200000000000    0.1223300000000000 C
   0.2943200000000000    0.5000100000000000    0.1185150000000000 C
   0.2922100000000000    0.5000100000000000    0.0749800000000000 C
   0.2355900000000000    0.5000200000000000    0.0545000000000000 C
   0.1836700000000000    0.5000300000000000    0.0787800000000000 C
   0.3102000000000000    0.4999800000000000    0.8776500000000000 C
   0.2056800000000000    0.5000000000000000    0.8814500000000001 C
   0.2078000000000000    0.4999900000000000    0.9250050000000001 C
   0.2644200000000000    0.4999900000000000    0.9453849999999999 C
   0.3163400000000000    0.4999800000000000    0.9212000000000000 C
   0.2441200000000000    0.5000100000000000    0.1417550000000000 N
   0.2258100000000000    0.5000200000000000    0.0104050000000000 N
   0.2558800000000000    0.4999900000000000    0.8582000000000001 N
   0.2742000000000000    0.4999800000000000    0.9895750000000000 N
