H8 C24 N8
1.0
  12.5489999999999995    0.0000000000000000    0.0000000000000008
   0.0004006228764851   22.9539999965039065    0.0000000000000014
   0.0000000000000000    0.0000000000000000   29.6799999999999997
H C N
8 24 8
direct
   0.0708000000000000    0.0887300000000000    0.8208000000000000 H
   0.2117900000000000    0.1624000000000000    0.8187550000000000 H
   0.2102400000000000    0.1567800000000000    0.6732549999999999 H
   0.0691200000000000    0.0832300000000000    0.6751350000000000 H
   0.9292400000000000    0.9112800000000000    0.6791600000000000 H
   0.7882500000000000    0.8376100000000000    0.6812400000000001 H
   0.7897999999999999    0.8432300000000000    0.8267400000000000 H
   0.9309200000000000    0.9167800000000000    0.8248599999999999 H
   0.1801300000000000    0.1418900000000000    0.7057100000000001 C
   0.2222500000000000    0.1654500000000000    0.7458650000000000 C
   0.3463500000000000    0.2332300000000000    0.7843700000000000 C
   0.3456200000000000    0.2314900000000000    0.7045900000000000 C
   0.3049900000000000    0.2099900000000000    0.7448500000000000 C
   0.1810300000000000    0.1449700000000000    0.7871500000000000 C
   0.9738599999999999    0.0335600000000000    0.7494700000000000 C
   0.9043400000000000    0.0369200000000000    0.7098050000000000 C
   0.9064700000000000    0.0394900000000000    0.7896350000000000 C
   0.0999900000000000    0.1003000000000000    0.7068150000000000 C
   0.0593400000000000    0.0806300000000000    0.7481450000000001 C
   0.1010000000000000    0.1033700000000000    0.7883249999999999 C
   0.8199100000000000    0.8581200000000000    0.7942850000000000 C
   0.7777900000000000    0.8345700000000000    0.7541300000000000 C
   0.6536900000000000    0.7667800000000000    0.7156250000000000 C
   0.6544200000000000    0.7685200000000000    0.7954000000000000 C
   0.6950499999999999    0.7900199999999999    0.7551450000000000 C
   0.8190100000000000    0.8550400000000000    0.7128150000000000 C
   0.0261800000000000    0.9664600000000000    0.7505250000000000 C
   0.0957000000000000    0.9630900000000000    0.7901500000000000 C
   0.0935700000000000    0.9605200000000000    0.7103500000000000 C
   0.9000500000000000    0.8997100000000000    0.7931800000000000 C
   0.9407000000000000    0.9193800000000000    0.7518500000000000 C
   0.8990400000000000    0.8966400000000000    0.7116700000000000 C
   0.3787100000000000    0.2527500000000000    0.8184100000000001 N
   0.3779500000000000    0.2499600000000000    0.6702049999999999 N
   0.8506500000000000    0.0407400000000000    0.6778999999999999 N
   0.8545700000000001    0.0453000000000000    0.8218900000000000 N
   0.6213300000000000    0.7472600000000000    0.6815850000000000 N
   0.6221000000000000    0.7500500000000000    0.8297900000000000 N
   0.1493900000000000    0.9592700000000000    0.8220950000000000 N
   0.1454700000000000    0.9547099999999999    0.6781100000000000 N
