Cd8 As16 H15 O47
1.0
   9.6300495633626326    0.0000000000000000   -0.5716243584550713
   0.0003815769109765   19.5119999843815499    0.0006810972871594
   0.0000000000000000    0.0000000000000000   23.0289999999999999
Cd As H O
8 16 15 47
direct
   0.0000800000000000    0.5000000000000000    0.4999900000000000 Cd
   0.5001000000000000    0.9999900000000000    0.4999900000000000 Cd
   0.5000900000000000    0.5000000000000000    0.4999900000000000 Cd
   0.0000400000000000    0.2500000000000000    0.0000000000000000 Cd
   0.0000400000000000    0.7500100000000000    0.9999900000000000 Cd
   0.5000500000000000    0.2500000000000000    0.0000000000000000 Cd
   0.5000599999999999    0.7500100000000000    0.9999900000000000 Cd
   0.0000900000000000    0.9999900000000000    0.4999900000000000 Cd
   0.2776000000000000    0.4346000000000000    0.5965000000000000 As
   0.2776200000000000    0.9346000000000000    0.5965100000000000 As
   0.7776100000000000    0.4346000000000000    0.5965000000000000 As
   0.7776400000000000    0.9346000000000000    0.5965100000000000 As
   0.2225000000000000    0.1845900000000000    0.9034600000000000 As
   0.2225100000000000    0.6846000000000000    0.9034600000000000 As
   0.7225100000000000    0.1845900000000000    0.9034600000000000 As
   0.7225200000000001    0.6846000000000000    0.9034600000000000 As
   0.2225400000000000    0.0654000000000000    0.4034700000000000 As
   0.2225400000000000    0.5654100000000000    0.4034700000000000 As
   0.7225500000000000    0.0654000000000000    0.4034700000000000 As
   0.7225500000000000    0.5654100000000000    0.4034700000000000 As
   0.2775600000000000    0.3154000000000000    0.0965000000000000 As
   0.2775600000000000    0.8154000000000000    0.0965000000000000 As
   0.7775700000000000    0.3154000000000000    0.0965000000000000 As
   0.7775800000000000    0.8154000000000000    0.0965000000000000 As
   0.0628800000000000    0.3824300000000000    0.5811100000000000 H
   0.0629000000000000    0.8824300000000000    0.5811100000000000 H
   0.5628900000000000    0.3824300000000000    0.5811100000000000 H
   0.5629100000000000    0.8824300000000000    0.5811100000000000 H
   0.4372300000000000    0.1324300000000000    0.9188000000000000 H
   0.4372400000000000    0.6324300000000000    0.9188499999999999 H
   0.9372400000000000    0.1324300000000000    0.9188000000000000 H
   0.9372500000000000    0.6324300000000000    0.9188499999999999 H
   0.4372600000000000    0.1175700000000000    0.4188600000000000 H
   0.9372700000000000    0.1175700000000000    0.4188600000000000 H
   0.9372700000000000    0.6175700000000000    0.4188600000000000 H
   0.0628300000000000    0.3675700000000000    0.0811200000000000 H
   0.0628300000000000    0.8675700000000000    0.0811200000000000 H
   0.5628400000000000    0.3675700000000000    0.0811200000000000 H
   0.5628500000000000    0.8675700000000000    0.0811200000000000 H
   0.4155800000000000    0.4114000000000000    0.5574000000000000 O
   0.4156000000000000    0.9114000000000000    0.5574000000000000 O
   0.9155900000000000    0.4114000000000000    0.5574000000000000 O
   0.9156100000000000    0.9114000000000000    0.5574100000000000 O
   0.1597500000000000    0.3635200000000000    0.5925900000000000 O
   0.1597700000000000    0.8635200000000000    0.5925000000000000 O
   0.6597600000000000    0.3635200000000000    0.5925000000000000 O
   0.6597800000000000    0.8635200000000000    0.5925900000000000 O
   0.1872700000000000    0.5032000000000000    0.5668800000000001 O
   0.1872900000000000    0.0000000000000000    0.5668800000000001 O
   0.6872800000000000    0.5032000000000000    0.5668800000000001 O
   0.6873000000000000    0.0000000000000000    0.5668800000000001 O
   0.0845300000000000    0.1614000000000000    0.9425500000000000 O
   0.0845400000000000    0.6614000000000000    0.9425500000000000 O
   0.5845399999999999    0.1614000000000000    0.9425500000000000 O
   0.5845500000000000    0.6614000000000000    0.9425500000000000 O
   0.3403600000000000    0.1135200000000000    0.9073800000000000 O
   0.3403700000000000    0.6135200000000000    0.9073800000000000 O
   0.8403700000000000    0.1135200000000000    0.9073800000000000 O
   0.8403800000000000    0.6135200000000000    0.9073800000000000 O
   0.3128400000000000    0.2531900000000000    0.9330900000000000 O
   0.3128500000000000    0.7531900000000000    0.9330900000000000 O
   0.8128500000000000    0.2531900000000000    0.9330900000000000 O
   0.8128600000000000    0.7531900000000000    0.9330900000000000 O
   0.0845600000000000    0.0885900000000000    0.4425600000000000 O
   0.0845600000000000    0.5886000000000000    0.4425600000000000 O
   0.5845800000000000    0.0885900000000000    0.4425600000000000 O
   0.5845700000000000    0.5886000000000000    0.4425600000000000 O
   0.3403900000000000    0.1364800000000000    0.4073800000000000 O
   0.8404000000000000    0.1364800000000000    0.4073000000000000 O
   0.8404000000000000    0.6364900000000000    0.4073000000000000 O
   0.3128900000000000    0.9968100000000000    0.4331000000000000 O
   0.3128800000000000    0.4968100000000000    0.4331000000000000 O
   0.8129000000000000    0.9968100000000000    0.4331000000000000 O
   0.8128900000000000    0.4968100000000000    0.4331000000000000 O
   0.4155300000000000    0.3386000000000000    0.0574200000000000 O
   0.4155400000000000    0.8386000000000000    0.0574200000000000 O
   0.9155400000000000    0.3386000000000000    0.0574200000000000 O
   0.9155500000000000    0.8386000000000000    0.0574200000000000 O
   0.1597000000000000    0.3864800000000000    0.0920000000000000 O
   0.1597000000000000    0.8864800000000000    0.0925900000000000 O
   0.6597100000000000    0.3864800000000000    0.0920000000000000 O
   0.6597200000000000    0.8864800000000000    0.0920000000000000 O
   0.1872300000000000    0.2468000000000000    0.0668900000000000 O
   0.1872300000000000    0.7468100000000000    0.0668900000000000 O
   0.6872400000000000    0.2468000000000000    0.0668900000000000 O
   0.6872500000000000    0.7468100000000000    0.0668900000000000 O
