H8 C10 O6
1.0
  34.8679999787571973    0.0000000000000000    0.0012171228069226
 -15.0149927161786909   35.4763515729121366   -0.0013447063752126
   0.0000000000000000    0.0000000000000000   17.8750000000000000
H C O
8 10 6
direct
   0.8553750000000000    0.1160666666666667    0.1957000000000000 H
   0.9071100000000001    0.1789666666666667    0.2338800000000000 H
   0.8358900000000000    0.1733700000000000    0.4346500000000000 H
   0.7852150000000000    0.1111466666666667    0.3964200000000000 H
   0.9035450000000000    0.2056200000000000    0.4719600000000000 H
   0.8763700000000000    0.2329366666666667    0.4383800000000000 H
   0.7934850000000000    0.0614900000000000    0.1667800000000000 H
   0.7615149999999999    0.0866233333333333    0.1905900000000000 H
   0.8177300000000001    0.1093500000000000    0.2953000000000000 C
   0.8512600000000000    0.1286866666666667    0.2480500000000000 C
   0.8802800000000000    0.1640100000000000    0.2692800000000000 C
   0.8759100000000000    0.1801233333333333    0.3375900000000000 C
   0.8411950000000000    0.1611566666666667    0.3828700000000000 C
   0.8121700000000001    0.1258933333333333    0.3613000000000000 C
   0.9046600000000000    0.2270533333333333    0.4302400000000000 C
   0.9415200000000000    0.2631833333333333    0.4491100000000000 C
   0.7712150000000000    0.0639466666666667    0.2081100000000000 C
   0.7335700000000001    0.0267766666666667    0.2123500000000000 C
   0.7899700000000001    0.0721266666666667    0.2817400000000000 O
   0.7298200000000000    0.0056433333333333    0.2683000000000000 O
   0.9068849999999999    0.2141600000000000    0.3562200000000000 O
   0.9648600000000001    0.2830333333333333    0.3977500000000000 O
   0.9448250000000000    0.2706466666666666    0.5187900000000000 O
   0.7081000000000000    0.0189533333333333    0.1577200000000000 O
