La48 H568 C710 O426
1.0
  34.8679999787571973    0.0000000000000000    0.0012171228069226
 -15.0149927161786909   35.4763515729121366   -0.0013447063752126
   0.0000000000000000    0.0000000000000000   17.8750000000000000
La H C O
48 568 710 426
direct
   0.4834750000000000    0.3180200000000000    0.6110300000000000 La
   0.1415250000000000    0.0153033333333333    0.1110000000000000 La
   0.3915250000000000    0.0153033333333333    0.1110200000000000 La
   0.0165250000000000    0.0153033333333333    0.3889700000000000 La
   0.2665200000000000    0.0153033333333333    0.3889700000000000 La
   0.1084800000000000    0.3180166666666666    0.8889800000000000 La
   0.3584800000000000    0.3180166666666666    0.8889800000000000 La
   0.2334750000000000    0.3180200000000000    0.6110300000000000 La
   0.9834750000000000    0.3180200000000000    0.6110300000000000 La
   0.6415250000000000    0.0153033333333333    0.1110000000000000 La
   0.8915250000000000    0.0153033333333333    0.1110200000000000 La
   0.5165250000000000    0.0153033333333333    0.3889700000000000 La
   0.7665200000000000    0.0153033333333333    0.3889700000000000 La
   0.6084800000000000    0.3180166666666666    0.8889800000000000 La
   0.8584800000000000    0.3180166666666666    0.8889800000000000 La
   0.7334750000000000    0.3180200000000000    0.6110300000000000 La
   0.4834750000000000    0.6513533333333332    0.6110300000000000 La
   0.1415250000000000    0.3486366666666667    0.1110000000000000 La
   0.3915250000000000    0.3486366666666667    0.1110200000000000 La
   0.0165250000000000    0.3486366666666667    0.3889700000000000 La
   0.2665200000000000    0.3486366666666667    0.3889700000000000 La
   0.1084800000000000    0.6513499999999999    0.8889800000000000 La
   0.3584800000000000    0.6513499999999999    0.8889800000000000 La
   0.2334750000000000    0.6513533333333332    0.6110300000000000 La
   0.9834750000000000    0.6513533333333332    0.6110300000000000 La
   0.6415250000000000    0.3486366666666667    0.1110000000000000 La
   0.8915250000000000    0.3486366666666667    0.1110200000000000 La
   0.5165250000000000    0.3486366666666667    0.3889700000000000 La
   0.7665200000000000    0.3486366666666667    0.3889700000000000 La
   0.6084800000000000    0.6513499999999999    0.8889800000000000 La
   0.8584800000000000    0.6513499999999999    0.8889800000000000 La
   0.7334750000000000    0.6513533333333332    0.6110300000000000 La
   0.4834750000000000    0.9846866666666666    0.6110300000000000 La
   0.1415250000000000    0.6819700000000000    0.1110000000000000 La
   0.3915250000000000    0.6819700000000000    0.1110200000000000 La
   0.0165250000000000    0.6819700000000000    0.3889700000000000 La
   0.2665200000000000    0.6819700000000000    0.3889700000000000 La
   0.1084800000000000    0.9846833333333332    0.8889800000000000 La
   0.3584800000000000    0.9846833333333332    0.8889800000000000 La
   0.2334750000000000    0.9846866666666666    0.6110300000000000 La
   0.9834750000000000    0.9846866666666666    0.6110300000000000 La
   0.6415250000000000    0.6819700000000000    0.1110000000000000 La
   0.8915250000000000    0.6819700000000000    0.1110200000000000 La
   0.5165250000000000    0.6819700000000000    0.3889700000000000 La
   0.7665200000000000    0.6819700000000000    0.3889700000000000 La
   0.6084800000000000    0.9846833333333332    0.8889800000000000 La
   0.8584800000000000    0.9846833333333332    0.8889800000000000 La
   0.7334750000000000    0.9846866666666666    0.6110300000000000 La
   0.1446250000000000    0.2172500000000000    0.8043000000000000 H
   0.3946250000000000    0.2172500000000000    0.8043000000000000 H
   0.0928950000000000    0.1543500000000000    0.7661200000000000 H
   0.3428950000000000    0.1543500000000000    0.7661200000000000 H
   0.1641150000000000    0.1599500000000000    0.5653500000000000 H
   0.4141150000000000    0.1599500000000000    0.5653500000000000 H
   0.2147850000000000    0.2221766666666666    0.6035800000000000 H
   0.4647850000000000    0.2221766666666666    0.6035800000000000 H
   0.0964600000000000    0.1277000000000000    0.5280500000000000 H
   0.3464600000000000    0.1277000000000000    0.5280500000000000 H
   0.1236350000000000    0.1003833333333333    0.5616200000000000 H
   0.3736350000000000    0.1003833333333333    0.5616200000000000 H
   0.2065150000000000    0.2718300000000000    0.8332200000000000 H
   0.4565150000000000    0.2718300000000000    0.8332200000000000 H
   0.2384850000000000    0.2466966666666667    0.8094100000000000 H
   0.4884850000000000    0.2466966666666667    0.8094100000000000 H
   0.0977300000000000    0.2898900000000000    0.4815500000000000 H
   0.3477300000000000    0.2898900000000000    0.4815000000000000 H
   0.0536750000000000    0.2656133333333333    0.4253400000000000 H
   0.3036750000000000    0.2656133333333333    0.4253400000000000 H
   0.0589850000000000    0.1770600000000000    0.5866700000000000 H
   0.3089850000000000    0.1770600000000000    0.5866700000000000 H
   0.4960100000000000    0.2197500000000000    0.4254000000000000 H
   0.2460100000000000    0.2197500000000000    0.4254000000000000 H
   0.2303750000000000    0.1160766666666667    0.3040000000000000 H
   0.4803750000000000    0.1160766666666667    0.3040000000000000 H
   0.0321100000000000    0.1789733333333333    0.2661100000000000 H
   0.2821100000000000    0.1789733333333333    0.2661100000000000 H
   0.2108900000000000    0.1733700000000000    0.0653500000000000 H
   0.4608900000000000    0.1733700000000000    0.0653500000000000 H
   0.1602200000000000    0.1111466666666667    0.1035800000000000 H
   0.4102200000000000    0.1111466666666667    0.1035800000000000 H
   0.0285400000000000    0.2056200000000000    0.0280400000000000 H
   0.2785400000000000    0.2056200000000000    0.0280000000000000 H
   0.0013700000000000    0.2329400000000000    0.0616200000000000 H
   0.2513650000000000    0.2329400000000000    0.0616200000000000 H
   0.1684900000000000    0.0614933333333333    0.3332100000000000 H
   0.4184900000000000    0.0614933333333333    0.3332100000000000 H
   0.1365250000000000    0.0866266666666667    0.3094200000000000 H
   0.3865250000000000    0.0866266666666667    0.3094200000000000 H
   0.0272800000000000    0.0434366666666667    0.9815000000000000 H
   0.2772800000000000    0.0434366666666667    0.9815600000000000 H
   0.0713400000000000    0.0677100000000000    0.9253500000000000 H
   0.3213400000000000    0.0677100000000000    0.9253500000000000 H
   0.0660200000000000    0.1562700000000000    0.0866600000000000 H
   0.3160200000000000    0.1562700000000000    0.0866600000000000 H
   0.1290000000000000    0.1135733333333333    0.9254100000000000 H
   0.3790000000000000    0.1135766666666667    0.9254100000000000 H
   0.1053750000000000    0.1160666666666667    0.1957000000000000 H
   0.3553750000000000    0.1160666666666667    0.1957000000000000 H
   0.1571100000000000    0.1789666666666667    0.2338800000000000 H
   0.4071100000000000    0.1789666666666667    0.2338800000000000 H
   0.0858900000000000    0.1733700000000000    0.4346500000000000 H
   0.3358900000000000    0.1733700000000000    0.4346500000000000 H
   0.0352150000000000    0.1111466666666667    0.3964200000000000 H
   0.2852150000000000    0.1111466666666667    0.3964200000000000 H
   0.1535450000000000    0.2056200000000000    0.4719600000000000 H
   0.4035450000000000    0.2056200000000000    0.4719600000000000 H
   0.1263700000000000    0.2329366666666667    0.4383800000000000 H
   0.3763700000000000    0.2329366666666667    0.4383800000000000 H
   0.0434850000000000    0.0614900000000000    0.1667800000000000 H
   0.2934850000000000    0.0614900000000000    0.1667800000000000 H
   0.0115150000000000    0.0866233333333333    0.1905900000000000 H
   0.2615150000000000    0.0866233333333333    0.1905900000000000 H
   0.1522750000000000    0.0434366666666667    0.5184500000000000 H
   0.4022750000000000    0.0434366666666667    0.5184500000000000 H
   0.1963350000000000    0.0677133333333333    0.5746000000000000 H
   0.4463350000000000    0.0677133333333333    0.5746000000000000 H
   0.1910250000000000    0.1562700000000000    0.4133000000000000 H
   0.4410250000000000    0.1562700000000000    0.4133000000000000 H
   0.2540000000000000    0.1135766666666667    0.5746000000000000 H
   0.0000000000000000    0.1135766666666667    0.5746000000000000 H
   0.0196250000000000    0.2172433333333333    0.6957100000000001 H
   0.2696250000000000    0.2172433333333333    0.6957100000000001 H
   0.2178950000000000    0.1543433333333333    0.7338900000000000 H
   0.4678950000000000    0.1543433333333333    0.7338900000000000 H
   0.0391150000000000    0.1599500000000000    0.9346000000000000 H
   0.2891150000000000    0.1599500000000000    0.9346000000000000 H
   0.0897850000000000    0.2221733333333333    0.8964299999999999 H
   0.3397850000000000    0.2221733333333333    0.8964299999999999 H
   0.2214600000000000    0.1277000000000000    0.9719600000000000 H
   0.4714600000000000    0.1277000000000000    0.9719600000000000 H
   0.2486350000000000    0.1003800000000000    0.9383899999999999 H
   0.4986350000000000    0.1003800000000000    0.9383899999999999 H
   0.0815100000000000    0.2718266666666667    0.6667900000000000 H
   0.3315100000000000    0.2718266666666667    0.6667900000000000 H
   0.1134750000000000    0.2466933333333333    0.6905800000000000 H
   0.3634750000000000    0.2466933333333333    0.6905800000000000 H
   0.2227300000000000    0.2898933333333333    0.0184400000000000 H
   0.4727300000000000    0.2898933333333333    0.0184000000000000 H
   0.1786700000000000    0.2656200000000000    0.0746500000000000 H
   0.4286700000000000    0.2656200000000000    0.0746500000000000 H
   0.1839850000000000    0.1770566666666667    0.9133400000000000 H
   0.4339850000000000    0.1770566666666667    0.9133400000000000 H
   0.1210050000000000    0.2197533333333333    0.0745900000000000 H
   0.3710050000000000    0.2197533333333333    0.0745900000000000 H
   0.6446250000000000    0.2172500000000000    0.8043000000000000 H
   0.8946250000000000    0.2172500000000000    0.8043000000000000 H
   0.5928949999999999    0.1543500000000000    0.7661200000000000 H
   0.8428949999999999    0.1543500000000000    0.7661200000000000 H
   0.6641150000000000    0.1599500000000000    0.5653500000000000 H
   0.9141150000000000    0.1599500000000000    0.5653500000000000 H
   0.7147850000000000    0.2221766666666666    0.6035800000000000 H
   0.9647850000000000    0.2221766666666666    0.6035800000000000 H
   0.5964600000000000    0.1277000000000000    0.5280500000000000 H
   0.8464600000000000    0.1277000000000000    0.5280500000000000 H
   0.6236349999999999    0.1003833333333333    0.5616200000000000 H
   0.8736349999999999    0.1003833333333333    0.5616200000000000 H
   0.7065150000000000    0.2718300000000000    0.8332200000000000 H
   0.9565150000000000    0.2718300000000000    0.8332200000000000 H
   0.7384850000000001    0.2466966666666667    0.8094100000000000 H
   0.9884850000000001    0.2466966666666667    0.8094100000000000 H
   0.5977300000000000    0.2898900000000000    0.4815500000000000 H
   0.8477300000000000    0.2898900000000000    0.4815000000000000 H
   0.5536750000000000    0.2656133333333333    0.4253400000000000 H
   0.8036749999999999    0.2656133333333333    0.4253400000000000 H
   0.5589850000000000    0.1770600000000000    0.5866700000000000 H
   0.8089850000000001    0.1770600000000000    0.5866700000000000 H
   0.9960100000000001    0.2197500000000000    0.4254000000000000 H
   0.7460100000000001    0.2197500000000000    0.4254000000000000 H
   0.7303750000000000    0.1160766666666667    0.3040000000000000 H
   0.9803750000000000    0.1160766666666667    0.3040000000000000 H
   0.5321100000000000    0.1789733333333333    0.2661100000000000 H
   0.7821100000000001    0.1789733333333333    0.2661100000000000 H
   0.7108900000000000    0.1733700000000000    0.0653500000000000 H
   0.9608900000000000    0.1733700000000000    0.0653500000000000 H
   0.6602200000000000    0.1111466666666667    0.1035800000000000 H
   0.9102200000000000    0.1111466666666667    0.1035800000000000 H
   0.5285400000000000    0.2056200000000000    0.0280400000000000 H
   0.7785400000000000    0.2056200000000000    0.0280000000000000 H
   0.5013700000000000    0.2329400000000000    0.0616200000000000 H
   0.7513650000000001    0.2329400000000000    0.0616200000000000 H
   0.6684900000000000    0.0614933333333333    0.3332100000000000 H
   0.9184900000000000    0.0614933333333333    0.3332100000000000 H
   0.6365250000000000    0.0866266666666667    0.3094200000000000 H
   0.8865250000000000    0.0866266666666667    0.3094200000000000 H
   0.5272800000000000    0.0434366666666667    0.9815000000000000 H
   0.7772800000000000    0.0434366666666667    0.9815600000000000 H
   0.5713400000000000    0.0677100000000000    0.9253500000000000 H
   0.8213400000000000    0.0677100000000000    0.9253500000000000 H
   0.5660200000000000    0.1562700000000000    0.0866600000000000 H
   0.8160200000000000    0.1562700000000000    0.0866600000000000 H
   0.6290000000000000    0.1135733333333333    0.9254100000000000 H
   0.8790000000000000    0.1135766666666667    0.9254100000000000 H
   0.6053750000000000    0.1160666666666667    0.1957000000000000 H
   0.6571100000000000    0.1789666666666667    0.2338800000000000 H
   0.5858900000000000    0.1733700000000000    0.4346500000000000 H
   0.5352150000000000    0.1111466666666667    0.3964200000000000 H
   0.6535450000000000    0.2056200000000000    0.4719600000000000 H
   0.6263700000000000    0.2329366666666667    0.4383800000000000 H
   0.5434850000000000    0.0614900000000000    0.1667800000000000 H
   0.5115150000000001    0.0866233333333333    0.1905900000000000 H
   0.6522749999999999    0.0434366666666667    0.5184500000000000 H
   0.9022749999999999    0.0434366666666667    0.5184500000000000 H
   0.6963350000000000    0.0677133333333333    0.5746000000000000 H
   0.9463349999999999    0.0677133333333333    0.5746000000000000 H
   0.6910250000000000    0.1562700000000000    0.4133000000000000 H
   0.9410250000000000    0.1562700000000000    0.4133000000000000 H
   0.7540000000000000    0.1135766666666667    0.5746000000000000 H
   0.5000000000000000    0.1135766666666667    0.5746000000000000 H
   0.5196250000000000    0.2172433333333333    0.6957100000000001 H
   0.7696250000000000    0.2172433333333333    0.6957100000000001 H
   0.7178949999999999    0.1543433333333333    0.7338900000000000 H
   0.9678949999999999    0.1543433333333333    0.7338900000000000 H
   0.5391150000000000    0.1599500000000000    0.9346000000000000 H
   0.7891150000000000    0.1599500000000000    0.9346000000000000 H
   0.5897850000000000    0.2221733333333333    0.8964299999999999 H
   0.8397850000000000    0.2221733333333333    0.8964299999999999 H
   0.7214600000000000    0.1277000000000000    0.9719600000000000 H
   0.9714600000000000    0.1277000000000000    0.9719600000000000 H
   0.7486349999999999    0.1003800000000000    0.9383899999999999 H
   0.9986349999999999    0.1003800000000000    0.9383899999999999 H
   0.5815100000000000    0.2718266666666667    0.6667900000000000 H
   0.8315100000000000    0.2718266666666667    0.6667900000000000 H
   0.6134750000000000    0.2466933333333333    0.6905800000000000 H
   0.8634750000000000    0.2466933333333333    0.6905800000000000 H
   0.7227300000000000    0.2898933333333333    0.0184400000000000 H
   0.9727300000000000    0.2898933333333333    0.0184000000000000 H
   0.6786700000000000    0.2656200000000000    0.0746500000000000 H
   0.9286700000000000    0.2656200000000000    0.0746500000000000 H
   0.6839850000000001    0.1770566666666667    0.9133400000000000 H
   0.9339850000000001    0.1770566666666667    0.9133400000000000 H
   0.6210050000000000    0.2197533333333333    0.0745900000000000 H
   0.8710050000000000    0.2197533333333333    0.0745900000000000 H
   0.1446250000000000    0.5505833333333333    0.8043000000000000 H
   0.3946250000000000    0.5505833333333333    0.8043000000000000 H
   0.0928950000000000    0.4876833333333333    0.7661200000000000 H
   0.3428950000000000    0.4876833333333333    0.7661200000000000 H
   0.1641150000000000    0.4932833333333333    0.5653500000000000 H
   0.4141150000000000    0.4932833333333333    0.5653500000000000 H
   0.2147850000000000    0.5555099999999999    0.6035800000000000 H
   0.4647850000000000    0.5555099999999999    0.6035800000000000 H
   0.0964600000000000    0.4610333333333333    0.5280500000000000 H
   0.3464600000000000    0.4610333333333333    0.5280500000000000 H
   0.1236350000000000    0.4337166666666666    0.5616200000000000 H
   0.3736350000000000    0.4337166666666666    0.5616200000000000 H
   0.2065150000000000    0.6051633333333333    0.8332200000000000 H
   0.4565150000000000    0.6051633333333333    0.8332200000000000 H
   0.2384850000000000    0.5800300000000000    0.8094100000000000 H
   0.4884850000000000    0.5800300000000000    0.8094100000000000 H
   0.0977300000000000    0.6232233333333332    0.4815500000000000 H
   0.3477300000000000    0.6232233333333332    0.4815000000000000 H
   0.0536750000000000    0.5989466666666666    0.4253400000000000 H
   0.3036750000000000    0.5989466666666666    0.4253400000000000 H
   0.0589850000000000    0.5103933333333333    0.5866700000000000 H
   0.3089850000000000    0.5103933333333333    0.5866700000000000 H
   0.4960100000000000    0.5530833333333334    0.4254000000000000 H
   0.2460100000000000    0.5530833333333334    0.4254000000000000 H
   0.2303750000000000    0.4494100000000000    0.3040000000000000 H
   0.4803750000000000    0.4494100000000000    0.3040000000000000 H
   0.0321100000000000    0.5123066666666667    0.2661100000000000 H
   0.2821100000000000    0.5123066666666667    0.2661100000000000 H
   0.2108900000000000    0.5067033333333333    0.0653500000000000 H
   0.4608900000000000    0.5067033333333333    0.0653500000000000 H
   0.1602200000000000    0.4444800000000000    0.1035800000000000 H
   0.4102200000000000    0.4444800000000000    0.1035800000000000 H
   0.0285400000000000    0.5389533333333333    0.0280400000000000 H
   0.2785400000000000    0.5389533333333333    0.0280000000000000 H
   0.0013700000000000    0.5662733333333333    0.0616200000000000 H
   0.2513650000000000    0.5662733333333333    0.0616200000000000 H
   0.1684900000000000    0.3948266666666667    0.3332100000000000 H
   0.4184900000000000    0.3948266666666667    0.3332100000000000 H
   0.1365250000000000    0.4199600000000000    0.3094200000000000 H
   0.3865250000000000    0.4199600000000000    0.3094200000000000 H
   0.0272800000000000    0.3767700000000000    0.9815000000000000 H
   0.2772800000000000    0.3767700000000000    0.9815600000000000 H
   0.0713400000000000    0.4010433333333333    0.9253500000000000 H
   0.3213400000000000    0.4010433333333333    0.9253500000000000 H
   0.0660200000000000    0.4896033333333333    0.0866600000000000 H
   0.3160200000000000    0.4896033333333333    0.0866600000000000 H
   0.1290000000000000    0.4469066666666667    0.9254100000000000 H
   0.3790000000000000    0.4469100000000000    0.9254100000000000 H
   0.1053750000000000    0.4494000000000000    0.1957000000000000 H
   0.3553750000000000    0.4494000000000000    0.1957000000000000 H
   0.1571100000000000    0.5123000000000000    0.2338800000000000 H
   0.4071100000000000    0.5123000000000000    0.2338800000000000 H
   0.0858900000000000    0.5067033333333333    0.4346500000000000 H
   0.3358900000000000    0.5067033333333333    0.4346500000000000 H
   0.0352150000000000    0.4444800000000000    0.3964200000000000 H
   0.2852150000000000    0.4444800000000000    0.3964200000000000 H
   0.1535450000000000    0.5389533333333333    0.4719600000000000 H
   0.4035450000000000    0.5389533333333333    0.4719600000000000 H
   0.1263700000000000    0.5662700000000001    0.4383800000000000 H
   0.3763700000000000    0.5662700000000001    0.4383800000000000 H
   0.0434850000000000    0.3948233333333333    0.1667800000000000 H
   0.2934850000000000    0.3948233333333333    0.1667800000000000 H
   0.0115150000000000    0.4199566666666666    0.1905900000000000 H
   0.2615150000000000    0.4199566666666666    0.1905900000000000 H
   0.1522750000000000    0.3767700000000000    0.5184500000000000 H
   0.4022750000000000    0.3767700000000000    0.5184500000000000 H
   0.1963350000000000    0.4010466666666667    0.5746000000000000 H
   0.4463350000000000    0.4010466666666667    0.5746000000000000 H
   0.1910250000000000    0.4896033333333333    0.4133000000000000 H
   0.4410250000000000    0.4896033333333333    0.4133000000000000 H
   0.2540000000000000    0.4469100000000000    0.5746000000000000 H
   0.0000000000000000    0.4469100000000000    0.5746000000000000 H
   0.0196250000000000    0.5505766666666667    0.6957100000000001 H
   0.2696250000000000    0.5505766666666667    0.6957100000000001 H
   0.2178950000000000    0.4876766666666666    0.7338900000000000 H
   0.4678950000000000    0.4876766666666666    0.7338900000000000 H
   0.0391150000000000    0.4932833333333333    0.9346000000000000 H
   0.2891150000000000    0.4932833333333333    0.9346000000000000 H
   0.0897850000000000    0.5555066666666666    0.8964299999999999 H
   0.3397850000000000    0.5555066666666666    0.8964299999999999 H
   0.2214600000000000    0.4610333333333333    0.9719600000000000 H
   0.4714600000000000    0.4610333333333333    0.9719600000000000 H
   0.2486350000000000    0.4337133333333333    0.9383899999999999 H
   0.4986350000000000    0.4337133333333333    0.9383899999999999 H
   0.0815100000000000    0.6051599999999999    0.6667900000000000 H
   0.3315100000000000    0.6051599999999999    0.6667900000000000 H
   0.1134750000000000    0.5800266666666667    0.6905800000000000 H
   0.3634750000000000    0.5800266666666667    0.6905800000000000 H
   0.2227300000000000    0.6232266666666666    0.0184400000000000 H
   0.4727300000000000    0.6232266666666666    0.0184000000000000 H
   0.1786700000000000    0.5989533333333332    0.0746500000000000 H
   0.4286700000000000    0.5989533333333332    0.0746500000000000 H
   0.1839850000000000    0.5103900000000000    0.9133400000000000 H
   0.4339850000000000    0.5103900000000000    0.9133400000000000 H
   0.1210050000000000    0.5530866666666666    0.0745900000000000 H
   0.3710050000000000    0.5530866666666666    0.0745900000000000 H
   0.6446250000000000    0.5505833333333333    0.8043000000000000 H
   0.8946250000000000    0.5505833333333333    0.8043000000000000 H
   0.5928949999999999    0.4876833333333333    0.7661200000000000 H
   0.8428949999999999    0.4876833333333333    0.7661200000000000 H
   0.6641150000000000    0.4932833333333333    0.5653500000000000 H
   0.9141150000000000    0.4932833333333333    0.5653500000000000 H
   0.7147850000000000    0.5555099999999999    0.6035800000000000 H
   0.9647850000000000    0.5555099999999999    0.6035800000000000 H
   0.5964600000000000    0.4610333333333333    0.5280500000000000 H
   0.8464600000000000    0.4610333333333333    0.5280500000000000 H
   0.6236349999999999    0.4337166666666666    0.5616200000000000 H
   0.8736349999999999    0.4337166666666666    0.5616200000000000 H
   0.7065150000000000    0.6051633333333333    0.8332200000000000 H
   0.9565150000000000    0.6051633333333333    0.8332200000000000 H
   0.7384850000000001    0.5800300000000000    0.8094100000000000 H
   0.9884850000000001    0.5800300000000000    0.8094100000000000 H
   0.5977300000000000    0.6232233333333332    0.4815500000000000 H
   0.8477300000000000    0.6232233333333332    0.4815000000000000 H
   0.5536750000000000    0.5989466666666666    0.4253400000000000 H
   0.8036749999999999    0.5989466666666666    0.4253400000000000 H
   0.5589850000000000    0.5103933333333333    0.5866700000000000 H
   0.8089850000000001    0.5103933333333333    0.5866700000000000 H
   0.9960100000000001    0.5530833333333334    0.4254000000000000 H
   0.7460100000000001    0.5530833333333334    0.4254000000000000 H
   0.7303750000000000    0.4494100000000000    0.3040000000000000 H
   0.9803750000000000    0.4494100000000000    0.3040000000000000 H
   0.5321100000000000    0.5123066666666667    0.2661100000000000 H
   0.7821100000000001    0.5123066666666667    0.2661100000000000 H
   0.7108900000000000    0.5067033333333333    0.0653500000000000 H
   0.9608900000000000    0.5067033333333333    0.0653500000000000 H
   0.6602200000000000    0.4444800000000000    0.1035800000000000 H
   0.9102200000000000    0.4444800000000000    0.1035800000000000 H
   0.5285400000000000    0.5389533333333333    0.0280400000000000 H
   0.7785400000000000    0.5389533333333333    0.0280000000000000 H
   0.5013700000000000    0.5662733333333333    0.0616200000000000 H
   0.7513650000000001    0.5662733333333333    0.0616200000000000 H
   0.6684900000000000    0.3948266666666667    0.3332100000000000 H
   0.9184900000000000    0.3948266666666667    0.3332100000000000 H
   0.6365250000000000    0.4199600000000000    0.3094200000000000 H
   0.8865250000000000    0.4199600000000000    0.3094200000000000 H
   0.5272800000000000    0.3767700000000000    0.9815000000000000 H
   0.7772800000000000    0.3767700000000000    0.9815600000000000 H
   0.5713400000000000    0.4010433333333333    0.9253500000000000 H
   0.8213400000000000    0.4010433333333333    0.9253500000000000 H
   0.5660200000000000    0.4896033333333333    0.0866600000000000 H
   0.8160200000000000    0.4896033333333333    0.0866600000000000 H
   0.6290000000000000    0.4469066666666667    0.9254100000000000 H
   0.8790000000000000    0.4469100000000000    0.9254100000000000 H
   0.6053750000000000    0.4494000000000000    0.1957000000000000 H
   0.8553750000000000    0.4494000000000000    0.1957000000000000 H
   0.6571100000000000    0.5123000000000000    0.2338800000000000 H
   0.9071100000000001    0.5123000000000000    0.2338800000000000 H
   0.5858900000000000    0.5067033333333333    0.4346500000000000 H
   0.8358900000000000    0.5067033333333333    0.4346500000000000 H
   0.5352150000000000    0.4444800000000000    0.3964200000000000 H
   0.7852150000000000    0.4444800000000000    0.3964200000000000 H
   0.6535450000000000    0.5389533333333333    0.4719600000000000 H
   0.9035450000000000    0.5389533333333333    0.4719600000000000 H
   0.6263700000000000    0.5662700000000001    0.4383800000000000 H
   0.8763700000000000    0.5662700000000001    0.4383800000000000 H
   0.5434850000000000    0.3948233333333333    0.1667800000000000 H
   0.7934850000000000    0.3948233333333333    0.1667800000000000 H
   0.5115150000000001    0.4199566666666666    0.1905900000000000 H
   0.7615149999999999    0.4199566666666666    0.1905900000000000 H
   0.6522749999999999    0.3767700000000000    0.5184500000000000 H
   0.9022749999999999    0.3767700000000000    0.5184500000000000 H
   0.6963350000000000    0.4010466666666667    0.5746000000000000 H
   0.9463349999999999    0.4010466666666667    0.5746000000000000 H
   0.6910250000000000    0.4896033333333333    0.4133000000000000 H
   0.9410250000000000    0.4896033333333333    0.4133000000000000 H
   0.7540000000000000    0.4469100000000000    0.5746000000000000 H
   0.5000000000000000    0.4469100000000000    0.5746000000000000 H
   0.5196250000000000    0.5505766666666667    0.6957100000000001 H
   0.7696250000000000    0.5505766666666667    0.6957100000000001 H
   0.7178949999999999    0.4876766666666666    0.7338900000000000 H
   0.9678949999999999    0.4876766666666666    0.7338900000000000 H
   0.5391150000000000    0.4932833333333333    0.9346000000000000 H
   0.7891150000000000    0.4932833333333333    0.9346000000000000 H
   0.5897850000000000    0.5555066666666666    0.8964299999999999 H
   0.8397850000000000    0.5555066666666666    0.8964299999999999 H
   0.7214600000000000    0.4610333333333333    0.9719600000000000 H
   0.9714600000000000    0.4610333333333333    0.9719600000000000 H
   0.7486349999999999    0.4337133333333333    0.9383899999999999 H
   0.9986349999999999    0.4337133333333333    0.9383899999999999 H
   0.5815100000000000    0.6051599999999999    0.6667900000000000 H
   0.8315100000000000    0.6051599999999999    0.6667900000000000 H
   0.6134750000000000    0.5800266666666667    0.6905800000000000 H
   0.8634750000000000    0.5800266666666667    0.6905800000000000 H
   0.7227300000000000    0.6232266666666666    0.0184400000000000 H
   0.9727300000000000    0.6232266666666666    0.0184000000000000 H
   0.6786700000000000    0.5989533333333332    0.0746500000000000 H
   0.9286700000000000    0.5989533333333332    0.0746500000000000 H
   0.6839850000000001    0.5103900000000000    0.9133400000000000 H
   0.9339850000000001    0.5103900000000000    0.9133400000000000 H
   0.6210050000000000    0.5530866666666666    0.0745900000000000 H
   0.8710050000000000    0.5530866666666666    0.0745900000000000 H
   0.1446250000000000    0.8839166666666667    0.8043000000000000 H
   0.3946250000000000    0.8839166666666667    0.8043000000000000 H
   0.0928950000000000    0.8210166666666666    0.7661200000000000 H
   0.3428950000000000    0.8210166666666666    0.7661200000000000 H
   0.1641150000000000    0.8266166666666666    0.5653500000000000 H
   0.4141150000000000    0.8266166666666666    0.5653500000000000 H
   0.2147850000000000    0.8888433333333332    0.6035800000000000 H
   0.4647850000000000    0.8888433333333332    0.6035800000000000 H
   0.0964600000000000    0.7943666666666667    0.5280500000000000 H
   0.3464600000000000    0.7943666666666667    0.5280500000000000 H
   0.1236350000000000    0.7670500000000000    0.5616200000000000 H
   0.3736350000000000    0.7670500000000000    0.5616200000000000 H