H1 C5 N2 O4
1.0
  14.1719995143332209    0.0000000000000000   -0.0037102208815060
  -0.0091696265892718   14.9999757011760249   -0.0253945284857782
   0.0000000000000000    0.0000000000000000   15.3680000000000003
H C N O
1 5 2 4
direct
   0.5563300000000000    0.9962299999999999    0.0919100000000000 H
   0.7576000000000001    0.0408200000000000    0.0000000000000000 C
   0.7617200000000000    0.9481000000000001    0.0155200000000000 C
   0.6264400000000000    0.9958200000000000    0.0634400000000000 C
   0.8241800000000000    0.1046600000000000    0.9645500000000000 C
   0.8341200000000000    0.8814900000000000    0.9913500000000000 C
   0.6709200000000000    0.0697500000000000    0.0351000000000000 N
   0.6775000000000000    0.9209200000000000    0.0523600000000000 N
   0.7883500000000000    0.1755900000000000    0.9318100000000000 O
  -0.0870800000000001    1.0939099999999999    0.9631200000000000 O
  -0.0863000000000001    0.9040800000000000    0.9595700000000000 O
   0.8109300000000000    0.8004800000000000    1.0034399999999999 O
