H4 O3
1.0
  14.1719995143332209    0.0000000000000000   -0.0037102208815060
  -0.0091696265892718   14.9999757011760249   -0.0253945284857782
   0.0000000000000000    0.0000000000000000   15.3680000000000003
H O
4 3
direct
   0.0716808054110709    0.7418584928070979    0.9012718217173959 H
   0.0684056364579566    0.8131711980502963    0.6470311437026321 H
   0.8742123164541884    0.7518060118669850    0.7458091579350713 H
   0.9759637712178584    0.7779324170137375    0.7171144176227203 H
   0.0485900000000000    0.7153000000000000    0.9553500000000000 O
   0.0484400000000000    0.8357599999999999    0.5902400000000000 O
   0.9109100000000000    0.7734100000000000    0.6962000000000000 O
