H8 O5
1.0
  14.1719995143332209    0.0000000000000000   -0.0037102208815060
  -0.0091696265892718   14.9999757011760249   -0.0253945284857782
   0.0000000000000000    0.0000000000000000   15.3680000000000003
H O
8 5
direct
   0.7464484322312857    0.7812640762627596    1.0132718712606168 H
   0.7588364305125508    0.8579296558951304    0.9831829289477194 H
  -0.1199816708092259    1.0374439800529391    0.9577432362617351 H
  -0.1292194772300992    0.9514123141863438    0.9428803604085660 H
  -0.2428780621469592    1.1219962360138926    0.9267067360003806 H
   0.7231172643189612    0.1873497227136326    0.9165637460155924 H
   0.6386361423280250    0.0160911511310902    0.0556693463674409 H
   0.7310706986855388    0.0496743226468316    0.0107427143070788 H
   0.8109300000000000    0.8004800000000000    1.0034399999999999 O
  -0.0870800000000001    1.0939099999999999    0.9631200000000000 O
  -0.0863000000000001    0.9040800000000000    0.9595700000000000 O
   0.7883500000000000    0.1755900000000000    0.9318100000000000 O
   0.6709200000000000    0.0697500000000000    0.0351000000000000 O
