H2 C5 N2 O4
1.0
  14.1719995143332209    0.0000000000000000   -0.0037102208815060
  -0.0091696265892718   14.9999757011760249   -0.0253945284857782
   0.0000000000000000    0.0000000000000000   15.3680000000000003
H C N O
2 5 2 4
direct
   0.7848900000000000    0.7321400000000000    0.7645900000000000 H
   0.2054800000000000    0.8146800000000000    0.6335300000000000 H
   0.0032600000000000    0.7798300000000000    0.7258900000000000 C
   0.0053300000000000    0.7533200000000000    0.8133000000000000 C
   0.8604600000000000    0.7437100000000000    0.7644000000000000 C
   0.0740900000000000    0.8067400000000000    0.6632000000000000 C
   0.0798200000000000    0.7512200000000000    0.8822100000000000 C
   0.9109100000000000    0.7734100000000000    0.6962000000000000 N
   0.9147600000000000    0.7305400000000000    0.8354800000000000 N
   0.0484400000000000    0.8357599999999999    0.5902400000000000 O
   0.1632800000000000    0.7973100000000000    0.6847000000000000 O
   0.1599100000000000    0.7813800000000000    0.8711100000000001 O
   0.0485900000000000    0.7153000000000000    0.9553500000000000 O
