Zn20 H23 C75 N30 O60
1.0
  14.1719995143332209    0.0000000000000000   -0.0037102208815060
  -0.0091696265892718   14.9999757011760249   -0.0253945284857782
   0.0000000000000000    0.0000000000000000   15.3680000000000003
Zn H C N O
20 23 75 30 60
direct
   0.3741900000000000    0.7070600000000000    0.5664600000000000 Zn
   0.1112500000000000    0.8046000000000000    0.4621900000000000 Zn
   0.1272500000000000    0.2069100000000000    0.4329300000000000 Zn
   0.6128000000000000    0.1956000000000000    0.0394600000000000 Zn
   0.6259000000000000    0.7929900000000000    0.0665400000000000 Zn
   0.8892200000000000    0.6956400000000000    0.9603500000000000 Zn
   0.8727000000000000    0.2929600000000000    0.9330100000000000 Zn
   0.6126000000000000    0.6955800000000000    0.4600700000000000 Zn
   0.6258600000000000    0.2929700000000000    0.4334300000000000 Zn
   0.8892400000000000    0.1955600000000000    0.5375799999999999 Zn
   0.8730300000000000    0.7931100000000000    0.5667100000000000 Zn
   0.3872800000000000    0.8043900000000000    0.9603300000000000 Zn
   0.3741800000000000    0.2070300000000000    0.9333600000000000 Zn
   0.1107600000000000    0.3044600000000000    0.0377500000000000 Zn
   0.1272900000000000    0.7070300000000000    0.0668000000000000 Zn
   0.0000600000000000    0.4999700000000000    0.4999900000000000 Zn
   0.5009900000000000    0.9998700000000000    0.4998200000000000 Zn
   0.0000700000000000    0.9999300000000000    0.9999900000000000 Zn
   0.5005200000000000    0.4999500000000000    0.9999800000000000 Zn
   0.3874200000000000    0.3044800000000000    0.5398100000000000 Zn
   0.2842700000000000    0.2679800000000000    0.7358900000000000 H
   0.4440200000000000    0.5039200000000000    0.5920299999999999 H
   0.7049299999999999    0.1830200000000000    0.8659900000000000 H
   0.2168000000000000    0.7685400000000000    0.2654100000000000 H
   0.0560600000000000    0.0036400000000000    0.4078200000000000 H
   0.7965900000000000    0.6835500000000000    0.1335500000000000 H
   0.7162500000000001    0.2324300000000000    0.2354900000000000 H
   0.2952600000000000    0.3144000000000000    0.3662200000000000 H
   0.7848900000000000    0.7321400000000000    0.7645900000000000 H
   0.9445400000000000    0.4963600000000000    0.9074400000000000 H
   0.2054800000000000    0.8146800000000000    0.6335300000000000 H
   0.7160000000000000    0.7318900000000000    0.2638700000000000 H
   0.5561700000000001    0.4961900000000000    0.4079100000000000 H
   0.2953300000000000    0.8169500000000000    0.1338200000000000 H
   0.7836400000000000    0.2313700000000000    0.7341400000000000 H
   0.9450400000000000    0.9962299999999999    0.5911700000000000 H
   0.2037600000000000    0.3165800000000000    0.8663400000000000 H
   0.2838700000000000    0.7673200000000000    0.7645700000000000 H
   0.4439700000000000    0.0037900000000000    0.9078700000000000 H
   0.7048200000000000    0.6856000000000000    0.6335800000000000 H
   0.2162900000000000    0.2682700000000000    0.2335700000000000 H
   0.0554600000000000    0.5037500000000000    0.0913200000000000 H
   0.7962700000000000    0.1856800000000000    0.3664400000000000 H
   0.5027000000000000    0.2198900000000000    0.7738200000000000 C
   0.5044000000000000    0.2460800000000000    0.6862600000000000 C
   0.3598100000000000    0.2562500000000000    0.7357600000000000 C
   0.5733600000000000    0.1932600000000000    0.8368700000000000 C
   0.5783800000000000    0.2485100000000000    0.6169200000000000 C
   0.2427000000000000    0.4589400000000000    0.5044000000000000 C
   0.2386700000000000    0.5517200000000000    0.5154700000000000 C
   0.3739100000000000    0.5042100000000000    0.5635400000000000 C
   0.1760300000000000    0.3950200000000000    0.4646700000000000 C
   0.1661300000000000    0.6181500000000000    0.4914400000000000 C
   0.0000000000000000    0.7200600000000000    0.2265300000000000 C
   0.0000000000000000    0.7462299999999999    0.3142300000000000 C
   0.1412800000000000    0.7566900000000000    0.2652200000000000 C
   0.9282200000000000    0.6934100000000000    0.1631200000000000 C
   0.9226700000000000    0.7484300000000000    0.3835500000000000 C
   0.2575300000000000    0.9589900000000000    0.4950200000000000 C
   0.2618500000000000    0.0516900000000000    0.4835600000000000 C
   0.1262600000000000    0.0040000000000000    0.4361300000000000 C
   0.3240400000000000    0.8952100000000000    0.5348500000000000 C
   0.3340000000000000    0.1186700000000000    0.5073600000000000 C
   0.4976000000000000    0.2791100000000000    0.2740400000000000 C
   0.4958900000000000    0.2532600000000000    0.1863700000000000 C
   0.6406400000000000    0.2437400000000000    0.2355600000000000 C
   0.4267600000000000    0.3052800000000000    0.3371100000000000 C
   0.4216600000000000    0.2511700000000000    0.1172900000000000 C
   0.0032600000000000    0.7798300000000000    0.7258900000000000 C
   0.0053300000000000    0.7533200000000000    0.8133000000000000 C
   0.8604600000000000    0.7437100000000000    0.7644000000000000 C
   0.0740900000000000    0.8067400000000000    0.6632000000000000 C
   0.0798200000000000    0.7512200000000000    0.8822100000000000 C
   0.7434500000000001    0.5412700000000000    0.9953300000000000 C
   0.7390500000000000    0.4485300000000000    0.9837500000000000 C
   0.8744700000000000    0.4960800000000000    0.9359800000000000 C
   0.6769300000000000    0.6050800000000000    0.0352400000000000 C
   0.6669600000000000    0.3814900000000000    0.0075200000000000 C
   0.4975600000000000    0.7799500000000000    0.2259400000000000 C
   0.4958700000000000    0.7537000000000000    0.3134500000000000 C
   0.6404600000000000    0.7436000000000000    0.2640200000000000 C
   0.4268500000000000    0.8066900000000000    0.1629600000000000 C
   0.4217100000000000    0.7513300000000001    0.3825600000000000 C
   0.7574600000000000    0.5411200000000000    0.4956400000000000 C
   0.7614700000000000    0.4483300000000000    0.4845500000000000 C
   0.6262700000000000    0.4958800000000000    0.4364300000000000 C
   0.8241900000000000    0.6050100000000000    0.5353500000000000 C
   0.8339600000000000    0.3818600000000000    0.5085900000000000 C
   0.0017100000000000    0.2799800000000000    0.7733200000000000 C
   0.0039300000000000    0.2537700000000000    0.6856800000000000 C
   0.8591500000000000    0.2432700000000000    0.7344500000000000 C
   0.0720500000000000    0.3066500000000000    0.8366600000000000 C
   0.0782300000000000    0.2515800000000000    0.6166500000000000 C
   0.7437100000000000    0.0410600000000000    0.5037300000000000 C
   0.7392400000000000    0.9483800000000000    0.5152800000000000 C
   0.8748600000000000    0.9959600000000000    0.5628200000000000 C
   0.6770500000000000    0.1049900000000000    0.4643500000000000 C
   0.6670000000000000    0.8814600000000000    0.4914700000000000 C
   0.5025100000000000    0.7209200000000000    0.7257900000000000 C
   0.5042800000000000    0.7467500000000000    0.8134600000000000 C
   0.3594800000000000    0.7561000000000000    0.7644000000000000 C
   0.5733200000000001    0.6947900000000000    0.6627100000000000 C
   0.5785700000000000    0.7488700000000000    0.8824600000000000 C
   0.2427100000000000    0.9591200000000000    0.9955000000000001 C
   0.2385600000000000    0.0518300000000000    0.9842800000000000 C
   0.3738600000000000    0.0041800000000000    0.9363300000000000 C
   0.1761600000000000    0.8952599999999999    0.0352300000000000 C
   0.1661000000000000    0.1183600000000000    0.0083700000000000 C
   0.0000000000000000    0.2207100000000000    0.2733400000000000 C
   0.0000000000000000    0.2469400000000000    0.1858700000000000 C
   0.1407100000000000    0.2567100000000000    0.2341200000000000 C
   0.9278100000000000    0.1942500000000000    0.3365200000000000 C
   0.9206800000000001    0.2488600000000000    0.1173900000000000 C
   0.2569800000000000    0.4588500000000000    0.0000000000000000 C
   0.2614200000000000    0.5515500000000000    0.0160700000000000 C
   0.1256900000000000    0.5040400000000000    0.0631100000000000 C
   0.3235600000000000    0.3950400000000000    0.9645700000000000 C
   0.3336500000000000    0.6185400000000000    0.9925500000000000 C
   0.4105500000000000    0.2267500000000000    0.8038100000000000 N
   0.4137600000000000    0.2690600000000000    0.6644300000000000 N
   0.3293600000000000    0.4301400000000000    0.5353400000000000 N
   0.3228900000000000    0.5790700000000000    0.5522899999999999 N
   0.0908500000000000    0.7271000000000000    0.1968400000000000 N
   0.0870700000000000    0.7693800000000000    0.3364300000000000 N
   0.1706800000000000    0.9301400000000000    0.4645200000000000 N
   0.1775300000000000    0.0788700000000000    0.4469700000000000 N
   0.5898400000000000    0.2727600000000000    0.3038700000000000 N
   0.5866100000000000    0.2308900000000000    0.1642000000000000 N
   0.9109100000000000    0.7734100000000000    0.6962000000000000 N
   0.9147600000000000    0.7305400000000000    0.8354800000000000 N
   0.8302200000000000    0.5700700000000000    0.9646200000000000 N
   0.8231700000000000    0.4213100000000000    0.9468200000000000 N
   0.5897200000000000    0.7731400000000000    0.1959800000000000 N
   0.5864800000000000    0.7307399999999999    0.3353400000000000 N
   0.6708200000000000    0.5699500000000000    0.4646600000000000 N
   0.6772500000000000    0.4210000000000000    0.4476900000000000 N
   0.9094000000000000    0.2729300000000000    0.8028999999999999 N
   0.9135200000000000    0.2305700000000000    0.6633100000000000 N
   0.8305500000000000    0.0698600000000000    0.5342800000000000 N
   0.8234399999999999    0.9211900000000000    0.5520699999999999 N
   0.4102400000000000    0.7271800000000000    0.6960300000000000 N
   0.4135700000000000    0.7690000000000000    0.8357000000000000 N
   0.3293800000000000    0.9302300000000000    0.9646500000000000 N
   0.3227700000000000    0.0790500000000000    0.9474500000000000 N
   0.0906500000000000    0.2271900000000000    0.3026500000000000 N
   0.0860400000000000    0.2697200000000000    0.1632000000000000 N
   0.1700100000000000    0.4300800000000000    0.0345200000000000 N
   0.1771100000000000    0.5788000000000000    0.0526500000000000 N
   0.0467500000000000    0.2155200000000000    0.5434600000000001 O
   0.7124000000000000    0.1763200000000000    0.4320600000000000 O
   0.5883800000000000    0.0937200000000000    0.4629500000000000 O
   0.5869100000000000    0.9032900000000000    0.4603500000000000 O
   0.5473200000000000    0.1675500000000000    0.9109100000000000 O
   0.6625799999999999    0.1991700000000000    0.8144900000000000 O
   0.6585500000000000    0.2183500000000000    0.6270500000000000 O
   0.5466800000000001    0.2849300000000000    0.5442000000000000 O
   0.2117900000000000    0.3239200000000000    0.4320300000000000 O
   0.0873100000000000    0.4059100000000000    0.4631300000000000 O
   0.0866600000000000    0.5952600000000000    0.4595000000000000 O
   0.1891500000000000    0.6991900000000000    0.5038700000000000 O
   0.9545600000000000    0.6678200000000000    0.0890300000000000 O
   0.8389000000000000    0.6991900000000000    0.1852800000000000 O
   0.8423900000000000    0.7185100000000000    0.3732700000000000 O
   0.9543900000000000    0.7844600000000000    0.4567700000000000 O
   0.2883000000000000    0.8239400000000000    0.5669900000000000 O
   0.4127300000000000    0.9065100000000000    0.5369600000000000 O
   0.4147100000000000    0.0971100000000000    0.5372200000000000 O
   0.3092700000000000    0.1995600000000000    0.4968100000000000 O
   0.4525900000000000    0.3324900000000000    0.4107800000000000 O
   0.3375800000000000    0.2972100000000000    0.3150500000000000 O
   0.3416000000000000    0.2814000000000000    0.1280700000000000 O
   0.4531300000000000    0.2151400000000000    0.0442100000000000 O
   0.0484400000000000    0.8357599999999999    0.5902400000000000 O
   0.1632800000000000    0.7973100000000000    0.6847000000000000 O
   0.1599100000000000    0.7813800000000000    0.8711100000000001 O
   0.0485900000000000    0.7153000000000000    0.9553500000000000 O
   0.7124400000000000    0.6763400000000001    0.0677900000000000 O
   0.5882700000000000    0.5937200000000000    0.0369800000000000 O
   0.5864800000000000    0.4031600000000000    0.0378700000000000 O
   0.6912700000000001    0.3005600000000000    0.9964499999999999 O
   0.4528400000000000    0.8324700000000000    0.0889400000000000 O
   0.3376300000000000    0.8008200000000000    0.1853600000000000 O
   0.3415700000000000    0.7813099999999999    0.3718200000000000 O
   0.4532400000000000    0.7152300000000000    0.4555300000000000 O
   0.7885500000000000    0.6761800000000000    0.5679900000000000 O
   0.9128900000000000    0.5940400000000000    0.5369200000000000 O
   0.9134600000000000    0.4047000000000000    0.5405000000000000 O
   0.8109000000000000    0.3008200000000000    0.4961900000000000 O
   0.0455300000000000    0.3323200000000000    0.9107100000000000 O
   0.1613800000000000    0.3008300000000000    0.8146800000000000 O
   0.1584400000000000    0.2815600000000000    0.6273300000000001 O
   0.6909400000000000    0.8005400000000000    0.5032100000000000 O
   0.5474500000000000    0.6676600000000000    0.5890100000000000 O
   0.6625100000000000    0.7027400000000000    0.6847800000000001 O
   0.6586300000000000    0.7187200000000000    0.8714499999999999 O
   0.5471300000000000    0.7848200000000000    0.9556000000000000 O
   0.2120900000000000    0.8243000000000000    0.0678000000000000 O
   0.0874200000000000    0.9060300000000000    0.0368200000000000 O
   0.0865800000000000    0.0957400000000000    0.0402500000000000 O
   0.1892100000000000    0.1993600000000000    0.9960599999999999 O
   0.9541400000000000    0.1664500000000000    0.4097900000000000 O
   0.8385200000000000    0.2027200000000000    0.3151900000000000 O
   0.8406900000000000    0.2186000000000000    0.1288300000000000 O
   0.9514600000000000    0.2848000000000000    0.0441200000000000 O
   0.2879500000000000    0.3237900000000000    0.9319499999999999 O
   0.4122300000000000    0.4063200000000000    0.9629900000000000 O
   0.4143200000000000    0.5969400000000000    0.9626100000000000 O
   0.3090800000000000    0.6994500000000000    0.0034000000000000 O
