H9 O6
1.0
  36.7441471009211753    0.0000000000000000    3.9326542977823342
  -0.7131895684527051   19.9551955001312820    6.6463191460379409
   0.0000000000000000    0.0000000000000000   16.6430000000000007
H O
9 6
direct
   0.1675477533617332    0.0891028850435614    0.8745376630726416 H
   0.1900066662094825    0.1041033714577319    0.4779667990734416 H
   0.2133249652801886    0.2685960158280395    0.5474007324447979 H
   0.2008114390751434    0.1865663638368434    0.5149285440870404 H
   0.2384981189516687    0.1704287568802458    0.7109244941814773 H
   0.1884578953205460    0.1706915444466982    0.6964257896908000 H
   0.1039636060040802    0.1991134053977174    0.7062079190459692 H
   0.2029645953085688    0.2997847137333567    0.6681954021268616 H
   0.1553242339575199    0.2477985317749480    0.6890218921003431 H
   0.1559100000000000    0.0526500000000000    0.9229000000000001 O
   0.2006533333333334    0.1445800000000000    0.4831100000000000 O
   0.2131933333333333    0.2336400000000000    0.5209100000000000 O
   0.2145600000000000    0.1749300000000000    0.7000200000000000 O
   0.1228266666666667    0.2343600000000000    0.6874700000000000 O
   0.1775133333333333    0.2892600000000000    0.6669800000000000 O
