H6 O4
1.0
  13.0869280432324224    0.0000000000000000    0.0433980559103606
  -0.0238076758920970   16.1953918993124404   -4.6072723407948928
   0.0000000000000000    0.0000000000000000   27.9200000000000017
H O
6 4
direct
   0.5773098651249818    0.3584134950851239    0.9912429958366161 H
   0.4378915519210400    0.3999050616445001    1.0082702187737174 H
   0.7058243221563060    0.5332109864738782    0.9307855480722149 H
  -0.1385301535220237    0.2476538474437764    0.8937143201321840 H
  -0.0322144253954322    0.4486676495849679    0.8702994128591049 H
  -0.0962531288238630    0.3575500910037845    0.8876831017170327 H
   0.5072400000000000    0.3789800000000000    0.9972400000000000 O
   0.6922600000000000    0.5893400000000000    0.9287850000000000 O
  -0.0890200000000000    0.2701900000000000    0.8750300000000000 O
  -0.0272700000000000    0.3889500000000000    0.8616500000000000 O
