H3 C8 O5
1.0
  13.0869280432324224    0.0000000000000000    0.0433980559103606
  -0.0238076758920970   16.1953918993124404   -4.6072723407948928
   0.0000000000000000    0.0000000000000000   27.9200000000000017
H C O
3 8 5
direct
   0.8510500000000000    0.5059399999999999    0.8881150000000000 H
   0.5742699999999999    0.5032900000000000    0.9744150000000000 H
   0.7711100000000000    0.2902900000000000    0.9356150000000000 H
   0.9091300000000000    0.3470900000000000    0.8794700000000000 C
   0.8200600000000000    0.3932200000000000    0.9081350000000000 C
   0.8004500000000000    0.4735700000000000    0.9074750000000000 C
   0.7101600000000000    0.5152700000000000    0.9314249999999999 C
   0.6427100000000000    0.4721300000000000    0.9563900000000001 C
   0.6654500000000000    0.3930900000000000    0.9582999999999999 C
   0.6008300000000000    0.3515100000000000    0.9892300000000001 C
   0.7539700000000000    0.3528800000000000    0.9341800000000000 C
   0.6398600000000000    0.2981700000000000    0.0000000000000000 O
  -0.0272700000000000    0.3889500000000000    0.8616500000000000 O
  -0.0890200000000000    0.2701900000000000    0.8750300000000000 O
   0.6922600000000000    0.5893400000000000    0.9287850000000000 O
   0.5072400000000000    0.3789800000000000    0.9972400000000000 O
