H15 C11 N2 O2
1.0
  20.9749997955407892    0.0000000000000000   -0.0029286624753263
  -0.0018930294324172   15.6278076029457988   -9.0438245196238238
   0.0000000000000000    0.0000000000000000   18.0579999999999998
H C N O
15 11 2 2
direct
   0.4932500000000000    0.5519400000000000    0.4808400000000000 H
   0.3901700000000000    0.7911600000000000    0.4968500000000000 H
   0.5743400000000000    0.8859700000000000    0.5510600000000000 H
   0.6061400000000000    0.7817600000000000    0.5971000000000000 H
   0.4133700000000000    0.6829400000000000    0.5396200000000000 H
   0.5751200000000000    0.6675100000000000    0.6260700000000000 H
   0.4925500000000000    0.6463300000000000    0.6297300000000000 H
   0.6082200000000000    0.6253400000000000    0.4757500000000000 H
   0.6134500000000001    0.5224500000000000    0.3269500000000000 H
   0.5048300000000000    0.4222900000000000    0.3515000000000000 H
   0.5846200000000000    0.3887700000000000    0.3254600000000000 H
   0.5375100000000000    0.4032400000000000    0.2521900000000000 H
   0.5139500000000000    0.5537200000000000    0.2793200000000000 H
   0.5379500000000000    0.6447900000000000    0.3763000000000000 H
   0.4744300000000000    0.5798300000000000    0.3765400000000000 H
   0.4374600000000000    0.7860200000000001    0.5186200000000000 C
   0.5406100000000000    0.8395700000000000    0.5496900000000000 C
   0.5576600000000000    0.7811500000000000    0.5750400000000000 C
   0.5127300000000000    0.7218100000000000    0.5706700000000000 C
   0.4511800000000000    0.7260799999999999    0.5430100000000000 C
   0.5299700000000001    0.6525000000000000    0.5905600000000000 C
   0.6470500000000000    0.5123700000000000    0.4639200000000000 C
   0.5897600000000000    0.5605800000000000    0.4547100000000000 C
   0.5696600000000001    0.5222500000000000    0.3603000000000000 C
   0.5477200000000000    0.4291900000000000    0.3204600000000000 C
   0.5210800000000000    0.5784200000000000    0.3480300000000000 C
   0.4816700000000000    0.8417600000000000    0.5207900000000000 N
   0.5366400000000000    0.5668100000000000    0.5121100000000000 N
   0.6447100000000000    0.4872800000000000    0.5186100000000000 O
   0.6940200000000000    0.5022799999999999    0.4157900000000000 O
