H7 O4
1.0
  20.9749997955407892    0.0000000000000000   -0.0029286624753263
  -0.0018930294324172   15.6278076029457988   -9.0438245196238238
   0.0000000000000000    0.0000000000000000   18.0579999999999998
H O
7 4
direct
   0.5243900518087130    0.8401726753739213    0.5417368866181168 H
   0.4497313168954652    0.8014916852240044    0.5192223243081465 H
   0.4955388123490459    0.5527243890212102    0.4824894851844818 H
   0.5322640141727240    0.6230286245186345    0.5635786788830304 H
   0.6694028250394024    0.4751488045501197    0.3430771332008058 H
   0.7017230026230781    0.4984956363145007    0.3610319829957479 H
   0.6257498502441373    0.4663835514997687    0.4626065452616926 H
   0.4816700000000000    0.8417600000000000    0.5207900000000000 O
   0.5366400000000000    0.5668100000000000    0.5121100000000000 O
   0.6940200000000000    0.5022799999999999    0.4157900000000000 O
   0.6447100000000000    0.4872800000000000    0.5186100000000000 O
