H12 O8
1.0
  18.4149434447496496    0.0000000000000000    0.0456390914876010
   0.0190612944700715   11.0958786088818311    0.8512501477307993
   0.0000000000000000    0.0000000000000000   24.3820000000000014
H O
12 8
direct
   0.8185303888258300    0.3385377722779850    0.2225746766524590 H
   0.7700022138219420    0.3901817828433298    0.2147943545472935 H
   0.9287083844313917    0.2271505427443614    0.2397893861929280 H
   0.9019460182607288    0.6715699975404629    0.3614807686879268 H
   0.9367966760627738    0.7042793294194911    0.2772290864266765 H
   0.7596100603355450    0.5444332444960175    0.3728456971203152 H
   0.8625182958034875    0.3314279702230510    0.4233469722751367 H
   0.8493700481692114    0.4180012541560703    0.4001645350434927 H
   0.0068882993764122    0.5598080865793397    0.3931047731627596 H
   0.0420077288044585    0.5922640482314969    0.4027782351677002 H
   0.0153521582923859    0.4230067283709233    0.3261259302167456 H
   0.8820778729086451    0.3370089734940759    0.3229195461037094 H
   0.8219000000000001    0.3791000000000000    0.2197300000000000 O
   0.9358800000000000    0.3134800000000000    0.2337350000000000 O
   0.9154750000000000    0.7468500000000000    0.3406200000000000 O
   0.7250600000000000    0.4896400000000000    0.3914900000000000 O
   0.8128350000000000    0.3600600000000000    0.4198800000000000 O
   0.0605000000000000    0.5414099999999999    0.3753100000000000 O
   0.0625200000000000    0.4068200000000000    0.3104700000000000 O
   0.9277900000000000    0.3235100000000000    0.3428450000000000 O
