H4 C8 O4
1.0
  13.4229991822240819    0.0000000000000000   -0.0046855108147503
   0.0251444480157965   13.4639764696843276    0.0011749556509520
   0.0000000000000000    0.0000000000000000   32.9620000000000033
H C O
4 8 4
direct
   0.7851300000000000    0.3076700000000000    0.3452850000000000 H
   0.7846300000000000    0.1923000000000000    0.4053750000000000 H
   0.4655600000000000    0.3070300000000000    0.3445000000000000 H
   0.4652200000000000    0.1916700000000000    0.4046050000000000 H
   0.6254200000000000    0.3816900000000000    0.3055950000000000 C
   0.6253600000000000    0.3134000000000000    0.3413100000000000 C
   0.7156100000000000    0.2814700000000000    0.3584000000000000 C
   0.6248000000000000    0.1179400000000000    0.4443000000000000 C
   0.6249100000000000    0.1857700000000000    0.4083750000000000 C
   0.7154000000000000    0.2180100000000000    0.3917100000000000 C
   0.5348900000000000    0.2811000000000000    0.3580050000000000 C
   0.5346400000000000    0.2176500000000000    0.3912800000000000 C
   0.5401600000000000    0.0922300000000000    0.4582500000000000 O
   0.5408800000000000    0.4080600000000000    0.2915900000000000 O
   0.7094600000000000    0.0921200000000000    0.4583150000000000 O
   0.7099500000000000    0.4079300000000000    0.2916000000000000 O
