H8 O5
1.0
  28.1477458543570762    0.0000000000000000   -7.8727623689861295
 -14.0198343381458734   30.7353120837943656  -14.0053467019817166
   0.0000000000000000    0.0000000000000000   36.7220000000000013
H O
8 5
direct
   0.2289825266945941    0.8655551350904701    0.7593207156757268 H
   0.2602947714012266    0.8952924687625750    0.7354866551708128 H
   0.2812490062782830    0.8954927538435831    0.6969308685754563 H
   0.4715245375244200    0.1554580008357514    0.8515404162170543 H
   0.4499705933818909    0.0823370492935060    0.7848304363032297 H
   0.3608800608500550    0.0940644617154308    0.8307172819705944 H
   0.4093502053618468    0.0906855360640792    0.8150820034750980 H
   0.3447203958250313    0.1383755064426990    0.8332950875543771 H
   0.2252850000000000    0.8354900000000001    0.7485350000000000 O
   0.2633400000000000    0.8793150000000001    0.7085950000000000 O
   0.4966950000000000    0.1456550000000000    0.8432100000000000 O
   0.4843750000000000    0.0839850000000000    0.7870750000000000 O
   0.3955350000000000    0.1084200000000000    0.8326100000000001 O
