H7 O4
1.0
  34.2929997440669894    0.0000000000000000   -0.0041896803122844
  -1.6113599249124531   31.8087121577310192   -0.0005558786400894
   0.0000000000000000    0.0000000000000000   16.1950000000000003
H O
7 4
direct
   0.4116672776491125    0.9387121108855955    0.8604051500588431 H
   0.4664703308915816    0.8540615730097503    0.5609059408185130 H
   0.4808680024417517    0.8554917603235830    0.5830240591814870 H
   0.4829843741319965    0.8694114095266543    0.6489425422190002 H
   0.4358509801133001    0.8649065319094162    0.5768443942967784 H
   0.4382992583377561    0.8789363066039733    0.6411574494974764 H
   0.4626110410904624    0.8901971941932296    0.5513263755824237 H
   0.3892466666666666    0.9555266666666666    0.8483700000000000 O
   0.4577633333333333    0.8531966666666666    0.5475300000000000 O
   0.4895750000000000    0.8563566666666667    0.5964000000000000 O
   0.4274300000000000    0.8694066666666667    0.5881100000000000 O
