H4 C9 O6
1.0
   6.7439579663628102    0.0000000000000000    1.0155938892744480
   2.1376445088146925    8.3156317168056848    3.6104882768525575
   0.0000000000000000    0.0000000000000000   30.5504999999999995
H C O
4 9 6
direct
   0.7500200000000000    0.7270100000000000    0.0178300000000000 H
   0.7558900000000000    0.0872900000000000    0.0866033333333333 H
   0.7775800000000000    0.5226400000000000    0.9671566666666667 H
   0.7254900000000000    0.1070100000000000    0.9442333333333333 H
   0.7625900000000000    0.3141700000000000    0.0302533333333333 C
   0.7539900000000000    0.1530100000000000    0.0483533333333333 C
   0.7443100000000000    0.0771400000000000    0.0174366666666667 C
   0.7696200000000000    0.3943000000000000    0.0639300000000000 C
   0.7427500000000000    0.9045000000000000    0.0366066666666667 C
   0.7498400000000000    0.3243700000000000    0.9501533333333333 C
   0.7656100000000000    0.3986200000000000    0.9810500000000000 C
   0.7374100000000000    0.1644200000000000    0.9683599999999999 C
   0.7462000000000000    0.4120000000000000    0.8975666666666666 C
   0.7748699999999999    0.5433000000000000    0.0470133333333333 O
   0.7689400000000000    0.3152200000000000    0.1082400000000000 O
   0.7439500000000000    0.8464400000000000    0.0031700000000000 O
   0.7416000000000000    0.8230200000000000    0.0799633333333333 O
   0.6130900000000000    0.4002600000000000    0.8746200000000000 O
  -0.1228400000000000    0.4937600000000000    0.8760533333333334 O
