H7 O5
1.0
   6.7439579663628102    0.0000000000000000    1.0155938892744480
   2.1376445088146925    8.3156317168056848    3.6104882768525575
   0.0000000000000000    0.0000000000000000   30.5504999999999995
H O
7 5
direct
   0.7425034692885604    0.8870327631581726    0.0459012317788270 H
   0.7696223128198914    0.2023875268684099    0.1237638871940417 H
   0.7802343821556856    0.6127296124756616    0.0138415417675307 H
   0.7757186874281250    0.4029545475339650    0.0663225526725086 H
   0.7173051696250312    0.3205642001093771    0.8958636487792881 H
  -0.2216236981067965    0.4401621113077920    0.8975933157246281 H
   0.2541193230584619    0.2054903086924486    0.9528942720560275 H
   0.7416000000000000    0.8230200000000000    0.0799633333333333 O
   0.7689400000000000    0.3152200000000000    0.1082400000000000 O
   0.7748699999999999    0.5433000000000000    0.0470133333333333 O
   0.6130900000000000    0.4002600000000000    0.8746200000000000 O
  -0.1228400000000000    0.4937600000000000    0.8760533333333334 O
