H5 O3
1.0
  27.7337335572684864    0.0000000000000000    6.4150743545527131
   6.9017328538052993   30.5926027438048713    1.5552301998248741
   0.0000000000000000    0.0000000000000000   31.3919999999999995
H O
5 3
direct
   0.1080625464256197    0.8704734417323658    0.0611587908047258 H
   0.0640691224715052    0.8736029272084456    0.0303313266532814 H
   0.1182114725469462    0.8882840115361501    0.8986845524153766 H
  -0.0050385779991536    0.8749218561448330    0.9776460385454329 H
   0.0558216833172552    0.8813341282852247    0.9444425094017020 H
   0.0790200000000000    0.8715450000000000    0.0557500000000000 O
   0.0844250000000000    0.8852100000000001    0.9019950000000000 O
   0.0146150000000000    0.8775850000000001    0.9484800000000000 O
