Zn64 H508 C762 N127 O254
1.0
  27.7337335572684864    0.0000000000000000    6.4150743545527131
   6.9017328538052993   30.5926027438048713    1.5552301998248741
   0.0000000000000000    0.0000000000000000   31.3919999999999995
Zn H C N O
64 508 762 127 254
direct
   0.2817550000000000    0.3815700000000000    0.3683700000000000 Zn
   0.1563450000000000    0.1184750000000000    0.1315550000000000 Zn
   0.4054400000000000    0.1184400000000000    0.1315000000000000 Zn
   0.0348750000000000    0.3684550000000000    0.1184350000000000 Zn
   0.2840950000000000    0.3684450000000000    0.1184450000000000 Zn
   0.0270050000000000    0.1315600000000000    0.3815350000000000 Zn
   0.2776850000000000    0.1315550000000000    0.3815300000000000 Zn
   0.0308750000000000    0.3815850000000000    0.3684150000000000 Zn
   0.7817550000000000    0.3815700000000000    0.3683700000000000 Zn
   0.6563450000000000    0.1184750000000000    0.1315550000000000 Zn
   0.9054400000000000    0.1184400000000000    0.1315000000000000 Zn
   0.5348750000000000    0.3684550000000000    0.1184350000000000 Zn
   0.7840950000000000    0.3684450000000000    0.1184450000000000 Zn
   0.5270049999999999    0.1315600000000000    0.3815350000000000 Zn
   0.7776850000000000    0.1315550000000000    0.3815300000000000 Zn
   0.5308750000000000    0.3815850000000000    0.3684150000000000 Zn
   0.2817550000000000    0.8815700000000000    0.3683700000000000 Zn
   0.1563450000000000    0.6184750000000000    0.1315550000000000 Zn
   0.4054400000000000    0.6184400000000000    0.1315000000000000 Zn
   0.0348750000000000    0.8684550000000000    0.1184350000000000 Zn
   0.2840950000000000    0.8684450000000000    0.1184450000000000 Zn
   0.0270050000000000    0.6315600000000000    0.3815350000000000 Zn
   0.2776850000000000    0.6315550000000000    0.3815300000000000 Zn
   0.0308750000000000    0.8815850000000001    0.3684150000000000 Zn
   0.7817550000000000    0.8815700000000000    0.3683700000000000 Zn
   0.6563450000000000    0.6184750000000000    0.1315550000000000 Zn
   0.9054400000000000    0.6184400000000000    0.1315000000000000 Zn
   0.5348750000000000    0.8684550000000000    0.1184350000000000 Zn
   0.7840950000000000    0.8684450000000000    0.1184450000000000 Zn
   0.5270049999999999    0.6315600000000000    0.3815350000000000 Zn
   0.7776850000000000    0.6315550000000000    0.3815300000000000 Zn
   0.5308750000000000    0.8815850000000001    0.3684150000000000 Zn
   0.2817550000000000    0.3815700000000000    0.8683700000000000 Zn
   0.1563450000000000    0.1184750000000000    0.6315550000000000 Zn
   0.4054400000000000    0.1184400000000000    0.6315000000000000 Zn
   0.0348750000000000    0.3684550000000000    0.6184350000000000 Zn
   0.2840950000000000    0.3684450000000000    0.6184450000000000 Zn
   0.0270050000000000    0.1315600000000000    0.8815350000000000 Zn
   0.2776850000000000    0.1315550000000000    0.8815299999999999 Zn
   0.0308750000000000    0.3815850000000000    0.8684149999999999 Zn
   0.7817550000000000    0.3815700000000000    0.8683700000000000 Zn
   0.6563450000000000    0.1184750000000000    0.6315550000000000 Zn
   0.9054400000000000    0.1184400000000000    0.6315000000000000 Zn
   0.5348750000000000    0.3684550000000000    0.6184350000000000 Zn
   0.7840950000000000    0.3684450000000000    0.6184450000000000 Zn
   0.5270049999999999    0.1315600000000000    0.8815350000000000 Zn
   0.7776850000000000    0.1315550000000000    0.8815299999999999 Zn
   0.5308750000000000    0.3815850000000000    0.8684149999999999 Zn
   0.2817550000000000    0.8815700000000000    0.8683700000000000 Zn
   0.1563450000000000    0.6184750000000000    0.6315550000000000 Zn
   0.4054400000000000    0.6184400000000000    0.6315000000000000 Zn
   0.0348750000000000    0.8684550000000000    0.6184350000000000 Zn
   0.2840950000000000    0.8684450000000000    0.6184450000000000 Zn
   0.0270050000000000    0.6315600000000000    0.8815350000000000 Zn
   0.2776850000000000    0.6315550000000000    0.8815299999999999 Zn
   0.0308750000000000    0.8815850000000001    0.8684149999999999 Zn
   0.7817550000000000    0.8815700000000000    0.8683700000000000 Zn
   0.6563450000000000    0.6184750000000000    0.6315550000000000 Zn
   0.9054400000000000    0.6184400000000000    0.6315000000000000 Zn
   0.5348750000000000    0.8684550000000000    0.6184350000000000 Zn
   0.7840950000000000    0.8684450000000000    0.6184450000000000 Zn
   0.5270049999999999    0.6315600000000000    0.8815350000000000 Zn
   0.7776850000000000    0.6315550000000000    0.8815299999999999 Zn
   0.5308750000000000    0.8815850000000001    0.8684149999999999 Zn
   0.1424700000000000    0.3700950000000000    0.0783950000000000 H
   0.3918400000000000    0.3698000000000000    0.0791050000000000 H
   0.1963300000000000    0.3729750000000000    0.0026200000000000 H
   0.4463150000000000    0.3728550000000000    0.0036100000000000 H
   0.1579750000000000    0.3767900000000000    0.4382500000000000 H
   0.4086500000000000    0.3768200000000000    0.4388250000000000 H
   0.0191050000000000    0.3749500000000000    0.0271650000000000 H
   0.2692100000000000    0.3748700000000000    0.0267500000000000 H
   0.1157150000000000    0.1299350000000000    0.4214650000000000 H
   0.3662700000000000    0.1294900000000000    0.4213600000000000 H
   0.1334700000000000    0.1270750000000000    0.4972000000000000 H
   0.3840950000000000    0.1266100000000000    0.4970850000000000 H
   0.0651450000000000    0.1231600000000000    0.0616600000000000 H
   0.3156850000000000    0.1231850000000000    0.0615750000000000 H
   0.2196000000000000    0.1256800000000000    0.4729550000000000 H
   0.4693250000000000    0.1251500000000000    0.4729200000000000 H
   0.0686650000000000    0.0786300000000000    0.1300000000000000 H
   0.3179350000000000    0.0779300000000000    0.1299200000000000 H
   0.0522000000000000    0.0029500000000000    0.1271350000000000 H
   0.3023450000000000    0.0019250000000000    0.1270700000000000 H
   0.1223950000000000    0.4384700000000000    0.1231850000000000 H
   0.3730550000000000    0.4379200000000000    0.1232000000000000 H
   0.2174850000000000    0.0270400000000000    0.1249050000000000 H
   0.4669550000000000    0.0275150000000000    0.1249750000000000 H
   0.1730700000000000    0.4209200000000000    0.3700950000000000 H
   0.4222750000000000    0.4210050000000000    0.3703450000000000 H
   0.1171650000000000    0.4963900000000000    0.3729750000000000 H
   0.3665350000000000    0.4965500000000000    0.3730500000000000 H
   0.1529850000000000    0.0611850000000000    0.3765600000000000 H
   0.4025000000000000    0.0612500000000000    0.3764800000000000 H
   0.0429200000000000    0.4731900000000000    0.3739250000000000 H
   0.2935400000000000    0.4732600000000000    0.3738650000000000 H
   0.1954850000000000    0.3285800000000000    0.1205850000000000 H
   0.4463650000000000    0.3285200000000000    0.1198000000000000 H
   0.1777050000000000    0.2528700000000000    0.1233950000000000 H
   0.4285350000000000    0.2528400000000000    0.1225650000000000 H
   0.2461500000000000    0.1884150000000000    0.1267050000000000 H
   0.4967900000000000    0.1883600000000000    0.1265650000000000 H
   0.0926400000000000    0.2769750000000000    0.1249100000000000 H
   0.3422500000000000    0.2770150000000000    0.1240850000000000 H
   0.1700700000000000    0.1716400000000000    0.3802300000000000 H
   0.4196600000000000    0.1714900000000000    0.3799000000000000 H
   0.1161950000000000    0.2473850000000000    0.3771500000000000 H
   0.3657050000000000    0.2472300000000000    0.3770850000000000 H
   0.1545700000000000    0.3117300000000000    0.3732050000000000 H
   0.4039500000000000    0.3116050000000000    0.3732650000000000 H
   0.0429350000000000    0.2228550000000000    0.3749750000000000 H
   0.2934400000000000    0.2228800000000000    0.3751500000000000 H
   0.1394350000000000    0.3799300000000000    0.3291050000000000 H
   0.3902800000000000    0.3796800000000000    0.3283200000000000 H
   0.1953400000000000    0.3771300000000000    0.2535900000000000 H
   0.4455200000000000    0.3769300000000000    0.2525250000000000 H
   0.1595450000000000    0.3735700000000000    0.1887900000000000 H
   0.4089550000000000    0.3734700000000000    0.1881500000000000 H
   0.0190050000000000    0.3760550000000000    0.2767300000000000 H
   0.2689850000000000    0.3761000000000000    0.2770000000000000 H
   0.2439850000000000    0.1201500000000000    0.1719700000000000 H
   0.4931150000000000    0.1201150000000000    0.1712750000000000 H
   0.0096000000000000    0.1230200000000000    0.2469700000000000 H
   0.2595700000000000    0.1230700000000000    0.2479500000000000 H
   0.1888650000000000    0.1269050000000000    0.3120300000000000 H
   0.4394500000000000    0.1268900000000000    0.3114950000000000 H
   0.0950050000000000    0.1249550000000000    0.2224350000000000 H
   0.3443200000000000    0.1251700000000000    0.2229400000000000 H
   0.6424700000000000    0.3700950000000000    0.0783950000000000 H
   0.8918400000000000    0.3698000000000000    0.0791050000000000 H
   0.6963300000000000    0.3729750000000000    0.0026200000000000 H
   0.9463150000000000    0.3728550000000000    0.0036100000000000 H
   0.6579750000000000    0.3767900000000000    0.4382500000000000 H
   0.9086500000000000    0.3768200000000000    0.4388250000000000 H
   0.5191050000000000    0.3749500000000000    0.0271650000000000 H
   0.7692099999999999    0.3748700000000000    0.0267500000000000 H
   0.6157150000000000    0.1299350000000000    0.4214650000000000 H
   0.8662700000000000    0.1294900000000000    0.4213600000000000 H
   0.6334700000000000    0.1270750000000000    0.4972000000000000 H
   0.8840950000000001    0.1266100000000000    0.4970850000000000 H
   0.5651450000000000    0.1231600000000000    0.0616600000000000 H
   0.8156850000000000    0.1231850000000000    0.0615750000000000 H
   0.7196000000000000    0.1256800000000000    0.4729550000000000 H
   0.9693250000000000    0.1251500000000000    0.4729200000000000 H
   0.5686650000000000    0.0786300000000000    0.1300000000000000 H
   0.8179350000000001    0.0779300000000000    0.1299200000000000 H
   0.5522000000000000    0.0029500000000000    0.1271350000000000 H
   0.8023450000000000    0.0019250000000000    0.1270700000000000 H
   0.6223950000000000    0.4384700000000000    0.1231850000000000 H
   0.8730550000000000    0.4379200000000000    0.1232000000000000 H
   0.7174850000000000    0.0270400000000000    0.1249050000000000 H
   0.9669550000000000    0.0275150000000000    0.1249750000000000 H
   0.6730700000000001    0.4209200000000000    0.3700950000000000 H
   0.9222750000000000    0.4210050000000000    0.3703450000000000 H
   0.6171650000000000    0.4963900000000000    0.3729750000000000 H
   0.8665350000000001    0.4965500000000000    0.3730500000000000 H
   0.6529850000000000    0.0611850000000000    0.3765600000000000 H
   0.9025000000000001    0.0612500000000000    0.3764800000000000 H
   0.5429200000000000    0.4731900000000000    0.3739250000000000 H
   0.7935400000000000    0.4732600000000000    0.3738650000000000 H
   0.6954850000000000    0.3285800000000000    0.1205850000000000 H
   0.9463650000000000    0.3285200000000000    0.1198000000000000 H
   0.6777050000000000    0.2528700000000000    0.1233950000000000 H
   0.9285350000000000    0.2528400000000000    0.1225650000000000 H
   0.7461500000000000    0.1884150000000000    0.1267050000000000 H
   0.9967900000000001    0.1883600000000000    0.1265650000000000 H
   0.5926400000000001    0.2769750000000000    0.1249100000000000 H
   0.8422499999999999    0.2770150000000000    0.1240850000000000 H
   0.6700699999999999    0.1716400000000000    0.3802300000000000 H
   0.9196599999999999    0.1714900000000000    0.3799000000000000 H
   0.6161950000000000    0.2473850000000000    0.3771500000000000 H
   0.8657049999999999    0.2472300000000000    0.3770850000000000 H
   0.6545700000000000    0.3117300000000000    0.3732050000000000 H
   0.9039500000000000    0.3116050000000000    0.3732650000000000 H
   0.5429349999999999    0.2228550000000000    0.3749750000000000 H
   0.7934399999999999    0.2228800000000000    0.3751500000000000 H
   0.6394350000000000    0.3799300000000000    0.3291050000000000 H
   0.8902800000000000    0.3796800000000000    0.3283200000000000 H
   0.6953400000000001    0.3771300000000000    0.2535900000000000 H
   0.9455200000000000    0.3769300000000000    0.2525250000000000 H
   0.6595450000000000    0.3735700000000000    0.1887900000000000 H
   0.9089550000000000    0.3734700000000000    0.1881500000000000 H
   0.5190050000000000    0.3760550000000000    0.2767300000000000 H
   0.7689850000000000    0.3761000000000000    0.2770000000000000 H
   0.7439850000000000    0.1201500000000000    0.1719700000000000 H
   0.9931150000000000    0.1201150000000000    0.1712750000000000 H
   0.5096000000000001    0.1230200000000000    0.2469700000000000 H
   0.7595700000000001    0.1230700000000000    0.2479500000000000 H
   0.6888650000000001    0.1269050000000000    0.3120300000000000 H
   0.9394500000000000    0.1268900000000000    0.3114950000000000 H
   0.5950050000000000    0.1249550000000000    0.2224350000000000 H
   0.8443200000000000    0.1251700000000000    0.2229400000000000 H
   0.3918400000000000    0.8698000000000000    0.0791050000000000 H
   0.4463150000000000    0.8728549999999999    0.0036100000000000 H
   0.1579750000000000    0.8767900000000000    0.4382500000000000 H
   0.4086500000000000    0.8768199999999999    0.4388250000000000 H
   0.2692100000000000    0.8748700000000000    0.0267500000000000 H
   0.1157150000000000    0.6299350000000000    0.4214650000000000 H
   0.3662700000000000    0.6294900000000000    0.4213600000000000 H
   0.1334700000000000    0.6270750000000000    0.4972000000000000 H
   0.3840950000000000    0.6266100000000000    0.4970850000000000 H
   0.0651450000000000    0.6231600000000000    0.0616600000000000 H
   0.3156850000000000    0.6231850000000000    0.0615750000000000 H
   0.2196000000000000    0.6256800000000000    0.4729550000000000 H
   0.4693250000000000    0.6251500000000000    0.4729200000000000 H
   0.0686650000000000    0.5786300000000000    0.1300000000000000 H
   0.3179350000000000    0.5779300000000001    0.1299200000000000 H
   0.0522000000000000    0.5029500000000000    0.1271350000000000 H
   0.3023450000000000    0.5019250000000000    0.1270700000000000 H
   0.1223950000000000    0.9384700000000000    0.1231850000000000 H
   0.3730550000000000    0.9379200000000000    0.1232000000000000 H
   0.2174850000000000    0.5270400000000000    0.1249050000000000 H
   0.4669550000000000    0.5275150000000000    0.1249750000000000 H
   0.1730700000000000    0.9209200000000000    0.3700950000000000 H
   0.4222750000000000    0.9210050000000001    0.3703450000000000 H
   0.1171650000000000    0.9963900000000000    0.3729750000000000 H
   0.3665350000000000    0.9965500000000000    0.3730500000000000 H
   0.1529850000000000    0.5611850000000000    0.3765600000000000 H
   0.4025000000000000    0.5612500000000000    0.3764800000000000 H
   0.0429200000000000    0.9731900000000000    0.3739250000000000 H
   0.2935400000000000    0.9732600000000000    0.3738650000000000 H
   0.1954850000000000    0.8285800000000000    0.1205850000000000 H
   0.4463650000000000    0.8285199999999999    0.1198000000000000 H
   0.1777050000000000    0.7528699999999999    0.1233950000000000 H
   0.4285350000000000    0.7528400000000000    0.1225650000000000 H
   0.2461500000000000    0.6884150000000000    0.1267050000000000 H
   0.4967900000000000    0.6883600000000000    0.1265650000000000 H
   0.0926400000000000    0.7769750000000000    0.1249100000000000 H
   0.3422500000000000    0.7770150000000000    0.1240850000000000 H
   0.1700700000000000    0.6716400000000000    0.3802300000000000 H
   0.4196600000000000    0.6714900000000000    0.3799000000000000 H
   0.1161950000000000    0.7473850000000000    0.3771500000000000 H
   0.3657050000000000    0.7472300000000001    0.3770850000000000 H
   0.1545700000000000    0.8117300000000001    0.3732050000000000 H
   0.4039500000000000    0.8116050000000000    0.3732650000000000 H
   0.0429350000000000    0.7228550000000000    0.3749750000000000 H
   0.2934400000000000    0.7228800000000000    0.3751500000000000 H
   0.1394350000000000    0.8799300000000000    0.3291050000000000 H
   0.3902800000000000    0.8796800000000000    0.3283200000000000 H
   0.1953400000000000    0.8771300000000000    0.2535900000000000 H
   0.4455200000000000    0.8769300000000000    0.2525250000000000 H
   0.1595450000000000    0.8735700000000000    0.1887900000000000 H
   0.4089550000000000    0.8734700000000000    0.1881500000000000 H
   0.0190050000000000    0.8760550000000000    0.2767300000000000 H
   0.2689850000000000    0.8761000000000000    0.2770000000000000 H
   0.2439850000000000    0.6201500000000000    0.1719700000000000 H
   0.4931150000000000    0.6201150000000000    0.1712750000000000 H
   0.0096000000000000    0.6230200000000000    0.2469700000000000 H
   0.2595700000000000    0.6230700000000000    0.2479500000000000 H
   0.1888650000000000    0.6269050000000000    0.3120300000000000 H
   0.4394500000000000    0.6268899999999999    0.3114950000000000 H
   0.0950050000000000    0.6249550000000000    0.2224350000000000 H
   0.3443200000000000    0.6251700000000000    0.2229400000000000 H
   0.6424700000000000    0.8700950000000001    0.0783950000000000 H
   0.8918400000000000    0.8698000000000000    0.0791050000000000 H
   0.6963300000000000    0.8729750000000001    0.0026200000000000 H
   0.9463150000000000    0.8728549999999999    0.0036100000000000 H
   0.6579750000000000    0.8767900000000000    0.4382500000000000 H
   0.9086500000000000    0.8768199999999999    0.4388250000000000 H
   0.5191050000000000    0.8749500000000000    0.0271650000000000 H
   0.7692099999999999    0.8748700000000000    0.0267500000000000 H
   0.6157150000000000    0.6299350000000000    0.4214650000000000 H
   0.8662700000000000    0.6294900000000000    0.4213600000000000 H
   0.6334700000000000    0.6270750000000000    0.4972000000000000 H
   0.8840950000000001    0.6266100000000000    0.4970850000000000 H
   0.5651450000000000    0.6231600000000000    0.0616600000000000 H
   0.8156850000000000    0.6231850000000000    0.0615750000000000 H
   0.7196000000000000    0.6256800000000000    0.4729550000000000 H
   0.9693250000000000    0.6251500000000000    0.4729200000000000 H
   0.5686650000000000    0.5786300000000000    0.1300000000000000 H
   0.8179350000000001    0.5779300000000001    0.1299200000000000 H
   0.5522000000000000    0.5029500000000000    0.1271350000000000 H
   0.8023450000000000    0.5019250000000000    0.1270700000000000 H
   0.6223950000000000    0.9384700000000000    0.1231850000000000 H
   0.8730550000000000    0.9379200000000000    0.1232000000000000 H
   0.7174850000000000    0.5270400000000000    0.1249050000000000 H
   0.9669550000000000    0.5275150000000000    0.1249750000000000 H
   0.6730700000000001    0.9209200000000000    0.3700950000000000 H
   0.9222750000000000    0.9210050000000001    0.3703450000000000 H
   0.6171650000000000    0.9963900000000000    0.3729750000000000 H
   0.8665350000000001    0.9965500000000000    0.3730500000000000 H
   0.6529850000000000    0.5611850000000000    0.3765600000000000 H
   0.9025000000000001    0.5612500000000000    0.3764800000000000 H
   0.5429200000000000    0.9731900000000000    0.3739250000000000 H
   0.7935400000000000    0.9732600000000000    0.3738650000000000 H
   0.6954850000000000    0.8285800000000000    0.1205850000000000 H
   0.9463650000000000    0.8285199999999999    0.1198000000000000 H
   0.6777050000000000    0.7528699999999999    0.1233950000000000 H
   0.9285350000000000    0.7528400000000000    0.1225650000000000 H
   0.7461500000000000    0.6884150000000000    0.1267050000000000 H
   0.9967900000000001    0.6883600000000000    0.1265650000000000 H
   0.5926400000000001    0.7769750000000000    0.1249100000000000 H
   0.8422499999999999    0.7770150000000000    0.1240850000000000 H
   0.6700699999999999    0.6716400000000000    0.3802300000000000 H
   0.9196599999999999    0.6714900000000000    0.3799000000000000 H
   0.6161950000000000    0.7473850000000000    0.3771500000000000 H
   0.8657049999999999    0.7472300000000001    0.3770850000000000 H
   0.6545700000000000    0.8117300000000001    0.3732050000000000 H
   0.9039500000000000    0.8116050000000000    0.3732650000000000 H
   0.5429349999999999    0.7228550000000000    0.3749750000000000 H
   0.7934399999999999    0.7228800000000000    0.3751500000000000 H
   0.6394350000000000    0.8799300000000000    0.3291050000000000 H
   0.8902800000000000    0.8796800000000000    0.3283200000000000 H
   0.6953400000000001    0.8771300000000000    0.2535900000000000 H
   0.9455200000000000    0.8769300000000000    0.2525250000000000 H
   0.6595450000000000    0.8735700000000000    0.1887900000000000 H
   0.9089550000000000    0.8734700000000000    0.1881500000000000 H
   0.5190050000000000    0.8760550000000000    0.2767300000000000 H
   0.7689850000000000    0.8761000000000000    0.2770000000000000 H
   0.7439850000000000    0.6201500000000000    0.1719700000000000 H
   0.9931150000000000    0.6201150000000000    0.1712750000000000 H
   0.5096000000000001    0.6230200000000000    0.2469700000000000 H
   0.7595700000000001    0.6230700000000000    0.2479500000000000 H
   0.6888650000000001    0.6269050000000000    0.3120300000000000 H
   0.9394500000000000    0.6268899999999999    0.3114950000000000 H
   0.5950050000000000    0.6249550000000000    0.2224350000000000 H
   0.8443200000000000    0.6251700000000000    0.2229400000000000 H
   0.1424700000000000    0.3700950000000000    0.5783950000000000 H
   0.3918400000000000    0.3698000000000000    0.5791050000000000 H
   0.1963300000000000    0.3729750000000000    0.5026200000000000 H
   0.4463150000000000    0.3728550000000000    0.5036100000000000 H
   0.1579750000000000    0.3767900000000000    0.9382500000000000 H
   0.4086500000000000    0.3768200000000000    0.9388250000000000 H
   0.0191050000000000    0.3749500000000000    0.5271650000000000 H
   0.2692100000000000    0.3748700000000000    0.5267500000000001 H
   0.1157150000000000    0.1299350000000000    0.9214650000000000 H
   0.3662700000000000    0.1294900000000000    0.9213600000000000 H
   0.1334700000000000    0.1270750000000000    0.9972000000000000 H
   0.3840950000000000    0.1266100000000000    0.9970850000000000 H
   0.0651450000000000    0.1231600000000000    0.5616600000000000 H
   0.3156850000000000    0.1231850000000000    0.5615750000000000 H
   0.2196000000000000    0.1256800000000000    0.9729550000000000 H
   0.4693250000000000    0.1251500000000000    0.9729200000000000 H
   0.0686650000000000    0.0786300000000000    0.6300000000000000 H
   0.3179350000000000    0.0779300000000000    0.6299200000000000 H
   0.0522000000000000    0.0029500000000000    0.6271350000000000 H
   0.3023450000000000    0.0019250000000000    0.6270700000000000 H
   0.1223950000000000    0.4384700000000000    0.6231850000000000 H
   0.3730550000000000    0.4379200000000000    0.6232000000000000 H
   0.2174850000000000    0.0270400000000000    0.6249050000000000 H
   0.4669550000000000    0.0275150000000000    0.6249750000000001 H
   0.1730700000000000    0.4209200000000000    0.8700950000000001 H
   0.4222750000000000    0.4210050000000000    0.8703449999999999 H
   0.1171650000000000    0.4963900000000000    0.8729750000000001 H
   0.3665350000000000    0.4965500000000000    0.8730500000000000 H
   0.1529850000000000    0.0611850000000000    0.8765600000000000 H
   0.4025000000000000    0.0612500000000000    0.8764799999999999 H
   0.0429200000000000    0.4731900000000000    0.8739250000000001 H
   0.2935400000000000    0.4732600000000000    0.8738650000000000 H
   0.1954850000000000    0.3285800000000000    0.6205849999999999 H
   0.4463650000000000    0.3285200000000000    0.6198000000000000 H
   0.1777050000000000    0.2528700000000000    0.6233950000000000 H
   0.4285350000000000    0.2528400000000000    0.6225650000000000 H
   0.2461500000000000    0.1884150000000000    0.6267050000000001 H
   0.4967900000000000    0.1883600000000000    0.6265650000000000 H
   0.0926400000000000    0.2769750000000000    0.6249100000000000 H
   0.3422500000000000    0.2770150000000000    0.6240850000000000 H
   0.1700700000000000    0.1716400000000000    0.8802300000000001 H
   0.4196600000000000    0.1714900000000000    0.8799000000000000 H
   0.1161950000000000    0.2473850000000000    0.8771500000000000 H
   0.3657050000000000    0.2472300000000000    0.8770850000000000 H
   0.1545700000000000    0.3117300000000000    0.8732050000000000 H
   0.4039500000000000    0.3116050000000000    0.8732650000000000 H
   0.0429350000000000    0.2228550000000000    0.8749750000000001 H
   0.2934400000000000    0.2228800000000000    0.8751500000000000 H
   0.1394350000000000    0.3799300000000000    0.8291050000000000 H
   0.3902800000000000    0.3796800000000000    0.8283199999999999 H
   0.1953400000000000    0.3771300000000000    0.7535900000000000 H
   0.4455200000000000    0.3769300000000000    0.7525250000000000 H
   0.1595450000000000    0.3735700000000000    0.6887900000000000 H
   0.4089550000000000    0.3734700000000000    0.6881500000000000 H
   0.0190050000000000    0.3760550000000000    0.7767299999999999 H
   0.2689850000000000    0.3761000000000000    0.7770000000000000 H
   0.2439850000000000    0.1201500000000000    0.6719700000000000 H
   0.4931150000000000    0.1201150000000000    0.6712750000000001 H
   0.0096000000000000    0.1230200000000000    0.7469700000000000 H
   0.2595700000000000    0.1230700000000000    0.7479500000000000 H
   0.1888650000000000    0.1269050000000000    0.8120300000000000 H
   0.4394500000000000    0.1268900000000000    0.8114950000000001 H
   0.0950050000000000    0.1249550000000000    0.7224349999999999 H
   0.3443200000000000    0.1251700000000000    0.7229400000000000 H
   0.6424700000000000    0.3700950000000000    0.5783950000000000 H
   0.8918400000000000    0.3698000000000000    0.5791050000000000 H
   0.6963300000000000    0.3729750000000000    0.5026200000000000 H
   0.9463150000000000    0.3728550000000000    0.5036100000000000 H
   0.6579750000000000    0.3767900000000000    0.9382500000000000 H
   0.9086500000000000    0.3768200000000000    0.9388250000000000 H
   0.5191050000000000    0.3749500000000000    0.5271650000000000 H
   0.7692099999999999    0.3748700000000000    0.5267500000000001 H
   0.6157150000000000    0.1299350000000000    0.9214650000000000 H
   0.8662700000000000    0.1294900000000000    0.9213600000000000 H
   0.6334700000000000    0.1270750000000000    0.9972000000000000 H
   0.8840950000000001    0.1266100000000000    0.9970850000000000 H
   0.5651450000000000    0.1231600000000000    0.5616600000000000 H
   0.8156850000000000    0.1231850000000000    0.5615750000000000 H
   0.7196000000000000    0.1256800000000000    0.9729550000000000 H
   0.9693250000000000    0.1251500000000000    0.9729200000000000 H
   0.5686650000000000    0.0786300000000000    0.6300000000000000 H
   0.8179350000000001    0.0779300000000000    0.6299200000000000 H
   0.5522000000000000    0.0029500000000000    0.6271350000000000 H
   0.8023450000000000    0.0019250000000000    0.6270700000000000 H
   0.6223950000000000    0.4384700000000000    0.6231850000000000 H
   0.8730550000000000    0.4379200000000000    0.6232000000000000 H
   0.7174850000000000    0.0270400000000000    0.6249050000000000 H
   0.9669550000000000    0.0275150000000000    0.6249750000000001 H
   0.6730700000000001    0.4209200000000000    0.8700950000000001 H
   0.9222750000000000    0.4210050000000000    0.8703449999999999 H
   0.6171650000000000    0.4963900000000000    0.8729750000000001 H
   0.8665350000000001    0.4965500000000000    0.8730500000000000 H
   0.6529850000000000    0.0611850000000000    0.8765600000000000 H
   0.9025000000000001    0.0612500000000000    0.8764799999999999 H
   0.5429200000000000    0.4731900000000000    0.8739250000000001 H
   0.7935400000000000    0.4732600000000000    0.8738650000000000 H
   0.6954850000000000    0.3285800000000000    0.6205849999999999 H
   0.9463650000000000    0.3285200000000000    0.6198000000000000 H
   0.6777050000000000    0.2528700000000000    0.6233950000000000 H
   0.9285350000000000    0.2528400000000000    0.6225650000000000 H
   0.7461500000000000    0.1884150000000000    0.6267050000000001 H
   0.9967900000000001    0.1883600000000000    0.6265650000000000 H
   0.5926400000000001    0.2769750000000000    0.6249100000000000 H
   0.8422499999999999    0.2770150000000000    0.6240850000000000 H
   0.6700699999999999    0.1716400000000000    0.8802300000000001 H
   0.9196599999999999    0.1714900000000000    0.8799000000000000 H
   0.6161950000000000    0.2473850000000000    0.8771500000000000 H
   0.8657049999999999    0.2472300000000000    0.8770850000000000 H
   0.6545700000000000    0.3117300000000000    0.8732050000000000 H
   0.9039500000000000    0.3116050000000000    0.8732650000000000 H
   0.5429349999999999    0.2228550000000000    0.8749750000000001 H
   0.7934399999999999    0.2228800000000000    0.8751500000000000 H
   0.6394350000000000    0.3799300000000000    0.8291050000000000 H
   0.8902800000000000    0.3796800000000000    0.8283199999999999 H
   0.6953400000000001    0.3771300000000000    0.7535900000000000 H
   0.9455200000000000    0.3769300000000000    0.7525250000000000 H
   0.6595450000000000    0.3735700000000000    0.6887900000000000 H
   0.9089550000000000    0.3734700000000000    0.6881500000000000 H
   0.5190050000000000    0.3760550000000000    0.7767299999999999 H