H3 O2
1.0
  19.0059999971052207    0.0000000000000000   -0.0003317172776194
   0.0006574244003232   18.8329999168145292    0.0016434892880555
   0.0000000000000000    0.0000000000000000   37.6439999999999984
H O
3 2
direct
   0.3734399174372604    0.7467910386627464    0.7986223474535479 H
   0.5029396598276055    0.6010495339876801    0.7603748504292944 H
   0.4274396871012035    0.6549182212701453    0.7881121821207009 H
   0.4103300000000000    0.7446000000000000    0.7808500000000000 O
   0.4934100000000000    0.6510000000000000    0.7563299999999999 O
