Al96 P95 O380
1.0
  19.0059999971052207    0.0000000000000000   -0.0003317172776194
   0.0006574244003232   18.8329999168145292    0.0016434892880555
   0.0000000000000000    0.0000000000000000   37.6439999999999984
Al P O
96 95 380
direct
   0.9580600000000000    0.9356700000000000    0.1673150000000000 Al
   0.4217000000000000    0.8350100000000000    0.2722850000000000 Al
   0.9217100000000000    0.8350100000000000    0.2722850000000000 Al
   0.3328400000000000    0.0510700000000000    0.2830500000000000 Al
   0.8328400000000000    0.0510700000000000    0.2830500000000000 Al
   0.4580600000000000    0.5644000000000000    0.0826650000000000 Al
   0.9580600000000000    0.5644000000000000    0.0826650000000000 Al
   0.4217200000000000    0.6650100000000000    0.4776950000000000 Al
   0.9217300000000000    0.6650100000000000    0.4776950000000000 Al
   0.3328300000000000    0.4489400000000000    0.4669000000000000 Al
   0.8328300000000000    0.4489400000000000    0.4669000000000000 Al
   0.4582000000000000    0.1655000000000000    0.4671000000000000 Al
   0.9582100000000000    0.1655000000000000    0.4671000000000000 Al
   0.4217900000000000    0.9552800000000000    0.4176400000000000 Al
   0.9218000000000000    0.9552800000000000    0.4176400000000000 Al
   0.3326500000000000    0.9339800000000000    0.0254650000000000 Al
   0.8326600000000000    0.9339800000000000    0.0254650000000000 Al
   0.4582000000000000    0.3344900000000000    0.2828700000000000 Al
   0.9582100000000000    0.3344900000000000    0.2828700000000000 Al
   0.4218000000000000    0.5447500000000000    0.3323400000000000 Al
   0.9218100000000000    0.5447500000000000    0.3323400000000000 Al
   0.3326600000000000    0.5660300000000000    0.2245100000000000 Al
   0.8326600000000000    0.5660300000000000    0.2245100000000000 Al
   0.0419600000000000    0.0643400000000000    0.3326750000000000 Al
   0.5419700000000000    0.0643400000000000    0.3326750000000000 Al
   0.0783100000000000    0.1650000000000000    0.2277100000000000 Al
   0.5783199999999999    0.1650000000000000    0.2277100000000000 Al
   0.1671700000000000    0.9489400000000000    0.2169450000000000 Al
   0.6671800000000000    0.9489400000000000    0.2169450000000000 Al
   0.0419500000000000    0.4356100000000000    0.4173300000000000 Al
   0.5419600000000000    0.4356100000000000    0.4173300000000000 Al
   0.0782900000000000    0.3350000000000000    0.0223000000000000 Al
   0.4580500000000000    0.9356700000000000    0.1673150000000000 Al
   0.5783000000000000    0.3350000000000000    0.0223000000000000 Al
   0.1671800000000000    0.5510699999999999    0.0330500000000000 Al
   0.6671899999999999    0.5510699999999999    0.0330500000000000 Al
   0.0418100000000000    0.8345100000000000    0.0328650000000000 Al
   0.5418200000000000    0.8345100000000000    0.0328650000000000 Al
   0.0782200000000000    0.0447300000000000    0.0823500000000000 Al
   0.5782300000000000    0.0447300000000000    0.0823500000000000 Al
   0.1673600000000000    0.0660300000000000    0.4745250000000000 Al
   0.6673700000000000    0.0660300000000000    0.4745250000000000 Al
   0.0418100000000000    0.6655200000000000    0.2171250000000000 Al
   0.5418200000000000    0.6655200000000000    0.2171250000000000 Al
   0.0782100000000000    0.4552600000000000    0.1676500000000000 Al
   0.5782200000000000    0.4552600000000000    0.1676500000000000 Al
   0.1673500000000000    0.4339800000000000    0.2754800000000000 Al
   0.6673600000000000    0.4339800000000000    0.2754800000000000 Al
   0.9580600000000000    0.9356700000000000    0.6673150000000000 Al
   0.4217000000000000    0.8350100000000000    0.7722850000000000 Al
   0.9217100000000000    0.8350100000000000    0.7722850000000000 Al
   0.3328400000000000    0.0510700000000000    0.7830500000000000 Al
   0.8328400000000000    0.0510700000000000    0.7830500000000000 Al
   0.4580600000000000    0.5644000000000000    0.5826650000000000 Al
   0.9580600000000000    0.5644000000000000    0.5826650000000000 Al
   0.4217200000000000    0.6650100000000000    0.9776950000000000 Al
   0.9217300000000000    0.6650100000000000    0.9776950000000000 Al
   0.3328300000000000    0.4489400000000000    0.9669000000000000 Al
   0.8328300000000000    0.4489400000000000    0.9669000000000000 Al
   0.4582000000000000    0.1655000000000000    0.9671000000000001 Al
   0.9582100000000000    0.1655000000000000    0.9671000000000001 Al
   0.4217900000000000    0.9552800000000000    0.9176400000000000 Al
   0.9218000000000000    0.9552800000000000    0.9176400000000000 Al
   0.3326500000000000    0.9339800000000000    0.5254650000000000 Al
   0.8326600000000000    0.9339800000000000    0.5254650000000000 Al
   0.4582000000000000    0.3344900000000000    0.7828700000000000 Al
   0.9582100000000000    0.3344900000000000    0.7828700000000000 Al
   0.4218000000000000    0.5447500000000000    0.8323400000000001 Al
   0.9218100000000000    0.5447500000000000    0.8323400000000001 Al
   0.3326600000000000    0.5660300000000000    0.7245100000000000 Al
   0.8326600000000000    0.5660300000000000    0.7245100000000000 Al
   0.0419600000000000    0.0643400000000000    0.8326750000000001 Al
   0.5419700000000000    0.0643400000000000    0.8326750000000001 Al
   0.0783100000000000    0.1650000000000000    0.7277100000000000 Al
   0.5783199999999999    0.1650000000000000    0.7277100000000000 Al
   0.1671700000000000    0.9489400000000000    0.7169449999999999 Al
   0.6671800000000000    0.9489400000000000    0.7169449999999999 Al
   0.0419500000000000    0.4356100000000000    0.9173300000000000 Al
   0.5419600000000000    0.4356100000000000    0.9173300000000000 Al
   0.0782900000000000    0.3350000000000000    0.5223000000000000 Al
   0.4580500000000000    0.9356700000000000    0.6673150000000000 Al
   0.5783000000000000    0.3350000000000000    0.5223000000000000 Al
   0.1671800000000000    0.5510699999999999    0.5330500000000000 Al
   0.6671899999999999    0.5510699999999999    0.5330500000000000 Al
   0.0418100000000000    0.8345100000000000    0.5328650000000000 Al
   0.5418200000000000    0.8345100000000000    0.5328650000000000 Al
   0.0782200000000000    0.0447300000000000    0.5823500000000000 Al
   0.5782300000000000    0.0447300000000000    0.5823500000000000 Al
   0.1673600000000000    0.0660300000000000    0.9745250000000000 Al
   0.6673700000000000    0.0660300000000000    0.9745250000000000 Al
   0.0418100000000000    0.6655200000000000    0.7171250000000000 Al
   0.5418200000000000    0.6655200000000000    0.7171250000000000 Al
   0.0782100000000000    0.4552600000000000    0.6676500000000000 Al
   0.5782200000000000    0.4552600000000000    0.6676500000000000 Al
   0.1673500000000000    0.4339800000000000    0.7754799999999999 Al
   0.6673600000000000    0.4339800000000000    0.7754799999999999 Al
   0.3329000000000000    0.9331000000000000    0.2224450000000000 P
   0.8329100000000000    0.9331000000000000    0.2220000000000000 P
   0.4213700000000000    0.9514300000000000    0.3324850000000000 P
   0.9213700000000000    0.9514300000000000    0.3324850000000000 P
   0.4542900000000000    0.1647900000000000    0.2833200000000000 P
   0.9543000000000000    0.1647900000000000    0.2833200000000000 P
   0.3329200000000000    0.5669600000000000    0.0275450000000000 P
   0.8329299999999999    0.5669600000000000    0.0275450000000000 P
   0.4213500000000000    0.5485500000000000    0.4175050000000000 P
   0.9213600000000000    0.5485500000000000    0.4175050000000000 P
   0.4542800000000000    0.3351900000000000    0.4667000000000000 P
   0.9542900000000000    0.3351900000000000    0.4667000000000000 P
   0.3330200000000000    0.0551400000000000    0.4664600000000000 P
   0.8330300000000000    0.0551400000000000    0.4664600000000000 P
   0.4213200000000000    0.8349600000000000    0.4759250000000000 P
   0.9213300000000000    0.8349600000000000    0.4759250000000000 P
   0.4543300000000000    0.9342200000000001    0.0823150000000000 P
   0.9543300000000000    0.9342200000000001    0.0823150000000000 P
   0.3330200000000000    0.4448700000000000    0.2835050000000000 P
   0.8330300000000000    0.4448700000000000    0.2835050000000000 P
   0.4213300000000000    0.6650600000000000    0.2740600000000000 P
   0.9213300000000000    0.6650600000000000    0.2740600000000000 P
   0.4543300000000000    0.5658100000000000    0.1676650000000000 P
   0.9543400000000000    0.5658100000000000    0.1676650000000000 P
   0.1671100000000000    0.0669100000000000    0.2775450000000000 P
   0.6671200000000000    0.0669100000000000    0.2775450000000000 P
   0.0786500000000000    0.0485800000000000    0.1675100000000000 P
   0.5786500000000000    0.0485800000000000    0.1675100000000000 P
   0.0457200000000000    0.8352200000000000    0.2166700000000000 P
   0.5457300000000000    0.8352200000000000    0.2166700000000000 P
   0.1670900000000000    0.4330500000000000    0.4724500000000000 P
   0.6671000000000000    0.4330500000000000    0.4724500000000000 P
   0.0786600000000000    0.4514600000000000    0.0824850000000000 P
   0.5786700000000000    0.4514600000000000    0.0824850000000000 P
   0.0457300000000000    0.6648200000000000    0.0332950000000000 P
   0.5457400000000000    0.6648200000000000    0.0332950000000000 P
   0.1669900000000000    0.9448700000000000    0.0335350000000000 P
   0.6670000000000000    0.9448700000000000    0.0335350000000000 P
   0.0786900000000000    0.1650500000000000    0.0240700000000000 P
   0.5787000000000000    0.1650500000000000    0.0240700000000000 P
   0.0456900000000000    0.0657800000000000    0.4176500000000000 P
   0.5456900000000000    0.0657800000000000    0.4176500000000000 P
   0.1669900000000000    0.5551400000000000    0.2164500000000000 P
   0.6670000000000000    0.5551400000000000    0.2164500000000000 P
   0.0786800000000000    0.3349500000000000    0.2259300000000000 P
   0.5786900000000000    0.3349500000000000    0.2259300000000000 P
   0.0456800000000000    0.4341900000000000    0.3323250000000000 P
   0.5456900000000000    0.4341900000000000    0.3323250000000000 P
   0.3329000000000000    0.9331000000000000    0.7224450000000000 P
   0.8329100000000000    0.9331000000000000    0.7220000000000000 P
   0.4213700000000000    0.9514300000000000    0.8324849999999999 P
   0.9213700000000000    0.9514300000000000    0.8324849999999999 P
   0.4542900000000000    0.1647900000000000    0.7833200000000000 P
   0.9543000000000000    0.1647900000000000    0.7833200000000000 P
   0.3329200000000000    0.5669600000000000    0.5275450000000000 P
   0.8329299999999999    0.5669600000000000    0.5275450000000000 P
   0.4213500000000000    0.5485500000000000    0.9175050000000000 P
   0.9213600000000000    0.5485500000000000    0.9175050000000000 P
   0.4542800000000000    0.3351900000000000    0.9667000000000000 P
   0.9542900000000000    0.3351900000000000    0.9667000000000000 P
   0.3330200000000000    0.0551400000000000    0.9664600000000000 P
   0.8330300000000000    0.0551400000000000    0.9664600000000000 P
   0.4213200000000000    0.8349600000000000    0.9759249999999999 P
   0.9213300000000000    0.8349600000000000    0.9759249999999999 P
   0.4543300000000000    0.9342200000000001    0.5823150000000000 P
   0.9543300000000000    0.9342200000000001    0.5823150000000000 P
   0.3330200000000000    0.4448700000000000    0.7835050000000000 P
   0.8330300000000000    0.4448700000000000    0.7835050000000000 P
   0.9213300000000000    0.6650600000000000    0.7740600000000000 P
   0.4543300000000000    0.5658100000000000    0.6676650000000000 P
   0.9543400000000000    0.5658100000000000    0.6676650000000000 P
   0.1671100000000000    0.0669100000000000    0.7775449999999999 P
   0.6671200000000000    0.0669100000000000    0.7775449999999999 P
   0.0786500000000000    0.0485800000000000    0.6675100000000000 P
   0.5786500000000000    0.0485800000000000    0.6675100000000000 P
   0.0457200000000000    0.8352200000000000    0.7166700000000000 P
   0.5457300000000000    0.8352200000000000    0.7166700000000000 P
   0.1670900000000000    0.4330500000000000    0.9724500000000000 P
   0.6671000000000000    0.4330500000000000    0.9724500000000000 P
   0.0786600000000000    0.4514600000000000    0.5824850000000000 P
   0.5786700000000000    0.4514600000000000    0.5824850000000000 P
   0.0457300000000000    0.6648200000000000    0.5332950000000000 P
   0.5457400000000000    0.6648200000000000    0.5332950000000000 P
   0.1669900000000000    0.9448700000000000    0.5335350000000000 P
   0.6670000000000000    0.9448700000000000    0.5335350000000000 P
   0.0786900000000000    0.1650500000000000    0.5240700000000000 P
   0.5787000000000000    0.1650500000000000    0.5240700000000000 P
   0.0456900000000000    0.0657800000000000    0.9176500000000001 P
   0.5456900000000000    0.0657800000000000    0.9176500000000001 P
   0.1669900000000000    0.5551400000000000    0.7164500000000000 P
   0.6670000000000000    0.5551400000000000    0.7164500000000000 P
   0.0786800000000000    0.3349500000000000    0.7259300000000000 P
   0.5786900000000000    0.3349500000000000    0.7259300000000000 P
   0.0456800000000000    0.4341900000000000    0.8323250000000000 P
   0.5456900000000000    0.4341900000000000    0.8323250000000000 P
   0.3764100000000000    0.9385000000000000    0.1880000000000000 O
   0.8764200000000000    0.9385000000000000    0.1882500000000000 O
   0.2554200000000000    0.9255800000000000    0.2116700000000000 O
   0.7554200000000000    0.9255800000000000    0.2116700000000000 O
   0.6549000000000000    0.9985500000000000    0.2558700000000000 O
   0.0063000000000000    0.0139700000000000    0.1747900000000000 O
   0.5063100000000000    0.0139700000000000    0.1747900000000000 O
   0.1387600000000000    0.9998300000000000    0.1804800000000000 O
   0.3543200000000000    0.8671100000000000    0.2443150000000000 O
   0.8543300000000000    0.8671100000000000    0.2443150000000000 O
   0.3451100000000000    0.0014600000000000    0.2441200000000000 O
   0.8451200000000000    0.0014600000000000    0.2441200000000000 O
   0.4937100000000000    0.9860400000000000    0.3252000000000000 O
   0.9937200000000000    0.9860400000000000    0.3252000000000000 O
   0.3612500000000000    0.0000000000000000    0.3195100000000000 O
   0.8612600000000000    0.0000000000000000    0.3195100000000000 O
   0.4194800000000000    0.8794999999999999    0.3131900000000000 O
   0.9194900000000000    0.8794999999999999    0.3131900000000000 O
   0.4105900000000000    0.9382400000000000    0.3723450000000000 O
   0.9106000000000000    0.9382400000000000    0.3723450000000000 O
   0.4972700000000000    0.1503700000000000    0.2492200000000000 O
   0.9972700000000000    0.1503700000000000    0.2492200000000000 O
   0.4934200000000000    0.1364800000000000    0.3163150000000000 O
   0.9934200000000000    0.1364800000000000    0.3163150000000000 O
   0.3821500000000000    0.1290200000000000    0.2794150000000000 O
   0.8821600000000001    0.1290200000000000    0.2794150000000000 O
   0.4419900000000000    0.2443900000000000    0.2886550000000000 O
   0.9419999999999999    0.2443900000000000    0.2886550000000000 O
   0.3764000000000000    0.5615100000000000    0.0617500000000000 O
   0.8764100000000000    0.5615100000000000    0.0617500000000000 O
   0.2554200000000000    0.5744600000000000    0.0383050000000000 O
   0.7554300000000000    0.5744600000000000    0.0383050000000000 O
   0.3543800000000000    0.6329600000000000    0.0057050000000000 O
   0.8543900000000000    0.6329600000000000    0.0057050000000000 O
   0.3451400000000000    0.4986200000000000    0.0058450000000000 O
   0.8451500000000000    0.4986200000000000    0.0058450000000000 O
   0.0027700000000000    0.9979200000000000    0.4257650000000000 O
   0.5027800000000000    0.9979200000000000    0.4257650000000000 O
   0.0063500000000000    0.1324400000000000    0.4309000000000000 O
   0.5063600000000000    0.1324400000000000    0.4309000000000000 O
   0.1178200000000000    0.0589000000000000    0.4356350000000000 O
   0.4936700000000000    0.5139000000000000    0.4248050000000000 O
   0.9936800000000000    0.5139000000000000    0.4248050000000000 O
   0.3612200000000000    0.4998200000000000    0.4304700000000000 O
   0.8612300000000001    0.4998200000000000    0.4304700000000000 O
   0.4194700000000000    0.6204900000000000    0.4368000000000000 O
   0.9194800000000000    0.6204900000000000    0.4368000000000000 O
   0.4106000000000000    0.5617500000000000    0.3776450000000000 O
   0.9106100000000000    0.5617500000000000    0.3776450000000000 O
   0.4972000000000000    0.3495700000000000    0.0008250000000000 O
   0.9972100000000000    0.3495700000000000    0.0008250000000000 O
   0.4934500000000000    0.3634800000000000    0.4337150000000000 O
   0.9934600000000000    0.3634800000000000    0.4337150000000000 O
   0.3821500000000000    0.3709900000000000    0.4705800000000000 O
   0.8821600000000001    0.3709900000000000    0.4705500000000000 O
   0.4419500000000000    0.2556000000000000    0.4613500000000000 O
   0.9419600000000000    0.2556000000000000    0.4613500000000000 O
   0.3766100000000000    0.1234800000000000    0.4691600000000000 O
   0.8766100000000000    0.1234800000000000    0.4691600000000000 O
   0.2555200000000000    0.0767100000000000    0.4627450000000000 O
   0.7555300000000000    0.0767100000000000    0.4627450000000000 O
   0.3543100000000000    0.0113600000000000    0.4334500000000000 O
   0.8543200000000000    0.0113600000000000    0.4334500000000000 O
   0.3451300000000000    0.0117500000000000    0.0006500000000000 O
   0.8451400000000000    0.0117500000000000    0.0006500000000000 O
   0.4934000000000000    0.8490200000000000    0.4936600000000000 O
   0.9934100000000000    0.8490200000000000    0.4936600000000000 O
   0.3609800000000000    0.8609700000000000    0.0000000000000000 O
   0.8609900000000000    0.8609700000000000    0.0000000000000000 O
   0.4197800000000000    0.8736000000000000    0.4399500000000000 O
   0.9197900000000000    0.8736000000000000    0.4399500000000000 O
   0.4103300000000000    0.7554200000000000    0.4690950000000000 O
   0.9103400000000000    0.7554200000000000    0.4690950000000000 O
   0.4972400000000000    0.0020900000000000    0.0742250000000000 O
   0.9972500000000000    0.0020900000000000    0.0742250000000000 O
   0.4936600000000000    0.8675700000000000    0.0690950000000000 O
   0.9936600000000000    0.8675700000000000    0.0690950000000000 O
   0.3821900000000000    0.9411100000000000    0.0643600000000000 O
   0.8822000000000000    0.9411100000000000    0.0643600000000000 O
   0.4418800000000000    0.9255800000000000    0.1222000000000000 O
   0.9418900000000000    0.9255800000000000    0.1222000000000000 O
   0.3766100000000000    0.3765300000000000    0.2808350000000000 O
   0.8766200000000000    0.3765300000000000    0.2808350000000000 O
   0.2555300000000000    0.4232900000000000    0.2872350000000000 O
   0.7555400000000000    0.4232900000000000    0.2872350000000000 O
   0.3543000000000000    0.4887300000000000    0.3164500000000000 O
   0.8543100000000000    0.4887300000000000    0.3164500000000000 O
   0.3451300000000000    0.4881900000000000    0.2492500000000000 O
   0.8451300000000000    0.4881900000000000    0.2492500000000000 O
   0.4934100000000000    0.6510000000000000    0.2563300000000000 O
   0.9934100000000000    0.6510000000000000    0.2563300000000000 O
   0.3609900000000000    0.6390200000000000    0.2498750000000000 O
   0.8610000000000000    0.6390200000000000    0.2498750000000000 O
   0.4198000000000000    0.6264400000000000    0.3100400000000000 O
   0.9198100000000000    0.6264400000000000    0.3100400000000000 O
   0.4103300000000000    0.7446000000000000    0.2808500000000000 O
   0.9103300000000000    0.7446000000000000    0.2808500000000000 O
   0.4972400000000000    0.4979400000000000    0.1757650000000000 O
   0.9972500000000000    0.4979400000000000    0.1757650000000000 O
   0.4936500000000000    0.6324600000000000    0.1808950000000000 O
   0.9936600000000000    0.6324600000000000    0.1808950000000000 O
   0.3821900000000000    0.5589300000000000    0.1856100000000000 O
   0.8821900000000000    0.5589300000000000    0.1856100000000000 O
   0.4419100000000000    0.5744700000000000    0.1277650000000000 O
   0.9419200000000000    0.5744700000000000    0.1277650000000000 O
   0.1236000000000000    0.0615100000000000    0.3117450000000000 O
   0.6236100000000000    0.0615100000000000    0.3117450000000000 O
   0.2446000000000000    0.0744300000000000    0.2883250000000000 O
   0.7446000000000000    0.0744300000000000    0.2883250000000000 O
   0.1456900000000000    0.1328900000000000    0.2556500000000000 O
   0.6457000000000001    0.1328900000000000    0.2556800000000000 O
   0.1549000000000000    0.9985500000000000    0.2558700000000000 O
   0.6387699999999999    0.9998300000000000    0.1804800000000000 O
   0.0805300000000000    0.1205100000000000    0.1868000000000000 O
   0.5805399999999999    0.1205100000000000    0.1868000000000000 O
   0.0894200000000000    0.0617700000000000    0.1276500000000000 O
   0.5894200000000001    0.0617700000000000    0.1276500000000000 O
   0.0027500000000000    0.8496400000000000    0.2507750000000000 O
   0.5027500000000000    0.8496400000000000    0.2507750000000000 O
   0.0066000000000000    0.8635300000000000    0.1836800000000000 O
   0.5066000000000001    0.8635300000000000    0.1836800000000000 O
   0.1178600000000000    0.8709900000000000    0.2205500000000000 O
   0.6178700000000000    0.8709900000000000    0.2205500000000000 O
   0.0580200000000000    0.7556200000000000    0.2113400000000000 O
   0.5580300000000000    0.7556200000000000    0.2113400000000000 O
   0.1236100000000000    0.4385000000000000    0.4382400000000000 O
   0.6236200000000000    0.4385000000000000    0.4382400000000000 O
   0.2445900000000000    0.4255500000000000    0.4616900000000000 O
   0.7446000000000000    0.4255500000000000    0.4616900000000000 O
   0.1456300000000000    0.3670500000000000    0.4942850000000000 O
   0.6456300000000000    0.3670500000000000    0.4942850000000000 O
   0.1548700000000000    0.5013800000000000    0.4941450000000000 O
   0.6548800000000000    0.5013900000000000    0.4941450000000000 O
   0.0063400000000000    0.4861100000000000    0.0751900000000000 O
   0.5063500000000000    0.4861100000000000    0.0751900000000000 O
   0.1387900000000000    0.5001900000000000    0.0695250000000000 O
   0.6388000000000000    0.5001900000000000    0.0695250000000000 O
   0.0805400000000000    0.3795200000000000    0.0631950000000000 O
   0.5805399999999999    0.3795200000000000    0.0631950000000000 O
   0.0894100000000000    0.4382600000000000    0.1223500000000000 O
   0.5894200000000001    0.4382600000000000    0.1223500000000000 O
   0.0028100000000000    0.6504400000000000    0.4991650000000000 O
   0.5028200000000000    0.6504300000000000    0.4991500000000000 O
   0.0065600000000000    0.6365300000000000    0.0662750000000000 O
   0.5065700000000000    0.6365300000000000    0.0662500000000000 O
   0.1178600000000000    0.6290200000000000    0.0294100000000000 O
   0.6178700000000000    0.6290200000000000    0.0294100000000000 O
   0.0580600000000000    0.7444100000000000    0.0386450000000000 O
   0.5580700000000000    0.7444100000000000    0.0386450000000000 O
   0.1234100000000000    0.8765300000000000    0.0308350000000000 O
   0.6234100000000000    0.8765300000000000    0.0308350000000000 O
   0.2444900000000000    0.9233000000000000    0.0372450000000000 O
   0.7445000000000001    0.9233000000000000    0.0372450000000000 O
   0.1457000000000000    0.9886500000000000    0.0665450000000000 O
   0.6457100000000000    0.9886500000000000    0.0665450000000000 O
   0.1548800000000000    0.9882600000000000    0.4993450000000000 O
   0.6548900000000000    0.9882600000000000    0.4993450000000000 O
   0.0066100000000000    0.1509900000000000    0.0063350000000000 O
   0.5066200000000000    0.1509900000000000    0.0063350000000000 O
   0.1390300000000000    0.1390400000000000    0.4998750000000000 O
   0.6390400000000001    0.1390400000000000    0.4998750000000000 O
   0.0802300000000000    0.1264100000000000    0.0600000000000000 O
   0.5802400000000000    0.1264100000000000    0.0600000000000000 O
   0.0896800000000000    0.2445900000000000    0.0309000000000000 O
   0.5896900000000000    0.2445900000000000    0.0309000000000000 O
   0.6178200000000000    0.0589000000000000    0.4356350000000000 O
   0.0581300000000000    0.0744300000000000    0.3777750000000000 O
   0.5581400000000000    0.0744300000000000    0.3777750000000000 O
   0.1234000000000000    0.6234800000000000    0.2191550000000000 O
   0.6234100000000000    0.6234800000000000    0.2191550000000000 O
   0.2444800000000000    0.5767200000000000    0.2127600000000000 O
   0.7444900000000000    0.5767200000000000    0.2127600000000000 O
   0.1457100000000000    0.5112800000000000    0.1835000000000000 O
   0.6457200000000000    0.5112800000000000    0.1835000000000000 O
   0.1548900000000000    0.5118200000000001    0.2507050000000000 O
   0.6548900000000000    0.5118200000000001    0.2507050000000000 O
   0.0066100000000000    0.3490100000000000    0.2436650000000000 O
   0.5066100000000000    0.3490100000000000    0.2436650000000000 O
   0.1390200000000000    0.3609900000000000    0.2501000000000000 O
   0.6390300000000000    0.3609900000000000    0.2501000000000000 O
   0.0802100000000000    0.3735700000000000    0.1899500000000000 O
   0.5802200000000000    0.3735700000000000    0.1899500000000000 O
   0.0896800000000000    0.2554100000000000    0.2191100000000000 O
   0.5896900000000000    0.2554100000000000    0.2191100000000000 O
   0.0027700000000000    0.5020700000000000    0.3242300000000000 O
   0.5027800000000000    0.5020700000000000    0.3242300000000000 O
   0.0063600000000000    0.3675500000000000    0.3190950000000000 O
   0.5063700000000000    0.3675500000000000    0.3190950000000000 O
   0.1178200000000000    0.4410800000000000    0.3143850000000000 O
   0.6178300000000000    0.4410800000000000    0.3143850000000000 O
   0.0581000000000000    0.4255400000000000    0.3722300000000000 O
   0.5581100000000000    0.4255400000000000    0.3722300000000000 O
   0.3764100000000000    0.9385000000000000    0.6879999999999999 O
   0.8764200000000000    0.9385000000000000    0.6882500000000000 O
   0.2554200000000000    0.9255800000000000    0.7116700000000000 O
   0.7554200000000000    0.9255800000000000    0.7116700000000000 O
   0.6549000000000000    0.9985500000000000    0.7558700000000000 O
   0.0063000000000000    0.0139700000000000    0.6747900000000000 O
   0.5063100000000000    0.0139700000000000    0.6747900000000000 O
   0.1387600000000000    0.9998300000000000    0.6804800000000000 O
   0.3543200000000000    0.8671100000000000    0.7443150000000001 O
   0.8543300000000000    0.8671100000000000    0.7443150000000001 O
   0.3451100000000000    0.0014600000000000    0.7441200000000000 O
   0.8451200000000000    0.0014600000000000    0.7441200000000000 O
   0.4937100000000000    0.9860400000000000    0.8251999999999999 O
   0.9937200000000000    0.9860400000000000    0.8251999999999999 O
   0.3612500000000000    0.0000000000000000    0.8195100000000000 O
   0.8612600000000000    0.0000000000000000    0.8195100000000000 O
   0.4194800000000000    0.8794999999999999    0.8131900000000001 O
   0.9194900000000000    0.8794999999999999    0.8131900000000001 O
   0.4105900000000000    0.9382400000000000    0.8723449999999999 O
   0.9106000000000000    0.9382400000000000    0.8723449999999999 O
   0.4972700000000000    0.1503700000000000    0.7492200000000000 O
   0.9972700000000000    0.1503700000000000    0.7492200000000000 O
   0.4934200000000000    0.1364800000000000    0.8163150000000000 O
   0.9934200000000000    0.1364800000000000    0.8163150000000000 O
   0.3821500000000000    0.1290200000000000    0.7794150000000000 O
   0.8821600000000001    0.1290200000000000    0.7794150000000000 O
   0.4419900000000000    0.2443900000000000    0.7886550000000000 O
   0.9419999999999999    0.2443900000000000    0.7886550000000000 O
   0.3764000000000000    0.5615100000000000    0.5617500000000000 O
   0.8764100000000000    0.5615100000000000    0.5617500000000000 O
   0.2554200000000000    0.5744600000000000    0.5383050000000000 O
   0.7554300000000000    0.5744600000000000    0.5383050000000000 O
   0.3543800000000000    0.6329600000000000    0.5057050000000000 O
   0.8543900000000000    0.6329600000000000    0.5057050000000000 O
   0.3451400000000000    0.4986200000000000    0.5058450000000000 O
   0.8451500000000000    0.4986200000000000    0.5058450000000000 O
   0.0027700000000000    0.9979200000000000    0.9257649999999999 O
   0.5027800000000000    0.9979200000000000    0.9257649999999999 O
   0.0063500000000000    0.1324400000000000    0.9309000000000001 O
   0.5063600000000000    0.1324400000000000    0.9309000000000001 O
   0.1178200000000000    0.0589000000000000    0.9356350000000000 O
   0.4936700000000000    0.5139000000000000    0.9248050000000000 O
   0.9936800000000000    0.5139000000000000    0.9248050000000000 O
   0.3612200000000000    0.4998200000000000    0.9304700000000000 O
   0.8612300000000001    0.4998200000000000    0.9304700000000000 O
   0.4194700000000000    0.6204900000000000    0.9368000000000001 O
   0.9194800000000000    0.6204900000000000    0.9368000000000001 O
   0.4106000000000000    0.5617500000000000    0.8776450000000000 O
   0.9106100000000000    0.5617500000000000    0.8776450000000000 O
   0.4972000000000000    0.3495700000000000    0.5008250000000000 O
   0.9972100000000000    0.3495700000000000    0.5008250000000000 O
   0.4934500000000000    0.3634800000000000    0.9337150000000001 O
   0.9934600000000000    0.3634800000000000    0.9337150000000001 O