H6 C16 O8
1.0
  12.9658558743976506    0.0000000000000000    5.2701610453901635
   5.4362057930293899   12.5340030698830809    5.2105007072252887
   0.0000000000000000    0.0000000000000000   37.1700000000000017
H C O
6 16 8
direct
   0.1514800000000000    0.7711900000000000    0.0161800000000000 H
   0.5108300000000000    0.3884300000000000    0.9117900000000000 H
   0.4024700000000000    0.3276900000000000    0.8914100000000000 H
   0.1991200000000000    0.4433400000000000    0.8933100000000000 H
   0.0839000000000000    0.9674300000000000    0.9208149999999999 H
   0.0657600000000000    0.9404300000000000    0.9930200000000000 H
   0.1433700000000000    0.7685600000000000    0.0000000000000000 C
   0.2273600000000000    0.5702700000000001    0.0000000000000000 C
   0.4420000000000000    0.5688800000000001    0.9327500000000000 C
   0.3702900000000000    0.5338300000000000    0.9238750000000000 C
   0.4222800000000000    0.4363800000000000    0.9122749999999999 C
   0.3617400000000000    0.4028700000000000    0.9010750000000001 C
   0.2490600000000000    0.4667400000000000    0.9019750000000000 C
   0.1942900000000000    0.5627600000000000    0.9150750000000001 C
   0.2546300000000000    0.5979300000000000    0.9264900000000000 C
   0.0711700000000000    0.6213400000000000    0.9168700000000001 C
   0.1747400000000000    0.8264800000000000    0.8773400000000000 C
   0.1636500000000000    0.8001800000000000    0.9212100000000000 C
   0.1133600000000000    0.8874100000000000    0.9392000000000000 C
   0.1034100000000000    0.8719200000000000    0.9794300000000000 C
   0.1903500000000000    0.6800600000000000    0.9848000000000000 C
   0.2010400000000000    0.6946600000000001    0.9439000000000000 C
   0.2849600000000000    0.5811400000000000    0.0208300000000000 O
   0.2137800000000000    0.4968400000000000    0.0000000000000000 O
   0.4993200000000000    0.5049500000000000    0.9578850000000000 O
   0.4444500000000000    0.6602700000000000    0.9144550000000000 O
   0.2683500000000000    0.7812600000000000    0.8537850000000000 O
   0.0876400000000000    0.8963500000000000    0.8655050000000000 O
   1.0295100000000001    0.6000799999999999    0.8973150000000000 O
   1.0094099999999999    0.6930200000000000    0.9375500000000000 O
