H8 C10 N2
1.0
  12.9658558743976506    0.0000000000000000    5.2701610453901635
   5.4362057930293899   12.5340030698830809    5.2105007072252887
   0.0000000000000000    0.0000000000000000   37.1700000000000017
H C N
8 10 2
direct
   0.2814700000000000    0.8673600000000000    0.7444550000000000 H
   0.3924900000000000    0.7139799999999999    0.7104950000000000 H
   0.1614600000000000    0.5694500000000000    0.7927649999999999 H
   0.0597000000000000    0.7285700000000001    0.8223500000000000 H
   0.3143600000000000    0.3577400000000000    0.7004100000000000 H
   0.2022400000000000    0.5112700000000000    0.7343400000000000 H
   0.5147600000000000    0.5321100000000000    0.7176899999999999 H
   0.6132900000000000    0.3780500000000000    0.6845600000000001 H
   0.2582600000000000    0.7994599999999999    0.7535750000000000 C
   0.3198500000000000    0.7129300000000000    0.7353900000000000 C
   0.2864100000000000    0.6276100000000000    0.7483950000000000 C
   0.1911600000000000    0.6335800000000000    0.7803700000000000 C
   0.1333600000000000    0.7223700000000000    0.7973049999999999 C
   0.3546400000000000    0.3989000000000000    0.7051750000000000 C
   0.2934100000000000    0.4838400000000000    0.7242250000000000 C
   0.3490900000000000    0.5354100000000001    0.7290500000000000 C
   0.4664200000000000    0.4964500000000000    0.7145150000000000 C
   0.5222500000000000    0.4104200000000000    0.6961450000000000 C
   0.1657300000000000    0.8046400000000000    0.7840700000000000 N
   0.4676000000000000    0.3625900000000000    0.6912350000000000 N
