H10 O7
1.0
  12.9658558743976506    0.0000000000000000    5.2701610453901635
   5.4362057930293899   12.5340030698830809    5.2105007072252887
   0.0000000000000000    0.0000000000000000   37.1700000000000017
H O
10 7
direct
   1.0405714140568998    0.7057215153047711    0.9537272133452313 H
   1.0745344018511505    0.5430245957178166    0.8829082587915367 H
   1.0697944962352981    0.6165001195922409    0.9182283927270954 H
   0.2446483658975807    0.5735325787726858    0.0062520253758091 H
   0.0115855897557423    0.9182894355108242    0.8822911386039857 H
   0.0755365958519508    0.8368809328603400    0.8963412767016504 H
   0.4246074665354008    0.5097238025754097    0.9626094467038437 H
   0.4911346986643469    0.4428477491429987    0.9777493312168689 H
   0.3692899690484606    0.6650723956983648    0.9192077442053354 H
   0.2583668964072053    0.7322088528549405    0.8792193109560853 H
   1.0094099999999999    0.6930200000000000    0.9375500000000000 O
   1.0295100000000001    0.6000799999999999    0.8973150000000000 O
   0.2849600000000000    0.5811400000000000    0.0208300000000000 O
   0.0876400000000000    0.8963500000000000    0.8655050000000000 O
   0.4993200000000000    0.5049500000000000    0.9578850000000000 O
   0.4444500000000000    0.6602700000000000    0.9144550000000000 O
   0.2683500000000000    0.7812600000000000    0.8537850000000000 O
