H6 O4
1.0
  27.4399999331303874    0.0000000000000000    0.0019156733854356
   0.0024847201011168   14.2359997484689416   -0.0009938602884480
   0.0000000000000000    0.0000000000000000   31.9499999999999993
H O
6 4
direct
   0.2366108945598109    0.8749245001196312    0.1940824050393388 H
   0.3781059887402696    0.8445919472164042    0.1917428434058730 H
   0.3093342436307052    0.8690077053420091    0.1881297107815536 H
   0.3645643562077074    0.1546313792145522    0.0716024569735493 H
   0.2755507608905665    0.1719871443455994    0.0731551190927400 H
   0.3265319660634801    0.2317930405778806    0.4171221922923130 H
   0.2647750000000000    0.8436399999999999    0.2060150000000000 O
   0.3471700000000000    0.8269800000000000    0.2041600000000000 O
   0.3606850000000000    0.1492900000000000    0.0415200000000000 O
   0.2782900000000000    0.1653700000000000    0.0430300000000000 O
