V32 H130 C248 O128
1.0
  27.4399999331303874    0.0000000000000000    0.0019156733854356
   0.0024847201011168   14.2359997484689416   -0.0009938602884480
   0.0000000000000000    0.0000000000000000   31.9499999999999993
V H C O
32 130 248 128
direct
   0.4846150000000000    0.7609500000000000    0.7489950000000000 V
   0.3905700000000000    0.2343900000000000    0.4992250000000000 V
   0.3597250000000000    0.7333400000000000    0.7494300000000000 V
   0.5155950000000000    0.2619500000000000    0.9992600000000000 V
   0.7655850000000000    0.2618700000000000    0.9995000000000001 V
   0.7346300000000000    0.7609600000000000    0.2494750000000000 V
   0.6097250000000000    0.7333400000000000    0.2490000000000000 V
   0.6405000000000001    0.2342600000000000    0.4992450000000000 V
   0.7655850000000000    0.2618700000000000    0.4995000000000000 V
   0.7346300000000000    0.7609600000000000    0.7494750000000000 V
   0.6097250000000000    0.7333400000000000    0.7490000000000000 V
   0.6405000000000001    0.2342600000000000    0.9992449999999999 V
   0.4846150000000000    0.7609500000000000    0.2489950000000000 V
   0.3905700000000000    0.2343900000000000    0.9992250000000000 V
   0.3597250000000000    0.7333400000000000    0.2494300000000000 V
   0.5155950000000000    0.2619500000000000    0.4992600000000000 V
   0.9846150000000000    0.7609500000000000    0.2489950000000000 V
   0.8905700000000000    0.2343900000000000    0.9992250000000000 V
   0.8597250000000001    0.7333400000000000    0.2494300000000000 V
   0.0155950000000000    0.2619500000000000    0.4992600000000000 V
   0.2655850000000000    0.2618700000000000    0.4995000000000000 V
   0.2346300000000000    0.7609600000000000    0.7494750000000000 V
   0.1097250000000000    0.7333400000000000    0.7490000000000000 V
   0.1405000000000000    0.2342600000000000    0.9992449999999999 V
   0.2655850000000000    0.2618700000000000    0.9995000000000001 V
   0.2346300000000000    0.7609600000000000    0.2494750000000000 V
   0.1097250000000000    0.7333400000000000    0.2490000000000000 V
   0.1405000000000000    0.2342600000000000    0.4992450000000000 V
   0.9846150000000000    0.7609500000000000    0.7489950000000000 V
   0.8905700000000000    0.2343900000000000    0.4992250000000000 V
   0.8597250000000001    0.7333400000000000    0.7494300000000000 V
   0.0155950000000000    0.2619500000000000    0.9992600000000000 V
   0.2366108945598109    0.8749245001196312    0.1940824050393388 H
   0.3781059887402696    0.8445919472164042    0.1917428434058730 H
   0.3093342436307052    0.8690077053420091    0.1881297107815536 H
   0.3645643562077074    0.1546313792145522    0.0716024569735493 H
   0.4825650000000000    0.9575000000000000    0.8426450000000000 H
   0.4876350000000000    0.0748700000000000    0.9012300000000000 H
   0.6429750000000000    0.0386800000000000    0.9055900000000000 H
   0.6378750000000000    0.9213000000000000    0.8470299999999999 H
   0.4825650000000000    0.9575000000000000    0.3426450000000000 H
   0.4876350000000000    0.0748700000000000    0.4012300000000000 H
   0.6429750000000000    0.0386800000000000    0.4055900000000000 H
   0.6378750000000000    0.9213000000000000    0.3470300000000000 H
   0.3573500000000000    0.5428200000000000    0.8445750000000001 H
   0.3624350000000000    0.4268500000000000    0.9036850000000001 H
   0.5129800000000000    0.5752000000000000    0.8472850000000001 H
   0.5180600000000000    0.4592300000000000    0.9063850000000000 H
   0.5124649999999999    0.5735900000000000    0.6516999999999999 H
   0.5176499999999999    0.4560300000000000    0.5932150000000000 H
   0.3625950000000000    0.4163100000000000    0.5989400000000000 H
   0.3574100000000000    0.5338200000000000    0.6574450000000001 H
   0.8874299999999999    0.9154400000000000    0.6492400000000000 H
   0.8925100000000000    0.0314100000000000    0.5901500000000000 H
   0.7378150000000000    0.0753300000000000    0.5974500000000000 H
   0.7327600000000000    0.9593600000000000    0.6565550000000000 H
   0.8874299999999999    0.9154400000000000    0.1492400000000000 H
   0.8925100000000000    0.0314100000000000    0.0901500000000000 H
   0.7378150000000000    0.0753300000000000    0.0974500000000000 H
   0.7327600000000000    0.9593600000000000    0.1565550000000000 H
   0.4825150000000000    0.9580000000000000    0.1557200000000000 H
   0.4875800000000000    0.0741800000000000    0.0966650000000000 H
   0.6378550000000001    0.9217500000000000    0.1514700000000000 H
   0.6429500000000000    0.0379000000000000    0.0923500000000000 H
   0.4825150000000000    0.9580000000000000    0.6557200000000000 H
   0.4875800000000000    0.0741800000000000    0.5966650000000000 H
   0.6378550000000001    0.9217500000000000    0.6514700000000000 H
   0.6429500000000000    0.0379000000000000    0.5923500000000000 H
   0.7321150000000000    0.9546100000000000    0.8441500000000000 H
   0.7371449999999999    0.0721500000000000    0.9026850000000000 H
   0.8931899999999999    0.0473500000000000    0.9025400000000000 H
   0.8881200000000000    0.9298200000000000    0.8440000000000000 H
   0.7624750000000000    0.5750500000000000    0.3472300000000000 H
   0.7676950000000000    0.4591600000000000    0.4063500000000000 H
   0.6073050000000000    0.5362600000000000    0.3422250000000000 H
   0.6125150000000000    0.4204000000000000    0.4013450000000000 H
   0.6124100000000000    0.4228500000000000    0.0965500000000000 H
   0.6074050000000000    0.5404700000000000    0.1550200000000000 H
   0.7679700000000000    0.4564200000000000    0.0930050000000000 H
   0.7629699999999999    0.5740300000000000    0.1514650000000000 H
   0.7321150000000000    0.9546100000000000    0.3441500000000000 H
   0.7371449999999999    0.0721500000000000    0.4026850000000000 H
   0.8931899999999999    0.0473500000000000    0.4025400000000000 H
   0.8881200000000000    0.9298200000000000    0.3440000000000000 H
   0.7624750000000000    0.5750500000000000    0.8472299999999999 H
   0.7676950000000000    0.4591600000000000    0.9063500000000000 H
   0.6073050000000000    0.5362600000000000    0.8422250000000000 H
   0.6125150000000000    0.4204000000000000    0.9013450000000001 H
   0.6124100000000000    0.4228500000000000    0.5965500000000000 H
   0.6074050000000000    0.5404700000000000    0.6550199999999999 H
   0.7679700000000000    0.4564200000000000    0.5930050000000000 H
   0.7629699999999999    0.5740300000000000    0.6514650000000000 H
   0.3573500000000000    0.5428200000000000    0.3445750000000000 H
   0.3624350000000000    0.4268500000000000    0.4036850000000000 H
   0.5129800000000000    0.5752000000000000    0.3472850000000000 H
   0.5180600000000000    0.4592300000000000    0.4063850000000000 H
   0.5124649999999999    0.5735900000000000    0.1517000000000000 H
   0.5176499999999999    0.4560300000000000    0.0932150000000000 H
   0.3625950000000000    0.4163100000000000    0.0989400000000000 H
   0.3574100000000000    0.5338200000000000    0.1574450000000000 H
   0.9825650000000000    0.9575000000000000    0.8426450000000000 H
   0.9876350000000000    0.0748700000000000    0.9012300000000000 H
   0.1429750000000000    0.0386800000000000    0.9055900000000000 H
   0.1378750000000000    0.9213000000000000    0.8470299999999999 H
   0.9825650000000000    0.9575000000000000    0.3426450000000000 H
   0.9876350000000000    0.0748700000000000    0.4012300000000000 H
   0.1429750000000000    0.0386800000000000    0.4055900000000000 H
   0.1378750000000000    0.9213000000000000    0.3470300000000000 H
   0.8573500000000001    0.5428200000000000    0.3445750000000000 H
   0.8624350000000001    0.4268500000000000    0.4036850000000000 H
   0.0129800000000000    0.5752000000000000    0.3472850000000000 H
   0.0180600000000000    0.4592300000000000    0.4063850000000000 H
   0.0124650000000000    0.5735900000000000    0.1517000000000000 H
   0.0176500000000000    0.4560300000000000    0.0932150000000000 H
   0.8625950000000000    0.4163100000000000    0.0989400000000000 H
   0.8574100000000000    0.5338200000000000    0.1574450000000000 H
   0.3874300000000000    0.9154400000000000    0.6492400000000000 H
   0.3925100000000000    0.0314100000000000    0.5901500000000000 H
   0.2378150000000000    0.0753300000000000    0.5974500000000000 H
   0.2327600000000000    0.9593600000000000    0.6565550000000000 H
   0.2755507608905665    0.1719871443455994    0.0731551190927400 H
   0.9825150000000000    0.9580000000000000    0.1557200000000000 H
   0.9875800000000000    0.0741800000000000    0.0966650000000000 H
   0.1378550000000000    0.9217500000000000    0.1514700000000000 H
   0.1429500000000000    0.0379000000000000    0.0923500000000000 H
   0.9825150000000000    0.9580000000000000    0.6557200000000000 H
   0.9875800000000000    0.0741800000000000    0.5966650000000000 H
   0.1378550000000000    0.9217500000000000    0.6514700000000000 H
   0.1429500000000000    0.0379000000000000    0.5923500000000000 H
   0.2321150000000000    0.9546100000000000    0.3441500000000000 H
   0.2371450000000000    0.0721500000000000    0.4026850000000000 H
   0.3931900000000000    0.0473500000000000    0.4025400000000000 H
   0.3881200000000000    0.9298200000000000    0.3440000000000000 H
   0.3265319660634801    0.2317930405778806    0.4171221922923130 H
   0.2624750000000000    0.5750500000000000    0.8472299999999999 H
   0.2676950000000000    0.4591600000000000    0.9063500000000000 H
   0.1073050000000000    0.5362600000000000    0.8422250000000000 H
   0.1125150000000000    0.4204000000000000    0.9013450000000001 H
   0.1124100000000000    0.4228500000000000    0.5965500000000000 H
   0.1074050000000000    0.5404700000000000    0.6550199999999999 H
   0.2679700000000000    0.4564200000000000    0.5930050000000000 H
   0.2629700000000000    0.5740300000000000    0.6514650000000000 H
   0.2321150000000000    0.9546100000000000    0.8441500000000000 H
   0.2371450000000000    0.0721500000000000    0.9026850000000000 H
   0.3931900000000000    0.0473500000000000    0.9025400000000000 H
   0.3881200000000000    0.9298200000000000    0.8440000000000000 H
   0.2624750000000000    0.5750500000000000    0.3472300000000000 H
   0.2676950000000000    0.4591600000000000    0.4063500000000000 H
   0.1073050000000000    0.5362600000000000    0.3422250000000000 H
   0.1125150000000000    0.4204000000000000    0.4013450000000000 H
   0.1124100000000000    0.4228500000000000    0.0965500000000000 H
   0.1074050000000000    0.5404700000000000    0.1550200000000000 H
   0.2679700000000000    0.4564200000000000    0.0930050000000000 H
   0.2629700000000000    0.5740300000000000    0.1514650000000000 H
   0.8573500000000001    0.5428200000000000    0.8445750000000001 H
   0.8624350000000001    0.4268500000000000    0.9036850000000001 H
   0.0129800000000000    0.5752000000000000    0.8472850000000001 H
   0.0180600000000000    0.4592300000000000    0.9063850000000000 H
   0.0124650000000000    0.5735900000000000    0.6516999999999999 H
   0.0176500000000000    0.4560300000000000    0.5932150000000000 H
   0.8625950000000000    0.4163100000000000    0.5989400000000000 H
   0.8574100000000000    0.5338200000000000    0.6574450000000001 H
   0.5569700000000000    0.8629100000000000    0.8068750000000000 C
   0.5685200000000000    0.1331500000000000    0.9413950000000000 C
   0.5174150000000000    0.9757500000000000    0.8567250000000000 C
   0.5202000000000000    0.0407700000000000    0.8890750000000001 C
   0.6080950000000001    0.0204800000000000    0.8915200000000000 C
   0.6052999999999999    0.9554400000000000    0.8591750000000000 C
   0.5599300000000000    0.9326100000000001    0.8415650000000000 C
   0.5655749999999999    0.0636300000000000    0.9066850000000000 C
   0.5569700000000000    0.8629100000000000    0.3068750000000000 C
   0.5685200000000000    0.1331500000000000    0.4413950000000000 C
   0.5174150000000000    0.9757500000000000    0.3567250000000000 C
   0.5202000000000000    0.0407700000000000    0.3890750000000000 C
   0.6080950000000001    0.0204800000000000    0.3915200000000000 C
   0.6052999999999999    0.9554400000000000    0.3591750000000000 C
   0.5599300000000000    0.9326100000000001    0.3415650000000000 C
   0.5655749999999999    0.0636300000000000    0.4066850000000000 C
   0.4435100000000000    0.3666800000000000    0.9429350000000001 C
   0.4319400000000000    0.6337900000000000    0.8074300000000000 C
   0.3922800000000000    0.5241000000000000    0.8584149999999999 C
   0.3950650000000000    0.4598900000000000    0.8910750000000001 C
   0.4405250000000000    0.4362500000000000    0.9082950000000001 C
   0.4803600000000000    0.5422100000000000    0.8599049999999999 C
   0.4831350000000000    0.4779800000000000    0.8925500000000000 C
   0.4349050000000000    0.5655800000000000    0.8425750000000001 C
   0.4433450000000000    0.3606000000000000    0.5579000000000000 C
   0.4316750000000000    0.6307000000000000    0.6921750000000000 C
   0.4800050000000000    0.5386000000000000    0.6398800000000000 C
   0.4828450000000000    0.4734800000000000    0.6075800000000000 C
   0.3950800000000000    0.4512500000000000    0.6107500000000000 C
   0.3922350000000000    0.5163600000000000    0.6430850000000000 C
   0.4404000000000000    0.4294800000000000    0.5927950000000000 C
   0.4346600000000000    0.5606000000000000    0.6577750000000000 C
   0.8069649999999999    0.8622500000000000    0.6913500000000000 C
   0.8184450000000000    0.1297200000000000    0.5558350000000000 C
   0.8550000000000000    0.9509600000000000    0.6376200000000000 C
   0.8577800000000000    0.0152000000000000    0.6049650000000000 C
   0.7702450000000001    0.0397600000000000    0.6090000000000000 C
   0.7674700000000000    0.9755300000000000    0.6417050000000000 C
   0.8154399999999999    0.0601700000000000    0.5905150000000000 C
   0.8098250000000000    0.9307700000000000    0.6562350000000000 C
   0.8069649999999999    0.8622500000000000    0.1913500000000000 C
   0.8184450000000000    0.1297200000000000    0.0558350000000000 C
   0.8550000000000000    0.9509600000000000    0.1376200000000000 C
   0.8577800000000000    0.0152000000000000    0.1049650000000000 C
   0.7702450000000001    0.0397600000000000    0.1090000000000000 C
   0.7674700000000000    0.9755300000000000    0.1417050000000000 C
   0.8154399999999999    0.0601700000000000    0.0905150000000000 C
   0.8098250000000000    0.9307700000000000    0.1562350000000000 C
   0.5569050000000000    0.8641200000000000    0.1917000000000000 C
   0.5684500000000000    0.1316800000000000    0.0564100000000000 C
   0.5173550000000000    0.9759300000000000    0.1415350000000000 C
   0.5201300000000000    0.0402300000000000    0.1089200000000000 C
   0.6052999999999999    0.9556800000000000    0.1391800000000000 C
   0.6080800000000000    0.0199700000000000    0.1065600000000000 C
   0.5599100000000000    0.9332400000000000    0.1568000000000000 C
   0.5655250000000001    0.0626700000000000    0.0912500000000000 C
   0.5569050000000000    0.8641200000000000    0.6917000000000000 C
   0.5684500000000000    0.1316800000000000    0.5564100000000000 C
   0.5173550000000000    0.9759300000000000    0.6415350000000000 C
   0.5201300000000000    0.0402300000000000    0.6089200000000000 C
   0.6052999999999999    0.9556800000000000    0.6391800000000000 C
   0.6080800000000000    0.0199700000000000    0.6065600000000000 C
   0.5599100000000000    0.9332400000000000    0.6568000000000001 C
   0.5655250000000001    0.0626700000000000    0.5912500000000001 C
   0.8068600000000000    0.8649500000000000    0.8065000000000000 C
   0.8184000000000000    0.1353000000000000    0.9408400000000000 C
   0.7671200000000000    0.9754000000000000    0.8572450000000000 C
   0.7698800000000000    0.0404900000000000    0.8895500000000001 C
   0.8581750000000000    0.0265900000000000    0.8894599999999999 C
   0.8554050000000000    0.9615100000000000    0.8571400000000000 C
   0.8098400000000000    0.9353200000000000    0.8409000000000000 C
   0.8154350000000000    0.0664000000000000    0.9059250000000000 C
   0.6933650000000000    0.3643000000000000    0.4421000000000000 C
   0.6816450000000001    0.6312900000000000    0.3065500000000000 C
   0.7299750000000000    0.5406800000000000    0.3593650000000000 C
   0.7328300000000000    0.4765000000000000    0.3920300000000000 C
   0.6903850000000000    0.4331200000000000    0.4071850000000000 C
   0.6421600000000001    0.5189800000000000    0.3565650000000000 C
   0.6450200000000000    0.4548000000000000    0.3892300000000000 C
   0.6846099999999999    0.5624000000000000    0.3414300000000000 C
   0.6933800000000000    0.3630300000000000    0.0570200000000000 C
   0.6819649999999999    0.6332900000000000    0.1912300000000000 C
   0.6450350000000000    0.4564700000000000    0.1088600000000000 C
   0.6423000000000000    0.5216400000000000    0.1411000000000000 C
   0.6904550000000000    0.4327500000000000    0.0915650000000000 C
   0.7330750000000000    0.4752100000000000    0.1069000000000000 C
   0.7303400000000000    0.5403800000000000    0.1391800000000000 C
   0.6849200000000000    0.5639700000000000    0.1565300000000000 C
   0.8068600000000000    0.8649500000000000    0.3065000000000000 C
   0.8184000000000000    0.1353000000000000    0.4408400000000000 C
   0.7671200000000000    0.9754000000000000    0.3572450000000000 C
   0.7698800000000000    0.0404900000000000    0.3895500000000000 C
   0.8581750000000000    0.0265900000000000    0.3894600000000000 C
   0.8554050000000000    0.9615100000000000    0.3571400000000000 C
   0.8098400000000000    0.9353200000000000    0.3409000000000000 C
   0.8154350000000000    0.0664000000000000    0.4059250000000000 C
   0.6933650000000000    0.3643000000000000    0.9420999999999999 C
   0.6816450000000001    0.6312900000000000    0.8065500000000000 C
   0.7299750000000000    0.5406800000000000    0.8593649999999999 C
   0.7328300000000000    0.4765000000000000    0.8920300000000000 C
   0.6903850000000000    0.4331200000000000    0.9071850000000000 C
   0.6421600000000001    0.5189800000000000    0.8565650000000000 C
   0.6450200000000000    0.4548000000000000    0.8892300000000000 C
   0.6846099999999999    0.5624000000000000    0.8414300000000000 C
   0.6933800000000000    0.3630300000000000    0.5570200000000000 C
   0.6819649999999999    0.6332900000000000    0.6912300000000000 C
   0.6450350000000000    0.4564700000000000    0.6088600000000000 C
   0.6423000000000000    0.5216400000000000    0.6411000000000000 C
   0.6904550000000000    0.4327500000000000    0.5915650000000000 C
   0.7330750000000000    0.4752100000000000    0.6069000000000000 C
   0.7303400000000000    0.5403800000000000    0.6391800000000000 C
   0.6849200000000000    0.5639700000000000    0.6565300000000001 C
   0.4435100000000000    0.3666800000000000    0.4429350000000000 C
   0.4319400000000000    0.6337900000000000    0.3074300000000000 C
   0.3922800000000000    0.5241000000000000    0.3584150000000000 C
   0.3950650000000000    0.4598900000000000    0.3910750000000000 C
   0.4405250000000000    0.4362500000000000    0.4082950000000000 C
   0.4803600000000000    0.5422100000000000    0.3599050000000000 C
   0.4831350000000000    0.4779800000000000    0.3925500000000000 C
   0.4349050000000000    0.5655800000000000    0.3425750000000000 C
   0.4433450000000000    0.3606000000000000    0.0579000000000000 C
   0.4316750000000000    0.6307000000000000    0.1921750000000000 C
   0.4800050000000000    0.5386000000000000    0.1398800000000000 C
   0.4828450000000000    0.4734800000000000    0.1075800000000000 C
   0.3950800000000000    0.4512500000000000    0.1107500000000000 C
   0.3922350000000000    0.5163600000000000    0.1430850000000000 C
   0.4404000000000000    0.4294800000000000    0.0927950000000000 C
   0.4346600000000000    0.5606000000000000    0.1577750000000000 C
   0.0569700000000000    0.8629100000000000    0.8068750000000000 C
   0.0685200000000000    0.1331500000000000    0.9413950000000000 C
   0.0174150000000000    0.9757500000000000    0.8567250000000000 C
   0.0202000000000000    0.0407700000000000    0.8890750000000001 C
   0.1080950000000000    0.0204800000000000    0.8915200000000000 C
   0.1053000000000000    0.9554400000000000    0.8591750000000000 C
   0.0599300000000000    0.9326100000000001    0.8415650000000000 C
   0.0655750000000000    0.0636300000000000    0.9066850000000000 C
   0.0569700000000000    0.8629100000000000    0.3068750000000000 C
   0.0685200000000000    0.1331500000000000    0.4413950000000000 C
   0.0174150000000000    0.9757500000000000    0.3567250000000000 C
   0.0202000000000000    0.0407700000000000    0.3890750000000000 C
   0.1080950000000000    0.0204800000000000    0.3915200000000000 C
   0.1053000000000000    0.9554400000000000    0.3591750000000000 C
   0.0599300000000000    0.9326100000000001    0.3415650000000000 C
   0.0655750000000000    0.0636300000000000    0.4066850000000000 C
   0.9435100000000001    0.3666800000000000    0.4429350000000000 C
   0.9319400000000000    0.6337900000000000    0.3074300000000000 C
   0.8922800000000000    0.5241000000000000    0.3584150000000000 C
   0.8950650000000000    0.4598900000000000    0.3910750000000000 C
   0.9405250000000001    0.4362500000000000    0.4082950000000000 C
   0.9803600000000000    0.5422100000000000    0.3599050000000000 C
   0.9831350000000000    0.4779800000000000    0.3925500000000000 C
   0.9349050000000000    0.5655800000000000    0.3425750000000000 C
   0.9433450000000000    0.3606000000000000    0.0579000000000000 C
   0.9316750000000000    0.6307000000000000    0.1921750000000000 C
   0.9800050000000000    0.5386000000000000    0.1398800000000000 C
   0.9828450000000000    0.4734800000000000    0.1075800000000000 C
   0.8950800000000000    0.4512500000000000    0.1107500000000000 C
   0.8922350000000000    0.5163600000000000    0.1430850000000000 C
   0.9404000000000000    0.4294800000000000    0.0927950000000000 C
   0.9346600000000000    0.5606000000000000    0.1577750000000000 C
   0.3069650000000000    0.8622500000000000    0.6913500000000000 C
   0.3184450000000000    0.1297200000000000    0.5558350000000000 C
   0.3550000000000000    0.9509600000000000    0.6376200000000000 C
   0.3577800000000000    0.0152000000000000    0.6049650000000000 C
   0.2702450000000000    0.0397600000000000    0.6090000000000000 C
   0.2674700000000000    0.9755300000000000    0.6417050000000000 C
   0.3154400000000000    0.0601700000000000    0.5905150000000000 C
   0.3098250000000000    0.9307700000000000    0.6562350000000000 C
   0.0569050000000000    0.8641200000000000    0.1917000000000000 C
   0.0684500000000000    0.1316800000000000    0.0564100000000000 C
   0.0173550000000000    0.9759300000000000    0.1415350000000000 C
   0.0201300000000000    0.0402300000000000    0.1089200000000000 C
   0.1053000000000000    0.9556800000000000    0.1391800000000000 C
   0.1080800000000000    0.0199700000000000    0.1065600000000000 C
   0.0599100000000000    0.9332400000000000    0.1568000000000000 C
   0.0655250000000000    0.0626700000000000    0.0912500000000000 C
   0.0569050000000000    0.8641200000000000    0.6917000000000000 C
   0.0684500000000000    0.1316800000000000    0.5564100000000000 C
   0.0173550000000000    0.9759300000000000    0.6415350000000000 C
   0.0201300000000000    0.0402300000000000    0.6089200000000000 C
   0.1053000000000000    0.9556800000000000    0.6391800000000000 C
   0.1080800000000000    0.0199700000000000    0.6065600000000000 C
   0.0599100000000000    0.9332400000000000    0.6568000000000001 C
   0.0655250000000000    0.0626700000000000    0.5912500000000001 C
   0.3068600000000000    0.8649500000000000    0.3065000000000000 C
   0.3184000000000000    0.1353000000000000    0.4408400000000000 C
   0.2671200000000000    0.9754000000000000    0.3572450000000000 C
   0.2698800000000000    0.0404900000000000    0.3895500000000000 C
   0.3581750000000000    0.0265900000000000    0.3894600000000000 C
   0.3554050000000000    0.9615100000000000    0.3571400000000000 C
   0.3098400000000000    0.9353200000000000    0.3409000000000000 C
   0.3154350000000000    0.0664000000000000    0.4059250000000000 C
   0.1933650000000000    0.3643000000000000    0.9420999999999999 C
   0.1816450000000000    0.6312900000000000    0.8065500000000000 C
   0.2299750000000000    0.5406800000000000    0.8593649999999999 C
   0.2328300000000000    0.4765000000000000    0.8920300000000000 C
   0.1903850000000000    0.4331200000000000    0.9071850000000000 C
   0.1421600000000000    0.5189800000000000    0.8565650000000000 C
   0.1450200000000000    0.4548000000000000    0.8892300000000000 C
   0.1846100000000000    0.5624000000000000    0.8414300000000000 C
   0.1933800000000000    0.3630300000000000    0.5570200000000000 C
   0.1819650000000000    0.6332900000000000    0.6912300000000000 C
   0.1450350000000000    0.4564700000000000    0.6088600000000000 C
   0.1423000000000000    0.5216400000000000    0.6411000000000000 C
   0.1904550000000000    0.4327500000000000    0.5915650000000000 C
   0.2330750000000000    0.4752100000000000    0.6069000000000000 C
   0.2303400000000000    0.5403800000000000    0.6391800000000000 C
   0.1849200000000000    0.5639700000000000    0.6565300000000001 C
   0.3068600000000000    0.8649500000000000    0.8065000000000000 C
   0.3184000000000000    0.1353000000000000    0.9408400000000000 C
   0.2671200000000000    0.9754000000000000    0.8572450000000000 C
   0.2698800000000000    0.0404900000000000    0.8895500000000001 C
   0.3581750000000000    0.0265900000000000    0.8894599999999999 C
   0.3554050000000000    0.9615100000000000    0.8571400000000000 C
   0.3098400000000000    0.9353200000000000    0.8409000000000000 C
   0.3154350000000000    0.0664000000000000    0.9059250000000000 C
   0.1933650000000000    0.3643000000000000    0.4421000000000000 C
   0.1816450000000000    0.6312900000000000    0.3065500000000000 C
   0.2299750000000000    0.5406800000000000    0.3593650000000000 C
   0.2328300000000000    0.4765000000000000    0.3920300000000000 C
   0.1903850000000000    0.4331200000000000    0.4071850000000000 C
   0.1421600000000000    0.5189800000000000    0.3565650000000000 C
   0.1450200000000000    0.4548000000000000    0.3892300000000000 C
   0.1846100000000000    0.5624000000000000    0.3414300000000000 C
   0.1933800000000000    0.3630300000000000    0.0570200000000000 C
   0.1819650000000000    0.6332900000000000    0.1912300000000000 C
   0.1450350000000000    0.4564700000000000    0.1088600000000000 C
   0.1423000000000000    0.5216400000000000    0.1411000000000000 C
   0.1904550000000000    0.4327500000000000    0.0915650000000000 C
   0.2330750000000000    0.4752100000000000    0.1069000000000000 C
   0.2303400000000000    0.5403800000000000    0.1391800000000000 C
   0.1849200000000000    0.5639700000000000    0.1565300000000000 C
   0.9435100000000001    0.3666800000000000    0.9429350000000001 C
   0.9319400000000000    0.6337900000000000    0.8074300000000000 C
   0.8922800000000000    0.5241000000000000    0.8584149999999999 C
   0.8950650000000000    0.4598900000000000    0.8910750000000001 C
   0.9405250000000001    0.4362500000000000    0.9082950000000001 C
   0.9803600000000000    0.5422100000000000    0.8599049999999999 C
   0.9831350000000000    0.4779800000000000    0.8925500000000000 C
   0.9349050000000000    0.5655800000000000    0.8425750000000001 C
   0.9433450000000000    0.3606000000000000    0.5579000000000000 C
   0.9316750000000000    0.6307000000000000    0.6921750000000000 C
   0.9800050000000000    0.5386000000000000    0.6398800000000000 C
   0.9828450000000000    0.4734800000000000    0.6075800000000000 C
   0.8950800000000000    0.4512500000000000    0.6107500000000000 C
   0.8922350000000000    0.5163600000000000    0.6430850000000000 C
   0.9404000000000000    0.4294800000000000    0.5927950000000000 C
   0.9346600000000000    0.5606000000000000    0.6577750000000000 C
   0.2647750000000000    0.8436399999999999    0.2060150000000000 O
   0.3471700000000000    0.8269800000000000    0.2041600000000000 O
   0.3606850000000000    0.1492900000000000    0.0415200000000000 O
   0.5147300000000000    0.8436500000000000    0.7925400000000000 O
   0.5971500000000000    0.8273500000000000    0.7941500000000000 O
   0.6108000000000000    0.1527800000000000    0.9556450000000001 O
   0.5284150000000000    0.1685400000000000    0.9544000000000000 O
   0.5147300000000000    0.8436500000000000    0.2925400000000000 O
   0.5971500000000000    0.8273500000000000    0.2941500000000000 O
   0.6108000000000000    0.1527800000000000    0.4556450000000000 O
   0.5284150000000000    0.1685400000000000    0.4544000000000000 O
   0.4858800000000000    0.3452600000000000    0.9564250000000001 O
   0.4033100000000000    0.3328000000000000    0.9565350000000000 O
   0.3895750000000000    0.6544200000000000    0.7936449999999999 O
   0.4721550000000000    0.6670500000000000    0.7935050000000000 O
   0.4855650000000000    0.3414600000000000    0.5434150000000000 O
   0.4031700000000000    0.3253500000000000    0.5449200000000000 O
   0.3894450000000000    0.6504500000000000    0.7065100000000000 O
   0.4718350000000000    0.6664900000000000    0.7048850000000000 O
   0.7647750000000000    0.8436399999999999    0.7060150000000001 O
   0.8471700000000000    0.8269800000000000    0.7041600000000000 O
   0.8606849999999999    0.1492900000000000    0.5415200000000000 O
   0.7782899999999999    0.1653700000000000    0.5430300000000000 O
   0.7647750000000000    0.8436399999999999    0.2060150000000000 O
   0.8471700000000000    0.8269800000000000    0.2041600000000000 O
   0.8606849999999999    0.1492900000000000    0.0415200000000000 O
   0.7782899999999999    0.1653700000000000    0.0430300000000000 O