H6 O4
1.0
  30.7988451678968360    0.0000000000000000   -8.5065527873468181
  -7.1067490210459798   36.4850728033651421  -13.2805257759249642
   0.0000000000000000    0.0000000000000000   27.0899999999999999
H O
6 4
direct
   0.6149931507989504    0.1433984829114946    0.0281336850084052 H
   0.5579521527514906    0.2032290316811322    0.1224225958729858 H
   0.5800071609293220    0.1695055222244227    0.0715578732505688 H
   0.3850949675291740    0.1066253884003592    0.9718103309325163 H
   0.4420631192167276    0.0468507921319769    0.8773330592553579 H
   0.4200581463795594    0.0805134854743206    0.9282319558069217 H
   0.6187850000000000    0.1663700000000000    0.0585300000000000 O
   0.5852100000000000    0.2010250000000000    0.1132650000000000 O
   0.3812850000000000    0.0836600000000000    0.9413950000000000 O
   0.4148400000000000    0.0490600000000000    0.8865750000000000 O
