H2 O2
1.0
  30.7988451678968360    0.0000000000000000   -8.5065527873468181
  -7.1067490210459798   36.4850728033651421  -13.2805257759249642
   0.0000000000000000    0.0000000000000000   27.0899999999999999
H O
2 2
direct
   0.8476660546558551    0.0772340557110473    0.7937803215132865 H
   0.7892756838890267    0.0793213966052671    0.7999999917976837 H
   0.8357200000000000    0.0930550000000000    0.7746250000000000 O
   0.7936250000000000    0.0945950000000000    0.7791750000000000 O
