H3 O2
1.0
  13.1440000000000001    0.0000000000000000    0.0000000000000008
   0.0000000000000021   13.0129999999999999    0.0000000000000008
   0.0000000000000000    0.0000000000000000   23.5109999999999992
H O
3 2
direct
   0.6515060993451131   -0.1352661071655591   -0.0745707215701198 H
   0.3484939006548869   -0.1352661071655591   -0.0745707215701198 H
   0.4999999999999999   -0.1436393985826860   -0.0791868253079749 H
   0.5865800000000000   -0.1101600000000000   -0.0607300000000000 O
   0.4134200000000000   -0.1101600000000000   -0.0607300000000000 O
