H1 C5 N2 O4
1.0
  14.5299999911478164    0.0000000000000000    0.0005071926805261
   0.0002768170097412   15.8609999951686316    0.0002768266726450
   0.0000000000000000    0.0000000000000000   16.4110000000000014
H C N O
1 5 2 4
direct
   0.5495700000000000    0.5802600000000000    0.4796700000000000 H
   0.8270400000000000    0.4991700000000000    0.3793200000000000 C
   0.7557800000000000    0.5160400000000001    0.4420600000000000 C
   0.6194900000000000    0.5561900000000000    0.4810000000000000 C
   0.7491000000000000    0.5051600000000001    0.5271700000000000 C
   0.8094000000000000    0.4706000000000000    0.5920500000000000 C
   0.6726500000000000    0.5478499999999999    0.4151900000000000 N
   0.6620500000000000    0.5311900000000001    0.5502800000000000 N
   0.8011300000000000    0.5109100000000000    0.3055500000000000 O
  -0.0917700000000000    0.4743700000000000    0.3958400000000000 O
   0.7705700000000000    0.4586700000000000    0.6610900000000000 O
  -0.1058400000000000    0.4524100000000000    0.5826400000000000 O
