H6 O4
1.0
  29.2959999598416765    0.0000000000000000    0.0015339349722897
  -6.9494501328747100   13.9408777182440922    0.0005437398750554
   0.0000000000000000    0.0000000000000000   34.0420000000000016
H O
6 4
direct
   0.6578429065851719    0.5423934344121574    0.0143555637966512 H
   0.6590126454143735    0.3587724096701629    0.9803374834776082 H
   0.6124864014388602    0.2477630329702099    0.9899412343341607 H
   0.3369121237050461    0.9530977060803572    0.0189502223286653 H
   0.3956464722960946    0.2499402125412172    0.9922904012118656 H
   0.3449941395451553    0.1431617398429790    0.9837925423766941 H
   0.6384600000000000    0.5664600000000000    0.0305700000000000 O
   0.6445799999999999    0.2892300000000000    0.9768600000000001 O
   0.3542350000000000    0.9247400000000000    0.0351700000000000 O
   0.3626400000000000    0.2125700000000000    0.9796250000000000 O
