H8 C13 N2 O6
1.0
  29.2959999598416765    0.0000000000000000    0.0015339349722897
  -6.9494501328747100   13.9408777182440922    0.0005437398750554
   0.0000000000000000    0.0000000000000000   34.0420000000000016
H C N O
8 13 2 6
direct
   0.4773600000000000    0.1816600000000000    0.0781200000000000 H
   0.4240650000000000    0.0830400000000000    0.0416250000000000 H
   0.5296600000000000    0.2987000000000000    0.0789100000000000 H
   0.5741750000000000    0.4032000000000000    0.0379500000000000 H
   0.4261600000000000    0.3413600000000000    0.9924450000000000 H
   0.3010450000000000    0.0781800000000000    0.9717850000000000 H
   0.5861100000000000    0.1550200000000000    0.9910000000000000 H
   0.7006150000000000    0.4279900000000000    0.9672499999999999 H
   0.4315700000000000    0.2211400000000000    0.0204200000000000 C
   0.4074600000000000    0.1217300000000000    0.0250150000000000 C
   0.3596850000000000    0.0689700000000000    0.0077900000000000 C
   0.3317000000000000    0.9616300000000000    0.0140700000000000 C
   0.5738250000000000    0.2695600000000000    0.0178250000000000 C
   0.5034400000000000    0.2412100000000000    0.0598700000000000 C
   0.5934350000000000    0.3689100000000000    0.0216000000000000 C
   0.6399250000000000    0.4274900000000000    0.0037450000000000 C
   0.6637250000000000    0.5350900000000000    0.0094350000000000 C
   0.4079850000000000    0.2639100000000000    0.9970250000000001 C
   0.3383150000000000    0.1168900000000000    0.9853700000000001 C
   0.6004800000000000    0.2322500000000000    0.9948350000000000 C
   0.6644600000000001    0.3850200000000000    0.9816500000000000 C
   0.3626400000000000    0.2125700000000000    0.9796250000000000 N
   0.6445799999999999    0.2892300000000000    0.9768600000000001 N
   0.3542350000000000    0.9247400000000000    0.0351700000000000 O
   0.4770850000000000    0.2824300000000000    0.0373750000000000 O
   0.5296550000000000    0.2037200000000000    0.0352350000000000 O
   0.6384600000000000    0.5664600000000000    0.0305700000000000 O
   0.2880850000000000    0.9177000000000000    0.9980300000000000 O
   0.7068700000000000    0.5840300000000000    0.9935499999999999 O
