Cu16 H92 C84 I16 N28 O4
1.0
  11.7348634345372780    0.0000000000000000    6.0856339992444477
   5.8423127883036399   12.7277984888261759    3.0363509203413623
   0.0000000000000000    0.0000000000000000   28.6739999999999995
Cu H C I N O
16 92 84 16 28 4
direct
   0.1429700000000000    0.2146100000000000    0.8749800000000000 Cu
   0.8569700000000000    0.7854100000000001    0.1250500000000000 Cu
   0.1429500000000000    0.7500300000000000    0.1072250000000000 Cu
   0.8570100000000000    0.2500100000000000    0.8927750000000000 Cu
   0.3930600000000000    0.7144900000000000    0.6249350000000000 Cu
   0.3929300000000000    0.2497800000000000    0.8573200000000001 Cu
   0.6070800000000000    0.7501900000000000    0.6426499999999999 Cu
   0.6069700000000000    0.2855100000000000    0.8750000000000000 Cu
   0.3930600000000000    0.7144900000000000    0.1249350000000000 Cu
   0.3929300000000000    0.2497800000000000    0.3573200000000000 Cu
   0.6070800000000000    0.7501900000000000    0.1426500000000000 Cu
   0.6069700000000000    0.2855100000000000    0.3750000000000000 Cu
   0.1429700000000000    0.2146100000000000    0.3749800000000000 Cu
   0.8569700000000000    0.7854100000000001    0.6250500000000000 Cu
   0.1429500000000000    0.7500300000000000    0.6072250000000000 Cu
   0.8570100000000000    0.2500100000000000    0.3927750000000000 Cu
   0.6381100000000000    0.0163200000000000    0.0083250000000000 H
   0.7962900000000001    0.9387100000000000    0.9694499999999999 H
   0.3618600000000000    0.9836800000000000    0.9916750000000000 H
   0.2036700000000000    0.0612800000000000    0.0305350000000000 H
   0.2504900000000000    0.1178400000000000    0.9383500000000000 H
   0.3140500000000000    0.9880000000000000    0.9172050000000000 H
   0.7494600000000000    0.8821800000000000    0.0616450000000000 H
   0.6859000000000000    0.0120200000000000    0.0828000000000000 H
   0.7495600000000000    0.1230500000000000    0.9411950000000000 H
   0.6859400000000000    0.1653800000000000    0.0061150000000000 H
   0.2504300000000000    0.8769200000000000    0.0588000000000000 H
   0.3140300000000000    0.8346200000000000    0.9938700000000000 H
   0.1549000000000000    0.5161000000000000    0.4916350000000000 H
   0.2354900000000000    0.4385000000000000    0.5305200000000000 H
   0.8450800000000001    0.4839200000000000    0.5083650000000000 H
   0.7645000000000000    0.5615100000000000    0.4694750000000000 H
   0.6272500000000000    0.6179800000000000    0.5616000000000000 H
   0.6486100000000000    0.4881000000000000    0.5828250000000000 H
   0.3727400000000000    0.3820500000000000    0.4383750000000000 H
   0.3513600000000000    0.5119300000000000    0.4171700000000000 H
   0.8677800000000000    0.3771500000000000    0.4412450000000000 H
   0.8017900000000000    0.3347600000000000    0.5061800000000000 H
   0.1322000000000000    0.6228600000000000    0.5587550000000000 H
   0.1981700000000000    0.6652600000000000    0.4938000000000000 H
   0.5184948045409011    0.6341595170720784    0.6868306981640738 H
   0.4869194876853313    0.6360988498034221    0.6791806546194475 H
   0.5773891745666405    0.5983471078755540    0.7123064354255706 H
   0.4226644209257950    0.5752359534954855    0.7007627186959503 H
   0.8451000000000000    0.0167700000000000    0.7419450000000000 H
   0.7643900000000000    0.9389900000000000    0.7807550000000000 H
   0.1548600000000000    0.9832000000000000    0.7580850000000000 H
   0.2355800000000000    0.0609700000000000    0.7192650000000000 H
   0.3727300000000000    0.8767100000000000    0.6910450000000000 H
   0.3511700000000000    0.8343200000000000    0.7559899999999999 H
   0.1321700000000000    0.1175000000000000    0.8114350000000000 H
   0.1979300000000000    0.9876700000000000    0.8326549999999999 H
   0.8677900000000000    0.8825000000000000    0.6885749999999999 H
   0.8020000000000000    0.0123500000000000    0.6673750000000001 H
   0.6272300000000000    0.1232500000000000    0.8089900000000000 H
   0.6487900000000000    0.1656600000000000    0.7440500000000000 H
   0.4814835493256320    0.3658386595072202    0.8132593156795768 H
   0.5129710270016026    0.3640175788303496    0.8208671953822495 H
   0.4226154582740944    0.4016340049533039    0.7876923166275176 H
   0.5773316811237199    0.4247093582136549    0.7991279783548231 H
   0.1549000000000000    0.5161000000000000    0.9916350000000000 H
   0.2354900000000000    0.4385000000000000    0.0305200000000000 H
   0.8450800000000001    0.4839200000000000    0.0083650000000000 H
   0.7645000000000000    0.5615100000000000    0.9694750000000000 H
   0.6272500000000000    0.6179800000000000    0.0616000000000000 H
   0.6486100000000000    0.4881000000000000    0.0828250000000000 H
   0.3727400000000000    0.3820500000000000    0.9383750000000000 H
   0.3513600000000000    0.5119300000000000    0.9171700000000000 H
   0.8677800000000000    0.3771500000000000    0.9412450000000000 H
   0.8017900000000000    0.3347600000000000    0.0061800000000000 H
   0.1322000000000000    0.6228600000000000    0.0587550000000000 H
   0.1981700000000000    0.6652600000000000    0.9938000000000000 H
   0.8451000000000000    0.0167700000000000    0.2419450000000000 H
   0.7643900000000000    0.9389900000000000    0.2807550000000000 H
   0.1548600000000000    0.9832000000000000    0.2580850000000000 H
   0.2355800000000000    0.0609700000000000    0.2192650000000000 H
   0.3727300000000000    0.8767100000000000    0.1910450000000000 H
   0.3511700000000000    0.8343200000000000    0.2559900000000000 H
   0.1321700000000000    0.1175000000000000    0.3114350000000000 H
   0.1979300000000000    0.9876700000000000    0.3326550000000000 H
   0.8677900000000000    0.8825000000000000    0.1885750000000000 H
   0.8020000000000000    0.0123500000000000    0.1673750000000000 H
   0.6272300000000000    0.1232500000000000    0.3089900000000000 H
   0.6487900000000000    0.1656600000000000    0.2440500000000000 H
   0.1710000000000000    0.4833500000000000    0.2418450000000000 H
   0.1742800000000000    0.5610400000000000    0.2806600000000000 H
   0.8290100000000000    0.5166300000000000    0.2581550000000000 H
   0.8257500000000000    0.4389300000000000    0.2193350000000000 H
   0.2549200000000000    0.3767100000000000    0.3089250000000000 H
   0.3630200000000000    0.3343900000000000    0.2439950000000000 H
   0.7450800000000000    0.6232700000000000    0.1910750000000000 H
   0.6369700000000000    0.6655799999999999    0.2560050000000000 H
   0.7450200000000000    0.3823300000000000    0.3115050000000000 H
   0.6369500000000000    0.5121700000000000    0.3325000000000000 H
   0.2550000000000000    0.6176400000000000    0.1884900000000000 H
   0.3630500000000000    0.4878000000000000    0.1673000000000000 H
   0.6381100000000000    0.0163200000000000    0.5083250000000000 H
   0.7962900000000001    0.9387100000000000    0.4694500000000000 H
   0.3618600000000000    0.9836800000000000    0.4916750000000000 H
   0.2036700000000000    0.0612800000000000    0.5305350000000000 H
   0.7494600000000000    0.8821800000000000    0.5616449999999999 H
   0.6859000000000000    0.0120200000000000    0.5828000000000000 H
   0.2504900000000000    0.1178400000000000    0.4383500000000000 H
   0.3140500000000000    0.9880000000000000    0.4172050000000000 H
   0.7495600000000000    0.1230500000000000    0.4411950000000000 H
   0.6859400000000000    0.1653800000000000    0.5061150000000000 H
   0.2504300000000000    0.8769200000000000    0.5588000000000000 H
   0.3140300000000000    0.8346200000000000    0.4938700000000000 H
   0.7344700000000000    0.9998500000000000    0.0000500000000000 C
   0.2654900000000000    0.0000000000000000    0.9999549999999999 C
   0.2421300000000000    0.0425700000000000    0.9504349999999999 C
   0.7578300000000000    0.9574400000000000    0.0495700000000000 C
   0.7578500000000000    0.0989500000000000    0.9788200000000000 C
   0.2421200000000000    0.9010400000000000    0.0211500000000000 C
   0.1157100000000000    0.0562700000000000    0.9586200000000000 C
   0.8842500000000000    0.0826900000000000    0.9719300000000000 C
   0.1157200000000000    0.9173100000000000    0.0280750000000000 C
   0.8842500000000000    0.9437400000000000    0.0413850000000000 C
   0.9410600000000000    0.0065200000000000    0.0032900000000000 C
   0.0588900000000000    0.9935000000000000    0.9967250000000001 C
   0.2347000000000000    0.4996900000000000    0.4999250000000000 C
   0.7652800000000000    0.5003300000000001    0.5000700000000000 C
   0.6430399999999999    0.5426900000000000    0.5495750000000000 C
   0.3569500000000000    0.4573400000000000    0.4504200000000000 C
   0.7843500000000000    0.4012200000000000    0.4788600000000000 C
   0.2156300000000000    0.5988000000000000    0.5211400000000000 C
   0.5330200000000000    0.5562900000000000    0.5413750000000001 C
   0.3282200000000000    0.5826300000000000    0.5280350000000000 C
   0.4669700000000000    0.4437300000000000    0.4586150000000000 C
   0.6717600000000000    0.4174000000000000    0.4719600000000000 C
   0.4476600000000000    0.5065300000000000    0.4967000000000000 C
   0.5523200000000000    0.4935100000000000    0.5032850000000000 C
   0.7652800000000000    0.0001600000000000    0.7501599999999999 C
   0.2346800000000000    0.9998200000000000    0.7498650000000000 C
   0.3568700000000000    0.9008200000000000    0.7286900000000001 C
   0.2155300000000000    0.0422600000000000    0.7994150000000000 C
   0.7844300000000000    0.9577300000000000    0.7006050000000000 C
   0.6430800000000000    0.0991600000000000    0.7713449999999999 C
   0.5330400000000000    0.0827400000000000    0.7781549999999999 C
   0.3281700000000000    0.0560600000000000    0.7913250000000001 C
   0.4669300000000000    0.9172300000000000    0.7218750000000000 C
   0.6717900000000000    0.9439300000000000    0.7087000000000000 C
   0.4476400000000000    0.9933900000000000    0.7532500000000000 C
   0.5523100000000000    0.0065700000000000    0.7467600000000000 C
   0.2347000000000000    0.4996900000000000    0.9999250000000000 C
   0.7652800000000000    0.5003300000000001    0.0000700000000000 C
   0.6430399999999999    0.5426900000000000    0.0495750000000000 C
   0.3569500000000000    0.4573400000000000    0.9504200000000000 C
   0.7843500000000000    0.4012200000000000    0.9788600000000001 C
   0.2156300000000000    0.5988000000000000    0.0211400000000000 C
   0.5330200000000000    0.5562900000000000    0.0413750000000000 C
   0.3282200000000000    0.5826300000000000    0.0280350000000000 C
   0.4669700000000000    0.4437300000000000    0.9586150000000000 C
   0.6717600000000000    0.4174000000000000    0.9719599999999999 C
   0.5523200000000000    0.4935100000000000    0.0032850000000000 C
   0.4476600000000000    0.5065300000000000    0.9966999999999999 C
   0.7652800000000000    0.0001600000000000    0.2501600000000000 C
   0.2346800000000000    0.9998200000000000    0.2498650000000000 C
   0.3568700000000000    0.9008200000000000    0.2286900000000000 C
   0.2155300000000000    0.0422600000000000    0.2994150000000000 C
   0.7844300000000000    0.9577300000000000    0.2006050000000000 C
   0.6430800000000000    0.0991600000000000    0.2713450000000000 C
   0.5330400000000000    0.0827400000000000    0.2781550000000000 C
   0.3281700000000000    0.0560600000000000    0.2913250000000000 C
   0.4669300000000000    0.9172300000000000    0.2218750000000000 C
   0.6717900000000000    0.9439300000000000    0.2087000000000000 C
   0.4476400000000000    0.9933900000000000    0.2532500000000000 C
   0.5523100000000000    0.0065700000000000    0.2467600000000000 C
   0.2344400000000000    0.4998900000000000    0.2500750000000000 C
   0.7655800000000000    0.5000800000000000    0.2499200000000000 C
   0.3142700000000000    0.4008400000000000    0.2712850000000000 C
   0.6857400000000000    0.5991300000000001    0.2287150000000000 C
   0.6857100000000000    0.4576000000000000    0.2994500000000000 C
   0.3143000000000000    0.5423700000000000    0.2005000000000000 C
   0.5892500000000001    0.4438500000000000    0.2913450000000000 C
   0.4107200000000000    0.4172000000000000    0.2781200000000000 C
   0.4107800000000000    0.5561199999999999    0.2085000000000000 C
   0.5893100000000000    0.5827599999999999    0.2218750000000000 C
   0.4542000000000000    0.4933800000000000    0.2467200000000000 C
   0.5458499999999999    0.5065600000000000    0.2532600000000000 C
   0.7344700000000000    0.9998500000000000    0.5000500000000000 C
   0.2654900000000000    0.0000000000000000    0.4999550000000000 C
   0.7578300000000000    0.9574400000000000    0.5495700000000000 C
   0.2421300000000000    0.0425700000000000    0.4504350000000000 C
   0.7578500000000000    0.0989500000000000    0.4788200000000000 C
   0.2421200000000000    0.9010400000000000    0.5211500000000000 C
   0.1157100000000000    0.0562700000000000    0.4586200000000000 C
   0.8842500000000000    0.0826900000000000    0.4719300000000000 C
   0.1157200000000000    0.9173100000000000    0.5280750000000000 C
   0.8842500000000000    0.9437400000000000    0.5413850000000000 C
   0.0588900000000000    0.9935000000000000    0.4967250000000000 C
   0.9410600000000000    0.0065200000000000    0.5032900000000000 C
   0.1527200000000000    0.8476900000000001    0.1738300000000000 I
   0.1527200000000000    0.8476900000000001    0.6738300000000000 I
   0.1525700000000000    0.3477900000000000    0.4239150000000000 I
   0.1525700000000000    0.3477900000000000    0.9239150000000000 I
   0.8472499999999999    0.1523200000000000    0.8261700000000001 I
   0.8472499999999999    0.1523200000000000    0.3261700000000000 I
   0.0000700000000000    0.3476100000000000    0.3262150000000000 I
   0.0000700000000000    0.3476100000000000    0.8262149999999999 I
   0.9999100000000000    0.6524000000000000    0.6738000000000000 I
   0.9999100000000000    0.6524000000000000    0.1738000000000000 I
   0.8473800000000000    0.6522200000000000    0.5760950000000000 I
   0.8473800000000000    0.6522200000000000    0.0760950000000000 I
   0.5001000000000000    0.8480300000000000    0.5759800000000000 I
   0.5001000000000000    0.8480300000000000    0.0759800000000000 I
   0.4998600000000000    0.1519700000000000    0.4240350000000000 I
   0.4998600000000000    0.1519700000000000    0.9240349999999999 I
   0.0585800000000000    0.1270300000000000    0.9297800000000001 N
   0.9414400000000001    0.1404100000000000    0.9365049999999999 N
   0.0585300000000000    0.8595900000000000    0.0634900000000000 N
   0.9414000000000000    0.8729500000000000    0.0702200000000000 N
   0.4182800000000000    0.6270600000000000    0.5701550000000000 N
   0.3146200000000000    0.6403900000000000    0.5634350000000000 N
   0.5817000000000000    0.3729300000000000    0.4298550000000000 N
   0.6853500000000000    0.3596000000000000    0.4365850000000000 N
   0.4182800000000000    0.1402800000000000    0.8135450000000000 N
   0.3145800000000000    0.1268900000000000    0.8201849999999999 N
   0.5816800000000000    0.8597200000000000    0.6864700000000000 N
   0.6853700000000000    0.8731400000000000    0.6798200000000000 N
   0.4182800000000000    0.6270600000000000    0.0701550000000000 N
   0.3146200000000000    0.6403900000000000    0.0634350000000000 N
   0.5817000000000000    0.3729300000000000    0.9298550000000000 N
   0.6853500000000000    0.3596000000000000    0.9365850000000000 N
   0.4182800000000000    0.1402800000000000    0.3135450000000000 N
   0.3145800000000000    0.1268900000000000    0.3201850000000000 N
   0.5816800000000000    0.8597200000000000    0.1864700000000000 N
   0.6853700000000000    0.8731400000000000    0.1798200000000000 N
   0.5451400000000000    0.3730100000000000    0.3201500000000000 N
   0.4547300000000000    0.3596100000000000    0.3135350000000000 N
   0.4548400000000000    0.6269900000000000    0.1798150000000000 N
   0.5452200000000000    0.6404100000000000    0.1864850000000000 N
   0.0585800000000000    0.1270300000000000    0.4297800000000000 N
   0.9414400000000001    0.1404100000000000    0.4365050000000000 N
   0.0585300000000000    0.8595900000000000    0.5634900000000000 N
   0.9414000000000000    0.8729500000000000    0.5702199999999999 N
   0.5452200000000000    0.6404100000000000    0.6864850000000000 O
   0.4548400000000000    0.6269900000000000    0.6798150000000001 O
   0.4547300000000000    0.3596100000000000    0.8135350000000000 O
   0.5451400000000000    0.3730100000000000    0.8201499999999999 O
