H16 C18 N6
1.0
  22.4290231979429286    0.0000000000000000   -2.0443586735546218
   0.0125746956193358   32.6159969748988345    0.0062618224386682
   0.0000000000000000    0.0000000000000000   29.0219999999999985
H C N
16 18 6
direct
   0.6325200000000000    0.5513300000000000    0.8679000000000000 H
   0.5239500000000000    0.6561600000000000    0.8541200000000000 H
   0.5361900000000001    0.6704250000000000    0.7668250000000000 H
   0.5698000000000000    0.6310100000000000    0.7362250000000000 H
   0.6693300000000000    0.6723200000000000    0.8324199999999999 H
   0.7507800000000000    0.7198050000000000    0.8242900000000000 H
   0.6856800000000000    0.7400850000000000    0.6813000000000000 H
   0.6047900000000000    0.6923800000000000    0.6898500000000000 H
   0.8674700000000000    0.9486850000000000    0.6320550000000000 H
   0.9760300000000000    0.8438500000000000    0.6458500000000000 H
   0.9638099999999999    0.8296100000000000    0.7331600000000000 H
   0.9301800000000000    0.8690200000000000    0.7637499999999999 H
   0.8306000000000000    0.8277600000000001    0.6675850000000000 H
   0.7491500000000000    0.7802750000000001    0.6757200000000000 H
   0.8144100000000000    0.7598650000000000    0.8186500000000000 H
   0.8952800000000000    0.8075850000000000    0.8100849999999999 H
   0.6725500000000000    0.6871750000000000    0.7990999999999999 C
   0.7191000000000000    0.7145350000000000    0.7942500000000000 C
   0.6103400000000000    0.5783199999999999    0.8529700000000000 C
   0.5543500000000000    0.6316500000000000    0.8469599999999999 C
   0.5766800000000000    0.6516800000000000    0.7661200000000000 C
   0.6303400000000000    0.6789499999999999    0.7619750000000001 C
   0.7255100000000000    0.7350550000000000    0.7523200000000000 C
   0.6832100000000000    0.7257500000000000    0.7149500000000000 C
   0.6368400000000000    0.6982900000000000    0.7196350000000000 C
   0.8896400000000000    0.9217000000000000    0.6470000000000000 C
   0.9456300000000000    0.8683700000000000    0.6530100000000000 C
   0.9233200000000000    0.8483450000000000    0.7338500000000000 C
   0.8696700000000001    0.8210700000000000    0.7380000000000000 C
   0.8274200000000000    0.8128750000000000    0.7008750000000000 C
   0.7808700000000000    0.7855150000000000    0.7057100000000001 C
   0.7745000000000000    0.7649600000000000    0.7476600000000000 C
   0.8168400000000000    0.7742350000000000    0.7850150000000000 C
   0.8632000000000000    0.8016950000000000    0.7803300000000000 C
   0.5722000000000000    0.6015400000000000    0.8764950000000000 N
   0.6168100000000000    0.5922350000000000    0.8108450000000000 N
   0.5806700000000000    0.6262950000000000    0.8075500000000000 N
   0.9277800000000000    0.8984750000000000    0.6234700000000000 N
   0.8831800000000000    0.9077850000000001    0.6891250000000000 N
   0.9193300000000000    0.8737250000000000    0.6923800000000000 N
