H4 O4
1.0
  22.4290231979429286    0.0000000000000000   -2.0443586735546218
   0.0125746956193358   32.6159969748988345    0.0062618224386682
   0.0000000000000000    0.0000000000000000   29.0219999999999985
H O
4 4
direct
   0.8672037614061519    0.4596493245442445    0.0375509654582949 H
   0.7394100255593409    0.4123078111997912    0.0367826024610108 H
   0.6327618522574029    0.5403646029792730    0.9624336510605657 H
   0.7605756195236862    0.5877202874829183    0.9632328300832771 H
   0.8796000000000000    0.4340600000000000    0.0236550000000000 O
   0.7128400000000000    0.3919900000000000    0.0210050000000000 O
   0.6203600000000000    0.5659500000000000    0.9763350000000000 O
   0.7871600000000000    0.6080300000000000    0.9790099999999999 O
