H4 O2
1.0
  22.4290231979429286    0.0000000000000000   -2.0443586735546218
   0.0125746956193358   32.6159969748988345    0.0062618224386682
   0.0000000000000000    0.0000000000000000   29.0219999999999985
H O
4 2
direct
   0.5993928906315337    0.5849847058084895    0.8597222482405131 H
   0.5591720853643288    0.6235159389176503    0.8549387278003054 H
   0.9408082119311507    0.8765022089530929    0.6450304134703748 H
   0.9005904853291758    0.9150318033096457    0.6402442338805583 H
   0.5722000000000000    0.6015400000000000    0.8764950000000000 O
   0.9277800000000000    0.8984750000000000    0.6234700000000000 O
