H8 C10 O4
1.0
  12.9172795861919685    0.0000000000000000   -1.4642022032998880
  -0.0460895389794587   18.3428535775433588   -0.0569858508888306
   0.0000000000000000    0.0000000000000000   18.7510000000000012
H C O
8 10 4
direct
   0.9202399999999999    0.2180300000000000    0.2299700000000000 H
   0.0199600000000000    0.2701300000000000    0.1971200000000000 H
   0.9205500000000000    0.1881000000000000    0.3523900000000000 H
   0.9949800000000000    0.2022600000000000    0.4794600000000000 H
   0.1720600000000000    0.2565900000000000    0.5079800000000000 H
   0.2697300000000000    0.2965000000000000    0.4085600000000000 H
   0.2958700000000000    0.2925900000000000    0.2864000000000000 H
   0.2028800000000000    0.2568700000000000    0.2181900000000000 H
   0.0515000000000000    0.2351200000000000    0.3082800000000000 C
   0.0444300000000000    0.1543000000000000    0.1977300000000000 C
   0.0047600000000000    0.2239100000000000    0.2314400000000000 C
   0.9970300000000000    0.2126600000000000    0.3649100000000000 C
   0.0389600000000000    0.2202000000000000    0.4364500000000000 C
   0.1376800000000000    0.2505000000000000    0.4524400000000000 C
   0.1927300000000000    0.2727100000000000    0.3965200000000000 C
   0.1514300000000000    0.2654900000000000    0.3244200000000000 C
   0.2131300000000000    0.2920700000000000    0.2658500000000000 C
   0.1849600000000000    0.3704100000000000    0.2418700000000000 C
   0.0757600000000000    0.1558600000000000    0.1374000000000000 O
   0.0404200000000000    0.0965900000000000    0.2377000000000000 O
   0.1598400000000000    0.3846500000000000    0.1775100000000000 O
   0.1915600000000000    0.4173000000000000    0.2946700000000000 O
