H4 C6 N1 O2
1.0
  13.8668667786342432    0.0000000000000000    3.2075371772763566
   3.4508664269026497   15.2963013719024357    0.7776150999124370
   0.0000000000000000    0.0000000000000000   31.3919999999999995
H C N O
4 6 1 2
direct
   0.8173000000000000    0.7536400000000000    0.4388250000000000 H
   0.7836800000000000    0.7396000000000000    0.5791050000000000 H
   0.8926300000000000    0.7457100000000000    0.5036100000000000 H
   0.5384200000000000    0.7497400000000000    0.5267500000000001 H
   0.7722800000000000    0.7516500000000000    0.4717450000000000 C
   0.6713300000000000    0.7536100000000000    0.4780250000000000 C
   0.6198800000000000    0.7601700000000000    0.4408300000000000 C
   0.7548200000000000    0.7425300000000000    0.5496200000000000 C
   0.8142900000000000    0.7464499999999999    0.5081450000000000 C
   0.6171000000000000    0.7485800000000000    0.5207400000000000 C
   0.6574700000000000    0.7427500000000000    0.5559150000000000 N
   0.6706900000000000    0.7704000000000000    0.4019600000000000 O
   0.5306900000000000    0.7553400000000000    0.4482100000000000 O
