Ga24 P23 O99
1.0
   9.0754999322683929    0.0000000000000000    0.0011087814910966
   3.0919927035524939    8.6005837749189329    0.0003190287339070
   0.0000000000000000    0.0000000000000000   37.9780000000000015
Ga P O
24 23 99
direct
   0.0368800000000000    0.2109200000000000    0.0917250000000000 Ga
   0.5181500000000000    0.2996700000000000    0.0886100000000000 Ga
   0.3614300000000000    0.1516600000000000    0.4551700000000000 Ga
   0.4694700000000000    0.2890700000000000    0.3417450000000000 Ga
   0.9881700000000000    0.2000800000000000    0.3382650000000000 Ga
   0.8614100000000000    0.6515200000000000    0.2947750000000000 Ga
   0.9694500000000000    0.7889000000000000    0.4082300000000000 Ga
   0.4880900000000000    0.7002800000000000    0.4113850000000000 Ga
   0.6448400000000000    0.8483100000000000    0.0447900000000000 Ga
   0.5368300000000000    0.7110300000000001    0.1582650000000000 Ga
   0.0179800000000000    0.8000300000000000    0.1616950000000000 Ga
   0.1448800000000000    0.3484400000000000    0.2052100000000000 Ga
   0.0368800000000000    0.2109200000000000    0.5917250000000001 Ga
   0.5181500000000000    0.2996700000000000    0.5886100000000000 Ga
   0.3614300000000000    0.1516600000000000    0.9551700000000001 Ga
   0.4694700000000000    0.2890700000000000    0.8417450000000000 Ga
   0.9881700000000000    0.2000800000000000    0.8382650000000000 Ga
   0.8614100000000000    0.6515200000000000    0.7947750000000000 Ga
   0.9694500000000000    0.7889000000000000    0.9082300000000000 Ga
   0.4880900000000000    0.7002800000000000    0.9113850000000000 Ga
   0.6448400000000000    0.8483100000000000    0.5447900000000000 Ga
   0.5368300000000000    0.7110300000000001    0.6582650000000000 Ga
   0.0179800000000000    0.8000300000000000    0.6616950000000000 Ga
   0.1448800000000000    0.3484400000000000    0.7052100000000000 Ga
   0.3512600000000000    0.1220900000000000    0.0413800000000000 P
   0.3229800000000000    0.5003900000000000    0.1501600000000000 P
   0.2251200000000000    0.0141100000000000    0.1758600000000000 P
   0.1553600000000000    0.3783600000000000    0.2913500000000000 P
   0.1832600000000000    0.9998200000000000    0.4000000000000000 P
   0.2807000000000000    0.4854700000000000    0.4255050000000000 P
   0.6550200000000000    0.8778500000000000    0.4585900000000000 P
   0.6833100000000000    0.4997300000000000    0.3498350000000000 P
   0.7810600000000000    0.9859300000000000    0.3241250000000000 P
   0.8512300000000000    0.6220800000000000    0.2085900000000000 P
   0.8228900000000000    0.0001200000000000    0.1000100000000000 P
   0.7255800000000000    0.5145400000000000    0.0744850000000000 P
   0.3512600000000000    0.1220900000000000    0.5413800000000000 P
   0.3229800000000000    0.5003900000000000    0.6501600000000000 P
   0.1553600000000000    0.3783600000000000    0.7913500000000000 P
   0.1832600000000000    0.9998200000000000    0.9000000000000000 P
   0.2807000000000000    0.4854700000000000    0.9255050000000000 P
   0.6550200000000000    0.8778500000000000    0.9585900000000001 P
   0.6833100000000000    0.4997300000000000    0.8498350000000000 P
   0.7810600000000000    0.9859300000000000    0.8241250000000000 P
   0.8512300000000000    0.6220800000000000    0.7085900000000001 P
   0.8228900000000000    0.0001200000000000    0.6000100000000000 P
   0.7255800000000000    0.5145400000000000    0.5744850000000000 P
   0.0806300000000000    0.9637400000000000    0.1772000000000000 O
   0.2114900000000000    0.1321200000000000    0.2052200000000000 O
   0.3298100000000000    0.1076100000000000    0.0000000000000000 O
   0.2873600000000000    0.4244500000000000    0.1837300000000000 O
   0.1898300000000000    0.1879100000000000    0.0585900000000000 O
   0.4390500000000000    0.9573800000000000    0.0572400000000000 O
   0.2417000000000000    0.0960300000000000    0.1383750000000000 O
   0.4748600000000000    0.5374100000000001    0.1574450000000000 O
   0.3800200000000000    0.8801600000000001    0.1776100000000000 O
   0.3512000000000000    0.3858700000000000    0.1187200000000000 O
   0.1854000000000000    0.6500800000000000    0.1399200000000000 O
   0.4495400000000000    0.2306700000000000    0.0479750000000000 O
   0.1014000000000000    0.2433900000000000    0.1370050000000000 O
   0.4253500000000000    0.5355799999999999    0.4260600000000000 O
   0.2946900000000000    0.3679700000000000    0.4552200000000000 O
   0.1769400000000000    0.3927600000000000    0.2517000000000000 O
   0.2188200000000000    0.0758200000000000    0.4336900000000000 O
   0.3167500000000000    0.3124900000000000    0.3085700000000000 O
   0.0671400000000000    0.5426700000000000    0.3072150000000000 O
   0.2645000000000000    0.4041000000000000    0.3883800000000000 O
   0.0317100000000000    0.9623600000000000    0.4073850000000000 O
   0.1259100000000000    0.6194800000000000    0.4275350000000000 O
   0.1546900000000000    0.1140200000000000    0.3686550000000000 O
   0.3211000000000000    0.8506700000000000    0.3894850000000000 O
   0.0571200000000000    0.2698000000000000    0.2979100000000000 O
   0.4046600000000000    0.2566200000000000    0.3870100000000000 O
   0.9255100000000001    0.0363800000000000    0.3227800000000000 O
   0.7939600000000000    0.8677800000000000    0.2946750000000000 O
   0.6766500000000000    0.8922600000000001    0.4982450000000000 O
   0.7189300000000000    0.5755000000000000    0.3162400000000000 O
   0.8163899999999999    0.8120200000000000    0.4413400000000000 O
   0.5672500000000000    0.0426000000000000    0.4427350000000000 O
   0.7663700000000000    0.9055800000000001    0.3614950000000000 O
   0.5314500000000000    0.4626700000000000    0.3425700000000000 O
   0.6261300000000000    0.1198600000000000    0.3223900000000000 O
   0.6550500000000000    0.6144700000000000    0.3812400000000000 O
   0.8209100000000000    0.3501000000000000    0.3601000000000000 O
   0.5567000000000000    0.7692800000000000    0.4520200000000000 O
   0.9056000000000000    0.7572800000000000    0.3628350000000000 O
   0.5810600000000000    0.4642300000000000    0.0739200000000000 O
   0.7115400000000000    0.6320100000000000    0.0447700000000000 O
   0.8297700000000000    0.6074700000000000    0.2482350000000000 O
   0.7874200000000000    0.9242600000000000    0.0662450000000000 O
   0.6898100000000000    0.6879600000000000    0.1913850000000000 O
   0.9393800000000000    0.4578000000000000    0.1927050000000000 O
   0.7416199999999999    0.5960000000000000    0.1116100000000000 O
   0.9743800000000000    0.0376900000000000    0.0926200000000000 O
   0.8804999999999999    0.3806800000000000    0.0724700000000000 O
   0.8511400000000000    0.8858400000000000    0.1312700000000000 O
   0.6850000000000001    0.1492000000000000    0.1105500000000000 O
   0.9495200000000000    0.7306800000000000    0.2020150000000000 O
   0.6013400000000000    0.7433900000000000    0.1129700000000000 O
   0.3298100000000000    0.1076100000000000    0.5000000000000000 O
   0.2873600000000000    0.4244500000000000    0.6837299999999999 O
   0.1898300000000000    0.1879100000000000    0.5585900000000000 O
   0.4390500000000000    0.9573800000000000    0.5572400000000000 O
   0.4748600000000000    0.5374100000000001    0.6574450000000001 O
   0.3512000000000000    0.3858700000000000    0.6187200000000000 O
   0.1854000000000000    0.6500800000000000    0.6399200000000000 O
   0.4495400000000000    0.2306700000000000    0.5479750000000000 O
   0.4253500000000000    0.5355799999999999    0.9260600000000000 O
   0.2946900000000000    0.3679700000000000    0.9552200000000000 O
   0.1769400000000000    0.3927600000000000    0.7517000000000000 O
   0.2188200000000000    0.0758200000000000    0.9336900000000000 O
   0.3167500000000000    0.3124900000000000    0.8085700000000000 O
   0.0671400000000000    0.5426700000000000    0.8072150000000000 O
   0.2645000000000000    0.4041000000000000    0.8883799999999999 O
   0.0317100000000000    0.9623600000000000    0.9073850000000000 O
   0.1259100000000000    0.6194800000000000    0.9275350000000000 O
   0.1546900000000000    0.1140200000000000    0.8686550000000000 O
   0.3211000000000000    0.8506700000000000    0.8894850000000001 O
   0.0571200000000000    0.2698000000000000    0.7979100000000000 O
   0.4046600000000000    0.2566200000000000    0.8870100000000001 O
   0.9255100000000001    0.0363800000000000    0.8227800000000001 O
   0.7939600000000000    0.8677800000000000    0.7946750000000000 O
   0.6766500000000000    0.8922600000000001    0.9982450000000000 O
   0.7189300000000000    0.5755000000000000    0.8162400000000001 O
   0.8163899999999999    0.8120200000000000    0.9413400000000001 O
   0.5672500000000000    0.0426000000000000    0.9427350000000000 O
   0.7663700000000000    0.9055800000000001    0.8614950000000000 O
   0.5314500000000000    0.4626700000000000    0.8425700000000000 O
   0.6261300000000000    0.1198600000000000    0.8223900000000000 O
   0.6550500000000000    0.6144700000000000    0.8812400000000000 O
   0.8209100000000000    0.3501000000000000    0.8601000000000000 O
   0.5567000000000000    0.7692800000000000    0.9520200000000000 O
   0.9056000000000000    0.7572800000000000    0.8628350000000000 O
   0.5810600000000000    0.4642300000000000    0.5739200000000000 O
   0.7115400000000000    0.6320100000000000    0.5447700000000000 O
   0.8297700000000000    0.6074700000000000    0.7482350000000000 O
   0.7874200000000000    0.9242600000000000    0.5662450000000000 O
   0.6898100000000000    0.6879600000000000    0.6913850000000000 O
   0.9393800000000000    0.4578000000000000    0.6927050000000000 O
   0.7416199999999999    0.5960000000000000    0.6116100000000000 O
   0.9743800000000000    0.0376900000000000    0.5926200000000000 O
   0.8804999999999999    0.3806800000000000    0.5724700000000000 O
   0.8511400000000000    0.8858400000000000    0.6312700000000000 O
   0.6850000000000001    0.1492000000000000    0.6105500000000000 O
   0.9495200000000000    0.7306800000000000    0.7020150000000001 O
   0.6013400000000000    0.7433900000000000    0.6129700000000000 O
