H4 C6 N4
1.0
  39.5819999758852674    0.0000000000000000   -0.0013816724487622
 -19.7638726221666126   34.2969734915348852    0.0020726133923783
   0.0000000000000000    0.0000000000000000   21.8919999999999995
H C N
4 6 4
direct
   0.9795550000000000    0.0614250000000000    0.9830900000000000 H
   0.9796300000000000    0.1045300000000000    0.8013800000000000 H
   0.9794900000000000    0.1678450000000000    0.8504200000000000 H
   0.9795250000000000    0.1248600000000000    0.0321600000000000 H
   0.9792900000000000    0.1406700000000000    0.9917800000000000 C
   0.9808450000000000    0.0984050000000000    0.9037200000000000 C
   0.9798850000000000    0.0668050000000000    0.9344000000000000 C
   0.9793850000000000    0.0884650000000000    0.8417600000000000 C
   0.9808100000000000    0.1322000000000000    0.9298400000000000 C
   0.9797800000000000    0.1627950000000000    0.8991200000000000 C
   0.9779800000000001    0.0401000000000000    0.8937600000000000 N
   0.9773300000000000    0.0534950000000000    0.8361400000000000 N
   0.9778300000000000    0.1875900000000000    0.9397300000000000 N
   0.9771550000000000    0.1735550000000000    0.9973400000000000 N
