Cd96 H380 C570 N380
1.0
  39.5819999758852674    0.0000000000000000   -0.0013816724487622
 -19.7638726221666126   34.2969734915348852    0.0020726133923783
   0.0000000000000000    0.0000000000000000   21.8919999999999995
Cd H C N
96 380 570 380
direct
   0.2273450000000000    0.2727250000000000    0.7500300000000000 Cd
   0.4773450000000000    0.0227300000000000    0.7500300000000000 Cd
   0.4773450000000000    0.2727250000000000    0.7500300000000000 Cd
   0.0455650000000000    0.0228200000000000    0.4167100000000000 Cd
   0.0455650000000000    0.2728150000000000    0.4167100000000000 Cd
   0.2955650000000000    0.0228200000000000    0.4167100000000000 Cd
   0.2955650000000000    0.2728150000000000    0.4167100000000000 Cd
   0.2271650000000000    0.2044500000000000    0.0833100000000000 Cd
   0.2271650000000000    0.4544400000000000    0.0833100000000000 Cd
   0.4771650000000000    0.2044450000000000    0.0833100000000000 Cd
   0.4771650000000000    0.4544400000000000    0.0833100000000000 Cd
   0.0227250000000000    0.2273400000000000    0.2499000000000000 Cd
   0.0227250000000000    0.4773350000000000    0.2499000000000000 Cd
   0.2727250000000000    0.2273400000000000    0.2499700000000000 Cd
   0.2727250000000000    0.4773350000000000    0.2499700000000000 Cd
   0.2044600000000000    0.2271600000000000    0.9167000000000000 Cd
   0.2044600000000000    0.4771550000000000    0.9167000000000000 Cd
   0.4544600000000000    0.2271600000000000    0.9167000000000000 Cd
   0.4544600000000000    0.4771550000000000    0.9167000000000000 Cd
   0.0228200000000000    0.0455800000000000    0.5833000000000000 Cd
   0.0228200000000000    0.2955800000000000    0.5833000000000000 Cd
   0.2728200000000000    0.0455800000000000    0.5833000000000000 Cd
   0.2728200000000000    0.2955750000000000    0.5833000000000000 Cd
   0.2273450000000000    0.0227300000000000    0.7500300000000000 Cd
   0.7273450000000000    0.2727250000000000    0.7500300000000000 Cd
   0.9773450000000000    0.0227300000000000    0.7500300000000000 Cd
   0.9773450000000000    0.2727250000000000    0.7500300000000000 Cd
   0.5455650000000000    0.0228200000000000    0.4167100000000000 Cd
   0.5455650000000000    0.2728150000000000    0.4167100000000000 Cd
   0.7955650000000001    0.0228200000000000    0.4167100000000000 Cd
   0.7955650000000001    0.2728150000000000    0.4167100000000000 Cd
   0.7271650000000001    0.2044500000000000    0.0833100000000000 Cd
   0.7271650000000001    0.4544400000000000    0.0833100000000000 Cd
   0.9771650000000001    0.2044450000000000    0.0833100000000000 Cd
   0.9771650000000001    0.4544400000000000    0.0833100000000000 Cd
   0.5227250000000000    0.2273400000000000    0.2499000000000000 Cd
   0.5227250000000000    0.4773350000000000    0.2499000000000000 Cd
   0.7727250000000000    0.2273400000000000    0.2499700000000000 Cd
   0.7727250000000000    0.4773350000000000    0.2499700000000000 Cd
   0.7044600000000000    0.2271600000000000    0.9167000000000000 Cd
   0.7044600000000000    0.4771550000000000    0.9167000000000000 Cd
   0.9544600000000000    0.2271600000000000    0.9167000000000000 Cd
   0.9544600000000000    0.4771550000000000    0.9167000000000000 Cd
   0.5228200000000000    0.0455800000000000    0.5833000000000000 Cd
   0.5228200000000000    0.2955800000000000    0.5833000000000000 Cd
   0.7728200000000001    0.0455800000000000    0.5833000000000000 Cd
   0.7728200000000001    0.2955750000000000    0.5833000000000000 Cd
   0.7273450000000000    0.0227300000000000    0.7500300000000000 Cd
   0.2273450000000000    0.7727250000000000    0.7500300000000000 Cd
   0.4773450000000000    0.5227300000000000    0.7500300000000000 Cd
   0.4773450000000000    0.7727250000000000    0.7500300000000000 Cd
   0.0455650000000000    0.5228200000000000    0.4167100000000000 Cd
   0.0455650000000000    0.7728150000000000    0.4167100000000000 Cd
   0.2955650000000000    0.5228200000000000    0.4167100000000000 Cd
   0.2955650000000000    0.7728150000000000    0.4167100000000000 Cd
   0.2271650000000000    0.7044500000000000    0.0833100000000000 Cd
   0.2271650000000000    0.9544400000000000    0.0833100000000000 Cd
   0.4771650000000000    0.7044450000000000    0.0833100000000000 Cd
   0.4771650000000000    0.9544400000000000    0.0833100000000000 Cd
   0.0227250000000000    0.7273400000000000    0.2499000000000000 Cd
   0.0227250000000000    0.9773350000000001    0.2499000000000000 Cd
   0.2727250000000000    0.7273400000000000    0.2499700000000000 Cd
   0.2727250000000000    0.9773350000000001    0.2499700000000000 Cd
   0.2044600000000000    0.7271600000000000    0.9167000000000000 Cd
   0.2044600000000000    0.9771550000000000    0.9167000000000000 Cd
   0.4544600000000000    0.7271600000000000    0.9167000000000000 Cd
   0.4544600000000000    0.9771550000000000    0.9167000000000000 Cd
   0.0228200000000000    0.5455800000000000    0.5833000000000000 Cd
   0.0228200000000000    0.7955800000000000    0.5833000000000000 Cd
   0.2728200000000000    0.5455800000000000    0.5833000000000000 Cd
   0.2728200000000000    0.7955749999999999    0.5833000000000000 Cd
   0.2273450000000000    0.5227300000000000    0.7500300000000000 Cd
   0.7273450000000000    0.7727250000000000    0.7500300000000000 Cd
   0.9773450000000000    0.5227300000000000    0.7500300000000000 Cd
   0.9773450000000000    0.7727250000000000    0.7500300000000000 Cd
   0.5455650000000000    0.5228200000000000    0.4167100000000000 Cd
   0.5455650000000000    0.7728150000000000    0.4167100000000000 Cd
   0.7955650000000001    0.5228200000000000    0.4167100000000000 Cd
   0.7955650000000001    0.7728150000000000    0.4167100000000000 Cd
   0.7271650000000001    0.7044500000000000    0.0833100000000000 Cd
   0.7271650000000001    0.9544400000000000    0.0833100000000000 Cd
   0.9771650000000001    0.7044450000000000    0.0833100000000000 Cd
   0.9771650000000001    0.9544400000000000    0.0833100000000000 Cd
   0.5227250000000000    0.7273400000000000    0.2499000000000000 Cd
   0.5227250000000000    0.9773350000000001    0.2499000000000000 Cd
   0.7727250000000000    0.7273400000000000    0.2499700000000000 Cd
   0.7727250000000000    0.9773350000000001    0.2499700000000000 Cd
   0.7044600000000000    0.7271600000000000    0.9167000000000000 Cd
   0.7044600000000000    0.9771550000000000    0.9167000000000000 Cd
   0.9544600000000000    0.7271600000000000    0.9167000000000000 Cd
   0.9544600000000000    0.9771550000000000    0.9167000000000000 Cd
   0.5228200000000000    0.5455800000000000    0.5833000000000000 Cd
   0.5228200000000000    0.7955800000000000    0.5833000000000000 Cd
   0.7728200000000001    0.5455800000000000    0.5833000000000000 Cd
   0.7728200000000001    0.7955749999999999    0.5833000000000000 Cd
   0.7273450000000000    0.5227300000000000    0.7500300000000000 Cd
   0.0615850000000000    0.0820950000000000    0.8162800000000000 H
   0.0615850000000000    0.3320900000000000    0.8162800000000000 H
   0.3115850000000000    0.0820950000000000    0.8162800000000000 H
   0.3115800000000000    0.3320900000000000    0.8162800000000000 H
   0.1044500000000000    0.1252650000000000    0.6345000000000000 H
   0.1044500000000000    0.3752600000000000    0.6345600000000000 H
   0.3544500000000000    0.1252650000000000    0.6345600000000000 H
   0.3544500000000000    0.3752550000000000    0.6345000000000000 H
   0.0203900000000000    0.1885000000000000    0.4829800000000000 H
   0.0203850000000000    0.4384950000000000    0.4829800000000000 H
   0.2703850000000000    0.1884950000000000    0.4829800000000000 H
   0.2703850000000000    0.4384900000000000    0.4829800000000000 H
   0.0205400000000000    0.1455550000000000    0.3012500000000000 H
   0.0205450000000000    0.3955550000000000    0.3012000000000000 H
   0.2705450000000000    0.1455550000000000    0.3012400000000000 H
   0.2705450000000000    0.3955500000000000    0.3012400000000000 H
   0.1678650000000000    0.2294900000000000    0.1495900000000000 H
   0.1678650000000000    0.4794850000000000    0.1490000000000000 H
   0.4178650000000000    0.2294900000000000    0.1495900000000000 H
   0.4178600000000000    0.4794850000000000    0.1490000000000000 H
   0.1248600000000000    0.2295050000000000    0.9678600000000001 H
   0.1248600000000000    0.4795050000000000    0.9678600000000001 H
   0.3748600000000000    0.2295050000000000    0.9678000000000000 H
   0.3748600000000000    0.4795000000000000    0.9678600000000001 H
   0.1885450000000000    0.1679350000000000    0.3163400000000000 H
   0.1885400000000000    0.4179300000000000    0.3163400000000000 H
   0.4385450000000000    0.1679350000000000    0.3163400000000000 H
   0.4385450000000000    0.4179350000000000    0.3163400000000000 H
   0.1455250000000000    0.1248300000000000    0.1346600000000000 H
   0.1455200000000000    0.3748200000000000    0.1346600000000000 H
   0.3955250000000000    0.1248250000000000    0.1346600000000000 H
   0.3955250000000000    0.3748200000000000    0.1346000000000000 H
   0.2295550000000000    0.0614300000000000    0.9830900000000000 H
   0.2295500000000000    0.3114200000000000    0.9830900000000000 H
   0.4795550000000000    0.0614250000000000    0.9830900000000000 H
   0.4795500000000000    0.3114200000000000    0.9830900000000000 H
   0.2296350000000000    0.1045350000000000    0.8013800000000000 H
   0.2296350000000000    0.3545300000000000    0.8013800000000000 H
   0.4796300000000000    0.1045300000000000    0.8013800000000000 H
   0.4796350000000000    0.3545300000000000    0.8013800000000000 H
   0.0821450000000000    0.0206250000000000    0.6496800000000000 H
   0.0821450000000000    0.2706200000000000    0.6496800000000000 H
   0.3321500000000000    0.0206250000000000    0.6496000000000000 H
   0.3321450000000000    0.2706200000000000    0.6496000000000000 H
   0.1251050000000000    0.0204200000000000    0.4679800000000000 H
   0.1251050000000000    0.2704150000000000    0.4679800000000000 H
   0.3751000000000000    0.0204100000000000    0.4679800000000000 H
   0.3751000000000000    0.2704100000000000    0.4679800000000000 H
   0.2294900000000000    0.1678500000000000    0.8504200000000000 H
   0.2294850000000000    0.4178400000000000    0.8504000000000000 H
   0.4794900000000000    0.1678450000000000    0.8504200000000000 H
   0.4794850000000000    0.4178400000000000    0.8504200000000000 H
   0.2295250000000000    0.1248600000000000    0.0321000000000000 H
   0.2295300000000000    0.3748550000000000    0.0321500000000000 H
   0.4795250000000000    0.1248600000000000    0.0321600000000000 H
   0.4795300000000000    0.3748550000000000    0.0321600000000000 H
   0.0820900000000000    0.0615850000000000    0.1837300000000000 H
   0.0820900000000000    0.3115800000000000    0.1837300000000000 H
   0.3320850000000000    0.0615850000000000    0.1837300000000000 H
   0.3320850000000000    0.3115800000000000    0.1837300000000000 H
   0.1252400000000000    0.1044500000000000    0.3654500000000000 H
   0.1252400000000000    0.3544450000000000    0.3654500000000000 H
   0.3752450000000000    0.1044450000000000    0.3654500000000000 H
   0.3752450000000000    0.3544400000000000    0.3654500000000000 H
   0.1885000000000000    0.0204150000000000    0.5170300000000000 H
   0.1885000000000000    0.2704150000000000    0.5170300000000000 H
   0.4385000000000000    0.0204150000000000    0.5170300000000000 H
   0.4385000000000000    0.2704100000000000    0.5170300000000000 H
   0.1455400000000000    0.0205300000000000    0.6987700000000000 H
   0.1455350000000000    0.2705250000000000    0.6987700000000000 H
   0.3955350000000000    0.0205250000000000    0.6987700000000000 H
   0.3955350000000000    0.2705250000000000    0.6987700000000000 H
   0.0206300000000000    0.0821700000000000    0.3503300000000000 H
   0.0206300000000000    0.3321650000000000    0.3503300000000000 H
   0.2706350000000000    0.0821650000000000    0.3503300000000000 H
   0.2706300000000000    0.3321600000000000    0.3503300000000000 H
   0.0203950000000000    0.1251100000000000    0.5320400000000000 H
   0.0203950000000000    0.3751050000000000    0.5320400000000000 H
   0.2703950000000000    0.1251050000000000    0.5320300000000000 H
   0.2703950000000000    0.3751000000000000    0.5320300000000000 H
   0.1679450000000000    0.1885450000000000    0.6836700000000000 H
   0.1679450000000000    0.4385350000000000    0.6836700000000000 H
   0.4179450000000000    0.1885450000000000    0.6836700000000000 H
   0.4179450000000000    0.4385350000000000    0.6836700000000000 H
   0.1248400000000000    0.1455250000000000    0.8653500000000000 H
   0.1248350000000000    0.3955250000000000    0.8653500000000000 H
   0.3748400000000000    0.1455250000000000    0.8653500000000000 H
   0.3748350000000000    0.3955200000000000    0.8653500000000000 H
   0.0614300000000000    0.2295300000000000    0.0169200000000000 H
   0.0614300000000000    0.4795250000000000    0.0169200000000000 H
   0.3114300000000000    0.2295250000000000    0.0169200000000000 H
   0.3114300000000000    0.4795250000000000    0.0169200000000000 H
   0.1045550000000000    0.2296500000000000    0.1986300000000000 H
   0.1045550000000000    0.4796500000000000    0.1986300000000000 H
   0.3545550000000000    0.2296500000000000    0.1986300000000000 H
   0.3545550000000000    0.4796450000000000    0.1986300000000000 H
   0.5615850000000000    0.0820950000000000    0.8162800000000000 H
   0.5615850000000000    0.3320900000000000    0.8162800000000000 H
   0.8115850000000000    0.0820950000000000    0.8162800000000000 H
   0.8115800000000000    0.3320900000000000    0.8162800000000000 H
   0.6044500000000000    0.1252650000000000    0.6345000000000000 H
   0.6044500000000000    0.3752600000000000    0.6345600000000000 H
   0.8544499999999999    0.1252650000000000    0.6345600000000000 H
   0.8544499999999999    0.3752550000000000    0.6345000000000000 H
   0.5203900000000000    0.1885000000000000    0.4829800000000000 H
   0.5203850000000000    0.4384950000000000    0.4829800000000000 H
   0.7703850000000000    0.1884950000000000    0.4829800000000000 H
   0.7703850000000000    0.4384900000000000    0.4829800000000000 H
   0.5205400000000000    0.1455550000000000    0.3012500000000000 H
   0.5205450000000000    0.3955550000000000    0.3012000000000000 H
   0.7705450000000000    0.1455550000000000    0.3012400000000000 H
   0.7705450000000000    0.3955500000000000    0.3012400000000000 H
   0.6678649999999999    0.2294900000000000    0.1495900000000000 H
   0.6678649999999999    0.4794850000000000    0.1490000000000000 H
   0.9178649999999999    0.2294900000000000    0.1495900000000000 H
   0.9178600000000000    0.4794850000000000    0.1490000000000000 H
   0.6248600000000000    0.2295050000000000    0.9678600000000001 H
   0.6248600000000000    0.4795050000000000    0.9678600000000001 H
   0.8748600000000000    0.2295050000000000    0.9678000000000000 H
   0.8748600000000000    0.4795000000000000    0.9678600000000001 H
   0.6885450000000000    0.1679350000000000    0.3163400000000000 H
   0.6885400000000000    0.4179300000000000    0.3163400000000000 H
   0.9385450000000000    0.1679350000000000    0.3163400000000000 H
   0.9385450000000000    0.4179350000000000    0.3163400000000000 H
   0.6455250000000000    0.1248300000000000    0.1346600000000000 H
   0.6455200000000000    0.3748200000000000    0.1346600000000000 H
   0.8955250000000000    0.1248250000000000    0.1346600000000000 H
   0.8955250000000000    0.3748200000000000    0.1346000000000000 H
   0.7295550000000000    0.0614300000000000    0.9830900000000000 H
   0.7295500000000000    0.3114200000000000    0.9830900000000000 H
   0.9795499999999999    0.3114200000000000    0.9830900000000000 H
   0.7296350000000000    0.1045350000000000    0.8013800000000000 H
   0.7296350000000000    0.3545300000000000    0.8013800000000000 H
   0.9796350000000000    0.3545300000000000    0.8013800000000000 H
   0.5821450000000000    0.0206250000000000    0.6496800000000000 H
   0.5821450000000000    0.2706200000000000    0.6496800000000000 H
   0.8321499999999999    0.0206250000000000    0.6496000000000000 H
   0.8321450000000000    0.2706200000000000    0.6496000000000000 H
   0.6251050000000000    0.0204200000000000    0.4679800000000000 H
   0.6251050000000000    0.2704150000000000    0.4679800000000000 H
   0.8751000000000000    0.0204100000000000    0.4679800000000000 H
   0.8751000000000000    0.2704100000000000    0.4679800000000000 H
   0.7294900000000000    0.1678500000000000    0.8504200000000000 H
   0.7294849999999999    0.4178400000000000    0.8504000000000000 H
   0.9794849999999999    0.4178400000000000    0.8504200000000000 H
   0.7295250000000000    0.1248600000000000    0.0321000000000000 H
   0.7295300000000000    0.3748550000000000    0.0321500000000000 H
   0.9795300000000000    0.3748550000000000    0.0321600000000000 H
   0.5820900000000000    0.0615850000000000    0.1837300000000000 H
   0.5820900000000000    0.3115800000000000    0.1837300000000000 H
   0.8320850000000000    0.0615850000000000    0.1837300000000000 H
   0.8320850000000000    0.3115800000000000    0.1837300000000000 H
   0.6252400000000000    0.1044500000000000    0.3654500000000000 H
   0.6252400000000000    0.3544450000000000    0.3654500000000000 H
   0.8752450000000001    0.1044450000000000    0.3654500000000000 H
   0.8752450000000001    0.3544400000000000    0.3654500000000000 H
   0.6885000000000000    0.0204150000000000    0.5170300000000000 H
   0.6885000000000000    0.2704150000000000    0.5170300000000000 H
   0.9385000000000000    0.0204150000000000    0.5170300000000000 H
   0.9385000000000000    0.2704100000000000    0.5170300000000000 H
   0.6455400000000000    0.0205300000000000    0.6987700000000000 H
   0.6455350000000000    0.2705250000000000    0.6987700000000000 H
   0.8955350000000000    0.0205250000000000    0.6987700000000000 H
   0.8955350000000000    0.2705250000000000    0.6987700000000000 H
   0.5206300000000000    0.0821700000000000    0.3503300000000000 H
   0.5206300000000000    0.3321650000000000    0.3503300000000000 H
   0.7706350000000000    0.0821650000000000    0.3503300000000000 H
   0.7706299999999999    0.3321600000000000    0.3503300000000000 H
   0.5203950000000001    0.1251100000000000    0.5320400000000000 H
   0.5203950000000001    0.3751050000000000    0.5320400000000000 H
   0.7703949999999999    0.1251050000000000    0.5320300000000000 H
   0.7703949999999999    0.3751000000000000    0.5320300000000000 H
   0.6679450000000000    0.1885450000000000    0.6836700000000000 H
   0.6679450000000000    0.4385350000000000    0.6836700000000000 H
   0.9179450000000000    0.1885450000000000    0.6836700000000000 H
   0.9179450000000000    0.4385350000000000    0.6836700000000000 H
   0.6248400000000001    0.1455250000000000    0.8653500000000000 H
   0.6248350000000000    0.3955250000000000    0.8653500000000000 H
   0.8748400000000001    0.1455250000000000    0.8653500000000000 H
   0.8748350000000000    0.3955200000000000    0.8653500000000000 H
   0.5614300000000000    0.2295300000000000    0.0169200000000000 H
   0.5614300000000000    0.4795250000000000    0.0169200000000000 H
   0.8114300000000000    0.2295250000000000    0.0169200000000000 H
   0.8114300000000000    0.4795250000000000    0.0169200000000000 H
   0.6045550000000000    0.2296500000000000    0.1986300000000000 H
   0.6045550000000000    0.4796500000000000    0.1986300000000000 H
   0.8545550000000000    0.2296500000000000    0.1986300000000000 H
   0.8545550000000000    0.4796450000000000    0.1986300000000000 H
   0.0615850000000000    0.5820950000000000    0.8162800000000000 H
   0.0615850000000000    0.8320900000000000    0.8162800000000000 H
   0.3115850000000000    0.5820950000000000    0.8162800000000000 H
   0.3115800000000000    0.8320900000000000    0.8162800000000000 H
   0.1044500000000000    0.6252650000000000    0.6345000000000000 H
   0.1044500000000000    0.8752599999999999    0.6345600000000000 H
   0.3544500000000000    0.6252650000000000    0.6345600000000000 H
   0.3544500000000000    0.8752550000000000    0.6345000000000000 H
   0.0203900000000000    0.6885000000000000    0.4829800000000000 H
   0.0203850000000000    0.9384950000000001    0.4829800000000000 H
   0.2703850000000000    0.6884950000000000    0.4829800000000000 H
   0.2703850000000000    0.9384900000000000    0.4829800000000000 H
   0.0205400000000000    0.6455550000000000    0.3012500000000000 H
   0.0205450000000000    0.8955550000000000    0.3012000000000000 H
   0.2705450000000000    0.6455550000000000    0.3012400000000000 H
   0.2705450000000000    0.8955500000000001    0.3012400000000000 H
   0.1678650000000000    0.7294900000000000    0.1495900000000000 H
   0.1678650000000000    0.9794849999999999    0.1490000000000000 H
   0.4178650000000000    0.7294900000000000    0.1495900000000000 H
   0.4178600000000000    0.9794849999999999    0.1490000000000000 H
   0.1248600000000000    0.7295050000000000    0.9678600000000001 H
   0.1248600000000000    0.9795050000000001    0.9678600000000001 H
   0.3748600000000000    0.7295050000000000    0.9678000000000000 H
   0.3748600000000000    0.9795000000000000    0.9678600000000001 H
   0.1885450000000000    0.6679349999999999    0.3163400000000000 H
   0.1885400000000000    0.9179300000000000    0.3163400000000000 H
   0.4385450000000000    0.6679349999999999    0.3163400000000000 H
   0.4385450000000000    0.9179349999999999    0.3163400000000000 H
   0.1455250000000000    0.6248300000000000    0.1346600000000000 H
   0.1455200000000000    0.8748199999999999    0.1346600000000000 H
   0.3955250000000000    0.6248250000000000    0.1346600000000000 H
   0.3955250000000000    0.8748199999999999    0.1346000000000000 H
   0.2295550000000000    0.5614300000000000    0.9830900000000000 H
   0.2295500000000000    0.8114200000000000    0.9830900000000000 H
   0.4795550000000000    0.5614250000000000    0.9830900000000000 H
   0.4795500000000000    0.8114200000000000    0.9830900000000000 H
   0.2296350000000000    0.6045350000000000    0.8013800000000000 H
   0.2296350000000000    0.8545300000000000    0.8013800000000000 H
   0.4796300000000000    0.6045300000000000    0.8013800000000000 H
   0.4796350000000000    0.8545300000000000    0.8013800000000000 H
   0.0821450000000000    0.5206250000000000    0.6496800000000000 H
   0.0821450000000000    0.7706200000000001    0.6496800000000000 H
   0.3321500000000000    0.5206250000000000    0.6496000000000000 H
   0.3321450000000000    0.7706200000000001    0.6496000000000000 H
   0.1251050000000000    0.5204200000000000    0.4679800000000000 H
   0.1251050000000000    0.7704150000000001    0.4679800000000000 H
   0.3751000000000000    0.5204100000000000    0.4679800000000000 H
   0.3751000000000000    0.7704100000000000    0.4679800000000000 H
   0.2294900000000000    0.6678500000000001    0.8504200000000000 H
   0.2294850000000000    0.9178400000000000    0.8504000000000000 H
   0.4794900000000000    0.6678450000000000    0.8504200000000000 H
   0.4794850000000000    0.9178400000000000    0.8504200000000000 H
   0.2295250000000000    0.6248600000000000    0.0321000000000000 H
   0.2295300000000000    0.8748549999999999    0.0321500000000000 H
   0.4795250000000000    0.6248600000000000    0.0321600000000000 H
   0.4795300000000000    0.8748549999999999    0.0321600000000000 H
   0.0820900000000000    0.5615850000000000    0.1837300000000000 H
   0.0820900000000000    0.8115800000000000    0.1837300000000000 H
   0.3320850000000000    0.5615850000000000    0.1837300000000000 H
   0.3320850000000000    0.8115800000000000    0.1837300000000000 H
   0.1252400000000000    0.6044500000000000    0.3654500000000000 H
   0.1252400000000000    0.8544450000000000    0.3654500000000000 H
   0.3752450000000000    0.6044450000000000    0.3654500000000000 H
   0.3752450000000000    0.8544400000000000    0.3654500000000000 H
   0.1885000000000000    0.5204150000000000    0.5170300000000000 H
   0.1885000000000000    0.7704150000000001    0.5170300000000000 H
   0.4385000000000000    0.5204150000000000    0.5170300000000000 H
   0.4385000000000000    0.7704100000000000    0.5170300000000000 H
   0.1455400000000000    0.5205300000000000    0.6987700000000000 H
   0.1455350000000000    0.7705250000000000    0.6987700000000000 H
   0.3955350000000000    0.5205250000000000    0.6987700000000000 H
   0.3955350000000000    0.7705250000000000    0.6987700000000000 H
   0.0206300000000000    0.5821700000000000    0.3503300000000000 H
   0.0206300000000000    0.8321650000000000    0.3503300000000000 H
   0.2706350000000000    0.5821650000000000    0.3503300000000000 H
   0.2706300000000000    0.8321600000000000    0.3503300000000000 H
   0.0203950000000000    0.6251100000000001    0.5320400000000000 H
   0.0203950000000000    0.8751050000000000    0.5320400000000000 H
   0.2703950000000000    0.6251050000000000    0.5320300000000000 H
   0.2703950000000000    0.8751000000000000    0.5320300000000000 H
   0.1679450000000000    0.6885450000000000    0.6836700000000000 H
   0.1679450000000000    0.9385350000000000    0.6836700000000000 H
   0.4179450000000000    0.6885450000000000    0.6836700000000000 H
   0.4179450000000000    0.9385350000000000    0.6836700000000000 H
   0.1248400000000000    0.6455250000000000    0.8653500000000000 H
   0.1248350000000000    0.8955250000000000    0.8653500000000000 H
   0.3748400000000000    0.6455250000000000    0.8653500000000000 H
   0.3748350000000000    0.8955200000000000    0.8653500000000000 H
   0.0614300000000000    0.7295300000000000    0.0169200000000000 H
   0.0614300000000000    0.9795250000000000    0.0169200000000000 H
   0.3114300000000000    0.7295250000000000    0.0169200000000000 H
   0.3114300000000000    0.9795250000000000    0.0169200000000000 H
   0.1045550000000000    0.7296500000000000    0.1986300000000000 H
   0.1045550000000000    0.9796500000000000    0.1986300000000000 H
   0.3545550000000000    0.7296500000000000    0.1986300000000000 H
   0.3545550000000000    0.9796450000000000    0.1986300000000000 H
   0.5615850000000000    0.5820950000000000    0.8162800000000000 H
   0.5615850000000000    0.8320900000000000    0.8162800000000000 H
   0.8115850000000000    0.5820950000000000    0.8162800000000000 H
   0.8115800000000000    0.8320900000000000    0.8162800000000000 H
   0.6044500000000000    0.6252650000000000    0.6345000000000000 H
   0.6044500000000000    0.8752599999999999    0.6345600000000000 H
   0.8544499999999999    0.6252650000000000    0.6345600000000000 H
   0.8544499999999999    0.8752550000000000    0.6345000000000000 H
   0.5203900000000000    0.6885000000000000    0.4829800000000000 H
   0.5203850000000000    0.9384950000000001    0.4829800000000000 H
   0.7703850000000000    0.6884950000000000    0.4829800000000000 H
   0.7703850000000000    0.9384900000000000    0.4829800000000000 H
   0.5205400000000000    0.6455550000000000    0.3012500000000000 H
   0.5205450000000000    0.8955550000000000    0.3012000000000000 H
   0.7705450000000000    0.6455550000000000    0.3012400000000000 H
   0.7705450000000000    0.8955500000000001    0.3012400000000000 H
   0.6678649999999999    0.7294900000000000    0.1495900000000000 H
   0.6678649999999999    0.9794849999999999    0.1490000000000000 H
   0.9178649999999999    0.7294900000000000    0.1495900000000000 H
   0.9178600000000000    0.9794849999999999    0.1490000000000000 H
   0.6248600000000000    0.7295050000000000    0.9678600000000001 H
   0.6248600000000000    0.9795050000000001    0.9678600000000001 H
   0.8748600000000000    0.7295050000000000    0.9678000000000000 H
   0.8748600000000000    0.9795000000000000    0.9678600000000001 H
   0.6885450000000000    0.6679349999999999    0.3163400000000000 H
   0.6885400000000000    0.9179300000000000    0.3163400000000000 H
   0.9385450000000000    0.6679349999999999    0.3163400000000000 H
   0.9385450000000000    0.9179349999999999    0.3163400000000000 H
   0.6455250000000000    0.6248300000000000    0.1346600000000000 H
   0.6455200000000000    0.8748199999999999    0.1346600000000000 H
   0.8955250000000000    0.6248250000000000    0.1346600000000000 H
   0.8955250000000000    0.8748199999999999    0.1346000000000000 H
   0.7295550000000000    0.5614300000000000    0.9830900000000000 H
   0.7295500000000000    0.8114200000000000    0.9830900000000000 H
   0.9795550000000000    0.5614250000000000    0.9830900000000000 H
   0.9795499999999999    0.8114200000000000    0.9830900000000000 H
   0.7296350000000000    0.6045350000000000    0.8013800000000000 H
   0.7296350000000000    0.8545300000000000    0.8013800000000000 H
   0.9796300000000000    0.6045300000000000    0.8013800000000000 H
   0.9796350000000000    0.8545300000000000    0.8013800000000000 H
   0.5821450000000000    0.5206250000000000    0.6496800000000000 H
   0.5821450000000000    0.7706200000000001    0.6496800000000000 H
   0.8321499999999999    0.5206250000000000    0.6496000000000000 H
   0.8321450000000000    0.7706200000000001    0.6496000000000000 H
   0.6251050000000000    0.5204200000000000    0.4679800000000000 H
   0.6251050000000000    0.7704150000000001    0.4679800000000000 H
   0.8751000000000000    0.5204100000000000    0.4679800000000000 H
   0.8751000000000000    0.7704100000000000    0.4679800000000000 H
   0.7294900000000000    0.6678500000000001    0.8504200000000000 H
   0.7294849999999999    0.9178400000000000    0.8504000000000000 H
   0.9794900000000000    0.6678450000000000    0.8504200000000000 H
   0.9794849999999999    0.9178400000000000    0.8504200000000000 H
   0.7295250000000000    0.6248600000000000    0.0321000000000000 H
   0.7295300000000000    0.8748549999999999    0.0321500000000000 H
   0.9795250000000000    0.6248600000000000    0.0321600000000000 H
   0.9795300000000000    0.8748549999999999    0.0321600000000000 H