H4 O2
1.0
  21.3444609125270830    0.0000000000000000   -1.6611048593040512
   2.2040325081669736   36.6043634323145923  -11.1386015018930067
   0.0000000000000000    0.0000000000000000   38.2800000000000011
H O
4 2
direct
   0.6085450926767948    0.0287212141416916    0.4318486760228101 H
   0.6044682012858084   -0.0163024878485737    0.4259023739221288 H
   0.3914623223994431    0.9712761256456399    0.2348274864906972 H
   0.3955321601702226    1.0163029126142575    0.2407787772975703 H
   0.6239600000000000    0.0066033333333333    0.4384333333333333 O
   0.3760400000000000    0.9933966666666666    0.2282500000000000 O
