H9 O6
1.0
  13.6869988972205281    0.0000000000000000    0.0054943137910080
   0.0006118956877691   17.8519779654956174    0.0280418444941962
   0.0000000000000000    0.0000000000000000   21.7869999999999990
H O
9 6
direct
   0.1844380289506939    0.5251848924716114    0.8262186354682142 H
   0.1542571253802859    0.7250398579538525    0.7380395858649025 H
   0.1681760397366438    0.6319733965477753    0.7835865362545957 H
   0.8406475782628932    0.8222792676245214    0.0856576908904459 H
   0.8239128881706033    0.6436714086961596    0.2003883077103310 H
   0.8386142452083727    0.7299376049058284    0.1420214596008563 H
   0.5658538552767320    0.8556619229087635    0.0664800996108854 H
   0.4801481562179967    0.6744821113970259    0.1657132924208636 H
   0.5160900225123909    0.7630301755166429    0.1138919583613128 H
   0.1798000000000000    0.5597100000000000    0.7919200000000000 O
   0.1628500000000000    0.6716200000000000    0.7442000000000000 O
   0.8127799999999999    0.7904099999999999    0.1172300000000000 O
   0.8039800000000000    0.6903300000000000    0.1812600000000000 O
   0.5698000000000000    0.8184700000000000    0.0988900000000000 O
   0.5210100000000000    0.7166600000000000    0.1543000000000000 O
