H4 O2
1.0
  13.3980588204661544    0.0000000000000000   -3.9173589117323782
  -4.8176866120591821   13.3260084152870881   -1.7840738279800636
   0.0000000000000000    0.0000000000000000   28.5880000000000010
H O
4 2
direct
   0.5299811803389954    0.6043728554836229    0.1964984671398275 H
   0.5570548770258555    0.7151884819413722    0.1795125200866392 H
   0.9430309711665399    0.6402781677499737    0.1427000290109360 H
   0.9690921093613294    0.6072941500516543    0.1981995421836990 H
   0.5091900000000000    0.6621600000000000    0.1891000000000000 O
   0.9903600000000001    0.6214800000000000    0.1692800000000000 O
