Cd16 H308 C360 N60 Cl32 O4
1.0
  18.3000000000000007    0.0000000000000000    0.0000000000000011
   0.0000000000000029   17.8260000000000005    0.0000000000000011
   0.0000000000000000    0.0000000000000000   31.4680000000000000
Cd H C N Cl O
16 308 360 60 32 4
direct
   0.0000000000000000    0.2500100000000000    0.5232300000000000 Cd
   0.0000000000000000    0.7500200000000000    0.7267650000000000 Cd
   0.5000000000000000    0.2500100000000000    0.7732250000000001 Cd
   0.5000000000000000    0.7500200000000000    0.9767600000000001 Cd
   0.5000000000000000    0.7500200000000000    0.4767600000000000 Cd
   0.5000000000000000    0.2500100000000000    0.2732250000000000 Cd
   0.0000000000000000    0.2500100000000000    0.0232300000000000 Cd
   0.0000000000000000    0.7500200000000000    0.2267650000000000 Cd
   0.5000000000000000    0.2500100000000000    0.5232300000000000 Cd
   0.5000000000000000    0.7500200000000000    0.7267650000000000 Cd
   0.0000000000000000    0.2500100000000000    0.7732250000000001 Cd
   0.0000000000000000    0.7500200000000000    0.9767600000000001 Cd
   0.0000000000000000    0.7500200000000000    0.4767600000000000 Cd
   0.0000000000000000    0.2500100000000000    0.2732250000000000 Cd
   0.5000000000000000    0.2500100000000000    0.0232300000000000 Cd
   0.5000000000000000    0.7500200000000000    0.2267650000000000 Cd
   0.0517813835224327    0.1223577000052291    0.4653128986490651 H
   0.0889977447335223    0.2000455007978583    0.4445079279110571 H
   0.7696400000000000    0.4596600000000000    0.6679300000000000 H
   0.9023000000000000    0.4320000000000000    0.6550100000000000 H
   0.7382500000000000    0.3626000000000000    0.5636300000000000 H
   0.8339800000000001    0.2846300000000000    0.5295550000000000 H
   0.9928300000000000    0.3565800000000000    0.6137550000000001 H
   0.7696400000000000    0.5403700000000000    0.5820650000000001 H
   0.9023000000000000    0.5680300000000000    0.5949850000000000 H
   0.7382500000000000    0.6374300000000001    0.6863500000000000 H
   0.8339800000000001    0.7153900000000000    0.7204400000000000 H
   0.9928300000000000    0.6434400000000000    0.6362400000000000 H
   0.6658300000000000    0.5643700000000000    0.6577850000000001 H
   0.5785700000000000    0.4953100000000000    0.5618500000000000 H
   0.6714800000000000    0.6959900000000000    0.6176800000000000 H
   0.6063200000000000    0.7696900000000000    0.5617950000000000 H
   0.5126800000000000    0.5787800000000000    0.5110200000000000 H
   0.6658300000000000    0.4356600000000000    0.5922050000000000 H
   0.5785700000000000    0.5047199999999999    0.6881400000000000 H
   0.6714800000000000    0.3040400000000000    0.6323150000000000 H
   0.6063100000000000    0.2303400000000000    0.6881950000000000 H
   0.5126800000000000    0.4212500000000000    0.7389500000000000 H
   0.2303700000000000    0.9596700000000000    0.5820600000000000 H
   0.0977100000000000    0.9320100000000000    0.5949850000000000 H
   0.2617500000000000    0.8626100000000000    0.6863500000000000 H
   0.1660200000000000    0.7846500000000000    0.7204400000000000 H
   0.0071700000000000    0.8566000000000000    0.6362400000000000 H
   0.2303700000000000    0.0403500000000000    0.6679300000000000 H
   0.0977100000000000    0.0680200000000000    0.6550100000000000 H
   0.2617500000000000    0.1374200000000000    0.5636300000000000 H
   0.1660200000000000    0.2153800000000000    0.5295550000000000 H
   0.0071700000000000    0.1434300000000000    0.6137550000000001 H
   0.3341700000000000    0.9356700000000000    0.6577850000000001 H
   0.4214400000000000    0.0000000000000000    0.5618500000000000 H
   0.3285200000000000    0.8040500000000000    0.6176800000000000 H
   0.3936900000000000    0.7303500000000001    0.5617950000000000 H
   0.4873200000000000    0.9212600000000000    0.5110200000000000 H
   0.3341700000000000    0.0643600000000000    0.5922050000000000 H
   0.4214400000000000    0.9952900000000000    0.6881400000000000 H
   0.3285200000000000    0.1959700000000000    0.6323000000000000 H
   0.3936900000000000    0.2696700000000000    0.6881950000000000 H
   0.4873200000000000    0.0787600000000000    0.7389749999999999 H
   0.2696300000000000    0.9596700000000000    0.8320600000000000 H
   0.4022900000000000    0.9320100000000000    0.8449800000000001 H
   0.2382500000000000    0.8626100000000000    0.9363600000000001 H
   0.3339800000000000    0.7846500000000000    0.9704349999999999 H
   0.4928300000000000    0.8566000000000000    0.8862350000000000 H
   0.2696400000000000    0.0403500000000000    0.9178999999999999 H
   0.4022900000000000    0.0680200000000000    0.9050050000000001 H
   0.2382500000000000    0.1374200000000000    0.8136250000000000 H
   0.3339800000000000    0.2153800000000000    0.7795500000000000 H
   0.4928300000000000    0.1434300000000000    0.8637500000000000 H
   0.1658300000000000    0.0643600000000000    0.8422050000000000 H
   0.0785600000000000    0.9952900000000000    0.9381400000000000 H
   0.1714800000000000    0.1959700000000000    0.8823099999999999 H
   0.1063100000000000    0.2696700000000000    0.9381950000000000 H
   0.0126800000000000    0.0787600000000000    0.9889700000000000 H
   0.1658300000000000    0.9356700000000000    0.9077850000000001 H
   0.0785600000000000    0.0000000000000000    0.8115000000000000 H
   0.1714800000000000    0.8040500000000000    0.8676750000000000 H
   0.1063100000000000    0.7303500000000001    0.8117500000000000 H
   0.0126800000000000    0.9212600000000000    0.7610150000000000 H
   0.7303700000000000    0.4596600000000000    0.9179250000000000 H
   0.5977100000000000    0.4320000000000000    0.9050050000000001 H
   0.7617500000000000    0.3625900000000000    0.8136250000000000 H
   0.5071700000000000    0.3565900000000000    0.8637500000000000 H
   0.6660199999999999    0.2846400000000000    0.7795500000000000 H
   0.7303700000000000    0.5403600000000000    0.8320500000000000 H
   0.5977100000000000    0.5680300000000000    0.8449800000000001 H
   0.7617500000000000    0.6374300000000001    0.9363600000000001 H
   0.6660199999999999    0.7153900000000000    0.9704349999999999 H
   0.5071700000000000    0.6434400000000000    0.8862350000000000 H
   0.8341700000000000    0.4356600000000000    0.8422050000000000 H
   0.9214400000000000    0.5047199999999999    0.9381400000000000 H
   0.8285200000000000    0.3040400000000000    0.8823099999999999 H
   0.8936900000000000    0.2303400000000000    0.9381950000000000 H
   0.9873200000000000    0.4212500000000000    0.9889700000000000 H
   0.8341700000000000    0.5643700000000000    0.9077850000000001 H
   0.9214400000000000    0.4953000000000000    0.8118449999999999 H
   0.8285200000000000    0.6959900000000000    0.8676750000000000 H
   0.8936900000000000    0.7696900000000000    0.8117950000000000 H
   0.9873200000000000    0.5787700000000000    0.7610150000000000 H
   0.3662565731260582    0.8195293512788112    0.4396662157756948 H
   0.4305403012152403    0.8477612777378063    0.4052155897683172 H
   0.4305403012152403    0.1522687222621937    0.3447694102316828 H
   0.3662565731260582    0.1805006487211888    0.3103187842243053 H
   0.7303700000000000    0.4596600000000000    0.4179250000000000 H
   0.5977100000000000    0.4320000000000000    0.4050050000000000 H
   0.7617500000000000    0.3625900000000000    0.3136250000000000 H
   0.5071700000000000    0.3565900000000000    0.3637500000000000 H
   0.6660199999999999    0.2846400000000000    0.2795500000000000 H
   0.7303700000000000    0.5403600000000000    0.3320500000000000 H
   0.5977100000000000    0.5680300000000000    0.3449800000000000 H
   0.7617500000000000    0.6374300000000001    0.4363600000000000 H
   0.6660199999999999    0.7153900000000000    0.4704350000000000 H
   0.5071700000000000    0.6434400000000000    0.3862350000000000 H
   0.8341700000000000    0.4356600000000000    0.3422050000000000 H
   0.9214400000000000    0.5047199999999999    0.4381400000000000 H
   0.8285200000000000    0.3040400000000000    0.3823100000000000 H
   0.8936900000000000    0.2303400000000000    0.4381950000000000 H
   0.9873200000000000    0.4212500000000000    0.4889700000000000 H
   0.8341700000000000    0.5643700000000000    0.4077850000000000 H
   0.9214400000000000    0.4953000000000000    0.3118450000000000 H
   0.8285200000000000    0.6959900000000000    0.3676750000000000 H
   0.8936900000000000    0.7696900000000000    0.3117950000000000 H
   0.9873200000000000    0.5787700000000000    0.2610150000000000 H
   0.0889995027210035    0.7999804689778116    0.3054782621702088 H
   0.0517821214641927    0.8776623825363419    0.2846720234464615 H
   0.7696400000000000    0.4596600000000000    0.1679300000000000 H
   0.9023000000000000    0.4320000000000000    0.1550100000000000 H
   0.7382500000000000    0.3626000000000000    0.0636300000000000 H
   0.8339800000000001    0.2846300000000000    0.0295550000000000 H
   0.9928300000000000    0.3565800000000000    0.1137550000000000 H
   0.7696400000000000    0.5403700000000000    0.0820650000000000 H
   0.9023000000000000    0.5680300000000000    0.0949850000000000 H
   0.7382500000000000    0.6374300000000001    0.1863500000000000 H
   0.8339800000000001    0.7153900000000000    0.2204400000000000 H
   0.9928300000000000    0.6434400000000000    0.1362400000000000 H
   0.6658300000000000    0.5643700000000000    0.1577850000000000 H
   0.5785700000000000    0.4953100000000000    0.0618500000000000 H
   0.6714800000000000    0.6959900000000000    0.1176800000000000 H
   0.6063200000000000    0.7696900000000000    0.0617950000000000 H
   0.5126800000000000    0.5787800000000000    0.0110200000000000 H
   0.6658300000000000    0.4356600000000000    0.0922050000000000 H
   0.5785700000000000    0.5047199999999999    0.1881400000000000 H
   0.6714800000000000    0.3040400000000000    0.1323150000000000 H
   0.6063100000000000    0.2303400000000000    0.1881950000000000 H
   0.5126800000000000    0.4212500000000000    0.2389500000000000 H
   0.2303700000000000    0.9596700000000000    0.0820600000000000 H
   0.0977100000000000    0.9320100000000000    0.0949850000000000 H
   0.2617500000000000    0.8626100000000000    0.1863500000000000 H
   0.1660200000000000    0.7846500000000000    0.2204400000000000 H
   0.0071700000000000    0.8566000000000000    0.1362400000000000 H
   0.2303700000000000    0.0403500000000000    0.1679300000000000 H
   0.0977100000000000    0.0680200000000000    0.1550100000000000 H
   0.2617500000000000    0.1374200000000000    0.0636300000000000 H
   0.1660200000000000    0.2153800000000000    0.0295550000000000 H
   0.0071700000000000    0.1434300000000000    0.1137550000000000 H
   0.3341700000000000    0.9356700000000000    0.1577850000000000 H
   0.4214400000000000    0.0000000000000000    0.0618500000000000 H
   0.3285200000000000    0.8040500000000000    0.1176800000000000 H
   0.3936900000000000    0.7303500000000001    0.0617950000000000 H
   0.4873200000000000    0.9212600000000000    0.0110200000000000 H
   0.3341700000000000    0.0643600000000000    0.0922050000000000 H
   0.4214400000000000    0.9952900000000000    0.1881400000000000 H
   0.3285200000000000    0.1959700000000000    0.1323000000000000 H
   0.3936900000000000    0.2696700000000000    0.1881950000000000 H
   0.4873200000000000    0.0787600000000000    0.2389750000000000 H
   0.7303700000000000    0.0403500000000000    0.6679300000000000 H
   0.5977100000000000    0.0680200000000000    0.6550100000000000 H
   0.7617500000000000    0.1374200000000000    0.5636300000000000 H
   0.6660199999999999    0.2153800000000000    0.5295500000000000 H
   0.5071700000000000    0.1434300000000000    0.6137550000000001 H
   0.7303700000000000    0.9596700000000000    0.5820600000000000 H
   0.5977100000000000    0.9320100000000000    0.5949850000000000 H
   0.7617500000000000    0.8626100000000000    0.6863650000000000 H
   0.6660199999999999    0.7846500000000000    0.7204400000000000 H
   0.5071700000000000    0.8566000000000000    0.6362400000000000 H
   0.8341700000000000    0.0643600000000000    0.5922100000000000 H
   0.9214400000000000    0.9952900000000000    0.6881400000000000 H
   0.8285200000000000    0.1959700000000000    0.6323000000000000 H
   0.8936900000000000    0.2696800000000000    0.6881950000000000 H
   0.9873200000000000    0.0787600000000000    0.7389749999999999 H
   0.8341700000000000    0.9356700000000000    0.6577500000000001 H
   0.9214400000000000    0.0000000000000000    0.5618500000000000 H
   0.8285200000000000    0.8040500000000000    0.6176800000000000 H
   0.8936900000000000    0.7303500000000001    0.5617950000000000 H
   0.9873300000000000    0.9212700000000000    0.5110200000000000 H
   0.2696400000000000    0.5403600000000000    0.5820600000000000 H
   0.4023000000000000    0.5680300000000000    0.5949850000000000 H
   0.2382500000000000    0.6374300000000001    0.6863650000000000 H
   0.3339800000000000    0.7153900000000000    0.7204400000000000 H
   0.4928300000000000    0.6434400000000000    0.6362400000000000 H
   0.2696400000000000    0.4596600000000000    0.6679300000000000 H
   0.4022900000000000    0.4320000000000000    0.6550100000000000 H
   0.2382500000000000    0.3625900000000000    0.5636300000000000 H
   0.3339800000000000    0.2846400000000000    0.5295500000000000 H
   0.4928300000000000    0.3565900000000000    0.6137550000000001 H
   0.1658300000000000    0.4356500000000000    0.5922100000000000 H
   0.0785600000000000    0.5047199999999999    0.6881400000000000 H
   0.1714800000000000    0.3040400000000000    0.6323000000000000 H
   0.1063100000000000    0.2303400000000000    0.6881950000000000 H
   0.0126800000000000    0.4212500000000000    0.7389749999999999 H
   0.1658300000000000    0.5643600000000000    0.6577900000000000 H
   0.0785700000000000    0.4953000000000000    0.5618500000000000 H
   0.1714800000000000    0.6959900000000000    0.6176800000000000 H
   0.1063100000000000    0.7696900000000000    0.5617950000000000 H
   0.0126800000000000    0.5787700000000000    0.5110200000000000 H
   0.2303700000000000    0.5403600000000000    0.8320600000000000 H
   0.0977100000000000    0.5680300000000000    0.8449800000000001 H
   0.2617500000000000    0.6374300000000001    0.9363600000000001 H
   0.1660200000000000    0.7153900000000000    0.9704349999999999 H
   0.0071700000000000    0.6434400000000000    0.8862350000000000 H
   0.2303700000000000    0.4596600000000000    0.9179250000000000 H
   0.0977100000000000    0.4320000000000000    0.9050050000000001 H
   0.2617500000000000    0.3626000000000000    0.8136250000000000 H
   0.1660200000000000    0.2846400000000000    0.7795500000000000 H
   0.0071700000000000    0.3565900000000000    0.8637500000000000 H
   0.3341700000000000    0.5643700000000000    0.9077850000000001 H
   0.4214400000000000    0.4953000000000000    0.8115000000000000 H
   0.3285200000000000    0.6959900000000000    0.8676750000000000 H
   0.3936900000000000    0.7696900000000000    0.8117500000000000 H
   0.4873200000000000    0.5787700000000000    0.7610150000000000 H
   0.3341700000000000    0.4356600000000000    0.8422050000000000 H
   0.4214400000000000    0.5047199999999999    0.9381400000000000 H
   0.3285200000000000    0.3040400000000000    0.8823099999999999 H
   0.3936900000000000    0.2303400000000000    0.9381950000000000 H
   0.4873200000000000    0.4212500000000000    0.9889700000000000 H
   0.7696400000000000    0.9596700000000000    0.8320600000000000 H
   0.9023000000000000    0.9320100000000000    0.8449800000000001 H
   0.7382500000000000    0.8626100000000000    0.9363600000000001 H
   0.8339800000000001    0.7846500000000000    0.9704349999999999 H
   0.9928300000000000    0.8566000000000000    0.8862350000000000 H
   0.7696400000000000    0.0403500000000000    0.9178999999999999 H
   0.9023000000000000    0.0680200000000000    0.9050050000000001 H
   0.7382500000000000    0.1374200000000000    0.8136250000000000 H
   0.8339800000000001    0.2153800000000000    0.7795500000000000 H
   0.9928300000000000    0.1434300000000000    0.8637500000000000 H
   0.6658300000000000    0.0643500000000000    0.8422050000000000 H
   0.5785700000000000    0.9952900000000000    0.9381400000000000 H
   0.6714800000000000    0.1959700000000000    0.8823099999999999 H
   0.6063100000000000    0.2696700000000000    0.9381950000000000 H
   0.5126800000000000    0.0787600000000000    0.9889700000000000 H
   0.6658300000000000    0.9356700000000000    0.9077850000000001 H
   0.5785700000000000    0.0000000000000000    0.8115000000000000 H
   0.6714800000000000    0.8040500000000000    0.8676750000000000 H
   0.6063200000000000    0.7303500000000001    0.8117500000000000 H
   0.5126800000000000    0.9212600000000000    0.7610150000000000 H
   0.7696400000000000    0.0403500000000000    0.4179000000000000 H
   0.9023000000000000    0.0680200000000000    0.4050050000000000 H
   0.7382500000000000    0.1374200000000000    0.3136250000000000 H
   0.8339800000000001    0.2153800000000000    0.2795500000000000 H
   0.9928300000000000    0.1434300000000000    0.3637500000000000 H
   0.7696400000000000    0.9596700000000000    0.3320600000000000 H
   0.9023000000000000    0.9320100000000000    0.3449800000000000 H
   0.7382500000000000    0.8626100000000000    0.4363600000000000 H
   0.8339800000000001    0.7846500000000000    0.4704350000000000 H
   0.9928300000000000    0.8566000000000000    0.3862350000000000 H
   0.6658300000000000    0.0643500000000000    0.3422050000000000 H
   0.5785700000000000    0.9952900000000000    0.4381400000000000 H
   0.6714800000000000    0.1959700000000000    0.3823100000000000 H
   0.6063100000000000    0.2696700000000000    0.4381950000000000 H
   0.5126800000000000    0.0787600000000000    0.4889700000000000 H
   0.6658300000000000    0.9356700000000000    0.4077850000000000 H
   0.5785700000000000    0.0000000000000000    0.3115000000000000 H
   0.6714800000000000    0.8040500000000000    0.3676750000000000 H
   0.6063200000000000    0.7303500000000001    0.3117500000000000 H
   0.5126800000000000    0.9212600000000000    0.2610150000000000 H
   0.2303700000000000    0.5403600000000000    0.3320600000000000 H
   0.0977100000000000    0.5680300000000000    0.3449800000000000 H
   0.2617500000000000    0.6374300000000001    0.4363600000000000 H
   0.1660200000000000    0.7153900000000000    0.4704350000000000 H
   0.0071700000000000    0.6434400000000000    0.3862350000000000 H
   0.2303700000000000    0.4596600000000000    0.4179250000000000 H
   0.0977100000000000    0.4320000000000000    0.4050050000000000 H
   0.2617500000000000    0.3626000000000000    0.3136250000000000 H
   0.1660200000000000    0.2846400000000000    0.2795500000000000 H
   0.0071700000000000    0.3565900000000000    0.3637500000000000 H
   0.3341700000000000    0.5643700000000000    0.4077850000000000 H
   0.4214400000000000    0.4953000000000000    0.3115000000000000 H
   0.3285200000000000    0.6959900000000000    0.3676750000000000 H
   0.3936900000000000    0.7696900000000000    0.3117500000000000 H
   0.4873200000000000    0.5787700000000000    0.2610150000000000 H
   0.3341700000000000    0.4356600000000000    0.3422050000000000 H
   0.4214400000000000    0.5047199999999999    0.4381400000000000 H
   0.3285200000000000    0.3040400000000000    0.3823100000000000 H
   0.3936900000000000    0.2303400000000000    0.4381950000000000 H
   0.4873200000000000    0.4212500000000000    0.4889700000000000 H
   0.7303700000000000    0.0403500000000000    0.1679300000000000 H
   0.5977100000000000    0.0680200000000000    0.1550100000000000 H
   0.7617500000000000    0.1374200000000000    0.0636300000000000 H
   0.6660199999999999    0.2153800000000000    0.0295500000000000 H
   0.5071700000000000    0.1434300000000000    0.1137550000000000 H
   0.7303700000000000    0.9596700000000000    0.0820600000000000 H
   0.5977100000000000    0.9320100000000000    0.0949850000000000 H
   0.7617500000000000    0.8626100000000000    0.1863650000000000 H
   0.6660199999999999    0.7846500000000000    0.2204400000000000 H
   0.5071700000000000    0.8566000000000000    0.1362400000000000 H
   0.8341700000000000    0.0643600000000000    0.0922100000000000 H
   0.9214400000000000    0.9952900000000000    0.1881400000000000 H
   0.8285200000000000    0.1959700000000000    0.1323000000000000 H
   0.8936900000000000    0.2696800000000000    0.1881950000000000 H
   0.9873200000000000    0.0787600000000000    0.2389750000000000 H
   0.8341700000000000    0.9356700000000000    0.1577500000000000 H
   0.9214400000000000    0.0000000000000000    0.0618500000000000 H
   0.8285200000000000    0.8040500000000000    0.1176800000000000 H
   0.8936900000000000    0.7303500000000001    0.0617950000000000 H
   0.9873300000000000    0.9212700000000000    0.0110200000000000 H
   0.2696400000000000    0.5403600000000000    0.0820600000000000 H
   0.4023000000000000    0.5680300000000000    0.0949850000000000 H
   0.2382500000000000    0.6374300000000001    0.1863650000000000 H
   0.3339800000000000    0.7153900000000000    0.2204400000000000 H
   0.4928300000000000    0.6434400000000000    0.1362400000000000 H
   0.2696400000000000    0.4596600000000000    0.1679300000000000 H
   0.4022900000000000    0.4320000000000000    0.1550100000000000 H
   0.2382500000000000    0.3625900000000000    0.0636300000000000 H
   0.3339800000000000    0.2846400000000000    0.0295500000000000 H
   0.4928300000000000    0.3565900000000000    0.1137550000000000 H
   0.1658300000000000    0.4356500000000000    0.0922100000000000 H
   0.0785600000000000    0.5047199999999999    0.1881400000000000 H
   0.1714800000000000    0.3040400000000000    0.1323000000000000 H
   0.1063100000000000    0.2303400000000000    0.1881950000000000 H
   0.0126800000000000    0.4212500000000000    0.2389750000000000 H
   0.1658300000000000    0.5643600000000000    0.1577900000000000 H
   0.0785700000000000    0.4953000000000000    0.0618500000000000 H
   0.1714800000000000    0.6959900000000000    0.1176800000000000 H
   0.1063100000000000    0.7696900000000000    0.0617950000000000 H
   0.0126800000000000    0.5787700000000000    0.0110200000000000 H
   0.7600000000000000    0.4583600000000000    0.6334050000000000 C
   0.8849399999999999    0.4014700000000000    0.6267250000000000 C
   0.7936100000000000    0.3629900000000000    0.5766050000000000 C
   0.8470299999999999    0.3199300000000000    0.5568050000000000 C
   0.9355400000000000    0.3587900000000000    0.6042350000000000 C
   0.8123100000000000    0.4056700000000000    0.6124000000000001 C
   0.7599900000000001    0.5416600000000000    0.6165900000000000 C
   0.8849500000000000    0.5985500000000000    0.6232500000000000 C
   0.7936200000000000    0.6370200000000000    0.6733899999999999 C
   0.8470299999999999    0.6801000000000000    0.6931849999999999 C
   0.9355400000000000    0.6412500000000000    0.6457550000000000 C
   0.8123100000000000    0.5943700000000000    0.6375850000000001 C
   0.6760500000000000    0.5435800000000000    0.6253500000000000 C
   0.5856700000000000    0.5560000000000000    0.5640000000000001 C
   0.6377400000000000    0.6672500000000000    0.5942350000000000 C
   0.6009600000000000    0.7088000000000000    0.5635800000000000 C
   0.5496700000000000    0.6018200000000000    0.5349000000000000 C
   0.6315100000000000    0.5886100000000000    0.5945000000000000 C
   0.6760600000000000    0.4564300000000000    0.6246400000000000 C
   0.5856600000000000    0.4440300000000000    0.6859500000000001 C
   0.6377300000000000    0.3327800000000000    0.6557500000000001 C
   0.6009600000000000    0.2912300000000000    0.6864150000000000 C
   0.5496700000000000    0.3982000000000000    0.7150950000000000 C
   0.6315100000000000    0.4114200000000000    0.6554949999999999 C
   0.2400100000000000    0.9583800000000000    0.6165849999999999 C
   0.1150600000000000    0.9014799999999999    0.6232700000000000 C
   0.2063900000000000    0.8630100000000001    0.6733899999999999 C
   0.1529700000000000    0.8199400000000000    0.6931849999999999 C
   0.0644600000000000    0.8588000000000000    0.6457600000000000 C
   0.1876900000000000    0.9056800000000000    0.6375900000000000 C
   0.2400100000000000    0.0416500000000000    0.6334050000000000 C
   0.1150600000000000    0.0985400000000000    0.6267199999999999 C
   0.2063900000000000    0.1370100000000000    0.5766000000000000 C
   0.1529700000000000    0.1800900000000000    0.5568000000000000 C
   0.0644600000000000    0.1412300000000000    0.6042350000000000 C
   0.1877000000000000    0.0943500000000000    0.6124050000000000 C
   0.3239500000000000    0.9564400000000000    0.6253500000000000 C
   0.4143400000000000    0.9440400000000000    0.5640350000000000 C
   0.3622700000000000    0.8327900000000000    0.5942000000000001 C
   0.3990400000000000    0.7912400000000001    0.5635800000000000 C
   0.4503300000000000    0.8982200000000000    0.5349000000000000 C
   0.3684900000000000    0.9114300000000000    0.5945000000000000 C
   0.3239500000000000    0.0435800000000000    0.6246400000000000 C
   0.4143400000000000    0.0559800000000000    0.6859600000000000 C
   0.3622700000000000    0.1672300000000000    0.6557550000000000 C
   0.3990400000000000    0.2087900000000000    0.6864150000000000 C
   0.4503300000000000    0.1018100000000000    0.7150950000000000 C
   0.3684900000000000    0.0885900000000000    0.6554949999999999 C
   0.2599900000000000    0.9583800000000000    0.8665849999999999 C
   0.3849400000000000    0.9014900000000000    0.8732700000000000 C
   0.2936100000000000    0.8630100000000001    0.9233850000000000 C
   0.3470300000000000    0.8199400000000000    0.9431800000000000 C
   0.4355400000000000    0.8588000000000000    0.8957550000000001 C
   0.3123000000000000    0.9056700000000000    0.8875850000000001 C
   0.2599900000000000    0.0416500000000000    0.8834000000000000 C
   0.3849400000000000    0.0985400000000000    0.8767199999999999 C
   0.2936100000000000    0.1370200000000000    0.8266000000000000 C
   0.3470300000000000    0.1800900000000000    0.8068050000000000 C
   0.4355400000000000    0.1412300000000000    0.8542300000000000 C
   0.3123100000000000    0.0943500000000000    0.8624000000000001 C
   0.1760500000000000    0.0435800000000000    0.8746350000000001 C
   0.0856600000000000    0.0559800000000000    0.9359550000000000 C
   0.1377300000000000    0.1672300000000000    0.9057500000000001 C
   0.1009600000000000    0.2087900000000000    0.9364100000000000 C
   0.0496700000000000    0.1018100000000000    0.9650900000000000 C
   0.1315100000000000    0.0885900000000000    0.9054900000000000 C
   0.1760500000000000    0.9564500000000000    0.8753500000000001 C
   0.0856600000000000    0.9440400000000000    0.8140300000000000 C
   0.1377300000000000    0.8327900000000000    0.8442350000000001 C
   0.1009600000000000    0.7912400000000001    0.8135749999999999 C
   0.0496700000000000    0.8982200000000000    0.7848950000000000 C
   0.1315100000000000    0.9114300000000000    0.8444950000000000 C
   0.7400099999999999    0.4583600000000000    0.8834000000000000 C
   0.6150600000000001    0.4014800000000000    0.8767150000000000 C
   0.7063900000000000    0.3630000000000000    0.8266000000000000 C
   0.5644600000000000    0.3587800000000000    0.8542300000000000 C
   0.6529800000000000    0.3199200000000000    0.8068050000000000 C
   0.6877000000000000    0.4056600000000000    0.8624050000000000 C
   0.7400000000000000    0.5416600000000000    0.8665849999999999 C
   0.6150600000000001    0.5985600000000000    0.8732650000000000 C
   0.7063900000000000    0.6370400000000001    0.9233850000000000 C
   0.6529700000000001    0.6801000000000000    0.9431849999999999 C
   0.5644600000000000    0.6412400000000000    0.8957550000000001 C
   0.6877000000000000    0.5943600000000000    0.8875900000000000 C
   0.8239600000000000    0.4564400000000000    0.8746350000000001 C
   0.9143300000000000    0.4440300000000000    0.9359550000000000 C
   0.8622700000000000    0.3327800000000000    0.9057550000000000 C
   0.8990500000000000    0.2912300000000000    0.9364100000000000 C
   0.9503400000000000    0.3982000000000000    0.9650900000000000 C
   0.8685000000000000    0.4114200000000000    0.9054500000000000 C
   0.8239400000000000    0.5436000000000000    0.8753500000000001 C
   0.9143500000000000    0.5560000000000000    0.8140300000000000 C
   0.8622700000000000    0.6672400000000001    0.8442350000000001 C
   0.8990400000000000    0.7088000000000000    0.8135749999999999 C
   0.9503300000000000    0.6018200000000000    0.7848950000000000 C
   0.8684900000000000    0.5886000000000000    0.8444499999999999 C
   0.7400099999999999    0.4583600000000000    0.3834000000000000 C
   0.6150600000000001    0.4014800000000000    0.3767150000000000 C
   0.7063900000000000    0.3630000000000000    0.3266000000000000 C
   0.5644600000000000    0.3587800000000000    0.3542300000000000 C
   0.6529800000000000    0.3199200000000000    0.3068050000000000 C
   0.6877000000000000    0.4056600000000000    0.3624050000000000 C
   0.7400000000000000    0.5416600000000000    0.3665850000000000 C
   0.6150600000000001    0.5985600000000000    0.3732650000000000 C
   0.7063900000000000    0.6370400000000001    0.4233850000000000 C
   0.6529700000000001    0.6801000000000000    0.4431850000000000 C
   0.5644600000000000    0.6412400000000000    0.3957550000000000 C
   0.6877000000000000    0.5943600000000000    0.3875900000000000 C
   0.8239600000000000    0.4564400000000000    0.3746350000000000 C
   0.9143300000000000    0.4440300000000000    0.4359550000000000 C
   0.8622700000000000    0.3327800000000000    0.4057550000000000 C
   0.8990500000000000    0.2912300000000000    0.4364100000000000 C