H8 O4
1.0
  18.3000000000000007    0.0000000000000000    0.0000000000000011
   0.0000000000000029   17.8260000000000005    0.0000000000000011
   0.0000000000000000    0.0000000000000000   31.4680000000000000
H O
8 4
direct
   0.0517813835224327    0.1223577000052291    0.4653128986490651 H
   0.0889977447335223    0.2000455007978583    0.4445079279110571 H
   0.0889995027210035    0.7999804689778116    0.3054782621702088 H
   0.0517821214641927    0.8776623825363419    0.2846720234464615 H
   0.4305403012152403    0.1522687222621937    0.3447694102316828 H
   0.3662565731260582    0.1805006487211888    0.3103187842243053 H
   0.3662565731260582    0.8195293512788112    0.4396662157756948 H
   0.4305403012152403    0.8477612777378063    0.4052155897683172 H
   0.0573900000000000    0.1769400000000000    0.4659050000000000 O
   0.0573900000000000    0.8230800000000000    0.2840800000000000 O
   0.4172600000000000    0.1815900000000000    0.3196400000000000 O
   0.4172600000000000    0.8184399999999999    0.4303450000000000 O
