Ca24 H138 C115 O92
1.0
  17.0292239421872154    0.0000000000000000   -4.0318149668403338
  -4.2371995328661605   10.6364264841961500   -5.2532828559834366
   0.0000000000000000    0.0000000000000000   25.1960000000000015
Ca H C O
24 138 115 92
direct
   0.2934950000000000    0.1968400000000000    0.2870550000000000 Ca
   0.1946450000000000    0.3760000000000000    0.4015950000000000 Ca
   0.4935650000000000    0.5739700000000000    0.1882450000000000 Ca
   0.2065100000000000    0.8031700000000001    0.2129300000000000 Ca
   0.3053600000000000    0.6240000000000000    0.0983900000000000 Ca
   0.0064450000000000    0.4260300000000000    0.3117400000000000 Ca
   0.7934950000000001    0.1968400000000000    0.2870550000000000 Ca
   0.6946450000000000    0.3760000000000000    0.4015950000000000 Ca
   0.9935650000000000    0.5739700000000000    0.1882450000000000 Ca
   0.7065100000000000    0.8031700000000001    0.2129300000000000 Ca
   0.8053600000000001    0.6240000000000000    0.0983900000000000 Ca
   0.5064450000000000    0.4260300000000000    0.3117400000000000 Ca
   0.2934950000000000    0.1968400000000000    0.7870550000000001 Ca
   0.1946450000000000    0.3760000000000000    0.9015949999999999 Ca
   0.4935650000000000    0.5739700000000000    0.6882450000000000 Ca
   0.2065100000000000    0.8031700000000001    0.7129300000000001 Ca
   0.3053600000000000    0.6240000000000000    0.5983900000000000 Ca
   0.0064450000000000    0.4260300000000000    0.8117400000000000 Ca
   0.7934950000000001    0.1968400000000000    0.7870550000000001 Ca
   0.6946450000000000    0.3760000000000000    0.9015949999999999 Ca
   0.9935650000000000    0.5739700000000000    0.6882450000000000 Ca
   0.7065100000000000    0.8031700000000001    0.7129300000000001 Ca
   0.8053600000000001    0.6240000000000000    0.5983900000000000 Ca
   0.5064450000000000    0.4260300000000000    0.8117400000000000 Ca
   0.4807550000000000    0.1847600000000000    0.4518350000000000 H
   0.3823700000000000    0.1344400000000000    0.3910900000000000 H
   0.4824650000000000    0.4035400000000000    0.0023900000000000 H
   0.3892850000000000    0.3593500000000000    0.4394550000000000 H
   0.3130300000000000    0.2051300000000000    0.4685600000000000 H
   0.4060750000000000    0.2732300000000000    0.0377450000000000 H
   0.3879250000000000    0.7169300000000000    0.4067950000000000 H
   0.3149000000000000    0.6461400000000000    0.4324500000000000 H
   0.2801800000000000    0.6007500000000000    0.2977600000000000 H
   0.2092700000000000    0.5189600000000000    0.3201400000000000 H
   0.2102000000000000    0.7306900000000000    0.3973950000000000 H
   0.2690050000000000    0.8011200000000001    0.3630500000000000 H
   0.4925300000000000    0.2196800000000000    0.1770100000000000 H
   0.4803200000000000    0.9953500000000000    0.1997150000000000 H
   0.4498600000000000    0.1211700000000000    0.2404300000000000 H
   0.3457350000000000    0.0650000000000000    0.1344450000000000 H
   0.3696350000000000    0.9264500000000000    0.0994350000000000 H
   0.0192500000000000    0.8152400000000000    0.0481500000000000 H
   0.1176400000000000    0.8655700000000000    0.1088950000000000 H
   0.0175400000000000    0.5964600000000000    0.4976000000000000 H
   0.1107200000000000    0.6406500000000001    0.0605350000000000 H
   0.1869750000000000    0.7948700000000000    0.0314250000000000 H
   0.0939300000000000    0.7267700000000000    0.4622450000000000 H
   0.1120850000000000    0.2830700000000000    0.0931900000000000 H
   0.1851050000000000    0.3538600000000000    0.0675350000000000 H
   0.2198250000000000    0.3992500000000000    0.2022250000000000 H
   0.2907400000000000    0.4810400000000000    0.1798450000000000 H
   0.2898050000000000    0.2693200000000000    0.1025950000000000 H
   0.2310000000000000    0.1988800000000000    0.1369350000000000 H
   0.4697200000000000    0.9019300000000000    0.3584050000000000 H
   0.0074800000000000    0.7803200000000000    0.3229750000000000 H
   0.0196900000000000    0.0046500000000000    0.3002700000000000 H
   0.0501450000000000    0.8788300000000000    0.2595550000000000 H
   0.1542700000000000    0.9350000000000001    0.3655400000000000 H
   0.1303700000000000    0.0735600000000000    0.4005500000000000 H
   0.9807550000000000    0.1847600000000000    0.4518350000000000 H
   0.8823700000000000    0.1344400000000000    0.3910900000000000 H
   0.9824649999999999    0.4035400000000000    0.0023900000000000 H
   0.8892850000000000    0.3593500000000000    0.4394550000000000 H
   0.8130299999999999    0.2051300000000000    0.4685600000000000 H
   0.9060750000000000    0.2732300000000000    0.0377450000000000 H
   0.8879250000000001    0.7169300000000000    0.4067950000000000 H
   0.8149000000000000    0.6461400000000000    0.4324500000000000 H
   0.7801800000000000    0.6007500000000000    0.2977600000000000 H
   0.7092700000000001    0.5189600000000000    0.3201400000000000 H
   0.7101999999999999    0.7306900000000000    0.3973950000000000 H
   0.7690049999999999    0.8011200000000001    0.3630500000000000 H
   0.5302900000000000    0.0980700000000000    0.1415800000000000 H
   0.5192500000000000    0.8152400000000000    0.0481500000000000 H
   0.6176400000000000    0.8655700000000000    0.1088950000000000 H
   0.5175400000000000    0.5964600000000000    0.4976000000000000 H
   0.6107200000000000    0.6406500000000001    0.0605350000000000 H
   0.6869750000000000    0.7948700000000000    0.0314250000000000 H
   0.5939300000000000    0.7267700000000000    0.4622450000000000 H
   0.6120850000000000    0.2830700000000000    0.0931900000000000 H
   0.6851050000000000    0.3538600000000000    0.0675350000000000 H
   0.7198249999999999    0.3992500000000000    0.2022250000000000 H
   0.7907400000000000    0.4810400000000000    0.1798450000000000 H
   0.7898050000000000    0.2693200000000000    0.1025950000000000 H
   0.7310000000000000    0.1988800000000000    0.1369350000000000 H
   0.9697200000000000    0.9019300000000000    0.3584050000000000 H
   0.5074800000000000    0.7803200000000000    0.3229750000000000 H
   0.5196900000000000    0.0046500000000000    0.3002700000000000 H
   0.5501450000000000    0.8788300000000000    0.2595550000000000 H
   0.6542700000000000    0.9350000000000001    0.3655400000000000 H
   0.6303700000000000    0.0735600000000000    0.4005500000000000 H
   0.4807550000000000    0.1847600000000000    0.9518350000000000 H
   0.3823700000000000    0.1344400000000000    0.8910899999999999 H
   0.4824650000000000    0.4035400000000000    0.5023900000000000 H
   0.3892850000000000    0.3593500000000000    0.9394549999999999 H
   0.3130300000000000    0.2051300000000000    0.9685600000000000 H
   0.4060750000000000    0.2732300000000000    0.5377450000000000 H
   0.3879250000000000    0.7169300000000000    0.9067950000000000 H
   0.3149000000000000    0.6461400000000000    0.9324500000000000 H
   0.2801800000000000    0.6007500000000000    0.7977600000000000 H
   0.2092700000000000    0.5189600000000000    0.8201400000000000 H
   0.2102000000000000    0.7306900000000000    0.8973949999999999 H
   0.2690050000000000    0.8011200000000001    0.8630500000000000 H
   0.0302900000000000    0.0980700000000000    0.6415800000000000 H
   0.4925300000000000    0.2196800000000000    0.6770100000000000 H
   0.4803200000000000    0.9953500000000000    0.6997150000000000 H
   0.4498600000000000    0.1211700000000000    0.7404300000000000 H
   0.3457350000000000    0.0650000000000000    0.6344450000000000 H
   0.3696350000000000    0.9264500000000000    0.5994349999999999 H
   0.0192500000000000    0.8152400000000000    0.5481500000000000 H
   0.1176400000000000    0.8655700000000000    0.6088950000000000 H
   0.0175400000000000    0.5964600000000000    0.9976000000000000 H
   0.1107200000000000    0.6406500000000001    0.5605350000000000 H
   0.1869750000000000    0.7948700000000000    0.5314250000000000 H
   0.0939300000000000    0.7267700000000000    0.9622450000000000 H
   0.1120850000000000    0.2830700000000000    0.5931900000000000 H
   0.1851050000000000    0.3538600000000000    0.5675350000000000 H
   0.2198250000000000    0.3992500000000000    0.7022250000000000 H
   0.2907400000000000    0.4810400000000000    0.6798450000000000 H
   0.2898050000000000    0.2693200000000000    0.6025950000000000 H
   0.2310000000000000    0.1988800000000000    0.6369350000000000 H
   0.4697200000000000    0.9019300000000000    0.8584050000000000 H
   0.0074800000000000    0.7803200000000000    0.8229750000000000 H
   0.0196900000000000    0.0046500000000000    0.8002700000000000 H
   0.0501450000000000    0.8788300000000000    0.7595550000000000 H
   0.1542700000000000    0.9350000000000001    0.8655400000000000 H
   0.1303700000000000    0.0735600000000000    0.9005500000000000 H
   0.9807550000000000    0.1847600000000000    0.9518350000000000 H
   0.8823700000000000    0.1344400000000000    0.8910899999999999 H
   0.9824649999999999    0.4035400000000000    0.5023900000000000 H
   0.8892850000000000    0.3593500000000000    0.9394549999999999 H
   0.8130299999999999    0.2051300000000000    0.9685600000000000 H
   0.9060750000000000    0.2732300000000000    0.5377450000000000 H
   0.8879250000000001    0.7169300000000000    0.9067950000000000 H
   0.8149000000000000    0.6461400000000000    0.9324500000000000 H
   0.7801800000000000    0.6007500000000000    0.7977600000000000 H
   0.7092700000000001    0.5189600000000000    0.8201400000000000 H
   0.7101999999999999    0.7306900000000000    0.8973949999999999 H
   0.7690049999999999    0.8011200000000001    0.8630500000000000 H
   0.5302900000000000    0.0980700000000000    0.6415800000000000 H
   0.9925300000000000    0.2196800000000000    0.6770100000000000 H
   0.9803200000000001    0.9953500000000000    0.6997150000000000 H
   0.9498599999999999    0.1211700000000000    0.7404300000000000 H
   0.8457350000000000    0.0650000000000000    0.6344450000000000 H
   0.8696349999999999    0.9264500000000000    0.5994349999999999 H
   0.5192500000000000    0.8152400000000000    0.5481500000000000 H
   0.6176400000000000    0.8655700000000000    0.6088950000000000 H
   0.5175400000000000    0.5964600000000000    0.9976000000000000 H
   0.6107200000000000    0.6406500000000001    0.5605350000000000 H
   0.6869750000000000    0.7948700000000000    0.5314250000000000 H
   0.5939300000000000    0.7267700000000000    0.9622450000000000 H
   0.6120850000000000    0.2830700000000000    0.5931900000000000 H
   0.6851050000000000    0.3538600000000000    0.5675350000000000 H
   0.7198249999999999    0.3992500000000000    0.7022250000000000 H
   0.7907400000000000    0.4810400000000000    0.6798450000000000 H
   0.7898050000000000    0.2693200000000000    0.6025950000000000 H
   0.7310000000000000    0.1988800000000000    0.6369350000000000 H
   0.9697200000000000    0.9019300000000000    0.8584050000000000 H
   0.5074800000000000    0.7803200000000000    0.8229750000000000 H
   0.5196900000000000    0.0046500000000000    0.8002700000000000 H
   0.5501450000000000    0.8788300000000000    0.7595550000000000 H
   0.6542700000000000    0.9350000000000001    0.8655400000000000 H
   0.6303700000000000    0.0735600000000000    0.9005500000000000 H
   0.4889750000000000    0.2544200000000000    0.3877900000000000 C
   0.4418800000000000    0.2148000000000000    0.4243250000000000 C
   0.4227250000000000    0.3254600000000000    0.4677050000000000 C
   0.3691100000000000    0.2903800000000000    0.0026650000000000 C
   0.3391550000000000    0.3946700000000000    0.0349300000000000 C
   0.3611550000000000    0.5196499999999999    0.3722500000000000 C
   0.3340350000000000    0.6323200000000000    0.3920650000000000 C
   0.2595550000000000    0.6091000000000000    0.3369350000000000 C
   0.2235600000000000    0.7139799999999999    0.3546400000000000 C
   0.1415050000000000    0.6749000000000001    0.3027200000000000 C
   0.4554850000000000    0.0652800000000000    0.1954350000000000 C
   0.3673850000000000    0.9961700000000000    0.1429200000000000 C
   0.3045700000000000    0.9311300000000000    0.1623700000000000 C
   0.0110300000000000    0.7455700000000000    0.1121900000000000 C
   0.0581300000000000    0.7852000000000000    0.0756600000000000 C
   0.0772800000000000    0.6745400000000000    0.0322800000000000 C
   0.1308950000000000    0.7096200000000000    0.4973250000000000 C
   0.1608500000000000    0.6053300000000000    0.4650550000000000 C
   0.1388500000000000    0.4803500000000000    0.1277350000000000 C
   0.1659700000000000    0.3676800000000000    0.1079200000000000 C
   0.2404500000000000    0.3909100000000000    0.1630550000000000 C
   0.2764500000000000    0.2860200000000000    0.1453450000000000 C
   0.3585050000000000    0.3251000000000000    0.1972650000000000 C
   0.3983350000000000    0.7751700000000000    0.2597700000000000 C
   0.4814950000000000    0.8473800000000000    0.3160900000000000 C
   0.0445200000000000    0.9347200000000000    0.3045500000000000 C
   0.1326150000000000    0.0038300000000000    0.3570650000000000 C
   0.1954400000000000    0.0688800000000000    0.3376150000000000 C
   0.9889749999999999    0.2544200000000000    0.3877900000000000 C
   0.9418800000000001    0.2148000000000000    0.4243250000000000 C
   0.9227250000000000    0.3254600000000000    0.4677050000000000 C
   0.8691100000000000    0.2903800000000000    0.0026650000000000 C
   0.8391550000000000    0.3946700000000000    0.0349300000000000 C
   0.8611550000000000    0.5196499999999999    0.3722500000000000 C
   0.8340350000000001    0.6323200000000000    0.3920650000000000 C
   0.7595550000000000    0.6091000000000000    0.3369350000000000 C
   0.7235600000000000    0.7139799999999999    0.3546400000000000 C
   0.6415050000000000    0.6749000000000001    0.3027200000000000 C
   0.6016750000000000    0.2248400000000000    0.2402150000000000 C
   0.5185050000000000    0.1526100000000000    0.1838950000000000 C
   0.5110300000000000    0.7455700000000000    0.1121900000000000 C
   0.5581300000000000    0.7852000000000000    0.0756600000000000 C
   0.5772800000000000    0.6745400000000000    0.0322800000000000 C
   0.6308950000000000    0.7096200000000000    0.4973250000000000 C
   0.6608499999999999    0.6053300000000000    0.4650550000000000 C
   0.6388500000000000    0.4803500000000000    0.1277350000000000 C
   0.6659700000000000    0.3676800000000000    0.1079200000000000 C
   0.7404500000000001    0.3909100000000000    0.1630550000000000 C
   0.7764500000000000    0.2860200000000000    0.1453450000000000 C
   0.8585050000000001    0.3251000000000000    0.1972650000000000 C
   0.8983350000000000    0.7751700000000000    0.2597700000000000 C
   0.9814950000000000    0.8473800000000000    0.3160900000000000 C
   0.5445200000000000    0.9347200000000000    0.3045500000000000 C
   0.6326150000000000    0.0038300000000000    0.3570650000000000 C
   0.6954400000000001    0.0688800000000000    0.3376150000000000 C
   0.4889750000000000    0.2544200000000000    0.8877900000000001 C
   0.4418800000000000    0.2148000000000000    0.9243250000000001 C
   0.4227250000000000    0.3254600000000000    0.9677050000000000 C
   0.3691100000000000    0.2903800000000000    0.5026650000000000 C
   0.3391550000000000    0.3946700000000000    0.5349300000000000 C
   0.3611550000000000    0.5196499999999999    0.8722500000000000 C
   0.3340350000000000    0.6323200000000000    0.8920650000000000 C
   0.2595550000000000    0.6091000000000000    0.8369350000000000 C
   0.2235600000000000    0.7139799999999999    0.8546400000000001 C
   0.1415050000000000    0.6749000000000001    0.8027200000000000 C
   0.1016750000000000    0.2248400000000000    0.7402150000000001 C
   0.0185050000000000    0.1526100000000000    0.6838950000000000 C
   0.4554850000000000    0.0652800000000000    0.6954350000000000 C
   0.3673850000000000    0.9961700000000000    0.6429199999999999 C
   0.3045700000000000    0.9311300000000000    0.6623700000000000 C
   0.0110300000000000    0.7455700000000000    0.6121900000000000 C
   0.0581300000000000    0.7852000000000000    0.5756600000000001 C
   0.0772800000000000    0.6745400000000000    0.5322800000000000 C
   0.1308950000000000    0.7096200000000000    0.9973250000000000 C
   0.1608500000000000    0.6053300000000000    0.9650550000000000 C
   0.1388500000000000    0.4803500000000000    0.6277349999999999 C
   0.1659700000000000    0.3676800000000000    0.6079200000000000 C
   0.2404500000000000    0.3909100000000000    0.6630549999999999 C
   0.2764500000000000    0.2860200000000000    0.6453450000000001 C
   0.3585050000000000    0.3251000000000000    0.6972650000000000 C
   0.3983350000000000    0.7751700000000000    0.7597700000000001 C
   0.4814950000000000    0.8473800000000000    0.8160900000000000 C
   0.0445200000000000    0.9347200000000000    0.8045500000000000 C
   0.1326150000000000    0.0038300000000000    0.8570650000000000 C
   0.1954400000000000    0.0688800000000000    0.8376150000000000 C
   0.9889749999999999    0.2544200000000000    0.8877900000000001 C
   0.9418800000000001    0.2148000000000000    0.9243250000000001 C
   0.9227250000000000    0.3254600000000000    0.9677050000000000 C
   0.8691100000000000    0.2903800000000000    0.5026650000000000 C
   0.8391550000000000    0.3946700000000000    0.5349300000000000 C
   0.8611550000000000    0.5196499999999999    0.8722500000000000 C
   0.8340350000000001    0.6323200000000000    0.8920650000000000 C
   0.7595550000000000    0.6091000000000000    0.8369350000000000 C
   0.7235600000000000    0.7139799999999999    0.8546400000000001 C
   0.6415050000000000    0.6749000000000001    0.8027200000000000 C
   0.6016750000000000    0.2248400000000000    0.7402150000000001 C
   0.5185050000000000    0.1526100000000000    0.6838950000000000 C
   0.9554849999999999    0.0652800000000000    0.6954350000000000 C
   0.8673850000000001    0.9961700000000000    0.6429199999999999 C
   0.8045700000000000    0.9311300000000000    0.6623700000000000 C
   0.5110300000000000    0.7455700000000000    0.6121900000000000 C
   0.5581300000000000    0.7852000000000000    0.5756600000000001 C
   0.5772800000000000    0.6745400000000000    0.5322800000000000 C
   0.6308950000000000    0.7096200000000000    0.9973250000000000 C
   0.6608499999999999    0.6053300000000000    0.9650550000000000 C
   0.6388500000000000    0.4803500000000000    0.6277349999999999 C
   0.6659700000000000    0.3676800000000000    0.6079200000000000 C
   0.7404500000000001    0.3909100000000000    0.6630549999999999 C
   0.7764500000000000    0.2860200000000000    0.6453450000000001 C
   0.8585050000000001    0.3251000000000000    0.6972650000000000 C
   0.8983350000000000    0.7751700000000000    0.7597700000000001 C
   0.9814950000000000    0.8473800000000000    0.8160900000000000 C
   0.5445200000000000    0.9347200000000000    0.8045500000000000 C
   0.6326150000000000    0.0038300000000000    0.8570650000000000 C
   0.6954400000000001    0.0688800000000000    0.8376150000000000 C
   0.4460950000000000    0.2673600000000000    0.3433600000000000 O
   0.0673900000000000    0.2769700000000000    0.4042550000000000 O
   0.2783800000000000    0.4088900000000000    0.0029550000000000 O
   0.3757550000000000    0.4702200000000000    0.0941700000000000 O
   0.3118050000000000    0.4181100000000000    0.3659750000000000 O
   0.4282450000000000    0.5298100000000000    0.3608150000000000 O
   0.0737700000000000    0.5966100000000000    0.2956800000000000 O
   0.1402100000000000    0.7188000000000000    0.2651100000000000 O
   0.2763800000000000    0.9950900000000000    0.2019100000000000 O
   0.2806500000000000    0.8120800000000000    0.1399400000000000 O
   0.0539100000000000    0.7326400000000000    0.1566250000000000 O
   0.4326150000000000    0.7230300000000000    0.0957300000000000 O
   0.2216250000000000    0.5911100000000000    0.4970300000000000 O
   0.1242500000000000    0.5297800000000000    0.4058150000000000 O
   0.1882000000000000    0.5819000000000000    0.1340100000000000 O
   0.0717600000000000    0.4701900000000000    0.1391700000000000 O
   0.4262350000000000    0.4033900000000000    0.2043050000000000 O
   0.3598000000000000    0.2812000000000000    0.2348750000000000 O
   0.3970300000000000    0.6865400000000000    0.2090600000000000 O
   0.3364550000000000    0.8085500000000000    0.2648200000000000 O
   0.2236300000000000    0.0049100000000000    0.2980750000000000 O
   0.2193550000000000    0.1879200000000000    0.3600500000000000 O
   0.9460950000000000    0.2673600000000000    0.3433600000000000 O
   0.5673900000000001    0.2769700000000000    0.4042550000000000 O
   0.7783800000000001    0.4088900000000000    0.0029550000000000 O
   0.8757550000000001    0.4702200000000000    0.0941700000000000 O
   0.8118050000000000    0.4181100000000000    0.3659750000000000 O
   0.9282450000000000    0.5298100000000000    0.3608150000000000 O
   0.5737700000000000    0.5966100000000000    0.2956800000000000 O
   0.6402099999999999    0.7188000000000000    0.2651100000000000 O
   0.6029750000000000    0.3134600000000000    0.2909200000000000 O
   0.6635500000000000    0.1914500000000000    0.2351650000000000 O
   0.5539100000000000    0.7326400000000000    0.1566250000000000 O
   0.9326150000000000    0.7230300000000000    0.0957300000000000 O
   0.7216250000000000    0.5911100000000000    0.4970300000000000 O
   0.6242500000000000    0.5297800000000000    0.4058150000000000 O
   0.6882000000000000    0.5819000000000000    0.1340100000000000 O
   0.5717600000000000    0.4701900000000000    0.1391700000000000 O
   0.9262349999999999    0.4033900000000000    0.2043050000000000 O
   0.8598000000000000    0.2812000000000000    0.2348750000000000 O
   0.8970300000000000    0.6865400000000000    0.2090600000000000 O
   0.8364549999999999    0.8085500000000000    0.2648200000000000 O
   0.7236300000000000    0.0049100000000000    0.2980750000000000 O
   0.7193550000000000    0.1879200000000000    0.3600500000000000 O
   0.4460950000000000    0.2673600000000000    0.8433600000000000 O
   0.0673900000000000    0.2769700000000000    0.9042550000000000 O
   0.2783800000000000    0.4088900000000000    0.5029550000000000 O
   0.3757550000000000    0.4702200000000000    0.5941700000000000 O
   0.3118050000000000    0.4181100000000000    0.8659749999999999 O
   0.4282450000000000    0.5298100000000000    0.8608150000000000 O
   0.0737700000000000    0.5966100000000000    0.7956799999999999 O
   0.1402100000000000    0.7188000000000000    0.7651100000000000 O
   0.1029750000000000    0.3134600000000000    0.7909200000000001 O
   0.1635500000000000    0.1914500000000000    0.7351650000000001 O
   0.2763800000000000    0.9950900000000000    0.7019100000000000 O
   0.2806500000000000    0.8120800000000000    0.6399400000000000 O
   0.0539100000000000    0.7326400000000000    0.6566250000000000 O
   0.4326150000000000    0.7230300000000000    0.5957300000000000 O
   0.2216250000000000    0.5911100000000000    0.9970300000000001 O
   0.1242500000000000    0.5297800000000000    0.9058150000000000 O
   0.1882000000000000    0.5819000000000000    0.6340100000000000 O
   0.0717600000000000    0.4701900000000000    0.6391700000000000 O
   0.4262350000000000    0.4033900000000000    0.7043050000000000 O
   0.3598000000000000    0.2812000000000000    0.7348749999999999 O
   0.3970300000000000    0.6865400000000000    0.7090600000000000 O
   0.3364550000000000    0.8085500000000000    0.7648200000000001 O
   0.2236300000000000    0.0049100000000000    0.7980750000000000 O
   0.2193550000000000    0.1879200000000000    0.8600500000000000 O
   0.9460950000000000    0.2673600000000000    0.8433600000000000 O
   0.5673900000000001    0.2769700000000000    0.9042550000000000 O
   0.7783800000000001    0.4088900000000000    0.5029550000000000 O
   0.8757550000000001    0.4702200000000000    0.5941700000000000 O
   0.8118050000000000    0.4181100000000000    0.8659749999999999 O
   0.9282450000000000    0.5298100000000000    0.8608150000000000 O
   0.5737700000000000    0.5966100000000000    0.7956799999999999 O
   0.6402099999999999    0.7188000000000000    0.7651100000000000 O
   0.6029750000000000    0.3134600000000000    0.7909200000000001 O
   0.6635500000000000    0.1914500000000000    0.7351650000000001 O
   0.7763800000000001    0.9950900000000000    0.7019100000000000 O
   0.7806500000000001    0.8120800000000000    0.6399400000000000 O
   0.5539100000000000    0.7326400000000000    0.6566250000000000 O
   0.9326150000000000    0.7230300000000000    0.5957300000000000 O
   0.7216250000000000    0.5911100000000000    0.9970300000000001 O
   0.6242500000000000    0.5297800000000000    0.9058150000000000 O
   0.6882000000000000    0.5819000000000000    0.6340100000000000 O
   0.5717600000000000    0.4701900000000000    0.6391700000000000 O
   0.9262349999999999    0.4033900000000000    0.7043050000000000 O
   0.8598000000000000    0.2812000000000000    0.7348749999999999 O
   0.8970300000000000    0.6865400000000000    0.7090600000000000 O
   0.8364549999999999    0.8085500000000000    0.7648200000000001 O
   0.7236300000000000    0.0049100000000000    0.7980750000000000 O
   0.7193550000000000    0.1879200000000000    0.8600500000000000 O
