H4 O2
1.0
  15.2539986617693923    0.0000000000000000   -0.0063895803915283
  -0.0739677067483492   27.5218968299113591    0.0144104848435644
   0.0000000000000000    0.0000000000000000   22.2759999999999998
H O
4 2
direct
   1.0320057436764816    0.4177504661079685    0.6942467878509703 H
   0.9601113338534055    0.3651344937414095    0.6862077106478406 H
   0.0191815280958983    0.3331736450624128    0.4348358334436318 H
   0.0545887133532918    0.2760561692420712    0.4204609043775477 H
   0.9934800000000000    0.3935200000000000    0.6996900000000000 O
   0.0363200000000000    0.3104050000000000    0.4032500000000000 O
