Cd16 Ni16 H214 C139 N94 O2
1.0
  15.2539986617693923    0.0000000000000000   -0.0063895803915283
  -0.0739677067483492   27.5218968299113591    0.0144104848435644
   0.0000000000000000    0.0000000000000000   22.2759999999999998
Cd Ni H C N O
16 16 214 139 94 2
direct
   0.5339500000000000    0.3345850000000000    0.3013600000000000 Cd
   0.5340900000000000    0.0842600000000000    0.1991800000000000 Cd
   0.5339500000000000    0.8345850000000000    0.3013600000000000 Cd
   0.5340900000000000    0.5842600000000000    0.1991800000000000 Cd
   0.4660100000000000    0.1654050000000000    0.6986400000000000 Cd
   0.4659100000000000    0.4157250000000000    0.8008300000000000 Cd
   0.4660100000000000    0.6654050000000000    0.6986400000000000 Cd
   0.4659100000000000    0.9157250000000000    0.8008300000000000 Cd
   0.0339600000000000    0.3345850000000000    0.3013600000000000 Cd
   0.0340900000000000    0.0842650000000000    0.1991800000000000 Cd
   0.0339600000000000    0.8345850000000000    0.3013600000000000 Cd
   0.0340900000000000    0.5842650000000000    0.1991800000000000 Cd
   0.9660400000000000    0.1654100000000000    0.6986000000000000 Cd
   0.9659200000000000    0.4157250000000000    0.8008300000000000 Cd
   0.9660400000000000    0.6654100000000001    0.6986000000000000 Cd
   0.9659200000000000    0.9157250000000000    0.8008300000000000 Cd
   0.7830900000000000    0.4596650000000000    0.2695600000000000 Ni
   0.7829400000000000    0.2094500000000000    0.2325400000000000 Ni
   0.7830900000000000    0.9596650000000000    0.2695600000000000 Ni
   0.7829400000000000    0.7094500000000000    0.2325400000000000 Ni
   0.2169000000000000    0.0403250000000000    0.7304300000000000 Ni
   0.2170500000000000    0.2905500000000000    0.7674500000000000 Ni
   0.2169000000000000    0.5403249999999999    0.7304300000000000 Ni
   0.2170500000000000    0.7905500000000000    0.7674500000000000 Ni
   0.2830900000000000    0.4596650000000000    0.2695600000000000 Ni
   0.2829400000000000    0.2094400000000000    0.2325500000000000 Ni
   0.2830900000000000    0.9596650000000000    0.2695600000000000 Ni
   0.2829400000000000    0.7094400000000000    0.2325500000000000 Ni
   0.7169200000000000    0.0403400000000000    0.7304700000000000 Ni
   0.7170600000000000    0.2905500000000000    0.7674000000000000 Ni
   0.7169200000000000    0.5403400000000000    0.7304700000000000 Ni
   0.7170600000000000    0.7905500000000000    0.7674000000000000 Ni
   0.4624700000000000    0.5395550000000000    0.9897300000000000 H
   0.5726500000000000    0.5561199999999999    0.9771000000000000 H
   0.5978100000000000    0.5477050000000000    0.0894900000000000 H
   0.4950400000000000    0.5307050000000000    0.0965900000000000 H
   0.4457300000000000    0.6099800000000000    0.0614900000000000 H
   0.5567299999999999    0.6254600000000000    0.0503700000000000 H
   0.5227700000000000    0.6350850000000000    0.9314900000000000 H
   0.4124400000000000    0.6185000000000000    0.9446000000000000 H
   0.4343700000000000    0.5424000000000000    0.8826700000000000 H
   0.5425600000000000    0.5605450000000000    0.8667800000000000 H
   0.4890900000000000    0.6716949999999999    0.8284000000000000 H
   0.5592100000000000    0.6338000000000000    0.7971300000000000 H
   0.4396600000000000    0.5741499999999999    0.7839600000000000 H
   0.3743800000000000    0.6131200000000000    0.8276500000000000 H
   0.5375300000000000    0.4604400000000000    0.0102700000000000 H
   0.4273600000000000    0.4438800000000000    0.0229100000000000 H
   0.4021800000000000    0.4522900000000000    0.9105200000000000 H
   0.5049500000000000    0.4692900000000000    0.9034200000000000 H
   0.5542700000000000    0.3900150000000000    0.9385200000000000 H
   0.4432700000000000    0.3745350000000000    0.9496500000000000 H
   0.4772300000000000    0.3649150000000000    0.0685200000000000 H
   0.5875600000000000    0.3814950000000000    0.0553500000000000 H
   0.5656400000000000    0.4575950000000000    0.1173000000000000 H
   0.4574500000000000    0.4394550000000000    0.1332300000000000 H
   0.5108900000000000    0.3283050000000000    0.1716000000000000 H
   0.4407800000000000    0.3662000000000000    0.2028000000000000 H
   0.5603399999999999    0.4258450000000000    0.2160500000000000 H
   0.6256100000000000    0.3868700000000000    0.1723600000000000 H
   0.4624700000000000    0.0395550000000000    0.9897300000000000 H
   0.5726500000000000    0.0561200000000000    0.9771000000000000 H
   0.5978100000000000    0.0477050000000000    0.0894900000000000 H
   0.4950400000000000    0.0307050000000000    0.0965900000000000 H
   0.4457300000000000    0.1099800000000000    0.0614900000000000 H
   0.5567299999999999    0.1254600000000000    0.0503700000000000 H
   0.5227700000000000    0.1350850000000000    0.9314900000000000 H
   0.4124400000000000    0.1185000000000000    0.9446000000000000 H
   0.4343700000000000    0.0424000000000000    0.8826700000000000 H
   0.5425600000000000    0.0605450000000000    0.8667800000000000 H
   0.4890900000000000    0.1716950000000000    0.8284000000000000 H
   0.5592100000000000    0.1338000000000000    0.7971300000000000 H
   0.4396600000000000    0.0741500000000000    0.7839600000000000 H
   0.3743800000000000    0.1131200000000000    0.8276500000000000 H
   0.5375300000000000    0.9604400000000000    0.0102700000000000 H
   0.4273600000000000    0.9438800000000001    0.0229100000000000 H
   0.4021800000000000    0.9522900000000001    0.9105200000000000 H
   0.5049500000000000    0.9692900000000000    0.9034200000000000 H
   0.5542700000000000    0.8900150000000000    0.9385200000000000 H
   0.4432700000000000    0.8745350000000001    0.9496500000000000 H
   0.4772300000000000    0.8649150000000000    0.0685200000000000 H
   0.5875600000000000    0.8814949999999999    0.0553500000000000 H
   0.5656400000000000    0.9575950000000000    0.1173000000000000 H
   0.4574500000000000    0.9394549999999999    0.1332300000000000 H
   0.5108900000000000    0.8283050000000001    0.1716000000000000 H
   0.4407800000000000    0.8662000000000001    0.2028000000000000 H
   0.5603399999999999    0.9258450000000000    0.2160500000000000 H
   0.6256100000000000    0.8868700000000000    0.1723600000000000 H
   0.5363400000000000    0.7106600000000000    0.4892900000000000 H
   0.4263500000000000    0.6936400000000000    0.4767200000000000 H
   0.4013600000000000    0.7021500000000001    0.5891700000000000 H
   0.5040000000000000    0.7195050000000001    0.5961400000000000 H
   0.5540700000000000    0.6403700000000000    0.5612500000000000 H
   0.4432300000000000    0.6245050000000000    0.5502400000000000 H
   0.4774300000000000    0.6146800000000000    0.4316400000000000 H
   0.5874900000000000    0.6320050000000000    0.4444600000000000 H
   0.5633899999999999    0.7078200000000000    0.3820700000000000 H
   0.4556200000000000    0.6887600000000000    0.3664800000000000 H
   0.5131700000000000    0.5776700000000000    0.3291000000000000 H
   0.4409000000000000    0.6144900000000000    0.2981100000000000 H
   0.5580300000000000    0.6755599999999999    0.2835300000000000 H
   0.6252000000000000    0.6376750000000000    0.3274000000000000 H
   0.4366200000000000    0.7921750000000001    0.6179300000000000 H
   0.5443900000000000    0.8112400000000000    0.6335200000000000 H
   0.4868400000000000    0.9223200000000000    0.6708600000000000 H
   0.5591100000000000    0.8855050000000000    0.7019000000000000 H
   0.4419800000000000    0.8244350000000000    0.7164700000000001 H
   0.3748100000000000    0.8623200000000000    0.6726000000000000 H
   0.5225800000000000    0.8853150000000001    0.5683600000000000 H
   0.4125200000000000    0.8679900000000000    0.5555400000000000 H
   0.4636800000000000    0.7893350000000000    0.5107000000000000 H
   0.5736599999999999    0.8063600000000000    0.5232800000000000 H
   0.5986500000000000    0.7978450000000000    0.4108000000000000 H
   0.4960000000000000    0.7804900000000000    0.4038700000000000 H
   0.4459400000000000    0.8596250000000000    0.4387500000000000 H
   0.5567800000000001    0.8754900000000000    0.4497600000000000 H
   0.5363400000000000    0.2106600000000000    0.4892900000000000 H
   0.4263500000000000    0.1936400000000000    0.4767200000000000 H
   0.4013600000000000    0.2021500000000000    0.5891700000000000 H
   0.5040000000000000    0.2195050000000000    0.5961400000000000 H
   0.5540700000000000    0.1403700000000000    0.5612500000000000 H
   0.4432300000000000    0.1245050000000000    0.5502400000000000 H
   0.4774300000000000    0.1146800000000000    0.4316400000000000 H
   0.5874900000000000    0.1320050000000000    0.4444600000000000 H
   0.5633899999999999    0.2078200000000000    0.3820700000000000 H
   0.4556200000000000    0.1887600000000000    0.3664800000000000 H
   0.5131700000000000    0.0776700000000000    0.3291000000000000 H
   0.4409000000000000    0.1144900000000000    0.2981100000000000 H
   0.5580300000000000    0.1755600000000000    0.2835300000000000 H
   0.6252000000000000    0.1376750000000000    0.3274000000000000 H
   0.4366200000000000    0.2921750000000000    0.6179300000000000 H
   0.5443900000000000    0.3112400000000000    0.6335200000000000 H
   0.4868400000000000    0.4223200000000000    0.6708600000000000 H
   0.5591100000000000    0.3855050000000000    0.7019000000000000 H
   0.4419800000000000    0.3244350000000000    0.7164700000000001 H
   0.3748100000000000    0.3623200000000000    0.6726000000000000 H
   0.5225800000000000    0.3853150000000000    0.5683600000000000 H
   0.4125200000000000    0.3679900000000000    0.5555400000000000 H
   0.4636800000000000    0.2893350000000000    0.5107000000000000 H
   0.5736599999999999    0.3063600000000000    0.5232800000000000 H
   0.5986500000000000    0.2978450000000000    0.4108000000000000 H
   0.4960000000000000    0.2804900000000000    0.4038700000000000 H
   0.4459400000000000    0.3596250000000000    0.4387500000000000 H
   0.5567800000000001    0.3754900000000000    0.4497600000000000 H
   1.0320057436764816    0.4177504661079685    0.6942467878509703 H
   0.9601113338534055    0.3651344937414095    0.6862077106478406 H
   0.9624700000000000    0.5395600000000000    0.9897400000000000 H
   0.0726300000000000    0.5561150000000000    0.9771000000000000 H
   0.0978100000000000    0.5477000000000000    0.0894900000000000 H
   0.9950300000000000    0.5307050000000000    0.0965900000000000 H
   0.9457500000000000    0.6099850000000000    0.0614900000000000 H
   0.0567300000000000    0.6254550000000000    0.0503600000000000 H
   0.0227600000000000    0.6350800000000000    0.9314900000000000 H
   0.9124500000000000    0.6185050000000000    0.9446600000000001 H
   0.9343600000000000    0.5424050000000000    0.8826800000000000 H
   0.0425300000000000    0.5605400000000000    0.8667000000000000 H
   0.9891000000000000    0.6716949999999999    0.8284000000000000 H
   0.0592000000000000    0.6337950000000000    0.7971300000000000 H
   0.9396500000000000    0.5741499999999999    0.7839600000000000 H
   0.8743800000000000    0.6131300000000000    0.8276500000000000 H
   0.0108900000000000    0.3283000000000000    0.1716000000000000 H
   0.9407900000000000    0.3662000000000000    0.2028800000000000 H
   0.0603300000000000    0.4258450000000000    0.2160500000000000 H
   0.1256000000000000    0.3868700000000000    0.1723600000000000 H
   0.9574600000000000    0.4394550000000000    0.1332300000000000 H
   0.0656300000000000    0.4575950000000000    0.1173300000000000 H
   0.9772300000000000    0.3649150000000000    0.0685200000000000 H
   0.0875400000000000    0.3814950000000000    0.0553500000000000 H
   0.0375100000000000    0.4604400000000000    0.0102700000000000 H
   0.9273500000000000    0.4438800000000000    0.0229100000000000 H
   0.0000000000000000    0.4692900000000000    0.9034100000000000 H
   0.9021700000000000    0.4522850000000000    0.9105200000000000 H
   0.0542500000000000    0.3900150000000000    0.9385200000000000 H
   0.9432700000000001    0.3745350000000000    0.9496000000000000 H
   0.9624700000000000    0.0395600000000000    0.9897400000000000 H
   0.0726300000000000    0.0561150000000000    0.9771000000000000 H
   0.0978100000000000    0.0477000000000000    0.0894900000000000 H
   0.9950300000000000    0.0307050000000000    0.0965900000000000 H
   0.9457500000000000    0.1099850000000000    0.0614900000000000 H
   0.0567300000000000    0.1254550000000000    0.0503600000000000 H
   0.0227600000000000    0.1350800000000000    0.9314900000000000 H
   0.9124500000000000    0.1185050000000000    0.9446600000000001 H
   0.9343600000000000    0.0424050000000000    0.8826800000000000 H
   0.0425300000000000    0.0605400000000000    0.8667000000000000 H
   0.9891000000000000    0.1716950000000000    0.8284000000000000 H
   0.0592000000000000    0.1337950000000000    0.7971300000000000 H
   0.9396500000000000    0.0741500000000000    0.7839600000000000 H
   0.8743800000000000    0.1131300000000000    0.8276500000000000 H
   0.0108900000000000    0.8283000000000000    0.1716000000000000 H
   0.9407900000000000    0.8662000000000001    0.2028800000000000 H
   0.0603300000000000    0.9258450000000000    0.2160500000000000 H
   0.1256000000000000    0.8868700000000000    0.1723600000000000 H
   0.9574600000000000    0.9394549999999999    0.1332300000000000 H
   0.0656300000000000    0.9575950000000000    0.1173300000000000 H
   0.9772300000000000    0.8649150000000000    0.0685200000000000 H
   0.0875400000000000    0.8814949999999999    0.0553500000000000 H
   0.0375100000000000    0.9604400000000000    0.0102700000000000 H
   0.9273500000000000    0.9438800000000001    0.0229100000000000 H
   0.0000000000000000    0.9692900000000000    0.9034100000000000 H
   0.9021700000000000    0.9522850000000000    0.9105200000000000 H
   0.0542500000000000    0.8900150000000000    0.9385200000000000 H
   0.9432700000000001    0.8745350000000001    0.9496000000000000 H
   0.9636900000000000    0.7893350000000000    0.5107100000000000 H
   0.0736600000000000    0.8063600000000000    0.5232800000000000 H
   0.0986500000000000    0.7978499999999999    0.4108000000000000 H
   0.9960100000000000    0.7804900000000000    0.4038700000000000 H
   0.9459500000000000    0.8596250000000000    0.4387500000000000 H
   0.0567700000000000    0.8754900000000000    0.4497600000000000 H
   0.0225700000000000    0.8853150000000001    0.5683600000000000 H
   0.9125300000000000    0.8679900000000000    0.5555400000000000 H
   0.9366300000000000    0.7921800000000000    0.6179300000000000 H
   0.0443800000000000    0.8112400000000000    0.6335200000000000 H
   0.9868500000000000    0.9223200000000000    0.6708600000000000 H
   0.0591000000000000    0.8855000000000000    0.7019000000000000 H
   0.9419800000000000    0.8244350000000000    0.7164700000000001 H
   0.8748100000000000    0.8623250000000000    0.6726000000000000 H
   0.0131700000000000    0.5776700000000000    0.3291500000000000 H
   0.9409200000000000    0.6144900000000000    0.2981100000000000 H
   0.0580300000000000    0.6755599999999999    0.2835300000000000 H
   0.1252000000000000    0.6376700000000000    0.3274000000000000 H
   0.9556400000000000    0.6887600000000000    0.3664800000000000 H
   0.0633900000000000    0.7078200000000000    0.3820700000000000 H
   0.9774500000000000    0.6146800000000000    0.4316400000000000 H
   0.0874900000000000    0.6320050000000000    0.4444600000000000 H
   0.0363300000000000    0.7106600000000000    0.4892900000000000 H
   0.9263600000000000    0.6936400000000000    0.4767200000000000 H
   0.0000000000000000    0.7195050000000001    0.5961400000000000 H
   0.9013600000000001    0.7021450000000000    0.5891800000000000 H
   0.0540600000000000    0.6403700000000000    0.5612500000000000 H
   0.9432400000000000    0.6245050000000000    0.5502400000000000 H
   0.0191815280958983    0.3331736450624128    0.4348358334436318 H
   0.0545887133532918    0.2760561692420712    0.4204609043775477 H
   0.0131700000000000    0.0776700000000000    0.3291500000000000 H
   0.9409200000000000    0.1144900000000000    0.2981100000000000 H
   0.0580300000000000    0.1755600000000000    0.2835300000000000 H
   0.1252000000000000    0.1376700000000000    0.3274000000000000 H
   0.9556400000000000    0.1887600000000000    0.3664800000000000 H
   0.0633900000000000    0.2078200000000000    0.3820700000000000 H
   0.9774500000000000    0.1146800000000000    0.4316400000000000 H
   0.0874900000000000    0.1320050000000000    0.4444600000000000 H
   0.0363300000000000    0.2106600000000000    0.4892900000000000 H
   0.9263600000000000    0.1936400000000000    0.4767200000000000 H
   0.0000000000000000    0.2195050000000000    0.5961400000000000 H
   0.9013600000000001    0.2021450000000000    0.5891800000000000 H
   0.0540600000000000    0.1403700000000000    0.5612500000000000 H
   0.9432400000000000    0.1245050000000000    0.5502400000000000 H
   0.5072100000000000    0.5711150000000000    0.9873800000000000 C
   0.5100100000000000    0.5949650000000000    0.0492400000000000 C
   0.4781400000000000    0.6036250000000000    0.9352700000000000 C
   0.4764700000000000    0.5746850000000000    0.8766200000000000 C
   0.4420300000000000    0.6005100000000000    0.8208000000000000 C
   0.4927900000000000    0.4288850000000000    0.0126300000000000 C
   0.4899800000000000    0.4050300000000000    0.9507000000000000 C
   0.5218600000000000    0.3963750000000000    0.0647400000000000 C
   0.5235300000000001    0.4253150000000000    0.1233900000000000 C
   0.5579700000000000    0.3994850000000000    0.1791700000000000 C
   0.5072100000000000    0.0711150000000000    0.9873800000000000 C
   0.5100100000000000    0.0949650000000000    0.0492400000000000 C
   0.4781400000000000    0.1036250000000000    0.9352700000000000 C
   0.4764700000000000    0.0746850000000000    0.8766200000000000 C
   0.4420300000000000    0.1005100000000000    0.8208000000000000 C
   0.4927900000000000    0.9288850000000000    0.0126300000000000 C
   0.4899800000000000    0.9050300000000000    0.9507000000000000 C
   0.5218600000000000    0.8963749999999999    0.0647400000000000 C
   0.5235300000000001    0.9253150000000000    0.1233900000000000 C
   0.5579700000000000    0.8994850000000000    0.1791700000000000 C
   0.6966700000000000    0.4995600000000000    0.2392900000000000 C
   0.8679100000000000    0.4989400000000000    0.2357800000000000 C
   0.6989600000000000    0.4187750000000000    0.3007800000000000 C
   0.8686900000000000    0.4197850000000000    0.3003600000000000 C
   0.6963700000000000    0.2495550000000000    0.2620000000000000 C
   0.8676500000000000    0.2491000000000000    0.2656000000000000 C
   0.6990400000000000    0.1684900000000000    0.2010500000000000 C
   0.8685900000000000    0.1695700000000000    0.2017800000000000 C
   0.6966700000000000    0.9995600000000000    0.2392900000000000 C
   0.8679100000000000    0.9989399999999999    0.2357800000000000 C
   0.6989600000000000    0.9187750000000000    0.3007800000000000 C
   0.8686900000000000    0.9197850000000001    0.3003600000000000 C
   0.6963700000000000    0.7495550000000000    0.2620000000000000 C
   0.8676500000000000    0.7491000000000000    0.2656000000000000 C
   0.6990400000000000    0.6684900000000000    0.2010500000000000 C
   0.8685900000000000    0.6695700000000000    0.2017800000000000 C
   0.4920000000000000    0.6789300000000000    0.4870700000000000 C
   0.4896000000000000    0.6551549999999999    0.5489800000000000 C
   0.5214299999999999    0.6464300000000001    0.4351300000000000 C
   0.5221100000000000    0.6751850000000000    0.3763100000000000 C
   0.5570200000000000    0.6494250000000000    0.3207100000000000 C
   0.4779000000000000    0.8248100000000000    0.6236900000000000 C
   0.4429900000000000    0.8505700000000000    0.6792899999999999 C
   0.4785800000000000    0.8535650000000000    0.5648000000000000 C
   0.5080100000000000    0.8210700000000000    0.5129400000000000 C
   0.5104100000000000    0.8448350000000000    0.4510200000000000 C
   0.4920000000000000    0.1789300000000000    0.4870700000000000 C
   0.4896000000000000    0.1551550000000000    0.5489800000000000 C
   0.5214299999999999    0.1464300000000000    0.4351300000000000 C
   0.5221100000000000    0.1751850000000000    0.3763100000000000 C
   0.5570200000000000    0.1494250000000000    0.3207100000000000 C
   0.4779000000000000    0.3248100000000000    0.6236900000000000 C
   0.4429900000000000    0.3505700000000000    0.6792899999999999 C
   0.4785800000000000    0.3535650000000000    0.5648000000000000 C
   0.5080100000000000    0.3210700000000000    0.5129400000000000 C
   0.5104100000000000    0.3448350000000000    0.4510200000000000 C
   0.1321100000000000    0.0000000000000000    0.7642800000000000 C
   0.3033200000000000    0.0000000000000000    0.7607000000000000 C
   0.3010300000000000    0.0812100000000000    0.6992000000000000 C
   0.1313200000000000    0.0802150000000000    0.6996300000000000 C
   0.3036100000000000    0.2504450000000000    0.7379700000000000 C
   0.1323600000000000    0.2508900000000000    0.7343200000000000 C
   0.3009600000000000    0.3315000000000000    0.7989600000000000 C
   0.1313800000000000    0.3304150000000000    0.7982300000000000 C
   0.1321100000000000    0.5000000000000000    0.7642800000000000 C
   0.3033200000000000    0.5000000000000000    0.7607000000000000 C
   0.3010300000000000    0.5812100000000000    0.6992000000000000 C
   0.1313200000000000    0.5802150000000000    0.6996300000000000 C
   0.3036100000000000    0.7504450000000000    0.7379700000000000 C
   0.1323600000000000    0.7508900000000001    0.7343200000000000 C
   0.3009600000000000    0.8315000000000000    0.7989600000000000 C
   0.1313800000000000    0.8304150000000000    0.7982300000000000 C
   0.0071900000000000    0.5711150000000000    0.9873800000000000 C
   0.0100100000000000    0.5949650000000000    0.0492000000000000 C
   0.9781500000000000    0.6036250000000000    0.9352700000000000 C
   0.9764500000000000    0.5746850000000000    0.8766200000000000 C
   0.9420200000000000    0.6005100000000000    0.8208400000000000 C
   0.0579600000000000    0.3994850000000000    0.1791700000000000 C
   0.0000000000000000    0.4253100000000000    0.1233900000000000 C
   0.0218400000000000    0.3963750000000000    0.0647300000000000 C
   0.9927900000000000    0.4288850000000000    0.0126200000000000 C
   0.9899800000000000    0.4050300000000000    0.9507700000000000 C
   0.0071900000000000    0.0711150000000000    0.9873800000000000 C
   0.0100100000000000    0.0949650000000000    0.0492000000000000 C
   0.9781500000000000    0.1036250000000000    0.9352700000000000 C
   0.9764500000000000    0.0746850000000000    0.8766200000000000 C
   0.9420200000000000    0.1005100000000000    0.8208400000000000 C
   0.0579600000000000    0.8994850000000000    0.1791700000000000 C
   0.0000000000000000    0.9253100000000001    0.1233900000000000 C
   0.0218400000000000    0.8963749999999999    0.0647300000000000 C
   0.9927900000000000    0.9288850000000000    0.0126200000000000 C
   0.9899800000000000    0.9050300000000000    0.9507700000000000 C
   0.1966600000000000    0.4995600000000000    0.2393000000000000 C
   0.3679000000000000    0.4989300000000000    0.2357600000000000 C
   0.1989500000000000    0.4187750000000000    0.3007700000000000 C
   0.3686600000000000    0.4197900000000000    0.3004000000000000 C
   0.1963700000000000    0.2495600000000000    0.2619900000000000 C
   0.3676300000000000    0.2491150000000000    0.2656800000000000 C
   0.1990400000000000    0.1684950000000000    0.2010400000000000 C
   0.3685800000000000    0.1695750000000000    0.2017000000000000 C
   0.1966600000000000    0.9995600000000000    0.2393000000000000 C
   0.3679000000000000    0.9989300000000000    0.2357600000000000 C
   0.1989500000000000    0.9187750000000000    0.3007700000000000 C
   0.3686600000000000    0.9197900000000000    0.3004000000000000 C
   0.1963700000000000    0.7495600000000000    0.2619900000000000 C
   0.3676300000000000    0.7491150000000000    0.2656800000000000 C
   0.1990400000000000    0.6684950000000001    0.2010400000000000 C
   0.3685800000000000    0.6695750000000000    0.2017000000000000 C
   0.0080100000000000    0.8210700000000000    0.5129000000000000 C
   0.0104000000000000    0.8448400000000000    0.4510200000000000 C
   0.9785900000000000    0.8535650000000000    0.5648700000000000 C
   0.9778900000000000    0.8248100000000000    0.6236900000000000 C
   0.9429900000000000    0.8505700000000000    0.6792899999999999 C
   0.0570200000000000    0.6494250000000000    0.3207100000000000 C
   0.0000000000000000    0.6751850000000000    0.3763000000000000 C
   0.0214300000000000    0.6464350000000000    0.4351300000000000 C
   0.9920099999999999    0.6789300000000000    0.4870700000000000 C
   0.9896100000000000    0.6551549999999999    0.5489800000000000 C
   0.0570200000000000    0.1494250000000000    0.3207100000000000 C
   0.0000000000000000    0.1751850000000000    0.3763000000000000 C
   0.0214300000000000    0.1464350000000000    0.4351300000000000 C
   0.9920099999999999    0.1789300000000000    0.4870700000000000 C
   0.9896100000000000    0.1551550000000000    0.5489800000000000 C
   0.6320800000000000    0.0000000000000000    0.7642000000000000 C
   0.8033500000000000    0.0000000000000000    0.7606000000000001 C
   0.8010200000000000    0.0812200000000000    0.6992300000000000 C
   0.6313200000000000    0.0802050000000000    0.6996200000000000 C
   0.8036300000000000    0.2504350000000000    0.7380000000000000 C
   0.6323800000000001    0.2508800000000000    0.7343100000000000 C
   0.8009600000000000    0.3315000000000000    0.7989000000000001 C
   0.6314100000000000    0.3304100000000000    0.7982399999999999 C
   0.6320800000000000    0.5000000000000000    0.7642000000000000 C
   0.8033500000000000    0.5000000000000000    0.7606000000000001 C
   0.8010200000000000    0.5812200000000000    0.6992300000000000 C
   0.6313200000000000    0.5802050000000000    0.6996200000000000 C
   0.8036300000000000    0.7504350000000000    0.7380000000000000 C
   0.6323800000000001    0.7508800000000000    0.7343100000000000 C
   0.8009600000000000    0.8315000000000000    0.7989000000000001 C
   0.6314100000000000    0.8304100000000000    0.7982399999999999 C
   0.5356700000000000    0.5604950000000000    0.0971200000000000 N
   0.4939800000000000    0.6427100000000000    0.7997300000000001 N
   0.4643200000000000    0.4394950000000000    0.9028900000000000 N
   0.5060000000000000    0.3572900000000000    0.2002800000000000 N
   0.5356700000000000    0.0604950000000000    0.0971200000000000 N
   0.4939800000000000    0.1427100000000000    0.7997300000000001 N
   0.4643200000000000    0.9394950000000000    0.9028900000000000 N
   0.5060000000000000    0.8572900000000000    0.2002800000000000 N
   0.6412400000000000    0.5248150000000000    0.2203300000000000 N
   0.9221400000000000    0.5234000000000000    0.2135300000000000 N
   0.6452599999999999    0.3918100000000000    0.3188000000000000 N
   0.9229900000000000    0.3938350000000000    0.3195400000000000 N
   0.6408700000000001    0.2751100000000000    0.2801700000000000 N
   0.9218700000000000    0.2739900000000000    0.2872100000000000 N
   0.6455600000000000    0.1416200000000000    0.1825000000000000 N
   0.9227300000000001    0.1437100000000000    0.1822800000000000 N
   0.6412400000000000    0.0248150000000000    0.2203300000000000 N
   0.9221400000000000    0.0234000000000000    0.2135300000000000 N
   0.6452599999999999    0.8918100000000000    0.3188000000000000 N
   0.9229900000000000    0.8938349999999999    0.3195400000000000 N
   0.6408700000000001    0.7751100000000000    0.2801700000000000 N
   0.9218700000000000    0.7739900000000000    0.2872100000000000 N
   0.6455600000000000    0.6416200000000000    0.1825000000000000 N
   0.9227300000000001    0.6437100000000000    0.1822800000000000 N
   0.4636800000000000    0.6895850000000000    0.5967500000000000 N
   0.5065300000000000    0.6064700000000000    0.3003200000000000 N
   0.4934700000000000    0.8935250000000000    0.6996900000000000 N
   0.5363200000000000    0.8104050000000000    0.4032500000000000 N
   0.4636800000000000    0.1895850000000000    0.5967500000000000 N
   0.5065300000000000    0.1064700000000000    0.3003200000000000 N
   0.4934700000000000    0.3935250000000000    0.6996900000000000 N
   0.5363200000000000    0.3104050000000000    0.4032500000000000 N
   0.0778400000000000    0.9766300000000000    0.7865400000000000 N
   0.3587400000000000    0.9751700000000000    0.7796000000000000 N
   0.3547700000000000    0.1081300000000000    0.6811199999999999 N
   0.0770200000000000    0.1061650000000000    0.6804600000000000 N
   0.3591000000000000    0.2248900000000000    0.7197900000000000 N
   0.0781200000000000    0.2260150000000000    0.7127900000000000 N
   0.3544500000000000    0.3583700000000000    0.8175100000000000 N
   0.0772400000000000    0.3562500000000000    0.8177900000000000 N
   0.0778400000000000    0.4766300000000000    0.7865400000000000 N
   0.3587400000000000    0.4751700000000000    0.7796000000000000 N
   0.3547700000000000    0.6081300000000001    0.6811199999999999 N
   0.0770200000000000    0.6061650000000000    0.6804600000000000 N
   0.3591000000000000    0.7248900000000000    0.7197900000000000 N
   0.0781200000000000    0.7260150000000000    0.7127900000000000 N
   0.3544500000000000    0.8583700000000001    0.8175100000000000 N
   0.0772400000000000    0.8562500000000000    0.8177900000000000 N
   0.0356600000000000    0.5604950000000000    0.0971200000000000 N
   0.9939900000000000    0.6427050000000000    0.7997300000000001 N
   0.0060000000000000    0.3572900000000000    0.2002700000000000 N