H2 C10 O8
1.0
  11.8654904720836036    0.0000000000000000    0.7630438105988691
   0.0561195399474486    7.4737376590140032    0.0277849144677412
   0.0000000000000000    0.0000000000000000   31.1722000000000001
H C O
2 10 8
direct
   0.4666150000000000    0.1856700000000000    0.7393900000000000 H
   0.5333550000000000    0.8299500000000000    0.7606299999999999 H
   0.4807050000000000    0.3276700000000000    0.7442150000000000 C
   0.4965750000000000    0.5798300000000000    0.7920650000000000 C
   0.4773250000000000    0.3960900000000000    0.7859350000000001 C
   0.4576600000000000    0.2623900000000000    0.8216100000000000 C
   0.4856950000000000    0.6702399999999999    0.8353550000000001 C
   0.5034000000000000    0.4357800000000000    0.7079550000000000 C
   0.5226450000000000    0.6195300000000000    0.7140850000000000 C
   0.5423150000000000    0.7532300000000000    0.6784050000000000 C
   0.5142750000000000    0.3453700000000000    0.6646600000000000 C
   0.5192650000000000    0.6879400000000000    0.7558000000000000 C
   0.4946800000000000    0.4287900000000000    0.6300950000000000 O
   0.4595200000000000    0.7969900000000000    0.6558800000000000 O
   0.4542950000000000   -0.1672000000000000    0.8340400000000000 O
   0.3629700000000000    0.1862800000000000    0.8262800000000000 O
   0.5456750000000000    0.1828100000000000    0.6659800000000000 O
   0.6370050000000000   -0.1706700000000000    0.6737400000000000 O
   0.5053000000000000    0.5868300000000000    0.8699200000000000 O
   0.5404550000000000    0.2186300000000000    0.8441350000000001 O
