H12 O8
1.0
  11.8654904720836036    0.0000000000000000    0.7630438105988691
   0.0561195399474486    7.4737376590140032    0.0277849144677412
   0.0000000000000000    0.0000000000000000   31.1722000000000001
H O
12 8
direct
   0.4665361172491849    0.1851098782769242    0.8386278731320718 H
   0.6169382864501715    0.2177658683968788    0.8532538695964950 H
   0.2868719057485413    0.1517716675242246    0.8206105168604469 H
   0.4316531139832414    0.2347079384425353    0.7965360904882565 H
   0.4985105937147689    0.7073462980383489    0.8586740605596503 H
   0.4346794367253827   -0.2609863493277557    0.8144944795004796 H
   0.5014643120548992    0.3082723197060335    0.6413406247226286 H
   0.5652838810997608    0.2765947495012092    0.6855270810375916 H
   0.5682999188965250   -0.2191029309182168    0.7034828956851267 H
   0.5908080578342638   -0.1894894218882134    0.7000420034233110 H
   0.6962445187914688   -0.1645692734424039    0.6936666854489287 H
   0.4132084971572916    0.7781239090984133    0.6822472279852980 H
   0.5404550000000000    0.2186300000000000    0.8441350000000001 O
   0.3629700000000000    0.1862800000000000    0.8262800000000000 O
   0.5053000000000000    0.5868300000000000    0.8699200000000000 O
   0.4542950000000000   -0.1672000000000000    0.8340400000000000 O
   0.4946800000000000    0.4287900000000000    0.6300950000000000 O
   0.5456750000000000    0.1828100000000000    0.6659800000000000 O
   0.6370050000000000   -0.1706700000000000    0.6737400000000000 O
   0.4595200000000000    0.7969900000000000    0.6558800000000000 O
