Zn16 H26 C70 O64
1.0
  11.8654904720836036    0.0000000000000000    0.7630438105988691
   0.0561195399474486    7.4737376590140032    0.0277849144677412
   0.0000000000000000    0.0000000000000000   31.1722000000000001
Zn H C O
16 26 70 64
direct
   0.6253450000000000    0.0154900000000000    0.6249100000000000 Zn
   0.3746250000000000    0.0001300000000000    0.8751050000000000 Zn
   0.1250050000000000    0.3988000000000000    0.3749600000000000 Zn
   0.3749900000000000    0.6168200000000000    0.6250550000000000 Zn
   0.6250050000000000    0.3988000000000000    0.8749600000000000 Zn
   0.8749899999999999    0.6168200000000000    0.1250550000000000 Zn
   0.8746250000000000    0.0001300000000000    0.3751050000000000 Zn
   0.1253450000000000    0.0154900000000000    0.1249100000000000 Zn
   0.6250050000000000    0.3988000000000000    0.3749600000000000 Zn
   0.8749899999999999    0.6168200000000000    0.6250550000000000 Zn
   0.1250050000000000    0.3988000000000000    0.8749600000000000 Zn
   0.3749900000000000    0.6168200000000000    0.1250550000000000 Zn
   0.8746250000000000    0.0001300000000000    0.8751050000000000 Zn
   0.3746250000000000    0.0001300000000000    0.3751050000000000 Zn
   0.6253450000000000    0.0154900000000000    0.1249100000000000 Zn
   0.1253450000000000    0.0154900000000000    0.6249100000000000 Zn
   0.5682999188965250   -0.2191029309182168    0.7034828956851267 H
   0.5908080578342638   -0.1894894218882134    0.7000420034233110 H
   0.6962445187914688   -0.1645692734424039    0.6936666854489287 H
   0.5014643120548992    0.3082723197060335    0.6413406247226286 H
   0.5652838810997608    0.2765947495012092    0.6855270810375916 H
   0.4985105937147689    0.7073462980383489    0.8586740605596503 H
   0.4346794367253827   -0.2609863493277557    0.8144944795004796 H
   0.4132084971572916    0.7781239090984133    0.6822472279852980 H
   0.2153200000000000    0.8299900000000000    0.4883500000000000 H
   0.2846550000000000    0.1856200000000000    0.5116650000000000 H
   0.9666150000000000    0.1856700000000000    0.2393900000000000 H
   0.0333550000000000    0.8299500000000000    0.2606300000000000 H
   0.7153200000000000    0.8299900000000000    0.9883500000000001 H
   0.7846550000000000    0.1856200000000000    0.0116650000000000 H
   0.4665361172491849    0.1851098782769242    0.8386278731320718 H
   0.6169382864501715    0.2177658683968788    0.8532538695964950 H
   0.2868719057485413    0.1517716675242246    0.8206105168604469 H
   0.4316531139832414    0.2347079384425353    0.7965360904882565 H
   0.9666150000000000    0.1856700000000000    0.7393900000000000 H
   0.0333550000000000    0.8299500000000000    0.7606299999999999 H
   0.7153200000000000    0.8299900000000000    0.4883500000000000 H
   0.7846550000000000    0.1856200000000000    0.5116650000000000 H
   0.4666150000000000    0.1856700000000000    0.2393900000000000 H
   0.5333550000000000    0.8299500000000000    0.2606300000000000 H
   0.2153200000000000    0.8299900000000000    0.9883500000000001 H
   0.2846550000000000    0.1856200000000000    0.0116650000000000 H
   0.2629650000000000    0.6685000000000000    0.4141450000000000 C
   0.2370100000000000    0.3471200000000000    0.5858750000000000 C
   0.2921150000000000    0.2595300000000000    0.4291600000000000 C
   0.2078600000000000    0.7560800000000000    0.5708600000000000 C
   0.2299650000000000    0.6879300000000000    0.4936350000000000 C
   0.2274850000000000    0.6209900000000000    0.5356150000000000 C
   0.2525300000000000    0.5785300000000000    0.4576800000000000 C
   0.2700050000000000    0.3276800000000000    0.5063850000000000 C
   0.2724850000000000    0.3946200000000000    0.4644050000000000 C
   0.2474400000000000    0.4370900000000000    0.5423400000000000 C
   0.0142750000000000    0.3453700000000000    0.1646600000000000 C
   0.9856950000000000    0.6702399999999999    0.3353550000000000 C
   0.0423150000000000    0.7532300000000000    0.1784050000000000 C
   0.9576600000000000    0.2623900000000000    0.3216100000000000 C
   0.9807049999999999    0.3276700000000000    0.2442150000000000 C
   0.9773250000000000    0.3960900000000000    0.2859350000000000 C
   0.0034000000000000    0.4357800000000000    0.2079550000000000 C
   0.0192650000000000    0.6879400000000000    0.2558000000000000 C
   0.0226450000000000    0.6195300000000000    0.2140850000000000 C
   0.9965750000000000    0.5798300000000000    0.2920650000000000 C
   0.7629650000000000    0.6685000000000000    0.9141450000000000 C
   0.7370099999999999    0.3471200000000000    0.0858750000000000 C
   0.7921150000000000    0.2595300000000000    0.9291600000000000 C
   0.7078599999999999    0.7560800000000000    0.0708600000000000 C
   0.7299650000000000    0.6879300000000000    0.9936350000000000 C
   0.7274849999999999    0.6209900000000000    0.0356150000000000 C
   0.7525299999999999    0.5785300000000000    0.9576800000000000 C
   0.7700050000000001    0.3276800000000000    0.0063850000000000 C
   0.7724850000000000    0.3946200000000000    0.9644050000000000 C
   0.7474400000000000    0.4370900000000000    0.0423400000000000 C
   0.0142750000000000    0.3453700000000000    0.6646600000000000 C
   0.9856950000000000    0.6702399999999999    0.8353550000000001 C
   0.0423150000000000    0.7532300000000000    0.6784050000000000 C
   0.9576600000000000    0.2623900000000000    0.8216100000000000 C
   0.9807049999999999    0.3276700000000000    0.7442150000000000 C
   0.9773250000000000    0.3960900000000000    0.7859350000000001 C
   0.0034000000000000    0.4357800000000000    0.7079550000000000 C
   0.0192650000000000    0.6879400000000000    0.7558000000000000 C
   0.0226450000000000    0.6195300000000000    0.7140850000000000 C
   0.9965750000000000    0.5798300000000000    0.7920650000000000 C
   0.7629650000000000    0.6685000000000000    0.4141450000000000 C
   0.7370099999999999    0.3471200000000000    0.5858750000000000 C
   0.7921150000000000    0.2595300000000000    0.4291600000000000 C
   0.7078599999999999    0.7560800000000000    0.5708600000000000 C
   0.7299650000000000    0.6879300000000000    0.4936350000000000 C
   0.7274849999999999    0.6209900000000000    0.5356150000000000 C
   0.7525299999999999    0.5785300000000000    0.4576800000000000 C
   0.7700050000000001    0.3276800000000000    0.5063850000000000 C
   0.7724850000000000    0.3946200000000000    0.4644050000000000 C
   0.7474400000000000    0.4370900000000000    0.5423400000000000 C
   0.5142750000000000    0.3453700000000000    0.1646600000000000 C
   0.4856950000000000    0.6702399999999999    0.3353550000000000 C
   0.5423150000000000    0.7532300000000000    0.1784050000000000 C
   0.4576600000000000    0.2623900000000000    0.3216100000000000 C
   0.4807050000000000    0.3276700000000000    0.2442150000000000 C
   0.4773250000000000    0.3960900000000000    0.2859350000000000 C
   0.5034000000000000    0.4357800000000000    0.2079550000000000 C
   0.5192650000000000    0.6879400000000000    0.2558000000000000 C
   0.5226450000000000    0.6195300000000000    0.2140850000000000 C
   0.4965750000000000    0.5798300000000000    0.2920650000000000 C
   0.2629650000000000    0.6685000000000000    0.9141450000000000 C
   0.2370100000000000    0.3471200000000000    0.0858750000000000 C
   0.2921150000000000    0.2595300000000000    0.9291600000000000 C
   0.2078600000000000    0.7560800000000000    0.0708600000000000 C
   0.2299650000000000    0.6879300000000000    0.9936350000000000 C
   0.2274850000000000    0.6209900000000000    0.0356150000000000 C
   0.2525300000000000    0.5785300000000000    0.9576800000000000 C
   0.2700050000000000    0.3276800000000000    0.0063850000000000 C
   0.2724850000000000    0.3946200000000000    0.9644050000000000 C
   0.2474400000000000    0.4370900000000000    0.0423400000000000 C
   0.6370050000000000   -0.1706700000000000    0.6737400000000000 O
   0.4946800000000000    0.4287900000000000    0.6300950000000000 O
   0.5456750000000000    0.1828100000000000    0.6659800000000000 O
   0.5053000000000000    0.5868300000000000    0.8699200000000000 O
   0.4542950000000000   -0.1672000000000000    0.8340400000000000 O
   0.4595200000000000    0.7969900000000000    0.6558800000000000 O
   0.2940700000000000    0.8303400000000000    0.4151650000000000 O
   0.2433200000000000    0.5857700000000000    0.3797050000000000 O
   0.2059050000000000    0.1852800000000000    0.5848500000000000 O
   0.2566600000000000    0.4298500000000000    0.6203149999999999 O
   0.3864550000000000    0.1799400000000000    0.4249000000000000 O
   0.2097300000000000    0.2183800000000000    0.4064150000000000 O
   0.1135150000000000    0.8356800000000000    0.5751200000000000 O
   0.2902450000000000    0.7972399999999999    0.5936000000000000 O
   0.0456750000000000    0.1828100000000000    0.1659800000000000 O
   0.9946800000000000    0.4287900000000000    0.1300950000000000 O
   0.9542950000000000    0.8328000000000000    0.3340400000000000 O
   0.0053000000000000    0.5868300000000000    0.3699200000000000 O
   0.1370050000000000    0.8293300000000000    0.1737400000000000 O
   0.9595199999999999    0.7969900000000000    0.1558800000000000 O
   0.8629700000000000    0.1862800000000000    0.3262800000000000 O
   0.0404550000000000    0.2186300000000000    0.3441350000000000 O
   0.7940700000000001    0.8303400000000000    0.9151650000000000 O
   0.7433200000000000    0.5857700000000000    0.8797050000000000 O
   0.7059050000000000    0.1852800000000000    0.0848500000000000 O
   0.7566600000000000    0.4298500000000000    0.1203150000000000 O
   0.8864550000000000    0.1799400000000000    0.9249000000000001 O
   0.7097300000000000    0.2183800000000000    0.9064150000000000 O
   0.6135150000000000    0.8356800000000000    0.0751200000000000 O
   0.7902450000000000    0.7972399999999999    0.0936000000000000 O
   0.5404550000000000    0.2186300000000000    0.8441350000000001 O
   0.3629700000000000    0.1862800000000000    0.8262800000000000 O
   0.0456750000000000    0.1828100000000000    0.6659800000000000 O
   0.9946800000000000    0.4287900000000000    0.6300950000000000 O
   0.9542950000000000    0.8328000000000000    0.8340400000000000 O
   0.0053000000000000    0.5868300000000000    0.8699200000000000 O
   0.1370050000000000    0.8293300000000000    0.6737400000000000 O
   0.9595199999999999    0.7969900000000000    0.6558800000000000 O
   0.8629700000000000    0.1862800000000000    0.8262800000000000 O
   0.0404550000000000    0.2186300000000000    0.8441350000000001 O
   0.7940700000000001    0.8303400000000000    0.4151650000000000 O
   0.7433200000000000    0.5857700000000000    0.3797050000000000 O
   0.7059050000000000    0.1852800000000000    0.5848500000000000 O
   0.7566600000000000    0.4298500000000000    0.6203149999999999 O
   0.8864550000000000    0.1799400000000000    0.4249000000000000 O
   0.7097300000000000    0.2183800000000000    0.4064150000000000 O
   0.6135150000000000    0.8356800000000000    0.5751200000000000 O
   0.7902450000000000    0.7972399999999999    0.5936000000000000 O
   0.5456750000000000    0.1828100000000000    0.1659800000000000 O
   0.4946800000000000    0.4287900000000000    0.1300950000000000 O
   0.4542950000000000    0.8328000000000000    0.3340400000000000 O
   0.5053000000000000    0.5868300000000000    0.3699200000000000 O
   0.6370050000000000    0.8293300000000000    0.1737400000000000 O
   0.4595200000000000    0.7969900000000000    0.1558800000000000 O
   0.3629700000000000    0.1862800000000000    0.3262800000000000 O
   0.5404550000000000    0.2186300000000000    0.3441350000000000 O
   0.2940700000000000    0.8303400000000000    0.9151650000000000 O
   0.2433200000000000    0.5857700000000000    0.8797050000000000 O
   0.2059050000000000    0.1852800000000000    0.0848500000000000 O
   0.2566600000000000    0.4298500000000000    0.1203150000000000 O
   0.3864550000000000    0.1799400000000000    0.9249000000000001 O
   0.2097300000000000    0.2183800000000000    0.9064150000000000 O
   0.1135150000000000    0.8356800000000000    0.0751200000000000 O
   0.2902450000000000    0.7972399999999999    0.0936000000000000 O
