H5 O3
1.0
   7.9828544401006649    0.0000000000000000    0.0482077604239693
   1.0877398435903378   14.3998747850284232    0.0539370760117913
   0.0000000000000000    0.0000000000000000   14.4529999999999994
H O
5 3
direct
   0.8746260781445996    0.2629663491941400    0.1748268297788859 H
   0.9535150731981975    0.3469384848733436    0.2370154958268259 H
   0.1613031154464491    0.2187476600462334    0.4755617630492731 H
   0.0444016576616290    1.0097906355586674    0.3027170965147700 H
   0.0975886266319049    1.1179039032589602    0.3847496385031197 H
   0.8921100000000000    0.3288500000000000    0.1823800000000000 O
   0.1546600000000000    0.1561300000000000    0.4525400000000000 O
   0.0893100000000000    1.0398700000000001    0.3560600000000000 O
