H3 O2
1.0
  36.1739999944903872    0.0000000000000000    0.0006313554035849
 -18.0766103819094539   31.3335991086348571    0.0000000000000022
   0.0000000000000000    0.0000000000000000   35.6499999999999986
H O
3 2
direct
   0.5418979790433205    0.9658760997812041    0.4578081451739183 H
   0.5648888476499905    0.9290211656393149    0.4165541683480931 H
   0.5454063267322973    0.7830471584288125    0.4372934523573365 H
   0.5450600000000000    0.9939650000000000    0.4547950000000000 O
   0.5648450000000000    0.9557249999999999    0.4187700000000000 O
