H4 C4 O5
1.0
  36.1739999944903872    0.0000000000000000    0.0006313554035849
 -18.0766103819094539   31.3335991086348571    0.0000000000000022
   0.0000000000000000    0.0000000000000000   35.6499999999999986
H C O
4 4 5
direct
   0.3985700000000000    0.0000000000000000    0.4540000000000000 H
   0.3696300000000000    0.9583950000000000    0.4828050000000000 H
   0.4111100000000000    0.0414900000000000    0.5172300000000000 H
   0.3940850000000000    0.9954000000000001    0.5459500000000000 H
   0.4153500000000000    0.9552050000000001    0.4461450000000000 C
   0.4013200000000000    0.9804050000000000    0.4708500000000000 C
   0.4600600000000000    0.0447350000000000    0.5538600000000000 C
   0.4208600000000000    0.0195050000000000    0.5291350000000000 C
   0.4489800000000000    0.9549600000000000    0.4547800000000000 O
   0.3909100000000000    0.9350550000000000    0.4188000000000000 O
   0.4320250000000000    0.9999850000000000    0.4999900000000000 O
   0.4939700000000000    0.0450700000000000    0.5451900000000000 O
   0.4557350000000000    0.0648550000000000    0.5812100000000000 O
