La64 Y64 H766 C766 O934
1.0
  36.1739999944903872    0.0000000000000000    0.0006313554035849
 -18.0766103819094539   31.3335991086348571    0.0000000000000022
   0.0000000000000000    0.0000000000000000   35.6499999999999986
La Y H C O
64 64 766 766 934
direct
   0.1666666666666667    0.3333333333333333    0.1249950000000000 La
   0.4166550000000000    0.0833600000000000    0.1249950000000000 La
   0.4166550000000000    0.3333333333333333    0.1249950000000000 La
   0.0833550000000000    0.1666450000000000    0.3749900000000000 La
   0.0833600000000000    0.4166500000000000    0.3749900000000000 La
   0.3333333333333333    0.1666666666666667    0.3749900000000000 La
   0.3333333333333333    0.4166500000000000    0.3749900000000000 La
   0.1666666666666667    0.0833600000000000    0.1249950000000000 La
   0.6666666666666666    0.3333333333333333    0.1249950000000000 La
   0.9166550000000000    0.0833600000000000    0.1249950000000000 La
   0.9166550000000000    0.3333333333333333    0.1249950000000000 La
   0.5833550000000000    0.1666450000000000    0.3749900000000000 La
   0.5833600000000000    0.4166500000000000    0.3749900000000000 La
   0.8333333333333333    0.1666666666666667    0.3749900000000000 La
   0.8333333333333333    0.4166500000000000    0.3749900000000000 La
   0.6666666666666666    0.0833600000000000    0.1249950000000000 La
   0.1666666666666667    0.8333333333333333    0.1249950000000000 La
   0.4166550000000000    0.5833600000000000    0.1249950000000000 La
   0.4166550000000000    0.8333333333333333    0.1249950000000000 La
   0.0833550000000000    0.6666449999999999    0.3749900000000000 La
   0.0833600000000000    0.9166500000000000    0.3749900000000000 La
   0.3333333333333333    0.6666666666666666    0.3749900000000000 La
   0.3333333333333333    0.9166500000000000    0.3749900000000000 La
   0.1666666666666667    0.5833600000000000    0.1249950000000000 La
   0.6666666666666666    0.8333333333333333    0.1249950000000000 La
   0.9166550000000000    0.5833600000000000    0.1249950000000000 La
   0.9166550000000000    0.8333333333333333    0.1249950000000000 La
   0.5833550000000000    0.6666449999999999    0.3749900000000000 La
   0.5833600000000000    0.9166500000000000    0.3749900000000000 La
   0.8333333333333333    0.6666666666666666    0.3749900000000000 La
   0.8333333333333333    0.9166500000000000    0.3749900000000000 La
   0.6666666666666666    0.5833600000000000    0.1249950000000000 La
   0.1666666666666667    0.3333333333333333    0.6249950000000000 La
   0.4166550000000000    0.0833600000000000    0.6249950000000000 La
   0.4166550000000000    0.3333333333333333    0.6249950000000000 La
   0.0833550000000000    0.1666450000000000    0.8749899999999999 La
   0.0833600000000000    0.4166500000000000    0.8749899999999999 La
   0.3333333333333333    0.1666666666666667    0.8749899999999999 La
   0.3333333333333333    0.4166500000000000    0.8749899999999999 La
   0.1666666666666667    0.0833600000000000    0.6249950000000000 La
   0.6666666666666666    0.3333333333333333    0.6249950000000000 La
   0.9166550000000000    0.0833600000000000    0.6249950000000000 La
   0.9166550000000000    0.3333333333333333    0.6249950000000000 La
   0.5833550000000000    0.1666450000000000    0.8749899999999999 La
   0.5833600000000000    0.4166500000000000    0.8749899999999999 La
   0.8333333333333333    0.1666666666666667    0.8749899999999999 La
   0.8333333333333333    0.4166500000000000    0.8749899999999999 La
   0.6666666666666666    0.0833600000000000    0.6249950000000000 La
   0.1666666666666667    0.8333333333333333    0.6249950000000000 La
   0.4166550000000000    0.5833600000000000    0.6249950000000000 La
   0.4166550000000000    0.8333333333333333    0.6249950000000000 La
   0.0833550000000000    0.6666449999999999    0.8749899999999999 La
   0.0833600000000000    0.9166500000000000    0.8749899999999999 La
   0.3333333333333333    0.6666666666666666    0.8749899999999999 La
   0.3333333333333333    0.9166500000000000    0.8749899999999999 La
   0.1666666666666667    0.5833600000000000    0.6249950000000000 La
   0.6666666666666666    0.8333333333333333    0.6249950000000000 La
   0.9166550000000000    0.5833600000000000    0.6249950000000000 La
   0.9166550000000000    0.8333333333333333    0.6249950000000000 La
   0.5833550000000000    0.6666449999999999    0.8749899999999999 La
   0.5833600000000000    0.9166500000000000    0.8749899999999999 La
   0.8333333333333333    0.6666666666666666    0.8749899999999999 La
   0.8333333333333333    0.9166500000000000    0.8749899999999999 La
   0.6666666666666666    0.5833600000000000    0.6249950000000000 La
   0.0000150000000000    0.0000100000000000    0.4999950000000000 Y
   0.0000100000000000    0.2500100000000000    0.4999900000000000 Y
   0.2500150000000000    0.0000100000000000    0.4999950000000000 Y
   0.2500100000000000    0.2500100000000000    0.4999900000000000 Y
   0.0000100000000000    0.0000100000000000    0.2499950000000000 Y
   0.0000100000000000    0.2500150000000000    0.2499950000000000 Y
   0.2500150000000000    0.0000100000000000    0.2499950000000000 Y
   0.2500150000000000    0.2500150000000000    0.2499950000000000 Y
   0.5000150000000000    0.0000100000000000    0.4999950000000000 Y
   0.5000100000000000    0.2500100000000000    0.4999900000000000 Y
   0.7500150000000000    0.0000100000000000    0.4999950000000000 Y
   0.7500100000000001    0.2500100000000000    0.4999900000000000 Y
   0.5000100000000000    0.0000100000000000    0.2499950000000000 Y
   0.5000100000000000    0.2500150000000000    0.2499950000000000 Y
   0.7500150000000000    0.0000100000000000    0.2499950000000000 Y
   0.7500150000000000    0.2500150000000000    0.2499950000000000 Y
   0.0000150000000000    0.5000100000000000    0.4999950000000000 Y
   0.0000100000000000    0.7500100000000001    0.4999900000000000 Y
   0.2500150000000000    0.5000100000000000    0.4999950000000000 Y
   0.2500100000000000    0.7500100000000001    0.4999900000000000 Y
   0.0000100000000000    0.5000100000000000    0.2499950000000000 Y
   0.0000100000000000    0.7500150000000000    0.2499950000000000 Y
   0.2500150000000000    0.5000100000000000    0.2499950000000000 Y
   0.2500150000000000    0.7500150000000000    0.2499950000000000 Y
   0.5000150000000000    0.5000100000000000    0.4999950000000000 Y
   0.5000100000000000    0.7500100000000001    0.4999900000000000 Y
   0.7500150000000000    0.5000100000000000    0.4999950000000000 Y
   0.7500100000000001    0.7500100000000001    0.4999900000000000 Y
   0.5000100000000000    0.5000100000000000    0.2499950000000000 Y
   0.5000100000000000    0.7500150000000000    0.2499950000000000 Y
   0.7500150000000000    0.5000100000000000    0.2499950000000000 Y
   0.7500150000000000    0.7500150000000000    0.2499950000000000 Y
   0.0000150000000000    0.0000100000000000    0.9999950000000000 Y
   0.0000100000000000    0.2500100000000000    0.9999899999999999 Y
   0.2500150000000000    0.0000100000000000    0.9999950000000000 Y
   0.2500100000000000    0.2500100000000000    0.9999899999999999 Y
   0.0000100000000000    0.0000100000000000    0.7499950000000000 Y
   0.0000100000000000    0.2500150000000000    0.7499950000000000 Y
   0.2500150000000000    0.0000100000000000    0.7499950000000000 Y
   0.2500150000000000    0.2500150000000000    0.7499950000000000 Y
   0.5000150000000000    0.0000100000000000    0.9999950000000000 Y
   0.5000100000000000    0.2500100000000000    0.9999899999999999 Y
   0.7500150000000000    0.0000100000000000    0.9999950000000000 Y
   0.7500100000000001    0.2500100000000000    0.9999899999999999 Y
   0.5000100000000000    0.0000100000000000    0.7499950000000000 Y
   0.5000100000000000    0.2500150000000000    0.7499950000000000 Y
   0.7500150000000000    0.0000100000000000    0.7499950000000000 Y
   0.7500150000000000    0.2500150000000000    0.7499950000000000 Y
   0.0000150000000000    0.5000100000000000    0.9999950000000000 Y
   0.0000100000000000    0.7500100000000001    0.9999899999999999 Y
   0.2500150000000000    0.5000100000000000    0.9999950000000000 Y
   0.2500100000000000    0.7500100000000001    0.9999899999999999 Y
   0.0000100000000000    0.5000100000000000    0.7499950000000000 Y
   0.0000100000000000    0.7500150000000000    0.7499950000000000 Y
   0.2500150000000000    0.5000100000000000    0.7499950000000000 Y
   0.2500150000000000    0.7500150000000000    0.7499950000000000 Y
   0.5000150000000000    0.5000100000000000    0.9999950000000000 Y
   0.5000100000000000    0.7500100000000001    0.9999899999999999 Y
   0.7500150000000000    0.5000100000000000    0.9999950000000000 Y
   0.7500100000000001    0.7500100000000001    0.9999899999999999 Y
   0.5000100000000000    0.5000100000000000    0.7499950000000000 Y
   0.5000100000000000    0.7500150000000000    0.7499950000000000 Y
   0.7500150000000000    0.5000100000000000    0.7499950000000000 Y
   0.7500150000000000    0.7500150000000000    0.7499950000000000 Y
   0.1012750000000000    0.1058700000000000    0.0460150000000000 H
   0.1012850000000000    0.3558800000000000    0.0460150000000000 H
   0.3512900000000000    0.1058750000000000    0.0460150000000000 H
   0.3513050000000000    0.3558800000000000    0.0460050000000000 H
   0.1303500000000000    0.0888550000000000    0.0172500000000000 H
   0.1303500000000000    0.3388550000000000    0.0172450000000000 H
   0.3803550000000000    0.0888500000000000    0.0172450000000000 H
   0.3803550000000000    0.3388400000000000    0.0172350000000000 H
   0.2544600000000000    0.1485600000000000    0.0459850000000000 H
   0.2544600000000000    0.3985650000000000    0.0459850000000000 H
   0.0000000000000000    0.1485650000000000    0.0459850000000000 H
   0.0000000000000000    0.3985700000000000    0.0459500000000000 H
   0.2083900000000000    0.1196350000000000    0.0171750000000000 H
   0.2083900000000000    0.3696400000000000    0.0171500000000000 H
   0.4583950000000000    0.1196350000000000    0.0171500000000000 H
   0.4583950000000000    0.3696350000000000    0.0171800000000000 H
   0.1440850000000000    0.4954000000000000    0.0459950000000000 H
   0.1440800000000000    0.2454050000000000    0.0459500000000000 H
   0.3940850000000000    0.4954000000000000    0.0459500000000000 H
   0.3940850000000000    0.2454000000000000    0.0459950000000000 H
   0.1611050000000000    0.0414850000000000    0.0172350000000000 H
   0.1611050000000000    0.2914900000000000    0.0172000000000000 H
   0.4111100000000000    0.0414900000000000    0.0172300000000000 H
   0.4111050000000000    0.2914900000000000    0.0172350000000000 H
   0.1012850000000000    0.1058700000000000    0.2039750000000000 H
   0.1012850000000000    0.3558750000000000    0.2039750000000000 H
   0.3512900000000000    0.1058700000000000    0.2039750000000000 H
   0.3512950000000000    0.3558750000000000    0.2039800000000000 H
   0.1303500000000000    0.0888450000000000    0.2327500000000000 H
   0.1303500000000000    0.3388450000000000    0.2327450000000000 H
   0.3803550000000000    0.0888450000000000    0.2325000000000000 H
   0.3803500000000000    0.3388450000000000    0.2327500000000000 H
   0.2544500000000000    0.1485550000000000    0.2040050000000000 H
   0.2544550000000000    0.3985600000000000    0.2040050000000000 H
   0.0000000000000000    0.1485550000000000    0.2040050000000000 H
   0.0000000000000000    0.3985650000000000    0.2040050000000000 H
   0.2083850000000000    0.1196300000000000    0.2328150000000000 H
   0.2083850000000000    0.3696350000000000    0.2328150000000000 H
   0.4583900000000000    0.1196300000000000    0.2328150000000000 H
   0.4583900000000000    0.3696350000000000    0.2328150000000000 H
   0.1440800000000000    0.4953950000000000    0.2040000000000000 H
   0.1440800000000000    0.2454050000000000    0.2040000000000000 H
   0.3940850000000000    0.4953950000000000    0.2040000000000000 H
   0.3940850000000000    0.2454000000000000    0.2040000000000000 H
   0.1611000000000000    0.0414850000000000    0.2327550000000000 H
   0.1611050000000000    0.2914900000000000    0.2327600000000000 H
   0.4111050000000000    0.0414850000000000    0.2327600000000000 H
   0.4111050000000000    0.2914850000000000    0.2327500000000000 H
   0.4953900000000000    0.1440900000000000    0.4539900000000000 H
   0.4953950000000000    0.3940900000000000    0.4539900000000000 H
   0.2453950000000000    0.1440900000000000    0.4539900000000000 H
   0.2453950000000000    0.3940900000000000    0.4539900000000000 H
   0.0414750000000000    0.1610900000000000    0.4827500000000000 H
   0.0414800000000000    0.4110950000000000    0.4827500000000000 H
   0.2914800000000000    0.1610900000000000    0.4827500000000000 H
   0.2914800000000000    0.4110950000000000    0.4827500000000000 H
   0.1058650000000000    0.1012900000000000    0.4539750000000000 H
   0.1058650000000000    0.3512850000000000    0.4539700000000000 H
   0.3558700000000000    0.1012800000000000    0.4539700000000000 H
   0.3558650000000000    0.3512700000000000    0.4539650000000000 H
   0.0888350000000000    0.1303500000000000    0.4827500000000000 H
   0.0888450000000000    0.3803550000000000    0.4827450000000000 H
   0.3388500000000000    0.1303500000000000    0.4827450000000000 H
   0.3388600000000000    0.3803550000000000    0.4827350000000000 H
   0.1485650000000000    0.2544550000000000    0.4500000000000000 H
   0.1485650000000000    0.0000000000000000    0.4540000000000000 H
   0.3985700000000000    0.2544550000000000    0.4540000000000000 H
   0.3985700000000000    0.0000000000000000    0.4540000000000000 H
   0.1196250000000000    0.2083900000000000    0.4828050000000000 H
   0.1196250000000000    0.4583900000000000    0.4828100000000000 H
   0.3696300000000000    0.2083900000000000    0.4828100000000000 H
   0.3696300000000000    0.4583950000000000    0.4828050000000000 H
   0.4953900000000000    0.1440850000000000    0.2959500000000000 H
   0.4953950000000000    0.3940900000000000    0.2959900000000000 H
   0.2453900000000000    0.1440900000000000    0.2959950000000000 H
   0.2453950000000000    0.3940900000000000    0.2959900000000000 H
   0.0414750000000000    0.1610850000000000    0.2672350000000000 H
   0.0414800000000000    0.4110950000000000    0.2672300000000000 H
   0.2914800000000000    0.1610850000000000    0.2672350000000000 H
   0.2914800000000000    0.4110950000000000    0.2672000000000000 H
   0.1058650000000000    0.1012800000000000    0.2960100000000000 H
   0.1058650000000000    0.3512850000000000    0.2960100000000000 H
   0.3558700000000000    0.1012800000000000    0.2960100000000000 H
   0.3558700000000000    0.3512800000000000    0.2960100000000000 H
   0.0888500000000000    0.1303500000000000    0.2672400000000000 H
   0.0888500000000000    0.3803550000000000    0.2672400000000000 H
   0.3388550000000000    0.1303550000000000    0.2672400000000000 H
   0.3388550000000000    0.3803550000000000    0.2672400000000000 H
   0.1485700000000000    0.2544550000000000    0.2959850000000000 H
   0.1485650000000000    0.0000000000000000    0.2959850000000000 H
   0.3985700000000000    0.2544550000000000    0.2959850000000000 H
   0.3985700000000000    0.0000000000000000    0.2959850000000000 H
   0.1196250000000000    0.2083900000000000    0.2671750000000000 H
   0.1196300000000000    0.4583900000000000    0.2671750000000000 H
   0.3696300000000000    0.2083900000000000    0.2671750000000000 H
   0.3696300000000000    0.4583950000000000    0.2671750000000000 H
   0.6012750000000000    0.1058700000000000    0.0460150000000000 H
   0.6012850000000000    0.3558800000000000    0.0460150000000000 H
   0.8512900000000000    0.1058750000000000    0.0460150000000000 H
   0.8513050000000000    0.3558800000000000    0.0460050000000000 H
   0.6303500000000000    0.0888550000000000    0.0172500000000000 H
   0.6303500000000000    0.3388550000000000    0.0172450000000000 H
   0.8803550000000000    0.0888500000000000    0.0172450000000000 H
   0.8803550000000000    0.3388400000000000    0.0172350000000000 H
   0.7544600000000000    0.1485600000000000    0.0459850000000000 H
   0.7544600000000000    0.3985650000000000    0.0459850000000000 H
   0.5000000000000000    0.1485650000000000    0.0459850000000000 H
   0.5000000000000000    0.3985700000000000    0.0459500000000000 H
   0.7083900000000000    0.1196350000000000    0.0171750000000000 H
   0.7083900000000000    0.3696400000000000    0.0171500000000000 H
   0.9583950000000000    0.1196350000000000    0.0171500000000000 H
   0.9583950000000000    0.3696350000000000    0.0171800000000000 H
   0.6440850000000000    0.4954000000000000    0.0459950000000000 H
   0.6440800000000000    0.2454050000000000    0.0459500000000000 H
   0.8940850000000000    0.4954000000000000    0.0459500000000000 H
   0.8940850000000000    0.2454000000000000    0.0459950000000000 H
   0.6611050000000001    0.0414850000000000    0.0172350000000000 H
   0.6611050000000001    0.2914900000000000    0.0172000000000000 H
   0.9111100000000000    0.0414900000000000    0.0172300000000000 H
   0.9111050000000001    0.2914900000000000    0.0172350000000000 H
   0.6012850000000000    0.1058700000000000    0.2039750000000000 H
   0.6012850000000000    0.3558750000000000    0.2039750000000000 H
   0.8512900000000000    0.1058700000000000    0.2039750000000000 H
   0.8512950000000000    0.3558750000000000    0.2039800000000000 H
   0.6303500000000000    0.0888450000000000    0.2327500000000000 H
   0.6303500000000000    0.3388450000000000    0.2327450000000000 H
   0.8803550000000000    0.0888450000000000    0.2325000000000000 H
   0.8803500000000000    0.3388450000000000    0.2327500000000000 H
   0.7544500000000001    0.1485550000000000    0.2040050000000000 H
   0.7544550000000000    0.3985600000000000    0.2040050000000000 H
   0.5000000000000000    0.1485550000000000    0.2040050000000000 H
   0.5000000000000000    0.3985650000000000    0.2040050000000000 H
   0.7083850000000000    0.1196300000000000    0.2328150000000000 H
   0.7083850000000000    0.3696350000000000    0.2328150000000000 H
   0.9583900000000001    0.1196300000000000    0.2328150000000000 H
   0.9583900000000001    0.3696350000000000    0.2328150000000000 H
   0.6440800000000000    0.4953950000000000    0.2040000000000000 H
   0.6440800000000000    0.2454050000000000    0.2040000000000000 H
   0.8940850000000000    0.4953950000000000    0.2040000000000000 H
   0.8940850000000000    0.2454000000000000    0.2040000000000000 H
   0.6611000000000000    0.0414850000000000    0.2327550000000000 H
   0.6611050000000001    0.2914900000000000    0.2327600000000000 H
   0.9111050000000001    0.0414850000000000    0.2327600000000000 H
   0.9111050000000001    0.2914850000000000    0.2327500000000000 H
   0.9953900000000000    0.1440900000000000    0.4539900000000000 H
   0.9953950000000000    0.3940900000000000    0.4539900000000000 H
   0.7453950000000000    0.1440900000000000    0.4539900000000000 H
   0.7453950000000000    0.3940900000000000    0.4539900000000000 H
   0.5414750000000000    0.1610900000000000    0.4827500000000000 H
   0.5414800000000000    0.4110950000000000    0.4827500000000000 H
   0.7914800000000000    0.1610900000000000    0.4827500000000000 H
   0.7914800000000000    0.4110950000000000    0.4827500000000000 H
   0.6058650000000000    0.1012900000000000    0.4539750000000000 H
   0.6058650000000000    0.3512850000000000    0.4539700000000000 H
   0.8558700000000000    0.1012800000000000    0.4539700000000000 H
   0.8558650000000000    0.3512700000000000    0.4539650000000000 H
   0.5888350000000000    0.1303500000000000    0.4827500000000000 H
   0.5888450000000000    0.3803550000000000    0.4827450000000000 H
   0.8388500000000000    0.1303500000000000    0.4827450000000000 H
   0.8388599999999999    0.3803550000000000    0.4827350000000000 H
   0.6485650000000001    0.2544550000000000    0.4500000000000000 H
   0.6485650000000001    0.0000000000000000    0.4540000000000000 H
   0.8985700000000000    0.2544550000000000    0.4540000000000000 H
   0.8985700000000000    0.0000000000000000    0.4540000000000000 H
   0.6196250000000000    0.2083900000000000    0.4828050000000000 H
   0.6196250000000000    0.4583900000000000    0.4828100000000000 H
   0.8696300000000000    0.2083900000000000    0.4828100000000000 H
   0.8696300000000000    0.4583950000000000    0.4828050000000000 H
   0.9953900000000000    0.1440850000000000    0.2959500000000000 H
   0.9953950000000000    0.3940900000000000    0.2959900000000000 H
   0.7453900000000000    0.1440900000000000    0.2959950000000000 H
   0.7453950000000000    0.3940900000000000    0.2959900000000000 H
   0.5414750000000000    0.1610850000000000    0.2672350000000000 H
   0.5414800000000000    0.4110950000000000    0.2672300000000000 H
   0.7914800000000000    0.1610850000000000    0.2672350000000000 H
   0.7914800000000000    0.4110950000000000    0.2672000000000000 H
   0.6058650000000000    0.1012800000000000    0.2960100000000000 H
   0.6058650000000000    0.3512850000000000    0.2960100000000000 H
   0.8558700000000000    0.1012800000000000    0.2960100000000000 H
   0.8558700000000000    0.3512800000000000    0.2960100000000000 H
   0.5888500000000000    0.1303500000000000    0.2672400000000000 H
   0.5888500000000000    0.3803550000000000    0.2672400000000000 H
   0.8388550000000000    0.1303550000000000    0.2672400000000000 H
   0.8388550000000000    0.3803550000000000    0.2672400000000000 H
   0.6485700000000000    0.2544550000000000    0.2959850000000000 H
   0.6485650000000001    0.0000000000000000    0.2959850000000000 H
   0.8985700000000000    0.2544550000000000    0.2959850000000000 H
   0.8985700000000000    0.0000000000000000    0.2959850000000000 H
   0.6196250000000000    0.2083900000000000    0.2671750000000000 H
   0.6196300000000000    0.4583900000000000    0.2671750000000000 H
   0.8696300000000000    0.2083900000000000    0.2671750000000000 H
   0.8696300000000000    0.4583950000000000    0.2671750000000000 H
   0.1012750000000000    0.6058700000000000    0.0460150000000000 H
   0.1012850000000000    0.8558800000000000    0.0460150000000000 H
   0.3512900000000000    0.6058749999999999    0.0460150000000000 H
   0.3513050000000000    0.8558800000000000    0.0460050000000000 H
   0.1303500000000000    0.5888550000000000    0.0172500000000000 H
   0.1303500000000000    0.8388550000000000    0.0172450000000000 H
   0.3803550000000000    0.5888500000000000    0.0172450000000000 H
   0.3803550000000000    0.8388400000000000    0.0172350000000000 H
   0.2544600000000000    0.6485600000000000    0.0459850000000000 H
   0.2544600000000000    0.8985650000000001    0.0459850000000000 H
   0.0000000000000000    0.6485650000000001    0.0459850000000000 H
   0.0000000000000000    0.8985700000000000    0.0459500000000000 H
   0.2083900000000000    0.6196350000000000    0.0171750000000000 H
   0.2083900000000000    0.8696400000000000    0.0171500000000000 H
   0.4583950000000000    0.6196350000000000    0.0171500000000000 H
   0.4583950000000000    0.8696349999999999    0.0171800000000000 H
   0.1440850000000000    0.9954000000000001    0.0459950000000000 H
   0.1440800000000000    0.7454050000000000    0.0459500000000000 H
   0.3940850000000000    0.9954000000000001    0.0459500000000000 H
   0.3940850000000000    0.7454000000000001    0.0459950000000000 H
   0.1611050000000000    0.5414850000000000    0.0172350000000000 H
   0.1611050000000000    0.7914900000000000    0.0172000000000000 H
   0.4111100000000000    0.5414900000000000    0.0172300000000000 H
   0.4111050000000000    0.7914900000000000    0.0172350000000000 H
   0.1012850000000000    0.6058700000000000    0.2039750000000000 H
   0.1012850000000000    0.8558749999999999    0.2039750000000000 H
   0.3512900000000000    0.6058700000000000    0.2039750000000000 H
   0.3512950000000000    0.8558749999999999    0.2039800000000000 H
   0.1303500000000000    0.5888450000000000    0.2327500000000000 H
   0.1303500000000000    0.8388450000000001    0.2327450000000000 H
   0.3803550000000000    0.5888450000000000    0.2325000000000000 H
   0.3803500000000000    0.8388450000000001    0.2327500000000000 H
   0.2544500000000000    0.6485550000000000    0.2040050000000000 H
   0.2544550000000000    0.8985600000000000    0.2040050000000000 H
   0.0000000000000000    0.6485550000000000    0.2040050000000000 H
   0.0000000000000000    0.8985650000000001    0.2040050000000000 H
   0.2083850000000000    0.6196300000000000    0.2328150000000000 H
   0.2083850000000000    0.8696349999999999    0.2328150000000000 H
   0.4583900000000000    0.6196300000000000    0.2328150000000000 H
   0.4583900000000000    0.8696349999999999    0.2328150000000000 H
   0.1440800000000000    0.9953950000000000    0.2040000000000000 H
   0.1440800000000000    0.7454050000000000    0.2040000000000000 H
   0.3940850000000000    0.9953950000000000    0.2040000000000000 H
   0.3940850000000000    0.7454000000000001    0.2040000000000000 H
   0.1611000000000000    0.5414850000000000    0.2327550000000000 H
   0.1611050000000000    0.7914900000000000    0.2327600000000000 H
   0.4111050000000000    0.5414850000000000    0.2327600000000000 H
   0.4111050000000000    0.7914850000000000    0.2327500000000000 H
   0.4953900000000000    0.6440900000000001    0.4539900000000000 H
   0.2453950000000000    0.6440900000000001    0.4539900000000000 H
   0.2453950000000000    0.8940900000000001    0.4539900000000000 H
   0.0414750000000000    0.6610900000000000    0.4827500000000000 H
   0.0414800000000000    0.9110950000000000    0.4827500000000000 H
   0.2914800000000000    0.6610900000000000    0.4827500000000000 H
   0.2914800000000000    0.9110950000000000    0.4827500000000000 H
   0.1058650000000000    0.6012900000000000    0.4539750000000000 H
   0.1058650000000000    0.8512850000000001    0.4539700000000000 H
   0.3558700000000000    0.6012800000000000    0.4539700000000000 H
   0.3558650000000000    0.8512700000000000    0.4539650000000000 H
   0.0888350000000000    0.6303500000000000    0.4827500000000000 H
   0.0888450000000000    0.8803550000000000    0.4827450000000000 H
   0.3388500000000000    0.6303500000000000    0.4827450000000000 H
   0.3388600000000000    0.8803550000000000    0.4827350000000000 H
   0.1485650000000000    0.7544550000000000    0.4500000000000000 H
   0.1485650000000000    0.5000000000000000    0.4540000000000000 H
   0.3985700000000000    0.7544550000000000    0.4540000000000000 H
   0.3985700000000000    0.5000000000000000    0.4540000000000000 H
   0.1196250000000000    0.7083900000000000    0.4828050000000000 H
   0.1196250000000000    0.9583900000000001    0.4828100000000000 H
   0.3696300000000000    0.7083900000000000    0.4828100000000000 H
   0.3696300000000000    0.9583950000000000    0.4828050000000000 H
   0.4953900000000000    0.6440850000000000    0.2959500000000000 H
   0.4953950000000000    0.8940900000000001    0.2959900000000000 H
   0.2453900000000000    0.6440900000000001    0.2959950000000000 H
   0.2453950000000000    0.8940900000000001    0.2959900000000000 H
   0.0414750000000000    0.6610850000000000    0.2672350000000000 H
   0.0414800000000000    0.9110950000000000    0.2672300000000000 H
   0.2914800000000000    0.6610850000000000    0.2672350000000000 H
   0.2914800000000000    0.9110950000000000    0.2672000000000000 H
   0.1058650000000000    0.6012800000000000    0.2960100000000000 H
   0.1058650000000000    0.8512850000000001    0.2960100000000000 H
   0.3558700000000000    0.6012800000000000    0.2960100000000000 H
   0.3558700000000000    0.8512800000000000    0.2960100000000000 H
   0.0888500000000000    0.6303500000000000    0.2672400000000000 H
   0.0888500000000000    0.8803550000000000    0.2672400000000000 H
   0.3388550000000000    0.6303550000000000    0.2672400000000000 H
   0.3388550000000000    0.8803550000000000    0.2672400000000000 H
   0.1485700000000000    0.7544550000000000    0.2959850000000000 H
   0.1485650000000000    0.5000000000000000    0.2959850000000000 H
   0.3985700000000000    0.7544550000000000    0.2959850000000000 H
   0.3985700000000000    0.5000000000000000    0.2959850000000000 H
   0.1196250000000000    0.7083900000000000    0.2671750000000000 H
   0.1196300000000000    0.9583900000000001    0.2671750000000000 H
   0.3696300000000000    0.7083900000000000    0.2671750000000000 H
   0.3696300000000000    0.9583950000000000    0.2671750000000000 H
   0.6012750000000000    0.6058700000000000    0.0460150000000000 H
   0.6012850000000000    0.8558800000000000    0.0460150000000000 H
   0.8512900000000000    0.6058749999999999    0.0460150000000000 H
   0.8513050000000000    0.8558800000000000    0.0460050000000000 H
   0.6303500000000000    0.5888550000000000    0.0172500000000000 H
   0.6303500000000000    0.8388550000000000    0.0172450000000000 H
   0.8803550000000000    0.5888500000000000    0.0172450000000000 H
   0.8803550000000000    0.8388400000000000    0.0172350000000000 H
   0.7544600000000000    0.6485600000000000    0.0459850000000000 H
   0.7544600000000000    0.8985650000000001    0.0459850000000000 H
   0.5000000000000000    0.6485650000000001    0.0459850000000000 H
   0.5000000000000000    0.8985700000000000    0.0459500000000000 H
   0.7083900000000000    0.6196350000000000    0.0171750000000000 H
   0.7083900000000000    0.8696400000000000    0.0171500000000000 H
   0.9583950000000000    0.6196350000000000    0.0171500000000000 H
   0.9583950000000000    0.8696349999999999    0.0171800000000000 H
   0.6440850000000000    0.9954000000000001    0.0459950000000000 H
   0.6440800000000000    0.7454050000000000    0.0459500000000000 H
   0.8940850000000000    0.9954000000000001    0.0459500000000000 H
   0.8940850000000000    0.7454000000000001    0.0459950000000000 H
   0.6611050000000001    0.5414850000000000    0.0172350000000000 H