Cd64 H1268 C1512 N252 Cl128 O4
1.0
  36.6000000000000014    0.0000000000000000    0.0000000000000022
   0.0000000000000057   35.6520000000000010    0.0000000000000022
   0.0000000000000000    0.0000000000000000   31.4680000000000000
Cd H C N Cl O
64 1268 1512 252 128 4
direct
   0.0000000000000000    0.6250050000000000    0.7732250000000001 Cd
   0.0000000000000000    0.1250050000000000    0.7732250000000001 Cd
   0.0000000000000000    0.8750100000000001    0.9767600000000001 Cd
   0.0000000000000000    0.3750100000000000    0.9767600000000001 Cd
   0.2500000000000000    0.1250050000000000    0.5232300000000000 Cd
   0.2500000000000000    0.8750100000000001    0.7267650000000000 Cd
   0.2500000000000000    0.6250050000000000    0.5232300000000000 Cd
   0.2500000000000000    0.3750100000000000    0.7267650000000000 Cd
   0.5000000000000000    0.1250050000000000    0.7732250000000001 Cd
   0.5000000000000000    0.8750100000000001    0.9767600000000001 Cd
   0.5000000000000000    0.6250050000000000    0.7732250000000001 Cd
   0.5000000000000000    0.3750100000000000    0.9767600000000001 Cd
   0.7500000000000000    0.1250050000000000    0.5232300000000000 Cd
   0.7500000000000000    0.8750100000000001    0.7267650000000000 Cd
   0.7500000000000000    0.6250050000000000    0.5232300000000000 Cd
   0.7500000000000000    0.3750100000000000    0.7267650000000000 Cd
   0.0000000000000000    0.6250050000000000    0.2732250000000000 Cd
   0.0000000000000000    0.3750100000000000    0.4767600000000000 Cd
   0.0000000000000000    0.8750100000000001    0.4767600000000000 Cd
   0.0000000000000000    0.1250050000000000    0.2732250000000000 Cd
   0.2500000000000000    0.8750100000000001    0.2267650000000000 Cd
   0.2500000000000000    0.1250050000000000    0.0232300000000000 Cd
   0.2500000000000000    0.6250050000000000    0.0232300000000000 Cd
   0.2500000000000000    0.3750100000000000    0.2267650000000000 Cd
   0.5000000000000000    0.8750100000000001    0.4767600000000000 Cd
   0.5000000000000000    0.1250050000000000    0.2732250000000000 Cd
   0.5000000000000000    0.6250050000000000    0.2732250000000000 Cd
   0.5000000000000000    0.3750100000000000    0.4767600000000000 Cd
   0.7500000000000000    0.1250050000000000    0.0232300000000000 Cd
   0.7500000000000000    0.8750100000000001    0.2267650000000000 Cd
   0.7500000000000000    0.6250050000000000    0.0232300000000000 Cd
   0.7500000000000000    0.3750100000000000    0.2267650000000000 Cd
   0.0000000000000000    0.6250050000000000    0.5232300000000000 Cd
   0.0000000000000000    0.1250050000000000    0.5232300000000000 Cd
   0.0000000000000000    0.8750100000000001    0.7267650000000000 Cd
   0.0000000000000000    0.3750100000000000    0.7267650000000000 Cd
   0.2500000000000000    0.1250050000000000    0.7732250000000001 Cd
   0.2500000000000000    0.8750100000000001    0.9767600000000001 Cd
   0.2500000000000000    0.6250050000000000    0.7732250000000001 Cd
   0.2500000000000000    0.3750100000000000    0.9767600000000001 Cd
   0.5000000000000000    0.1250050000000000    0.5232300000000000 Cd
   0.5000000000000000    0.8750100000000001    0.7267650000000000 Cd
   0.5000000000000000    0.6250050000000000    0.5232300000000000 Cd
   0.5000000000000000    0.3750100000000000    0.7267650000000000 Cd
   0.7500000000000000    0.6250050000000000    0.7732250000000001 Cd
   0.7500000000000000    0.1250050000000000    0.7732250000000001 Cd
   0.7500000000000000    0.8750100000000001    0.9767600000000001 Cd
   0.7500000000000000    0.3750100000000000    0.9767600000000001 Cd
   0.0000000000000000    0.1250050000000000    0.0232300000000000 Cd
   0.0000000000000000    0.8750100000000001    0.2267650000000000 Cd
   0.0000000000000000    0.6250050000000000    0.0232300000000000 Cd
   0.0000000000000000    0.3750100000000000    0.2267650000000000 Cd
   0.2500000000000000    0.1250050000000000    0.2732250000000000 Cd
   0.2500000000000000    0.8750100000000001    0.4767600000000000 Cd
   0.2500000000000000    0.6250050000000000    0.2732250000000000 Cd
   0.2500000000000000    0.3750100000000000    0.4767600000000000 Cd
   0.5000000000000000    0.1250050000000000    0.0232300000000000 Cd
   0.5000000000000000    0.8750100000000001    0.2267650000000000 Cd
   0.5000000000000000    0.6250050000000000    0.0232300000000000 Cd
   0.5000000000000000    0.3750100000000000    0.2267650000000000 Cd
   0.7500000000000000    0.6250050000000000    0.2732250000000000 Cd
   0.7500000000000000    0.8750100000000001    0.4767600000000000 Cd
   0.7500000000000000    0.1250050000000000    0.2732250000000000 Cd
   0.7500000000000000    0.3750100000000000    0.4767600000000000 Cd
   0.4741089454835941    0.9388312517664849    0.0346733927051065 H
   0.4555002486394982    0.8999902344889058    0.0554832621702088 H
   0.1151850000000000    0.7701800000000000    0.8320600000000000 H
   0.0488550000000000    0.7840150000000000    0.8449800000000001 H
   0.1308750000000000    0.8187150000000001    0.9363600000000001 H
   0.0830100000000000    0.8576950000000000    0.9704349999999999 H
   0.0035850000000000    0.8217200000000000    0.8862350000000000 H
   0.1151850000000000    0.7298300000000000    0.9179250000000000 H
   0.0488550000000000    0.7160000000000000    0.9050050000000001 H
   0.1308750000000000    0.6813000000000000    0.8136250000000000 H
   0.0830100000000000    0.6423200000000000    0.7795500000000000 H
   0.0035850000000000    0.6782950000000000    0.8637500000000000 H
   0.1670850000000000    0.7821850000000000    0.9077850000000001 H
   0.2107200000000000    0.7476500000000000    0.8115000000000000 H
   0.1642600000000000    0.8479950000000001    0.8676750000000000 H
   0.1968450000000000    0.8848450000000000    0.8117500000000000 H
   0.2436600000000000    0.7893850000000000    0.7610150000000000 H
   0.1670850000000000    0.7178300000000000    0.8422050000000000 H
   0.2107200000000000    0.7523599999999999    0.9381400000000000 H
   0.1642600000000000    0.6520200000000000    0.8823099999999999 H
   0.1968450000000000    0.6151700000000000    0.9381950000000000 H
   0.2436600000000000    0.7106250000000001    0.9889700000000000 H
   0.8848199999999999    0.9798350000000000    0.8320600000000000 H
   0.9511499999999999    0.9660050000000000    0.8449800000000001 H
   0.8691249999999999    0.9313050000000000    0.9363600000000001 H
   0.9169900000000000    0.8923250000000000    0.9704349999999999 H
   0.9964150000000001    0.9283000000000000    0.8862350000000000 H
   0.8848199999999999    0.0201750000000000    0.9178999999999999 H
   0.9511499999999999    0.0340100000000000    0.9050050000000001 H
   0.8691249999999999    0.0687100000000000    0.8136250000000000 H
   0.9169900000000000    0.1076900000000000    0.7795500000000000 H
   0.9964150000000001    0.0717150000000000    0.8637500000000000 H
   0.8329150000000001    0.0321750000000000    0.8422050000000000 H
   0.7892850000000000    0.9976450000000000    0.9381400000000000 H
   0.8357399999999999    0.0979850000000000    0.8823099999999999 H
   0.8031550000000001    0.1348350000000000    0.9381950000000000 H
   0.7563400000000000    0.0393800000000000    0.9889700000000000 H
   0.8329150000000001    0.9678350000000000    0.9077850000000001 H
   0.7892850000000000    0.0000000000000000    0.8115000000000000 H
   0.8357399999999999    0.9020250000000001    0.8676750000000000 H
   0.8031600000000000    0.8651750000000000    0.8117500000000000 H
   0.7563400000000000    0.9606300000000000    0.7610150000000000 H
   0.1151850000000000    0.2701800000000000    0.8320600000000000 H
   0.0488550000000000    0.2840150000000000    0.8449800000000001 H
   0.1308750000000000    0.3187150000000000    0.9363600000000001 H
   0.0830100000000000    0.3576950000000000    0.9704349999999999 H
   0.0035850000000000    0.3217200000000000    0.8862350000000000 H
   0.1151850000000000    0.2298300000000000    0.9179250000000000 H
   0.0488550000000000    0.2160000000000000    0.9050050000000001 H
   0.1308750000000000    0.1813000000000000    0.8136250000000000 H
   0.0830100000000000    0.1423200000000000    0.7795500000000000 H
   0.0035850000000000    0.1782950000000000    0.8637500000000000 H
   0.1670850000000000    0.2821850000000000    0.9077850000000001 H
   0.2107200000000000    0.2476500000000000    0.8115000000000000 H
   0.1642600000000000    0.3479950000000000    0.8676750000000000 H
   0.1968450000000000    0.3848450000000000    0.8117500000000000 H
   0.2436600000000000    0.2893850000000000    0.7610150000000000 H
   0.1670850000000000    0.2178300000000000    0.8422050000000000 H
   0.2107200000000000    0.2523600000000000    0.9381400000000000 H
   0.1642600000000000    0.1520200000000000    0.8823099999999999 H
   0.1968450000000000    0.1151700000000000    0.9381950000000000 H
   0.2436600000000000    0.2106250000000000    0.9889700000000000 H
   0.8848199999999999    0.4798350000000000    0.8320600000000000 H
   0.9511499999999999    0.4660050000000000    0.8449800000000001 H
   0.8691249999999999    0.4313050000000000    0.9363600000000001 H
   0.9169900000000000    0.3923250000000000    0.9704349999999999 H
   0.9964150000000001    0.4283000000000000    0.8862350000000000 H
   0.8848199999999999    0.5201750000000001    0.9178999999999999 H
   0.9511499999999999    0.5340100000000000    0.9050050000000001 H
   0.8691249999999999    0.5687100000000000    0.8136250000000000 H
   0.9169900000000000    0.6076900000000000    0.7795500000000000 H
   0.9964150000000001    0.5717150000000000    0.8637500000000000 H
   0.8329150000000001    0.5321750000000000    0.8422050000000000 H
   0.7892850000000000    0.4976450000000000    0.9381400000000000 H
   0.8357399999999999    0.5979850000000000    0.8823099999999999 H
   0.8031550000000001    0.6348350000000000    0.9381950000000000 H
   0.7563400000000000    0.5393800000000000    0.9889700000000000 H
   0.8329150000000001    0.4678350000000000    0.9077850000000001 H
   0.7892850000000000    0.5000000000000000    0.8115000000000000 H
   0.8357399999999999    0.4020250000000000    0.8676750000000000 H
   0.8031600000000000    0.3651750000000000    0.8117500000000000 H
   0.7563400000000000    0.4606300000000000    0.7610150000000000 H
   0.3651850000000000    0.0201750000000000    0.6679300000000000 H
   0.2988550000000000    0.0340100000000000    0.6550100000000000 H
   0.3808750000000000    0.0687100000000000    0.5636300000000000 H
   0.3330100000000000    0.1076900000000000    0.5295500000000000 H
   0.2535850000000000    0.0717150000000000    0.6137550000000001 H
   0.3651850000000000    0.9798350000000000    0.5820600000000000 H
   0.2988550000000000    0.9660050000000000    0.5949850000000000 H
   0.3808750000000000    0.9313050000000000    0.6863650000000000 H
   0.3330100000000000    0.8923250000000000    0.7204400000000000 H
   0.2535850000000000    0.9283000000000000    0.6362400000000000 H
   0.4170850000000000    0.0321800000000000    0.5922100000000000 H
   0.4607200000000000    0.9976450000000000    0.6881400000000000 H
   0.4142600000000000    0.0979850000000000    0.6323000000000000 H
   0.4468450000000000    0.1348400000000000    0.6881950000000000 H
   0.4936600000000000    0.0393800000000000    0.7389749999999999 H
   0.4170850000000000    0.9678350000000000    0.6577500000000001 H
   0.4607200000000000    0.0000000000000000    0.5618500000000000 H
   0.4142600000000000    0.9020250000000001    0.6176800000000000 H
   0.4468450000000000    0.8651750000000000    0.5617950000000000 H
   0.4936650000000000    0.9606350000000000    0.5110200000000000 H
   0.1348200000000000    0.2701800000000000    0.5820600000000000 H
   0.2011500000000000    0.2840150000000000    0.5949850000000000 H
   0.1191250000000000    0.3187150000000000    0.6863650000000000 H
   0.1669900000000000    0.3576950000000000    0.7204400000000000 H
   0.2464150000000000    0.3217200000000000    0.6362400000000000 H
   0.1348200000000000    0.2298300000000000    0.6679300000000000 H
   0.2011450000000000    0.2160000000000000    0.6550100000000000 H
   0.1191250000000000    0.1812950000000000    0.5636300000000000 H
   0.1669900000000000    0.1423200000000000    0.5295500000000000 H
   0.2464150000000000    0.1782950000000000    0.6137550000000001 H
   0.0829150000000000    0.2178250000000000    0.5922100000000000 H
   0.0392800000000000    0.2523600000000000    0.6881400000000000 H
   0.0857400000000000    0.1520200000000000    0.6323000000000000 H
   0.0531550000000000    0.1151700000000000    0.6881950000000000 H
   0.0063400000000000    0.2106250000000000    0.7389749999999999 H
   0.0829150000000000    0.2821800000000000    0.6577900000000000 H
   0.0392850000000000    0.2476500000000000    0.5618500000000000 H
   0.0857400000000000    0.3479950000000000    0.6176800000000000 H
   0.0531550000000000    0.3848450000000000    0.5617950000000000 H
   0.0063400000000000    0.2893850000000000    0.5110200000000000 H
   0.3651850000000000    0.5201750000000001    0.6679300000000000 H
   0.2988550000000000    0.5340100000000000    0.6550100000000000 H
   0.3808750000000000    0.5687100000000000    0.5636300000000000 H
   0.3330100000000000    0.6076900000000000    0.5295500000000000 H
   0.2535850000000000    0.5717150000000000    0.6137550000000001 H
   0.3651850000000000    0.4798350000000000    0.5820600000000000 H
   0.2988550000000000    0.4660050000000000    0.5949850000000000 H
   0.3808750000000000    0.4313050000000000    0.6863650000000000 H
   0.3330100000000000    0.3923250000000000    0.7204400000000000 H
   0.2535850000000000    0.4283000000000000    0.6362400000000000 H
   0.4170850000000000    0.5321800000000000    0.5922100000000000 H
   0.4607200000000000    0.4976450000000000    0.6881400000000000 H
   0.4142600000000000    0.5979850000000000    0.6323000000000000 H
   0.4468450000000000    0.6348400000000000    0.6881950000000000 H
   0.4936600000000000    0.5393800000000000    0.7389749999999999 H
   0.4170850000000000    0.4678350000000000    0.6577500000000001 H
   0.4607200000000000    0.5000000000000000    0.5618500000000000 H
   0.4142600000000000    0.4020250000000000    0.6176800000000000 H
   0.4468450000000000    0.3651750000000000    0.5617950000000000 H
   0.4936650000000000    0.4606350000000000    0.5110200000000000 H
   0.1348200000000000    0.7701800000000000    0.5820600000000000 H
   0.2011500000000000    0.7840150000000000    0.5949850000000000 H
   0.1191250000000000    0.8187150000000001    0.6863650000000000 H
   0.1669900000000000    0.8576950000000000    0.7204400000000000 H
   0.2464150000000000    0.8217200000000000    0.6362400000000000 H
   0.1348200000000000    0.7298300000000000    0.6679300000000000 H
   0.2011450000000000    0.7160000000000000    0.6550100000000000 H
   0.1191250000000000    0.6812950000000000    0.5636300000000000 H
   0.1669900000000000    0.6423200000000000    0.5295500000000000 H
   0.2464150000000000    0.6782950000000000    0.6137550000000001 H
   0.0829150000000000    0.7178249999999999    0.5922100000000000 H
   0.0392800000000000    0.7523599999999999    0.6881400000000000 H
   0.0857400000000000    0.6520200000000000    0.6323000000000000 H
   0.0531550000000000    0.6151700000000000    0.6881950000000000 H
   0.0063400000000000    0.7106250000000001    0.7389749999999999 H
   0.0829150000000000    0.7821800000000000    0.6577900000000000 H
   0.0392850000000000    0.7476500000000000    0.5618500000000000 H
   0.0857400000000000    0.8479950000000001    0.6176800000000000 H
   0.0531550000000000    0.8848450000000000    0.5617950000000000 H
   0.0063400000000000    0.7893850000000000    0.5110200000000000 H
   0.3848200000000000    0.9798350000000000    0.8320600000000000 H
   0.4511500000000000    0.9660050000000000    0.8449800000000001 H
   0.3691250000000000    0.9313050000000000    0.9363600000000001 H
   0.4169900000000000    0.8923250000000000    0.9704349999999999 H
   0.4964150000000000    0.9283000000000000    0.8862350000000000 H
   0.3848200000000000    0.0201750000000000    0.9178999999999999 H
   0.4511500000000000    0.0340100000000000    0.9050050000000001 H
   0.3691250000000000    0.0687100000000000    0.8136250000000000 H
   0.4169900000000000    0.1076900000000000    0.7795500000000000 H
   0.4964150000000000    0.0717150000000000    0.8637500000000000 H
   0.3329150000000000    0.0321750000000000    0.8422050000000000 H
   0.2892850000000000    0.9976450000000000    0.9381400000000000 H
   0.3357400000000000    0.0979850000000000    0.8823099999999999 H
   0.3031550000000000    0.1348350000000000    0.9381950000000000 H
   0.2563400000000000    0.0393800000000000    0.9889700000000000 H
   0.3329150000000000    0.9678350000000000    0.9077850000000001 H
   0.2892850000000000    0.0000000000000000    0.8115000000000000 H
   0.3357400000000000    0.9020250000000001    0.8676750000000000 H
   0.3031600000000000    0.8651750000000000    0.8117500000000000 H
   0.2563400000000000    0.9606300000000000    0.7610150000000000 H
   0.6151850000000000    0.2701800000000000    0.8320600000000000 H
   0.5488550000000000    0.2840150000000000    0.8449800000000001 H
   0.6308750000000000    0.3187150000000000    0.9363600000000001 H
   0.5830100000000000    0.3576950000000000    0.9704349999999999 H
   0.5035849999999999    0.3217200000000000    0.8862350000000000 H
   0.6151850000000000    0.2298300000000000    0.9179250000000000 H
   0.5488550000000000    0.2160000000000000    0.9050050000000001 H
   0.6308750000000000    0.1813000000000000    0.8136250000000000 H
   0.5830100000000000    0.1423200000000000    0.7795500000000000 H
   0.5035849999999999    0.1782950000000000    0.8637500000000000 H
   0.6670850000000000    0.2821850000000000    0.9077850000000001 H
   0.7107200000000000    0.2476500000000000    0.8115000000000000 H
   0.6642600000000000    0.3479950000000000    0.8676750000000000 H
   0.6968449999999999    0.3848450000000000    0.8117500000000000 H
   0.7436600000000000    0.2893850000000000    0.7610150000000000 H
   0.6670850000000000    0.2178300000000000    0.8422050000000000 H
   0.7107200000000000    0.2523600000000000    0.9381400000000000 H
   0.6642600000000000    0.1520200000000000    0.8823099999999999 H
   0.6968449999999999    0.1151700000000000    0.9381950000000000 H
   0.7436600000000000    0.2106250000000000    0.9889700000000000 H
   0.6151850000000000    0.7701800000000000    0.8320600000000000 H
   0.5488550000000000    0.7840150000000000    0.8449800000000001 H
   0.6308750000000000    0.8187150000000001    0.9363600000000001 H
   0.5830100000000000    0.8576950000000000    0.9704349999999999 H
   0.5035849999999999    0.8217200000000000    0.8862350000000000 H
   0.6151850000000000    0.7298300000000000    0.9179250000000000 H
   0.5488550000000000    0.7160000000000000    0.9050050000000001 H
   0.6308750000000000    0.6813000000000000    0.8136250000000000 H
   0.5830100000000000    0.6423200000000000    0.7795500000000000 H
   0.5035849999999999    0.6782950000000000    0.8637500000000000 H
   0.6670850000000000    0.7821850000000000    0.9077850000000001 H
   0.7107200000000000    0.7476500000000000    0.8115000000000000 H
   0.6642600000000000    0.8479950000000001    0.8676750000000000 H
   0.6968449999999999    0.8848450000000000    0.8117500000000000 H
   0.7436600000000000    0.7893850000000000    0.7610150000000000 H
   0.6670850000000000    0.7178300000000000    0.8422050000000000 H
   0.7107200000000000    0.7523599999999999    0.9381400000000000 H
   0.6642600000000000    0.6520200000000000    0.8823099999999999 H
   0.6968449999999999    0.6151700000000000    0.9381950000000000 H
   0.7436600000000000    0.7106250000000001    0.9889700000000000 H
   0.3848200000000000    0.4798350000000000    0.8320600000000000 H
   0.4511500000000000    0.4660050000000000    0.8449800000000001 H
   0.3691250000000000    0.4313050000000000    0.9363600000000001 H
   0.4169900000000000    0.3923250000000000    0.9704349999999999 H
   0.4964150000000000    0.4283000000000000    0.8862350000000000 H
   0.3848200000000000    0.5201750000000001    0.9178999999999999 H
   0.4511500000000000    0.5340100000000000    0.9050050000000001 H
   0.3691250000000000    0.5687100000000000    0.8136250000000000 H
   0.4169900000000000    0.6076900000000000    0.7795500000000000 H
   0.4964150000000000    0.5717150000000000    0.8637500000000000 H
   0.3329150000000000    0.5321750000000000    0.8422050000000000 H
   0.2892850000000000    0.4976450000000000    0.9381400000000000 H
   0.3357400000000000    0.5979850000000000    0.8823099999999999 H
   0.3031550000000000    0.6348350000000000    0.9381950000000000 H
   0.2563400000000000    0.5393800000000000    0.9889700000000000 H
   0.3329150000000000    0.4678350000000000    0.9077850000000001 H
   0.2892850000000000    0.5000000000000000    0.8115000000000000 H
   0.3357400000000000    0.4020250000000000    0.8676750000000000 H
   0.3031600000000000    0.3651750000000000    0.8117500000000000 H
   0.2563400000000000    0.4606300000000000    0.7610150000000000 H
   0.6348199999999999    0.2701800000000000    0.5820600000000000 H
   0.7011499999999999    0.2840150000000000    0.5949850000000000 H
   0.6191250000000000    0.3187150000000000    0.6863650000000000 H
   0.6669900000000000    0.3576950000000000    0.7204400000000000 H
   0.7464150000000001    0.3217200000000000    0.6362400000000000 H
   0.6348199999999999    0.2298300000000000    0.6679300000000000 H
   0.7011450000000000    0.2160000000000000    0.6550100000000000 H
   0.6191250000000000    0.1812950000000000    0.5636300000000000 H
   0.6669900000000000    0.1423200000000000    0.5295500000000000 H
   0.7464150000000001    0.1782950000000000    0.6137550000000001 H
   0.5829150000000000    0.2178250000000000    0.5922100000000000 H
   0.5392800000000000    0.2523600000000000    0.6881400000000000 H
   0.5857400000000000    0.1520200000000000    0.6323000000000000 H
   0.5531550000000000    0.1151700000000000    0.6881950000000000 H
   0.5063400000000000    0.2106250000000000    0.7389749999999999 H
   0.5829150000000000    0.2821800000000000    0.6577900000000000 H
   0.5392850000000000    0.2476500000000000    0.5618500000000000 H
   0.5857400000000000    0.3479950000000000    0.6176800000000000 H
   0.5531550000000000    0.3848450000000000    0.5617950000000000 H
   0.5063400000000000    0.2893850000000000    0.5110200000000000 H
   0.8651850000000000    0.0201750000000000    0.6679300000000000 H
   0.7988550000000000    0.0340100000000000    0.6550100000000000 H
   0.8808750000000001    0.0687100000000000    0.5636300000000000 H
   0.8330100000000000    0.1076900000000000    0.5295500000000000 H
   0.7535849999999999    0.0717150000000000    0.6137550000000001 H
   0.8651850000000000    0.9798350000000000    0.5820600000000000 H
   0.7988550000000000    0.9660050000000000    0.5949850000000000 H
   0.8808750000000001    0.9313050000000000    0.6863650000000000 H
   0.8330100000000000    0.8923250000000000    0.7204400000000000 H
   0.7535849999999999    0.9283000000000000    0.6362400000000000 H
   0.9170849999999999    0.0321800000000000    0.5922100000000000 H
   0.9607200000000000    0.9976450000000000    0.6881400000000000 H
   0.9142600000000001    0.0979850000000000    0.6323000000000000 H
   0.9468449999999999    0.1348400000000000    0.6881950000000000 H
   0.9936600000000000    0.0393800000000000    0.7389749999999999 H
   0.9170849999999999    0.9678350000000000    0.6577500000000001 H
   0.9607200000000000    0.0000000000000000    0.5618500000000000 H
   0.9142600000000001    0.9020250000000001    0.6176800000000000 H
   0.9468449999999999    0.8651750000000000    0.5617950000000000 H
   0.9936650000000000    0.9606350000000000    0.5110200000000000 H
   0.6348199999999999    0.7701800000000000    0.5820600000000000 H
   0.7011499999999999    0.7840150000000000    0.5949850000000000 H
   0.6191250000000000    0.8187150000000001    0.6863650000000000 H
   0.6669900000000000    0.8576950000000000    0.7204400000000000 H
   0.7464150000000001    0.8217200000000000    0.6362400000000000 H
   0.6348199999999999    0.7298300000000000    0.6679300000000000 H
   0.7011450000000000    0.7160000000000000    0.6550100000000000 H
   0.6191250000000000    0.6812950000000000    0.5636300000000000 H
   0.6669900000000000    0.6423200000000000    0.5295500000000000 H
   0.7464150000000001    0.6782950000000000    0.6137550000000001 H
   0.5829150000000000    0.7178249999999999    0.5922100000000000 H
   0.5392800000000000    0.7523599999999999    0.6881400000000000 H
   0.5857400000000000    0.6520200000000000    0.6323000000000000 H
   0.5531550000000000    0.6151700000000000    0.6881950000000000 H
   0.5063400000000000    0.7106250000000001    0.7389749999999999 H
   0.5829150000000000    0.7821800000000000    0.6577900000000000 H
   0.5392850000000000    0.7476500000000000    0.5618500000000000 H
   0.5857400000000000    0.8479950000000001    0.6176800000000000 H
   0.5531550000000000    0.8848450000000000    0.5617950000000000 H
   0.5063400000000000    0.7893850000000000    0.5110200000000000 H
   0.8651850000000000    0.5201750000000001    0.6679300000000000 H
   0.7988550000000000    0.5340100000000000    0.6550100000000000 H
   0.8808750000000001    0.5687100000000000    0.5636300000000000 H
   0.8330100000000000    0.6076900000000000    0.5295500000000000 H
   0.7535849999999999    0.5717150000000000    0.6137550000000001 H
   0.8651850000000000    0.4798350000000000    0.5820600000000000 H
   0.7988550000000000    0.4660050000000000    0.5949850000000000 H
   0.8808750000000001    0.4313050000000000    0.6863650000000000 H
   0.8330100000000000    0.3923250000000000    0.7204400000000000 H
   0.7535849999999999    0.4283000000000000    0.6362400000000000 H
   0.9170849999999999    0.5321800000000000    0.5922100000000000 H
   0.9607200000000000    0.4976450000000000    0.6881400000000000 H
   0.9142600000000001    0.5979850000000000    0.6323000000000000 H
   0.9468449999999999    0.6348400000000000    0.6881950000000000 H
   0.9936600000000000    0.5393800000000000    0.7389749999999999 H
   0.9170849999999999    0.4678350000000000    0.6577500000000001 H
   0.9607200000000000    0.5000000000000000    0.5618500000000000 H
   0.9142600000000001    0.4020250000000000    0.6176800000000000 H
   0.9468449999999999    0.3651750000000000    0.5617950000000000 H
   0.9936650000000000    0.4606350000000000    0.5110200000000000 H
   0.4555034878227845    0.1000236768329732    0.1945112120446754 H
   0.4741128944593829    0.0611793000344844    0.2153142759491089 H
   0.1151850000000000    0.7701800000000000    0.3320600000000000 H
   0.0488550000000000    0.7840150000000000    0.3449800000000000 H
   0.1308750000000000    0.8187150000000001    0.4363600000000000 H
   0.0830100000000000    0.8576950000000000    0.4704350000000000 H
   0.0035850000000000    0.8217200000000000    0.3862350000000000 H
   0.1151850000000000    0.7298300000000000    0.4179250000000000 H
   0.0488550000000000    0.7160000000000000    0.4050050000000000 H
   0.1308750000000000    0.6813000000000000    0.3136250000000000 H
   0.0830100000000000    0.6423200000000000    0.2795500000000000 H
   0.0035850000000000    0.6782950000000000    0.3637500000000000 H
   0.1670850000000000    0.7821850000000000    0.4077850000000000 H
   0.2107200000000000    0.7476500000000000    0.3115000000000000 H
   0.1642600000000000    0.8479950000000001    0.3676750000000000 H
   0.1968450000000000    0.8848450000000000    0.3117500000000000 H
   0.2436600000000000    0.7893850000000000    0.2610150000000000 H
   0.1670850000000000    0.7178300000000000    0.3422050000000000 H
   0.2107200000000000    0.7523599999999999    0.4381400000000000 H
   0.1642600000000000    0.6520200000000000    0.3823100000000000 H
   0.1968450000000000    0.6151700000000000    0.4381950000000000 H
   0.2436600000000000    0.7106250000000001    0.4889700000000000 H
   0.8848199999999999    0.5201750000000001    0.4179000000000000 H
   0.9511499999999999    0.5340100000000000    0.4050050000000000 H
   0.8691249999999999    0.5687100000000000    0.3136250000000000 H
   0.9169900000000000    0.6076900000000000    0.2795500000000000 H
   0.9964150000000001    0.5717150000000000    0.3637500000000000 H
   0.8848199999999999    0.4798350000000000    0.3320600000000000 H
   0.9511499999999999    0.4660050000000000    0.3449800000000000 H
   0.8691249999999999    0.4313050000000000    0.4363600000000000 H
   0.9169900000000000    0.3923250000000000    0.4704350000000000 H
   0.9964150000000001    0.4283000000000000    0.3862350000000000 H
   0.8329150000000001    0.5321750000000000    0.3422050000000000 H
   0.7892850000000000    0.4976450000000000    0.4381400000000000 H
   0.8357399999999999    0.5979850000000000    0.3823100000000000 H
   0.8031550000000001    0.6348350000000000    0.4381950000000000 H
   0.7563400000000000    0.5393800000000000    0.4889700000000000 H
   0.8329150000000001    0.4678350000000000    0.4077850000000000 H
   0.7892850000000000    0.5000000000000000    0.3115000000000000 H
   0.8357399999999999    0.4020250000000000    0.3676750000000000 H
   0.8031600000000000    0.3651750000000000    0.3117500000000000 H
   0.7563400000000000    0.4606300000000000    0.2610150000000000 H
   0.1151850000000000    0.2701800000000000    0.3320600000000000 H
   0.0488550000000000    0.2840150000000000    0.3449800000000000 H
   0.1308750000000000    0.3187150000000000    0.4363600000000000 H
   0.0830100000000000    0.3576950000000000    0.4704350000000000 H
   0.0035850000000000    0.3217200000000000    0.3862350000000000 H
   0.1151850000000000    0.2298300000000000    0.4179250000000000 H
   0.0488550000000000    0.2160000000000000    0.4050050000000000 H
   0.1308750000000000    0.1813000000000000    0.3136250000000000 H