Zn72 H572 C858 N143 O286
1.0
  37.4669993095074005    0.0000000000000000   -0.0071931475750991
   0.0473496074138675   27.1592420504922849  -15.6867404280637395
   0.0000000000000000    0.0000000000000000   31.3739999999999988
Zn H C N O
72 572 858 143 286
direct
   0.3085366666666667    0.2497950000000000    0.2499750000000000 Zn
   0.0307433333333333    0.4999650000000000    0.2498750000000000 Zn
   0.1974100000000000    0.4999650000000000    0.2498750000000000 Zn
   0.0862266666666667    0.2501150000000000    0.0001450000000000 Zn
   0.2528899999999999    0.2501150000000000    0.0001450000000000 Zn
   0.1418700000000000    0.2497950000000000    0.2499750000000000 Zn
   0.6418699999999999    0.2497950000000000    0.2499750000000000 Zn
   0.3640766666666667    0.4999650000000000    0.2498750000000000 Zn
   0.5307433333333333    0.4999650000000000    0.2498750000000000 Zn
   0.4195600000000000    0.2501150000000000    0.0001450000000000 Zn
   0.5862233333333333    0.2501150000000000    0.0001450000000000 Zn
   0.4752033333333333    0.2497950000000000    0.2499750000000000 Zn
   0.9752033333333333    0.2497950000000000    0.2499750000000000 Zn
   0.6974100000000000    0.4999650000000000    0.2498750000000000 Zn
   0.8640766666666666    0.4999650000000000    0.2498750000000000 Zn
   0.7528933333333333    0.2501150000000000    0.0001450000000000 Zn
   0.9195566666666666    0.2501150000000000    0.0001450000000000 Zn
   0.8085366666666667    0.2497950000000000    0.2499750000000000 Zn
   0.3085366666666667    0.7497950000000000    0.2499750000000000 Zn
   0.0307433333333333    0.9999650000000000    0.2498750000000000 Zn
   0.1974100000000000    0.9999650000000000    0.2498750000000000 Zn
   0.0862266666666667    0.7501150000000000    0.0001450000000000 Zn
   0.2528899999999999    0.7501150000000000    0.0001450000000000 Zn
   0.1418700000000000    0.7497950000000000    0.2499750000000000 Zn
   0.6418699999999999    0.7497950000000000    0.2499750000000000 Zn
   0.3640766666666667    0.9999650000000000    0.2498750000000000 Zn
   0.5307433333333333    0.9999650000000000    0.2498750000000000 Zn
   0.4195600000000000    0.7501150000000000    0.0001450000000000 Zn
   0.5862233333333333    0.7501150000000000    0.0001450000000000 Zn
   0.4752033333333333    0.7497950000000000    0.2499750000000000 Zn
   0.9752033333333333    0.7497950000000000    0.2499750000000000 Zn
   0.6974100000000000    0.9999650000000000    0.2498750000000000 Zn
   0.8640766666666666    0.9999650000000000    0.2498750000000000 Zn
   0.7528933333333333    0.7501150000000000    0.0001450000000000 Zn
   0.9195566666666666    0.7501150000000000    0.0001450000000000 Zn
   0.8085366666666667    0.7497950000000000    0.2499750000000000 Zn
   0.3085366666666667    0.2497950000000000    0.7499750000000001 Zn
   0.0307433333333333    0.4999650000000000    0.7498750000000001 Zn
   0.1974100000000000    0.4999650000000000    0.7498750000000001 Zn
   0.0862266666666667    0.2501150000000000    0.5001450000000000 Zn
   0.2528899999999999    0.2501150000000000    0.5001450000000000 Zn
   0.1418700000000000    0.2497950000000000    0.7499750000000001 Zn
   0.6418699999999999    0.2497950000000000    0.7499750000000001 Zn
   0.3640766666666667    0.4999650000000000    0.7498750000000001 Zn
   0.5307433333333333    0.4999650000000000    0.7498750000000001 Zn
   0.4195600000000000    0.2501150000000000    0.5001450000000000 Zn
   0.5862233333333333    0.2501150000000000    0.5001450000000000 Zn
   0.4752033333333333    0.2497950000000000    0.7499750000000001 Zn
   0.9752033333333333    0.2497950000000000    0.7499750000000001 Zn
   0.6974100000000000    0.4999650000000000    0.7498750000000001 Zn
   0.8640766666666666    0.4999650000000000    0.7498750000000001 Zn
   0.7528933333333333    0.2501150000000000    0.5001450000000000 Zn
   0.9195566666666666    0.2501150000000000    0.5001450000000000 Zn
   0.8085366666666667    0.2497950000000000    0.7499750000000001 Zn
   0.3085366666666667    0.7497950000000000    0.7499750000000001 Zn
   0.0307433333333333    0.9999650000000000    0.7498750000000001 Zn
   0.1974100000000000    0.9999650000000000    0.7498750000000001 Zn
   0.0862266666666667    0.7501150000000000    0.5001450000000000 Zn
   0.2528899999999999    0.7501150000000000    0.5001450000000000 Zn
   0.1418700000000000    0.7497950000000000    0.7499750000000001 Zn
   0.6418699999999999    0.7497950000000000    0.7499750000000001 Zn
   0.3640766666666667    0.9999650000000000    0.7498750000000001 Zn
   0.5307433333333333    0.9999650000000000    0.7498750000000001 Zn
   0.4195600000000000    0.7501150000000000    0.5001450000000000 Zn
   0.5862233333333333    0.7501150000000000    0.5001450000000000 Zn
   0.4752033333333333    0.7497950000000000    0.7499750000000001 Zn
   0.9752033333333333    0.7497950000000000    0.7499750000000001 Zn
   0.6974100000000000    0.9999650000000000    0.7498750000000001 Zn
   0.8640766666666666    0.9999650000000000    0.7498750000000001 Zn
   0.7528933333333333    0.7501150000000000    0.5001450000000000 Zn
   0.9195566666666666    0.7501150000000000    0.5001450000000000 Zn
   0.8085366666666667    0.7497950000000000    0.7499750000000001 Zn
   0.0313300000000000    0.3625900000000000    0.3019200000000000 H
   0.1979933333333333    0.3625900000000000    0.3019100000000000 H
   0.0698433333333333    0.2945400000000000    0.2962000000000000 H
   0.2365066666666667    0.2945400000000000    0.2962000000000000 H
   0.1516400000000000    0.3303250000000000    0.2300200000000000 H
   0.3183033333333333    0.3303250000000000    0.2300200000000000 H
   0.1169533333333333    0.4008800000000000    0.2356350000000000 H
   0.2836166666666666    0.4008750000000000    0.2356300000000000 H
   0.0869133333333333    0.4395250000000000    0.1374050000000000 H
   0.2535766666666667    0.4395300000000000    0.1374050000000000 H
   0.1254233333333333    0.0000000000000000    0.2052700000000000 H
   0.2920866666666667    0.0000000000000000    0.2052700000000000 H
   0.0405033333333333    0.3994000000000000    0.1694100000000000 H
   0.2071666666666667    0.3994000000000000    0.1694100000000000 H
   0.0058066666666667    0.3345400000000000    0.0990550000000000 H
   0.1724700000000000    0.3345350000000000    0.0990550000000000 H
   0.1423333333333333    0.1980800000000000    0.0606150000000000 H
   0.3089966666666666    0.1980800000000000    0.0606150000000000 H
   0.0140900000000000    0.2039700000000000    0.4984350000000000 H
   0.1807533333333333    0.2039750000000000    0.4984350000000000 H
   0.0958700000000000    0.2699250000000000    0.1004900000000000 H
   0.2625366666666666    0.2699250000000000    0.1004900000000000 H
   0.0612666666666667    0.2641400000000000    0.1652700000000000 H
   0.2279300000000000    0.2641350000000000    0.1652700000000000 H
   0.0314000000000000    0.1374050000000000    0.1979350000000000 H
   0.1980633333333333    0.1374100000000000    0.1979400000000000 H
   0.0699200000000000    0.2052950000000000    0.2036550000000000 H
   0.2365833333333333    0.2052900000000000    0.2036550000000000 H
   0.1515333333333333    0.1694050000000000    0.2701750000000000 H
   0.3181966666666667    0.1694050000000000    0.2701750000000000 H
   0.1168366666666667    0.0990000000000000    0.2645650000000000 H
   0.2835000000000000    0.0990050000000000    0.2645750000000000 H
   0.0869433333333333    0.0607100000000000    0.3626300000000000 H
   0.2536066666666666    0.0607100000000000    0.3626300000000000 H
   0.1254500000000000    0.4984100000000000    0.2945800000000000 H
   0.2921133333333333    0.4984100000000000    0.2945800000000000 H
   0.0404766666666667    0.1004750000000000    0.3304400000000000 H
   0.2071400000000000    0.1004750000000000    0.3304000000000000 H
   0.0057966666666667    0.1653750000000000    0.4009950000000000 H
   0.1724600000000000    0.1653750000000000    0.4009900000000000 H
   0.1422266666666667    0.3019650000000000    0.4394100000000000 H
   0.3088900000000000    0.3019650000000000    0.4394100000000000 H
   0.0139800000000000    0.2962600000000000    0.0000000000000000 H
   0.1806433333333333    0.2962600000000000    0.0000000000000000 H
   0.0960133333333333    0.2303350000000000    0.3998500000000000 H
   0.2626766666666667    0.2303350000000000    0.3998500000000000 H
   0.0613966666666667    0.2359050000000000    0.3349250000000000 H
   0.2280633333333333    0.2359050000000000    0.3349250000000000 H
   0.3646633333333333    0.3625900000000000    0.3019200000000000 H
   0.5313266666666666    0.3625900000000000    0.3019100000000000 H
   0.4031766666666666    0.2945400000000000    0.2962000000000000 H
   0.5698400000000000    0.2945400000000000    0.2962000000000000 H
   0.4849733333333333    0.3303250000000000    0.2300200000000000 H
   0.6516366666666666    0.3303250000000000    0.2300200000000000 H
   0.4502866666666666    0.4008800000000000    0.2356350000000000 H
   0.6169499999999999    0.4008750000000000    0.2356300000000000 H
   0.4202466666666667    0.4395250000000000    0.1374050000000000 H
   0.5869100000000000    0.4395300000000000    0.1374050000000000 H
   0.4587566666666666    0.0000000000000000    0.2052700000000000 H
   0.6254200000000000    0.0000000000000000    0.2052700000000000 H
   0.3738366666666667    0.3994000000000000    0.1694100000000000 H
   0.5405000000000000    0.3994000000000000    0.1694100000000000 H
   0.3391400000000000    0.3345400000000000    0.0990550000000000 H
   0.5058033333333334    0.3345350000000000    0.0990550000000000 H
   0.4756666666666666    0.1980800000000000    0.0606150000000000 H
   0.6423300000000000    0.1980800000000000    0.0606150000000000 H
   0.3474233333333333    0.2039700000000000    0.4984350000000000 H
   0.5140866666666666    0.2039750000000000    0.4984350000000000 H
   0.4292033333333333    0.2699250000000000    0.1004900000000000 H
   0.5958699999999999    0.2699250000000000    0.1004900000000000 H
   0.3946000000000000    0.2641400000000000    0.1652700000000000 H
   0.5612633333333333    0.2641350000000000    0.1652700000000000 H
   0.3647333333333333    0.1374050000000000    0.1979350000000000 H
   0.5313966666666666    0.1374100000000000    0.1979400000000000 H
   0.4032533333333333    0.2052950000000000    0.2036550000000000 H
   0.5699166666666666    0.2052900000000000    0.2036550000000000 H
   0.4848666666666667    0.1694050000000000    0.2701750000000000 H
   0.6515299999999999    0.1694050000000000    0.2701750000000000 H
   0.4501700000000000    0.0990000000000000    0.2645650000000000 H
   0.6168333333333333    0.0990050000000000    0.2645750000000000 H
   0.4202766666666666    0.0607100000000000    0.3626300000000000 H
   0.5869400000000000    0.0607100000000000    0.3626300000000000 H
   0.4587833333333333    0.4984100000000000    0.2945800000000000 H
   0.6254466666666667    0.4984100000000000    0.2945800000000000 H
   0.3738100000000000    0.1004750000000000    0.3304400000000000 H
   0.5404733333333334    0.1004750000000000    0.3304000000000000 H
   0.3391300000000000    0.1653750000000000    0.4009950000000000 H
   0.5057933333333333    0.1653750000000000    0.4009900000000000 H
   0.4755600000000000    0.3019650000000000    0.4394100000000000 H
   0.6422233333333334    0.3019650000000000    0.4394100000000000 H
   0.3473133333333333    0.2962600000000000    0.0000000000000000 H
   0.5139766666666666    0.2962600000000000    0.0000000000000000 H
   0.4293466666666667    0.2303350000000000    0.3998500000000000 H
   0.5960099999999999    0.2303350000000000    0.3998500000000000 H
   0.3947300000000000    0.2359050000000000    0.3349250000000000 H
   0.5613966666666667    0.2359050000000000    0.3349250000000000 H
   0.6979966666666666    0.3625900000000000    0.3019200000000000 H
   0.8646600000000000    0.3625900000000000    0.3019100000000000 H
   0.7365100000000000    0.2945400000000000    0.2962000000000000 H
   0.9031733333333333    0.2945400000000000    0.2962000000000000 H
   0.8183066666666666    0.3303250000000000    0.2300200000000000 H
   0.9849699999999999    0.3303250000000000    0.2300200000000000 H
   0.7836200000000000    0.4008800000000000    0.2356350000000000 H
   0.9502833333333333    0.4008750000000000    0.2356300000000000 H
   0.7535799999999999    0.4395250000000000    0.1374050000000000 H
   0.9202433333333333    0.4395300000000000    0.1374050000000000 H
   0.7920900000000000    0.0000000000000000    0.2052700000000000 H
   0.9587533333333333    0.0000000000000000    0.2052700000000000 H
   0.7071700000000000    0.3994000000000000    0.1694100000000000 H
   0.8738333333333332    0.3994000000000000    0.1694100000000000 H
   0.6724733333333333    0.3345400000000000    0.0990550000000000 H
   0.8391366666666666    0.3345350000000000    0.0990550000000000 H
   0.8089999999999999    0.1980800000000000    0.0606150000000000 H
   0.9756633333333333    0.1980800000000000    0.0606150000000000 H
   0.6807566666666667    0.2039700000000000    0.4984350000000000 H
   0.8474200000000000    0.2039750000000000    0.4984350000000000 H
   0.7625366666666666    0.2699250000000000    0.1004900000000000 H
   0.9292033333333333    0.2699250000000000    0.1004900000000000 H
   0.7279333333333333    0.2641400000000000    0.1652700000000000 H
   0.8945966666666666    0.2641350000000000    0.1652700000000000 H
   0.6980666666666666    0.1374050000000000    0.1979350000000000 H
   0.8647300000000000    0.1374100000000000    0.1979400000000000 H
   0.7365866666666666    0.2052950000000000    0.2036550000000000 H
   0.9032499999999999    0.2052900000000000    0.2036550000000000 H
   0.8181999999999999    0.1694050000000000    0.2701750000000000 H
   0.9848633333333333    0.1694050000000000    0.2701750000000000 H
   0.7835033333333333    0.0990000000000000    0.2645650000000000 H
   0.9501666666666666    0.0990050000000000    0.2645750000000000 H
   0.7536100000000000    0.0607100000000000    0.3626300000000000 H
   0.9202733333333333    0.0607100000000000    0.3626300000000000 H
   0.7921166666666666    0.4984100000000000    0.2945800000000000 H
   0.9587800000000000    0.4984100000000000    0.2945800000000000 H
   0.7071433333333332    0.1004750000000000    0.3304400000000000 H
   0.8738066666666666    0.1004750000000000    0.3304000000000000 H
   0.6724633333333333    0.1653750000000000    0.4009950000000000 H
   0.8391266666666666    0.1653750000000000    0.4009900000000000 H
   0.8088933333333332    0.3019650000000000    0.4394100000000000 H
   0.9755566666666666    0.3019650000000000    0.4394100000000000 H
   0.6806466666666666    0.2962600000000000    0.0000000000000000 H
   0.8473100000000000    0.2962600000000000    0.0000000000000000 H
   0.7626800000000000    0.2303350000000000    0.3998500000000000 H
   0.9293433333333333    0.2303350000000000    0.3998500000000000 H
   0.7280633333333333    0.2359050000000000    0.3349250000000000 H
   0.8947299999999999    0.2359050000000000    0.3349250000000000 H
   0.0313300000000000    0.8625900000000000    0.3019200000000000 H
   0.1979933333333333    0.8625900000000000    0.3019100000000000 H
   0.0698433333333333    0.7945400000000000    0.2962000000000000 H
   0.2365066666666667    0.7945400000000000    0.2962000000000000 H
   0.1516400000000000    0.8303250000000000    0.2300200000000000 H
   0.3183033333333333    0.8303250000000000    0.2300200000000000 H
   0.1169533333333333    0.9008800000000000    0.2356350000000000 H
   0.2836166666666666    0.9008750000000000    0.2356300000000000 H
   0.0869133333333333    0.9395249999999999    0.1374050000000000 H
   0.2535766666666667    0.9395300000000000    0.1374050000000000 H
   0.1254233333333333    0.5000000000000000    0.2052700000000000 H
   0.2920866666666667    0.5000000000000000    0.2052700000000000 H
   0.0405033333333333    0.8994000000000000    0.1694100000000000 H
   0.2071666666666667    0.8994000000000000    0.1694100000000000 H
   0.0058066666666667    0.8345400000000001    0.0990550000000000 H
   0.1724700000000000    0.8345350000000000    0.0990550000000000 H
   0.1423333333333333    0.6980800000000000    0.0606150000000000 H
   0.3089966666666666    0.6980800000000000    0.0606150000000000 H
   0.0140900000000000    0.7039700000000000    0.4984350000000000 H
   0.1807533333333333    0.7039750000000000    0.4984350000000000 H
   0.0958700000000000    0.7699250000000000    0.1004900000000000 H
   0.2625366666666666    0.7699250000000000    0.1004900000000000 H
   0.0612666666666667    0.7641400000000000    0.1652700000000000 H
   0.2279300000000000    0.7641350000000000    0.1652700000000000 H
   0.0314000000000000    0.6374050000000000    0.1979350000000000 H
   0.1980633333333333    0.6374100000000000    0.1979400000000000 H
   0.0699200000000000    0.7052950000000000    0.2036550000000000 H
   0.2365833333333333    0.7052900000000000    0.2036550000000000 H
   0.1515333333333333    0.6694050000000000    0.2701750000000000 H
   0.3181966666666667    0.6694050000000000    0.2701750000000000 H
   0.1168366666666667    0.5990000000000000    0.2645650000000000 H
   0.2835000000000000    0.5990050000000000    0.2645750000000000 H
   0.0869433333333333    0.5607100000000000    0.3626300000000000 H
   0.2536066666666666    0.5607100000000000    0.3626300000000000 H
   0.1254500000000000    0.9984100000000000    0.2945800000000000 H
   0.2921133333333333    0.9984100000000000    0.2945800000000000 H
   0.0404766666666667    0.6004750000000000    0.3304400000000000 H
   0.2071400000000000    0.6004750000000000    0.3304000000000000 H
   0.0057966666666667    0.6653750000000000    0.4009950000000000 H
   0.1724600000000000    0.6653750000000000    0.4009900000000000 H
   0.1422266666666667    0.8019650000000000    0.4394100000000000 H
   0.3088900000000000    0.8019650000000000    0.4394100000000000 H
   0.0139800000000000    0.7962600000000000    0.0000000000000000 H
   0.1806433333333333    0.7962600000000000    0.0000000000000000 H
   0.0960133333333333    0.7303350000000000    0.3998500000000000 H
   0.2626766666666667    0.7303350000000000    0.3998500000000000 H
   0.0613966666666667    0.7359050000000000    0.3349250000000000 H
   0.2280633333333333    0.7359050000000000    0.3349250000000000 H
   0.3646633333333333    0.8625900000000000    0.3019200000000000 H
   0.5313266666666666    0.8625900000000000    0.3019100000000000 H
   0.4031766666666666    0.7945400000000000    0.2962000000000000 H
   0.5698400000000000    0.7945400000000000    0.2962000000000000 H
   0.4849733333333333    0.8303250000000000    0.2300200000000000 H
   0.6516366666666666    0.8303250000000000    0.2300200000000000 H
   0.4502866666666666    0.9008800000000000    0.2356350000000000 H
   0.6169499999999999    0.9008750000000000    0.2356300000000000 H
   0.4202466666666667    0.9395249999999999    0.1374050000000000 H
   0.5869100000000000    0.9395300000000000    0.1374050000000000 H
   0.4587566666666666    0.5000000000000000    0.2052700000000000 H
   0.6254200000000000    0.5000000000000000    0.2052700000000000 H
   0.3738366666666667    0.8994000000000000    0.1694100000000000 H
   0.5405000000000000    0.8994000000000000    0.1694100000000000 H
   0.3391400000000000    0.8345400000000001    0.0990550000000000 H
   0.5058033333333334    0.8345350000000000    0.0990550000000000 H
   0.4756666666666666    0.6980800000000000    0.0606150000000000 H
   0.6423300000000000    0.6980800000000000    0.0606150000000000 H
   0.3474233333333333    0.7039700000000000    0.4984350000000000 H
   0.5140866666666666    0.7039750000000000    0.4984350000000000 H
   0.4292033333333333    0.7699250000000000    0.1004900000000000 H
   0.5958699999999999    0.7699250000000000    0.1004900000000000 H
   0.3946000000000000    0.7641400000000000    0.1652700000000000 H
   0.5612633333333333    0.7641350000000000    0.1652700000000000 H
   0.3647333333333333    0.6374050000000000    0.1979350000000000 H
   0.5313966666666666    0.6374100000000000    0.1979400000000000 H
   0.4032533333333333    0.7052950000000000    0.2036550000000000 H
   0.5699166666666666    0.7052900000000000    0.2036550000000000 H
   0.4848666666666667    0.6694050000000000    0.2701750000000000 H
   0.6515299999999999    0.6694050000000000    0.2701750000000000 H
   0.4501700000000000    0.5990000000000000    0.2645650000000000 H
   0.6168333333333333    0.5990050000000000    0.2645750000000000 H
   0.4202766666666666    0.5607100000000000    0.3626300000000000 H
   0.5869400000000000    0.5607100000000000    0.3626300000000000 H
   0.4587833333333333    0.9984100000000000    0.2945800000000000 H
   0.6254466666666667    0.9984100000000000    0.2945800000000000 H
   0.3738100000000000    0.6004750000000000    0.3304400000000000 H
   0.5404733333333334    0.6004750000000000    0.3304000000000000 H
   0.3391300000000000    0.6653750000000000    0.4009950000000000 H
   0.5057933333333333    0.6653750000000000    0.4009900000000000 H
   0.4755600000000000    0.8019650000000000    0.4394100000000000 H
   0.6422233333333334    0.8019650000000000    0.4394100000000000 H
   0.3473133333333333    0.7962600000000000    0.0000000000000000 H
   0.5139766666666666    0.7962600000000000    0.0000000000000000 H
   0.4293466666666667    0.7303350000000000    0.3998500000000000 H
   0.5960099999999999    0.7303350000000000    0.3998500000000000 H
   0.3947300000000000    0.7359050000000000    0.3349250000000000 H
   0.5613966666666667    0.7359050000000000    0.3349250000000000 H
   0.6979966666666666    0.8625900000000000    0.3019200000000000 H
   0.8646600000000000    0.8625900000000000    0.3019100000000000 H
   0.7365100000000000    0.7945400000000000    0.2962000000000000 H
   0.9031733333333333    0.7945400000000000    0.2962000000000000 H
   0.8183066666666666    0.8303250000000000    0.2300200000000000 H
   0.9849699999999999    0.8303250000000000    0.2300200000000000 H
   0.7836200000000000    0.9008800000000000    0.2356350000000000 H
   0.9502833333333333    0.9008750000000000    0.2356300000000000 H
   0.7535799999999999    0.9395249999999999    0.1374050000000000 H
   0.9202433333333333    0.9395300000000000    0.1374050000000000 H
   0.7920900000000000    0.5000000000000000    0.2052700000000000 H
   0.9587533333333333    0.5000000000000000    0.2052700000000000 H
   0.7071700000000000    0.8994000000000000    0.1694100000000000 H
   0.8738333333333332    0.8994000000000000    0.1694100000000000 H
   0.6724733333333333    0.8345400000000001    0.0990550000000000 H
   0.8391366666666666    0.8345350000000000    0.0990550000000000 H
   0.8089999999999999    0.6980800000000000    0.0606150000000000 H
   0.9756633333333333    0.6980800000000000    0.0606150000000000 H
   0.6807566666666667    0.7039700000000000    0.4984350000000000 H
   0.8474200000000000    0.7039750000000000    0.4984350000000000 H
   0.7625366666666666    0.7699250000000000    0.1004900000000000 H
   0.9292033333333333    0.7699250000000000    0.1004900000000000 H
   0.7279333333333333    0.7641400000000000    0.1652700000000000 H
   0.8945966666666666    0.7641350000000000    0.1652700000000000 H
   0.6980666666666666    0.6374050000000000    0.1979350000000000 H
   0.8647300000000000    0.6374100000000000    0.1979400000000000 H
   0.7365866666666666    0.7052950000000000    0.2036550000000000 H
   0.9032499999999999    0.7052900000000000    0.2036550000000000 H
   0.8181999999999999    0.6694050000000000    0.2701750000000000 H
   0.9848633333333333    0.6694050000000000    0.2701750000000000 H
   0.7835033333333333    0.5990000000000000    0.2645650000000000 H
   0.9501666666666666    0.5990050000000000    0.2645750000000000 H
   0.7536100000000000    0.5607100000000000    0.3626300000000000 H
   0.9202733333333333    0.5607100000000000    0.3626300000000000 H
   0.7921166666666666    0.9984100000000000    0.2945800000000000 H
   0.9587800000000000    0.9984100000000000    0.2945800000000000 H
   0.7071433333333332    0.6004750000000000    0.3304400000000000 H
   0.8738066666666666    0.6004750000000000    0.3304000000000000 H
   0.6724633333333333    0.6653750000000000    0.4009950000000000 H
   0.8391266666666666    0.6653750000000000    0.4009900000000000 H
   0.8088933333333332    0.8019650000000000    0.4394100000000000 H
   0.9755566666666666    0.8019650000000000    0.4394100000000000 H
   0.6806466666666666    0.7962600000000000    0.0000000000000000 H
   0.8473100000000000    0.7962600000000000    0.0000000000000000 H
   0.7626800000000000    0.7303350000000000    0.3998500000000000 H
   0.9293433333333333    0.7303350000000000    0.3998500000000000 H
   0.7280633333333333    0.7359050000000000    0.3349250000000000 H
   0.8947299999999999    0.7359050000000000    0.3349250000000000 H
   0.0313300000000000    0.3625900000000000    0.8019200000000000 H
   0.1979933333333333    0.3625900000000000    0.8019100000000000 H
   0.0698433333333333    0.2945400000000000    0.7962000000000000 H
   0.2365066666666667    0.2945400000000000    0.7962000000000000 H
   0.1516400000000000    0.3303250000000000    0.7300200000000000 H
   0.3183033333333333    0.3303250000000000    0.7300200000000000 H
   0.1169533333333333    0.4008800000000000    0.7356350000000000 H
   0.2836166666666666    0.4008750000000000    0.7356300000000000 H
   0.0869133333333333    0.4395250000000000    0.6374050000000000 H
   0.2535766666666667    0.4395300000000000    0.6374050000000000 H
   0.1254233333333333    0.0000000000000000    0.7052700000000001 H
   0.2920866666666667    0.0000000000000000    0.7052700000000001 H
   0.0405033333333333    0.3994000000000000    0.6694100000000001 H
   0.2071666666666667    0.3994000000000000    0.6694100000000001 H
   0.0058066666666667    0.3345400000000000    0.5990550000000000 H
   0.1724700000000000    0.3345350000000000    0.5990550000000000 H
   0.1423333333333333    0.1980800000000000    0.5606150000000000 H
   0.3089966666666666    0.1980800000000000    0.5606150000000000 H
   0.0140900000000000    0.2039700000000000    0.9984350000000000 H
   0.1807533333333333    0.2039750000000000    0.9984350000000000 H
   0.0958700000000000    0.2699250000000000    0.6004900000000000 H
   0.2625366666666666    0.2699250000000000    0.6004900000000000 H
   0.0612666666666667    0.2641400000000000    0.6652700000000000 H
   0.2279300000000000    0.2641350000000000    0.6652700000000000 H
   0.0314000000000000    0.1374050000000000    0.6979350000000000 H
   0.1980633333333333    0.1374100000000000    0.6979400000000000 H
   0.0699200000000000    0.2052950000000000    0.7036550000000000 H
   0.2365833333333333    0.2052900000000000    0.7036550000000000 H
   0.1515333333333333    0.1694050000000000    0.7701750000000001 H
   0.3181966666666667    0.1694050000000000    0.7701750000000001 H
   0.1168366666666667    0.0990000000000000    0.7645649999999999 H
   0.2835000000000000    0.0990050000000000    0.7645750000000000 H
   0.0869433333333333    0.0607100000000000    0.8626300000000000 H
   0.2536066666666666    0.0607100000000000    0.8626300000000000 H
   0.1254500000000000    0.4984100000000000    0.7945800000000001 H
   0.2921133333333333    0.4984100000000000    0.7945800000000001 H
   0.0404766666666667    0.1004750000000000    0.8304400000000001 H
   0.2071400000000000    0.1004750000000000    0.8304000000000000 H
   0.0057966666666667    0.1653750000000000    0.9009950000000000 H
   0.1724600000000000    0.1653750000000000    0.9009900000000000 H
   0.1422266666666667    0.3019650000000000    0.9394100000000001 H
   0.3088900000000000    0.3019650000000000    0.9394100000000001 H
   0.0139800000000000    0.2962600000000000    0.5000000000000000 H
   0.1806433333333333    0.2962600000000000    0.5000000000000000 H
   0.0960133333333333    0.2303350000000000    0.8998500000000000 H
   0.2626766666666667    0.2303350000000000    0.8998500000000000 H
   0.0613966666666667    0.2359050000000000    0.8349249999999999 H
   0.2280633333333333    0.2359050000000000    0.8349249999999999 H
   0.3646633333333333    0.3625900000000000    0.8019200000000000 H
   0.5313266666666666    0.3625900000000000    0.8019100000000000 H
   0.4031766666666666    0.2945400000000000    0.7962000000000000 H
   0.5698400000000000    0.2945400000000000    0.7962000000000000 H
   0.4849733333333333    0.3303250000000000    0.7300200000000000 H
   0.6516366666666666    0.3303250000000000    0.7300200000000000 H
   0.4502866666666666    0.4008800000000000    0.7356350000000000 H
   0.6169499999999999    0.4008750000000000    0.7356300000000000 H
   0.4202466666666667    0.4395250000000000    0.6374050000000000 H
   0.5869100000000000    0.4395300000000000    0.6374050000000000 H
   0.4587566666666666    0.0000000000000000    0.7052700000000001 H
   0.6254200000000000    0.0000000000000000    0.7052700000000001 H
   0.3738366666666667    0.3994000000000000    0.6694100000000001 H
   0.5405000000000000    0.3994000000000000    0.6694100000000001 H
   0.3391400000000000    0.3345400000000000    0.5990550000000000 H
   0.5058033333333334    0.3345350000000000    0.5990550000000000 H
   0.4756666666666666    0.1980800000000000    0.5606150000000000 H
   0.6423300000000000    0.1980800000000000    0.5606150000000000 H
   0.3474233333333333    0.2039700000000000    0.9984350000000000 H
   0.5140866666666666    0.2039750000000000    0.9984350000000000 H
   0.4292033333333333    0.2699250000000000    0.6004900000000000 H
   0.5958699999999999    0.2699250000000000    0.6004900000000000 H
   0.3946000000000000    0.2641400000000000    0.6652700000000000 H
   0.5612633333333333    0.2641350000000000    0.6652700000000000 H
   0.3647333333333333    0.1374050000000000    0.6979350000000000 H
   0.5313966666666666    0.1374100000000000    0.6979400000000000 H
   0.4032533333333333    0.2052950000000000    0.7036550000000000 H
   0.5699166666666666    0.2052900000000000    0.7036550000000000 H