H8 O4
1.0
  19.7909999879426337    0.0000000000000000   -0.0006908362243811
  -9.8819363110833063   17.1484867457674426    0.0010363066961891
   0.0000000000000000    0.0000000000000000   21.8919999999999995
H O
8 4
direct
   0.4516646955583606    0.5944179830268915    0.8853801801554163 H
   0.4749952895009186    0.5999817468920264    0.8536587560439844 H
   0.4587080539693691    0.6187522153151840    0.9230783287993791 H
   0.4576367314933200    0.6576351339763499    0.8402103725042477 H
   0.4584708444013386    0.8393371532487448    0.9103776180446475 H
   0.4767250850847169    0.8705762087639546    0.9807713416938908 H
   0.4512181515677628    0.8948433388538930    0.9997508712065578 H
   0.4574018839307591    0.7994862983311416    0.9933067930926632 H
   0.4559500000000000    0.5801900000000000    0.8937000000000000 O
   0.4546600000000000    0.6069800000000000    0.8361400000000000 O
   0.4556600000000000    0.8751700000000000    0.9397000000000000 O
   0.4543100000000000    0.8471100000000000    0.9973400000000000 O
