H4 C6 N4
1.0
  19.7909999879426337    0.0000000000000000   -0.0006908362243811
  -9.8819363110833063   17.1484867457674426    0.0010363066961891
   0.0000000000000000    0.0000000000000000   21.8919999999999995
H C N
4 6 4
direct
   0.4591000000000000    0.6228399999999999    0.9830900000000000 H
   0.4592700000000000    0.7090600000000000    0.8013800000000000 H
   0.4589700000000000    0.8356800000000000    0.8504000000000000 H
   0.4590600000000000    0.7497100000000000    0.0321500000000000 H
   0.4585800000000000    0.7813400000000000    0.9917700000000000 C
   0.4616900000000000    0.6968100000000000    0.9037100000000000 C
   0.4597700000000000    0.6336000000000001    0.9343900000000001 C
   0.4587700000000000    0.6769200000000000    0.8417600000000000 C
   0.4616100000000000    0.7643900000000000    0.9298000000000000 C
   0.4595500000000000    0.8255800000000000    0.8991200000000000 C
   0.4559500000000000    0.5801900000000000    0.8937000000000000 N
   0.4546600000000000    0.6069800000000000    0.8361400000000000 N
   0.4556600000000000    0.8751700000000000    0.9397000000000000 N
   0.4543100000000000    0.8471100000000000    0.9973400000000000 N
