H18 C16 N2 O2
1.0
  17.0381127473109402    0.0000000000000000    5.5652933444626589
   1.0680194982748841   17.1903378673226861    5.1571367403430637
   0.0000000000000000    0.0000000000000000   27.5500000000000007
H C N O
18 16 2 2
direct
   0.3918400000000000    0.6602400000000000    0.0000000000000000 H
   0.6311500000000000    0.4542400000000000    0.0040200000000000 H
   0.5357400000000000    0.5013700000000000    0.0000000000000000 H
   0.4384800000000000    0.6329000000000000    0.8108050000000000 H
   0.5429700000000000    0.6259000000000000    0.7268700000000000 H
   0.2671700000000000    0.4969200000000000    0.9892300000000001 H
   0.3699200000000000    0.4800100000000000    0.9071000000000000 H
   0.5023800000000000    0.6475400000000000    0.9253050000000000 H
   0.5414600000000001    0.4432200000000000    0.9404749999999999 H
   0.6330100000000000    0.3591400000000000    0.8914949999999999 H
   0.7501300000000000    0.4810200000000000    0.8692200000000000 H
   0.7792500000000000    0.3883400000000000    0.8558250000000001 H
   0.7053900000000000    0.4131900000000000    0.7919050000000001 H
   0.7569300000000000    0.4963400000000000    0.7758250000000000 H
   0.6160300000000000    0.5572600000000000    0.9967050000000000 H
   0.6720100000000000    0.2498600000000000    0.9494000000000000 H
   0.7682500000000000    0.2863400000000000    0.9262950000000000 H
   0.7173300000000000    0.2638800000000000    0.9953650000000001 H
   0.6334500000000000    0.5107400000000000    0.8108700000000000 C
   0.5782700000000000    0.5120000000000000    0.8598800000000000 C
   0.5067900000000000    0.5565600000000001    0.8600900000000000 C
   0.4931600000000000    0.5978700000000000    0.8119550000000000 C
   0.5507100000000000    0.5944900000000000    0.7653150000000000 C
   0.3195800000000000    0.5300300000000000    0.9732450000000000 C
   0.3774300000000000    0.5204700000000000    0.9278100000000000 C
   0.4448800000000000    0.5627300000000000    0.9095949999999999 C
   0.4505900000000000    0.6141799999999999    0.9378500000000001 C
   0.3898900000000000    0.6212800000000001    0.9824550000000001 C
   0.5957600000000000    0.4681700000000000    0.9116100000000000 C
   0.6586300000000000    0.4014000000000000    0.9034650000000000 C
   0.7308000000000000    0.4333700000000000    0.8591500000000001 C
   0.7100700000000000    0.4626600000000000    0.8068350000000000 C
   0.5995100000000000    0.5077000000000000    0.9874350000000001 C
   0.7100800000000000    0.2872800000000000    0.9556200000000000 C
   0.3254800000000000    0.5797200000000000    0.0000000000000000 N
   0.6190700000000000    0.5517100000000000    0.7646100000000000 N
   0.6194600000000000    0.5247600000000000    0.9307000000000001 O
   0.6749000000000001    0.3645000000000000    0.9526550000000000 O
