H8 C10 N3
1.0
  15.8595433212468464    0.0000000000000000   -2.2546056509940935
  -1.2082216222760682   18.4688806705200150   -8.5242463766339256
   0.0000000000000000    0.0000000000000000   24.3219999999999992
H C N
8 10 3
direct
   0.7613700000000000    0.0779000000000000    0.1756400000000000 H
   0.8035099999999999    0.9848300000000000    0.0810550000000000 H
   0.9002200000000000    0.1600300000000000    0.0457500000000000 H
   0.8519099999999999    0.2447600000000000    0.1407000000000000 H
   0.9877000000000000    0.9020300000000000    0.8242450000000000 H
   0.9453700000000000    0.9035000000000000    0.9187950000000000 H
   0.8512800000000000    0.1150100000000000    0.9549650000000001 H
   0.8994700000000000    0.1047300000000000    0.8599500000000000 H
   0.8518400000000000    0.0637000000000000    0.0525150000000000 C
   0.7906600000000000    0.0936300000000000    0.1447400000000000 C
   0.8143600000000000    0.0420100000000000    0.0917650000000000 C
   0.8667000000000000    0.1385300000000000    0.0711150000000000 C
   0.8407200000000000    0.1865300000000000    0.1251000000000000 C
   0.8983200000000000    0.0113700000000000    0.9477599999999999 C
   0.9589100000000000    0.9488400000000000    0.8553100000000000 C
   0.9351000000000000    0.9501800000000000    0.9082700000000000 C
   0.8841800000000000    0.0678900000000000    0.9294000000000000 C
   0.9101600000000000    0.0618800000000000    0.8753500000000001 C
   0.8018500000000000    0.1654900000000000    0.1612750000000000 N
   0.8750100000000000    0.0097800000000000    0.0001200000000000 N
   0.9483300000000000    0.0043900000000000    0.8389599999999999 N
