H1 O1
1.0
  15.8595433212468464    0.0000000000000000   -2.2546056509940935
  -1.2082216222760682   18.4688806705200150   -8.5242463766339256
   0.0000000000000000    0.0000000000000000   24.3219999999999992
H O
1 1
direct
   0.6829280652473646    0.6227664576948188    0.7857593265296733 H
   0.6995800000000000    0.6520600000000000    0.7653900000000000 O
