H2 O1
1.0
  15.8595433212468464    0.0000000000000000   -2.2546056509940935
  -1.2082216222760682   18.4688806705200150   -8.5242463766339256
   0.0000000000000000    0.0000000000000000   24.3219999999999992
H O
2 1
direct
   0.8165370315810307    0.3823045593133081    0.2449870432014053 H
   0.8170694123006512    0.3772021811130817    0.2142566199781289 H
   0.8004100000000000    0.3479100000000000    0.2346250000000000 O
