C1 S1 N1
1.0
  15.8595433212468464    0.0000000000000000   -2.2546056509940935
  -1.2082216222760682   18.4688806705200150   -8.5242463766339256
   0.0000000000000000    0.0000000000000000   24.3219999999999992
C S N
1 1 1
direct
   0.6794000000000000    0.6165600000000000    0.7900750000000001 C
   0.6523300000000000    0.5671600000000000    0.8241100000000000 S
   0.6995800000000000    0.6520600000000000    0.7653900000000000 N
