H4 O2
1.0
  15.8595433212468464    0.0000000000000000   -2.2546056509940935
  -1.2082216222760682   18.4688806705200150   -8.5242463766339256
   0.0000000000000000    0.0000000000000000   24.3219999999999992
H O
4 2
direct
   0.5793820677368878    0.9538234856296486    0.6345785006720397 H
   0.5439977587831883    1.0358003874852446    0.6492140128643789 H
   0.7062553461840131    0.8865309541361198    0.3507169346874581 H
   0.6699208961190134    0.8191998264559825    0.3650118763286517 H
   0.5516600000000000    0.9955700000000000    0.6610549999999999 O
   0.6981500000000000    0.8344800000000000    0.3387400000000000 O
