H2 O2
1.0
  15.8595433212468464    0.0000000000000000   -2.2546056509940935
  -1.2082216222760682   18.4688806705200150   -8.5242463766339256
   0.0000000000000000    0.0000000000000000   24.3219999999999992
H O
2 2
direct
   0.8300791038809866    0.1807701735440174    0.1350031236713483 H
   0.9205987850307658    0.0461575543248959    0.8653980118608969 H
   0.8018500000000000    0.1654900000000000    0.1612750000000000 O
   0.9483300000000000    0.0043900000000000    0.8389599999999999 O
