Cd36 H793 C1007 S71 N215 O73
1.0
  31.2123074030390697    0.0000000000000000   10.2427714305354076
  -6.0393603942086465   34.3134394455630627   18.6956037464570883
   0.0000000000000000    0.0000000000000000   27.6419999999999995
Cd H C S N O
36 793 1007 71 215 73
direct
   0.5833566666666666    0.9718666666666667    0.5004000000000000 Cd
   0.2500233333333333    0.9718666666666667    0.5004000000000000 Cd
   0.9166900000000000    0.6385333333333333    0.5004000000000000 Cd
   0.2500233333333333    0.6385333333333333    0.5004000000000000 Cd
   0.9166900000000000    0.9718666666666667    0.5004000000000000 Cd
   0.5833566666666666    0.3052000000000000    0.5004000000000000 Cd
   0.5833566666666666    0.6385333333333333    0.5004000000000000 Cd
   0.9166900000000000    0.3052000000000000    0.5004000000000000 Cd
   0.2500233333333333    0.3052000000000000    0.5004000000000000 Cd
   0.7500633333333333    0.6948000000000000    0.9993449999999999 Cd
   0.0833966666666667    0.6948000000000000    0.9993449999999999 Cd
   0.7500633333333333    0.3614666666666667    0.9993449999999999 Cd
   0.0833966666666667    0.3614666666666667    0.9993449999999999 Cd
   0.4167300000000000    0.6948000000000000    0.9993449999999999 Cd
   0.7500633333333333    0.0281333333333333    0.9993449999999999 Cd
   0.4167300000000000    0.3614666666666667    0.9993449999999999 Cd
   0.0833966666666667    0.0281333333333333    0.9993449999999999 Cd
   0.4167300000000000    0.0281333333333333    0.9993449999999999 Cd
   0.9166900000000000    0.9718666666666667    0.0004000000000000 Cd
   0.2500233333333333    0.9718666666666667    0.0004000000000000 Cd
   0.5833566666666666    0.6385333333333333    0.0004000000000000 Cd
   0.2500233333333333    0.6385333333333333    0.0004000000000000 Cd
   0.5833566666666666    0.9718666666666667    0.0004000000000000 Cd
   0.9166900000000000    0.6385333333333333    0.0004000000000000 Cd
   0.2500233333333333    0.3052000000000000    0.0004000000000000 Cd
   0.9166900000000000    0.3052000000000000    0.0004000000000000 Cd
   0.5833566666666666    0.3052000000000000    0.0004000000000000 Cd
   0.7500633333333333    0.0281333333333333    0.4993450000000000 Cd
   0.7500633333333333    0.6948000000000000    0.4993450000000000 Cd
   0.0833966666666667    0.3614666666666667    0.4993450000000000 Cd
   0.0833966666666667    0.0281333333333333    0.4993450000000000 Cd
   0.0833966666666667    0.6948000000000000    0.4993450000000000 Cd
   0.4167300000000000    0.3614666666666667    0.4993450000000000 Cd
   0.4167300000000000    0.0281333333333333    0.4993450000000000 Cd
   0.4167300000000000    0.6948000000000000    0.4993450000000000 Cd
   0.7500633333333333    0.3614666666666667    0.4993450000000000 Cd
   0.0982400000000000    0.0863600000000000    0.1702600000000000 H
   0.0354600000000000    0.0962133333333333    0.1345600000000000 H
   0.0326633333333333    0.0717600000000000    0.0663250000000000 H
   0.1495433333333333    0.0322900000000000    0.0653550000000000 H
   0.5687400000000000    0.9137633333333333    0.3292600000000000 H
   0.6313833333333333    0.9037533333333333    0.3652250000000000 H
   0.6340966666666666    0.9281466666666667    0.4335500000000000 H
   0.5174000000000000    0.9679000000000000    0.4340600000000000 H
   0.1656300000000000    0.0188266666666667    0.1673400000000000 H
   0.1981766666666667    0.0622900000000000    0.1036350000000000 H
   0.1528133333333333    0.0841566666666667    0.2579950000000000 H
   0.2583700000000000    0.0345033333333333    0.3126400000000000 H
   0.1948566666666667    0.0681900000000000    0.3245550000000000 H
   0.2358166666666667    0.0305400000000000    0.1694950000000000 H
   0.2964633333333333    0.0039666666666667    0.1966100000000000 H
   0.3704000000000000    0.9961333333333333    0.3031700000000000 H
   0.5011933333333334    0.9814099999999999    0.3325200000000000 H
   0.4687933333333333    0.9375866666666666    0.3956250000000000 H
   0.5141966666666666    0.9163100000000000    0.2409950000000000 H
   0.4080966666666667    0.9654300000000000    0.1873100000000000 H
   0.4717366666666666    0.9319466666666666    0.1749800000000000 H
   0.4313433333333333    0.9698599999999999    0.3297550000000000 H
   0.2652033333333333    0.8000400000000000    0.1689150000000000 H
   0.2026366666666666    0.8143400000000000    0.1328200000000000 H
   0.1996800000000000    0.8840933333333333    0.0656350000000000 H
   0.3160766666666667    0.9233566666666666    0.0662250000000000 H
   0.7344866666666666    0.8664966666666666    0.3308800000000000 H
   0.7972600000000000    0.8523266666666667    0.3665550000000000 H
   0.8003533333333333    0.7826233333333333    0.4337900000000000 H
   0.6837033333333333    0.7431633333333333    0.4340250000000000 H
   0.6669033333333333    0.7965466666666666    0.3343500000000000 H
   0.6350666666666667    0.8002300000000000    0.3963800000000000 H
   0.6807033333333333    0.9223999999999999    0.2408750000000000 H
   0.5748200000000000    0.9090933333333333    0.1872550000000000 H
   0.6385233333333333    0.9505899999999999    0.1744950000000000 H
   0.5980866666666667    0.8107000000000000    0.3300000000000000 H
   0.5369766666666667    0.8020933333333333    0.3037300000000000 H
   0.4634400000000000    0.8646099999999999    0.1962450000000000 H
   0.3332766666666667    0.8700466666666666    0.1659550000000000 H
   0.3652500000000000    0.8670033333333333    0.1033950000000000 H
   0.3188133333333333    0.7440833333333333    0.2597550000000000 H
   0.4254033333333333    0.7576100000000000    0.3127400000000000 H
   0.3617533333333333    0.7161900000000000    0.3252450000000000 H
   0.4024733333333333    0.8560733333333332    0.1697300000000000 H
   0.0982400000000000    0.7530266666666666    0.1702600000000000 H
   0.0354600000000000    0.7628800000000000    0.1345600000000000 H
   0.0326633333333333    0.7384266666666666    0.0663250000000000 H
   0.1495433333333333    0.6989566666666667    0.0653550000000000 H
   0.5687400000000000    0.5804300000000000    0.3292600000000000 H
   0.6313833333333333    0.5704199999999999    0.3652250000000000 H
   0.6340966666666666    0.5948133333333333    0.4335500000000000 H
   0.5174000000000000    0.6345666666666666    0.4340600000000000 H
   0.1656300000000000    0.6854933333333333    0.1673400000000000 H
   0.1981766666666667    0.7289566666666666    0.1036350000000000 H
   0.1528133333333333    0.7508233333333333    0.2579950000000000 H
   0.2583700000000000    0.7011700000000000    0.3126400000000000 H
   0.1948566666666667    0.7348566666666666    0.3245550000000000 H
   0.2358166666666667    0.6972066666666666    0.1694950000000000 H
   0.2964633333333333    0.6706333333333333    0.1966100000000000 H
   0.3704000000000000    0.6627999999999999    0.3031700000000000 H
   0.5011933333333334    0.6480766666666666    0.3325200000000000 H
   0.4687933333333333    0.6042533333333333    0.3956250000000000 H
   0.5141966666666666    0.5829766666666667    0.2409950000000000 H
   0.4080966666666667    0.6320966666666666    0.1873100000000000 H
   0.4717366666666666    0.5986133333333332    0.1749800000000000 H
   0.4313433333333333    0.6365266666666667    0.3297550000000000 H
   0.2652033333333333    0.4667066666666666    0.1689150000000000 H
   0.2026366666666666    0.4810066666666666    0.1328200000000000 H
   0.1996800000000000    0.5507599999999999    0.0656350000000000 H
   0.3160766666666667    0.5900233333333333    0.0662250000000000 H
   0.7344866666666666    0.5331633333333333    0.3308800000000000 H
   0.7972600000000000    0.5189933333333333    0.3665550000000000 H
   0.8003533333333333    0.4492900000000000    0.4337900000000000 H
   0.6837033333333333    0.4098300000000000    0.4340250000000000 H
   0.6669033333333333    0.4632133333333333    0.3343500000000000 H
   0.6350666666666667    0.4668966666666666    0.3963800000000000 H
   0.6807033333333333    0.5890666666666666    0.2408750000000000 H
   0.5748200000000000    0.5757600000000000    0.1872550000000000 H
   0.6385233333333333    0.6172566666666666    0.1744950000000000 H
   0.5980866666666667    0.4773666666666666    0.3300000000000000 H
   0.5369766666666667    0.4687600000000000    0.3037300000000000 H
   0.4634400000000000    0.5312766666666666    0.1962450000000000 H
   0.3332766666666667    0.5367133333333334    0.1659550000000000 H
   0.3652500000000000    0.5336700000000000    0.1033950000000000 H
   0.3188133333333333    0.4107499999999999    0.2597550000000000 H
   0.4254033333333333    0.4242766666666666    0.3127400000000000 H
   0.3617533333333333    0.3828566666666666    0.3252450000000000 H
   0.4024733333333333    0.5227400000000000    0.1697300000000000 H
   0.0982400000000000    0.4196933333333333    0.1702600000000000 H
   0.0354600000000000    0.4295466666666666    0.1345600000000000 H
   0.0326633333333333    0.4050933333333333    0.0663250000000000 H
   0.1495433333333333    0.3656233333333333    0.0653550000000000 H
   0.5687400000000000    0.2470966666666667    0.3292600000000000 H
   0.6313833333333333    0.2370866666666667    0.3652250000000000 H
   0.6340966666666666    0.2614800000000000    0.4335500000000000 H
   0.5174000000000000    0.3012333333333333    0.4340600000000000 H
   0.1656300000000000    0.3521600000000000    0.1673400000000000 H
   0.1981766666666667    0.3956233333333333    0.1036350000000000 H
   0.1528133333333333    0.4174900000000000    0.2579950000000000 H
   0.2583700000000000    0.3678366666666666    0.3126400000000000 H
   0.1948566666666667    0.4015233333333333    0.3245550000000000 H
   0.2358166666666667    0.3638733333333333    0.1694950000000000 H
   0.2964633333333333    0.3373000000000000    0.1966100000000000 H
   0.3704000000000000    0.3294666666666666    0.3031700000000000 H
   0.5011933333333334    0.3147433333333333    0.3325200000000000 H
   0.4687933333333333    0.2709200000000000    0.3956250000000000 H
   0.5141966666666666    0.2496433333333333    0.2409950000000000 H
   0.4080966666666667    0.2987633333333333    0.1873100000000000 H
   0.4717366666666666    0.2652800000000000    0.1749800000000000 H
   0.4313433333333333    0.3031933333333333    0.3297550000000000 H
   0.2652033333333333    0.1333733333333333    0.1689150000000000 H
   0.2026366666666666    0.1476733333333333    0.1328200000000000 H
   0.1996800000000000    0.2174266666666667    0.0656350000000000 H
   0.3160766666666667    0.2566900000000000    0.0662250000000000 H
   0.7344866666666666    0.1998300000000000    0.3308800000000000 H
   0.7972600000000000    0.1856600000000000    0.3665550000000000 H
   0.8003533333333333    0.1159566666666667    0.4337900000000000 H
   0.6837033333333333    0.0764966666666667    0.4340250000000000 H
   0.6669033333333333    0.1298800000000000    0.3343500000000000 H
   0.6350666666666667    0.1335633333333333    0.3963800000000000 H
   0.6807033333333333    0.2557333333333333    0.2408750000000000 H
   0.5748200000000000    0.2424266666666667    0.1872550000000000 H
   0.6385233333333333    0.2839233333333333    0.1744950000000000 H
   0.5980866666666667    0.1440333333333333    0.3300000000000000 H
   0.5369766666666667    0.1354266666666666    0.3037300000000000 H
   0.4634400000000000    0.1979433333333333    0.1962450000000000 H
   0.3332766666666667    0.2033800000000000    0.1659550000000000 H
   0.3652500000000000    0.2003366666666667    0.1033950000000000 H
   0.3188133333333333    0.0774166666666667    0.2597550000000000 H
   0.4254033333333333    0.0909433333333333    0.3127400000000000 H
   0.3617533333333333    0.0495233333333333    0.3252450000000000 H
   0.4024733333333333    0.1894066666666666    0.1697300000000000 H
   0.7649066666666666    0.7530266666666666    0.1702600000000000 H
   0.7021266666666667    0.7628800000000000    0.1345600000000000 H
   0.6993300000000000    0.7384266666666666    0.0663250000000000 H
   0.8162099999999999    0.6989566666666667    0.0653550000000000 H
   0.2354066666666667    0.5804300000000000    0.3292600000000000 H
   0.2980500000000000    0.5704199999999999    0.3652250000000000 H
   0.3007633333333333    0.5948133333333333    0.4335500000000000 H
   0.1840666666666667    0.6345666666666666    0.4340600000000000 H
   0.8322966666666667    0.6854933333333333    0.1673400000000000 H
   0.8648433333333333    0.7289566666666666    0.1036350000000000 H
   0.8194800000000000    0.7508233333333333    0.2579950000000000 H
   0.9250366666666666    0.7011700000000000    0.3126400000000000 H
   0.8615233333333333    0.7348566666666666    0.3245550000000000 H
   0.9024833333333333    0.6972066666666666    0.1694950000000000 H
   0.9631299999999999    0.6706333333333333    0.1966100000000000 H
   0.0370666666666667    0.6627999999999999    0.3031700000000000 H
   0.1678600000000000    0.6480766666666666    0.3325200000000000 H
   0.1354600000000000    0.6042533333333333    0.3956250000000000 H
   0.1808633333333333    0.5829766666666667    0.2409950000000000 H
   0.0747633333333333    0.6320966666666666    0.1873100000000000 H
   0.1384033333333333    0.5986133333333332    0.1749800000000000 H
   0.0980100000000000    0.6365266666666667    0.3297550000000000 H
   0.9318700000000000    0.4667066666666666    0.1689150000000000 H
   0.8693033333333333    0.4810066666666666    0.1328200000000000 H
   0.8663466666666666    0.5507599999999999    0.0656350000000000 H
   0.9827433333333333    0.5900233333333333    0.0662250000000000 H
   0.4011533333333333    0.5331633333333333    0.3308800000000000 H
   0.4639266666666667    0.5189933333333333    0.3665550000000000 H
   0.4670200000000000    0.4492900000000000    0.4337900000000000 H
   0.3503700000000000    0.4098300000000000    0.4340250000000000 H
   0.3335700000000000    0.4632133333333333    0.3343500000000000 H
   0.3017333333333333    0.4668966666666666    0.3963800000000000 H
   0.3473700000000000    0.5890666666666666    0.2408750000000000 H
   0.2414866666666667    0.5757600000000000    0.1872550000000000 H
   0.3051900000000000    0.6172566666666666    0.1744950000000000 H
   0.2647533333333333    0.4773666666666666    0.3300000000000000 H
   0.2036433333333333    0.4687600000000000    0.3037300000000000 H
   0.1301066666666666    0.5312766666666666    0.1962450000000000 H
   0.9999433333333333    0.5367133333333334    0.1659550000000000 H
   0.0319166666666667    0.5336700000000000    0.1033950000000000 H
   0.9854799999999999    0.4107499999999999    0.2597550000000000 H
   0.0920700000000000    0.4242766666666666    0.3127400000000000 H
   0.0284200000000000    0.3828566666666666    0.3252450000000000 H
   0.0691400000000000    0.5227400000000000    0.1697300000000000 H
   0.7649066666666666    0.4196933333333333    0.1702600000000000 H
   0.7021266666666667    0.4295466666666666    0.1345600000000000 H
   0.6993300000000000    0.4050933333333333    0.0663250000000000 H
   0.8162099999999999    0.3656233333333333    0.0653550000000000 H
   0.2354066666666667    0.2470966666666667    0.3292600000000000 H
   0.2980500000000000    0.2370866666666667    0.3652250000000000 H
   0.3007633333333333    0.2614800000000000    0.4335500000000000 H
   0.1840666666666667    0.3012333333333333    0.4340600000000000 H
   0.8322966666666667    0.3521600000000000    0.1673400000000000 H
   0.8648433333333333    0.3956233333333333    0.1036350000000000 H
   0.8194800000000000    0.4174900000000000    0.2579950000000000 H
   0.9250366666666666    0.3678366666666666    0.3126400000000000 H
   0.8615233333333333    0.4015233333333333    0.3245550000000000 H
   0.9024833333333333    0.3638733333333333    0.1694950000000000 H
   0.9631299999999999    0.3373000000000000    0.1966100000000000 H
   0.0370666666666667    0.3294666666666666    0.3031700000000000 H
   0.1678600000000000    0.3147433333333333    0.3325200000000000 H
   0.1354600000000000    0.2709200000000000    0.3956250000000000 H
   0.1808633333333333    0.2496433333333333    0.2409950000000000 H
   0.0747633333333333    0.2987633333333333    0.1873100000000000 H
   0.1384033333333333    0.2652800000000000    0.1749800000000000 H
   0.0980100000000000    0.3031933333333333    0.3297550000000000 H
   0.9318700000000000    0.1333733333333333    0.1689150000000000 H
   0.8693033333333333    0.1476733333333333    0.1328200000000000 H
   0.8663466666666666    0.2174266666666667    0.0656350000000000 H
   0.9827433333333333    0.2566900000000000    0.0662250000000000 H
   0.4011533333333333    0.1998300000000000    0.3308800000000000 H
   0.4639266666666667    0.1856600000000000    0.3665550000000000 H
   0.4670200000000000    0.1159566666666667    0.4337900000000000 H
   0.3503700000000000    0.0764966666666667    0.4340250000000000 H
   0.3335700000000000    0.1298800000000000    0.3343500000000000 H
   0.3017333333333333    0.1335633333333333    0.3963800000000000 H
   0.3473700000000000    0.2557333333333333    0.2408750000000000 H
   0.2414866666666667    0.2424266666666667    0.1872550000000000 H
   0.3051900000000000    0.2839233333333333    0.1744950000000000 H
   0.2647533333333333    0.1440333333333333    0.3300000000000000 H
   0.2036433333333333    0.1354266666666666    0.3037300000000000 H
   0.1301066666666666    0.1979433333333333    0.1962450000000000 H
   0.9999433333333333    0.2033800000000000    0.1659550000000000 H
   0.0319166666666667    0.2003366666666667    0.1033950000000000 H
   0.9854799999999999    0.0774166666666667    0.2597550000000000 H
   0.0920700000000000    0.0909433333333333    0.3127400000000000 H
   0.0284200000000000    0.0495233333333333    0.3252450000000000 H
   0.0691400000000000    0.1894066666666666    0.1697300000000000 H
   0.7649066666666666    0.0863600000000000    0.1702600000000000 H
   0.7021266666666667    0.0962133333333333    0.1345600000000000 H
   0.6993300000000000    0.0717600000000000    0.0663250000000000 H
   0.8162099999999999    0.0322900000000000    0.0653550000000000 H
   0.2354066666666667    0.9137633333333333    0.3292600000000000 H
   0.2980500000000000    0.9037533333333333    0.3652250000000000 H
   0.3007633333333333    0.9281466666666667    0.4335500000000000 H
   0.1840666666666667    0.9679000000000000    0.4340600000000000 H
   0.8322966666666667    0.0188266666666667    0.1673400000000000 H
   0.8648433333333333    0.0622900000000000    0.1036350000000000 H
   0.8194800000000000    0.0841566666666667    0.2579950000000000 H
   0.9250366666666666    0.0345033333333333    0.3126400000000000 H
   0.8615233333333333    0.0681900000000000    0.3245550000000000 H
   0.9024833333333333    0.0305400000000000    0.1694950000000000 H
   0.9631299999999999    0.0039666666666667    0.1966100000000000 H
   0.0370666666666667    0.9961333333333333    0.3031700000000000 H
   0.1678600000000000    0.9814099999999999    0.3325200000000000 H
   0.1354600000000000    0.9375866666666666    0.3956250000000000 H
   0.1808633333333333    0.9163100000000000    0.2409950000000000 H
   0.0747633333333333    0.9654300000000000    0.1873100000000000 H
   0.1384033333333333    0.9319466666666666    0.1749800000000000 H
   0.0980100000000000    0.9698599999999999    0.3297550000000000 H
   0.9318700000000000    0.8000400000000000    0.1689150000000000 H
   0.8693033333333333    0.8143400000000000    0.1328200000000000 H
   0.8663466666666666    0.8840933333333333    0.0656350000000000 H
   0.9827433333333333    0.9233566666666666    0.0662250000000000 H
   0.4011533333333333    0.8664966666666666    0.3308800000000000 H
   0.4639266666666667    0.8523266666666667    0.3665550000000000 H
   0.4670200000000000    0.7826233333333333    0.4337900000000000 H
   0.3503700000000000    0.7431633333333333    0.4340250000000000 H
   0.3335700000000000    0.7965466666666666    0.3343500000000000 H
   0.3017333333333333    0.8002300000000000    0.3963800000000000 H
   0.3473700000000000    0.9223999999999999    0.2408750000000000 H
   0.2414866666666667    0.9090933333333333    0.1872550000000000 H
   0.3051900000000000    0.9505899999999999    0.1744950000000000 H
   0.2647533333333333    0.8107000000000000    0.3300000000000000 H
   0.2036433333333333    0.8020933333333333    0.3037300000000000 H
   0.1301066666666666    0.8646099999999999    0.1962450000000000 H
   0.9999433333333333    0.8700466666666666    0.1659550000000000 H
   0.0319166666666667    0.8670033333333333    0.1033950000000000 H
   0.9854799999999999    0.7440833333333333    0.2597550000000000 H
   0.0920700000000000    0.7576100000000000    0.3127400000000000 H
   0.0284200000000000    0.7161900000000000    0.3252450000000000 H
   0.0691400000000000    0.8560733333333332    0.1697300000000000 H
   0.4315733333333333    0.7530266666666666    0.1702600000000000 H
   0.3687933333333333    0.7628800000000000    0.1345600000000000 H
   0.3659966666666666    0.7384266666666666    0.0663250000000000 H
   0.4828766666666666    0.6989566666666667    0.0653550000000000 H
   0.9020733333333333    0.5804300000000000    0.3292600000000000 H
   0.9647166666666667    0.5704199999999999    0.3652250000000000 H
   0.9674300000000000    0.5948133333333333    0.4335500000000000 H
   0.8507333333333333    0.6345666666666666    0.4340600000000000 H
   0.4989633333333333    0.6854933333333333    0.1673400000000000 H
   0.5315099999999999    0.7289566666666666    0.1036350000000000 H
   0.4861466666666666    0.7508233333333333    0.2579950000000000 H
   0.5917033333333332    0.7011700000000000    0.3126400000000000 H
   0.5281899999999999    0.7348566666666666    0.3245550000000000 H
   0.5691500000000000    0.6972066666666666    0.1694950000000000 H
   0.6297966666666666    0.6706333333333333    0.1966100000000000 H
   0.7037333333333333    0.6627999999999999    0.3031700000000000 H
   0.8345266666666666    0.6480766666666666    0.3325200000000000 H
   0.8021266666666667    0.6042533333333333    0.3956250000000000 H
   0.8475299999999999    0.5829766666666667    0.2409950000000000 H
   0.7414299999999999    0.6320966666666666    0.1873100000000000 H
   0.8050700000000000    0.5986133333333332    0.1749800000000000 H
   0.7646766666666667    0.6365266666666667    0.3297550000000000 H
   0.5985366666666667    0.4667066666666666    0.1689150000000000 H
   0.5359699999999999    0.4810066666666666    0.1328200000000000 H
   0.5330133333333333    0.5507599999999999    0.0656350000000000 H
   0.6494100000000000    0.5900233333333333    0.0662250000000000 H
   0.0678200000000000    0.5331633333333333    0.3308800000000000 H
   0.1305933333333333    0.5189933333333333    0.3665550000000000 H
   0.1336866666666667    0.4492900000000000    0.4337900000000000 H
   0.0170366666666667    0.4098300000000000    0.4340250000000000 H
   0.0002366666666667    0.4632133333333333    0.3343500000000000 H
   0.9683999999999999    0.4668966666666666    0.3963800000000000 H
   0.0140366666666667    0.5890666666666666    0.2408750000000000 H
   0.9081533333333333    0.5757600000000000    0.1872550000000000 H
   0.9718566666666666    0.6172566666666666    0.1744950000000000 H
   0.9314199999999999    0.4773666666666666    0.3300000000000000 H
   0.8703099999999999    0.4687600000000000    0.3037300000000000 H
   0.7967733333333333    0.5312766666666666    0.1962450000000000 H
   0.6666099999999999    0.5367133333333334    0.1659550000000000 H
   0.6985833333333333    0.5336700000000000    0.1033950000000000 H
   0.6521466666666667    0.4107499999999999    0.2597550000000000 H
   0.7587366666666666    0.4242766666666666    0.3127400000000000 H
   0.6950866666666666    0.3828566666666666    0.3252450000000000 H
   0.7358066666666666    0.5227400000000000    0.1697300000000000 H
   0.4315733333333333    0.0863600000000000    0.1702600000000000 H
   0.3687933333333333    0.0962133333333333    0.1345600000000000 H
   0.3659966666666666    0.0717600000000000    0.0663250000000000 H
   0.4828766666666666    0.0322900000000000    0.0653550000000000 H
   0.9020733333333333    0.9137633333333333    0.3292600000000000 H
   0.9647166666666667    0.9037533333333333    0.3652250000000000 H
   0.9674300000000000    0.9281466666666667    0.4335500000000000 H
   0.8507333333333333    0.9679000000000000    0.4340600000000000 H
   0.4989633333333333    0.0188266666666667    0.1673400000000000 H
   0.5315099999999999    0.0622900000000000    0.1036350000000000 H
   0.4861466666666666    0.0841566666666667    0.2579950000000000 H
   0.5917033333333332    0.0345033333333333    0.3126400000000000 H
   0.5281899999999999    0.0681900000000000    0.3245550000000000 H
   0.5691500000000000    0.0305400000000000    0.1694950000000000 H
   0.6297966666666666    0.0039666666666667    0.1966100000000000 H
   0.7037333333333333    0.9961333333333333    0.3031700000000000 H
   0.8345266666666666    0.9814099999999999    0.3325200000000000 H
   0.8021266666666667    0.9375866666666666    0.3956250000000000 H
   0.8475299999999999    0.9163100000000000    0.2409950000000000 H
   0.7414299999999999    0.9654300000000000    0.1873100000000000 H
   0.8050700000000000    0.9319466666666666    0.1749800000000000 H
   0.7646766666666667    0.9698599999999999    0.3297550000000000 H
   0.5985366666666667    0.8000400000000000    0.1689150000000000 H
   0.5359699999999999    0.8143400000000000    0.1328200000000000 H
   0.5330133333333333    0.8840933333333333    0.0656350000000000 H
   0.6494100000000000    0.9233566666666666    0.0662250000000000 H
   0.0678200000000000    0.8664966666666666    0.3308800000000000 H
   0.1305933333333333    0.8523266666666667    0.3665550000000000 H
   0.1336866666666667    0.7826233333333333    0.4337900000000000 H
   0.0170366666666667    0.7431633333333333    0.4340250000000000 H
   0.0002366666666667    0.7965466666666666    0.3343500000000000 H
   0.9683999999999999    0.8002300000000000    0.3963800000000000 H
   0.0140366666666667    0.9223999999999999    0.2408750000000000 H
   0.9081533333333333    0.9090933333333333    0.1872550000000000 H
   0.9718566666666666    0.9505899999999999    0.1744950000000000 H
   0.9314199999999999    0.8107000000000000    0.3300000000000000 H
   0.8703099999999999    0.8020933333333333    0.3037300000000000 H
   0.7967733333333333    0.8646099999999999    0.1962450000000000 H
   0.6666099999999999    0.8700466666666666    0.1659550000000000 H
   0.6985833333333333    0.8670033333333333    0.1033950000000000 H
   0.6521466666666667    0.7440833333333333    0.2597550000000000 H
   0.7587366666666666    0.7576100000000000    0.3127400000000000 H
   0.6950866666666666    0.7161900000000000    0.3252450000000000 H
   0.7358066666666666    0.8560733333333332    0.1697300000000000 H
   0.4315733333333333    0.4196933333333333    0.1702600000000000 H
   0.3687933333333333    0.4295466666666666    0.1345600000000000 H
   0.3659966666666666    0.4050933333333333    0.0663250000000000 H
   0.4828766666666666    0.3656233333333333    0.0653550000000000 H
   0.9020733333333333    0.2470966666666667    0.3292600000000000 H
   0.9647166666666667    0.2370866666666667    0.3652250000000000 H
   0.9674300000000000    0.2614800000000000    0.4335500000000000 H
   0.8507333333333333    0.3012333333333333    0.4340600000000000 H
   0.4989633333333333    0.3521600000000000    0.1673400000000000 H
   0.5315099999999999    0.3956233333333333    0.1036350000000000 H
   0.4861466666666666    0.4174900000000000    0.2579950000000000 H
   0.5917033333333332    0.3678366666666666    0.3126400000000000 H
   0.5281899999999999    0.4015233333333333    0.3245550000000000 H
   0.5691500000000000    0.3638733333333333    0.1694950000000000 H
   0.6297966666666666    0.3373000000000000    0.1966100000000000 H
   0.7037333333333333    0.3294666666666666    0.3031700000000000 H
   0.8345266666666666    0.3147433333333333    0.3325200000000000 H
   0.8021266666666667    0.2709200000000000    0.3956250000000000 H
   0.8475299999999999    0.2496433333333333    0.2409950000000000 H
   0.7414299999999999    0.2987633333333333    0.1873100000000000 H
   0.8050700000000000    0.2652800000000000    0.1749800000000000 H
   0.7646766666666667    0.3031933333333333    0.3297550000000000 H
   0.5985366666666667    0.1333733333333333    0.1689150000000000 H
   0.5359699999999999    0.1476733333333333    0.1328200000000000 H
   0.5330133333333333    0.2174266666666667    0.0656350000000000 H
   0.6494100000000000    0.2566900000000000    0.0662250000000000 H
   0.0678200000000000    0.1998300000000000    0.3308800000000000 H
   0.1305933333333333    0.1856600000000000    0.3665550000000000 H
   0.1336866666666667    0.1159566666666667    0.4337900000000000 H
   0.0170366666666667    0.0764966666666667    0.4340250000000000 H
   0.0002366666666667    0.1298800000000000    0.3343500000000000 H
   0.9683999999999999    0.1335633333333333    0.3963800000000000 H
   0.0140366666666667    0.2557333333333333    0.2408750000000000 H
   0.9081533333333333    0.2424266666666667    0.1872550000000000 H
   0.9718566666666666    0.2839233333333333    0.1744950000000000 H
   0.9314199999999999    0.1440333333333333    0.3300000000000000 H
   0.8703099999999999    0.1354266666666666    0.3037300000000000 H
   0.7967733333333333    0.1979433333333333    0.1962450000000000 H
   0.6666099999999999    0.2033800000000000    0.1659550000000000 H
   0.6985833333333333    0.2003366666666667    0.1033950000000000 H
   0.6521466666666667    0.0774166666666667    0.2597550000000000 H
   0.7587366666666666    0.0909433333333333    0.3127400000000000 H
   0.6950866666666666    0.0495233333333333    0.3252450000000000 H
   0.7358066666666666    0.1894066666666666    0.1697300000000000 H
   0.5239133606772673    0.0462580109743060    0.9415469415795676 H
   0.0982400000000000    0.0863600000000000    0.6702600000000000 H
   0.0354600000000000    0.0962133333333333    0.6345600000000000 H
   0.0326633333333333    0.0717600000000000    0.5663250000000000 H