C1 S1 N1
1.0
  31.2123074030390697    0.0000000000000000   10.2427714305354076
  -6.0393603942086465   34.3134394455630627   18.6956037464570883
   0.0000000000000000    0.0000000000000000   27.6419999999999995
C S N
1 1 1
direct
   0.5305233333333333    0.0461433333333333    0.9392400000000001 C
   0.5832100000000000    0.0466300000000000    0.9189050000000001 S
   0.4926733333333333    0.0468000000000000    0.9524500000000000 N
