H1 O1
1.0
  31.2123074030390697    0.0000000000000000   10.2427714305354076
  -6.0393603942086465   34.3134394455630627   18.6956037464570883
   0.0000000000000000    0.0000000000000000   27.6419999999999995
H O
1 1
direct
   0.5239133606772673    0.0462580109743060    0.9415469415795676 H
   0.4926733333333333    0.0468000000000000    0.9524500000000000 O
