H6 O4
1.0
  35.6233900249247313    0.0000000000000000   -7.8590383083487483
  -6.9351129347924720   22.7150860691522141   -5.2522423261575808
   0.0000000000000000    0.0000000000000000   25.4220000000000006
H O
6 4
direct
   0.5256773617898847    0.5882260683217905    0.4030066242088103 H
   0.5683991073280305    0.6536367925022184    0.5700224768015181 H
   0.5456480578537614    0.6211114327715477    0.4931605758934146 H
   0.4743344066614081    0.4117944803226824    0.5969612591066671 H
   0.4316068462190231    0.3463840669017553    0.4299472648234779 H
   0.4543609291381456    0.3789095509805377    0.5068075971648064 H
   0.5464366666666667    0.6109800000000000    0.4369050000000000 O
   0.5689433333333334    0.6466450000000000    0.5312000000000000 O
   0.4535733333333333    0.3890400000000000    0.5630650000000000 O
   0.4310633333333333    0.3533750000000000    0.4687700000000000 O
