H3 O2
1.0
  11.8039941587792967    0.0000000000000000   -0.0117430619625863
   3.0785329689827856   22.6679041090103510    0.0115785835765239
   0.0000000000000000    0.0000000000000000   27.3270000000000017
H O
3 2
direct
   0.6074999511300018    0.3552182493251460    0.7258733884370544 H
   0.4070659188676544    0.3266534857038490    0.8436327080617541 H
   0.3935476744434134    0.4009183636042074    0.8365744119993780 H
   0.6172100000000000    0.3914500000000000    0.7082400000000000 O
   0.3723800000000000    0.3661950000000000    0.8533800000000000 O
