H1 O1
1.0
   7.4574988368976127    0.0000000000000000    0.0041650535104258
   0.2218807241559607    7.4859602054897838    0.1836872234843406
   0.0000000000000000    0.0000000000000000   26.1000000000000014
H O
1 1
direct
   0.6931330053330023    0.9983850450762727    0.6953774497154885 H
   0.7877400000000000    0.9963100000000000    0.6693850000000000 O
