H14 C20 N4
1.0
  30.4248869260653869    0.0000000000000000    3.5127460107635806
   0.5813353144476979   10.1334729539094273    1.1713587813143091
   0.0000000000000000    0.0000000000000000   33.1259999999999977
H C N
14 20 4
direct
   0.1256933333333333    0.0536500000000000    0.8051800000000000 H
   0.1390166666666666    0.2025400000000000    0.8572299999999999 H
   0.0745666666666667    0.2885700000000000    0.9023650000000000 H
   0.0899933333333333    0.0520700000000000    0.7429749999999999 H
   0.0198866666666667    0.7531800000000000    0.7125550000000000 H
   0.9871699999999999    0.0906200000000000    0.8486950000000000 H
   0.9950800000000000    0.8693000000000000    0.8349700000000000 H
   0.9840933333333333    0.6456800000000000    0.8481650000000001 H
   0.9453466666666666    0.7198800000000000    0.7257500000000000 H
   0.8844333333333333    0.4352800000000000    0.8177700000000000 H
   0.8716566666666666    0.7435800000000000    0.7120299999999999 H
   0.8836766666666667    0.3284300000000000    0.7556100000000000 H
   0.8339099999999999    0.2888000000000000    0.7036100000000001 H
   0.8053366666666666    0.4821300000000000    0.6584400000000000 H
   0.0215533333333333    0.1106500000000000    0.8498500000000000 C
   0.0551633333333333    0.0589400000000000    0.8228650000000000 C
   0.0983433333333333    0.0931900000000000    0.8251600000000000 C
   0.1057866666666667    0.1759400000000000    0.8540250000000000 C
   0.0703366666666667    0.2224900000000000    0.8796700000000000 C
   0.0649833333333333    0.9811200000000000    0.7532799999999999 C
   0.0442500000000000    0.9716200000000000    0.7933300000000000 C
   0.0121300000000000    0.8790000000000000    0.8041250000000000 C
   0.0020833333333333    0.7989600000000000    0.7752350000000000 C
   0.0250066666666667    0.8153899999999999    0.7360850000000000 C
   0.9633433333333332    0.6302800000000000    0.8246400000000000 C
   0.9688133333333333    0.6990000000000000    0.7854850000000000 C
   0.9421266666666666    0.6687800000000000    0.7565999999999999 C
   0.9112533333333332    0.5724300000000000    0.7674000000000001 C
   0.9080900000000000    0.5102800000000000    0.8074500000000000 C
   0.8648833333333332    0.6406300000000000    0.7108900000000000 C
   0.8820800000000000    0.5398100000000000    0.7378850000000000 C
   0.8705366666666666    0.4104700000000000    0.7356199999999999 C
   0.8428800000000000    0.3883300000000000    0.7067800000000000 C
   0.8274233333333333    0.4946600000000000    0.6811150000000000 C
   0.0284633333333333    0.1906300000000000    0.8778850000000000 N
   0.0556566666666667    0.9051000000000000    0.7249850000000000 N
   0.9334533333333332    0.5382800000000000    0.8357350000000000 N
   0.8381766666666666    0.6200800000000000    0.6828600000000000 N
