H4 O4
1.0
  30.4248869260653869    0.0000000000000000    3.5127460107635806
   0.5813353144476979   10.1334729539094273    1.1713587813143091
   0.0000000000000000    0.0000000000000000   33.1259999999999977
H O
4 4
direct
   0.8575585319841986    0.6349937792913860    0.7032022498071800 H
   0.9551328072413413    0.6050083907506438    0.8276877011371914 H
   0.0234487030464962    0.1325880129752198    0.8575398248782231 H
   0.0624168145768839    0.9602007624161598    0.7454937618069618 H
   0.8381766666666666    0.6200800000000000    0.6828600000000000 O
   0.9334533333333332    0.5382800000000000    0.8357350000000000 O
   0.0284633333333333    0.1906300000000000    0.8778850000000000 O
   0.0556566666666667    0.9051000000000000    0.7249850000000000 O
