Zn8 H96 C146 N8 O35
1.0
  15.5390485472112623    0.0000000000000000    4.7300126054178238
  10.1860670326079550   29.4038353556524150    9.3412314383545016
   0.0000000000000000    0.0000000000000000   23.1750000000000007
Zn H C N O
8 96 146 8 35
direct
   0.4094000000000000    0.0024350000000000    0.0122300000000000 Zn
   0.0051000000000000    0.2047350000000000    0.5117000000000000 Zn
   0.5906500000000000    0.4975350000000000    0.9877100000000000 Zn
   0.9950000000000000    0.2952400000000000    0.4882000000000000 Zn
   0.4094000000000000    0.5024350000000000    0.0122300000000000 Zn
   0.0051000000000000    0.7047350000000000    0.5117000000000000 Zn
   0.5906500000000000    0.9975350000000001    0.9877100000000000 Zn
   0.9950000000000000    0.7952399999999999    0.4882000000000000 Zn
   0.2216900000000000    0.2763950000000000    0.5644800000000000 H
   0.3562200000000000    0.2538850000000000    0.6136700000000000 H
   0.3744600000000000    0.1136450000000000    0.6488600000000000 H
   0.2403400000000000    0.1365400000000000    0.5998800000000000 H
   0.5995200000000001    0.1260350000000000    0.6921600000000000 H
   0.6203100000000000    0.0748000000000000    0.7950700000000001 H
   0.3313500000000000    0.1044900000000000    0.8522000000000000 H
   0.3094700000000000    0.1559700000000000    0.7508600000000000 H
   0.0987600000000000    0.3555950000000000    0.4039700000000000 H
   0.1163700000000000    0.4299550000000000    0.3997200000000000 H
   0.9060300000000000    0.4422000000000000    0.5652900000000000 H
   0.8988600000000000    0.3676750000000000    0.5621000000000000 H
   0.0746400000000000    0.4954600000000000    0.4410400000000000 H
   0.4472300000000000    0.3880700000000000    0.9378000000000000 H
   0.4921000000000000    0.3206800000000000    0.8885700000000000 H
   0.7730500000000000    0.3114000000000000    0.8523500000000001 H
   0.7274100000000000    0.3786500000000000    0.9012700000000000 H
   0.7480400000000000    0.1995800000000000    0.8073000000000000 H
   0.8496300000000000    0.1899750000000000    0.7035500000000000 H
   0.7883100000000000    0.3344300000000000    0.6487400000000000 H
   0.6862200000000001    0.3445950000000000    0.7510200000000000 H
   0.2875900000000000    0.4510150000000000    0.0964600000000000 H
   0.1389300000000000    0.4422350000000000    0.1004600000000000 H
   0.1162400000000000    0.0467150000000000    0.9348900000000000 H
   0.2652100000000000    0.0502750000000000    0.9382800000000000 H
   0.0000000000000000    0.4627900000000000    0.0588000000000000 H
   0.7782200000000000    0.2235800000000000    0.4355600000000000 H
   0.6437000000000000    0.2461150000000000    0.3863500000000000 H
   0.6256600000000000    0.3863300000000000    0.3510700000000000 H
   0.7598700000000000    0.3634100000000000    0.3999700000000000 H
   0.4005200000000000    0.3739350000000000    0.3077700000000000 H
   0.3797500000000000    0.4251500000000000    0.2048000000000000 H
   0.6687100000000000    0.3955000000000000    0.1477000000000000 H
   0.6905700000000000    0.3440400000000000    0.2491200000000000 H
   0.9012900000000000    0.1444100000000000    0.5959800000000000 H
   0.8836500000000000    0.0700500000000000    0.6002600000000000 H
   0.0940000000000000    0.0577600000000000    0.4346900000000000 H
   0.1011800000000000    0.1322900000000000    0.4378200000000000 H
   0.9253800000000000    0.0000000000000000    0.5589000000000000 H
   0.5528100000000000    0.1119150000000000    0.0620600000000000 H
   0.5079800000000000    0.1792950000000000    0.1113100000000000 H
   0.2270300000000000    0.1885550000000000    0.1476200000000000 H
   0.2726300000000000    0.1213100000000000    0.0987100000000000 H
   0.2521500000000000    0.3003850000000000    0.1926200000000000 H
   0.1506300000000000    0.3100000000000000    0.2963900000000000 H
   0.2116600000000000    0.1655600000000000    0.3511500000000000 H
   0.3138100000000000    0.1553800000000000    0.2488900000000000 H
   0.7124500000000000    0.0489550000000000    0.9034900000000000 H
   0.8611100000000000    0.0577450000000000    0.8995000000000000 H
   0.8837800000000000    0.4532750000000000    0.0650800000000000 H
   0.7348200000000000    0.4497050000000000    0.0616900000000000 H
   0.9913800000000000    0.0371950000000000    0.9411700000000000 H
   0.2216900000000000    0.7763949999999999    0.5644800000000000 H
   0.3562200000000000    0.7538850000000000    0.6136700000000000 H
   0.3744600000000000    0.6136450000000000    0.6488600000000000 H
   0.2403400000000000    0.6365400000000000    0.5998800000000000 H
   0.5995200000000001    0.6260350000000000    0.6921600000000000 H
   0.6203100000000000    0.5748000000000000    0.7950700000000001 H
   0.3313500000000000    0.6044900000000000    0.8522000000000000 H
   0.3094700000000000    0.6559699999999999    0.7508600000000000 H
   0.0987600000000000    0.8555950000000000    0.4039700000000000 H
   0.1163700000000000    0.9299550000000000    0.3997200000000000 H
   0.9060300000000000    0.9421999999999999    0.5652900000000000 H
   0.8988600000000000    0.8676750000000000    0.5621000000000000 H
   0.0746400000000000    0.9954600000000000    0.4410400000000000 H
   0.4472300000000000    0.8880700000000000    0.9378000000000000 H
   0.4921000000000000    0.8206800000000001    0.8885700000000000 H
   0.7730500000000000    0.8114000000000000    0.8523500000000001 H
   0.7274100000000000    0.8786499999999999    0.9012700000000000 H
   0.7480400000000000    0.6995800000000000    0.8073000000000000 H
   0.8496300000000000    0.6899750000000000    0.7035500000000000 H
   0.7883100000000000    0.8344300000000000    0.6487400000000000 H
   0.6862200000000001    0.8445950000000000    0.7510200000000000 H
   0.2875900000000000    0.9510149999999999    0.0964600000000000 H
   0.1389300000000000    0.9422349999999999    0.1004600000000000 H
   0.1162400000000000    0.5467150000000000    0.9348900000000000 H
   0.2652100000000000    0.5502750000000000    0.9382800000000000 H
   0.0000000000000000    0.9627900000000000    0.0588000000000000 H
   0.9012900000000000    0.6444100000000000    0.5959800000000000 H
   0.8836500000000000    0.5700499999999999    0.6002600000000000 H
   0.0940000000000000    0.5577600000000000    0.4346900000000000 H
   0.1011800000000000    0.6322900000000000    0.4378200000000000 H
   0.9253800000000000    0.5000000000000000    0.5589000000000000 H
   0.5528100000000000    0.6119150000000000    0.0620600000000000 H
   0.5079800000000000    0.6792950000000000    0.1113100000000000 H
   0.2270300000000000    0.6885550000000000    0.1476200000000000 H
   0.2726300000000000    0.6213100000000000    0.0987100000000000 H
   0.2521500000000000    0.8003850000000000    0.1926200000000000 H
   0.1506300000000000    0.8100000000000001    0.2963900000000000 H
   0.2116600000000000    0.6655600000000000    0.3511500000000000 H
   0.3138100000000000    0.6553800000000000    0.2488900000000000 H
   0.7124500000000000    0.5489550000000000    0.9034900000000000 H
   0.8611100000000000    0.5577450000000000    0.8995000000000000 H
   0.8837800000000000    0.9532750000000000    0.0650800000000000 H
   0.7348200000000000    0.9497050000000000    0.0616900000000000 H
   0.9913800000000000    0.5371950000000000    0.9411700000000000 H
   0.1416500000000000    0.2213700000000000    0.5513900000000000 C
   0.2225700000000000    0.2078550000000000    0.5797500000000000 C
   0.2556500000000000    0.2409050000000000    0.5832000000000001 C
   0.3299200000000000    0.2286000000000000    0.6104000000000001 C
   0.3714900000000000    0.1828300000000000    0.6343200000000000 C
   0.3404600000000000    0.1492350000000000    0.6304900000000000 C
   0.2659900000000000    0.1619800000000000    0.6034000000000000 C
   0.4538400000000000    0.1432000000000000    0.7154000000000000 C
   0.5414800000000000    0.1207950000000000    0.7277500000000000 C
   0.5525900000000000    0.0925950000000000    0.7847800000000000 C
   0.4771800000000000    0.0859400000000000    0.8299200000000000 C
   0.3899700000000000    0.1090500000000000    0.8168500000000000 C
   0.3775500000000000    0.1378000000000000    0.7603100000000000 C
   0.4891500000000000    0.0547600000000000    0.8907600000000000 C
   0.0575500000000000    0.3764750000000000    0.4382000000000000 C
   0.0666700000000000    0.4176200000000000    0.4364600000000000 C
   0.0124400000000000    0.4430600000000000    0.4821400000000000 C
   0.9502200000000000    0.4247250000000000    0.5280000000000000 C
   0.9450300000000000    0.3834350000000000    0.5269300000000000 C
   0.0233500000000000    0.4860350000000000    0.4797300000000000 C
   0.5574500000000000    0.4284050000000000    0.9498000000000000 C
   0.5845300000000000    0.3876500000000000    0.9218400000000000 C
   0.5182900000000000    0.3710150000000000    0.9188800000000000 C
   0.5427999999999999    0.3338250000000000    0.8916300000000000 C
   0.6344200000000000    0.3130100000000000    0.8673000000000000 C
   0.7018000000000000    0.3284750000000000    0.8709500000000000 C
   0.6764000000000000    0.3657900000000000    0.8980500000000000 C
   0.7128600000000000    0.2723650000000000    0.7853000000000000 C
   0.7578700000000000    0.2287750000000000    0.7720000000000000 C
   0.8137900000000000    0.2236500000000000    0.7145600000000000 C
   0.8263400000000000    0.2615750000000000    0.6698700000000000 C
   0.7797900000000000    0.3049600000000000    0.6838200000000000 C
   0.7227700000000000    0.3107300000000000    0.7408400000000001 C
   0.8886200000000000    0.2560050000000000    0.6086800000000000 C
   0.2462600000000000    0.4714700000000000    0.0621500000000000 C
   0.1639800000000000    0.4669300000000000    0.0637600000000000 C
   0.1136300000000000    0.4938400000000000    0.0180000000000000 C
   0.1507700000000000    0.0247750000000000    0.9720400000000000 C
   0.2333000000000000    0.0273600000000000    0.9734300000000000 C
   0.0277200000000000    0.4883750000000000    0.0202500000000000 C
   0.8584200000000000    0.2785450000000000    0.4485700000000000 C
   0.7775100000000000    0.2921000000000000    0.4201800000000000 C
   0.7443000000000000    0.2590750000000000    0.4168200000000000 C
   0.6700600000000000    0.2713900000000000    0.3895900000000000 C
   0.6285400000000000    0.3171600000000000    0.3656400000000000 C
   0.6596400000000000    0.3507400000000000    0.3694400000000000 C
   0.7341299999999999    0.3379800000000000    0.3965200000000000 C
   0.5461900000000000    0.3567950000000000    0.2845400000000000 C
   0.4585700000000000    0.3791800000000000    0.2721900000000000 C
   0.4474600000000000    0.4073750000000000    0.2151500000000000 C
   0.5228900000000000    0.4140300000000000    0.1700200000000000 C
   0.6100800000000000    0.3909400000000000    0.1831100000000000 C
   0.6225000000000001    0.3622000000000000    0.2396500000000000 C
   0.5109399999999999    0.4452000000000000    0.1091600000000000 C
   0.9424900000000000    0.1235200000000000    0.5617500000000000 C
   0.9333600000000000    0.0823700000000000    0.5635100000000000 C
   0.9875900000000000    0.0569250000000000    0.5178500000000000 C
   0.0498100000000000    0.0752500000000000    0.4717800000000000 C
   0.0550100000000000    0.1165350000000000    0.4730000000000000 C
   0.9766700000000000    0.0139450000000000    0.5202599999999999 C
   0.4425700000000000    0.0715650000000000    0.0501200000000000 C
   0.4155100000000000    0.1123300000000000    0.0780500000000000 C
   0.4817600000000000    0.1289550000000000    0.0810200000000000 C
   0.4572700000000000    0.1661500000000000    0.1082600000000000 C
   0.3656600000000000    0.1869550000000000    0.1325900000000000 C
   0.2982600000000000    0.1714850000000000    0.1290000000000000 C
   0.3236500000000000    0.1341650000000000    0.1019200000000000 C
   0.2872500000000000    0.2276000000000000    0.2146100000000000 C
   0.2422800000000000    0.2711950000000000    0.2278700000000000 C
   0.1864400000000000    0.2763250000000000    0.2853800000000000 C
   0.1737800000000000    0.2384050000000000    0.3300400000000000 C
   0.2202700000000000    0.1950250000000000    0.3160900000000000 C
   0.2772700000000000    0.1892450000000000    0.2590700000000000 C
   0.1115000000000000    0.2440100000000000    0.3912200000000000 C
   0.7537800000000000    0.0285050000000000    0.9378100000000000 C
   0.8360600000000000    0.0330500000000000    0.9362000000000000 C
   0.8864000000000000    0.0061450000000000    0.9819600000000001 C
   0.8492600000000000    0.4752100000000000    0.0279300000000000 C
   0.7667300000000000    0.4726200000000000    0.0265000000000000 C
   0.9723000000000001    0.0116150000000000    0.9797200000000000 C
   0.1416500000000000    0.7213700000000001    0.5513900000000000 C
   0.2225700000000000    0.7078550000000000    0.5797500000000000 C
   0.2556500000000000    0.7409050000000000    0.5832000000000001 C
   0.3299200000000000    0.7286000000000000    0.6104000000000001 C
   0.3714900000000000    0.6828300000000000    0.6343200000000000 C
   0.3404600000000000    0.6492350000000000    0.6304900000000000 C
   0.2659900000000000    0.6619800000000000    0.6034000000000000 C
   0.4538400000000000    0.6432000000000000    0.7154000000000000 C
   0.5414800000000000    0.6207950000000000    0.7277500000000000 C
   0.5525900000000000    0.5925950000000000    0.7847800000000000 C
   0.4771800000000000    0.5859400000000000    0.8299200000000000 C
   0.3899700000000000    0.6090500000000000    0.8168500000000000 C
   0.3775500000000000    0.6378000000000000    0.7603100000000000 C
   0.4891500000000000    0.5547600000000000    0.8907600000000000 C
   0.0575500000000000    0.8764750000000000    0.4382000000000000 C
   0.0666700000000000    0.9176200000000000    0.4364600000000000 C
   0.0124400000000000    0.9430600000000000    0.4821400000000000 C
   0.9502200000000000    0.9247250000000000    0.5280000000000000 C
   0.9450300000000000    0.8834350000000000    0.5269300000000000 C
   0.0233500000000000    0.9860350000000000    0.4797300000000000 C
   0.5574500000000000    0.9284049999999999    0.9498000000000000 C
   0.5845300000000000    0.8876500000000001    0.9218400000000000 C
   0.5182900000000000    0.8710150000000000    0.9188800000000000 C
   0.5427999999999999    0.8338250000000000    0.8916300000000000 C
   0.6344200000000000    0.8130100000000000    0.8673000000000000 C
   0.7018000000000000    0.8284750000000001    0.8709500000000000 C
   0.6764000000000000    0.8657900000000001    0.8980500000000000 C
   0.7128600000000000    0.7723650000000000    0.7853000000000000 C
   0.7578700000000000    0.7287750000000000    0.7720000000000000 C
   0.8137900000000000    0.7236500000000000    0.7145600000000000 C
   0.8263400000000000    0.7615750000000000    0.6698700000000000 C
   0.7797900000000000    0.8049600000000000    0.6838200000000000 C
   0.7227700000000000    0.8107300000000000    0.7408400000000001 C
   0.8886200000000000    0.7560050000000000    0.6086800000000000 C
   0.2462600000000000    0.9714700000000001    0.0621500000000000 C
   0.1639800000000000    0.9669300000000001    0.0637600000000000 C
   0.1136300000000000    0.9938400000000001    0.0180000000000000 C
   0.1507700000000000    0.5247750000000000    0.9720400000000000 C
   0.2333000000000000    0.5273600000000001    0.9734300000000000 C
   0.0277200000000000    0.9883750000000000    0.0202500000000000 C
   0.9424900000000000    0.6235200000000000    0.5617500000000000 C
   0.9333600000000000    0.5823700000000001    0.5635100000000000 C
   0.9875900000000000    0.5569250000000000    0.5178500000000000 C
   0.0498100000000000    0.5752500000000000    0.4717800000000000 C
   0.0550100000000000    0.6165350000000001    0.4730000000000000 C
   0.9766700000000000    0.5139450000000000    0.5202599999999999 C
   0.4425700000000000    0.5715650000000000    0.0501200000000000 C
   0.4155100000000000    0.6123300000000000    0.0780500000000000 C
   0.4817600000000000    0.6289549999999999    0.0810200000000000 C
   0.4572700000000000    0.6661500000000000    0.1082600000000000 C
   0.3656600000000000    0.6869550000000000    0.1325900000000000 C
   0.2982600000000000    0.6714850000000000    0.1290000000000000 C
   0.3236500000000000    0.6341650000000000    0.1019200000000000 C
   0.2872500000000000    0.7276000000000000    0.2146100000000000 C
   0.2422800000000000    0.7711950000000001    0.2278700000000000 C
   0.1864400000000000    0.7763249999999999    0.2853800000000000 C
   0.1737800000000000    0.7384050000000000    0.3300400000000000 C
   0.2202700000000000    0.6950250000000000    0.3160900000000000 C
   0.2772700000000000    0.6892450000000000    0.2590700000000000 C
   0.1115000000000000    0.7440100000000001    0.3912200000000000 C
   0.7537800000000000    0.5285050000000000    0.9378100000000000 C
   0.8360600000000000    0.5330500000000000    0.9362000000000000 C
   0.8864000000000000    0.5061450000000000    0.9819600000000001 C
   0.8492600000000000    0.9752100000000000    0.0279300000000000 C
   0.7667300000000000    0.9726200000000000    0.0265000000000000 C
   0.9723000000000001    0.5116150000000000    0.9797200000000000 C
   0.9975400000000000    0.3595550000000000    0.4826000000000000 N
   0.2805900000000000    0.0012850000000000    0.0177600000000000 N
   0.0025000000000000    0.1404300000000000    0.5173100000000000 N
   0.7194500000000000    0.4986900000000000    0.9821900000000000 N
   0.9975400000000000    0.8595550000000001    0.4826000000000000 N
   0.2805900000000000    0.5012850000000000    0.0177600000000000 N
   0.0025000000000000    0.6404300000000001    0.5173100000000000 N
   0.7194500000000000    0.9986900000000001    0.9821900000000000 N
   0.1057900000000000    0.2636250000000000    0.5308000000000000 O
   0.1147400000000000    0.1896300000000000    0.5501000000000000 O
   0.4477900000000000    0.1719550000000000    0.6586700000000000 O
   0.5680600000000000    0.0399800000000000    0.9035500000000000 O
   0.4192900000000000    0.0451150000000000    0.9253800000000000 O
   0.4728800000000000    0.4462300000000000    0.9709500000000000 O
   0.6209000000000000    0.4422800000000000    0.9499900000000000 O
   0.6561600000000000    0.2749600000000000    0.8426000000000000 O
   0.9187900000000000    0.2166550000000000    0.5953300000000000 O
   0.9074500000000000    0.2910650000000000    0.5744500000000000 O
   0.8936800000000000    0.2363300000000000    0.4697000000000000 O
   0.8859500000000000    0.3102150000000000    0.4492700000000000 O
   0.5522300000000000    0.3280500000000000    0.3412900000000000 O
   0.4320800000000000    0.4599150000000000    0.0963100000000000 O
   0.5807600000000001    0.4549100000000000    0.0746000000000000 O
   0.5271100000000000    0.0538150000000000    0.0288100000000000 O
   0.3791300000000000    0.0576500000000000    0.0500400000000000 O
   0.3439500000000000    0.2250000000000000    0.1573200000000000 O
   0.0821700000000000    0.2832400000000000    0.4048200000000000 O
   0.0919200000000000    0.2090750000000000    0.4252300000000000 O
   0.1057900000000000    0.7636250000000000    0.5308000000000000 O
   0.1147400000000000    0.6896300000000000    0.5501000000000000 O
   0.4477900000000000    0.6719550000000000    0.6586700000000000 O
   0.5680600000000000    0.5399800000000000    0.9035500000000000 O
   0.4192900000000000    0.5451150000000000    0.9253800000000000 O
   0.4728800000000000    0.9462300000000000    0.9709500000000000 O
   0.6209000000000000    0.9422800000000000    0.9499900000000000 O
   0.6561600000000000    0.7749600000000000    0.8426000000000000 O
   0.9187900000000000    0.7166550000000000    0.5953300000000000 O
   0.9074500000000000    0.7910650000000000    0.5744500000000000 O
   0.5271100000000000    0.5538149999999999    0.0288100000000000 O
   0.3791300000000000    0.5576500000000000    0.0500400000000000 O
   0.3439500000000000    0.7250000000000000    0.1573200000000000 O
   0.0821700000000000    0.7832399999999999    0.4048200000000000 O
   0.0919200000000000    0.7090750000000000    0.4252300000000000 O
