H4 C9 O6
1.0
  33.7197898318140545    0.0000000000000000    5.0779694463722400
   8.5505780352587699   33.2625268672227392   14.4419531074102299
   0.0000000000000000    0.0000000000000000   30.5504999999999995
H C O
4 9 6
direct
   0.7555160000000001    0.1306600000000000    0.6338233333333333 H
   0.7450980000000000    0.0267525000000000    0.6109000000000000 H
   0.7511780000000001    0.0218225000000000    0.7532700000000000 H
   0.7500040000000001    0.9317525000000000    0.6844966666666666 H
   0.7499680000000001    0.0810925000000000    0.6168199999999999 C
   0.7531220000000001    0.0996550000000000    0.6477166666666667 C
   0.7474820000000001    0.0411050000000000    0.6350266666666666 C
   0.7492400000000001    0.1030000000000000    0.5642333333333334 C
   0.7525180000000001    0.0785425000000000    0.6969200000000000 C
   0.7507980000000001    0.0382525000000000    0.7150200000000000 C
   0.7488620000000001    0.0192850000000000    0.6841033333333333 C
   0.7539240000000000    0.0985750000000000    0.7305966666666666 C
   0.7485500000000000    0.9761250000000000    0.7032733333333333 C
   0.7226180000000001    0.1000650000000000    0.5412866666666667 O
   0.7754320000000001    0.1234400000000000    0.5427200000000000 O
   0.7549740000000000    0.1358250000000000    0.7136800000000000 O
   0.7537880000000001    0.0788050000000000    0.7749066666666666 O
   0.7487900000000001    0.9616100000000000    0.6698366666666666 O
   0.7483200000000001    0.9557550000000000    0.7466299999999999 O
