H4 O4
1.0
  28.3060746269197843    0.0000000000000000   -3.1245196775261497
   3.7175981448231399   38.3424038049115126   -5.2625026835827349
   0.0000000000000000    0.0000000000000000   25.9200000000000017
H O
4 4
direct
   0.1684169912725482    0.2792446214649900    0.1709205995490927 H
   0.1258978383881064    0.0973697778954786    0.1667150337447739 H
   0.1926349604272638    0.1926441235788114    1.0132000631055011 H
   0.1687998712848857    0.1742378119057804    0.0816032170130899 H
   0.1757650000000000    0.3002833333333333    0.1577800000000000 O
   0.1250150000000000    0.0730233333333333    0.1512550000000000 O
   0.2019200000000000    0.2061566666666667    0.9874000000000001 O
   0.1794950000000000    0.1672433333333333    0.0467700000000000 O
