Cu16 H126 C140 I16 N28
1.0
  12.2247200923726140    0.0000000000000000    5.0192074736098862
   6.1161374456426536   16.1048957569381734    2.5027303898267936
   0.0000000000000000    0.0000000000000000   34.8179999999999978
Cu H C I N
16 126 140 16 28
direct
   0.8873000000000000    0.2500800000000000    0.3626400000000000 Cu
   0.6373600000000000    0.2252700000000000    0.3750700000000000 Cu
   0.1127400000000000    0.2747700000000000    0.3749450000000000 Cu
   0.6374300000000001    0.7501700000000000    0.1126000000000000 Cu
   0.1126600000000000    0.7499000000000000    0.1373800000000000 Cu
   0.3625900000000000    0.7747500000000000    0.1249400000000000 Cu
   0.8872200000000000    0.7252000000000000    0.1250800000000000 Cu
   0.3625600000000000    0.2498400000000000    0.3873950000000000 Cu
   0.8873000000000000    0.2500800000000000    0.8626400000000001 Cu
   0.6373600000000000    0.2252700000000000    0.8750700000000000 Cu
   0.1127400000000000    0.2747700000000000    0.8749450000000000 Cu
   0.6374300000000001    0.7501700000000000    0.6126000000000000 Cu
   0.1126600000000000    0.7499000000000000    0.6373800000000001 Cu
   0.3625900000000000    0.7747500000000000    0.6249400000000001 Cu
   0.8872200000000000    0.7252000000000000    0.6250800000000000 Cu
   0.3625600000000000    0.2498400000000000    0.8873949999999999 Cu
   0.2045000000000000    0.1862600000000000    0.4775100000000000 H
   0.2511100000000000    0.1534800000000000    0.4260550000000000 H
   0.2826600000000000    0.0074300000000000    0.4484000000000000 H
   0.1390800000000000    0.0710300000000000    0.4773950000000000 H
   0.6594400000000000    0.0452000000000000    0.3432400000000000 H
   0.6032000000000000    0.1481100000000000    0.3268500000000000 H
   0.6793400000000001    0.1033100000000000    0.2538500000000000 H
   0.5936600000000000    0.0454500000000000    0.2856500000000000 H
   0.8907600000000000    0.4550700000000000    0.4068700000000000 H
   0.9045700000000000    0.3521600000000000    0.4231950000000000 H
   0.7900300000000000    0.3968900000000000    0.4962550000000000 H
   0.7100800000000000    0.4548500000000000    0.4644800000000000 H
   0.7953800000000000    0.0451300000000000    0.4068150000000000 H
   0.7487000000000000    0.1480400000000000    0.4232200000000000 H
   0.7172800000000000    0.1032900000000000    0.4962300000000000 H
   0.8608600000000000    0.0453800000000000    0.4643950000000000 H
   0.1092300000000000    0.1862800000000000    0.2724850000000000 H
   0.0953900000000000    0.1536000000000000    0.3239350000000000 H
   0.2098900000000000    0.0075000000000000    0.3015600000000000 H
   0.2898900000000000    0.0710400000000000    0.2725850000000000 H
   0.3404300000000000    0.3135500000000000    0.4774350000000000 H
   0.3967600000000000    0.3462400000000000    0.4259750000000000 H
   0.3207100000000000    0.4922900000000000    0.4483450000000000 H
   0.4062900000000000    0.4286600000000000    0.4772950000000000 H
   0.7955100000000001    0.8137500000000000    0.0225000000000000 H
   0.7488400000000000    0.8465700000000000    0.0739600000000000 H
   0.7172900000000000    0.9926100000000000    0.0515750000000000 H
   0.8608800000000000    0.9290000000000000    0.0226150000000000 H
   0.3404500000000000    0.9548400000000000    0.1567750000000000 H
   0.3967200000000000    0.8519400000000000    0.1731400000000000 H
   0.3206100000000000    0.8967100000000000    0.2461600000000000 H
   0.4062600000000000    0.9545900000000000    0.2143000000000000 H
   0.1092100000000000    0.5448900000000000    0.0931350000000000 H
   0.0954200000000000    0.6478000000000000    0.0768250000000000 H
   0.2099700000000000    0.6031000000000000    0.0037600000000000 H
   0.2899200000000000    0.5451200000000000    0.0355350000000000 H
   0.2046000000000000    0.9548800000000000    0.0931800000000000 H
   0.2512900000000000    0.8519700000000000    0.0767750000000000 H
   0.2826900000000000    0.8967300000000000    0.0037650000000000 H
   0.1391200000000000    0.9546300000000000    0.0356000000000000 H
   0.8907000000000000    0.8137300000000000    0.2275550000000000 H
   0.9045400000000000    0.8463800000000000    0.1761000000000000 H
   0.7900500000000000    0.9924900000000000    0.1984650000000000 H
   0.7100400000000000    0.9289600000000000    0.2274450000000000 H
   0.6596100000000000    0.6864500000000000    0.0225400000000000 H
   0.6032200000000000    0.6538000000000000    0.0740050000000000 H
   0.6792700000000000    0.5077300000000000    0.0516550000000000 H
   0.5937000000000000    0.5713600000000000    0.0225000000000000 H
   0.1985000000000000    0.0727900000000000    0.0364500000000000 H
   0.7712300000000000    0.9272700000000000    0.2865000000000000 H
   0.7713400000000000    0.5729400000000000    0.4636200000000000 H
   0.8015000000000000    0.9272100000000000    0.4635500000000000 H
   0.2286700000000000    0.0727500000000000    0.2135300000000000 H
   0.2286600000000000    0.4270400000000000    0.0363700000000000 H
   0.2045000000000000    0.1862600000000000    0.9775100000000000 H
   0.2511100000000000    0.1534800000000000    0.9260550000000001 H
   0.2826600000000000    0.0074300000000000    0.9484000000000000 H
   0.1390800000000000    0.0710300000000000    0.9773950000000000 H
   0.8459100000000001    0.3136500000000000    0.7725600000000000 H
   0.7568200000000000    0.3463900000000000    0.8240250000000000 H
   0.6868400000000000    0.4924300000000000    0.8016799999999999 H
   0.6649400000000000    0.4287700000000000    0.7727100000000000 H
   0.6594400000000000    0.0452000000000000    0.8432400000000000 H
   0.6032000000000000    0.1481100000000000    0.8268500000000000 H
   0.6793400000000001    0.1033100000000000    0.7538500000000000 H
   0.5936600000000000    0.0454500000000000    0.7856500000000000 H
   0.8907600000000000    0.4550700000000000    0.9068700000000001 H
   0.9045700000000000    0.3521600000000000    0.9231950000000000 H
   0.7900300000000000    0.3968900000000000    0.9962550000000000 H
   0.7100800000000000    0.4548500000000000    0.9644800000000000 H
   0.1541600000000000    0.4550400000000000    0.8431250000000000 H
   0.2432900000000000    0.3521200000000000    0.8267500000000000 H
   0.3131500000000000    0.3968000000000000    0.7537199999999999 H
   0.3350900000000000    0.4547800000000000    0.7855200000000000 H
   0.7953800000000000    0.0451300000000000    0.9068149999999999 H
   0.7487000000000000    0.1480400000000000    0.9232199999999999 H
   0.7172800000000000    0.1032900000000000    0.9962299999999999 H
   0.8608600000000000    0.0453800000000000    0.9643950000000000 H
   0.1092300000000000    0.1862800000000000    0.7724850000000000 H
   0.0953900000000000    0.1536000000000000    0.8239350000000000 H
   0.2098900000000000    0.0075000000000000    0.8015600000000001 H
   0.2898900000000000    0.0710400000000000    0.7725850000000001 H
   0.3404300000000000    0.3135500000000000    0.9774350000000001 H
   0.3967600000000000    0.3462400000000000    0.9259750000000000 H
   0.3207100000000000    0.4922900000000000    0.9483450000000000 H
   0.4062900000000000    0.4286600000000000    0.9772950000000000 H
   0.7955100000000001    0.8137500000000000    0.5225000000000000 H
   0.7488400000000000    0.8465700000000000    0.5739600000000000 H
   0.7172900000000000    0.9926100000000000    0.5515750000000000 H
   0.8608800000000000    0.9290000000000000    0.5226150000000001 H
   0.1540700000000000    0.6863400000000000    0.7274550000000000 H
   0.2431500000000000    0.6535700000000000    0.6759900000000000 H
   0.3131200000000000    0.5075400000000000    0.6983450000000000 H
   0.3350200000000000    0.5712100000000000    0.7273100000000000 H
   0.3404500000000000    0.9548400000000000    0.6567750000000000 H
   0.3967200000000000    0.8519400000000000    0.6731400000000000 H
   0.3206100000000000    0.8967100000000000    0.7461599999999999 H
   0.4062600000000000    0.9545900000000000    0.7142999999999999 H
   0.1092100000000000    0.5448900000000000    0.5931350000000000 H
   0.0954200000000000    0.6478000000000000    0.5768250000000000 H
   0.2099700000000000    0.6031000000000000    0.5037600000000000 H
   0.2899200000000000    0.5451200000000000    0.5355350000000000 H
   0.8457800000000000    0.5449500000000000    0.6569000000000000 H
   0.7566600000000000    0.6478699999999999    0.6732650000000000 H
   0.6868000000000000    0.6031800000000000    0.7463050000000000 H
   0.6648600000000000    0.5452100000000000    0.7145049999999999 H
   0.2046000000000000    0.9548800000000000    0.5931800000000000 H
   0.2512900000000000    0.8519700000000000    0.5767750000000000 H
   0.2826900000000000    0.8967300000000000    0.5037650000000000 H
   0.1391200000000000    0.9546300000000000    0.5356000000000000 H
   0.8907000000000000    0.8137300000000000    0.7275550000000000 H
   0.9045400000000000    0.8463800000000000    0.6761000000000000 H
   0.7900500000000000    0.9924900000000000    0.6984650000000000 H
   0.7100400000000000    0.9289600000000000    0.7274450000000000 H
   0.6596100000000000    0.6864500000000000    0.5225400000000000 H
   0.6032200000000000    0.6538000000000000    0.5740050000000000 H
   0.6792700000000000    0.5077300000000000    0.5516550000000000 H
   0.5937000000000000    0.5713600000000000    0.5225000000000000 H
   0.1985000000000000    0.0727900000000000    0.5364500000000000 H
   0.8442000000000000    0.4271000000000000    0.7136300000000000 H
   0.7712300000000000    0.9272700000000000    0.7865000000000000 H
   0.7713400000000000    0.5729400000000000    0.9636199999999999 H
   0.1557600000000000    0.5728799999999999    0.7863950000000000 H
   0.8015000000000000    0.9272100000000000    0.9635500000000000 H
   0.2286700000000000    0.0727500000000000    0.7135300000000000 H
   0.2286600000000000    0.4270400000000000    0.5363700000000000 H
   0.3872200000000000    0.1195500000000000    0.4509500000000000 C
   0.4409500000000000    0.0589600000000000    0.4764250000000000 C
   0.2636600000000000    0.1337500000000000    0.4559000000000000 C
   0.2317300000000000    0.0565600000000000    0.4722500000000000 C
   0.7891300000000000    0.0981900000000000    0.3098500000000000 C
   0.8937900000000000    0.0471800000000000    0.2795350000000000 C
   0.6754100000000000    0.0883700000000000    0.3169850000000000 C
   0.6760800000000000    0.0556700000000000    0.2784000000000000 C
   0.0067700000000000    0.4018500000000000    0.4402000000000000 C
   0.9999300000000000    0.4528600000000000    0.4704950000000000 C
   0.8974100000000000    0.4118300000000000    0.4330950000000000 C
   0.7882500000000000    0.4445500000000000    0.4717000000000000 C
   0.6126600000000000    0.0981500000000000    0.4402100000000000 C
   0.5590000000000001    0.0471600000000000    0.4705050000000000 C
   0.7362100000000000    0.0883200000000000    0.4330800000000000 C
   0.7682099999999999    0.0556300000000000    0.4716600000000000 C
   0.9931900000000000    0.1196100000000000    0.2990650000000000 C
   0.0000000000000000    0.0590000000000000    0.2735850000000000 C
   0.1025700000000000    0.1338100000000000    0.2940950000000000 C
   0.2117100000000000    0.0565900000000000    0.2777300000000000 C
   0.2108400000000000    0.3803600000000000    0.4508950000000000 C
   0.1061600000000000    0.4409500000000000    0.4764200000000000 C
   0.3245300000000000    0.3660400000000000    0.4558350000000000 C
   0.3239000000000000    0.4432100000000000    0.4721500000000000 C
   0.6127600000000000    0.8804700000000000    0.0490500000000000 C
   0.5590500000000000    0.9410300000000000    0.0235650000000000 C
   0.7363200000000000    0.8662700000000000    0.0441100000000000 C
   0.7682400000000000    0.9434700000000000    0.0277500000000000 C
   0.2108000000000000    0.9018200000000000    0.1901750000000000 C
   0.1061400000000000    0.9528300000000000    0.2204900000000000 C
   0.3245200000000000    0.9116600000000000    0.1830250000000000 C
   0.3238500000000000    0.9443500000000000    0.2216100000000000 C
   0.9932200000000000    0.5981200000000000    0.0597950000000000 C
   0.0000000000000000    0.5471400000000000    0.0295000000000000 C
   0.1025800000000000    0.5881500000000000    0.0669100000000000 C
   0.2117400000000000    0.5554300000000000    0.0283000000000000 C
   0.3873300000000000    0.9018500000000000    0.0597850000000000 C
   0.4409900000000000    0.9528400000000000    0.0294900000000000 C
   0.2637700000000000    0.9116900000000000    0.0669150000000000 C
   0.2317800000000000    0.9443800000000000    0.0283350000000000 C
   0.0067400000000000    0.8804000000000000    0.2009550000000000 C
   0.9998899999999999    0.9409999999999999    0.2264400000000000 C
   0.8973600000000000    0.8661799999999999    0.2059350000000000 C
   0.7882300000000000    0.9434100000000000    0.2222950000000000 C
   0.7891700000000000    0.6196700000000001    0.0490850000000000 C
   0.8938300000000000    0.5590500000000000    0.0235500000000000 C
   0.6754700000000000    0.6339800000000000    0.0441550000000000 C
   0.6761000000000000    0.5568000000000000    0.0278200000000000 C
   0.3808400000000000    0.0122000000000000    0.0061250000000000 C
   0.2564500000000000    0.0243500000000000    0.0122300000000000 C
   0.8930000000000000    0.9878000000000000    0.2561600000000000 C
   0.7807500000000001    0.9756700000000000    0.2622500000000000 C
   0.8930399999999999    0.5123000000000000    0.4938950000000000 C
   0.7807900000000000    0.5245200000000000    0.4878300000000000 C
   0.6191500000000000    0.9878000000000000    0.4938700000000000 C
   0.7435300000000000    0.9756600000000000    0.4877700000000000 C
   0.1069300000000000    0.0122100000000000    0.2438650000000000 C
   0.2191800000000000    0.0243400000000000    0.2377450000000000 C
   0.1069500000000000    0.4877100000000000    0.0061000000000000 C
   0.2192000000000000    0.4754700000000000    0.0121650000000000 C
   0.3872200000000000    0.1195500000000000    0.9509500000000000 C
   0.4409500000000000    0.0589600000000000    0.9764250000000000 C
   0.2636600000000000    0.1337500000000000    0.9559000000000000 C
   0.2317300000000000    0.0565600000000000    0.9722500000000001 C
   0.9087499999999999    0.3804000000000000    0.7990900000000001 C
   0.9527900000000000    0.4410100000000000    0.7736000000000001 C
   0.8093000000000000    0.3661500000000000    0.7941750000000001 C
   0.7327800000000000    0.4433100000000000    0.7778450000000000 C
   0.7891300000000000    0.0981900000000000    0.8098500000000000 C
   0.8937900000000000    0.0471800000000000    0.7795350000000000 C
   0.6754100000000000    0.0883700000000000    0.8169850000000001 C
   0.6760800000000000    0.0556700000000000    0.7784000000000000 C
   0.0067700000000000    0.4018500000000000    0.9401999999999999 C
   0.9999300000000000    0.4528600000000000    0.9704950000000000 C
   0.8974100000000000    0.4118300000000000    0.9330950000000000 C
   0.7882500000000000    0.4445500000000000    0.9717000000000000 C
   0.0913200000000000    0.4018900000000000    0.8097500000000000 C
   0.0472200000000000    0.4528400000000000    0.7794950000000000 C
   0.1907700000000000    0.4117900000000000    0.8168850000000000 C
   0.2672300000000000    0.4444700000000000    0.7782800000000001 C
   0.6126600000000000    0.0981500000000000    0.9402100000000000 C
   0.5590000000000001    0.0471600000000000    0.9705050000000000 C
   0.7362100000000000    0.0883200000000000    0.9330800000000000 C
   0.7682099999999999    0.0556300000000000    0.9716600000000000 C
   0.9931900000000000    0.1196100000000000    0.7990650000000000 C
   0.0000000000000000    0.0590000000000000    0.7735850000000000 C
   0.1025700000000000    0.1338100000000000    0.7940950000000000 C
   0.2117100000000000    0.0565900000000000    0.7777300000000000 C
   0.2108400000000000    0.3803600000000000    0.9508950000000000 C
   0.1061600000000000    0.4409500000000000    0.9764200000000001 C
   0.3245300000000000    0.3660400000000000    0.9558350000000000 C
   0.3239000000000000    0.4432100000000000    0.9721500000000001 C
   0.6127600000000000    0.8804700000000000    0.5490500000000000 C
   0.5590500000000000    0.9410300000000000    0.5235649999999999 C
   0.7363200000000000    0.8662700000000000    0.5441100000000000 C
   0.7682400000000000    0.9434700000000000    0.5277500000000001 C
   0.0912200000000000    0.6195700000000000    0.7009300000000001 C
   0.0471600000000000    0.5589800000000000    0.7264250000000000 C
   0.1906700000000000    0.6338300000000000    0.7058450000000001 C
   0.2671800000000000    0.5566600000000000    0.7221750000000000 C
   0.2108000000000000    0.9018200000000000    0.6901750000000000 C
   0.1061400000000000    0.9528300000000000    0.7204900000000000 C
   0.3245200000000000    0.9116600000000000    0.6830250000000000 C
   0.3238500000000000    0.9443500000000000    0.7216100000000000 C
   0.9932200000000000    0.5981200000000000    0.5597950000000000 C
   0.0000000000000000    0.5471400000000000    0.5295000000000000 C
   0.1025800000000000    0.5881500000000000    0.5669100000000000 C
   0.2117400000000000    0.5554300000000000    0.5283000000000000 C
   0.9086300000000000    0.5981000000000000    0.6902450000000000 C
   0.9527400000000000    0.5471400000000000    0.7205300000000000 C
   0.8091800000000000    0.5881999999999999    0.6831400000000000 C
   0.7327200000000000    0.5555200000000000    0.7217450000000000 C
   0.3873300000000000    0.9018500000000000    0.5597850000000000 C
   0.4409900000000000    0.9528400000000000    0.5294900000000000 C
   0.2637700000000000    0.9116900000000000    0.5669150000000001 C
   0.2317800000000000    0.9443800000000000    0.5283350000000000 C
   0.0067400000000000    0.8804000000000000    0.7009550000000000 C
   0.9998899999999999    0.9409999999999999    0.7264400000000000 C
   0.8973600000000000    0.8661799999999999    0.7059350000000000 C
   0.7882300000000000    0.9434100000000000    0.7222950000000000 C
   0.7891700000000000    0.6196700000000001    0.5490850000000000 C
   0.8938300000000000    0.5590500000000000    0.5235500000000000 C
   0.6754700000000000    0.6339800000000000    0.5441549999999999 C
   0.6761000000000000    0.5568000000000000    0.5278200000000000 C
   0.3808400000000000    0.0122000000000000    0.5061250000000000 C
   0.2564500000000000    0.0243500000000000    0.5122300000000000 C
   0.9052500000000000    0.4877500000000000    0.7439200000000000 C
   0.8052200000000000    0.4755500000000000    0.7378500000000000 C
   0.8930000000000000    0.9878000000000000    0.7561599999999999 C
   0.7807500000000001    0.9756700000000000    0.7622500000000000 C
   0.8930399999999999    0.5123000000000000    0.9938950000000000 C
   0.7807900000000000    0.5245200000000000    0.9878300000000000 C
   0.0947000000000000    0.5122300000000000    0.7561050000000000 C
   0.1947300000000000    0.5244400000000000    0.7621750000000000 C
   0.6191500000000000    0.9878000000000000    0.9938700000000000 C
   0.7435300000000000    0.9756600000000000    0.9877700000000000 C
   0.1069300000000000    0.0122100000000000    0.7438650000000000 C
   0.2191800000000000    0.0243400000000000    0.7377450000000000 C
   0.1069500000000000    0.4877100000000000    0.5061000000000000 C
   0.2192000000000000    0.4754700000000000    0.5121650000000000 C
   0.4999500000000000    0.3294100000000000    0.3353300000000000 I
   0.9999900000000000    0.1706400000000000    0.4147100000000000 I
   0.6704700000000000    0.3295500000000000    0.4147600000000000 I
   0.3295100000000000    0.1705100000000000    0.3352000000000000 I
   0.5000200000000000    0.6705900000000000    0.1646700000000000 I
   0.9999700000000000    0.8293600000000000    0.0853150000000000 I
   0.3294700000000000    0.6704800000000000    0.0852600000000000 I
   0.6704599999999999    0.8294700000000000    0.1647750000000000 I
   0.4999500000000000    0.3294100000000000    0.8353300000000000 I
   0.9999900000000000    0.1706400000000000    0.9147100000000000 I
   0.6704700000000000    0.3295500000000000    0.9147600000000000 I
   0.3295100000000000    0.1705100000000000    0.8351999999999999 I
   0.5000200000000000    0.6705900000000000    0.6646700000000000 I
   0.9999700000000000    0.8293600000000000    0.5853150000000000 I
   0.3294700000000000    0.6704800000000000    0.5852600000000000 I
   0.6704599999999999    0.8294700000000000    0.6647750000000000 I
   0.4428800000000000    0.1643100000000000    0.4228050000000000 N
   0.7885400000000000    0.1545200000000000    0.3322050000000000 N
   0.1072300000000000    0.3455900000000000    0.4178000000000000 N
   0.5569600000000000    0.1544400000000000    0.4175000000000000 N
   0.8927500000000000    0.1643700000000000    0.3272000000000000 N
   0.2114000000000000    0.3355600000000000    0.4227750000000000 N
   0.5571100000000000    0.8356900000000000    0.0771500000000000 N
   0.2113800000000000    0.8455200000000000    0.1678000000000000 N
   0.8927800000000000    0.6544500000000000    0.0821800000000000 N
   0.4430100000000000    0.8455800000000000    0.0821600000000000 N
   0.1071900000000000    0.8356100000000000    0.1727950000000000 N
   0.7885799999999999    0.6643900000000000    0.0772450000000000 N
   0.4428800000000000    0.1643100000000000    0.9228050000000000 N
   0.9529000000000000    0.3356800000000000    0.8272300000000000 N
   0.7885400000000000    0.1545200000000000    0.8322050000000000 N
   0.1072300000000000    0.3455900000000000    0.9177999999999999 N
   0.0472000000000000    0.3455900000000000    0.8321600000000000 N
   0.5569600000000000    0.1544400000000000    0.9175000000000000 N
   0.8927500000000000    0.1643700000000000    0.8271999999999999 N
   0.2114000000000000    0.3355600000000000    0.9227750000000000 N
   0.5571100000000000    0.8356900000000000    0.5771500000000001 N
   0.0470300000000000    0.6643200000000000    0.6728000000000001 N
   0.2113800000000000    0.8455200000000000    0.6677999999999999 N
   0.8927800000000000    0.6544500000000000    0.5821800000000000 N
   0.9527800000000000    0.6543700000000000    0.6678500000000001 N
   0.4430100000000000    0.8455800000000000    0.5821600000000000 N
   0.1071900000000000    0.8356100000000000    0.6727950000000000 N
   0.7885799999999999    0.6643900000000000    0.5772450000000000 N
