Ba32 H1 C62 O125
1.0
  25.1428613282674931    0.0000000000000000    2.4298403707879794
   0.6145131703135935    7.8870846679350546    3.7376488939351846
   0.0000000000000000    0.0000000000000000   19.5500000000000007
Ba H C O
32 1 62 125
direct
   0.9298850000000000    0.9750100000000000    0.5995100000000000 Ba
   0.8034075000000001    0.6385900000000000    0.2831250000000000 Ba
   0.1798850000000000    0.9750100000000000    0.5995100000000000 Ba
   0.0534075000000000    0.6385900000000000    0.2831250000000000 Ba
   0.4298850000000000    0.9750100000000000    0.5995100000000000 Ba
   0.3034075000000000    0.6385900000000000    0.2831250000000000 Ba
   0.5534075000000001    0.6385900000000000    0.2831250000000000 Ba
   0.5701350000000001    0.0250800000000000    0.9005449999999999 Ba
   0.6965825000000000    0.3613400000000000    0.2169300000000000 Ba
   0.8201350000000001    0.0250800000000000    0.9005449999999999 Ba
   0.9465825000000000    0.3613400000000000    0.2169300000000000 Ba
   0.0701350000000000    0.0250800000000000    0.9005449999999999 Ba
   0.1965825000000000    0.3613400000000000    0.2169300000000000 Ba
   0.3201350000000000    0.0250800000000000    0.9005449999999999 Ba
   0.4465825000000000    0.3613400000000000    0.2169300000000000 Ba
   0.6798850000000000    0.9750100000000000    0.5995100000000000 Ba
   0.6798850000000000    0.9750100000000000    0.0995100000000000 Ba
   0.5534075000000001    0.6385900000000000    0.7831250000000001 Ba
   0.9298850000000000    0.9750100000000000    0.0995100000000000 Ba
   0.8034075000000001    0.6385900000000000    0.7831250000000001 Ba
   0.1798850000000000    0.9750100000000000    0.0995100000000000 Ba
   0.0534075000000000    0.6385900000000000    0.7831250000000001 Ba
   0.4298850000000000    0.9750100000000000    0.0995100000000000 Ba
   0.3034075000000000    0.6385900000000000    0.7831250000000001 Ba
   0.0701350000000000    0.0250800000000000    0.4005450000000000 Ba
   0.1965825000000000    0.3613400000000000    0.7169300000000001 Ba
   0.8201350000000001    0.0250800000000000    0.4005450000000000 Ba
   0.9465825000000000    0.3613400000000000    0.7169300000000001 Ba
   0.3201350000000000    0.0250800000000000    0.4005450000000000 Ba
   0.4465825000000000    0.3613400000000000    0.7169300000000001 Ba
   0.5701350000000001    0.0250800000000000    0.4005450000000000 Ba
   0.6965825000000000    0.3613400000000000    0.7169300000000001 Ba
   0.7194508227520473    0.2594613950105329    0.4208185372234953 H
   0.6686425000000000    0.8181900000000000    0.3084400000000000 C
   0.7043275000000000    0.9105799999999999    0.3364300000000000 C
   0.4186425000000000    0.8181900000000000    0.3084400000000000 C
   0.4543275000000000    0.9105799999999999    0.3364300000000000 C
   0.1686425000000000    0.8181900000000000    0.3084400000000000 C
   0.2043275000000000    0.9105799999999999    0.3364300000000000 C
   0.9186425000000000    0.8181900000000000    0.3084400000000000 C
   0.9543275000000000    0.9105799999999999    0.3364300000000000 C
   0.9027925000000000    0.2855200000000000    0.4058250000000000 C
   0.9647150000000000    0.2801000000000000    0.4070550000000000 C
   0.1527925000000000    0.2855200000000000    0.4058250000000000 C
   0.2147150000000000    0.2801000000000000    0.4070550000000000 C
   0.4027925000000000    0.2855200000000000    0.4058250000000000 C
   0.4647150000000000    0.2801000000000000    0.4070550000000000 C
   0.0813350000000000    0.1816200000000000    0.1916450000000000 C
   0.0456625000000000    0.0892200000000000    0.1636400000000000 C
   0.8313350000000000    0.1816200000000000    0.1916450000000000 C
   0.7956625000000001    0.0892200000000000    0.1636400000000000 C
   0.5813350000000000    0.1816200000000000    0.1916450000000000 C
   0.5456625000000001    0.0892200000000000    0.1636400000000000 C
   0.3313350000000000    0.1816200000000000    0.1916450000000000 C
   0.2956625000000000    0.0892200000000000    0.1636400000000000 C
   0.5972125000000000    0.7144500000000000    0.0942600000000000 C
   0.5352950000000000    0.7198800000000000    0.0929800000000000 C
   0.8472125000000000    0.7144500000000000    0.0942600000000000 C
   0.7852950000000000    0.7198800000000000    0.0929800000000000 C
   0.0972125000000000    0.7144500000000000    0.0942600000000000 C
   0.0352950000000000    0.7198800000000000    0.0929800000000000 C
   0.3472125000000000    0.7144500000000000    0.0942600000000000 C
   0.2852950000000000    0.7198800000000000    0.0929800000000000 C
   0.6686425000000000    0.8181900000000000    0.8084400000000000 C
   0.7043275000000000    0.9105799999999999    0.8364300000000000 C
   0.1686425000000000    0.8181900000000000    0.8084400000000000 C
   0.2043275000000000    0.9105799999999999    0.8364300000000000 C
   0.4186425000000000    0.8181900000000000    0.8084400000000000 C
   0.4543275000000000    0.9105799999999999    0.8364300000000000 C
   0.9186425000000000    0.8181900000000000    0.8084400000000000 C
   0.9543275000000000    0.9105799999999999    0.8364300000000000 C
   0.6527925000000000    0.2855200000000000    0.9058250000000000 C
   0.7147150000000000    0.2801000000000000    0.9070549999999999 C
   0.9027925000000000    0.2855200000000000    0.9058250000000000 C
   0.9647150000000000    0.2801000000000000    0.9070549999999999 C
   0.1527925000000000    0.2855200000000000    0.9058250000000000 C
   0.2147150000000000    0.2801000000000000    0.9070549999999999 C
   0.4027925000000000    0.2855200000000000    0.9058250000000000 C
   0.4647150000000000    0.2801000000000000    0.9070549999999999 C
   0.3313350000000000    0.1816200000000000    0.6916450000000001 C
   0.2956625000000000    0.0892200000000000    0.6636400000000000 C
   0.0813350000000000    0.1816200000000000    0.6916450000000001 C
   0.0456625000000000    0.0892200000000000    0.6636400000000000 C
   0.8313350000000000    0.1816200000000000    0.6916450000000001 C
   0.7956625000000001    0.0892200000000000    0.6636400000000000 C
   0.5813350000000000    0.1816200000000000    0.6916450000000001 C
   0.5456625000000001    0.0892200000000000    0.6636400000000000 C
   0.0972125000000000    0.7144500000000000    0.5942600000000000 C
   0.0352950000000000    0.7198800000000000    0.5929800000000000 C
   0.8472125000000000    0.7144500000000000    0.5942600000000000 C
   0.7852950000000000    0.7198800000000000    0.5929800000000000 C
   0.3472125000000000    0.7144500000000000    0.5942600000000000 C
   0.2852950000000000    0.7198800000000000    0.5929800000000000 C
   0.5972125000000000    0.7144500000000000    0.5942600000000000 C
   0.5352950000000000    0.7198800000000000    0.5929800000000000 C
   0.6202799999999999    0.8065099999999999    0.3336050000000000 O
   0.6902275000000000    0.7647600000000000    0.2604250000000000 O
   0.7527350000000000    0.8546600000000000    0.3470700000000000 O
   0.6827350000000000    0.0414300000000000    0.3440900000000000 O
   0.3702800000000000    0.8065099999999999    0.3336050000000000 O
   0.4402275000000000    0.7647600000000000    0.2604250000000000 O
   0.5027350000000000    0.8546600000000000    0.3470700000000000 O
   0.4327350000000000    0.0414300000000000    0.3440900000000000 O
   0.1202800000000000    0.8065099999999999    0.3336050000000000 O
   0.1902275000000000    0.7647600000000000    0.2604250000000000 O
   0.2527350000000000    0.8546600000000000    0.3470700000000000 O
   0.1827350000000000    0.0414300000000000    0.3440900000000000 O
   0.8702799999999999    0.8065099999999999    0.3336050000000000 O
   0.9402275000000000    0.7647600000000000    0.2604250000000000 O
   0.0027350000000000    0.8546600000000000    0.3470700000000000 O
   0.9327350000000000    0.0414300000000000    0.3440900000000000 O
   0.8779125000000000    0.1960200000000000    0.4666850000000000 O
   0.8816475000000000    0.3697600000000000    0.3421600000000000 O
   0.9859175000000000    0.1877000000000000    0.4686750000000000 O
   0.9907200000000000    0.3598400000000000    0.3443000000000000 O
   0.1279125000000000    0.1960200000000000    0.4666850000000000 O
   0.1316475000000000    0.3697600000000000    0.3421600000000000 O
   0.2359175000000000    0.1877000000000000    0.4686750000000000 O
   0.2407200000000000    0.3598400000000000    0.3443000000000000 O
   0.3779125000000000    0.1960200000000000    0.4666850000000000 O
   0.3816475000000000    0.3697600000000000    0.3421600000000000 O
   0.4859175000000000    0.1877000000000000    0.4686750000000000 O
   0.4907200000000000    0.3598400000000000    0.3443000000000000 O
   0.1297025000000000    0.1933100000000000    0.1665050000000000 O
   0.0597350000000000    0.2350700000000000    0.2396450000000000 O
   0.9972675000000000    0.1455300000000000    0.1529000000000000 O
   0.0672750000000000    0.9583500000000000    0.1560000000000000 O
   0.8797025000000001    0.1933100000000000    0.1665050000000000 O
   0.8097350000000000    0.2350700000000000    0.2396450000000000 O
   0.7472675000000000    0.1455300000000000    0.1529000000000000 O
   0.8172750000000000    0.9583500000000000    0.1560000000000000 O
   0.6297025000000001    0.1933100000000000    0.1665050000000000 O
   0.5597350000000000    0.2350700000000000    0.2396450000000000 O
   0.4972675000000000    0.1455300000000000    0.1529000000000000 O
   0.5672750000000000    0.9583500000000000    0.1560000000000000 O
   0.3797025000000000    0.1933100000000000    0.1665050000000000 O
   0.3097350000000000    0.2350700000000000    0.2396450000000000 O
   0.2472675000000000    0.1455300000000000    0.1529000000000000 O
   0.3172750000000000    0.9583500000000000    0.1560000000000000 O
   0.6220975000000000    0.8042400000000000    0.0334650000000000 O
   0.6183375000000000    0.6298899999999999    0.1579150000000000 O
   0.5141025000000000    0.8122800000000000    0.0313500000000000 O
   0.5092750000000000    0.6401200000000000    0.1557150000000000 O
   0.8720975000000000    0.8042400000000000    0.0334650000000000 O
   0.8683375000000000    0.6298899999999999    0.1579150000000000 O
   0.7641025000000000    0.8122800000000000    0.0313500000000000 O
   0.7592750000000000    0.6401200000000000    0.1557150000000000 O
   0.1220975000000000    0.8042400000000000    0.0334650000000000 O
   0.1183375000000000    0.6298899999999999    0.1579150000000000 O
   0.0141025000000000    0.8122800000000000    0.0313500000000000 O
   0.0092750000000000    0.6401200000000000    0.1557150000000000 O
   0.3720975000000000    0.8042400000000000    0.0334650000000000 O
   0.3683375000000000    0.6298899999999999    0.1579150000000000 O
   0.2641025000000000    0.8122800000000000    0.0313500000000000 O
   0.2592750000000000    0.6401200000000000    0.1557150000000000 O
   0.7359175000000000    0.1877000000000000    0.4686750000000000 O
   0.6202799999999999    0.8065099999999999    0.8336049999999999 O
   0.6902275000000000    0.7647600000000000    0.7604250000000000 O
   0.7527350000000000    0.8546600000000000    0.8470700000000000 O
   0.6827350000000000    0.0414300000000000    0.8440900000000000 O
   0.1202800000000000    0.8065099999999999    0.8336049999999999 O
   0.1902275000000000    0.7647600000000000    0.7604250000000000 O
   0.2527350000000000    0.8546600000000000    0.8470700000000000 O
   0.1827350000000000    0.0414300000000000    0.8440900000000000 O
   0.3702800000000000    0.8065099999999999    0.8336049999999999 O
   0.4402275000000000    0.7647600000000000    0.7604250000000000 O
   0.5027350000000000    0.8546600000000000    0.8470700000000000 O
   0.4327350000000000    0.0414300000000000    0.8440900000000000 O
   0.8702799999999999    0.8065099999999999    0.8336049999999999 O
   0.9402275000000000    0.7647600000000000    0.7604250000000000 O
   0.0027350000000000    0.8546600000000000    0.8470700000000000 O
   0.9327350000000000    0.0414300000000000    0.8440900000000000 O
   0.6279125000000000    0.1960200000000000    0.9666850000000000 O
   0.6316475000000000    0.3697600000000000    0.8421600000000000 O
   0.7359175000000000    0.1877000000000000    0.9686750000000000 O
   0.7407200000000000    0.3598400000000000    0.8443000000000001 O
   0.8779125000000000    0.1960200000000000    0.9666850000000000 O
   0.8816475000000000    0.3697600000000000    0.8421600000000000 O
   0.9859175000000000    0.1877000000000000    0.9686750000000000 O
   0.9907200000000000    0.3598400000000000    0.8443000000000001 O
   0.1279125000000000    0.1960200000000000    0.9666850000000000 O
   0.1316475000000000    0.3697600000000000    0.8421600000000000 O
   0.2359175000000000    0.1877000000000000    0.9686750000000000 O
   0.2407200000000000    0.3598400000000000    0.8443000000000001 O
   0.3779125000000000    0.1960200000000000    0.9666850000000000 O
   0.3816475000000000    0.3697600000000000    0.8421600000000000 O
   0.4859175000000000    0.1877000000000000    0.9686750000000000 O
   0.4907200000000000    0.3598400000000000    0.8443000000000001 O
   0.3797025000000000    0.1933100000000000    0.6665050000000000 O
   0.3097350000000000    0.2350700000000000    0.7396450000000000 O
   0.2472675000000000    0.1455300000000000    0.6529000000000000 O
   0.3172750000000000    0.9583500000000000    0.6560000000000000 O
   0.1297025000000000    0.1933100000000000    0.6665050000000000 O
   0.0597350000000000    0.2350700000000000    0.7396450000000000 O
   0.9972675000000000    0.1455300000000000    0.6529000000000000 O
   0.0672750000000000    0.9583500000000000    0.6560000000000000 O
   0.8797025000000001    0.1933100000000000    0.6665050000000000 O
   0.8097350000000000    0.2350700000000000    0.7396450000000000 O
   0.7472675000000000    0.1455300000000000    0.6529000000000000 O
   0.8172750000000000    0.9583500000000000    0.6560000000000000 O
   0.6297025000000001    0.1933100000000000    0.6665050000000000 O
   0.5597350000000000    0.2350700000000000    0.7396450000000000 O
   0.4972675000000000    0.1455300000000000    0.6529000000000000 O
   0.5672750000000000    0.9583500000000000    0.6560000000000000 O
   0.1220975000000000    0.8042400000000000    0.5334650000000000 O
   0.1183375000000000    0.6298899999999999    0.6579150000000000 O
   0.0141025000000000    0.8122800000000000    0.5313500000000000 O
   0.0092750000000000    0.6401200000000000    0.6557150000000000 O
   0.8720975000000000    0.8042400000000000    0.5334650000000000 O
   0.8683375000000000    0.6298899999999999    0.6579150000000000 O
   0.7641025000000000    0.8122800000000000    0.5313500000000000 O
   0.7592750000000000    0.6401200000000000    0.6557150000000000 O
   0.3720975000000000    0.8042400000000000    0.5334650000000000 O
   0.3683375000000000    0.6298899999999999    0.6579150000000000 O
   0.2641025000000000    0.8122800000000000    0.5313500000000000 O
   0.2592750000000000    0.6401200000000000    0.6557150000000000 O
   0.6220975000000000    0.8042400000000000    0.5334650000000000 O
   0.6183375000000000    0.6298899999999999    0.6579150000000000 O
   0.5141025000000000    0.8122800000000000    0.5313500000000000 O
   0.5092750000000000    0.6401200000000000    0.6557150000000000 O
