H1 O1
1.0
  25.1428613282674931    0.0000000000000000    2.4298403707879794
   0.6145131703135935    7.8870846679350546    3.7376488939351846
   0.0000000000000000    0.0000000000000000   19.5500000000000007
H O
1 1
direct
   0.7194508227520473    0.2594613950105329    0.4208185372234953 H
   0.7359175000000000    0.1877000000000000    0.4686750000000000 O
