C2 O4
1.0
  25.1428613282674931    0.0000000000000000    2.4298403707879794
   0.6145131703135935    7.8870846679350546    3.7376488939351846
   0.0000000000000000    0.0000000000000000   19.5500000000000007
C O
2 4
direct
   0.7147150000000000    0.2801000000000000    0.4070550000000000 C
   0.6527925000000000    0.2855200000000000    0.4058250000000000 C
   0.7407200000000000    0.3598400000000000    0.3443000000000000 O
   0.7359175000000000    0.1877000000000000    0.4686750000000000 O
   0.6316475000000000    0.3697600000000000    0.3421600000000000 O
   0.6279125000000000    0.1960200000000000    0.4666850000000000 O
