H6 O4
1.0
  17.2240000000000002    0.0000000000000000    0.0000000000000011
   0.0000000000000028   17.2332117415511057   -0.1648304306403815
   0.0000000000000000    0.0000000000000000   17.2920000000000016
H O
6 4
direct
   0.2376459425250061    0.7205446731563819    0.6381792957404172 H
   0.4298194557091763    0.8424597946398023    0.6442819576622535 H
   0.3312464148419685    0.7857198571363934    0.6519656587203676 H
   0.1448225216869937    0.7102389337510784    0.8298312917990222 H
   0.2168594320192955    0.8653547073233793   -0.0241546122142310 H
   0.1950809907085996    0.7887540185060641    0.9018216584326337 H
   0.2849900000000000    0.7357399999999999    0.6119900000000000 O
   0.3967700000000000    0.8067500000000000    0.6157200000000000 O
   0.1279800000000000    0.7470300000000000    0.8691800000000000 O
   0.1726100000000000    0.8378400000000000   -0.0456800000000000 O
