Zn16 H66 C132 O48
1.0
  17.2240000000000002    0.0000000000000000    0.0000000000000011
   0.0000000000000028   17.2332117415511057   -0.1648304306403815
   0.0000000000000000    0.0000000000000000   17.2920000000000016
Zn H C O
16 66 132 48
direct
   0.5856900000000000    0.1724000000000000    0.0000000000000000 Zn
   0.4261000000000000    0.2648100000000000    0.0000000000000000 Zn
   0.5190100000000000    0.2585900000000000    0.1490600000000000 Zn
   0.4378100000000000    0.6169700000000000    0.4262000000000000 Zn
   0.3567500000000000    0.7691500000000000    0.3555300000000000 Zn
   0.7934000000000000    0.3292500000000000    0.5074500000000000 Zn
   0.4475000000000000    0.7773300000000000    0.5172200000000000 Zn
   0.9421800000000000    0.9095500000000000    0.9309700000000000 Zn
   0.0786600000000000    0.8450299999999999    0.0034000000000000 Zn
   0.9359700000000000    0.7526600000000000    0.0102500000000000 Zn
   0.0133900000000000    0.7569800000000000    0.8663300000000000 Zn
   0.9459100000000000    0.4003200000000000    0.5894900000000000 Zn
   0.8642600000000000    0.2481600000000000    0.6598800000000000 Zn
   0.2854200000000000    0.6882900000000000    0.5081000000000000 Zn
   0.9554600000000000    0.2401100000000000    0.4983900000000000 Zn
   0.4333600000000000    0.1073200000000000    0.0842700000000000 Zn
   0.7091600000000000    0.9944000000000000    0.9812100000000000 H
   0.7512000000000000    0.7545500000000001    0.1106600000000000 H
   0.6788300000000000    0.6876800000000000    0.2039500000000000 H
   0.5590400000000000    0.7205700000000000    0.2588600000000000 H
   0.4804300000000000    0.8284700000000000    0.2339800000000000 H
   0.5002500000000000    0.9289200000000000    0.1456000000000000 H
   0.6718700000000000    0.2272200000000000    0.7871500000000000 H
   0.5742800000000000    0.3374600000000000    0.5457800000000000 H
   0.4532300000000000    0.3870600000000000    0.5063000000000000 H
   0.3374100000000000    0.3948800000000000    0.5761600000000000 H
   0.3128300000000000    0.3593400000000000    0.7039800000000001 H
   0.3988000000000000    0.3074700000000000    0.7956800000000001 H
   0.7142400000000000    0.2799900000000000    0.2755000000000000 H
   0.9493600000000000    0.1250900000000000    0.3171600000000000 H
   0.0000000000000000    0.0322200000000000    0.2425000000000000 H
   0.9877100000000000    0.0000000000000000    0.1191800000000000 H
   0.8805300000000000    0.0133200000000000    0.0401900000000000 H
   0.7802400000000000    0.1027500000000000    0.0621300000000000 H
   0.4058400000000000    0.0000000000000000    0.2765800000000000 H
   0.5640200000000000    0.9550500000000000    0.5074600000000000 H
   0.6591500000000000    0.0093300000000000    0.5730300000000000 H
   0.7084800000000000    0.1321500000000000    0.5443900000000000 H
   0.6756100000000000    0.2140300000000000    0.4422400000000000 H
   0.5832500000000000    0.1952600000000000    0.3443000000000000 H
   0.4613900000000000    0.4862200000000000    0.2361900000000000 H
   0.3772300000000000    0.4715400000000000    0.9805700000000001 H
   0.3243500000000000    0.5618800000000000    0.8943100000000000 H
   0.2885700000000000    0.6906700000000000    0.9173000000000000 H
   0.2959700000000000    0.7630700000000000    0.0000000000000000 H
   0.3463300000000000    0.7256500000000000    0.1375900000000000 H
   0.6647600000000000    0.5274799999999999    0.4822300000000000 H
   0.8806100000000000    0.5960800000000001    0.6545200000000000 H
   0.9045900000000000    0.6992699999999999    0.7408000000000000 H
   0.8280300000000000    0.8087600000000000    0.7667800000000000 H
   0.7063400000000000    0.8407200000000000    0.7161200000000000 H
   0.6305100000000000    0.7722100000000000    0.6254900000000000 H
   0.2002700000000000    0.0229300000000000    0.0341700000000000 H
   0.2415400000000000    0.2625200000000000    0.9043800000000000 H
   0.1693200000000000    0.3292300000000000    0.8108500000000000 H
   0.0496700000000000    0.2962300000000000    0.7557300000000000 H
   0.9877500000000000    0.1882900000000000    0.7806200000000000 H
   0.0000000000000000    0.0881400000000000    0.8692000000000000 H
   0.1643400000000000    0.7903900000000000    0.2282000000000000 H
   0.0665000000000000    0.6803500000000000    0.4696200000000000 H
   0.9621200000000000    0.6307900000000000    0.5089100000000000 H
   0.8463800000000000    0.6228900000000001    0.4390200000000000 H
   0.8219300000000000    0.6583599999999999    0.3111400000000000 H
   0.9080100000000000    0.7102200000000000    0.2195200000000000 H
   0.9134500000000000    0.0159000000000000    0.7391400000000000 H
   0.0548000000000000    0.0622100000000000    0.5080000000000000 H
   0.1516000000000000    0.0000000000000000    0.4425100000000000 H
   0.2010900000000000    0.8851800000000000    0.4712200000000000 H
   0.1683900000000000    0.8033400000000001    0.5734600000000000 H
   0.0760200000000000    0.8220400000000000    0.6714000000000000 H
   0.9713600000000000    0.5295500000000000    0.7795100000000000 H
   0.8875200000000000    0.5462399999999999    0.0347000000000000 H
   0.8324200000000000    0.4571400000000000    0.1209100000000000 H
   0.7948200000000000    0.3287600000000000    0.0980500000000000 H
   0.8020200000000000    0.2558200000000000    0.9837500000000000 H
   0.8520700000000000    0.2921900000000000    0.8782200000000000 H
   0.1561300000000000    0.4901700000000000    0.5333100000000000 H
   0.3719400000000000    0.4211400000000000    0.3610900000000000 H
   0.3957300000000000    0.3178100000000000    0.2749300000000000 H
   0.3190000000000000    0.2084500000000000    0.2490100000000000 H
   0.1972500000000000    0.1767000000000000    0.2996800000000000 H
   0.1215800000000000    0.2454100000000000    0.3903000000000000 H
   0.5614100000000000    0.0086700000000000    0.0327300000000000 C
   0.6153300000000000    0.9611200000000000    0.0456200000000000 C
   0.6874900000000000    0.9539400000000000    0.0080900000000000 C
   0.7266100000000000    0.8870500000000000    0.0330100000000000 C
   0.6783100000000000    0.8492600000000000    0.0887000000000000 C
   0.6076000000000000    0.8972700000000000    0.0975900000000000 C
   0.6958900000000000    0.7805900000000000    0.1272500000000000 C
   0.6527100000000000    0.7412400000000000    0.1828000000000000 C
   0.5810400000000000    0.7607400000000000    0.2155500000000000 C
   0.5338400000000000    0.8246900000000000    0.2002800000000000 C
   0.5454900000000000    0.8847300000000000    0.1478600000000000 C
   0.8043200000000000    0.8648300000000000    0.0058500000000000 C
   0.9857500000000000    0.0342900000000000    0.6351400000000000 C
   0.0268000000000000    0.0000000000000000    0.5977300000000000 C
   0.0320800000000000    0.9315900000000000    0.6429000000000000 C
   0.0685900000000000    0.0054600000000000    0.5319400000000000 C
   0.5320100000000000    0.2506600000000000    0.8705400000000000 C
   0.5496100000000000    0.2663100000000000    0.7891600000000000 C
   0.6229300000000000    0.2519500000000000    0.7565000000000000 C
   0.6246699999999999    0.2758300000000000    0.6790600000000000 C
   0.5497300000000001    0.3061200000000000    0.6601000000000000 C
   0.5012200000000000    0.2990700000000000    0.7305100000000000 C
   0.5279199999999999    0.3364500000000000    0.5887500000000000 C
   0.4559900000000000    0.3656400000000000    0.5655500000000000 C
   0.3868500000000000    0.3709400000000000    0.6075000000000000 C
   0.3722700000000000    0.3498300000000000    0.6839499999999999 C
   0.4229500000000000    0.3186900000000000    0.7385500000000000 C
   0.6954100000000000    0.2709100000000000    0.6322000000000000 C
   0.6830700000000000    0.2170400000000000    0.1270100000000000 C
   0.7475300000000000    0.2008700000000000    0.1798000000000000 C
   0.7542400000000000    0.2368000000000000    0.2528300000000000 C
   0.8198400000000000    0.2089700000000000    0.2920600000000000 C
   0.8573800000000000    0.1529400000000000    0.2429300000000000 C
   0.8107100000000000    0.1473100000000000    0.1712700000000000 C
   0.9247500000000000    0.1115100000000000    0.2605300000000000 C
   0.9642700000000000    0.0562200000000000    0.2160000000000000 C
   0.9463600000000000    0.0268300000000000    0.1425300000000000 C
   0.8836000000000001    0.0451700000000000    0.0949000000000000 C
   0.8237000000000000    0.0983700000000000    0.1077500000000000 C
   0.8411600000000000    0.2352300000000000    0.3701400000000000 C
   0.4692000000000000    0.1319600000000000    0.2471900000000000 C
   0.4847800000000000    0.0785100000000000    0.3105000000000000 C
   0.4486700000000000    0.0056400000000000    0.3163200000000000 C
   0.4781000000000000    0.9829900000000000    0.3806400000000000 C
   0.5341100000000000    0.0134800000000000    0.4180000000000000 C
   0.5393500000000000    0.0856800000000000    0.3727400000000000 C
   0.5777400000000000    0.0000000000000000    0.4837400000000000 C
   0.6338900000000000    0.0371600000000000    0.5224000000000000 C
   0.6635500000000000    0.1104500000000000    0.5051800000000000 C
   0.6435900000000000    0.1595800000000000    0.4446100000000000 C
   0.5886700000000000    0.1486300000000000    0.3861000000000000 C
   0.4519800000000000    0.9048500000000000    0.4010400000000000 C
   0.4373700000000000    0.3994300000000000    0.0974800000000000 C
   0.4203200000000000    0.4811100000000000    0.1149000000000000 C
   0.4350400000000000    0.5155300000000000    0.1875300000000000 C
   0.4097300000000000    0.5930600000000000    0.1887600000000000 C
   0.4146400000000000    0.6420000000000000    0.2583700000000000 C
   0.3862700000000000    0.5389400000000000    0.0664900000000000 C
   0.3656700000000000    0.5292900000000000    0.0000000000000000 C
   0.3339800000000000    0.5831400000000000    0.9532500000000000 C
   0.3126100000000000    0.6602200000000000    0.9670100000000000 C
   0.3177300000000000    0.7036900000000000    0.0000000000000000 C
   0.3475900000000000    0.6816600000000000    0.0918200000000000 C
   0.3785600000000000    0.6103800000000000    0.1141300000000000 C
   0.5741000000000001    0.6599500000000000    0.5208800000000000 C
   0.6518300000000000    0.6376800000000000    0.5475700000000000 C
   0.6890600000000000    0.5693000000000000    0.5228400000000000 C
   0.7620500000000000    0.5622500000000000    0.5585300000000000 C
   0.7724200000000000    0.6278300000000000    0.6090800000000000 C
   0.7020400000000000    0.6764900000000000    0.6015800000000000 C
   0.8361499999999999    0.6410900000000000    0.6573900000000000 C
   0.8502300000000000    0.7026400000000000    0.7086200000000000 C
   0.8041600000000000    0.7675400000000000    0.7246600000000000 C
   0.7315900000000000    0.7867000000000000    0.6941400000000000 C
   0.6863200000000000    0.7463300000000000    0.6401500000000000 C
   0.8129500000000000    0.4952000000000000    0.5450000000000000 C
   0.0532100000000000    0.0000000000000000    0.9825400000000000 C
   0.1054600000000000    0.0561300000000000    0.9690000000000000 C
   0.1775900000000000    0.0633300000000000    0.0000000000000000 C
   0.2167900000000000    0.1301200000000000    0.9821800000000001 C
   0.1686000000000000    0.1678400000000000    0.9263600000000000 C
   0.0978600000000000    0.1198700000000000    0.9174800000000000 C
   0.1862500000000000    0.2364500000000000    0.8877300000000000 C
   0.1431700000000000    0.2757100000000000    0.8319900000000000 C
   0.0715800000000000    0.2561300000000000    0.7991600000000000 C
   0.0243500000000000    0.1922100000000000    0.8144600000000000 C
   0.0358600000000000    0.1323000000000000    0.8670500000000000 C
   0.2945000000000000    0.1523700000000000    0.0000000000000000 C
   0.0000000000000000    0.7669300000000000    0.1447800000000000 C
   0.0420600000000000    0.7513400000000000    0.2261800000000000 C
   0.1153800000000000    0.7657000000000000    0.2588600000000000 C
   0.1170600000000000    0.7418700000000000    0.3363200000000000 C
   0.0420800000000000    0.7116300000000000    0.3552300000000000 C
   0.0000000000000000    0.7186399999999999    0.2848100000000000 C
   0.0201900000000000    0.6813300000000000    0.4266000000000000 C
   0.9649500000000000    0.6521600000000000    0.4497300000000000 C
   0.8958500000000000    0.6468300000000000    0.4077200000000000 C
   0.8813500000000000    0.6678900000000000    0.3312400000000000 C
   0.9320800000000000    0.6990100000000000    0.2766900000000000 C
   0.1877700000000000    0.7467200000000001    0.3832000000000000 C
   0.9785199999999999    0.8850300000000000    0.7684600000000000 C
   0.9942299999999999    0.9386300000000000    0.7050999999999999 C
   0.9580700000000000    0.0000000000000000    0.6994000000000000 C
   0.1264400000000000    0.9801100000000000    0.4932000000000000 C
   0.1561800000000000    0.9068700000000000    0.5104500000000000 C
   0.1363200000000000    0.8577500000000000    0.5710800000000000 C
   0.0814200000000000    0.8686700000000001    0.6295500000000001 C
   0.9596500000000000    0.1124800000000000    0.6147100000000000 C
   0.9482200000000000    0.6169500000000000    0.9178800000000000 C
   0.9300000000000000    0.5354900000000000    0.9005800000000000 C
   0.9443100000000000    0.5007300000000000    0.8280900000000000 C
   0.9175400000000000    0.4237100000000000    0.8268500000000000 C
   0.9215800000000000    0.3745000000000000    0.7573500000000000 C
   0.8947200000000000    0.4784000000000000    0.9490200000000000 C
   0.8750300000000000    0.4886200000000000    0.0112300000000000 C
   0.8420900000000000    0.4355000000000000    0.0621100000000000 C
   0.8196200000000000    0.3587000000000000    0.0484800000000000 C
   0.8245300000000000    0.3149100000000000    0.9802500000000000 C
   0.8538400000000000    0.3362900000000000    0.9238700000000000 C
   0.8858800000000000    0.4070500000000000    0.9014500000000000 C
   0.0653800000000000    0.3576300000000000    0.4947500000000000 C
   0.1431100000000000    0.3799100000000000    0.4680000000000000 C
   0.1803900000000000    0.4483100000000000    0.4927300000000000 C
   0.2534000000000000    0.4552800000000000    0.4570300000000000 C
   0.2637000000000000    0.3896200000000000    0.4065000000000000 C
   0.1932800000000000    0.3410200000000000    0.4141000000000000 C
   0.3274100000000000    0.3762000000000000    0.3582800000000000 C
   0.3413900000000000    0.3145500000000000    0.3071400000000000 C
   0.2952100000000000    0.2497200000000000    0.2911200000000000 C
   0.2226000000000000    0.2306900000000000    0.3216300000000000 C
   0.1774300000000000    0.2711700000000000    0.3755900000000000 C
   0.3044200000000000    0.5222900000000000    0.4700400000000000 C
   0.8781000000000000    0.4921500000000000    0.5820500000000000 O
   0.7891800000000000    0.4433900000000000    0.4973700000000000 O
   0.0000000000000000    0.0000000000000000    0.9414000000000000 O
   0.0722600000000000    0.9597500000000000    0.0196600000000000 O
   0.4990800000000000    0.0136200000000000    0.0738800000000000 O
   0.5793700000000001    0.0576200000000000    0.9956700000000001 O
   0.8405000000000000    0.9158800000000000    0.9814800000000000 O
   0.8307500000000000    0.7974800000000000    0.0229500000000000 O
   0.5873200000000000    0.2205100000000000    0.9102400000000000 O
   0.4644500000000000    0.2680600000000000    0.8969600000000000 O
   0.7511100000000001    0.2304000000000000    0.6600400000000000 O
   0.6980700000000000    0.3062300000000000    0.5669000000000000 O
   0.6796800000000000    0.1798800000000000    0.0619200000000000 O
   0.6337900000000000    0.2685000000000000    0.1487900000000000 O
   0.9048800000000000    0.2107600000000000    0.3998000000000000 O
   0.7930500000000000    0.2817100000000000    0.4037200000000000 O
   0.5077199999999999    0.1959400000000000    0.2436500000000000 O
   0.4169200000000000    0.1119100000000000    0.1977100000000000 O
   0.4749500000000000    0.8753800000000000    0.4649600000000000 O
   0.4069500000000000    0.8710500000000000    0.3517900000000000 O
   0.4680000000000000    0.3599400000000000    0.1525500000000000 O
   0.4206100000000000    0.3722900000000000    0.0300600000000000 O
   0.4580500000000000    0.6173400000000000    0.3132100000000000 O
   0.3762500000000000    0.7061900000000000    0.2610000000000000 O
   0.5465500000000000    0.7260600000000000    0.5421600000000000 O
   0.5388900000000000    0.6104400000000000    0.4773100000000000 O
   0.3316500000000000    0.1013700000000000    0.0339400000000000 O
   0.3210100000000000    0.2196200000000000    0.9921200000000000 O
   0.0798800000000000    0.7970300000000000    0.1051200000000000 O
   0.9737000000000000    0.7495400000000000    0.1183200000000000 O
   0.2436900000000000    0.7868700000000000    0.3552200000000000 O
   0.1902000000000000    0.7117200000000000    0.4486600000000000 O
   0.0000000000000000    0.8210499999999999    0.7722100000000000 O
   0.9259200000000000    0.9052100000000000    0.8175600000000000 O
   0.9827800000000000    0.1420700000000000    0.5508999999999999 O
   0.9144500000000000    0.1462600000000000    0.6638200000000000 O
   0.9797200000000000    0.6554700000000000    0.8625900000000000 O
   0.9316500000000000    0.6448300000000000    0.9850400000000000 O
   0.9661000000000000    0.3976200000000000    0.7027000000000000 O
   0.8812500000000000    0.3115200000000000    0.7545700000000000 O
   0.0377800000000000    0.2915300000000000    0.4734000000000000 O
   0.0301900000000000    0.4071500000000000    0.5383200000000000 O
   0.3696300000000000    0.5252500000000000    0.4336000000000000 O
   0.2806300000000000    0.5741800000000000    0.5180800000000000 O
   0.0000000000000000    0.8166800000000000    0.9595300000000000 O
   0.4919200000000000    0.2001700000000000    0.0549100000000000 O
   0.3807900000000000    0.7128600000000000    0.4511000000000000 O
   0.8887100000000000    0.3045300000000000    0.5644800000000000 O
