H12 O8
1.0
  14.9377660029624693    0.0000000000000000    4.1142657717676236
   3.1368421746768962   14.6135862572483823    4.1801576373540668
   0.0000000000000000    0.0000000000000000   15.5109999999999992
H O
12 8
direct
   0.5608259563302498   -0.0048697107403736    0.1800184778150690 H
   0.3231219388173336    0.9688578258104495    1.1525041755085084 H
   0.4377411429622299    0.9806915137104805    1.1781897106688146 H
   0.1806174858974671   -0.0047646257297630    0.5601382065504412 H
   1.1523325661598471    0.9694166815644160    0.3228792822156492 H
   1.1784042790065892    0.9810467139168565    0.4372246155445864 H
   0.4392216453021345    1.0048616155923660    0.8196668622279391 H
   0.6768741664789949    0.0312063376847351   -0.1526733931469254 H
   0.5622701881156207    0.0193301666717009   -0.1784186427963869 H
   0.8195828007961935    1.0047485233068594    0.4397234269777643 H
  -0.1522113114219034    0.0307059346474907    0.6769689064074954 H
  -0.1782377738500684    0.0190082747425066    0.5626328699686615 H
   0.5219700000000000   -0.0068500000000000    0.1410900000000000 O
   0.3849300000000000    0.9780000000000000    1.1252800000000001 O
   0.1415100000000000   -0.0067199999999999    0.5214500000000000 O
   1.1252700000000000    0.9783900000000000    0.3846600000000000 O
   0.4780600000000000    1.0068700000000002    0.8586000000000000 O
   0.6150600000000001    0.0220600000000000   -0.1254999999999999 O
   0.8586700000000000    1.0067300000000001    0.4784200000000000 O
  -0.1251400000000000    0.0217000000000000    0.6152000000000000 O
