P1 H9 C7 O9
1.0
  15.6318651370747475    0.0000000000000000    0.0649333220088063
   0.0006984446037999   10.6809939238069340    0.0113715335135009
   0.0000000000000000    0.0000000000000000   35.9099999999999966
P H C O
1 9 7 9
direct
   0.1728900000000000    0.9294000000000000    0.8964200000000000 P
   0.3841750000000000    0.0629000000000000    0.0344350000000000 H
   0.3011300000000000    0.8838500000000000    0.8434950000000000 H
   0.3618850000000000    0.9497000000000000    0.8791400000000000 H
   0.2465300000000000    0.7986200000000000    0.9585450000000000 H
   0.3405100000000000    0.7261300000000001    0.9426500000000000 H
   0.4191500000000000    0.9221700000000000    0.9399600000000000 H
   0.3262900000000000    0.0145600000000000    0.9417750000000000 H
   0.4662800000000000    0.6227200000000001    0.8709600000000000 H
   0.1766350000000000    0.5368200000000000    0.9033249999999999 H
   0.4061850000000000    0.7766300000000000    0.8603950000000000 C
   0.3325400000000000    0.8616000000000000    0.8699900000000000 C
   0.2669400000000000    0.8161300000000000    0.8992350000000000 C
   0.3013250000000000    0.8107200000000000    0.9396949999999999 C
   0.3536600000000000    0.9252000000000000    0.9516050000000000 C
   0.3638700000000000    0.9364400000000001    0.9932200000000000 C
   0.2303750000000000    0.6910500000000001    0.8871400000000000 C
   0.3592300000000000    0.8428500000000000    0.0143150000000000 O
   0.3806550000000000    0.0513700000000000    0.0045600000000000 O
   0.4558100000000000    0.8045099999999999    0.8344400000000001 O
   0.4148700000000000    0.6756200000000000    0.8811599999999999 O
   0.2191400000000000    0.6667900000000000    0.8534900000000001 O
   0.2076050000000000    0.6135800000000000    0.9139850000000000 O
   0.1325350000000000    0.9124600000000000    0.8573750000000000 O
   0.2145350000000000    0.0625200000000000    0.8997850000000001 O
   0.1114450000000000    0.9011800000000000    0.9281699999999999 O
