Ca16 P15 H135 C105 O135
1.0
  15.6318651370747475    0.0000000000000000    0.0649333220088063
   0.0006984446037999   10.6809939238069340    0.0113715335135009
   0.0000000000000000    0.0000000000000000   35.9099999999999966
Ca P H C O
16 15 135 105 135
direct
   0.0967400000000000    0.7357300000000000    0.3227500000000000 Ca
   0.3449700000000000    0.7641100000000000    0.0729750000000000 Ca
   0.4031550000000000    0.2632000000000000    0.1772050000000000 Ca
   0.1548600000000000    0.2359900000000000    0.4272200000000000 Ca
   0.5967400000000000    0.7357300000000000    0.3227500000000000 Ca
   0.8449700000000000    0.7641100000000000    0.0729750000000000 Ca
   0.9031549999999999    0.2632000000000000    0.1772050000000000 Ca
   0.6548600000000000    0.2359900000000000    0.4272200000000000 Ca
   0.0967400000000000    0.7357300000000000    0.8227500000000000 Ca
   0.3449700000000000    0.7641100000000000    0.5729750000000000 Ca
   0.4031550000000000    0.2632000000000000    0.6772050000000001 Ca
   0.1548600000000000    0.2359900000000000    0.9272199999999999 Ca
   0.5967400000000000    0.7357300000000000    0.8227500000000000 Ca
   0.8449700000000000    0.7641100000000000    0.5729750000000000 Ca
   0.9031549999999999    0.2632000000000000    0.6772050000000001 Ca
   0.6548600000000000    0.2359900000000000    0.9272199999999999 Ca
   0.0787300000000000    0.4291300000000000    0.3534250000000000 P
   0.1728900000000000    0.9294000000000000    0.3964200000000000 P
   0.4212700000000000    0.5696500000000000    0.1465200000000000 P
   0.3269100000000000    0.0695900000000000    0.1035500000000000 P
   0.5787300000000000    0.4291300000000000    0.3534250000000000 P
   0.6728900000000000    0.9294000000000000    0.3964200000000000 P
   0.9212700000000000    0.5696500000000000    0.1465200000000000 P
   0.8269100000000000    0.0695900000000000    0.1035500000000000 P
   0.0787300000000000    0.4291300000000000    0.8534250000000000 P
   0.4212700000000000    0.5696500000000000    0.6465200000000000 P
   0.3269100000000000    0.0695900000000000    0.6035500000000000 P
   0.5787300000000000    0.4291300000000000    0.8534250000000000 P
   0.6728900000000000    0.9294000000000000    0.8964200000000000 P
   0.9212700000000000    0.5696500000000000    0.6465200000000000 P
   0.8269100000000000    0.0695900000000000    0.6035500000000000 P
   0.4508050000000000    0.3833800000000000    0.4064900000000000 H
   0.3899350000000000    0.4498100000000000    0.3709300000000000 H
   0.0047700000000000    0.3001000000000000    0.2913200000000000 H
   0.4115150000000000    0.2256700000000000    0.3072700000000000 H
   0.3313800000000000    0.4205600000000000    0.3104700000000000 H
   0.4244950000000000    0.5129700000000000    0.3080550000000000 H
   0.2854200000000000    0.1229600000000000    0.3789500000000000 H
   0.1342950000000000    0.4367600000000000    0.2844650000000000 H
   0.0753450000000000    0.0371400000000000    0.3465400000000000 H
   0.3011300000000000    0.8838500000000000    0.3434950000000000 H
   0.3618850000000000    0.9497000000000000    0.3791400000000000 H
   0.2465300000000000    0.7986200000000000    0.4585450000000000 H
   0.3405100000000000    0.7261300000000001    0.4426500000000000 H
   0.4191500000000000    0.9221700000000000    0.4399600000000000 H
   0.3262900000000000    0.0145600000000000    0.4417750000000000 H
   0.4662800000000000    0.6227200000000001    0.3709600000000000 H
   0.1176200000000000    0.9376300000000000    0.4654600000000000 H
   0.1766350000000000    0.5368200000000000    0.4033250000000000 H
   0.0496700000000000    0.6165600000000000    0.0936200000000000 H
   0.1109150000000000    0.5507500000000000    0.1291550000000000 H
   0.4950350000000000    0.6986200000000000    0.2088200000000000 H
   0.0884350000000000    0.7729300000000000    0.1929600000000000 H
   0.1682200000000000    0.5776400000000000    0.1895400000000000 H
   0.0749400000000000    0.4856400000000000    0.1919450000000000 H
   0.2143100000000000    0.8783000000000000    0.1211200000000000 H
   0.3656550000000000    0.5611100000000000    0.2155050000000000 H
   0.4248800000000000    0.9623500000000000    0.1535050000000000 H
   0.1983650000000000    0.1154500000000000    0.1564800000000000 H
   0.1371950000000000    0.0500300000000000    0.1208900000000000 H
   0.2531600000000000    0.1991600000000000    0.0413550000000000 H
   0.1594750000000000    0.2725900000000000    0.0571950000000000 H
   0.0801950000000000    0.0768800000000000    0.0602350000000000 H
   0.1746350000000000    0.9868700000000000    0.0582200000000000 H
   0.0338950000000000    0.3776100000000000    0.1290000000000000 H
   0.3234750000000000    0.4615500000000000    0.0965700000000000 H
   0.9508050000000000    0.3833800000000000    0.4064900000000000 H
   0.8899349999999999    0.4498100000000000    0.3709300000000000 H
   0.5047700000000001    0.3001000000000000    0.2913200000000000 H
   0.9115150000000001    0.2256700000000000    0.3072700000000000 H
   0.8313800000000000    0.4205600000000000    0.3104700000000000 H
   0.9244950000000001    0.5129700000000000    0.3080550000000000 H
   0.7854200000000000    0.1229600000000000    0.3789500000000000 H
   0.6342950000000001    0.4367600000000000    0.2844650000000000 H
   0.5753450000000000    0.0371400000000000    0.3465400000000000 H
   0.8011300000000000    0.8838500000000000    0.3434950000000000 H
   0.8618850000000000    0.9497000000000000    0.3791400000000000 H
   0.7465300000000000    0.7986200000000000    0.4585450000000000 H
   0.8405100000000000    0.7261300000000001    0.4426500000000000 H
   0.9191500000000000    0.9221700000000000    0.4399600000000000 H
   0.8262900000000000    0.0145600000000000    0.4417750000000000 H
   0.9662800000000000    0.6227200000000001    0.3709600000000000 H
   0.6176200000000001    0.9376300000000000    0.4654600000000000 H
   0.6766350000000000    0.5368200000000000    0.4033250000000000 H
   0.5496700000000000    0.6165600000000000    0.0936200000000000 H
   0.6109150000000000    0.5507500000000000    0.1291550000000000 H
   0.9950350000000000    0.6986200000000000    0.2088200000000000 H
   0.5884350000000000    0.7729300000000000    0.1929600000000000 H
   0.6682200000000000    0.5776400000000000    0.1895400000000000 H
   0.5749400000000000    0.4856400000000000    0.1919450000000000 H
   0.7143100000000000    0.8783000000000000    0.1211200000000000 H
   0.8656550000000001    0.5611100000000000    0.2155050000000000 H
   0.9248799999999999    0.9623500000000000    0.1535050000000000 H
   0.6983650000000000    0.1154500000000000    0.1564800000000000 H
   0.6371950000000000    0.0500300000000000    0.1208900000000000 H
   0.7531600000000001    0.1991600000000000    0.0413550000000000 H
   0.6594750000000000    0.2725900000000000    0.0571950000000000 H
   0.5801950000000000    0.0768800000000000    0.0602350000000000 H
   0.6746350000000000    0.9868700000000000    0.0582200000000000 H
   0.5338950000000000    0.3776100000000000    0.1290000000000000 H
   0.8841749999999999    0.0629000000000000    0.0344350000000000 H
   0.8234750000000000    0.4615500000000000    0.0965700000000000 H
   0.4508050000000000    0.3833800000000000    0.9064900000000000 H
   0.3899350000000000    0.4498100000000000    0.8709300000000000 H
   0.0047700000000000    0.3001000000000000    0.7913200000000000 H
   0.4115150000000000    0.2256700000000000    0.8072699999999999 H
   0.3313800000000000    0.4205600000000000    0.8104700000000000 H
   0.4244950000000000    0.5129700000000000    0.8080550000000000 H
   0.2854200000000000    0.1229600000000000    0.8789500000000000 H
   0.1342950000000000    0.4367600000000000    0.7844650000000000 H
   0.0753450000000000    0.0371400000000000    0.8465400000000001 H
   0.1176200000000000    0.9376300000000000    0.9654600000000000 H
   0.0496700000000000    0.6165600000000000    0.5936200000000000 H
   0.1109150000000000    0.5507500000000000    0.6291550000000000 H
   0.4950350000000000    0.6986200000000000    0.7088200000000000 H
   0.0884350000000000    0.7729300000000000    0.6929600000000000 H
   0.1682200000000000    0.5776400000000000    0.6895400000000000 H
   0.0749400000000000    0.4856400000000000    0.6919450000000000 H
   0.2143100000000000    0.8783000000000000    0.6211200000000000 H
   0.3656550000000000    0.5611100000000000    0.7155050000000001 H
   0.4248800000000000    0.9623500000000000    0.6535050000000000 H
   0.1983650000000000    0.1154500000000000    0.6564800000000000 H
   0.1371950000000000    0.0500300000000000    0.6208899999999999 H
   0.2531600000000000    0.1991600000000000    0.5413550000000000 H
   0.1594750000000000    0.2725900000000000    0.5571950000000000 H
   0.0801950000000000    0.0768800000000000    0.5602350000000000 H
   0.1746350000000000    0.9868700000000000    0.5582200000000000 H
   0.0338950000000000    0.3776100000000000    0.6290000000000000 H
   0.3841750000000000    0.0629000000000000    0.5344350000000000 H
   0.3234750000000000    0.4615500000000000    0.5965700000000000 H
   0.9508050000000000    0.3833800000000000    0.9064900000000000 H
   0.8899349999999999    0.4498100000000000    0.8709300000000000 H
   0.5047700000000001    0.3001000000000000    0.7913200000000000 H
   0.9115150000000001    0.2256700000000000    0.8072699999999999 H
   0.8313800000000000    0.4205600000000000    0.8104700000000000 H
   0.9244950000000001    0.5129700000000000    0.8080550000000000 H
   0.7854200000000000    0.1229600000000000    0.8789500000000000 H
   0.6342950000000001    0.4367600000000000    0.7844650000000000 H
   0.5753450000000000    0.0371400000000000    0.8465400000000001 H
   0.8011300000000000    0.8838500000000000    0.8434950000000000 H
   0.8618850000000000    0.9497000000000000    0.8791400000000000 H
   0.7465300000000000    0.7986200000000000    0.9585450000000000 H
   0.8405100000000000    0.7261300000000001    0.9426500000000000 H
   0.9191500000000000    0.9221700000000000    0.9399600000000000 H
   0.8262900000000000    0.0145600000000000    0.9417750000000000 H
   0.9662800000000000    0.6227200000000001    0.8709600000000000 H
   0.6176200000000001    0.9376300000000000    0.9654600000000000 H
   0.6766350000000000    0.5368200000000000    0.9033249999999999 H
   0.5496700000000000    0.6165600000000000    0.5936200000000000 H
   0.6109150000000000    0.5507500000000000    0.6291550000000000 H
   0.9950350000000000    0.6986200000000000    0.7088200000000000 H
   0.5884350000000000    0.7729300000000000    0.6929600000000000 H
   0.6682200000000000    0.5776400000000000    0.6895400000000000 H
   0.5749400000000000    0.4856400000000000    0.6919450000000000 H
   0.7143100000000000    0.8783000000000000    0.6211200000000000 H
   0.8656550000000001    0.5611100000000000    0.7155050000000001 H
   0.9248799999999999    0.9623500000000000    0.6535050000000000 H
   0.6983650000000000    0.1154500000000000    0.6564800000000000 H
   0.6371950000000000    0.0500300000000000    0.6208899999999999 H
   0.7531600000000001    0.1991600000000000    0.5413550000000000 H
   0.6594750000000000    0.2725900000000000    0.5571950000000000 H
   0.5801950000000000    0.0768800000000000    0.5602350000000000 H
   0.6746350000000000    0.9868700000000000    0.5582200000000000 H
   0.5338950000000000    0.3776100000000000    0.6290000000000000 H
   0.8841749999999999    0.0629000000000000    0.5344350000000000 H
   0.8234750000000000    0.4615500000000000    0.5965700000000000 H
   0.3456500000000000    0.2764300000000000    0.3896000000000000 C
   0.4192400000000000    0.3615300000000000    0.3800150000000000 C
   0.4846150000000000    0.3161500000000000    0.3506950000000000 C
   0.4499950000000000    0.3109000000000000    0.3102550000000000 C
   0.3965300000000000    0.4245400000000000    0.2984900000000000 C
   0.3850050000000000    0.4353600000000000    0.2569050000000000 C
   0.0212650000000000    0.1909600000000000    0.3627700000000000 C
   0.4061850000000000    0.7766300000000000    0.3603950000000000 C
   0.3325400000000000    0.8616000000000000    0.3699900000000000 C
   0.2669400000000000    0.8161300000000000    0.3992350000000000 C
   0.3013250000000000    0.8107200000000000    0.4396950000000000 C
   0.3536600000000000    0.9252000000000000    0.4516050000000000 C
   0.3638700000000000    0.9364400000000001    0.4932200000000000 C
   0.2303750000000000    0.6910500000000001    0.3871400000000000 C
   0.1542050000000000    0.7247700000000000    0.1105150000000000 C
   0.0810700000000000    0.6386900000000000    0.1201050000000000 C
   0.0153300000000000    0.6830400000000000    0.1494300000000000 C
   0.0498300000000000    0.6878500000000000    0.1898900000000000 C
   0.1031050000000000    0.5738700000000000    0.2015650000000000 C
   0.1148200000000000    0.5626100000000001    0.2431300000000000 C
   0.4785650000000000    0.8081199999999999    0.1373600000000000 C
   0.0938750000000000    0.2238700000000000    0.1395650000000000 C
   0.1670150000000000    0.1378700000000000    0.1299850000000000 C
   0.2327400000000000    0.1826000000000000    0.1007000000000000 C
   0.1983450000000000    0.1877200000000000    0.0602350000000000 C
   0.1455400000000000    0.0735200000000000    0.0484600000000000 C
   0.1348900000000000    0.0622200000000000    0.0068600000000000 C
   0.2695250000000000    0.3075000000000000    0.1127650000000000 C
   0.8456500000000000    0.2764300000000000    0.3896000000000000 C
   0.9192400000000001    0.3615300000000000    0.3800150000000000 C
   0.9846150000000000    0.3161500000000000    0.3506950000000000 C
   0.9499949999999999    0.3109000000000000    0.3102550000000000 C
   0.8965300000000000    0.4245400000000000    0.2984900000000000 C
   0.8850050000000000    0.4353600000000000    0.2569050000000000 C
   0.5212650000000000    0.1909600000000000    0.3627700000000000 C
   0.9061850000000000    0.7766300000000000    0.3603950000000000 C
   0.8325400000000001    0.8616000000000000    0.3699900000000000 C
   0.7669400000000000    0.8161300000000000    0.3992350000000000 C
   0.8013250000000001    0.8107200000000000    0.4396950000000000 C
   0.8536600000000000    0.9252000000000000    0.4516050000000000 C
   0.8638700000000000    0.9364400000000001    0.4932200000000000 C
   0.7303750000000000    0.6910500000000001    0.3871400000000000 C
   0.6542050000000000    0.7247700000000000    0.1105150000000000 C
   0.5810700000000000    0.6386900000000000    0.1201050000000000 C
   0.5153300000000000    0.6830400000000000    0.1494300000000000 C
   0.5498300000000000    0.6878500000000000    0.1898900000000000 C
   0.6031050000000000    0.5738700000000000    0.2015650000000000 C
   0.6148200000000000    0.5626100000000001    0.2431300000000000 C
   0.9785650000000000    0.8081199999999999    0.1373600000000000 C
   0.5938750000000000    0.2238700000000000    0.1395650000000000 C
   0.6670150000000000    0.1378700000000000    0.1299850000000000 C
   0.7327399999999999    0.1826000000000000    0.1007000000000000 C
   0.6983450000000000    0.1877200000000000    0.0602350000000000 C
   0.6455400000000000    0.0735200000000000    0.0484600000000000 C
   0.6348900000000000    0.0622200000000000    0.0068600000000000 C
   0.7695250000000000    0.3075000000000000    0.1127650000000000 C
   0.3456500000000000    0.2764300000000000    0.8895999999999999 C
   0.4192400000000000    0.3615300000000000    0.8800150000000000 C
   0.4846150000000000    0.3161500000000000    0.8506950000000000 C
   0.4499950000000000    0.3109000000000000    0.8102549999999999 C
   0.3965300000000000    0.4245400000000000    0.7984899999999999 C
   0.3850050000000000    0.4353600000000000    0.7569049999999999 C
   0.0212650000000000    0.1909600000000000    0.8627700000000000 C
   0.1542050000000000    0.7247700000000000    0.6105150000000000 C
   0.0810700000000000    0.6386900000000000    0.6201050000000000 C
   0.0153300000000000    0.6830400000000000    0.6494300000000000 C
   0.0498300000000000    0.6878500000000000    0.6898900000000000 C
   0.1031050000000000    0.5738700000000000    0.7015650000000000 C
   0.1148200000000000    0.5626100000000001    0.7431300000000001 C
   0.4785650000000000    0.8081199999999999    0.6373600000000000 C
   0.0938750000000000    0.2238700000000000    0.6395649999999999 C
   0.1670150000000000    0.1378700000000000    0.6299850000000000 C
   0.2327400000000000    0.1826000000000000    0.6007000000000000 C
   0.1983450000000000    0.1877200000000000    0.5602350000000000 C
   0.1455400000000000    0.0735200000000000    0.5484599999999999 C
   0.1348900000000000    0.0622200000000000    0.5068600000000000 C
   0.2695250000000000    0.3075000000000000    0.6127650000000000 C
   0.8456500000000000    0.2764300000000000    0.8895999999999999 C
   0.9192400000000001    0.3615300000000000    0.8800150000000000 C
   0.9846150000000000    0.3161500000000000    0.8506950000000000 C
   0.9499949999999999    0.3109000000000000    0.8102549999999999 C
   0.8965300000000000    0.4245400000000000    0.7984899999999999 C
   0.8850050000000000    0.4353600000000000    0.7569049999999999 C
   0.5212650000000000    0.1909600000000000    0.8627700000000000 C
   0.9061850000000000    0.7766300000000000    0.8603950000000000 C
   0.8325400000000001    0.8616000000000000    0.8699900000000000 C
   0.7669400000000000    0.8161300000000000    0.8992350000000000 C
   0.8013250000000001    0.8107200000000000    0.9396949999999999 C
   0.8536600000000000    0.9252000000000000    0.9516050000000000 C
   0.8638700000000000    0.9364400000000001    0.9932200000000000 C
   0.7303750000000000    0.6910500000000001    0.8871400000000000 C
   0.6542050000000000    0.7247700000000000    0.6105150000000000 C
   0.5810700000000000    0.6386900000000000    0.6201050000000000 C
   0.5153300000000000    0.6830400000000000    0.6494300000000000 C
   0.5498300000000000    0.6878500000000000    0.6898900000000000 C
   0.6031050000000000    0.5738700000000000    0.7015650000000000 C
   0.6148200000000000    0.5626100000000001    0.7431300000000001 C
   0.9785650000000000    0.8081199999999999    0.6373600000000000 C
   0.5938750000000000    0.2238700000000000    0.6395649999999999 C
   0.6670150000000000    0.1378700000000000    0.6299850000000000 C
   0.7327399999999999    0.1826000000000000    0.6007000000000000 C
   0.6983450000000000    0.1877200000000000    0.5602350000000000 C
   0.6455400000000000    0.0735200000000000    0.5484599999999999 C
   0.6348900000000000    0.0622200000000000    0.5068600000000000 C
   0.7695250000000000    0.3075000000000000    0.6127650000000000 C
   0.2960500000000000    0.3038300000000000    0.4155950000000000 O
   0.3370200000000000    0.1757300000000000    0.3687750000000000 O
   0.3891300000000000    0.3416500000000000    0.2358750000000000 O
   0.3706250000000000    0.5492200000000000    0.2453750000000000 O
   0.0325800000000000    0.1663200000000000    0.3964150000000000 O
   0.0440450000000000    0.1138500000000000    0.3359050000000000 O
   0.1190500000000000    0.4122300000000000    0.3925000000000000 O
   0.0372400000000000    0.5612700000000000    0.3500800000000000 O
   0.1402900000000000    0.4003700000000000    0.3217700000000000 O
   0.4558100000000000    0.8045099999999999    0.3344400000000000 O
   0.4148700000000000    0.6756200000000000    0.3811600000000000 O
   0.2191400000000000    0.6667900000000000    0.3534900000000000 O
   0.2076050000000000    0.6135800000000000    0.4139850000000000 O
   0.1325350000000000    0.9124600000000000    0.3573750000000000 O
   0.2145350000000000    0.0625200000000000    0.3997850000000000 O
   0.1114450000000000    0.9011800000000000    0.4281700000000000 O
   0.2037650000000000    0.6979600000000000    0.0844500000000000 O
   0.1626850000000000    0.8255700000000000    0.1313200000000000 O
   0.1108050000000000    0.6561700000000000    0.2642150000000000 O
   0.1292650000000000    0.4486800000000000    0.2545850000000000 O
   0.4673350000000000    0.8324400000000000    0.1037000000000000 O
   0.4557100000000000    0.8854200000000000    0.1641700000000000 O
   0.3809600000000000    0.5867200000000000    0.1074550000000000 O
   0.4628400000000000    0.4375600000000000    0.1498200000000000 O
   0.3596400000000000    0.5976700000000000    0.1782050000000000 O
   0.0442950000000000    0.1968500000000000    0.1656200000000000 O
   0.0854500000000000    0.3248200000000000    0.1187600000000000 O
   0.1408800000000000    0.1553800000000000    0.4856750000000000 O
   0.1223600000000000    0.9495600000000000    0.4953300000000000 O
   0.2808100000000000    0.3315700000000000    0.1464250000000000 O
   0.2924850000000000    0.3848300000000000    0.0859250000000000 O
   0.3671400000000000    0.0862100000000000    0.1426450000000000 O
   0.2855250000000000    0.9385300000000000    0.1003400000000000 O
   0.3884250000000000    0.0986000000000000    0.0719050000000000 O
   0.7960499999999999    0.3038300000000000    0.4155950000000000 O
   0.8370200000000000    0.1757300000000000    0.3687750000000000 O
   0.8891300000000000    0.3416500000000000    0.2358750000000000 O
   0.8706250000000000    0.5492200000000000    0.2453750000000000 O
   0.5325800000000001    0.1663200000000000    0.3964150000000000 O
   0.5440450000000000    0.1138500000000000    0.3359050000000000 O
   0.6190500000000000    0.4122300000000000    0.3925000000000000 O
   0.5372400000000001    0.5612700000000000    0.3500800000000000 O
   0.6402900000000000    0.4003700000000000    0.3217700000000000 O
   0.9558100000000000    0.8045099999999999    0.3344400000000000 O
   0.9148700000000001    0.6756200000000000    0.3811600000000000 O
   0.8592299999999999    0.8428500000000000    0.0143150000000000 O
   0.8806550000000000    0.0513700000000000    0.0045600000000000 O
   0.7191400000000000    0.6667900000000000    0.3534900000000000 O
   0.7076050000000000    0.6135800000000000    0.4139850000000000 O
   0.6325350000000000    0.9124600000000000    0.3573750000000000 O
   0.7145350000000000    0.0625200000000000    0.3997850000000000 O
   0.6114450000000000    0.9011800000000000    0.4281700000000000 O
   0.7037650000000000    0.6979600000000000    0.0844500000000000 O
   0.6626850000000000    0.8255700000000000    0.1313200000000000 O
   0.6108050000000000    0.6561700000000000    0.2642150000000000 O
   0.6292650000000000    0.4486800000000000    0.2545850000000000 O
   0.9673350000000001    0.8324400000000000    0.1037000000000000 O
   0.9557100000000001    0.8854200000000000    0.1641700000000000 O
   0.8809600000000000    0.5867200000000000    0.1074550000000000 O
   0.9628399999999999    0.4375600000000000    0.1498200000000000 O
   0.8596400000000000    0.5976700000000000    0.1782050000000000 O
   0.5442950000000000    0.1968500000000000    0.1656200000000000 O
   0.5854500000000000    0.3248200000000000    0.1187600000000000 O
   0.6408800000000000    0.1553800000000000    0.4856750000000000 O
   0.6223600000000000    0.9495600000000000    0.4953300000000000 O
   0.7808100000000000    0.3315700000000000    0.1464250000000000 O
   0.7924850000000000    0.3848300000000000    0.0859250000000000 O
   0.8671400000000000    0.0862100000000000    0.1426450000000000 O
   0.7855250000000000    0.9385300000000000    0.1003400000000000 O
   0.8884250000000000    0.0986000000000000    0.0719050000000000 O
   0.2960500000000000    0.3038300000000000    0.9155949999999999 O
   0.3370200000000000    0.1757300000000000    0.8687750000000001 O
   0.3891300000000000    0.3416500000000000    0.7358750000000001 O
   0.3706250000000000    0.5492200000000000    0.7453750000000000 O
   0.0325800000000000    0.1663200000000000    0.8964150000000000 O
   0.0440450000000000    0.1138500000000000    0.8359050000000000 O
   0.1190500000000000    0.4122300000000000    0.8925000000000001 O
   0.0372400000000000    0.5612700000000000    0.8500799999999999 O
   0.1402900000000000    0.4003700000000000    0.8217700000000000 O
   0.3592300000000000    0.8428500000000000    0.5143150000000000 O
   0.3806550000000000    0.0513700000000000    0.5045600000000000 O
   0.2037650000000000    0.6979600000000000    0.5844500000000000 O
   0.1626850000000000    0.8255700000000000    0.6313200000000000 O
   0.1108050000000000    0.6561700000000000    0.7642150000000000 O
   0.1292650000000000    0.4486800000000000    0.7545850000000001 O
   0.4673350000000000    0.8324400000000000    0.6037000000000000 O
   0.4557100000000000    0.8854200000000000    0.6641700000000000 O
   0.3809600000000000    0.5867200000000000    0.6074550000000000 O
   0.4628400000000000    0.4375600000000000    0.6498200000000001 O
   0.3596400000000000    0.5976700000000000    0.6782049999999999 O
   0.0442950000000000    0.1968500000000000    0.6656200000000000 O
   0.0854500000000000    0.3248200000000000    0.6187600000000000 O
   0.1408800000000000    0.1553800000000000    0.9856750000000001 O
   0.1223600000000000    0.9495600000000000    0.9953300000000000 O
   0.2808100000000000    0.3315700000000000    0.6464250000000000 O
   0.2924850000000000    0.3848300000000000    0.5859250000000000 O
   0.3671400000000000    0.0862100000000000    0.6426450000000000 O
   0.2855250000000000    0.9385300000000000    0.6003400000000000 O
   0.3884250000000000    0.0986000000000000    0.5719050000000000 O
   0.7960499999999999    0.3038300000000000    0.9155949999999999 O
   0.8370200000000000    0.1757300000000000    0.8687750000000001 O
   0.8891300000000000    0.3416500000000000    0.7358750000000001 O
   0.8706250000000000    0.5492200000000000    0.7453750000000000 O
   0.5325800000000001    0.1663200000000000    0.8964150000000000 O
   0.5440450000000000    0.1138500000000000    0.8359050000000000 O
   0.6190500000000000    0.4122300000000000    0.8925000000000001 O
   0.5372400000000001    0.5612700000000000    0.8500799999999999 O
   0.6402900000000000    0.4003700000000000    0.8217700000000000 O
   0.9558100000000000    0.8045099999999999    0.8344400000000001 O
   0.9148700000000001    0.6756200000000000    0.8811599999999999 O
   0.8592299999999999    0.8428500000000000    0.5143150000000000 O
   0.8806550000000000    0.0513700000000000    0.5045600000000000 O
   0.7191400000000000    0.6667900000000000    0.8534900000000001 O
   0.7076050000000000    0.6135800000000000    0.9139850000000000 O
   0.6325350000000000    0.9124600000000000    0.8573750000000000 O
   0.7145350000000000    0.0625200000000000    0.8997850000000001 O
   0.6114450000000000    0.9011800000000000    0.9281699999999999 O
   0.7037650000000000    0.6979600000000000    0.5844500000000000 O
   0.6626850000000000    0.8255700000000000    0.6313200000000000 O
   0.6108050000000000    0.6561700000000000    0.7642150000000000 O
   0.6292650000000000    0.4486800000000000    0.7545850000000001 O
   0.9673350000000001    0.8324400000000000    0.6037000000000000 O
   0.9557100000000001    0.8854200000000000    0.6641700000000000 O
   0.8809600000000000    0.5867200000000000    0.6074550000000000 O
   0.9628399999999999    0.4375600000000000    0.6498200000000001 O
   0.8596400000000000    0.5976700000000000    0.6782049999999999 O
   0.5442950000000000    0.1968500000000000    0.6656200000000000 O
   0.5854500000000000    0.3248200000000000    0.6187600000000000 O
   0.6408800000000000    0.1553800000000000    0.9856750000000001 O
   0.6223600000000000    0.9495600000000000    0.9953300000000000 O
   0.7808100000000000    0.3315700000000000    0.6464250000000000 O
   0.7924850000000000    0.3848300000000000    0.5859250000000000 O
   0.8671400000000000    0.0862100000000000    0.6426450000000000 O
   0.7855250000000000    0.9385300000000000    0.6003400000000000 O
   0.8884250000000000    0.0986000000000000    0.5719050000000000 O
