H5 C6 N2 O2
1.0
  31.1696207221745816    0.0000000000000000  -14.8678142319503319
  -9.3782823308805749   14.3477043957470780   -2.3559293483789472
   0.0000000000000000    0.0000000000000000   34.5880000000000010
H C N O
5 6 2 2
direct
   0.5634450000000000    0.3129700000000000    0.0186650000000000 H
   0.4562200000000000    0.0289400000000000    0.9303600000000001 H
   0.6227300000000000    0.3593600000000000    0.9799500000000000 H
   0.5881200000000000    0.1919700000000000    0.8997600000000000 H
   0.5156650000000000    0.0923500000000000    0.9017500000000001 H
   0.4884350000000000    0.0999100000000000    0.9454500000000000 C
   0.5444750000000000    0.2470100000000000    0.9907349999999999 C
   0.5570200000000000    0.2267900000000000    0.9592600000000000 C
   0.5983950000000000    0.2866000000000000    0.9555150000000000 C
   0.6104450000000000    0.2629800000000000    0.9254350000000000 C
   0.6540350000000000    0.3343200000000000    0.9254700000000000 C
   0.5019600000000000    0.1675900000000000    0.9819050000000000 N
   0.5205700000000000    0.1325300000000000    0.9311600000000000 N
   0.6625650000000000    0.3033700000000000    0.8949700000000000 O
   0.6806200000000000    0.4179800000000000    0.9523250000000000 O
