H3 O2
1.0
  31.1696207221745816    0.0000000000000000  -14.8678142319503319
  -9.3782823308805749   14.3477043957470780   -2.3559293483789472
   0.0000000000000000    0.0000000000000000   34.5880000000000010
H O
3 2
direct
   0.6562297874310395    0.3263564981253607    0.9176222840976899 H
   0.5321482984622502    0.2239831474508269    0.9881748500628406 H
   0.4920925689956763    0.1182127186415803    0.9553085343983275 H
   0.6625650000000000    0.3033700000000000    0.8949700000000000 O
   0.5019600000000000    0.1675900000000000    0.9819050000000000 O
