Zn32 H315 C378 N126 O126
1.0
  31.1696207221745816    0.0000000000000000  -14.8678142319503319
  -9.3782823308805749   14.3477043957470780   -2.3559293483789472
   0.0000000000000000    0.0000000000000000   34.5880000000000010
Zn H C N O
32 315 378 126 126
direct
   0.4415600000000000    0.0372200000000000    0.2991550000000000 Zn
   0.0583950000000000    0.9627100000000000    0.2007950000000000 Zn
   0.3084800000000000    0.2162000000000000    0.0765650000000000 Zn
   0.0310950000000000    0.8471900000000000    0.4815200000000000 Zn
   0.2808850000000000    0.5984000000000000    0.1079500000000000 Zn
   0.2190950000000000    0.4016200000000000    0.3919750000000000 Zn
   0.4688950000000000    0.1528200000000000    0.0184500000000000 Zn
   0.1914700000000000    0.7837200000000000    0.4233500000000000 Zn
   0.9415600000000000    0.0372200000000000    0.2991550000000000 Zn
   0.5583950000000000    0.9627100000000000    0.2007950000000000 Zn
   0.8084800000000000    0.2162000000000000    0.0765650000000000 Zn
   0.5310950000000000    0.8471900000000000    0.4815200000000000 Zn
   0.7808850000000001    0.5984000000000000    0.1079500000000000 Zn
   0.7190950000000000    0.4016200000000000    0.3919750000000000 Zn
   0.9688950000000001    0.1528200000000000    0.0184500000000000 Zn
   0.6914700000000000    0.7837200000000000    0.4233500000000000 Zn
   0.4415600000000000    0.0372200000000000    0.7991550000000001 Zn
   0.0583950000000000    0.9627100000000000    0.7007950000000001 Zn
   0.3084800000000000    0.2162000000000000    0.5765650000000000 Zn
   0.0310950000000000    0.8471900000000000    0.9815199999999999 Zn
   0.2808850000000000    0.5984000000000000    0.6079500000000000 Zn
   0.2190950000000000    0.4016200000000000    0.8919750000000000 Zn
   0.4688950000000000    0.1528200000000000    0.5184500000000000 Zn
   0.1914700000000000    0.7837200000000000    0.9233500000000000 Zn
   0.9415600000000000    0.0372200000000000    0.7991550000000001 Zn
   0.5583950000000000    0.9627100000000000    0.7007950000000001 Zn
   0.8084800000000000    0.2162000000000000    0.5765650000000000 Zn
   0.5310950000000000    0.8471900000000000    0.9815199999999999 Zn
   0.7808850000000001    0.5984000000000000    0.6079500000000000 Zn
   0.7190950000000000    0.4016200000000000    0.8919750000000000 Zn
   0.9688950000000001    0.1528200000000000    0.5184500000000000 Zn
   0.6914700000000000    0.7837200000000000    0.9233500000000000 Zn
   0.1674750000000000    0.8866900000000000    0.4859150000000000 H
   0.1099800000000000    0.8093200000000000    0.3427600000000000 H
   0.0480700000000000    0.8815499999999999    0.3196350000000000 H
   0.0557450000000000    0.9879599999999999    0.4043600000000000 H
   0.2654600000000000    0.9990800000000000    0.4435500000000000 H
   0.2342100000000000    0.7543900000000000    0.3575100000000000 H
   0.3087650000000000    0.8380900000000000    0.3362150000000000 H
   0.3662100000000000    0.0527800000000000    0.3755250000000000 H
   0.1065050000000000    0.9408200000000000    0.4540900000000000 H
   0.3319700000000000    0.0514600000000000    0.4214100000000000 H
   0.4159300000000000    0.8608900000000000    0.2242750000000000 H
   0.3618500000000000    0.0376900000000000    0.2048500000000000 H
   0.3003550000000000    0.9606000000000000    0.1072200000000000 H
   0.3039900000000000    0.7996700000000000    0.0620500000000000 H
   0.0151900000000000    0.1450100000000000    0.2648850000000000 H
   0.4835700000000000    0.2532100000000000    0.3563450000000000 H
   0.0579850000000000    0.4443600000000000    0.3890800000000000 H
   0.1162550000000000    0.4816200000000000    0.3396300000000000 H
   0.3558550000000000    0.8037100000000000    0.1364800000000000 H
   0.0815750000000000    0.3217900000000000    0.3053000000000000 H
   0.0840350000000000    0.1390500000000000    0.2756800000000000 H
   0.1381150000000000    0.9622400000000000    0.2950500000000000 H
   0.1997250000000000    0.0395100000000000    0.3927400000000000 H
   0.1959850000000000    0.2002800000000000    0.4378550000000000 H
   0.4847700000000000    0.8549600000000001    0.2350450000000000 H
   0.0164500000000000    0.7466699999999999    0.1436600000000000 H
   0.4419050000000000    0.5556000000000000    0.1108100000000000 H
   0.3837350000000000    0.5183200000000000    0.1603450000000000 H
   0.1441250000000000    0.1962400000000000    0.3634650000000000 H
   0.4183850000000000    0.6781900000000000    0.1946150000000000 H
   0.3325250000000000    0.1132800000000000    0.0140600000000000 H
   0.3900150000000000    0.1907300000000000    0.1572150000000000 H
   0.4519650000000000    0.1185500000000000    0.1803700000000000 H
   0.4442050000000000    0.0119700000000000    0.0956250000000000 H
   0.2345150000000000    0.0009400000000000    0.0563650000000000 H
   0.2658000000000000    0.2456300000000000    0.1424500000000000 H
   0.1912150000000000    0.1619100000000000    0.1637500000000000 H
   0.1337650000000000    0.9472300000000000    0.1244500000000000 H
   0.3934900000000000    0.0591600000000000    0.0459000000000000 H
   0.1680200000000000    0.9485700000000000    0.0785500000000000 H
   0.0437450000000000    0.9711000000000000    0.0696150000000000 H
   0.4365900000000000    0.6870400000000000    0.4813250000000000 H
   0.3771950000000000    0.6406600000000000    0.0199150000000000 H
   0.4118450000000000    0.8080400000000000    0.1001800000000000 H
   0.4433000000000000    0.8871000000000000    0.4275200000000000 H
   0.4800700000000000    0.7144500000000000    0.3734500000000000 H
   0.4171100000000000    0.6718499999999999    0.2777300000000000 H
   0.3487100000000000    0.7504000000000000    0.2591850000000000 H
   0.4843000000000000    0.9076500000000000    0.0982100000000000 H
   0.3951200000000000    0.8424900000000000    0.3390350000000000 H
   0.2926000000000000    0.4485400000000000    0.0565350000000000 H
   0.1877150000000000    0.4099100000000000    0.0952400000000000 H
   0.1289550000000000    0.2146600000000000    0.0593750000000000 H
   0.1606150000000000    0.1242500000000000    0.0059050000000000 H
   0.1928600000000000    0.5299000000000000    0.0002700000000000 H
   0.2300550000000000    0.7137600000000000    0.1226750000000000 H
   0.1671800000000000    0.7794800000000000    0.0808100000000000 H
   0.0990000000000000    0.6798100000000000    0.4734550000000000 H
   0.2341450000000000    0.2730600000000000    0.0296200000000000 H
   0.1448250000000000    0.6110500000000000    0.4740300000000000 H
   0.2074250000000000    0.5515099999999999    0.4434650000000000 H
   0.3122500000000000    0.5900700000000000    0.4046500000000000 H
   0.3710650000000000    0.7853400000000000    0.4406100000000000 H
   0.3393700000000000    0.8757500000000000    0.4940350000000000 H
   0.3071550000000000    0.4701900000000000    0.4997000000000000 H
   0.2698450000000000    0.2861100000000000    0.3773000000000000 H
   0.3327800000000000    0.2205300000000000    0.4191750000000000 H
   0.4009850000000000    0.3201600000000000    0.0265350000000000 H
   0.2659050000000000    0.7270000000000000    0.4703850000000000 H
   0.3551650000000000    0.3889900000000000    0.0259750000000000 H
   0.4562200000000000    0.0289400000000000    0.4303600000000000 H
   0.0634450000000000    0.3129700000000000    0.0186650000000000 H
   0.1227300000000000    0.3593600000000000    0.4799500000000000 H
   0.0881200000000000    0.1919700000000000    0.3997600000000000 H
   0.0566750000000000    0.1128800000000000    0.0724500000000000 H
   0.0199200000000000    0.2855500000000000    0.1265150000000000 H
   0.0828700000000000    0.3281500000000000    0.2222350000000000 H
   0.1512850000000000    0.2496200000000000    0.2407700000000000 H
   0.0156650000000000    0.0923500000000000    0.4017500000000000 H
   0.1048750000000000    0.1575200000000000    0.1609400000000000 H
   0.6674750000000000    0.8866900000000000    0.4859150000000000 H
   0.6099800000000000    0.8093200000000000    0.3427600000000000 H
   0.5480700000000001    0.8815499999999999    0.3196350000000000 H
   0.5557450000000000    0.9879599999999999    0.4043600000000000 H
   0.7654600000000000    0.9990800000000000    0.4435500000000000 H
   0.7342100000000000    0.7543900000000000    0.3575100000000000 H
   0.8087650000000000    0.8380900000000000    0.3362150000000000 H
   0.8662099999999999    0.0527800000000000    0.3755250000000000 H
   0.6065050000000000    0.9408200000000000    0.4540900000000000 H
   0.8319700000000000    0.0514600000000000    0.4214100000000000 H
   0.9159300000000000    0.8608900000000000    0.2242750000000000 H
   0.8618500000000000    0.0376900000000000    0.2048500000000000 H
   0.8003549999999999    0.9606000000000000    0.1072200000000000 H
   0.8039900000000000    0.7996700000000000    0.0620500000000000 H
   0.5151900000000000    0.1450100000000000    0.2648850000000000 H
   0.9835700000000001    0.2532100000000000    0.3563450000000000 H
   0.5579850000000000    0.4443600000000000    0.3890800000000000 H
   0.6162550000000000    0.4816200000000000    0.3396300000000000 H
   0.8558550000000000    0.8037100000000000    0.1364800000000000 H
   0.5815750000000000    0.3217900000000000    0.3053000000000000 H
   0.5840350000000000    0.1390500000000000    0.2756800000000000 H
   0.6381150000000000    0.9622400000000000    0.2950500000000000 H
   0.6997250000000000    0.0395100000000000    0.3927400000000000 H
   0.6959850000000000    0.2002800000000000    0.4378550000000000 H
   0.9847699999999999    0.8549600000000001    0.2350450000000000 H
   0.5164500000000000    0.7466699999999999    0.1436600000000000 H
   0.9419050000000000    0.5556000000000000    0.1108100000000000 H
   0.8837349999999999    0.5183200000000000    0.1603450000000000 H
   0.6441250000000001    0.1962400000000000    0.3634650000000000 H
   0.9183850000000000    0.6781900000000000    0.1946150000000000 H
   0.8325250000000000    0.1132800000000000    0.0140600000000000 H
   0.8900150000000000    0.1907300000000000    0.1572150000000000 H
   0.9519650000000000    0.1185500000000000    0.1803700000000000 H
   0.9442050000000000    0.0119700000000000    0.0956250000000000 H
   0.7345150000000000    0.0009400000000000    0.0563650000000000 H
   0.7658000000000000    0.2456300000000000    0.1424500000000000 H
   0.6912150000000000    0.1619100000000000    0.1637500000000000 H
   0.6337650000000000    0.9472300000000000    0.1244500000000000 H
   0.8934900000000000    0.0591600000000000    0.0459000000000000 H
   0.6680200000000001    0.9485700000000000    0.0785500000000000 H
   0.5437450000000000    0.9711000000000000    0.0696150000000000 H
   0.9365900000000000    0.6870400000000000    0.4813250000000000 H
   0.8771949999999999    0.6406600000000000    0.0199150000000000 H
   0.9118450000000000    0.8080400000000000    0.1001800000000000 H
   0.9433000000000000    0.8871000000000000    0.4275200000000000 H
   0.9800700000000000    0.7144500000000000    0.3734500000000000 H
   0.9171100000000000    0.6718499999999999    0.2777300000000000 H
   0.8487100000000001    0.7504000000000000    0.2591850000000000 H
   0.9843000000000000    0.9076500000000000    0.0982100000000000 H
   0.8951200000000000    0.8424900000000000    0.3390350000000000 H
   0.7926000000000000    0.4485400000000000    0.0565350000000000 H
   0.6877150000000000    0.4099100000000000    0.0952400000000000 H
   0.6289549999999999    0.2146600000000000    0.0593750000000000 H
   0.6606150000000000    0.1242500000000000    0.0059050000000000 H
   0.6928600000000000    0.5299000000000000    0.0002700000000000 H
   0.7300550000000000    0.7137600000000000    0.1226750000000000 H
   0.6671800000000000    0.7794800000000000    0.0808100000000000 H
   0.5990000000000000    0.6798100000000000    0.4734550000000000 H
   0.7341450000000000    0.2730600000000000    0.0296200000000000 H
   0.6448250000000000    0.6110500000000000    0.4740300000000000 H
   0.7074250000000000    0.5515099999999999    0.4434650000000000 H
   0.8122500000000000    0.5900700000000000    0.4046500000000000 H
   0.8710650000000000    0.7853400000000000    0.4406100000000000 H
   0.8393699999999999    0.8757500000000000    0.4940350000000000 H
   0.8071550000000001    0.4701900000000000    0.4997000000000000 H
   0.7698450000000000    0.2861100000000000    0.3773000000000000 H
   0.8327800000000001    0.2205300000000000    0.4191750000000000 H
   0.9009849999999999    0.3201600000000000    0.0265350000000000 H
   0.7659050000000001    0.7270000000000000    0.4703850000000000 H
   0.8551650000000000    0.3889900000000000    0.0259750000000000 H
   0.9562200000000001    0.0289400000000000    0.4303600000000000 H
   0.6227300000000000    0.3593600000000000    0.4799500000000000 H
   0.5881200000000000    0.1919700000000000    0.3997600000000000 H
   0.5566750000000000    0.1128800000000000    0.0724500000000000 H
   0.5199200000000000    0.2855500000000000    0.1265150000000000 H
   0.5828700000000000    0.3281500000000000    0.2222350000000000 H
   0.6512850000000000    0.2496200000000000    0.2407700000000000 H
   0.5156650000000000    0.0923500000000000    0.4017500000000000 H
   0.6048750000000001    0.1575200000000000    0.1609400000000000 H
   0.1674750000000000    0.8866900000000000    0.9859150000000000 H
   0.1099800000000000    0.8093200000000000    0.8427600000000000 H
   0.0480700000000000    0.8815499999999999    0.8196350000000000 H
   0.0557450000000000    0.9879599999999999    0.9043600000000001 H
   0.2654600000000000    0.9990800000000000    0.9435500000000000 H
   0.2342100000000000    0.7543900000000000    0.8575100000000000 H
   0.3087650000000000    0.8380900000000000    0.8362149999999999 H
   0.3662100000000000    0.0527800000000000    0.8755250000000000 H
   0.1065050000000000    0.9408200000000000    0.9540900000000000 H
   0.3319700000000000    0.0514600000000000    0.9214100000000001 H
   0.4159300000000000    0.8608900000000000    0.7242750000000000 H
   0.3618500000000000    0.0376900000000000    0.7048500000000000 H
   0.3003550000000000    0.9606000000000000    0.6072200000000000 H
   0.3039900000000000    0.7996700000000000    0.5620500000000000 H
   0.0151900000000000    0.1450100000000000    0.7648850000000000 H
   0.4835700000000000    0.2532100000000000    0.8563450000000000 H
   0.0579850000000000    0.4443600000000000    0.8890800000000000 H
   0.1162550000000000    0.4816200000000000    0.8396300000000000 H
   0.3558550000000000    0.8037100000000000    0.6364799999999999 H
   0.0815750000000000    0.3217900000000000    0.8053000000000000 H
   0.0840350000000000    0.1390500000000000    0.7756799999999999 H
   0.1381150000000000    0.9622400000000000    0.7950500000000000 H
   0.1997250000000000    0.0395100000000000    0.8927400000000000 H
   0.1959850000000000    0.2002800000000000    0.9378550000000000 H
   0.4847700000000000    0.8549600000000001    0.7350449999999999 H
   0.0164500000000000    0.7466699999999999    0.6436600000000000 H
   0.4419050000000000    0.5556000000000000    0.6108100000000000 H
   0.3837350000000000    0.5183200000000000    0.6603450000000000 H
   0.1441250000000000    0.1962400000000000    0.8634649999999999 H
   0.4183850000000000    0.6781900000000000    0.6946150000000000 H
   0.3325250000000000    0.1132800000000000    0.5140600000000000 H
   0.3900150000000000    0.1907300000000000    0.6572150000000000 H
   0.4519650000000000    0.1185500000000000    0.6803700000000000 H
   0.4442050000000000    0.0119700000000000    0.5956250000000000 H
   0.2345150000000000    0.0009400000000000    0.5563650000000000 H
   0.2658000000000000    0.2456300000000000    0.6424500000000000 H
   0.1912150000000000    0.1619100000000000    0.6637500000000001 H
   0.1337650000000000    0.9472300000000000    0.6244499999999999 H
   0.3934900000000000    0.0591600000000000    0.5459000000000001 H
   0.1680200000000000    0.9485700000000000    0.5785500000000000 H
   0.0437450000000000    0.9711000000000000    0.5696150000000000 H
   0.4365900000000000    0.6870400000000000    0.9813250000000000 H
   0.3771950000000000    0.6406600000000000    0.5199150000000000 H
   0.4118450000000000    0.8080400000000000    0.6001800000000000 H
   0.4433000000000000    0.8871000000000000    0.9275200000000000 H
   0.4800700000000000    0.7144500000000000    0.8734500000000001 H
   0.4171100000000000    0.6718499999999999    0.7777300000000000 H
   0.3487100000000000    0.7504000000000000    0.7591850000000000 H
   0.4843000000000000    0.9076500000000000    0.5982100000000000 H
   0.3951200000000000    0.8424900000000000    0.8390350000000000 H
   0.2926000000000000    0.4485400000000000    0.5565350000000000 H
   0.1877150000000000    0.4099100000000000    0.5952400000000000 H
   0.1289550000000000    0.2146600000000000    0.5593750000000000 H
   0.1606150000000000    0.1242500000000000    0.5059050000000000 H
   0.1928600000000000    0.5299000000000000    0.5002700000000000 H
   0.2300550000000000    0.7137600000000000    0.6226750000000000 H
   0.1671800000000000    0.7794800000000000    0.5808100000000000 H
   0.0990000000000000    0.6798100000000000    0.9734550000000000 H
   0.2341450000000000    0.2730600000000000    0.5296200000000000 H
   0.1448250000000000    0.6110500000000000    0.9740300000000000 H
   0.2074250000000000    0.5515099999999999    0.9434650000000000 H
   0.3122500000000000    0.5900700000000000    0.9046500000000000 H
   0.3710650000000000    0.7853400000000000    0.9406099999999999 H
   0.3393700000000000    0.8757500000000000    0.9940350000000000 H
   0.3071550000000000    0.4701900000000000    0.9997000000000000 H
   0.2698450000000000    0.2861100000000000    0.8773000000000000 H
   0.3327800000000000    0.2205300000000000    0.9191750000000001 H
   0.4009850000000000    0.3201600000000000    0.5265350000000000 H
   0.2659050000000000    0.7270000000000000    0.9703850000000001 H
   0.3551650000000000    0.3889900000000000    0.5259750000000000 H
   0.0634450000000000    0.3129700000000000    0.5186650000000000 H
   0.1227300000000000    0.3593600000000000    0.9799500000000000 H
   0.0881200000000000    0.1919700000000000    0.8997600000000000 H
   0.0566750000000000    0.1128800000000000    0.5724500000000000 H
   0.0199200000000000    0.2855500000000000    0.6265149999999999 H
   0.0828700000000000    0.3281500000000000    0.7222350000000000 H
   0.1512850000000000    0.2496200000000000    0.7407700000000000 H
   0.0156650000000000    0.0923500000000000    0.9017500000000001 H
   0.1048750000000000    0.1575200000000000    0.6609400000000000 H
   0.6674750000000000    0.8866900000000000    0.9859150000000000 H
   0.6099800000000000    0.8093200000000000    0.8427600000000000 H
   0.5480700000000001    0.8815499999999999    0.8196350000000000 H
   0.5557450000000000    0.9879599999999999    0.9043600000000001 H
   0.7654600000000000    0.9990800000000000    0.9435500000000000 H
   0.7342100000000000    0.7543900000000000    0.8575100000000000 H
   0.8087650000000000    0.8380900000000000    0.8362149999999999 H
   0.8662099999999999    0.0527800000000000    0.8755250000000000 H
   0.6065050000000000    0.9408200000000000    0.9540900000000000 H
   0.8319700000000000    0.0514600000000000    0.9214100000000001 H
   0.9159300000000000    0.8608900000000000    0.7242750000000000 H
   0.8618500000000000    0.0376900000000000    0.7048500000000000 H
   0.8003549999999999    0.9606000000000000    0.6072200000000000 H
   0.8039900000000000    0.7996700000000000    0.5620500000000000 H
   0.5151900000000000    0.1450100000000000    0.7648850000000000 H
   0.9835700000000001    0.2532100000000000    0.8563450000000000 H
   0.5579850000000000    0.4443600000000000    0.8890800000000000 H
   0.6162550000000000    0.4816200000000000    0.8396300000000000 H
   0.8558550000000000    0.8037100000000000    0.6364799999999999 H
   0.5815750000000000    0.3217900000000000    0.8053000000000000 H
   0.5840350000000000    0.1390500000000000    0.7756799999999999 H
   0.6381150000000000    0.9622400000000000    0.7950500000000000 H
   0.6997250000000000    0.0395100000000000    0.8927400000000000 H
   0.6959850000000000    0.2002800000000000    0.9378550000000000 H
   0.9847699999999999    0.8549600000000001    0.7350449999999999 H
   0.5164500000000000    0.7466699999999999    0.6436600000000000 H
   0.9419050000000000    0.5556000000000000    0.6108100000000000 H
   0.8837349999999999    0.5183200000000000    0.6603450000000000 H
   0.6441250000000001    0.1962400000000000    0.8634649999999999 H
   0.9183850000000000    0.6781900000000000    0.6946150000000000 H
   0.8325250000000000    0.1132800000000000    0.5140600000000000 H
   0.8900150000000000    0.1907300000000000    0.6572150000000000 H
   0.9519650000000000    0.1185500000000000    0.6803700000000000 H
   0.9442050000000000    0.0119700000000000    0.5956250000000000 H
   0.7345150000000000    0.0009400000000000    0.5563650000000000 H
   0.7658000000000000    0.2456300000000000    0.6424500000000000 H
   0.6912150000000000    0.1619100000000000    0.6637500000000001 H
   0.6337650000000000    0.9472300000000000    0.6244499999999999 H
   0.8934900000000000    0.0591600000000000    0.5459000000000001 H
   0.6680200000000001    0.9485700000000000    0.5785500000000000 H
   0.5437450000000000    0.9711000000000000    0.5696150000000000 H
   0.9365900000000000    0.6870400000000000    0.9813250000000000 H
   0.8771949999999999    0.6406600000000000    0.5199150000000000 H
   0.9118450000000000    0.8080400000000000    0.6001800000000000 H
   0.9433000000000000    0.8871000000000000    0.9275200000000000 H
   0.9800700000000000    0.7144500000000000    0.8734500000000001 H
   0.9171100000000000    0.6718499999999999    0.7777300000000000 H
   0.8487100000000001    0.7504000000000000    0.7591850000000000 H
   0.9843000000000000    0.9076500000000000    0.5982100000000000 H
   0.8951200000000000    0.8424900000000000    0.8390350000000000 H
   0.7926000000000000    0.4485400000000000    0.5565350000000000 H
   0.6877150000000000    0.4099100000000000    0.5952400000000000 H
   0.6289549999999999    0.2146600000000000    0.5593750000000000 H
   0.6606150000000000    0.1242500000000000    0.5059050000000000 H
   0.6928600000000000    0.5299000000000000    0.5002700000000000 H
   0.7300550000000000    0.7137600000000000    0.6226750000000000 H
   0.6671800000000000    0.7794800000000000    0.5808100000000000 H
   0.5990000000000000    0.6798100000000000    0.9734550000000000 H
   0.7341450000000000    0.2730600000000000    0.5296200000000000 H
   0.6448250000000000    0.6110500000000000    0.9740300000000000 H
   0.7074250000000000    0.5515099999999999    0.9434650000000000 H
   0.8122500000000000    0.5900700000000000    0.9046500000000000 H
   0.8710650000000000    0.7853400000000000    0.9406099999999999 H
   0.8393699999999999    0.8757500000000000    0.9940350000000000 H
   0.8071550000000001    0.4701900000000000    0.9997000000000000 H
   0.7698450000000000    0.2861100000000000    0.8773000000000000 H
   0.8327800000000001    0.2205300000000000    0.9191750000000001 H
   0.9009849999999999    0.3201600000000000    0.5265350000000000 H
   0.7659050000000001    0.7270000000000000    0.9703850000000001 H
   0.8551650000000000    0.3889900000000000    0.5259750000000000 H
   0.9562200000000001    0.0289400000000000    0.9303600000000001 H
   0.5634450000000000    0.3129700000000000    0.5186650000000000 H
   0.5566750000000000    0.1128800000000000    0.5724500000000000 H
   0.5199200000000000    0.2855500000000000    0.6265149999999999 H
   0.5828700000000000    0.3281500000000000    0.7222350000000000 H
   0.6512850000000000    0.2496200000000000    0.7407700000000000 H
   0.6048750000000001    0.1575200000000000    0.6609400000000000 H
   0.1462250000000000    0.8783800000000000    0.4501800000000000 C
   0.1160050000000000    0.8393600000000000    0.3760000000000000 C
   0.0953100000000000    0.8860300000000000    0.3863600000000000 C
   0.0613850000000000    0.9084100000000001    0.3563500000000000 C
   0.0444300000000000    0.9586700000000000    0.3684850000000000 C
   0.0083100000000000    0.9735300000000000    0.3326950000000000 C
   0.2680750000000000    0.9529500000000000    0.4215100000000000 C
   0.2526300000000000    0.8281800000000000    0.3763500000000000 C
   0.2922950000000000    0.9040000000000000    0.3787500000000000 C
   0.3191350000000000    0.9061000000000000    0.3563000000000000 C
   0.3544050000000000    0.9827000000000000    0.3567700000000000 C
   0.3785700000000000    0.9760600000000000    0.3311550000000000 C
   0.3954850000000000    0.8911300000000000    0.2071000000000000 C
   0.3670350000000000    0.9817800000000000    0.1960800000000000 C
   0.3458500000000000    0.9188300000000000    0.1522600000000000 C
   0.3122900000000000    0.9114800000000000    0.1072000000000000 C
   0.2941150000000000    0.8511800000000000    0.0652800000000000 C
   0.2584650000000000    0.8511600000000000    0.0217250000000000 C
   0.0176100000000000    0.1939800000000000    0.2905750000000000 C
   0.0020300000000000    0.2526800000000000    0.3377500000000000 C
   0.0417200000000000    0.3271100000000000    0.3395100000000000 C
   0.0685800000000000    0.4253100000000000    0.3654950000000000 C
   0.1041550000000000    0.4950000000000000    0.3627600000000000 C
   0.1283150000000000    0.5940500000000000    0.3905650000000000 C
   0.1044850000000000    0.1088000000000000    0.2928500000000000 C
   0.1329400000000000    0.0181700000000000    0.3038700000000000 C
   0.1541500000000000    0.0811500000000000    0.3476900000000000 C
   0.1877450000000000    0.0885500000000000    0.3927500000000000 C
   0.2058750000000000    0.1487900000000000    0.4346700000000000 C
   0.2415100000000000    0.1488200000000000    0.4782350000000000 C
   0.4823650000000000    0.8059800000000000    0.2093700000000000 C
   0.4979650000000000    0.7472500000000000    0.1622250000000000 C
   0.4582550000000000    0.6728400000000000    0.1604550000000000 C
   0.4313600000000000    0.5746400000000000    0.1344400000000000 C
   0.3957950000000000    0.5049400000000001    0.1371750000000000 C
   0.3716600000000000    0.4059100000000000    0.1093700000000000 C
   0.3537650000000000    0.1215900000000000    0.0497950000000000 C
   0.3839900000000000    0.1606800000000000    0.1239000000000000 C
   0.4046900000000000    0.1140000000000000    0.1136350000000000 C
   0.4386250000000000    0.0916400000000000    0.1436350000000000 C
   0.4555250000000000    0.0412700000000000    0.1315050000000000 C
   0.4916650000000000    0.0264400000000000    0.1672850000000000 C
   0.2319050000000000    0.0470600000000000    0.0784600000000000 C
   0.2473650000000000    0.1718400000000000    0.1236300000000000 C
   0.2077050000000000    0.0960300000000000    0.1212100000000000 C
   0.1808550000000000    0.0939200000000000    0.1436750000000000 C
   0.1455800000000000    0.0173100000000000    0.1432000000000000 C
   0.1214250000000000    0.0239800000000000    0.1688250000000000 C
   0.0115450000000000    0.9001100000000000    0.0545100000000000 C
   0.4555350000000000    0.7530100000000000    0.0092450000000000 C
   0.4429550000000000    0.7732100000000000    0.0406950000000000 C
   0.4015550000000000    0.7134000000000000    0.0444000000000000 C
   0.3895100000000000    0.7370300000000000    0.0744950000000000 C
   0.3459400000000000    0.6657000000000000    0.0744900000000000 C
   0.4444100000000000    0.8427500000000000    0.4030250000000000 C
   0.4619000000000000    0.7522000000000000    0.3737000000000000 C
   0.4263950000000000    0.7570000000000000    0.3364250000000000 C
   0.4030300000000000    0.7120200000000000    0.2872500000000000 C
   0.3651950000000000    0.7129600000000000    0.2524400000000000 C
   0.3432100000000000    0.6617800000000000    0.2028700000000000 C
   0.2609900000000000    0.4142100000000000    0.0607250000000000 C
   0.2061550000000000    0.3922800000000000    0.0800000000000000 C
   0.1934000000000000    0.3046400000000000    0.0569750000000000 C
   0.1523000000000000    0.2146000000000000    0.0458500000000000 C
   0.1393600000000000    0.1307600000000000    0.0206600000000000 C
   0.0962250000000000    0.0438000000000000    0.0133300000000000 C
   0.1940350000000000    0.5815700000000000    0.0233450000000000 C
   0.2117950000000000    0.6764200000000000    0.0857650000000000 C
   0.1763150000000000    0.6798999999999999    0.0478250000000000 C
   0.1531150000000000    0.7320400000000000    0.0467950000000000 C
   0.1154250000000000    0.7263600000000000    0.0085150000000000 C
   0.0934350000000000    0.7818400000000000    0.0119150000000000 C
   0.2390300000000000    0.5858300000000000    0.4392650000000000 C
   0.2938300000000000    0.6077200000000000    0.4197100000000000 C
   0.3066150000000000    0.6953700000000000    0.4430050000000000 C
   0.3477250000000000    0.7854100000000001    0.4541350000000000 C
   0.3606300000000000    0.8692500000000000    0.4792850000000000 C
   0.4037700000000000    0.9562000000000000    0.4866250000000000 C
   0.3059550000000000    0.4184800000000000    0.4766500000000000 C
   0.2881400000000000    0.3235200000000000    0.4142350000000000 C
   0.3236400000000000    0.3200800000000000    0.4521800000000000 C
   0.3468500000000000    0.2679600000000000    0.4531950000000000 C
   0.3845450000000000    0.2736300000000000    0.4914650000000000 C
   0.4065400000000000    0.2181600000000000    0.4880450000000000 C
   0.4884350000000000    0.0999100000000000    0.4454500000000000 C
   0.0444750000000000    0.2470100000000000    0.4907350000000000 C
   0.0570200000000000    0.2267900000000000    0.4592600000000000 C
   0.0983950000000000    0.2866000000000000    0.4555150000000000 C
   0.1104450000000000    0.2629800000000000    0.4254350000000000 C