Zn48 H98 C95 O192
1.0
  20.2159987683708628    0.0000000000000000    0.0070567150883577
   0.0191467372091755   23.1456400670251341   -0.4488644452113709
   0.0000000000000000    0.0000000000000000   14.8659999999999997
Zn H C O
48 98 95 192
direct
   0.2859700000000000    0.1274600000000000    0.6294800000000000 Zn
   0.4413000000000000    0.1298100000000000    0.6911100000000000 Zn
   0.4999900000000000    0.2500000000000000    0.0000000000000000 Zn
   0.7140100000000000    0.3725600000000000    0.3704800000000000 Zn
   0.5586800000000000    0.3702000000000000    0.3088500000000000 Zn
   0.2500000000000000    0.2500100000000000    0.4999800000000000 Zn
   0.7499800000000000    0.2500000000000000    0.4999800000000000 Zn
   0.4999900000000000    0.0000000000000000    0.9999900000000000 Zn
   0.5359400000000000    0.1225600000000000    0.8703400000000000 Zn
   0.6913000000000000    0.1202100000000000    0.8087500000000000 Zn
   0.7499800000000000    0.0000000000000000    0.4999700000000000 Zn
   0.7859600000000000    0.1274600000000000    0.6294800000000000 Zn
   0.9412900000000000    0.1298100000000000    0.6911100000000000 Zn
   0.0000000000000000    0.2500000000000000    0.0000000000000000 Zn
   0.2140200000000000    0.3725500000000000    0.3704800000000000 Zn
   0.0586900000000000    0.3702000000000000    0.3088000000000000 Zn
   0.4640500000000000    0.8774600000000000    0.1296000000000000 Zn
   0.3086900000000000    0.8798100000000000    0.1912100000000000 Zn
   0.0359500000000000    0.1225600000000000    0.8703400000000000 Zn
   0.1913100000000000    0.1202100000000000    0.8087400000000000 Zn
   0.2499900000000000    0.0000000000000000    0.4999700000000000 Zn
   0.0000000000000000    0.0000000000000000    0.0000000000000000 Zn
   0.9640400000000000    0.8774600000000000    0.1296200000000000 Zn
   0.8086800000000000    0.8798100000000000    0.1912200000000000 Zn
   0.4640400000000000    0.3774500000000000    0.1296200000000000 Zn
   0.3086800000000000    0.3798000000000000    0.1912100000000000 Zn
   0.0359600000000000    0.6225700000000000    0.8703300000000000 Zn
   0.1913100000000000    0.6202200000000000    0.8087400000000000 Zn
   0.2500000000000000    0.5000100000000000    0.4999700000000000 Zn
   0.0000100000000000    0.5000100000000000    0.9999900000000000 Zn
   0.4999900000000000    0.5000100000000000    0.0000000000000000 Zn
   0.5359500000000000    0.6225700000000000    0.8703400000000000 Zn
   0.6913000000000000    0.6202200000000000    0.8087500000000000 Zn
   0.7499900000000000    0.5000100000000000    0.4999800000000000 Zn
   0.9640300000000001    0.3774500000000000    0.1296200000000000 Zn
   0.8086700000000000    0.3798000000000000    0.1912100000000000 Zn
   0.2500000000000000    0.7500100000000000    0.4999800000000000 Zn
   0.2859700000000000    0.6274600000000000    0.6294700000000000 Zn
   0.4413000000000000    0.6298200000000000    0.6911100000000000 Zn
   0.5000000000000000    0.7500100000000000    0.0000000000000000 Zn
   0.7140200000000000    0.8725600000000000    0.3704800000000000 Zn
   0.5586900000000000    0.8702100000000000    0.3088400000000000 Zn
   0.7499900000000000    0.7500100000000000    0.4999800000000000 Zn
   0.7859600000000000    0.6274700000000000    0.6294800000000000 Zn
   0.9412900000000000    0.6298200000000000    0.6911100000000000 Zn
   0.0000100000000000    0.7500100000000000    0.9999900000000000 Zn
   0.2140300000000000    0.8725600000000000    0.3704800000000000 Zn
   0.0587000000000000    0.8702100000000000    0.3088500000000000 Zn
   0.4749100000000000    0.2627900000000000    0.7297200000000000 H
   0.1689900000000000    0.0953900000000000    0.4197800000000000 H
   0.3958500000000000    0.2515100000000000    0.5122500000000000 H
   0.6212000000000000    0.0717200000000000    0.6286000000000000 H
   0.3048000000000000    0.2810200000000000    0.0445500000000000 H
   0.6951800000000000    0.2189800000000000    0.9554500000000000 H
   0.5250000000000000    0.2372300000000000    0.2702900000000000 H
   0.8309700000000000    0.4046300000000000    0.5802000000000000 H
   0.6041299999999999    0.2484900000000000    0.4877000000000000 H
   0.3787800000000000    0.4283200000000000    0.3713200000000000 H
   0.1471800000000000    0.2408500000000000    0.7331299999999999 H
   0.3528400000000000    0.2591700000000000    0.2668500000000000 H
   0.8528100000000000    0.2591600000000000    0.2668400000000000 H
   0.6471300000000000    0.2408400000000000    0.7331000000000000 H
   0.3973000000000000    0.0091800000000000    0.7667900000000000 H
   0.6027500000000000    0.9908200000000000    0.2330900000000000 H
   0.4191800000000000    0.1547100000000000    0.0804600000000000 H
   0.6459300000000000    0.9985900000000000    0.9877000000000000 H
   0.8711600000000000    0.1781500000000000    0.8712000000000000 H
   0.7248700000000000    0.9872400000000000    0.7701100000000000 H
   0.9452199999999999    0.0309400000000000    0.5439200000000000 H
   0.5547600000000000    0.9690800000000001    0.4560100000000000 H
   0.9748900000000000    0.2627900000000000    0.7297200000000000 H
   0.7334465371162819    0.0594043066052709    0.3633760370828257 H
   0.7185684459469234    0.0337819138933323    0.2908157369535907 H
   0.6689800000000000    0.0953800000000000    0.4197900000000000 H
   0.8958400000000000    0.2515100000000000    0.5122400000000000 H
   0.1212100000000000    0.0717200000000000    0.6286300000000000 H
   0.8047900000000000    0.2810200000000000    0.0445800000000000 H
   0.1951900000000000    0.2190100000000000    0.9553800000000000 H
   0.0250300000000000    0.2372200000000000    0.2702700000000000 H
   0.3310000000000000    0.4046300000000000    0.5801600000000000 H
   0.1041400000000000    0.2485000000000000    0.4877100000000000 H
   0.8787700000000001    0.4282900000000000    0.3713300000000000 H
   0.2751200000000000    0.0127700000000000    0.2298300000000000 H
   0.5808600000000000    0.8453100000000000    0.9195600000000000 H
   0.3540600000000000    0.0014400000000000    0.0122200000000000 H
   0.1288200000000000    0.8218800000000001    0.1287500000000000 H
   0.9191200000000000    0.1547100000000000    0.0804000000000000 H
   0.1459400000000000    0.9985900000000000    0.9877500000000000 H
   0.3711700000000000    0.1781400000000000    0.8712000000000000 H
   0.2248800000000000    0.9872400000000000    0.7701000000000000 H
   0.4452300000000000    0.0310000000000000    0.5438100000000000 H
   0.0547700000000000    0.9690700000000000    0.4560500000000000 H
   0.8972400000000000    0.0092000000000000    0.7668500000000000 H
   0.1027100000000000    0.9908400000000001    0.2331400000000000 H
   0.7362067316379337    0.9452360291582514    0.2321348054045636 H
   0.0808000000000000    0.8453100000000000    0.9194800000000000 H
   0.8540500000000000    0.0014200000000000    0.0122000000000000 H
   0.6288200000000000    0.8218600000000000    0.1287500000000000 H
   0.2750500000000000    0.5127800000000000    0.2298000000000000 H
   0.5808300000000000    0.3453000000000000    0.9195500000000000 H
   0.3540600000000000    0.5014300000000000    0.0122000000000000 H
   0.1288200000000000    0.3218500000000000    0.1287000000000000 H
   0.9191300000000000    0.6547200000000000    0.0803900000000000 H
   0.1459300000000000    0.4985900000000000    0.9877600000000000 H
   0.3711700000000000    0.6781600000000000    0.8712000000000000 H
   0.2248500000000000    0.4872300000000000    0.7700900000000001 H
   0.4452300000000000    0.5309500000000000    0.5439100000000000 H
   0.0547600000000000    0.4690500000000000    0.4560500000000000 H
   0.8972599999999999    0.5092000000000000    0.7668300000000000 H
   0.1027200000000000    0.4908200000000000    0.2331000000000000 H
   0.3972600000000000    0.5092000000000000    0.7668400000000000 H
   0.6027400000000001    0.4908100000000000    0.2331000000000000 H
   0.4191500000000000    0.6547200000000000    0.0804200000000000 H
   0.6459200000000000    0.4985900000000000    0.9877600000000000 H
   0.8711600000000000    0.6781600000000000    0.8712000000000000 H
   0.7248800000000000    0.4872400000000000    0.7701200000000000 H
   0.5547500000000000    0.4690700000000000    0.4560400000000000 H
   0.9452199999999999    0.5309500000000000    0.5439200000000000 H
   0.7751200000000000    0.5127800000000000    0.2298400000000000 H
   0.0808400000000000    0.3453000000000000    0.9195500000000000 H
   0.8540500000000000    0.5014300000000000    0.0121900000000000 H
   0.6288100000000000    0.3218600000000000    0.1287600000000000 H
   0.3528300000000000    0.7591700000000000    0.2668300000000000 H
   0.1471400000000000    0.7408400000000001    0.7330900000000000 H
   0.4749500000000000    0.7628000000000000    0.7297000000000000 H
   0.1690000000000000    0.5953900000000000    0.4197800000000000 H
   0.3958600000000000    0.7515200000000000    0.5122500000000000 H
   0.6212100000000000    0.5717400000000000    0.6286300000000000 H
   0.3048100000000000    0.7810300000000000    0.0445300000000000 H
   0.6951900000000000    0.7190000000000000    0.9554200000000000 H
   0.5250400000000000    0.7372300000000001    0.2702600000000000 H
   0.8309900000000000    0.9046400000000000    0.5801800000000000 H
   0.6041299999999999    0.7485100000000000    0.4877000000000000 H
   0.3787800000000000    0.9283100000000000    0.3713200000000000 H
   0.6471500000000000    0.7408500000000000    0.7331100000000000 H
   0.8528400000000000    0.7591800000000000    0.2668600000000000 H
   0.9749100000000001    0.7627900000000000    0.7290000000000000 H
   0.6690000000000000    0.5953900000000000    0.4197600000000000 H
   0.8958500000000000    0.7515300000000000    0.5122600000000000 H
   0.1212100000000000    0.5717200000000000    0.6286200000000000 H
   0.8047900000000000    0.7810100000000000    0.0446200000000000 H
   0.1952000000000000    0.7190000000000000    0.9553600000000000 H
   0.0249900000000000    0.7372300000000001    0.2702800000000000 H
   0.3310100000000000    0.9046400000000000    0.5801600000000000 H
   0.1041400000000000    0.7485000000000001    0.4877000000000000 H
   0.8787700000000001    0.9283000000000000    0.3713300000000000 H
   0.4879800000000000    0.2402600000000000    0.7921000000000000 C
   0.1991500000000000    0.1218500000000000    0.4666000000000000 C
   0.3868700000000000    0.2151000000000000    0.5573000000000000 C
   0.5804500000000000    0.0878600000000000    0.6716600000000000 C
   0.3586300000000000    0.2884500000000000    0.0511100000000000 C
   0.6413500000000000    0.2115500000000000    0.9488799999999999 C
   0.5119700000000000    0.2597500000000000    0.2078200000000000 C
   0.8008200000000000    0.3781600000000000    0.5333599999999999 C
   0.6131100000000000    0.2849100000000000    0.4426200000000000 C
   0.4195300000000000    0.4121600000000000    0.3283000000000000 C
   0.1831200000000000    0.2261500000000000    0.6813100000000000 C
   0.3168700000000000    0.2738600000000000    0.3186500000000000 C
   0.8168600000000000    0.2738600000000000    0.3186500000000000 C
   0.6830900000000000    0.2261400000000000    0.6812900000000000 C
   0.4332000000000000    0.0238700000000000    0.8186099999999999 C
   0.5668200000000000    0.9761300000000001    0.1813100000000000 C
   0.4492200000000000    0.1282100000000000    0.0334600000000000 C
   0.6368900000000000    0.0349700000000000    0.9426300000000000 C
   0.8304200000000000    0.1620600000000000    0.8282000000000000 C
   0.7380500000000000    0.0097400000000000    0.7077000000000000 C
   0.8914000000000000    0.0385000000000000    0.5505600000000000 C
   0.6085700000000001    0.9615300000000000    0.4493700000000000 C
   0.9879500000000000    0.2402600000000000    0.7921800000000000 C
   0.6991400000000000    0.1218500000000000    0.4666100000000000 C
   0.8868600000000000    0.2151000000000000    0.5573399999999999 C
   0.0804600000000000    0.0878600000000000    0.6716000000000000 C
   0.8586100000000000    0.2884500000000000    0.0511200000000000 C
   0.1413700000000000    0.2115700000000000    0.9488000000000000 C
   0.0120000000000000    0.2597500000000000    0.2078000000000000 C
   0.3008400000000000    0.3781700000000000    0.5333400000000000 C
   0.1131200000000000    0.2849100000000000    0.4426200000000000 C
   0.9195200000000000    0.4121500000000000    0.3283000000000000 C
   0.2619300000000000    0.9902700000000000    0.2922400000000000 C
   0.5507800000000000    0.8718100000000000    0.9665200000000000 C
   0.3631000000000000    0.9650600000000000    0.0573000000000000 C
   0.1695700000000000    0.8379600000000000    0.1717000000000000 C
   0.9492000000000000    0.1282100000000000    0.0334400000000000 C
   0.1369000000000000    0.0349700000000000    0.9426300000000000 C
   0.3304300000000000    0.1620600000000000    0.8282000000000000 C
   0.2380600000000000    0.0097400000000000    0.7076900000000000 C
   0.3914100000000000    0.0385300000000000    0.5505100000000001 C
   0.1085800000000000    0.9615200000000000    0.4494000000000000 C
   0.9331700000000001    0.0238800000000000    0.8186400000000000 C
   0.0668100000000000    0.9761400000000000    0.1813300000000000 C
   0.0507500000000000    0.8718100000000000    0.9664700000000001 C
   0.8630800000000000    0.9650400000000000    0.0573300000000000 C
   0.6695600000000000    0.8379500000000000    0.1717000000000000 C
   0.2619000000000000    0.4902600000000000    0.2922300000000000 C
   0.5507700000000000    0.3718000000000000    0.9665200000000000 C
   0.3630900000000000    0.4650400000000000    0.0573300000000000 C
   0.1695600000000000    0.3379400000000000    0.1717000000000000 C
   0.9492000000000000    0.6282200000000000    0.0334300000000000 C
   0.1369100000000000    0.5349800000000000    0.9426300000000000 C
   0.3304300000000000    0.6620700000000000    0.8282000000000000 C
   0.2380500000000000    0.5097500000000000    0.7076800000000000 C
   0.3914200000000000    0.5385100000000000    0.5505500000000000 C
   0.1085800000000000    0.4615000000000000    0.4494000000000000 C
   0.9331800000000000    0.5238900000000000    0.8186300000000000 C
   0.0668100000000000    0.4761300000000000    0.1813200000000000 C
   0.4331800000000000    0.5238900000000000    0.8186400000000000 C
   0.5668100000000000    0.4761300000000000    0.1813100000000000 C
   0.4492200000000000    0.6282200000000000    0.0334000000000000 C
   0.6369000000000000    0.5349800000000000    0.9426300000000000 C
   0.8304200000000000    0.6620700000000000    0.8282000000000000 C
   0.7380600000000000    0.5097500000000000    0.7077100000000000 C
   0.6085700000000001    0.4615100000000000    0.4494000000000000 C
   0.8914000000000000    0.5385100000000000    0.5505600000000000 C
   0.7619200000000000    0.4902600000000000    0.2922500000000000 C
   0.0507800000000000    0.3718000000000000    0.9665000000000000 C
   0.8630800000000000    0.4650400000000000    0.0573200000000000 C
   0.6695500000000000    0.3379400000000000    0.1717600000000000 C
   0.3168700000000000    0.7738699999999999    0.3186000000000000 C
   0.1831100000000000    0.7261500000000000    0.6812000000000000 C
   0.4880000000000000    0.7402700000000000    0.7921600000000000 C
   0.1991600000000000    0.6218600000000000    0.4666000000000000 C
   0.3868800000000000    0.7151100000000000    0.5573399999999999 C
   0.5804600000000000    0.5878700000000000    0.6716600000000000 C
   0.3586300000000000    0.7884600000000000    0.0510800000000000 C
   0.6413600000000000    0.7115700000000000    0.9488700000000000 C
   0.5119899999999999    0.7597600000000000    0.2078000000000000 C
   0.8008300000000000    0.8781700000000000    0.5333599999999999 C
   0.6131100000000000    0.7849200000000000    0.4426200000000000 C
   0.4195300000000000    0.9121600000000000    0.3282900000000000 C
   0.6831000000000000    0.7261500000000000    0.6812900000000000 C
   0.8168800000000001    0.7738699999999999    0.3186600000000000 C
   0.9879700000000000    0.7402700000000000    0.7921600000000000 C
   0.6991600000000000    0.6218600000000000    0.4665900000000000 C
   0.8868700000000000    0.7151100000000000    0.5573399999999999 C
   0.0804600000000000    0.5878700000000000    0.6716500000000000 C
   0.8586200000000000    0.7884400000000000    0.0511600000000000 C
   0.1413700000000000    0.7115800000000000    0.9488100000000000 C
   0.0119800000000000    0.7597600000000000    0.2078000000000000 C
   0.3008500000000000    0.8781700000000000    0.5333400000000000 C
   0.1131200000000000    0.7849200000000000    0.4426100000000000 C
   0.9195300000000000    0.9121600000000000    0.3283100000000000 C
   0.4999200000000000    0.2700500000000000    0.8613600000000000 O
   0.4895800000000000    0.1847500000000000    0.7859800000000000 O
   0.1941500000000000    0.1755100000000000    0.4639300000000000 O
   0.2362700000000000    0.0927800000000000    0.5203200000000000 O
   0.4358000000000000    0.1947300000000000    0.5978300000000000 O
   0.3262400000000000    0.1982800000000000    0.5627500000000000 O
   0.5244700000000000    0.0924500000000000    0.6354700000000000 O
   0.5948200000000000    0.0998000000000000    0.7540100000000000 O
   0.3965300000000000    0.2598600000000000    0.0005000000000000 O
   0.3756400000000000    0.3262000000000000    0.1116500000000000 O
   0.6034500000000000    0.2401500000000000    0.9994800000000000 O
   0.6243400000000000    0.1738000000000000    0.8883500000000000 O
   0.5000500000000000    0.2299600000000000    0.1386000000000000 O
   0.5104000000000000    0.3152700000000000    0.2139900000000000 O
   0.8058300000000000    0.3245000000000000    0.5360300000000000 O
   0.7637100000000000    0.4072300000000000    0.4796300000000000 O
   0.5641800000000000    0.3052900000000000    0.4021300000000000 O
   0.6737400000000000    0.3017400000000000    0.4372100000000000 O
   0.4755100000000000    0.4075700000000000    0.3644800000000000 O
   0.4051600000000000    0.4002200000000000    0.2459500000000000 O
   0.1967100000000000    0.2604300000000000    0.6199300000000000 O
   0.2061000000000000    0.1748900000000000    0.6912700000000001 O
   0.3032900000000000    0.2395900000000000    0.3800300000000000 O
   0.2939000000000000    0.3251200000000000    0.3086900000000000 O
   0.8032800000000000    0.2395800000000000    0.3800300000000000 O
   0.7938900000000000    0.3251200000000000    0.3086900000000000 O
   0.6966800000000000    0.2604200000000000    0.6199200000000000 O
   0.7060800000000000    0.1748900000000000    0.6912700000000001 O
   0.4467700000000000    0.9896200000000001    0.8800300000000000 O
   0.4561200000000000    0.0751100000000000    0.8086300000000000 O
   0.5532400000000000    0.0103900000000000    0.1199000000000000 O
   0.5438700000000000    0.9249100000000000    0.1913200000000000 O
   0.4441300000000000    0.0745500000000000    0.0360100000000000 O
   0.4863200000000000    0.1572400000000000    0.9796700000000000 O
   0.6858000000000000    0.0553300000000000    0.9021000000000000 O
   0.5762300000000000    0.0517900000000000    0.9372000000000000 O
   0.7744300000000000    0.1575200000000000    0.8644100000000000 O
   0.8448000000000000    0.1501400000000000    0.7458300000000000 O
   0.7499900000000000    0.9799700000000000    0.6384900000000000 O
   0.7398300000000000    0.0652500000000000    0.7139799999999999 O
   0.8534400000000000    0.0098000000000000    0.5003000000000000 O
   0.8744700000000000    0.0764900000000000    0.6108100000000000 O
   0.6465300000000000    0.9902100000000000    0.4996500000000000 O
   0.6255100000000000    0.9235400000000000    0.3891000000000000 O
   0.9999000000000000    0.2700500000000000    0.8613499999999999 O
   0.9895699999999999    0.1847500000000000    0.7859800000000000 O
   0.7499700000000000    0.0200500000000000    0.3614500000000000 O
   0.6941400000000000    0.1755100000000000    0.4639400000000000 O
   0.7362600000000000    0.0927800000000000    0.5203000000000000 O
   0.9357900000000000    0.1947200000000000    0.5978300000000000 O
   0.8262300000000000    0.1982700000000000    0.5627500000000000 O
   0.0244800000000000    0.0924500000000000    0.6354700000000000 O
   0.0948300000000000    0.0998000000000000    0.7540100000000000 O
   0.8965100000000000    0.2598600000000000    0.0005100000000000 O
   0.8756300000000000    0.3261900000000000    0.1116700000000000 O
   0.1034700000000000    0.2401500000000000    0.9994600000000000 O
   0.1243500000000000    0.1738100000000000    0.8883200000000000 O
   0.0000700000000000    0.2299600000000000    0.1386000000000000 O
   0.0104100000000000    0.3152700000000000    0.2139800000000000 O
   0.3058400000000000    0.3245000000000000    0.5360200000000001 O
   0.2637200000000000    0.4072300000000000    0.4796200000000000 O
   0.0641900000000000    0.3052900000000000    0.4021300000000000 O
   0.1737500000000000    0.3017400000000000    0.4372100000000000 O
   0.9755000000000000    0.4075600000000000    0.3644900000000000 O
   0.9051500000000000    0.4002200000000000    0.2459500000000000 O
   0.2499900000000000    0.0200500000000000    0.3614400000000000 O
   0.2601600000000000    0.9347700000000000    0.2859700000000000 O
   0.5558600000000000    0.9254599999999999    0.9639000000000000 O
   0.5136700000000000    0.8427800000000000    0.0203000000000000 O
   0.3141900000000000    0.9446900000000000    0.0978400000000000 O
   0.4237500000000000    0.9482300000000000    0.0627000000000000 O
   0.2255600000000000    0.8425000000000000    0.1355500000000000 O
   0.1551800000000000    0.8498800000000000    0.2541300000000000 O
   0.9441200000000000    0.0745500000000000    0.0360000000000000 O
   0.9863100000000000    0.1572400000000000    0.9796600000000000 O
   0.1858100000000000    0.0553300000000000    0.9021000000000000 O
   0.0762400000000000    0.0517900000000000    0.9372000000000000 O
   0.2744400000000000    0.1575100000000000    0.8643999999999999 O
   0.3448100000000000    0.1501400000000000    0.7458300000000000 O
   0.2500000000000000    0.9799700000000000    0.6384900000000000 O
   0.2398400000000000    0.0652500000000000    0.7139799999999999 O
   0.3534500000000000    0.0098100000000000    0.5002799999999999 O
   0.3744900000000000    0.0765100000000000    0.6107000000000000 O
   0.1465400000000000    0.9902100000000000    0.4996600000000000 O
   0.1255100000000000    0.9235300000000000    0.3891500000000000 O
   0.9467400000000000    0.9896300000000000    0.8800500000000000 O
   0.9561100000000000    0.0751100000000000    0.8086400000000000 O
   0.0532300000000000    0.0104000000000000    0.1199200000000000 O
   0.0438700000000000    0.9249100000000000    0.1913300000000000 O
   0.7601400000000000    0.9347700000000000    0.2859700000000000 O
   0.0558600000000000    0.9254599999999999    0.9639500000000000 O
   0.0136800000000000    0.8427800000000000    0.0202900000000000 O
   0.8141800000000000    0.9446800000000000    0.0978400000000000 O
   0.9237400000000000    0.9482200000000000    0.0627500000000000 O
   0.7255500000000000    0.8425000000000000    0.1355500000000000 O
   0.6551700000000000    0.8498700000000000    0.2541300000000000 O
   0.2499900000000000    0.5200600000000000    0.3614000000000000 O
   0.2601400000000000    0.4347600000000000    0.2859600000000000 O
   0.5558500000000000    0.4254500000000000    0.9639500000000000 O
   0.5136600000000000    0.3427700000000000    0.0203000000000000 O
   0.3141800000000000    0.4446700000000000    0.0978400000000000 O
   0.4237500000000000    0.4482200000000000    0.0627000000000000 O
   0.2255500000000000    0.3424900000000000    0.1355500000000000 O
   0.1551800000000000    0.3498700000000000    0.2541300000000000 O
   0.9441200000000000    0.5745600000000000    0.0359900000000000 O
   0.9863100000000000    0.6572500000000000    0.9796500000000000 O
   0.1858100000000000    0.5553500000000000    0.9021000000000000 O
   0.0762500000000000    0.5518000000000000    0.9372000000000000 O
   0.2744400000000000    0.6575200000000000    0.8643999999999999 O
   0.3448200000000000    0.6501500000000000    0.7458300000000000 O
   0.2499900000000000    0.4799600000000000    0.6384800000000000 O
   0.2398400000000000    0.5652600000000000    0.7139799999999999 O
   0.3534600000000000    0.5098200000000001    0.5002900000000000 O
   0.3744900000000000    0.5765100000000000    0.6107900000000001 O
   0.1465400000000000    0.4902000000000000    0.4996500000000000 O
   0.1255100000000000    0.4235200000000000    0.3891400000000000 O
   0.9467500000000000    0.4896100000000000    0.8800400000000000 O
   0.9561100000000000    0.5751200000000000    0.8086300000000000 O
   0.0532400000000000    0.5104000000000000    0.1199100000000000 O
   0.0438700000000000    0.4249000000000000    0.1913200000000000 O
   0.4467500000000000    0.4896200000000000    0.8800400000000000 O
   0.4561200000000000    0.5751200000000000    0.8086000000000000 O
   0.5532400000000000    0.5104000000000000    0.1199100000000000 O
   0.5438600000000000    0.4249000000000000    0.1913200000000000 O
   0.4441400000000000    0.5745600000000000    0.0360000000000000 O
   0.4863200000000000    0.6572500000000000    0.9796600000000000 O
   0.6858100000000000    0.5553399999999999    0.9021200000000000 O
   0.5762400000000000    0.5518000000000000    0.9372000000000000 O
   0.7744300000000000    0.6575200000000000    0.8644100000000000 O
   0.8448000000000000    0.6501500000000000    0.7458300000000000 O
   0.7499900000000000    0.4799600000000000    0.6385000000000000 O
   0.7398300000000000    0.5652600000000000    0.7139799999999999 O
   0.6465300000000000    0.4902100000000000    0.4996600000000000 O
   0.6254999999999999    0.4235100000000000    0.3891000000000000 O
   0.8534500000000000    0.5098100000000000    0.5003000000000000 O
   0.8744700000000000    0.5765000000000000    0.6108000000000000 O
   0.7499900000000000    0.5200600000000000    0.3614500000000000 O
   0.7601400000000000    0.4347600000000000    0.2859700000000000 O
   0.0558600000000000    0.4254600000000000    0.9639600000000000 O
   0.0136700000000000    0.3427700000000000    0.0203000000000000 O
   0.8141699999999999    0.4446700000000000    0.0978400000000000 O
   0.9237400000000000    0.4482200000000000    0.0627500000000000 O
   0.7255400000000000    0.3425000000000000    0.1355500000000000 O
   0.6551700000000000    0.3498700000000000    0.2541300000000000 O
   0.3032900000000000    0.7395900000000000    0.3800300000000000 O
   0.2939000000000000    0.8251300000000000    0.3086900000000000 O
   0.1967000000000000    0.7604300000000001    0.6199200000000000 O
   0.2061000000000000    0.6749000000000001    0.6912700000000001 O
   0.4999300000000000    0.7700600000000000    0.8613400000000000 O
   0.4895900000000000    0.6847500000000000    0.7859800000000000 O
   0.1941600000000000    0.6755200000000000    0.4639300000000000 O
   0.2362700000000000    0.5927900000000000    0.5203200000000000 O
   0.4358100000000000    0.6947300000000000    0.5978300000000000 O
   0.3262500000000000    0.6982900000000000    0.5627500000000000 O
   0.5244799999999999    0.5924600000000000    0.6354700000000000 O
   0.5948200000000000    0.5998100000000000    0.7540100000000000 O
   0.3965300000000000    0.7598700000000000    0.0004800000000000 O
   0.3756400000000000    0.8262200000000000    0.1116100000000000 O
   0.6034600000000000    0.7401600000000000    0.9994700000000000 O
   0.6243500000000000    0.6738100000000000    0.8883400000000000 O
   0.5000599999999999    0.7299700000000000    0.1386200000000000 O
   0.5104000000000000    0.8152800000000000    0.2139800000000000 O
   0.8058300000000000    0.8245100000000000    0.5360000000000000 O
   0.7637200000000000    0.9072400000000000    0.4796300000000000 O
   0.5641800000000000    0.8053000000000000    0.4021300000000000 O
   0.6737400000000000    0.8017500000000000    0.4372100000000000 O
   0.4755200000000000    0.9075700000000000    0.3644800000000000 O
   0.4051700000000000    0.9002200000000000    0.2459000000000000 O
   0.6966900000000000    0.7604300000000001    0.6199300000000000 O
   0.7060900000000000    0.6749000000000001    0.6912700000000001 O
   0.8032899999999999    0.7395900000000000    0.3800400000000000 O
   0.7938900000000000    0.8251300000000000    0.3086900000000000 O
   0.9999000000000000    0.7700600000000000    0.8613400000000000 O
   0.9895699999999999    0.6847500000000000    0.7859699999999999 O
   0.6941500000000000    0.6755200000000000    0.4639300000000000 O
   0.7362600000000000    0.5927900000000000    0.5203200000000000 O
   0.9358000000000000    0.6947300000000000    0.5978300000000000 O
   0.8262400000000000    0.6982800000000000    0.5627500000000000 O
   0.0244800000000000    0.5924600000000000    0.6354600000000000 O
   0.0948300000000000    0.5998000000000000    0.7540000000000000 O
   0.8965100000000000    0.7598700000000000    0.0005200000000000 O
   0.8756400000000000    0.8261800000000000    0.1117100000000000 O
   0.1034700000000000    0.7401600000000000    0.9994400000000000 O
   0.1243500000000000    0.6738400000000000    0.8882500000000000 O
   0.0000800000000000    0.7299700000000000    0.1386100000000000 O
   0.0104100000000000    0.8152700000000001    0.2139800000000000 O
   0.3058400000000000    0.8245100000000000    0.5360200000000001 O
   0.2637300000000000    0.9072400000000000    0.4796000000000000 O
   0.0641900000000000    0.8052900000000000    0.4021000000000000 O
   0.1737500000000000    0.8017400000000000    0.4372100000000000 O
   0.9755100000000000    0.9075700000000000    0.3645000000000000 O
   0.9051600000000000    0.9002300000000000    0.2459600000000000 O
