H1 C1 O2
1.0
  20.2159987683708628    0.0000000000000000    0.0070567150883577
   0.0191467372091755   23.1456400670251341   -0.4488644452113709
   0.0000000000000000    0.0000000000000000   14.8659999999999997
H C O
1 1 2
direct
   0.7750400000000000    0.0127700000000000    0.2298100000000000 H
   0.7619100000000000    0.9902700000000000    0.2922400000000000 C
   0.7601400000000000    0.9347700000000000    0.2859700000000000 O
   0.7499700000000000    0.0200500000000000    0.3614500000000000 O
