H4 C4 O6
1.0
  37.0092362941216351    0.0000000000000000   -3.4208650844295958
  -0.5608731045276028   22.5296301173324416   -5.9838945835304074
   0.0000000000000000    0.0000000000000000   13.3510000000000009
H C O
4 4 6
direct
   0.8768466666666666    0.0405166666666667    0.7281200000000000 H
   0.8990966666666665    0.0995433333333333    0.8955600000000000 H
   0.9197866666666665    0.1176600000000000    0.6473100000000001 H
   0.9553216666666666    0.1350333333333333    0.9258900000000000 H
   0.9329099999999999    0.0175733333333333    0.7346100000000000 C
   0.9030733333333333    0.0631400000000000    0.7310600000000000 C
   0.9078966666666666    0.1149633333333333    0.8303000000000000 C
   0.8844233333333332    0.1682666666666667    0.8202100000000000 C
   0.9506233333333333    0.0027566666666667    0.6537600000000000 O
   0.9026666666666666    0.0820466666666667    0.6366000000000001 O
   0.9451399999999999    0.1331766666666667    0.8504900000000000 O
   0.9009600000000000    0.2168700000000000    0.8244400000000000 O
   0.8505083333333333    0.1605800000000000    0.8081600000000000 O
   0.9383733333333333    0.9962299999999999    0.8120400000000000 O
