Zn12 H148 C276 N68 O4
1.0
  14.8259999796768405    0.0000000000000000    0.0007762875443462
   0.0003449065428875   20.7379479518030791   -6.5872297386189604
   0.0000000000000000    0.0000000000000000   38.2439999999999998
Zn H C N O
12 148 276 68 4
direct
   0.5000000000000000    0.5008000000000000    0.9999833333333332 Zn
   0.0000000000000000    0.4991700000000000    0.0000000000000000 Zn
   0.5000000000000000    0.9999900000000000    0.0000700000000000 Zn
   0.0000000000000000    0.0000000000000000    0.9999000000000000 Zn
   0.5000000000000000    0.5008000000000000    0.3333166666666666 Zn
   0.0000000000000000    0.4991700000000000    0.3333333333333333 Zn
   0.5000000000000000    0.9999900000000000    0.3334033333333333 Zn
   0.0000000000000000    0.0000000000000000    0.3332333333333333 Zn
   0.5000000000000000    0.5008000000000000    0.6666500000000000 Zn
   0.0000000000000000    0.4991700000000000    0.6666666666666666 Zn
   0.5000000000000000    0.9999900000000000    0.6667366666666666 Zn
   0.0000000000000000    0.0000000000000000    0.6665666666666666 Zn
   0.4999900000000000    0.1002100000000000    0.8093766666666666 H
   0.5000000000000000    0.2418000000000000    0.7505566666666666 H
   0.5000000000000000    0.0144800000000000    0.7481199999999999 H
   0.5000000000000000    0.1500100000000000    0.6924266666666666 H
   0.5000000000000000    0.4001200000000000    0.8573166666666666 H
   0.5000000000000000    0.2587300000000000    0.9162666666666666 H
   0.4999900000000000    0.4859600000000000    0.9183333333333332 H
   0.4999900000000000    0.3506300000000000    0.9743533333333333 H
   0.4999900000000000    0.1002100000000000    0.1427100000000000 H
   0.5000000000000000    0.2418000000000000    0.0838900000000000 H
   0.5000000000000000    0.0144800000000000    0.0814533333333333 H
   0.5000000000000000    0.1500100000000000    0.0257600000000000 H
   0.5000000000000000    0.4001200000000000    0.1906500000000000 H
   0.5000000000000000    0.2587300000000000    0.2496000000000000 H
   0.4999900000000000    0.4859600000000000    0.2516666666666666 H
   0.4999900000000000    0.3506300000000000    0.3076866666666667 H
   0.4999900000000000    0.1002100000000000    0.4760433333333333 H
   0.5000000000000000    0.2418000000000000    0.4172233333333333 H
   0.5000000000000000    0.0144800000000000    0.4147866666666666 H
   0.5000000000000000    0.1500100000000000    0.3590933333333333 H
   0.5000000000000000    0.4001200000000000    0.5239833333333332 H
   0.5000000000000000    0.2587300000000000    0.5829333333333333 H
   0.4999900000000000    0.4859600000000000    0.5850000000000000 H
   0.4999900000000000    0.3506300000000000    0.6410199999999999 H
   0.0000100000000000    0.8997600000000000    0.8572666666666666 H
   0.0000100000000000    0.7581700000000000    0.9160966666666666 H
   0.0000000000000000    0.9854900000000000    0.9185333333333333 H
   0.0000000000000000    0.8499600000000000    0.9742266666666666 H
   0.0000000000000000    0.7412400000000000    0.7503866666666666 H
   0.0000000000000000    0.5998500000000000    0.8093433333333333 H
   0.0000100000000000    0.5140100000000000    0.7481000000000000 H
   0.0000100000000000    0.6493300000000000    0.6923033333333333 H
   0.0000100000000000    0.8997600000000000    0.1906000000000000 H
   0.0000100000000000    0.7581700000000000    0.2494300000000000 H
   0.0000000000000000    0.9854900000000000    0.2518666666666667 H
   0.0000000000000000    0.8499600000000000    0.3075599999999999 H
   0.0000000000000000    0.7412400000000000    0.0837200000000000 H
   0.0000000000000000    0.5998500000000000    0.1426766666666667 H
   0.0000100000000000    0.5140100000000000    0.0814333333333333 H
   0.0000100000000000    0.6493300000000000    0.0256366666666667 H
   0.0000100000000000    0.8997600000000000    0.5239333333333334 H
   0.0000100000000000    0.7581700000000000    0.5827633333333333 H
   0.0000000000000000    0.9854900000000000    0.5851999999999999 H
   0.0000000000000000    0.8499600000000000    0.6408933333333333 H
   0.0000000000000000    0.7412400000000000    0.4170533333333333 H
   0.0000000000000000    0.5998500000000000    0.4760100000000000 H
   0.0000100000000000    0.5140100000000000    0.4147666666666666 H
   0.0000100000000000    0.6493300000000000    0.3589700000000000 H
   0.5000000000000000    0.6000300000000000    0.1425433333333333 H
   0.5000000000000000    0.7421100000000000    0.0840566666666667 H
   0.5000000000000000    0.5145500000000000    0.0811766666666667 H
   0.5000000000000000    0.6505600000000000    0.0258000000000000 H
   0.5000000000000000    0.8998699999999999    0.1908333333333333 H
   0.4999900000000000    0.7582300000000000    0.2496166666666667 H
   0.5000000000000000    0.9855900000000000    0.2521000000000000 H
   0.5000000000000000    0.8500200000000000    0.3077700000000000 H
   0.0000000000000000    0.1001000000000000    0.8091333333333333 H
   0.0000000000000000    0.2417400000000000    0.7503733333333333 H
   0.0000000000000000    0.0143800000000000    0.7478800000000000 H
   0.0000000000000000    0.1499600000000000    0.6922199999999999 H
   0.0000100000000000    0.3999400000000000    0.8574499999999999 H
   0.0000000000000000    0.2578500000000000    0.9159333333333333 H
   0.0000000000000000    0.4854100000000000    0.9188166666666666 H
   0.0000000000000000    0.3494000000000000    0.9741899999999999 H
   0.8416519411536746    0.5710397142083058    0.9803665902683590 H
   0.8580639974129486    0.5181767868030691    0.9411039205790569 H
   0.6586283620176687    0.9287507867170827    0.0197465279507930 H
   0.6509007590259602    0.9260793458485563    0.0489711720316670 H
   0.8414567429428190    0.9288118864473319    0.0196734313520552 H
   0.8832230351283050    0.8993870685090183    0.0502479026168441 H
   0.6588163551751572    0.5714146277467280    0.9802643768968717 H
   0.6510536606209609    0.5740655744505052    0.9508626169366972 H
   0.1043900000000000    0.6911900000000000    0.9929933333333333 H
   0.1045600000000000    0.8090600000000000    0.0072600000000000 H
   0.3948200000000000    0.6909800000000000    0.9928366666666666 H
   0.3949900000000000    0.8088400000000000    0.0071066666666667 H
   0.1051800000000000    0.3089800000000000    0.0071533333333333 H
   0.1050100000000000    0.1911200000000000    0.9928800000000000 H
   0.3954400000000000    0.1909000000000000    0.9927266666666666 H
   0.3956100000000000    0.3087700000000000    0.0066666666666667 H
   0.6045600000000000    0.1909000000000000    0.9927199999999999 H
   0.6043800000000000    0.3087700000000000    0.0069666666666667 H
   0.8948100000000000    0.3089800000000000    0.0071600000000000 H
   0.8949900000000000    0.1911300000000000    0.9928866666666666 H
   0.5000000000000000    0.6000300000000000    0.4758766666666666 H
   0.5000000000000000    0.7421100000000000    0.4173900000000000 H
   0.5000000000000000    0.5145500000000000    0.4145100000000000 H
   0.5000000000000000    0.6505600000000000    0.3591333333333333 H
   0.5000000000000000    0.8998699999999999    0.5241666666666667 H
   0.4999900000000000    0.7582300000000000    0.5829500000000000 H
   0.5000000000000000    0.9855900000000000    0.5854333333333333 H
   0.5000000000000000    0.8500200000000000    0.6411033333333334 H
   0.0000000000000000    0.1001000000000000    0.1424666666666667 H
   0.0000000000000000    0.2417400000000000    0.0837066666666667 H
   0.0000000000000000    0.0143800000000000    0.0812133333333333 H
   0.0000000000000000    0.1499600000000000    0.0255533333333333 H
   0.0000100000000000    0.3999400000000000    0.1907833333333333 H
   0.0000000000000000    0.2578500000000000    0.2492666666666667 H
   0.0000000000000000    0.4854100000000000    0.2521500000000000 H
   0.0000000000000000    0.3494000000000000    0.3075233333333333 H
   0.6050100000000000    0.8088300000000000    0.3404333333333333 H
   0.6051800000000001    0.6909800000000000    0.3261633333333333 H
   0.8956100000000000    0.6911900000000000    0.3263300000000000 H
   0.8954299999999999    0.8090600000000000    0.3406000000000000 H
   0.1043900000000000    0.6911900000000000    0.3263266666666667 H
   0.1045600000000000    0.8090600000000000    0.3405933333333333 H
   0.3948200000000000    0.6909800000000000    0.3261700000000000 H
   0.3949900000000000    0.8088400000000000    0.3404400000000000 H
   0.1051800000000000    0.3089800000000000    0.3404866666666667 H
   0.1050100000000000    0.1911200000000000    0.3262133333333333 H
   0.3954400000000000    0.1909000000000000    0.3260600000000000 H
   0.3956100000000000    0.3087700000000000    0.3400000000000000 H
   0.6045600000000000    0.1909000000000000    0.3260533333333333 H
   0.6043800000000000    0.3087700000000000    0.3403000000000000 H
   0.8948100000000000    0.3089800000000000    0.3404933333333333 H
   0.8949900000000000    0.1911300000000000    0.3262200000000000 H
   0.5000000000000000    0.6000300000000000    0.8092100000000000 H
   0.5000000000000000    0.7421100000000000    0.7507233333333333 H
   0.5000000000000000    0.5145500000000000    0.7478433333333333 H
   0.5000000000000000    0.6505600000000000    0.6924666666666667 H
   0.5000000000000000    0.8998699999999999    0.8574999999999999 H
   0.4999900000000000    0.7582300000000000    0.9162833333333333 H
   0.5000000000000000    0.9855900000000000    0.9187666666666666 H
   0.5000000000000000    0.8500200000000000    0.9744366666666666 H
   0.0000000000000000    0.1001000000000000    0.4758000000000000 H
   0.0000000000000000    0.2417400000000000    0.4170400000000000 H
   0.0000000000000000    0.0143800000000000    0.4145466666666666 H
   0.0000000000000000    0.1499600000000000    0.3588866666666666 H
   0.0000100000000000    0.3999400000000000    0.5241166666666667 H
   0.0000000000000000    0.2578500000000000    0.5826000000000000 H
   0.0000000000000000    0.4854100000000000    0.5854833333333334 H
   0.0000000000000000    0.3494000000000000    0.6408566666666666 H
   0.6050100000000000    0.8088300000000000    0.6737666666666666 H
   0.6051800000000001    0.6909800000000000    0.6594966666666666 H
   0.8956100000000000    0.6911900000000000    0.6596633333333333 H
   0.8954299999999999    0.8090600000000000    0.6739333333333333 H
   0.1043900000000000    0.6911900000000000    0.6596599999999999 H
   0.1045600000000000    0.8090600000000000    0.6739266666666667 H
   0.3948200000000000    0.6909800000000000    0.6595033333333333 H
   0.3949900000000000    0.8088400000000000    0.6737733333333333 H
   0.1051800000000000    0.3089800000000000    0.6738200000000000 H
   0.1050100000000000    0.1911200000000000    0.6595466666666666 H
   0.3954400000000000    0.1909000000000000    0.6593933333333333 H
   0.3956100000000000    0.3087700000000000    0.6733333333333333 H
   0.6045600000000000    0.1909000000000000    0.6593866666666666 H
   0.6043800000000000    0.3087700000000000    0.6736333333333333 H
   0.8948100000000000    0.3089800000000000    0.6738266666666666 H
   0.8949900000000000    0.1911300000000000    0.6595533333333332 H
   0.5000000000000000    0.1131700000000000    0.7840199999999999 C
   0.5000000000000000    0.1922000000000000    0.7513299999999999 C
   0.4999900000000000    0.0656000000000000    0.7502966666666666 C
   0.4999900000000000    0.1413600000000000    0.7190099999999999 C
   0.4999900000000000    0.1785100000000000    0.7850733333333333 C
   0.4999900000000000    0.2717700000000000    0.8479399999999999 C
   0.5000000000000000    0.2286100000000000    0.8188400000000000 C
   0.4999800000000000    0.3872300000000000    0.8826933333333333 C
   0.4999800000000000    0.3083000000000000    0.9154566666666666 C
   0.5000200000000000    0.4348600000000000    0.9163966666666666 C
   0.5000200000000000    0.3592000000000000    0.9477500000000000 C
   0.5000200000000000    0.3219100000000000    0.8816900000000000 C
   0.5000000000000000    0.1131700000000000    0.1173533333333333 C
   0.5000000000000000    0.1922000000000000    0.0846633333333333 C
   0.4999900000000000    0.0656000000000000    0.0836300000000000 C
   0.4999900000000000    0.1413600000000000    0.0523433333333333 C
   0.4999900000000000    0.1785100000000000    0.1184066666666667 C
   0.4999900000000000    0.2717700000000000    0.1812733333333333 C
   0.5000000000000000    0.2286100000000000    0.1521733333333333 C
   0.4999800000000000    0.3872300000000000    0.2160266666666666 C
   0.4999800000000000    0.3083000000000000    0.2487900000000000 C
   0.5000200000000000    0.4348600000000000    0.2497300000000000 C
   0.5000200000000000    0.3592000000000000    0.2810833333333334 C
   0.5000200000000000    0.3219100000000000    0.2150233333333333 C
   0.5000000000000000    0.1131700000000000    0.4506866666666666 C
   0.5000000000000000    0.1922000000000000    0.4179966666666666 C
   0.4999900000000000    0.0656000000000000    0.4169633333333333 C
   0.4999900000000000    0.1413600000000000    0.3856766666666667 C
   0.4999900000000000    0.1785100000000000    0.4517400000000000 C
   0.4999900000000000    0.2717700000000000    0.5146066666666667 C
   0.5000000000000000    0.2286100000000000    0.4855066666666666 C
   0.4999800000000000    0.3872300000000000    0.5493600000000000 C
   0.4999800000000000    0.3083000000000000    0.5821233333333333 C
   0.5000200000000000    0.4348600000000000    0.5830633333333333 C
   0.5000200000000000    0.3592000000000000    0.6144166666666666 C
   0.5000200000000000    0.3219100000000000    0.5483566666666666 C
   0.9999700000000000    0.8868000000000000    0.8826333333333333 C
   0.9999700000000000    0.8077700000000000    0.9153233333333333 C
   0.0000400000000000    0.9343700000000000    0.9163566666666666 C
   0.0000000000000000    0.8586100000000000    0.9476433333333333 C
   0.0000400000000000    0.8214600000000000    0.8815799999999999 C
   0.9999900000000000    0.7713600000000000    0.8478133333333333 C
   0.0000200000000000    0.7282000000000000    0.8187166666666666 C
   0.0000400000000000    0.6916600000000001    0.7512000000000000 C
   0.0000400000000000    0.6127400000000000    0.7836666666666666 C
   0.9999600000000000    0.5651100000000000    0.7502633333333333 C
   0.9999600000000000    0.6407600000000000    0.7189066666666666 C
   0.9999600000000000    0.6780600000000000    0.7849666666666666 C
   0.9999700000000000    0.8868000000000000    0.2159666666666667 C
   0.9999700000000000    0.8077700000000000    0.2486566666666667 C
   0.0000400000000000    0.9343700000000000    0.2496900000000000 C
   0.0000000000000000    0.8586100000000000    0.2809766666666667 C
   0.0000400000000000    0.8214600000000000    0.2149133333333333 C
   0.9999900000000000    0.7713600000000000    0.1811466666666667 C
   0.0000200000000000    0.7282000000000000    0.1520500000000000 C
   0.0000400000000000    0.6916600000000001    0.0845333333333333 C
   0.0000400000000000    0.6127400000000000    0.1170000000000000 C
   0.9999600000000000    0.5651100000000000    0.0835966666666667 C
   0.9999600000000000    0.6407600000000000    0.0522400000000000 C
   0.9999600000000000    0.6780600000000000    0.1183000000000000 C
   0.9999700000000000    0.8868000000000000    0.5493000000000000 C
   0.9999700000000000    0.8077700000000000    0.5819900000000000 C
   0.0000400000000000    0.9343700000000000    0.5830233333333333 C
   0.0000000000000000    0.8586100000000000    0.6143099999999999 C
   0.0000400000000000    0.8214600000000000    0.5482466666666667 C
   0.9999900000000000    0.7713600000000000    0.5144800000000000 C
   0.0000200000000000    0.7282000000000000    0.4853833333333333 C
   0.0000400000000000    0.6916600000000001    0.4178666666666666 C
   0.0000400000000000    0.6127400000000000    0.4503333333333333 C
   0.9999600000000000    0.5651100000000000    0.4169300000000000 C
   0.9999600000000000    0.6407600000000000    0.3855733333333333 C
   0.9999600000000000    0.6780600000000000    0.4516333333333333 C
   0.4999900000000000    0.6131300000000000    0.1172333333333333 C
   0.4999900000000000    0.6924500000000000    0.0847266666666667 C
   0.5000100000000000    0.5657100000000000    0.0834600000000000 C
   0.5000100000000000    0.6417600000000000    0.0523433333333333 C
   0.5000100000000000    0.6785300000000000    0.1184000000000000 C
   0.5000000000000000    0.7715200000000000    0.1813566666666667 C
   0.4999900000000000    0.7284700000000000    0.1522200000000000 C
   0.5000000000000000    0.8869100000000000    0.2161866666666667 C
   0.5000000000000000    0.8078400000000000    0.2488600000000000 C
   0.5000000000000000    0.9344600000000000    0.2499133333333333 C
   0.4999900000000000    0.8586600000000000    0.2811866666666666 C
   0.4999900000000000    0.8215700000000000    0.2150000000000000 C
   0.0000100000000000    0.1130600000000000    0.7837999999999999 C
   0.0000100000000000    0.1921400000000000    0.7511300000000000 C
   0.9999900000000000    0.0655100000000000    0.7500733333333333 C
   0.9999900000000000    0.1413100000000000    0.7188033333333332 C
   0.9999900000000000    0.1784000000000000    0.7848566666666666 C
   0.0000000000000000    0.2715000000000000    0.8477699999999999 C
   0.0000000000000000    0.2284500000000000    0.8186333333333333 C
   0.0000000000000000    0.3868300000000000    0.8827333333333333 C
   0.0000000000000000    0.3075100000000000    0.9152633333333333 C
   0.0000000000000000    0.4342500000000000    0.9165333333333333 C
   0.0000000000000000    0.3582000000000000    0.9476466666666666 C
   0.0000100000000000    0.3214400000000000    0.8815899999999999 C
   0.1700900000000000    0.5759600000000000    0.9809333333333332 C
   0.3293800000000000    0.5762500000000000    0.9808566666666666 C
   0.2496200000000000    0.6108900000000000    0.9843533333333333 C
   0.3295900000000000    0.9238800000000000    0.0191633333333333 C
   0.1703000000000000    0.9239400000000000    0.0191000000000000 C
   0.2499000000000000    0.8891300000000000    0.0157033333333333 C
   0.1686400000000000    0.7167300000000000    0.9961899999999999 C
   0.1687400000000000    0.7834200000000000    0.0039900000000000 C
   0.3306400000000000    0.7166200000000000    0.9961066666666666 C
   0.3307300000000000    0.7833000000000000    0.0039100000000000 C
   0.2497900000000000    0.8186200000000000    0.0079333333333333 C
   0.2496000000000000    0.6814100000000000    0.9921333333333333 C
   0.1704100000000000    0.0760900000000000    0.9808199999999999 C
   0.3297100000000000    0.0760300000000000    0.9808833333333333 C
   0.2501000000000000    0.1108300000000000    0.9842799999999999 C
   0.3299100000000000    0.4240100000000000    0.0190500000000000 C
   0.1706200000000000    0.4237100000000000    0.0191366666666667 C
   0.2503800000000000    0.3890700000000000    0.0156366666666667 C
   0.1693600000000000    0.2833500000000000    0.0038800000000000 C
   0.1692700000000000    0.2166600000000000    0.9960833333333332 C
   0.3312600000000000    0.2165400000000000    0.9960000000000000 C
   0.3313600000000000    0.2832400000000000    0.0037966666666667 C
   0.2502200000000000    0.1813400000000000    0.9920499999999999 C
   0.2504000000000000    0.3185600000000000    0.0078333333333333 C
   0.6700800000000000    0.4240100000000000    0.0190500000000000 C
   0.8293700000000001    0.4237200000000000    0.0191333333333333 C
   0.7496000000000000    0.3890700000000000    0.0156400000000000 C
   0.6703000000000000    0.0760200000000000    0.9808833333333333 C
   0.8295900000000000    0.0760900000000000    0.9808199999999999 C
   0.7499100000000000    0.1108300000000000    0.9842799999999999 C
   0.6687300000000000    0.2165400000000000    0.9959933333333333 C
   0.6686299999999999    0.2832400000000000    0.0037966666666667 C
   0.7495800000000000    0.3185500000000000    0.0078400000000000 C
   0.8306300000000000    0.2833500000000000    0.0038866666666667 C
   0.8307300000000000    0.2166600000000000    0.9960833333333332 C
   0.7497800000000000    0.1813400000000000    0.9920499999999999 C
   0.4999900000000000    0.6131300000000000    0.4505666666666667 C
   0.4999900000000000    0.6924500000000000    0.4180600000000000 C
   0.5000100000000000    0.5657100000000000    0.4167933333333333 C
   0.5000100000000000    0.6417600000000000    0.3856766666666667 C
   0.5000100000000000    0.6785300000000000    0.4517333333333333 C
   0.5000000000000000    0.7715200000000000    0.5146900000000000 C
   0.4999900000000000    0.7284700000000000    0.4855533333333333 C
   0.5000000000000000    0.8869100000000000    0.5495200000000000 C
   0.5000000000000000    0.8078400000000000    0.5821933333333333 C
   0.5000000000000000    0.9344600000000000    0.5832466666666667 C
   0.4999900000000000    0.8586600000000000    0.6145200000000000 C
   0.4999900000000000    0.8215700000000000    0.5483333333333333 C
   0.0000100000000000    0.1130600000000000    0.1171333333333333 C
   0.0000100000000000    0.1921400000000000    0.0844633333333333 C
   0.9999900000000000    0.0655100000000000    0.0834066666666667 C
   0.9999900000000000    0.1413100000000000    0.0521366666666667 C
   0.9999900000000000    0.1784000000000000    0.1181900000000000 C
   0.0000000000000000    0.2715000000000000    0.1811033333333333 C
   0.0000000000000000    0.2284500000000000    0.1519666666666667 C
   0.0000000000000000    0.3868300000000000    0.2160666666666667 C
   0.0000000000000000    0.3075100000000000    0.2485966666666666 C
   0.0000000000000000    0.4342500000000000    0.2498666666666667 C
   0.0000000000000000    0.3582000000000000    0.2809800000000000 C
   0.0000100000000000    0.3214400000000000    0.2149233333333333 C
   0.8299100000000000    0.5759600000000000    0.3142766666666666 C
   0.6706200000000000    0.5762500000000000    0.3141866666666666 C
   0.7503900000000000    0.6108900000000000    0.3176666666666667 C
   0.6704000000000000    0.9238800000000000    0.3524966666666666 C
   0.8296900000000000    0.9239400000000000    0.3524333333333333 C
   0.7500900000000000    0.8891300000000000    0.3490366666666667 C
   0.6692600000000000    0.7833000000000000    0.3372366666666666 C
   0.6693600000000000    0.7166200000000000    0.3294333333333333 C
   0.8313600000000000    0.7167300000000000    0.3295266666666666 C
   0.8312500000000000    0.7834200000000000    0.3373233333333333 C
   0.7504100000000000    0.6814100000000000    0.3254666666666667 C
   0.7502100000000000    0.8186200000000000    0.3412700000000000 C
   0.1700900000000000    0.5759600000000000    0.3142666666666666 C
   0.3293800000000000    0.5762500000000000    0.3141900000000000 C
   0.2496200000000000    0.6108900000000000    0.3176866666666667 C
   0.3295900000000000    0.9238800000000000    0.3524966666666666 C
   0.1703000000000000    0.9239400000000000    0.3524333333333333 C
   0.2499000000000000    0.8891300000000000    0.3490366666666667 C
   0.1686400000000000    0.7167300000000000    0.3295233333333333 C
   0.1687400000000000    0.7834200000000000    0.3373233333333333 C
   0.3306400000000000    0.7166200000000000    0.3294400000000000 C
   0.3307300000000000    0.7833000000000000    0.3372433333333333 C
   0.2497900000000000    0.8186200000000000    0.3412666666666667 C
   0.2496000000000000    0.6814100000000000    0.3254666666666667 C
   0.1704100000000000    0.0760900000000000    0.3141533333333333 C
   0.3297100000000000    0.0760300000000000    0.3142166666666666 C
   0.2501000000000000    0.1108300000000000    0.3176133333333333 C
   0.3299100000000000    0.4240100000000000    0.3523833333333333 C
   0.1706200000000000    0.4237100000000000    0.3524700000000000 C
   0.2503800000000000    0.3890700000000000    0.3489700000000000 C
   0.1693600000000000    0.2833500000000000    0.3372133333333333 C
   0.1692700000000000    0.2166600000000000    0.3294166666666666 C
   0.3312600000000000    0.2165400000000000    0.3293333333333333 C
   0.3313600000000000    0.2832400000000000    0.3371300000000000 C
   0.2502200000000000    0.1813400000000000    0.3253833333333333 C
   0.2504000000000000    0.3185600000000000    0.3411666666666667 C
   0.6700800000000000    0.4240100000000000    0.3523833333333333 C
   0.8293700000000001    0.4237200000000000    0.3524666666666667 C
   0.7496000000000000    0.3890700000000000    0.3489733333333333 C
   0.6703000000000000    0.0760200000000000    0.3142166666666666 C
   0.8295900000000000    0.0760900000000000    0.3141533333333333 C
   0.7499100000000000    0.1108300000000000    0.3176133333333333 C
   0.6687300000000000    0.2165400000000000    0.3293266666666667 C
   0.6686299999999999    0.2832400000000000    0.3371300000000000 C
   0.7495800000000000    0.3185500000000000    0.3411733333333333 C
   0.8306300000000000    0.2833500000000000    0.3372200000000000 C
   0.8307300000000000    0.2166600000000000    0.3294166666666666 C
   0.7497800000000000    0.1813400000000000    0.3253833333333333 C
   0.4999900000000000    0.6131300000000000    0.7838999999999999 C
   0.4999900000000000    0.6924500000000000    0.7513933333333334 C
   0.5000100000000000    0.5657100000000000    0.7501266666666666 C
   0.5000100000000000    0.6417600000000000    0.7190099999999999 C
   0.5000100000000000    0.6785300000000000    0.7850666666666666 C
   0.5000000000000000    0.7715200000000000    0.8480233333333334 C
   0.4999900000000000    0.7284700000000000    0.8188866666666667 C
   0.5000000000000000    0.8869100000000000    0.8828533333333333 C
   0.5000000000000000    0.8078400000000000    0.9155266666666666 C
   0.5000000000000000    0.9344600000000000    0.9165800000000000 C
   0.4999900000000000    0.8586600000000000    0.9478533333333332 C
   0.4999900000000000    0.8215700000000000    0.8816666666666666 C
   0.0000100000000000    0.1130600000000000    0.4504666666666666 C
   0.0000100000000000    0.1921400000000000    0.4177966666666666 C
   0.9999900000000000    0.0655100000000000    0.4167400000000000 C
   0.9999900000000000    0.1413100000000000    0.3854700000000000 C
   0.9999900000000000    0.1784000000000000    0.4515233333333333 C
   0.0000000000000000    0.2715000000000000    0.5144366666666667 C
   0.0000000000000000    0.2284500000000000    0.4853000000000000 C
   0.0000000000000000    0.3868300000000000    0.5494000000000000 C
   0.0000000000000000    0.3075100000000000    0.5819299999999999 C
   0.0000000000000000    0.4342500000000000    0.5831999999999999 C
   0.0000000000000000    0.3582000000000000    0.6143133333333333 C
   0.0000100000000000    0.3214400000000000    0.5482566666666666 C
   0.8299100000000000    0.5759600000000000    0.6476100000000000 C
   0.6706200000000000    0.5762500000000000    0.6475199999999999 C
   0.7503900000000000    0.6108900000000000    0.6510000000000000 C
   0.6704000000000000    0.9238800000000000    0.6858299999999999 C
   0.8296900000000000    0.9239400000000000    0.6857666666666666 C
   0.7500900000000000    0.8891300000000000    0.6823699999999999 C
   0.6692600000000000    0.7833000000000000    0.6705700000000000 C
   0.6693600000000000    0.7166200000000000    0.6627666666666666 C
   0.8313600000000000    0.7167300000000000    0.6628600000000000 C
   0.8312500000000000    0.7834200000000000    0.6706566666666667 C
   0.7504100000000000    0.6814100000000000    0.6588000000000001 C
   0.7502100000000000    0.8186200000000000    0.6746033333333333 C
   0.1700900000000000    0.5759600000000000    0.6476000000000000 C
   0.3293800000000000    0.5762500000000000    0.6475233333333332 C
   0.2496200000000000    0.6108900000000000    0.6510199999999999 C
   0.3295900000000000    0.9238800000000000    0.6858299999999999 C
   0.1703000000000000    0.9239400000000000    0.6857666666666666 C
   0.2499000000000000    0.8891300000000000    0.6823699999999999 C
   0.1686400000000000    0.7167300000000000    0.6628566666666666 C
   0.1687400000000000    0.7834200000000000    0.6706566666666667 C
   0.3306400000000000    0.7166200000000000    0.6627733333333332 C
   0.3307300000000000    0.7833000000000000    0.6705766666666666 C
   0.2497900000000000    0.8186200000000000    0.6746000000000000 C
   0.2496000000000000    0.6814100000000000    0.6588000000000001 C
   0.1704100000000000    0.0760900000000000    0.6474866666666665 C
   0.3297100000000000    0.0760300000000000    0.6475500000000000 C
   0.2501000000000000    0.1108300000000000    0.6509466666666666 C
   0.3299100000000000    0.4240100000000000    0.6857166666666666 C
   0.1706200000000000    0.4237100000000000    0.6858033333333333 C
   0.2503800000000000    0.3890700000000000    0.6823033333333333 C
   0.1693600000000000    0.2833500000000000    0.6705466666666666 C
   0.1692700000000000    0.2166600000000000    0.6627500000000000 C
   0.3312600000000000    0.2165400000000000    0.6626666666666666 C
   0.3313600000000000    0.2832400000000000    0.6704633333333333 C
   0.2502200000000000    0.1813400000000000    0.6587166666666666 C
   0.2504000000000000    0.3185600000000000    0.6745000000000000 C
   0.6700800000000000    0.4240100000000000    0.6857166666666666 C
   0.8293700000000001    0.4237200000000000    0.6858000000000000 C
   0.7496000000000000    0.3890700000000000    0.6823066666666666 C
   0.6703000000000000    0.0760200000000000    0.6475500000000000 C
   0.8295900000000000    0.0760900000000000    0.6474866666666665 C
   0.7499100000000000    0.1108300000000000    0.6509466666666666 C
   0.6687300000000000    0.2165400000000000    0.6626600000000000 C
   0.6686299999999999    0.2832400000000000    0.6704633333333333 C
   0.7495800000000000    0.3185500000000000    0.6745066666666666 C
   0.8306300000000000    0.2833500000000000    0.6705533333333333 C
   0.8307300000000000    0.2166600000000000    0.6627500000000000 C
   0.7497800000000000    0.1813400000000000    0.6587166666666666 C
   0.5000000000000000    0.0791300000000000    0.7181900000000000 N