H8 C12 N2
1.0
  14.8259999796768405    0.0000000000000000    0.0007762875443462
   0.0003449065428875   20.7379479518030791   -6.5872297386189604
   0.0000000000000000    0.0000000000000000   38.2439999999999998
H C N
8 12 2
direct
   0.5000000000000000    0.9855900000000000    0.9187666666666666 H
   0.5000000000000000    0.8998699999999999    0.8574999999999999 H
   0.4999900000000000    0.7582300000000000    0.9162833333333333 H
   0.5000000000000000    0.8500200000000000    0.9744366666666666 H
   0.5000000000000000    0.5145500000000000    0.7478433333333333 H
   0.5000000000000000    0.6000300000000000    0.8092100000000000 H
   0.5000000000000000    0.7421100000000000    0.7507233333333333 H
   0.5000000000000000    0.6505600000000000    0.6924666666666667 H
   0.5000000000000000    0.9344600000000000    0.9165800000000000 C
   0.5000000000000000    0.8869100000000000    0.8828533333333333 C
   0.4999900000000000    0.8215700000000000    0.8816666666666666 C
   0.5000000000000000    0.7715200000000000    0.8480233333333334 C
   0.5000000000000000    0.8078400000000000    0.9155266666666666 C
   0.4999900000000000    0.8586600000000000    0.9478533333333332 C
   0.5000100000000000    0.5657100000000000    0.7501266666666666 C
   0.4999900000000000    0.6131300000000000    0.7838999999999999 C
   0.5000100000000000    0.6785300000000000    0.7850666666666666 C
   0.4999900000000000    0.7284700000000000    0.8188866666666667 C
   0.4999900000000000    0.6924500000000000    0.7513933333333334 C
   0.5000100000000000    0.6417600000000000    0.7190099999999999 C
   0.5000000000000000    0.9208800000000000    0.9486733333333333 N
   0.4999900000000000    0.5794800000000000    0.7180866666666667 N
