H4 O2
1.0
  14.8259999796768405    0.0000000000000000    0.0007762875443462
   0.0003449065428875   20.7379479518030791   -6.5872297386189604
   0.0000000000000000    0.0000000000000000   38.2439999999999998
H O
4 2
direct
   0.5000045523599691    0.6247960489439064    0.7187585006185753 H
   0.5000045330452970    0.5694739983129502    0.7413686052326127 H
   0.5000000000000000    0.9307483729812404    0.9253516114228321 H
   0.4999927227478447    0.8756009370897223    0.9480765986565987 H
   0.4999900000000000    0.5794800000000000    0.7180866666666667 O
   0.5000000000000000    0.9208800000000000    0.9486733333333333 O
