H8 O4
1.0
  14.8259999796768405    0.0000000000000000    0.0007762875443462
   0.0003449065428875   20.7379479518030791   -6.5872297386189604
   0.0000000000000000    0.0000000000000000   38.2439999999999998
H O
8 4
direct
   0.6586283620176687    0.9287507867170827    0.0197465279507930 H
   0.6509007590259602    0.9260793458485563    0.0489711720316670 H
   0.8414567429428190    0.9288118864473319    0.0196734313520552 H
   0.8832230351283050    0.8993870685090183    0.0502479026168441 H
   0.6588163551751572    0.5714146277467280    0.9802643768968717 H
   0.6510536606209609    0.5740655744505052    0.9508626169366972 H
   0.8416519411536746    0.5710397142083058    0.9803665902683590 H
   0.8580639974129486    0.5181767868030691    0.9411039205790569 H
   0.6015700000000000    0.9523600000000000    0.0225733333333333 O
   0.8985000000000000    0.9524300000000000    0.0224533333333333 O
   0.6016100000000000    0.5479800000000000    0.9774099999999999 O
   0.8985200000000000    0.5472100000000000    0.9775733333333333 O
