C1 O3
1.0
  34.6039999999999992    0.0000000000000000    0.0000000000000021
  -0.0005356415474103   30.6899999953256462    0.0000000000000019
   0.0000000000000000    0.0000000000000000   34.8419999999999987
C O
1 3
direct
   0.2625075000000000    0.8549700000000000    0.3749900000000000 C
   0.2301050000000000    0.8776349999999999    0.3749900000000000 O
   0.2768250000000000    0.8446150000000000    0.3420600000000000 O
   0.2768250000000000    0.8446150000000000    0.4079250000000000 O
