H2 C5 N2 O4
1.0
  34.6039999999999992    0.0000000000000000    0.0000000000000021
  -0.0005356415474103   30.6899999953256462    0.0000000000000019
   0.0000000000000000    0.0000000000000000   34.8419999999999987
H C N O
2 5 2 4
direct
   0.0129850000000000    0.2536250000000000    0.0492650000000000 H
   0.1298550000000000    0.2840250000000000    0.0268150000000000 H
   0.0137500000000000    0.3373050000000000    0.0000000000000000 C
   0.0430525000000000    0.3085800000000000    0.0191200000000000 C
   0.0392450000000000    0.2696650000000000    0.0400400000000000 C
   0.0768550000000000    0.2549950000000000    0.0455650000000000 C
   0.0915650000000000    0.2131750000000000    0.0613650000000000 C
   0.1003925000000000    0.2849350000000000    0.0281750000000000 N
   0.0807000000000000    0.3176350000000000    0.0118000000000000 N
   0.1278625000000000    0.2064650000000000    0.0598400000000000 O
   0.0663150000000000    0.1866600000000000    0.0735600000000000 O
   0.9784524999999999    0.3277800000000000    0.0015950000000000 O
   0.0268250000000000    0.3715250000000000    0.9835350000000000 O
