H6 O4
1.0
  34.6039999999999992    0.0000000000000000    0.0000000000000021
  -0.0005356415474103   30.6899999953256462    0.0000000000000019
   0.0000000000000000    0.0000000000000000   34.8419999999999987
H O
6 4
direct
   0.0394842940031362    0.1893997757606304    0.0812510235051834 H
   0.1509711509378520    0.2238684297934002    0.0561872827058044 H
   0.0968213314908099    0.2096347205833147    0.0687379528403183 H
   0.0326539641262529    0.3746498456912040    0.9564430491870948 H
   0.9809744549385923    0.3277531154130506   -0.0261320505081009 H
   0.0594048456567680    0.3711776917749576    0.6253434192354578 H
   0.0663150000000000    0.1866600000000000    0.0735600000000000 O
   0.1278625000000000    0.2064650000000000    0.0598400000000000 O
   0.0268250000000000    0.3715250000000000    0.9835350000000000 O
   0.9784524999999999    0.3277800000000000    0.0015950000000000 O
