H12 O8
1.0
  36.5820000000000007    0.0000000000000000    0.0000000000000022
  -0.0006378480284020   36.5459999944337284    0.0000000000000022
   0.0000000000000000    0.0000000000000000   23.1690000000000005
H O
12 8
direct
   0.4568673150020094    0.3943406133021312    0.5493931767627460 H
   0.5431171189032669    0.3943404635696339    0.5493932467601272 H
   0.4999932027695592    0.4307860904426274    0.5323555396258521 H
   0.4568676473391292    0.6056587936138682    0.5493931751926171 H
   0.5431164641617817    0.6056595553974318    0.5493935313041550 H
   0.4999932028124601    0.5692107212744020    0.5323547672799829 H
   0.3810746534459906    0.5541279321909953   -0.0748546405932343 H
   0.3810690675573938    0.4458797891427295   -0.0749846909852146 H
   0.3844820148495522    0.4999966507253485   -0.0802714871142960 H
   0.4048589882028230    0.5000029292952213   -0.0145502204926935 H
   0.6023260160853605    0.4651748593456443   -0.0547206443446636 H
   0.6023295248569376    0.5348287980304843   -0.0547206010041070 H
   0.4688300000000000    0.3716300000000000    0.5600100000000000 O
   0.5311533333333334    0.3716300000000000    0.5600100000000000 O
   0.4688300000000000    0.6283699999999999    0.5600100000000000 O
   0.5311533333333334    0.6283699999999999    0.5600100000000000 O
   0.3716033333333333    0.5311900000000001   -0.0600200000000000 O
   0.3716033333333333    0.4688066666666666   -0.0601000000000000 O
   0.6283766666666666    0.4688099999999999   -0.0600200000000000 O
   0.6283799999999999    0.5311933333333333   -0.0600200000000000 O
