H6 O4
1.0
  13.7199999665651937    0.0000000000000000    0.0009578366927178
   0.0024847201011168   14.2359997484689416   -0.0009938602884480
   0.0000000000000000    0.0000000000000000   31.9499999999999993
H O
6 4
direct
   0.5271757145970777    0.3766649940252734    0.9445122818122127 H
   0.2446482572502143    0.3475276933319806    0.9427456326050295 H
   0.3820163371660834    0.3717811259218077    0.9387731564765243 H
   0.2229375096302405    0.6189873955846973    0.8041631982021503 H
   0.5052306985677494    0.6479996712192073    0.8060032810199097 H
   0.3679032260831726    0.6237361095865926    0.8099966622095710 H
   0.4712000000000000    0.3450200000000000    0.9565550000000000 O
   0.3063600000000000    0.3290100000000000    0.9550500000000000 O
   0.2788500000000000    0.6506200000000000    0.7920600000000000 O
   0.4436500000000000    0.6665900000000000    0.7936000000000001 O
