V16 H66 C120 O64
1.0
  13.7199999665651937    0.0000000000000000    0.0009578366927178
   0.0024847201011168   14.2359997484689416   -0.0009938602884480
   0.0000000000000000    0.0000000000000000   31.9499999999999993
V H C O
16 66 120 64
direct
   0.9692300000000000    0.7609500000000000    0.2489950000000000 V
   0.7811399999999999    0.2343900000000000    0.9992250000000000 V
   0.7194500000000000    0.7333400000000000    0.2494300000000000 V
   0.0311900000000000    0.2619500000000000    0.4992600000000000 V
   0.2810000000000000    0.2342600000000000    0.9992449999999999 V
   0.5311700000000000    0.2618700000000000    0.4995000000000000 V
   0.4692600000000000    0.7609600000000000    0.7494750000000000 V
   0.2194500000000000    0.7333400000000000    0.7490000000000000 V
   0.5311700000000000    0.2618700000000000    0.9995000000000001 V
   0.4692600000000000    0.7609600000000000    0.2494750000000000 V
   0.2194500000000000    0.7333400000000000    0.2490000000000000 V
   0.2810000000000000    0.2342600000000000    0.4992450000000000 V
   0.9692300000000000    0.7609500000000000    0.7489950000000000 V
   0.7811399999999999    0.2343900000000000    0.4992250000000000 V
   0.7194500000000000    0.7333400000000000    0.7494300000000000 V
   0.0311900000000000    0.2619500000000000    0.9992600000000000 V
   0.9651300000000000    0.9575000000000000    0.8426450000000000 H
   0.9752700000000000    0.0748700000000000    0.9012300000000000 H
   0.2859500000000000    0.0386800000000000    0.9055900000000000 H
   0.2757500000000000    0.9213000000000000    0.8470299999999999 H
   0.9651300000000000    0.9575000000000000    0.3426450000000000 H
   0.9752700000000000    0.0748700000000000    0.4012300000000000 H
   0.2859500000000000    0.0386800000000000    0.4055900000000000 H
   0.2757500000000000    0.9213000000000000    0.3470300000000000 H
   0.7147000000000000    0.5428200000000000    0.3445750000000000 H
   0.7248700000000000    0.4268500000000000    0.4036850000000000 H
   0.0259600000000000    0.5752000000000000    0.3472850000000000 H
   0.0361200000000000    0.4592300000000000    0.4063850000000000 H
   0.0249300000000000    0.5735900000000000    0.1517000000000000 H
   0.0353000000000000    0.4560300000000000    0.0932150000000000 H
   0.7251900000000000    0.4163100000000000    0.0989400000000000 H
   0.7148200000000000    0.5338200000000000    0.1574450000000000 H
   0.7748600000000000    0.9154400000000000    0.6492400000000000 H
   0.7850200000000001    0.0314100000000000    0.5901500000000000 H
   0.4756300000000000    0.0753300000000000    0.5974500000000000 H
   0.4655200000000000    0.9593600000000000    0.6565550000000000 H
   0.7748600000000000    0.9154400000000000    0.1492400000000000 H
   0.7850200000000001    0.0314100000000000    0.0901500000000000 H
   0.4756300000000000    0.0753300000000000    0.0974500000000000 H
   0.4655200000000000    0.9593600000000000    0.1565550000000000 H
   0.9650300000000001    0.9580000000000000    0.1557200000000000 H
   0.9751600000000000    0.0741800000000000    0.0966650000000000 H
   0.2757100000000000    0.9217500000000000    0.1514700000000000 H
   0.2859000000000000    0.0379000000000000    0.0923500000000000 H
   0.9650300000000001    0.9580000000000000    0.6557200000000000 H
   0.9751600000000000    0.0741800000000000    0.5966650000000000 H
   0.2757100000000000    0.9217500000000000    0.6514700000000000 H
   0.2859000000000000    0.0379000000000000    0.5923500000000000 H
   0.5271757145970777    0.3766649940252734    0.9445122818122127 H
   0.2446482572502143    0.3475276933319806    0.9427456326050295 H
   0.3820163371660834    0.3717811259218077    0.9387731564765243 H
   0.4642300000000000    0.9546100000000000    0.3441500000000000 H
   0.4742900000000000    0.0721500000000000    0.4026850000000000 H
   0.7863800000000000    0.0473500000000000    0.4025400000000000 H
   0.7762400000000000    0.9298200000000000    0.3440000000000000 H
   0.2229375096302405    0.6189873955846973    0.8041631982021503 H
   0.5052306985677494    0.6479996712192073    0.8060032810199097 H
   0.3679032260831726    0.6237361095865926    0.8099966622095710 H
   0.2248200000000000    0.4228500000000000    0.5965500000000000 H
   0.2148100000000000    0.5404700000000000    0.6550199999999999 H
   0.5359400000000000    0.4564200000000000    0.5930050000000000 H
   0.5259400000000000    0.5740300000000000    0.6514650000000000 H
   0.4642300000000000    0.9546100000000000    0.8441500000000000 H
   0.4742900000000000    0.0721500000000000    0.9026850000000000 H
   0.7863800000000000    0.0473500000000000    0.9025400000000000 H
   0.7762400000000000    0.9298200000000000    0.8440000000000000 H
   0.5249500000000000    0.5750500000000000    0.3472300000000000 H
   0.5353900000000000    0.4591600000000000    0.4063500000000000 H
   0.2146100000000000    0.5362600000000000    0.3422250000000000 H
   0.2250300000000000    0.4204000000000000    0.4013450000000000 H
   0.2248200000000000    0.4228500000000000    0.0965500000000000 H
   0.2148100000000000    0.5404700000000000    0.1550200000000000 H
   0.5359400000000000    0.4564200000000000    0.0930050000000000 H
   0.5259400000000000    0.5740300000000000    0.1514650000000000 H
   0.7147000000000000    0.5428200000000000    0.8445750000000001 H
   0.7248700000000000    0.4268500000000000    0.9036850000000001 H
   0.0259600000000000    0.5752000000000000    0.8472850000000001 H
   0.0361200000000000    0.4592300000000000    0.9063850000000000 H
   0.0249300000000000    0.5735900000000000    0.6516999999999999 H
   0.0353000000000000    0.4560300000000000    0.5932150000000000 H
   0.7251900000000000    0.4163100000000000    0.5989400000000000 H
   0.7148200000000000    0.5338200000000000    0.6574450000000001 H
   0.1139400000000000    0.8629100000000000    0.8068750000000000 C
   0.1370400000000000    0.1331500000000000    0.9413950000000000 C
   0.0348300000000000    0.9757500000000000    0.8567250000000000 C
   0.0404000000000000    0.0407700000000000    0.8890750000000001 C
   0.2161900000000000    0.0204800000000000    0.8915200000000000 C
   0.2106000000000000    0.9554400000000000    0.8591750000000000 C
   0.1198600000000000    0.9326100000000001    0.8415650000000000 C
   0.1311500000000000    0.0636300000000000    0.9066850000000000 C
   0.1139400000000000    0.8629100000000000    0.3068750000000000 C
   0.1370400000000000    0.1331500000000000    0.4413950000000000 C
   0.0348300000000000    0.9757500000000000    0.3567250000000000 C
   0.0404000000000000    0.0407700000000000    0.3890750000000000 C
   0.2161900000000000    0.0204800000000000    0.3915200000000000 C
   0.2106000000000000    0.9554400000000000    0.3591750000000000 C
   0.1198600000000000    0.9326100000000001    0.3415650000000000 C
   0.1311500000000000    0.0636300000000000    0.4066850000000000 C
   0.8870200000000000    0.3666800000000000    0.4429350000000000 C
   0.8638800000000000    0.6337900000000000    0.3074300000000000 C
   0.7845600000000000    0.5241000000000000    0.3584150000000000 C
   0.7901300000000000    0.4598900000000000    0.3910750000000000 C
   0.8810500000000000    0.4362500000000000    0.4082950000000000 C
   0.9607200000000000    0.5422100000000000    0.3599050000000000 C
   0.9662700000000000    0.4779800000000000    0.3925500000000000 C
   0.8698100000000000    0.5655800000000000    0.3425750000000000 C
   0.8866900000000000    0.3606000000000000    0.0579000000000000 C
   0.8633500000000000    0.6307000000000000    0.1921750000000000 C
   0.9600100000000000    0.5386000000000000    0.1398800000000000 C
   0.9656900000000000    0.4734800000000000    0.1075800000000000 C
   0.7901600000000000    0.4512500000000000    0.1107500000000000 C
   0.7844700000000000    0.5163600000000000    0.1430850000000000 C
   0.8808000000000000    0.4294800000000000    0.0927950000000000 C
   0.8693200000000000    0.5606000000000000    0.1577750000000000 C
   0.6139300000000000    0.8622500000000000    0.6913500000000000 C
   0.6368900000000000    0.1297200000000000    0.5558350000000000 C
   0.7100000000000000    0.9509600000000000    0.6376200000000000 C
   0.7155600000000000    0.0152000000000000    0.6049650000000000 C
   0.5404900000000000    0.0397600000000000    0.6090000000000000 C
   0.5349400000000000    0.9755300000000000    0.6417050000000000 C
   0.6308800000000000    0.0601700000000000    0.5905150000000000 C
   0.6196500000000000    0.9307700000000000    0.6562350000000000 C
   0.6139300000000000    0.8622500000000000    0.1913500000000000 C
   0.6368900000000000    0.1297200000000000    0.0558350000000000 C
   0.7100000000000000    0.9509600000000000    0.1376200000000000 C
   0.7155600000000000    0.0152000000000000    0.1049650000000000 C
   0.5404900000000000    0.0397600000000000    0.1090000000000000 C
   0.5349400000000000    0.9755300000000000    0.1417050000000000 C
   0.6308800000000000    0.0601700000000000    0.0905150000000000 C
   0.6196500000000000    0.9307700000000000    0.1562350000000000 C
   0.1138100000000000    0.8641200000000000    0.1917000000000000 C
   0.1369000000000000    0.1316800000000000    0.0564100000000000 C
   0.0347100000000000    0.9759300000000000    0.1415350000000000 C
   0.0402600000000000    0.0402300000000000    0.1089200000000000 C
   0.2106000000000000    0.9556800000000000    0.1391800000000000 C
   0.2161600000000000    0.0199700000000000    0.1065600000000000 C
   0.1198200000000000    0.9332400000000000    0.1568000000000000 C
   0.1310500000000000    0.0626700000000000    0.0912500000000000 C
   0.1138100000000000    0.8641200000000000    0.6917000000000000 C
   0.1369000000000000    0.1316800000000000    0.5564100000000000 C
   0.0347100000000000    0.9759300000000000    0.6415350000000000 C
   0.0402600000000000    0.0402300000000000    0.6089200000000000 C
   0.2106000000000000    0.9556800000000000    0.6391800000000000 C
   0.2161600000000000    0.0199700000000000    0.6065600000000000 C
   0.1198200000000000    0.9332400000000000    0.6568000000000001 C
   0.1310500000000000    0.0626700000000000    0.5912500000000001 C
   0.6137200000000000    0.8649500000000000    0.3065000000000000 C
   0.6368000000000000    0.1353000000000000    0.4408400000000000 C
   0.5342400000000000    0.9754000000000000    0.3572450000000000 C
   0.5397600000000000    0.0404900000000000    0.3895500000000000 C
   0.7163500000000000    0.0265900000000000    0.3894600000000000 C
   0.7108100000000001    0.9615100000000000    0.3571400000000000 C
   0.6196800000000000    0.9353200000000000    0.3409000000000000 C
   0.6308700000000000    0.0664000000000000    0.4059250000000000 C
   0.3867600000000000    0.3630300000000000    0.5570200000000000 C
   0.3639300000000000    0.6332900000000000    0.6912300000000000 C
   0.2900700000000000    0.4564700000000000    0.6088600000000000 C
   0.2846000000000000    0.5216400000000000    0.6411000000000000 C
   0.3809100000000000    0.4327500000000000    0.5915650000000000 C
   0.4661500000000000    0.4752100000000000    0.6069000000000000 C
   0.4606800000000000    0.5403800000000000    0.6391800000000000 C
   0.3698400000000000    0.5639700000000000    0.6565300000000001 C
   0.6137200000000000    0.8649500000000000    0.8065000000000000 C
   0.6368000000000000    0.1353000000000000    0.9408400000000000 C
   0.5342400000000000    0.9754000000000000    0.8572450000000000 C
   0.5397600000000000    0.0404900000000000    0.8895500000000001 C
   0.7163500000000000    0.0265900000000000    0.8894599999999999 C
   0.7108100000000001    0.9615100000000000    0.8571400000000000 C
   0.6196800000000000    0.9353200000000000    0.8409000000000000 C
   0.6308700000000000    0.0664000000000000    0.9059250000000000 C
   0.3867300000000000    0.3643000000000000    0.4421000000000000 C
   0.3632900000000000    0.6312900000000000    0.3065500000000000 C
   0.4599500000000000    0.5406800000000000    0.3593650000000000 C
   0.4656600000000000    0.4765000000000000    0.3920300000000000 C
   0.3807700000000000    0.4331200000000000    0.4071850000000000 C
   0.2843200000000000    0.5189800000000000    0.3565650000000000 C
   0.2900400000000000    0.4548000000000000    0.3892300000000000 C
   0.3692200000000000    0.5624000000000000    0.3414300000000000 C
   0.3867600000000000    0.3630300000000000    0.0570200000000000 C
   0.3639300000000000    0.6332900000000000    0.1912300000000000 C
   0.2900700000000000    0.4564700000000000    0.1088600000000000 C
   0.2846000000000000    0.5216400000000000    0.1411000000000000 C
   0.3809100000000000    0.4327500000000000    0.0915650000000000 C
   0.4661500000000000    0.4752100000000000    0.1069000000000000 C
   0.4606800000000000    0.5403800000000000    0.1391800000000000 C
   0.3698400000000000    0.5639700000000000    0.1565300000000000 C
   0.8870200000000000    0.3666800000000000    0.9429350000000001 C
   0.8638800000000000    0.6337900000000000    0.8074300000000000 C
   0.7845600000000000    0.5241000000000000    0.8584149999999999 C
   0.7901300000000000    0.4598900000000000    0.8910750000000001 C
   0.8810500000000000    0.4362500000000000    0.9082950000000001 C
   0.9607200000000000    0.5422100000000000    0.8599049999999999 C
   0.9662700000000000    0.4779800000000000    0.8925500000000000 C
   0.8698100000000000    0.5655800000000000    0.8425750000000001 C
   0.8866900000000000    0.3606000000000000    0.5579000000000000 C
   0.8633500000000000    0.6307000000000000    0.6921750000000000 C
   0.9600100000000000    0.5386000000000000    0.6398800000000000 C
   0.9656900000000000    0.4734800000000000    0.6075800000000000 C
   0.7901600000000000    0.4512500000000000    0.6107500000000000 C
   0.7844700000000000    0.5163600000000000    0.6430850000000000 C
   0.8808000000000000    0.4294800000000000    0.5927950000000000 C
   0.8693200000000000    0.5606000000000000    0.6577750000000000 C
   0.0294600000000000    0.8436500000000000    0.7925400000000000 O
   0.1943000000000000    0.8273500000000000    0.7941500000000000 O
   0.2216000000000000    0.1527800000000000    0.9556450000000001 O
   0.0568300000000000    0.1685400000000000    0.9544000000000000 O
   0.0294600000000000    0.8436500000000000    0.2925400000000000 O
   0.1943000000000000    0.8273500000000000    0.2941500000000000 O
   0.2216000000000000    0.1527800000000000    0.4556450000000000 O
   0.0568300000000000    0.1685400000000000    0.4544000000000000 O
   0.9717600000000000    0.3452600000000000    0.4564250000000000 O
   0.8066200000000000    0.3328000000000000    0.4565350000000000 O
   0.7791500000000000    0.6544200000000000    0.2936450000000000 O
   0.9443100000000000    0.6670500000000000    0.2935050000000000 O
   0.9711300000000000    0.3414600000000000    0.0434150000000000 O
   0.8063399999999999    0.3253500000000000    0.0449200000000000 O
   0.7788900000000000    0.6504500000000000    0.2065100000000000 O
   0.9436700000000000    0.6664900000000000    0.2048850000000000 O
   0.5295500000000000    0.8436399999999999    0.7060150000000001 O
   0.6943400000000000    0.8269800000000000    0.7041600000000000 O
   0.7213700000000000    0.1492900000000000    0.5415200000000000 O
   0.5565800000000000    0.1653700000000000    0.5430300000000000 O
   0.5295500000000000    0.8436399999999999    0.2060150000000000 O
   0.6943400000000000    0.8269800000000000    0.2041600000000000 O
   0.7213700000000000    0.1492900000000000    0.0415200000000000 O
   0.5565800000000000    0.1653700000000000    0.0430300000000000 O
   0.0290200000000000    0.8432400000000000    0.2052150000000000 O
   0.1943200000000000    0.8306300000000000    0.2053000000000000 O
   0.2216000000000000    0.1526500000000000    0.0427000000000000 O
   0.0564500000000000    0.1654100000000000    0.0428050000000000 O
   0.0290200000000000    0.8432400000000000    0.7052150000000000 O
   0.1943200000000000    0.8306300000000000    0.7053000000000000 O
   0.2216000000000000    0.1526500000000000    0.5427000000000000 O
   0.0564500000000000    0.1654100000000000    0.5428050000000000 O
   0.4712000000000000    0.3450200000000000    0.9565550000000000 O
   0.3063600000000000    0.3290100000000000    0.9550500000000000 O
   0.5289000000000000    0.8433600000000000    0.2932350000000000 O
   0.6942000000000000    0.8311400000000000    0.2930300000000000 O
   0.7214500000000000    0.1563500000000000    0.4545000000000000 O
   0.5563300000000000    0.1686800000000000    0.4546850000000000 O
   0.2788500000000000    0.6506200000000000    0.7920600000000000 O
   0.4436500000000000    0.6665900000000000    0.7936000000000001 O
   0.4714800000000000    0.3416400000000000    0.5434850000000000 O
   0.3063500000000000    0.3291500000000000    0.5434350000000000 O
   0.2791600000000000    0.6543200000000000    0.7048700000000000 O
   0.4443500000000000    0.6669900000000000    0.7049600000000000 O
   0.5289000000000000    0.8433600000000000    0.7932350000000000 O
   0.6942000000000000    0.8311400000000000    0.7930300000000000 O
   0.7214500000000000    0.1563500000000000    0.9545000000000000 O
   0.5563300000000000    0.1686800000000000    0.9546850000000000 O
   0.4712000000000000    0.3450200000000000    0.4565550000000000 O
   0.3063600000000000    0.3290100000000000    0.4550500000000000 O
   0.2788500000000000    0.6506200000000000    0.2920600000000000 O
   0.4436500000000000    0.6665900000000000    0.2936000000000000 O
   0.4714800000000000    0.3416400000000000    0.0434850000000000 O
   0.3063500000000000    0.3291500000000000    0.0434350000000000 O
   0.2791600000000000    0.6543200000000000    0.2048700000000000 O
   0.4443500000000000    0.6669900000000000    0.2049600000000000 O
   0.9717600000000000    0.3452600000000000    0.9564250000000001 O
   0.8066200000000000    0.3328000000000000    0.9565350000000000 O
   0.7791500000000000    0.6544200000000000    0.7936449999999999 O
   0.9443100000000000    0.6670500000000000    0.7935050000000000 O
   0.9711300000000000    0.3414600000000000    0.5434150000000000 O
   0.8063399999999999    0.3253500000000000    0.5449200000000000 O
   0.7788900000000000    0.6504500000000000    0.7065100000000000 O
   0.9436700000000000    0.6664900000000000    0.7048850000000000 O
