Zn16 H313 C434 N31 O64
1.0
  34.3419182239313514    0.0000000000000000    4.1017128983891036
   2.5734713131759293   11.4702057817674472    5.6807359315646035
   0.0000000000000000    0.0000000000000000   30.0820000000000007
Zn H C N O
16 313 434 31 64
direct
   0.6985150000000000    0.0977200000000000    0.4099550000000000 Zn
   0.3266000000000000    0.9108000000000001    0.0907950000000000 Zn
   0.9485200000000000    0.0977200000000000    0.4099550000000000 Zn
   0.5765950000000000    0.9108000000000001    0.0907950000000000 Zn
   0.1985150000000000    0.0977200000000000    0.4099550000000000 Zn
   0.8266000000000000    0.9108000000000001    0.0907950000000000 Zn
   0.4485200000000000    0.0977200000000000    0.4099550000000000 Zn
   0.0765950000000000    0.9108000000000001    0.0907950000000000 Zn
   0.4485200000000000    0.0977200000000000    0.9099550000000001 Zn
   0.0765950000000000    0.9108000000000001    0.5907950000000000 Zn
   0.6985150000000000    0.0977200000000000    0.9099550000000001 Zn
   0.3266000000000000    0.9108000000000001    0.5907950000000000 Zn
   0.9485200000000000    0.0977200000000000    0.9099550000000001 Zn
   0.5765950000000000    0.9108000000000001    0.5907950000000000 Zn
   0.1985150000000000    0.0977200000000000    0.9099550000000001 Zn
   0.8266000000000000    0.9108000000000001    0.5907950000000000 Zn
   0.7990750000000000    0.5575800000000000    0.5823800000000000 H
   0.8204549999999999    0.6769400000000000    0.6163850000000000 H
   0.8023899999999999    0.9695900000000000    0.4827550000000000 H
   0.7803249999999999    0.8643999999999999    0.4426250000000000 H
   0.7672950000000001    0.6864500000000000    0.4467150000000000 H
   0.7756700000000001    0.4781400000000000    0.5491150000000000 H
   0.7286250000000000    0.4678700000000000    0.3811650000000000 H
   0.7530399999999999    0.5873500000000000    0.4123200000000000 H
   0.7303200000000000    0.1954500000000000    0.5278050000000000 H
   0.7547200000000001    0.3136100000000000    0.5600250000000000 H
   0.7614000000000001    0.0628300000000000    0.2444100000000000 H
   0.8256500000000000    0.0429800000000000    0.1992500000000000 H
   0.8876500000000001    0.0000000000000000    0.3232950000000000 H
   0.8226850000000000    0.0267500000000000    0.3679400000000000 H
   0.8829100000000000    0.0000000000000000    0.1703900000000000 H
   0.9257700000000000    0.9965700000000000    0.2563500000000000 H
   0.9236350000000000    0.0000000000000000    0.0986500000000000 H
   0.9830749999999999    0.9121400000000000    0.2354000000000000 H
   0.0472450000000000    0.8776700000000000    0.1924700000000000 H
   0.9904400000000000    0.9809400000000000    0.0608750000000000 H
   0.3562150000000000    0.2230600000000000    0.1197250000000000 H
   0.3794300000000000    0.4074700000000000    0.0881400000000000 H
   0.3551300000000000    0.2514200000000000    0.9722550000000000 H
   0.3782000000000000    0.4368500000000000    0.9395850000000000 H
   0.3955850000000000    0.5725500000000000    0.0544200000000000 H
   0.3979650000000000    0.5816100000000000    0.9500500000000001 H
   0.4072850000000000    0.7427500000000000    0.0591400000000000 H
   0.4221700000000000    0.7282700000000000    0.9164950000000001 H
   0.4416000000000000    0.9192900000000001    0.8825900000000000 H
   0.4267150000000000    0.9328600000000000    0.0189000000000000 H
   0.3866350000000000    0.5516900000000000    0.2558500000000000 H
   0.4498950000000000    0.4437800000000000    0.3013750000000000 H
   0.4506500000000000    0.7564800000000000    0.1309500000000000 H
   0.5146350000000000    0.6504100000000000    0.1759200000000000 H
   0.5064600000000000    0.3453700000000000    0.3302400000000000 H
   0.5512350000000000    0.5084800000000000    0.2435850000000000 H
   0.5456850000000000    0.2178500000000000    0.4019800000000000 H
   0.6080200000000000    0.3848600000000000    0.2653750000000000 H
   0.6713050000000000    0.2661400000000000    0.3085550000000000 H
   0.6117400000000000    0.1069400000000000    0.4400750000000000 H
   0.0490750000000000    0.5575800000000000    0.5823500000000000 H
   0.0704450000000000    0.6769400000000000    0.6163850000000000 H
   0.0523800000000000    0.9695900000000000    0.4827600000000000 H
   0.0303200000000000    0.8643999999999999    0.4426250000000000 H
   0.0172950000000000    0.6864500000000000    0.4467150000000000 H
   0.0256650000000000    0.4781500000000000    0.5491150000000000 H
   0.9786300000000000    0.4678700000000000    0.3811650000000000 H
   0.0030350000000000    0.5873500000000000    0.4123000000000000 H
   0.9803250000000000    0.1954500000000000    0.5278050000000000 H
   0.0047150000000000    0.3136100000000000    0.5600250000000000 H
   0.0114000000000000    0.0628200000000000    0.2444150000000000 H
   0.0756500000000000    0.0429700000000000    0.1992750000000000 H
   0.1376450000000000    0.0000000000000000    0.3232950000000000 H
   0.0726850000000000    0.0267600000000000    0.3679400000000000 H
   0.1329050000000000    0.0000000000000000    0.1703900000000000 H
   0.1757700000000000    0.9965700000000000    0.2563500000000000 H
   0.1736300000000000    0.0000000000000000    0.0986500000000000 H
   0.2330700000000000    0.9121400000000000    0.2354000000000000 H
   0.2972550000000000    0.8776700000000000    0.1924700000000000 H
   0.2404300000000000    0.9809300000000000    0.0608750000000000 H
   0.6062100000000000    0.2230600000000000    0.1197250000000000 H
   0.6294250000000000    0.4074700000000000    0.0881400000000000 H
   0.6051250000000000    0.2514200000000000    0.9722550000000000 H
   0.6281950000000001    0.4368500000000000    0.9395850000000000 H
   0.6455800000000000    0.5725500000000000    0.0544000000000000 H
   0.6479600000000000    0.5816100000000000    0.9500500000000001 H
   0.6572750000000001    0.7427600000000000    0.0591400000000000 H
   0.6721600000000000    0.7282700000000000    0.9164950000000001 H
   0.6915900000000000    0.9192900000000001    0.8825900000000000 H
   0.6767050000000000    0.9328600000000000    0.0189250000000000 H
   0.7006450000000000    0.7564800000000000    0.1309500000000000 H
   0.6366300000000000    0.5517000000000000    0.2558650000000000 H
   0.6998900000000000    0.4437800000000000    0.3013750000000000 H
   0.7646400000000000    0.6504100000000000    0.1759000000000000 H
   0.7564649999999999    0.3453500000000000    0.3302350000000000 H
   0.8012400000000000    0.5084800000000000    0.2435850000000000 H
   0.7956900000000000    0.2178500000000000    0.4019800000000000 H
   0.8580300000000001    0.3848500000000000    0.2653500000000000 H
   0.9213100000000001    0.2661500000000000    0.3085550000000000 H
   0.8617450000000000    0.1069500000000000    0.4400750000000000 H
   0.2990750000000000    0.5575800000000000    0.5823800000000000 H
   0.3204550000000000    0.6769400000000000    0.6163850000000000 H
   0.3023900000000000    0.9695900000000000    0.4827550000000000 H
   0.2803250000000000    0.8643999999999999    0.4426250000000000 H
   0.2672950000000000    0.6864500000000000    0.4467150000000000 H
   0.2756700000000000    0.4781400000000000    0.5491150000000000 H
   0.2286250000000000    0.4678700000000000    0.3811650000000000 H
   0.2530400000000000    0.5873500000000000    0.4123200000000000 H
   0.2303200000000000    0.1954500000000000    0.5278050000000000 H
   0.2547200000000000    0.3136100000000000    0.5600250000000000 H
   0.2614000000000000    0.0628300000000000    0.2444100000000000 H
   0.3256500000000000    0.0429800000000000    0.1992500000000000 H
   0.3876500000000000    0.0000000000000000    0.3232950000000000 H
   0.3226850000000000    0.0267500000000000    0.3679400000000000 H
   0.3829100000000000    0.0000000000000000    0.1703900000000000 H
   0.4257700000000000    0.9965700000000000    0.2563500000000000 H
   0.4236350000000000    0.0000000000000000    0.0986500000000000 H
   0.4830750000000000    0.9121400000000000    0.2354000000000000 H
   0.5472450000000000    0.8776700000000000    0.1924700000000000 H
   0.4904400000000000    0.9809400000000000    0.0608750000000000 H
   0.8562149999999999    0.2230600000000000    0.1197250000000000 H
   0.8794299999999999    0.4074700000000000    0.0881400000000000 H
   0.8551299999999999    0.2514200000000000    0.9722550000000000 H
   0.8782000000000000    0.4368500000000000    0.9395850000000000 H
   0.8955850000000001    0.5725500000000000    0.0544200000000000 H
   0.8979650000000000    0.5816100000000000    0.9500500000000001 H
   0.9072850000000000    0.7427500000000000    0.0591400000000000 H
   0.9221699999999999    0.7282700000000000    0.9164950000000001 H
   0.9416000000000000    0.9192900000000001    0.8825900000000000 H
   0.9267150000000000    0.9328600000000000    0.0189000000000000 H
   0.8866350000000001    0.5516900000000000    0.2558500000000000 H
   0.9498949999999999    0.4437800000000000    0.3013750000000000 H
   0.9506500000000000    0.7564800000000000    0.1309500000000000 H
   0.0146350000000000    0.6504100000000000    0.1759200000000000 H
   0.0064600000000000    0.3453700000000000    0.3302400000000000 H
   0.0512350000000000    0.5084800000000000    0.2435850000000000 H
   0.0456850000000000    0.2178500000000000    0.4019800000000000 H
   0.1080200000000000    0.3848600000000000    0.2653750000000000 H
   0.1713050000000000    0.2661400000000000    0.3085550000000000 H
   0.1117400000000000    0.1069400000000000    0.4400750000000000 H
   0.5490750000000000    0.5575800000000000    0.5823500000000000 H
   0.5704450000000000    0.6769400000000000    0.6163850000000000 H
   0.5523800000000000    0.9695900000000000    0.4827600000000000 H
   0.5303200000000000    0.8643999999999999    0.4426250000000000 H
   0.5172949999999999    0.6864500000000000    0.4467150000000000 H
   0.5256650000000000    0.4781500000000000    0.5491150000000000 H
   0.4786300000000000    0.4678700000000000    0.3811650000000000 H
   0.5030350000000000    0.5873500000000000    0.4123000000000000 H
   0.4803250000000000    0.1954500000000000    0.5278050000000000 H
   0.5047150000000000    0.3136100000000000    0.5600250000000000 H
   0.5114000000000000    0.0628200000000000    0.2444150000000000 H
   0.5756500000000000    0.0429700000000000    0.1992750000000000 H
   0.6376450000000000    0.0000000000000000    0.3232950000000000 H
   0.5726850000000000    0.0267600000000000    0.3679400000000000 H
   0.6329050000000001    0.0000000000000000    0.1703900000000000 H
   0.6757700000000000    0.9965700000000000    0.2563500000000000 H
   0.6736300000000000    0.0000000000000000    0.0986500000000000 H
   0.7330700000000000    0.9121400000000000    0.2354000000000000 H
   0.7972550000000000    0.8776700000000000    0.1924700000000000 H
   0.7404300000000000    0.9809300000000000    0.0608750000000000 H
   0.1062100000000000    0.2230600000000000    0.1197250000000000 H
   0.1294250000000000    0.4074700000000000    0.0881400000000000 H
   0.1051250000000000    0.2514200000000000    0.9722550000000000 H
   0.1281950000000000    0.4368500000000000    0.9395850000000000 H
   0.1455800000000000    0.5725500000000000    0.0544000000000000 H
   0.1479600000000000    0.5816100000000000    0.9500500000000001 H
   0.1572750000000000    0.7427600000000000    0.0591400000000000 H
   0.1721600000000000    0.7282700000000000    0.9164950000000001 H
   0.1915900000000000    0.9192900000000001    0.8825900000000000 H
   0.1767050000000000    0.9328600000000000    0.0189250000000000 H
   0.2006450000000000    0.7564800000000000    0.1309500000000000 H
   0.1366300000000000    0.5517000000000000    0.2558650000000000 H
   0.1998900000000000    0.4437800000000000    0.3013750000000000 H
   0.2646400000000000    0.6504100000000000    0.1759000000000000 H
   0.2564650000000000    0.3453500000000000    0.3302350000000000 H
   0.3012400000000000    0.5084800000000000    0.2435850000000000 H
   0.2956900000000000    0.2178500000000000    0.4019800000000000 H
   0.3580300000000000    0.3848500000000000    0.2653500000000000 H
   0.4213100000000000    0.2661500000000000    0.3085550000000000 H
   0.3617450000000000    0.1069500000000000    0.4400750000000000 H
   0.5490750000000000    0.5575800000000000    0.0823500000000000 H
   0.5704450000000000    0.6769400000000000    0.1163850000000000 H
   0.5523800000000000    0.9695900000000000    0.9827600000000001 H
   0.5303200000000000    0.8643999999999999    0.9426250000000000 H
   0.5172949999999999    0.6864500000000000    0.9467150000000000 H
   0.5256650000000000    0.4781500000000000    0.0491150000000000 H
   0.4786300000000000    0.4678700000000000    0.8811650000000000 H
   0.5030350000000000    0.5873500000000000    0.9123000000000000 H
   0.4803250000000000    0.1954500000000000    0.0278050000000000 H
   0.5047150000000000    0.3136100000000000    0.0600250000000000 H
   0.4989413560959879    0.0565064700985740    0.8462978638817488 H
   0.1062100000000000    0.2230600000000000    0.6197250000000000 H
   0.1294250000000000    0.4074700000000000    0.5881400000000000 H
   0.1051250000000000    0.2514200000000000    0.4722550000000000 H
   0.1281950000000000    0.4368500000000000    0.4395850000000000 H
   0.1455800000000000    0.5725500000000000    0.5544000000000000 H
   0.1479600000000000    0.5816100000000000    0.4500500000000000 H
   0.1572750000000000    0.7427600000000000    0.5591400000000000 H
   0.1721600000000000    0.7282700000000000    0.4164950000000000 H
   0.1915900000000000    0.9192900000000001    0.3825900000000000 H
   0.1767050000000000    0.9328600000000000    0.5189250000000000 H
   0.2006450000000000    0.7564800000000000    0.6309500000000000 H
   0.1366300000000000    0.5517000000000000    0.7558650000000000 H
   0.1998900000000000    0.4437800000000000    0.8013749999999999 H
   0.2646400000000000    0.6504100000000000    0.6758999999999999 H
   0.2564650000000000    0.3453500000000000    0.8302350000000001 H
   0.3012400000000000    0.5084800000000000    0.7435849999999999 H
   0.2956900000000000    0.2178500000000000    0.9019800000000000 H
   0.3580300000000000    0.3848500000000000    0.7653500000000000 H
   0.4213100000000000    0.2661500000000000    0.8085550000000000 H
   0.3617450000000000    0.1069500000000000    0.9400750000000000 H
   0.7990750000000000    0.5575800000000000    0.0823800000000000 H
   0.8204549999999999    0.6769400000000000    0.1163850000000000 H
   0.8023899999999999    0.9695900000000000    0.9827550000000000 H
   0.7803249999999999    0.8643999999999999    0.9426250000000000 H
   0.7672950000000001    0.6864500000000000    0.9467150000000000 H
   0.7756700000000001    0.4781400000000000    0.0491150000000000 H
   0.7286250000000000    0.4678700000000000    0.8811650000000000 H
   0.7530399999999999    0.5873500000000000    0.9123200000000000 H
   0.7303200000000000    0.1954500000000000    0.0278050000000000 H
   0.7547200000000001    0.3136100000000000    0.0600250000000000 H
   0.7614000000000001    0.0628300000000000    0.7444100000000000 H
   0.8256500000000000    0.0429800000000000    0.6992500000000000 H
   0.8876500000000001    0.0000000000000000    0.8232950000000000 H
   0.8226850000000000    0.0267500000000000    0.8679399999999999 H
   0.8829100000000000    0.0000000000000000    0.6703900000000000 H
   0.9257700000000000    0.9965700000000000    0.7563500000000001 H
   0.9236350000000000    0.0000000000000000    0.5986500000000000 H
   0.9830749999999999    0.9121400000000000    0.7354000000000001 H
   0.0472450000000000    0.8776700000000000    0.6924700000000000 H
   0.9904400000000000    0.9809400000000000    0.5608750000000000 H
   0.3562150000000000    0.2230600000000000    0.6197250000000000 H
   0.3794300000000000    0.4074700000000000    0.5881400000000000 H
   0.3551300000000000    0.2514200000000000    0.4722550000000000 H
   0.3782000000000000    0.4368500000000000    0.4395850000000000 H
   0.3955850000000000    0.5725500000000000    0.5544200000000000 H
   0.3979650000000000    0.5816100000000000    0.4500500000000000 H
   0.4072850000000000    0.7427500000000000    0.5591400000000000 H
   0.4221700000000000    0.7282700000000000    0.4164950000000000 H
   0.4416000000000000    0.9192900000000001    0.3825900000000000 H
   0.4267150000000000    0.9328600000000000    0.5189000000000000 H
   0.3866350000000000    0.5516900000000000    0.7558500000000000 H
   0.4498950000000000    0.4437800000000000    0.8013749999999999 H
   0.4506500000000000    0.7564800000000000    0.6309500000000000 H
   0.5146350000000000    0.6504100000000000    0.6759200000000000 H
   0.5064600000000000    0.3453700000000000    0.8302400000000000 H
   0.5512350000000000    0.5084800000000000    0.7435849999999999 H
   0.5456850000000000    0.2178500000000000    0.9019800000000000 H
   0.6080200000000000    0.3848600000000000    0.7653750000000000 H
   0.6713050000000000    0.2661400000000000    0.8085550000000000 H
   0.6117400000000000    0.1069400000000000    0.9400750000000000 H
   0.0490750000000000    0.5575800000000000    0.0823500000000000 H
   0.0704450000000000    0.6769400000000000    0.1163850000000000 H
   0.0523800000000000    0.9695900000000000    0.9827600000000001 H
   0.0303200000000000    0.8643999999999999    0.9426250000000000 H
   0.0172950000000000    0.6864500000000000    0.9467150000000000 H
   0.0256650000000000    0.4781500000000000    0.0491150000000000 H
   0.9786300000000000    0.4678700000000000    0.8811650000000000 H
   0.0030350000000000    0.5873500000000000    0.9123000000000000 H
   0.9803250000000000    0.1954500000000000    0.0278050000000000 H
   0.0047150000000000    0.3136100000000000    0.0600250000000000 H
   0.0114000000000000    0.0628200000000000    0.7444150000000000 H
   0.0756500000000000    0.0429700000000000    0.6992750000000000 H
   0.1376450000000000    0.0000000000000000    0.8232950000000000 H
   0.0726850000000000    0.0267600000000000    0.8679399999999999 H
   0.1329050000000000    0.0000000000000000    0.6703900000000000 H
   0.1757700000000000    0.9965700000000000    0.7563500000000001 H
   0.1736300000000000    0.0000000000000000    0.5986500000000000 H
   0.2330700000000000    0.9121400000000000    0.7354000000000001 H
   0.2972550000000000    0.8776700000000000    0.6924700000000000 H
   0.2404300000000000    0.9809300000000000    0.5608750000000000 H
   0.6062100000000000    0.2230600000000000    0.6197250000000000 H
   0.6294250000000000    0.4074700000000000    0.5881400000000000 H
   0.6051250000000000    0.2514200000000000    0.4722550000000000 H
   0.6281950000000001    0.4368500000000000    0.4395850000000000 H
   0.6455800000000000    0.5725500000000000    0.5544000000000000 H
   0.6479600000000000    0.5816100000000000    0.4500500000000000 H
   0.6572750000000001    0.7427600000000000    0.5591400000000000 H
   0.6721600000000000    0.7282700000000000    0.4164950000000000 H
   0.6915900000000000    0.9192900000000001    0.3825900000000000 H
   0.6767050000000000    0.9328600000000000    0.5189250000000000 H
   0.7006450000000000    0.7564800000000000    0.6309500000000000 H
   0.6366300000000000    0.5517000000000000    0.7558650000000000 H
   0.6998900000000000    0.4437800000000000    0.8013749999999999 H
   0.7646400000000000    0.6504100000000000    0.6758999999999999 H
   0.7564649999999999    0.3453500000000000    0.8302350000000001 H
   0.8012400000000000    0.5084800000000000    0.7435849999999999 H
   0.7956900000000000    0.2178500000000000    0.9019800000000000 H
   0.8580300000000001    0.3848500000000000    0.7653500000000000 H
   0.9213100000000001    0.2661500000000000    0.8085550000000000 H
   0.8617450000000000    0.1069500000000000    0.9400750000000000 H
   0.7470099507242514    0.9562406853030557    0.6065325305401900 H
   0.7698767870584012    0.9154297834254106    0.6596302689311652 H
   0.2990750000000000    0.5575800000000000    0.0823800000000000 H
   0.3204550000000000    0.6769400000000000    0.1163850000000000 H
   0.3023900000000000    0.9695900000000000    0.9827550000000000 H
   0.2803250000000000    0.8643999999999999    0.9426250000000000 H
   0.2672950000000000    0.6864500000000000    0.9467150000000000 H
   0.2756700000000000    0.4781400000000000    0.0491150000000000 H
   0.2286250000000000    0.4678700000000000    0.8811650000000000 H
   0.2530400000000000    0.5873500000000000    0.9123200000000000 H
   0.2303200000000000    0.1954500000000000    0.0278050000000000 H
   0.2547200000000000    0.3136100000000000    0.0600250000000000 H
   0.2614000000000000    0.0628300000000000    0.7444100000000000 H
   0.3256500000000000    0.0429800000000000    0.6992500000000000 H
   0.3876500000000000    0.0000000000000000    0.8232950000000000 H
   0.3226850000000000    0.0267500000000000    0.8679399999999999 H
   0.3829100000000000    0.0000000000000000    0.6703900000000000 H
   0.4257700000000000    0.9965700000000000    0.7563500000000001 H
   0.4236350000000000    0.0000000000000000    0.5986500000000000 H
   0.4830750000000000    0.9121400000000000    0.7354000000000001 H
   0.5472450000000000    0.8776700000000000    0.6924700000000000 H
   0.4904400000000000    0.9809400000000000    0.5608750000000000 H
   0.8562149999999999    0.2230600000000000    0.6197250000000000 H
   0.8794299999999999    0.4074700000000000    0.5881400000000000 H
   0.8551299999999999    0.2514200000000000    0.4722550000000000 H
   0.8782000000000000    0.4368500000000000    0.4395850000000000 H
   0.8955850000000001    0.5725500000000000    0.5544200000000000 H
   0.8979650000000000    0.5816100000000000    0.4500500000000000 H
   0.9072850000000000    0.7427500000000000    0.5591400000000000 H
   0.9221699999999999    0.7282700000000000    0.4164950000000000 H
   0.9416000000000000    0.9192900000000001    0.3825900000000000 H
   0.9267150000000000    0.9328600000000000    0.5189000000000000 H
   0.8866350000000001    0.5516900000000000    0.7558500000000000 H
   0.9498949999999999    0.4437800000000000    0.8013749999999999 H
   0.9506500000000000    0.7564800000000000    0.6309500000000000 H
   0.0146350000000000    0.6504100000000000    0.6759200000000000 H
   0.0064600000000000    0.3453700000000000    0.8302400000000000 H
   0.0512350000000000    0.5084800000000000    0.7435849999999999 H
   0.0456850000000000    0.2178500000000000    0.9019800000000000 H
   0.1080200000000000    0.3848600000000000    0.7653750000000000 H
   0.1713050000000000    0.2661400000000000    0.8085550000000000 H
   0.1117400000000000    0.1069400000000000    0.9400750000000000 H
   0.7143349999999999    0.2538500000000000    0.4316600000000000 C
   0.7992450000000000    0.6485200000000000    0.5585700000000000 C
   0.8113550000000000    0.7137600000000000    0.5779600000000000 C
   0.8015950000000001    0.8777199999999999    0.5000000000000000 C
   0.7892700000000000    0.8176900000000000    0.4811850000000000 C
   0.7876200000000000    0.6995100000000000    0.5087699999999999 C
   0.7741750000000001    0.6368300000000000    0.4859200000000000 C
   0.7691450000000000    0.5257700000000000    0.5097200000000000 C
   0.7342050000000000    0.4356300000000000    0.4203600000000000 C
   0.7477450000000000    0.5021800000000000    0.4381050000000000 C
   0.7352650000000001    0.2814000000000000    0.5029100000000000 C
   0.7487550000000001    0.3481800000000000    0.5207349999999999 C
   0.7278150000000000    0.3243600000000000    0.4524900000000000 C
   0.7552300000000001    0.4599100000000000    0.4888550000000000 C
   0.7485800000000000    0.0545200000000000    0.3359000000000000 C
   0.7894099999999999    0.0490000000000000    0.2615250000000000 C
   0.8254750000000000    0.0376500000000000    0.2364950000000000 C
   0.8599850000000000    0.0180100000000000    0.3063200000000000 C
   0.8237749999999999    0.0288400000000000    0.3312750000000000 C
   0.7879900000000000    0.0437600000000000    0.3093600000000000 C
   0.8617300000000000    0.0202900000000000    0.2588050000000000 C
   0.9078200000000001    0.9925500000000000    0.1922050000000000 C
   0.9007149999999999    0.0000000000000000    0.2356250000000000 C
   0.9503450000000000    0.9880800000000000    0.1206000000000000 C
   0.9830950000000001    0.9303300000000000    0.1964650000000000 C
   0.0191250000000000    0.9104300000000000    0.1729500000000000 C
   0.9875350000000001    0.9668500000000000    0.0995150000000000 C
   0.9470499999999999    0.9709100000000001    0.1704550000000000 C
   0.3416000000000000    0.1115800000000000    0.0690150000000000 C
   0.3609900000000000    0.2712600000000000    0.0802800000000000 C
   0.3738650000000000    0.3748200000000000    0.0622850000000000 C
   0.3604350000000000    0.2864500000000000    0.9972600000000000 C
   0.3731800000000000    0.3905000000000000    0.9791799999999999 C
   0.3541800000000000    0.2255500000000000    0.0480400000000000 C
   0.3802450000000000    0.4369200000000000    0.0111850000000000 C
   0.4002950000000000    0.6059400000000000    0.0144900000000000 C
   0.3935500000000000    0.5460000000000000    0.9900949999999999 C
   0.4149050000000000    0.7768800000000000    0.0198950000000000 C
   0.4226850000000000    0.7696200000000000    0.9409300000000000 C
   0.4335850000000000    0.8758600000000000    0.9215500000000000 C
   0.4257750000000000    0.8838000000000000    0.9977000000000000 C
   0.4127200000000000    0.7163900000000000    0.9915250000000000 C
   0.3758300000000000    0.7216700000000000    0.1636050000000000 C
   0.4150250000000000    0.5711400000000000    0.2385400000000000 C
   0.4505350000000000    0.5109200000000000    0.2637500000000000 C
   0.4509250000000000    0.6870300000000000    0.1680050000000000 C
   0.4865900000000000    0.6273600000000000    0.1931400000000000 C
   0.4146700000000000    0.6591300000000000    0.1902200000000000 C
   0.4872700000000000    0.5369699999999999    0.2411500000000000 C
   0.5318500000000000    0.3784100000000000    0.3083200000000000 C
   0.5257250000000000    0.4736700000000000    0.2645000000000000 C
   0.5728650000000000    0.2322500000000000    0.3801050000000000 C
   0.6072100000000000    0.3256800000000000    0.3043300000000000 C
   0.6427700000000001    0.2596800000000000    0.3279950000000000 C
   0.6096200000000001    0.1695700000000000    0.4013850000000000 C
   0.5706150000000000    0.3140700000000000    0.3302400000000000 C
   0.9643450000000000    0.2538500000000000    0.4316600000000000 C
   0.0492350000000000    0.6485200000000000    0.5585750000000000 C
   0.0613500000000000    0.7137600000000000    0.5779600000000000 C
   0.0515900000000000    0.8777199999999999    0.5000000000000000 C
   0.0392600000000000    0.8176900000000000    0.4811850000000000 C
   0.0376200000000000    0.6995000000000000    0.5087699999999999 C
   0.0241700000000000    0.6368300000000000    0.4859200000000000 C
   0.0191400000000000    0.5257700000000000    0.5097250000000000 C
   0.9842150000000001    0.4356300000000000    0.4203600000000000 C
   0.9977500000000000    0.5021800000000000    0.4381050000000000 C
   0.9852750000000000    0.2814000000000000    0.5029100000000000 C
   0.9987500000000000    0.3481800000000000    0.5207349999999999 C
   0.9778200000000000    0.3243600000000000    0.4524900000000000 C
   0.0052250000000000    0.4599000000000000    0.4888550000000000 C
   0.9985750000000000    0.0545500000000000    0.3355000000000000 C
   0.0394050000000000    0.0490200000000000    0.2615000000000000 C
   0.0754750000000000    0.0376300000000000    0.2365000000000000 C
   0.1099800000000000    0.0179900000000000    0.3063250000000000 C
   0.0737700000000000    0.0288700000000000    0.3312500000000000 C
   0.0379900000000000    0.0437100000000000    0.3093700000000000 C
   0.1117250000000000    0.0203200000000000    0.2588000000000000 C
   0.1578150000000000    0.9925600000000000    0.1922000000000000 C
   0.1507100000000000    0.0000000000000000    0.2356300000000000 C
   0.2003400000000000    0.9880700000000000    0.1206300000000000 C
   0.2330900000000000    0.9303200000000000    0.1964650000000000 C
   0.2691350000000000    0.9104300000000000    0.1729450000000000 C
   0.2375300000000000    0.9668600000000001    0.0995000000000000 C
   0.1970500000000000    0.9709200000000000    0.1704550000000000 C
   0.5915900000000001    0.1115800000000000    0.0690000000000000 C
   0.6109800000000000    0.2712600000000000    0.0802800000000000 C
   0.6238600000000000    0.3748200000000000    0.0622850000000000 C
   0.6104300000000000    0.2864500000000000    0.9972600000000000 C
   0.6231750000000000    0.3905000000000000    0.9791799999999999 C
   0.6041750000000000    0.2255500000000000    0.0480400000000000 C
   0.6302350000000000    0.4369200000000000    0.0111850000000000 C
   0.6502900000000000    0.6059400000000000    0.0144900000000000 C
   0.6435450000000000    0.5460000000000000    0.9900949999999999 C
   0.6649000000000000    0.7768800000000000    0.0198950000000000 C
   0.6726799999999999    0.7696200000000000    0.9409300000000000 C
   0.6835800000000000    0.8758500000000000    0.9215500000000000 C
   0.6757700000000000    0.8838000000000000    0.9977300000000000 C
   0.6627149999999999    0.7163900000000000    0.9915250000000000 C
   0.6258250000000000    0.7216600000000000    0.1636000000000000 C
   0.7009200000000000    0.6870000000000001    0.1650000000000000 C
   0.6650199999999999    0.5711200000000000    0.2385350000000000 C
   0.7005250000000001    0.5109399999999999    0.2637700000000000 C
   0.6646600000000000    0.6591700000000000    0.1902300000000000 C
   0.7365800000000000    0.6273800000000000    0.1931450000000000 C
   0.7372650000000001    0.5369400000000000    0.2411450000000000 C
   0.7818600000000000    0.3784000000000000    0.3083200000000000 C
   0.7757300000000000    0.4736800000000000    0.2645200000000000 C
   0.8228750000000000    0.2322600000000000    0.3801050000000000 C