H10 C14 N1 O2
1.0
  34.3419182239313514    0.0000000000000000    4.1017128983891036
   2.5734713131759293   11.4702057817674472    5.6807359315646035
   0.0000000000000000    0.0000000000000000   30.0820000000000007
H C N O
10 14 1 2
direct
   0.5114000000000000    0.0628200000000000    0.7444150000000000 H
   0.5756500000000000    0.0429700000000000    0.6992750000000000 H
   0.6376450000000000    0.0000000000000000    0.8232950000000000 H
   0.5726850000000000    0.0267600000000000    0.8679399999999999 H
   0.6757700000000000    0.9965700000000000    0.7563500000000001 H
   0.6329050000000001    0.0000000000000000    0.6703900000000000 H
   0.6736300000000000    0.0000000000000000    0.5986500000000000 H
   0.7404300000000000    0.9809300000000000    0.5608750000000000 H
   0.7972550000000000    0.8776700000000000    0.6924700000000000 H
   0.7330700000000000    0.9121400000000000    0.7354000000000001 H
   0.4985750000000000    0.0545500000000000    0.8355000000000000 C
   0.5379900000000000    0.0437100000000000    0.8093699999999999 C
   0.5394050000000000    0.0490200000000000    0.7615000000000001 C
   0.5754750000000000    0.0376300000000000    0.7364999999999999 C
   0.6117250000000000    0.0203200000000000    0.7587999999999999 C
   0.6099800000000000    0.0179900000000000    0.8063250000000000 C
   0.5737700000000000    0.0288700000000000    0.8312500000000000 C
   0.6507100000000000    0.0000000000000000    0.7356300000000000 C
   0.6578150000000000    0.9925600000000000    0.6922000000000000 C
   0.6970499999999999    0.9709200000000000    0.6704550000000000 C
   0.7003400000000000    0.9880700000000000    0.6206300000000000 C
   0.7375300000000000    0.9668600000000001    0.5995000000000000 C
   0.7691350000000000    0.9104300000000000    0.6729450000000000 C
   0.7330900000000000    0.9303200000000000    0.6964650000000000 C
   0.7718100000000000    0.9284600000000000    0.6249300000000000 N
   0.4675250000000000    0.0549500000000000    0.8182199999999999 O
   0.5000000000000000    0.0621600000000000    0.8774999999999999 O
