H6 O4
1.0
  39.4319730398005603    0.0000000000000000    0.0461106109444831
   0.0075061918276076   39.3779723613095172    0.0460474649465372
   0.0000000000000000    0.0000000000000000   13.6600000000000001
H O
6 4
direct
   0.8402406330892270    0.4148631240378624    0.1512857993114632 H
   0.9130150649523635    0.3388042918207957    0.1581653627874557 H
   0.8757218358278114    0.3758737282773031    0.1524738448342993 H
   0.8264075759565294    0.2517682327424637    0.8486594170599537 H
   0.7536644856076969    0.3278611042761048    0.8417968048427477 H
   0.7909414430257690    0.2907759852563751    0.8474800484134192 H
   0.8607633333333333    0.4018866666666666    0.1628500000000000 O
   0.9008266666666667    0.3600000000000000    0.1666200000000000 O
   0.8058900000000000    0.2647533333333333    0.8371000000000000 O
   0.7658433333333333    0.3066600000000000    0.8333400000000000 O
