H3 C9 O6
1.0
  13.5009935513813311    0.0000000000000000   -0.0131956644285295
   0.3757723439903178   14.4171003595398481    0.0098167432461292
   0.0000000000000000    0.0000000000000000   15.3529999999999998
H C O
3 9 6
direct
   0.5394600000000001    0.6960200000000000    0.2653900000000000 H
   0.7835900000000000    0.5170800000000000    0.1865600000000000 H
   0.7079700000000000    0.7616500000000000    0.0365500000000000 H
   0.6174500000000001    0.7381600000000000    0.1499500000000000 C
   0.6003100000000000    0.6799200000000000    0.2210500000000000 C
   0.6605200000000000    0.6007300000000000    0.2346500000000000 C
   0.7375699999999999    0.5792500000000000    0.1765300000000000 C
   0.7544900000000000    0.6370600000000000    0.1050600000000000 C
   0.6949200000000000    0.7169000000000000    0.0922000000000000 C
   0.5500699999999999    0.8198400000000000    0.1342400000000000 C
   0.6408900000000000    0.5368900000000000    0.3087000000000000 C
   0.8327800000000000    0.6129300000000000    0.0406400000000000 C
   0.5686500000000000    0.8717900000000000    0.0679300000000000 O
   0.4769700000000000    0.8348800000000000    0.1850400000000000 O
   0.5626400000000000    0.5547000000000000    0.3545900000000000 O
   0.7010500000000000    0.4692600000000000    0.3225000000000000 O
   0.8826300000000000    0.5360100000000000    1.0488000000000000 O
   0.8496200000000000    0.6683600000000000    0.9775000000000000 O
