Zn8 H18 C27 O24
1.0
  13.5009935513813311    0.0000000000000000   -0.0131956644285295
   0.3757723439903178   14.4171003595398481    0.0098167432461292
   0.0000000000000000    0.0000000000000000   15.3529999999999998
Zn H C O
8 18 27 24
direct
   0.9630600000000000    0.5395700000000000    0.9410600000000000 Zn
   0.0419500000000000    0.0394200000000000    0.5556100000000000 Zn
   0.5371500000000000    0.4604100000000000    0.4409800000000000 Zn
   0.4579300000000000    0.9603600000000000    0.0557000000000000 Zn
   0.6790600000000000    0.3274800000000000    0.3401800000000000 Zn
   0.8209700000000000    0.6724800000000000    0.8401700000000000 Zn
   0.1789700000000000    0.1645700000000000    0.6631800000000000 Zn
   0.3214200000000000    0.8323300000000000    0.1631300000000000 Zn
   0.8242123941314037    0.7309237842889997    0.9877829924111234 H
   0.8867266535618062    0.4948143250591741    1.0987144873002523 H
   0.8563449428075126    0.6007344237304306    1.0594381154145014 H
   0.7921100000000000    0.2379800000000000    0.5369699999999999 H
   0.9611900000000000    0.3038900000000000    0.7656400000000000 H
   0.7168800000000000    0.4827500000000000    0.6863600000000000 H
   0.0405800000000000    0.8007900000000000    0.7304300000000000 H
   0.2055800000000000    0.7328900000000000    0.9630400000000000 H
   0.2797200000000000    0.9730700000000000    0.8117000000000000 H
   0.6272208332810489    0.8613624914312999    0.0323609465822281 H
   0.4583197083091466    0.8024278646119639    0.2376505320510562 H
   0.5408970387177074    0.8234989130893551    0.1462182157156739 H
   0.7647330775080331    0.4707953087959321    0.2934113425894371 H
   0.5232212158323009    0.6118478868621253    0.3522218061873136 H
   0.6408162034077143    0.5565847175328374    0.3188812860437905 H
   0.2205700000000000    0.0263600000000000    0.3128200000000000 H
   0.4596600000000000    0.1981000000000000    0.2306700000000000 H
   0.2950200000000000    0.2672400000000000    0.4628200000000000 H
   0.8595500000000000    0.4630100000000000    0.8086900000000000 C
   0.9503100000000000    0.1799000000000000    0.6346000000000001 C
   0.6674500000000000    0.3868500000000000    0.5406000000000000 C
   0.8053300000000000    0.2827900000000000    0.5925400000000000 C
   0.8829300000000000    0.2615700000000000    0.6503100000000001 C
   0.9002200000000000    0.3199200000000000    0.7212800000000000 C
   0.7628500000000000    0.4205400000000000    0.6765099999999999 C
   0.8400000000000000    0.3991200000000000    0.7346900000000000 C
   0.7458300000000000    0.3626800000000000    0.6051500000000000 C
   0.1404900000000000    0.9554900000000000    0.6865599999999999 C
   0.0512600000000000    0.6778800000000000    0.8628400000000001 C
   0.3261200000000000    0.8784300000000000    0.9610900000000000 C
   0.1003400000000000    0.8154500000000000    0.7755500000000000 C
   0.1928000000000000    0.7772500000000000    0.9065900000000000 C
   0.1172400000000000    0.7574600000000000    0.8475100000000000 C
   0.1595000000000000    0.8924600000000000    0.7620100000000000 C
   0.2347000000000000    0.9124500000000000    0.8215500000000000 C
   0.2507000000000000    0.8554100000000000    0.8943700000000000 C
   0.3595400000000000    0.0428100000000000    0.1878500000000000 C
   0.4493200000000000    0.3215800000000000    0.3626000000000000 C
   0.1742200000000000    0.1217800000000000    0.4614100000000000 C
   0.2656300000000000    0.0870000000000000    0.3223000000000000 C
   0.3407800000000000    0.1065600000000000    0.2627800000000000 C
   0.3999800000000000    0.1836500000000000    0.2758600000000000 C
   0.3076800000000000    0.2226000000000000    0.4066200000000000 C
   0.3832400000000000    0.2420100000000000    0.3475100000000000 C
   0.2496300000000000    0.1444900000000000    0.3947200000000000 C
   0.8496200000000000    0.6683600000000000    0.9775000000000000 O
   0.8826300000000000    0.5360100000000000    1.0488000000000000 O
   0.7993900000000000    0.5306500000000000    0.8222900000000000 O
   0.9377400000000000    0.4452100000000000    0.8547900000000000 O
   0.0234900000000000    0.1647200000000000    0.6854500000000000 O
   0.9315400000000000    0.1281200000000000    0.5682000000000000 O
   0.6506000000000000    0.3315500000000000    0.4775000000000000 O
   0.6176000000000000    0.4637600000000000    0.5488300000000000 O
   0.2005200000000000    0.0198800000000000    0.6709500000000000 O
   0.0621400000000000    0.9412100000000000    0.6405500000000000 O
   0.9758599999999999    0.6680700000000001    0.8142300000000000 O
   0.0735600000000000    0.6224300000000000    0.9264000000000000 O
   0.3406600000000000    0.8240100000000000    0.0256000000000000 O
   0.3745000000000000    0.9538500000000000    0.9516100000000000 O
   0.5686500000000000    0.8717900000000000    0.0679300000000000 O
   0.4769700000000000    0.8348800000000000    0.1850400000000000 O
   0.7010500000000000    0.4692600000000000    0.3225000000000000 O
   0.5626400000000000    0.5547000000000000    0.3545900000000000 O
   0.3003000000000000    0.9774000000000000    0.1739600000000000 O
   0.4367200000000000    0.0581100000000000    0.1406800000000000 O
   0.5243200000000000    0.3316400000000000    0.3136900000000000 O
   0.4274800000000000    0.3767600000000000    0.4264600000000000 O
   0.1604000000000000    0.1761500000000000    0.5259300000000000 O
   0.1253000000000000    0.0466600000000000    0.4517900000000000 O
