H6 O4
1.0
  16.6449350994731873    0.0000000000000000   -0.0464815482269435
   0.3514883534382556   33.6301388564768686   -0.0405022404581604
   0.0000000000000000    0.0000000000000000   27.2600000000000016
H O
6 4
direct
  -0.0758670356558785    0.4293439991834795    0.6269044172576627 H
   0.7635916948964497    0.3649084196776913    0.6847763131271930 H
  -0.1692232541614875    0.3947633328276442    0.6660456336327740 H
  -0.1692444474278137    0.3930136716067980    0.8342394645386675 H
   0.7640428245856186    0.3634001705936294    0.8147659937286642 H
  -0.0760496036722793    0.4276528801552882    0.8743709967293926 H
  -0.1076000000000000    0.4062400000000000    0.6186500000000000 O
   0.7987700000000000    0.3714600000000000    0.6577200000000000 O
   0.7989400000000000    0.3699700000000000    0.8420900000000000 O
  -0.1079400000000000    0.4045550000000000    0.8822400000000000 O
