Cd64 H630 C252 Br128 N126
1.0
  28.1435572035832955    0.0000000000000000   -0.5000919201854325
  -0.4140222420149426   15.7199470425885579   -6.3069088752992286
   0.0000000000000000    0.0000000000000000   33.8860000000000028
Cd H C Br N
64 630 252 128 126
direct
   0.1875000000000000    0.4637900000000000    0.2680900000000000 Cd
   0.1875000000000000    0.9637900000000000    0.0180950000000000 Cd
   0.1875000000000000    0.9637900000000000    0.2680900000000000 Cd
   0.4374950000000000    0.4638000000000000    0.0180950000000000 Cd
   0.4374950000000000    0.4638000000000000    0.2680900000000000 Cd
   0.4374900000000000    0.9637900000000000    0.0180950000000000 Cd
   0.4374900000000000    0.9637900000000000    0.2680900000000000 Cd
   0.0625100000000000    0.0361900000000000    0.2318900000000000 Cd
   0.0625100000000000    0.0361900000000000    0.4818850000000000 Cd
   0.0625050000000000    0.5361800000000000    0.2318900000000000 Cd
   0.0625050000000000    0.5361800000000000    0.4818850000000000 Cd
   0.3125000000000000    0.0361900000000000    0.2318900000000000 Cd
   0.3125050000000000    0.0361900000000000    0.4818850000000000 Cd
   0.3125000000000000    0.5361900000000001    0.2318900000000000 Cd
   0.3125000000000000    0.5361800000000000    0.4818850000000000 Cd
   0.1875000000000000    0.4638000000000000    0.0180500000000000 Cd
   0.6875000000000000    0.4637900000000000    0.2680900000000000 Cd
   0.6875000000000000    0.9637900000000000    0.0180950000000000 Cd
   0.6875000000000000    0.9637900000000000    0.2680900000000000 Cd
   0.9374950000000000    0.4638000000000000    0.0180950000000000 Cd
   0.9374950000000000    0.4638000000000000    0.2680900000000000 Cd
   0.9374899999999999    0.9637900000000000    0.0180950000000000 Cd
   0.9374899999999999    0.9637900000000000    0.2680900000000000 Cd
   0.5625100000000000    0.0361900000000000    0.2318900000000000 Cd
   0.5625100000000000    0.0361900000000000    0.4818850000000000 Cd
   0.5625050000000000    0.5361800000000000    0.2318900000000000 Cd
   0.5625050000000000    0.5361800000000000    0.4818850000000000 Cd
   0.8125000000000000    0.0361900000000000    0.2318900000000000 Cd
   0.8125050000000000    0.0361900000000000    0.4818850000000000 Cd
   0.8125000000000000    0.5361900000000001    0.2318900000000000 Cd
   0.8125000000000000    0.5361800000000000    0.4818850000000000 Cd
   0.6875000000000000    0.4638000000000000    0.0180500000000000 Cd
   0.1875000000000000    0.4637900000000000    0.7680899999999999 Cd
   0.1875000000000000    0.9637900000000000    0.5180950000000000 Cd
   0.1875000000000000    0.9637900000000000    0.7680899999999999 Cd
   0.4374950000000000    0.4638000000000000    0.5180950000000000 Cd
   0.4374950000000000    0.4638000000000000    0.7680899999999999 Cd
   0.4374900000000000    0.9637900000000000    0.5180950000000000 Cd
   0.4374900000000000    0.9637900000000000    0.7680899999999999 Cd
   0.0625100000000000    0.0361900000000000    0.7318900000000000 Cd
   0.0625100000000000    0.0361900000000000    0.9818850000000000 Cd
   0.0625050000000000    0.5361800000000000    0.7318900000000000 Cd
   0.0625050000000000    0.5361800000000000    0.9818850000000000 Cd
   0.3125000000000000    0.0361900000000000    0.7318900000000000 Cd
   0.3125050000000000    0.0361900000000000    0.9818850000000000 Cd
   0.3125000000000000    0.5361900000000001    0.7318900000000000 Cd
   0.3125000000000000    0.5361800000000000    0.9818850000000000 Cd
   0.1875000000000000    0.4638000000000000    0.5180500000000000 Cd
   0.6875000000000000    0.4637900000000000    0.7680899999999999 Cd
   0.6875000000000000    0.9637900000000000    0.5180950000000000 Cd
   0.6875000000000000    0.9637900000000000    0.7680899999999999 Cd
   0.9374950000000000    0.4638000000000000    0.5180950000000000 Cd
   0.9374950000000000    0.4638000000000000    0.7680899999999999 Cd
   0.9374899999999999    0.9637900000000000    0.5180950000000000 Cd
   0.9374899999999999    0.9637900000000000    0.7680899999999999 Cd
   0.5625100000000000    0.0361900000000000    0.7318900000000000 Cd
   0.5625100000000000    0.0361900000000000    0.9818850000000000 Cd
   0.5625050000000000    0.5361800000000000    0.7318900000000000 Cd
   0.5625050000000000    0.5361800000000000    0.9818850000000000 Cd
   0.8125000000000000    0.0361900000000000    0.7318900000000000 Cd
   0.8125050000000000    0.0361900000000000    0.9818850000000000 Cd
   0.8125000000000000    0.5361900000000001    0.7318900000000000 Cd
   0.8125000000000000    0.5361800000000000    0.9818850000000000 Cd
   0.6875000000000000    0.4638000000000000    0.5180500000000000 Cd
   0.0161200000000000    0.0061500000000000    0.0713900000000000 H
   0.0161200000000000    0.0061500000000000    0.3213850000000000 H
   0.0161200000000000    0.5061400000000000    0.0713900000000000 H
   0.0161200000000000    0.5061400000000000    0.3213850000000000 H
   0.2661150000000000    0.0061400000000000    0.0713900000000000 H
   0.2661150000000000    0.0061400000000000    0.3213850000000000 H
   0.2661100000000000    0.5061300000000000    0.0713900000000000 H
   0.2661150000000000    0.5061300000000000    0.3213850000000000 H
   0.2161050000000000    0.1183000000000000    0.1098350000000000 H
   0.2161100000000000    0.1183000000000000    0.3598300000000000 H
   0.2161050000000000    0.6183000000000000    0.1098350000000000 H
   0.2161050000000000    0.6183000000000000    0.3598300000000000 H
   0.4660900000000000    0.1183000000000000    0.1098400000000000 H
   0.4660900000000000    0.1183000000000000    0.3598350000000000 H
   0.4660850000000000    0.6183000000000000    0.1098400000000000 H
   0.4660900000000000    0.6182900000000000    0.3598350000000000 H
   0.1853300000000000    0.0477700000000000    0.1290350000000000 H
   0.1853300000000000    0.0477700000000000    0.3790300000000000 H
   0.1853300000000000    0.5477600000000000    0.1290350000000000 H
   0.1853300000000000    0.5477600000000000    0.3790300000000000 H
   0.4353200000000000    0.0477500000000000    0.1290350000000000 H
   0.4353200000000000    0.0477500000000000    0.3790000000000000 H
   0.4353150000000000    0.5477400000000000    0.1290350000000000 H
   0.4353150000000000    0.5477400000000000    0.3790000000000000 H
   0.2094950000000000    0.3954600000000000    0.1031300000000000 H
   0.2094950000000000    0.3954600000000000    0.3531250000000000 H
   0.2094950000000000    0.8954500000000000    0.1031300000000000 H
   0.2094950000000000    0.8954500000000000    0.3531250000000000 H
   0.4594950000000000    0.3954500000000000    0.1031000000000000 H
   0.4595000000000000    0.3954500000000000    0.3531000000000000 H
   0.4594950000000000    0.8954400000000000    0.1031250000000000 H
   0.4594950000000000    0.8954400000000000    0.3531200000000000 H
   0.0056950000000000    0.3632300000000000    0.0655500000000000 H
   0.0056950000000000    0.3632300000000000    0.3155900000000000 H
   0.0056900000000000    0.8632200000000000    0.0655950000000000 H
   0.0056950000000000    0.8632200000000000    0.3155900000000000 H
   0.2556750000000000    0.3632200000000000    0.0655000000000000 H
   0.2556750000000000    0.3632200000000000    0.3155900000000000 H
   0.2556750000000000    0.8632100000000000    0.0655950000000000 H
   0.2556750000000000    0.8632100000000000    0.3155900000000000 H
   0.1088850000000000    0.3572000000000000    0.2469200000000000 H
   0.1088900000000000    0.3572000000000000    0.4969150000000000 H
   0.1088850000000000    0.8571900000000000    0.2469200000000000 H
   0.1088850000000000    0.8571900000000000    0.4969150000000000 H
   0.3588850000000000    0.3572000000000000    0.2469200000000000 H
   0.3588850000000000    0.3571900000000000    0.4969000000000000 H
   0.3588800000000000    0.8571900000000000    0.2469200000000000 H
   0.3588800000000000    0.8571900000000000    0.4969200000000000 H
   0.1588950000000000    0.2803200000000000    0.1908350000000000 H
   0.1588950000000000    0.2803100000000000    0.4408000000000000 H
   0.1588950000000000    0.7803099999999999    0.1908350000000000 H
   0.1588950000000000    0.7803099999999999    0.4408000000000000 H
   0.4088950000000000    0.2803200000000000    0.1908000000000000 H
   0.4088950000000000    0.2803100000000000    0.4408350000000000 H
   0.4088950000000000    0.7803099999999999    0.1908400000000000 H
   0.4088950000000000    0.7803099999999999    0.4408350000000000 H
   0.1896750000000000    0.2419200000000000    0.2261000000000000 H
   0.1896750000000000    0.2419200000000000    0.4760000000000000 H
   0.1896750000000000    0.7419100000000000    0.2261000000000000 H
   0.1896750000000000    0.7419100000000000    0.4760000000000000 H
   0.4396750000000000    0.2419200000000000    0.2261050000000000 H
   0.4396750000000000    0.2419200000000000    0.4761000000000000 H
   0.4396700000000000    0.7419200000000000    0.2261050000000000 H
   0.4396700000000000    0.7419100000000000    0.4761000000000000 H
   0.1655050000000000    0.2937300000000000    0.0522600000000000 H
   0.1655050000000000    0.2937200000000000    0.3022550000000000 H
   0.1655000000000000    0.7937200000000000    0.0522600000000000 H
   0.1655000000000000    0.7937200000000000    0.3022550000000000 H
   0.4155000000000000    0.2937300000000000    0.0522600000000000 H
   0.4155000000000000    0.2937200000000000    0.3022550000000000 H
   0.4155000000000000    0.7937200000000000    0.0522600000000000 H
   0.4155000000000000    0.7937200000000000    0.3022550000000000 H
   0.1193200000000000    0.3687800000000000    0.0683800000000000 H
   0.1193200000000000    0.3687800000000000    0.3183750000000000 H
   0.1193150000000000    0.8687700000000000    0.0683800000000000 H
   0.1193150000000000    0.8687700000000000    0.3183750000000000 H
   0.3693200000000000    0.3687800000000000    0.0683800000000000 H
   0.3693200000000000    0.3687800000000000    0.3183750000000000 H
   0.3693150000000000    0.8687700000000000    0.0683800000000000 H
   0.3693150000000000    0.8687700000000000    0.3183750000000000 H
   0.2338850000000000    0.4938500000000000    0.1785950000000000 H
   0.2338900000000000    0.4938500000000000    0.4285900000000000 H
   0.2338850000000000    0.9938399999999999    0.1785950000000000 H
   0.2338850000000000    0.9938399999999999    0.4285900000000000 H
   0.4838800000000000    0.4938400000000000    0.1785900000000000 H
   0.4838800000000000    0.4938400000000000    0.4285850000000000 H
   0.4838800000000000    0.9938300000000000    0.1785900000000000 H
   0.4838800000000000    0.9938300000000000    0.4285850000000000 H
   0.0339150000000000    0.3816900000000000    0.1401400000000000 H
   0.0339150000000000    0.3816900000000000    0.3901350000000000 H
   0.0339100000000000    0.8816800000000000    0.1401400000000000 H
   0.0339100000000000    0.8816800000000000    0.3901000000000000 H
   0.2838950000000000    0.3816800000000000    0.1401450000000000 H
   0.2838950000000000    0.3816800000000000    0.3901400000000000 H
   0.2838900000000000    0.8816800000000000    0.1401450000000000 H
   0.2838950000000000    0.8816800000000000    0.3901400000000000 H
   0.0646850000000000    0.4522400000000000    0.1209500000000000 H
   0.0646850000000000    0.4522400000000000    0.3709450000000000 H
   0.0646800000000000    0.9522300000000000    0.1209500000000000 H
   0.0646850000000000    0.9522300000000000    0.3709450000000000 H
   0.3146750000000000    0.4522200000000000    0.1205000000000000 H
   0.3146750000000000    0.4522200000000000    0.3709000000000000 H
   0.3146700000000000    0.9522100000000000    0.1205000000000000 H
   0.3146700000000000    0.9522100000000000    0.3709450000000000 H
   0.0405050000000000    0.1045400000000000    0.1468600000000000 H
   0.0405100000000000    0.1045400000000000    0.3968550000000000 H
   0.0405000000000000    0.6045300000000000    0.1468600000000000 H
   0.0405050000000000    0.6045300000000000    0.3968550000000000 H
   0.2905050000000000    0.1045300000000000    0.1468550000000000 H
   0.2905050000000000    0.1045300000000000    0.3965000000000000 H
   0.2905050000000000    0.6045300000000000    0.1468550000000000 H
   0.2905050000000000    0.6045199999999999    0.3968500000000000 H
   0.2443250000000000    0.1367700000000000    0.1843850000000000 H
   0.2443300000000000    0.1367700000000000    0.4343800000000000 H
   0.2443250000000000    0.6367600000000000    0.1843850000000000 H
   0.2443250000000000    0.6367600000000000    0.4343800000000000 H
   0.4943050000000000    0.1367600000000000    0.1843900000000000 H
   0.4943100000000000    0.1367600000000000    0.4343850000000000 H
   0.4943050000000000    0.6367500000000000    0.1843900000000000 H
   0.4943050000000000    0.6367500000000000    0.4343850000000000 H
   0.1411200000000000    0.1427900000000000    0.0030600000000000 H
   0.1411200000000000    0.1427900000000000    0.2530550000000000 H
   0.1411200000000000    0.6427800000000000    0.0030600000000000 H
   0.1411150000000000    0.6427800000000000    0.2530550000000000 H
   0.3911150000000000    0.1427900000000000    0.0030600000000000 H
   0.3911150000000000    0.1427900000000000    0.2530550000000000 H
   0.3911150000000000    0.6427800000000000    0.0030600000000000 H
   0.3911150000000000    0.6427800000000000    0.2530550000000000 H
   0.0911100000000000    0.2196700000000000    0.0591450000000000 H
   0.0911100000000000    0.2196700000000000    0.3091400000000000 H
   0.0911050000000000    0.7196700000000000    0.0591450000000000 H
   0.0911050000000000    0.7196600000000000    0.3091400000000000 H
   0.3411050000000000    0.2196700000000000    0.0591450000000000 H
   0.3411050000000000    0.2196700000000000    0.3091400000000000 H
   0.3411050000000000    0.7196700000000000    0.0591450000000000 H
   0.3411050000000000    0.7196600000000000    0.3091400000000000 H
   0.0603300000000000    0.2580700000000000    0.0238750000000000 H
   0.0603300000000000    0.2580600000000000    0.2738700000000000 H
   0.0603250000000000    0.7580600000000000    0.0238750000000000 H
   0.0603300000000000    0.7580500000000000    0.2738700000000000 H
   0.3103300000000000    0.2580700000000000    0.0238800000000000 H
   0.3103250000000000    0.2580600000000000    0.2738750000000000 H
   0.3103250000000000    0.7580600000000000    0.0238800000000000 H
   0.3103250000000000    0.7580600000000000    0.2738750000000000 H
   0.0845000000000000    0.2062600000000000    0.1977200000000000 H
   0.0845000000000000    0.2062600000000000    0.4477150000000000 H
   0.0845000000000000    0.7062600000000000    0.1977200000000000 H
   0.0845000000000000    0.7062500000000000    0.4477000000000000 H
   0.3345000000000000    0.2062600000000000    0.1977200000000000 H
   0.3345000000000000    0.2062600000000000    0.4477200000000000 H
   0.3344950000000000    0.7062500000000000    0.1977200000000000 H
   0.3345000000000000    0.7062500000000000    0.4477200000000000 H
   0.1306850000000000    0.1312100000000000    0.1816000000000000 H
   0.1306850000000000    0.1312000000000000    0.4315950000000000 H
   0.1306850000000000    0.6312000000000000    0.1816000000000000 H
   0.1306850000000000    0.6312000000000000    0.4315950000000000 H
   0.3806850000000000    0.1312100000000000    0.1816050000000000 H
   0.3806850000000000    0.1312100000000000    0.4316000000000000 H
   0.3806800000000000    0.6312000000000000    0.1816000000000000 H
   0.3806800000000000    0.6312000000000000    0.4316000000000000 H
   0.5161200000000000    0.0061500000000000    0.0713900000000000 H
   0.5161200000000000    0.0061500000000000    0.3213850000000000 H
   0.5161200000000000    0.5061400000000000    0.0713900000000000 H
   0.5161200000000000    0.5061400000000000    0.3213850000000000 H
   0.7661150000000000    0.0061400000000000    0.0713900000000000 H
   0.7661150000000000    0.0061400000000000    0.3213850000000000 H
   0.7661100000000001    0.5061300000000000    0.0713900000000000 H
   0.7661150000000000    0.5061300000000000    0.3213850000000000 H
   0.7161050000000000    0.1183000000000000    0.1098350000000000 H
   0.7161100000000000    0.1183000000000000    0.3598300000000000 H
   0.7161050000000000    0.6183000000000000    0.1098350000000000 H
   0.7161050000000000    0.6183000000000000    0.3598300000000000 H
   0.9660900000000000    0.1183000000000000    0.1098400000000000 H
   0.9660900000000000    0.1183000000000000    0.3598350000000000 H
   0.9660850000000001    0.6183000000000000    0.1098400000000000 H
   0.9660900000000000    0.6182900000000000    0.3598350000000000 H
   0.6853300000000000    0.0477700000000000    0.1290350000000000 H
   0.6853300000000000    0.0477700000000000    0.3790300000000000 H
   0.6853300000000000    0.5477600000000000    0.1290350000000000 H
   0.6853300000000000    0.5477600000000000    0.3790300000000000 H
   0.9353199999999999    0.0477500000000000    0.1290350000000000 H
   0.9353199999999999    0.0477500000000000    0.3790000000000000 H
   0.9353150000000000    0.5477400000000000    0.1290350000000000 H
   0.9353150000000000    0.5477400000000000    0.3790000000000000 H
   0.7094950000000000    0.3954600000000000    0.1031300000000000 H
   0.7094950000000000    0.3954600000000000    0.3531250000000000 H
   0.7094950000000000    0.8954500000000000    0.1031300000000000 H
   0.7094950000000000    0.8954500000000000    0.3531250000000000 H
   0.9594950000000000    0.3954500000000000    0.1031000000000000 H
   0.9595000000000000    0.3954500000000000    0.3531000000000000 H
   0.9594950000000000    0.8954400000000000    0.1031250000000000 H
   0.9594950000000000    0.8954400000000000    0.3531200000000000 H
   0.5056950000000000    0.3632300000000000    0.0655500000000000 H
   0.5056950000000000    0.3632300000000000    0.3155900000000000 H
   0.5056900000000000    0.8632200000000000    0.0655950000000000 H
   0.5056950000000000    0.8632200000000000    0.3155900000000000 H
   0.7556750000000000    0.3632200000000000    0.0655000000000000 H
   0.7556750000000000    0.3632200000000000    0.3155900000000000 H
   0.7556750000000000    0.8632100000000000    0.0655950000000000 H
   0.7556750000000000    0.8632100000000000    0.3155900000000000 H
   0.6088850000000000    0.3572000000000000    0.2469200000000000 H
   0.6088900000000000    0.3572000000000000    0.4969150000000000 H
   0.6088850000000000    0.8571900000000000    0.2469200000000000 H
   0.6088850000000000    0.8571900000000000    0.4969150000000000 H
   0.8588850000000000    0.3572000000000000    0.2469200000000000 H
   0.8588850000000000    0.3571900000000000    0.4969000000000000 H
   0.8588800000000000    0.8571900000000000    0.2469200000000000 H
   0.8588800000000000    0.8571900000000000    0.4969200000000000 H
   0.6588950000000000    0.2803200000000000    0.1908350000000000 H
   0.6588950000000000    0.2803100000000000    0.4408000000000000 H
   0.6588950000000000    0.7803099999999999    0.1908350000000000 H
   0.6588950000000000    0.7803099999999999    0.4408000000000000 H
   0.9088950000000000    0.2803200000000000    0.1908000000000000 H
   0.9088950000000000    0.2803100000000000    0.4408350000000000 H
   0.9088950000000000    0.7803099999999999    0.1908400000000000 H
   0.9088950000000000    0.7803099999999999    0.4408350000000000 H
   0.6896750000000000    0.2419200000000000    0.2261000000000000 H
   0.6896750000000000    0.2419200000000000    0.4760000000000000 H
   0.6896750000000000    0.7419100000000000    0.2261000000000000 H
   0.6896750000000000    0.7419100000000000    0.4760000000000000 H
   0.9396750000000000    0.2419200000000000    0.2261050000000000 H
   0.9396750000000000    0.2419200000000000    0.4761000000000000 H
   0.9396700000000000    0.7419200000000000    0.2261050000000000 H
   0.9396700000000000    0.7419100000000000    0.4761000000000000 H
   0.6655050000000000    0.2937300000000000    0.0522600000000000 H
   0.6655050000000000    0.2937200000000000    0.3022550000000000 H
   0.6655000000000000    0.7937200000000000    0.0522600000000000 H
   0.6655000000000000    0.7937200000000000    0.3022550000000000 H
   0.9155000000000000    0.2937300000000000    0.0522600000000000 H
   0.9155000000000000    0.2937200000000000    0.3022550000000000 H
   0.9155000000000000    0.7937200000000000    0.0522600000000000 H
   0.9155000000000000    0.7937200000000000    0.3022550000000000 H
   0.6193200000000000    0.3687800000000000    0.0683800000000000 H
   0.6193200000000000    0.3687800000000000    0.3183750000000000 H
   0.6193150000000001    0.8687700000000000    0.0683800000000000 H
   0.6193150000000001    0.8687700000000000    0.3183750000000000 H
   0.8693200000000000    0.3687800000000000    0.0683800000000000 H
   0.8693200000000000    0.3687800000000000    0.3183750000000000 H
   0.8693150000000001    0.8687700000000000    0.0683800000000000 H
   0.8693150000000001    0.8687700000000000    0.3183750000000000 H
   0.7338850000000000    0.4938500000000000    0.1785950000000000 H
   0.7338899999999999    0.4938500000000000    0.4285900000000000 H
   0.7338850000000000    0.9938399999999999    0.1785950000000000 H
   0.7338850000000000    0.9938399999999999    0.4285900000000000 H
   0.9838800000000000    0.4938400000000000    0.1785900000000000 H
   0.9838800000000000    0.4938400000000000    0.4285850000000000 H
   0.9838800000000000    0.9938300000000000    0.1785900000000000 H
   0.9838800000000000    0.9938300000000000    0.4285850000000000 H
   0.5339150000000000    0.3816900000000000    0.1401400000000000 H
   0.5339150000000000    0.3816900000000000    0.3901350000000000 H
   0.5339100000000000    0.8816800000000000    0.1401400000000000 H
   0.5339100000000000    0.8816800000000000    0.3901000000000000 H
   0.7838950000000000    0.3816800000000000    0.1401450000000000 H
   0.7838950000000000    0.3816800000000000    0.3901400000000000 H
   0.7838900000000000    0.8816800000000000    0.1401450000000000 H
   0.7838950000000000    0.8816800000000000    0.3901400000000000 H
   0.5646850000000000    0.4522400000000000    0.1209500000000000 H
   0.5646850000000000    0.4522400000000000    0.3709450000000000 H
   0.5646800000000000    0.9522300000000000    0.1209500000000000 H
   0.5646850000000000    0.9522300000000000    0.3709450000000000 H
   0.8146750000000000    0.4522200000000000    0.1205000000000000 H
   0.8146750000000000    0.4522200000000000    0.3709000000000000 H
   0.8146700000000000    0.9522100000000000    0.1205000000000000 H
   0.8146700000000000    0.9522100000000000    0.3709450000000000 H
   0.5405050000000000    0.1045400000000000    0.1468600000000000 H
   0.5405100000000000    0.1045400000000000    0.3968550000000000 H
   0.5405000000000000    0.6045300000000000    0.1468600000000000 H
   0.5405050000000000    0.6045300000000000    0.3968550000000000 H
   0.7905050000000000    0.1045300000000000    0.1468550000000000 H
   0.7905050000000000    0.1045300000000000    0.3965000000000000 H
   0.7905050000000000    0.6045300000000000    0.1468550000000000 H
   0.7905050000000000    0.6045199999999999    0.3968500000000000 H
   0.7443250000000000    0.1367700000000000    0.1843850000000000 H
   0.7443299999999999    0.1367700000000000    0.4343800000000000 H
   0.7443250000000000    0.6367600000000000    0.1843850000000000 H
   0.7443250000000000    0.6367600000000000    0.4343800000000000 H
   0.9943050000000000    0.1367600000000000    0.1843900000000000 H
   0.9943100000000000    0.1367600000000000    0.4343850000000000 H
   0.9943050000000000    0.6367500000000000    0.1843900000000000 H
   0.9943050000000000    0.6367500000000000    0.4343850000000000 H
   0.6411200000000000    0.1427900000000000    0.0030600000000000 H
   0.6411200000000000    0.1427900000000000    0.2530550000000000 H
   0.6411200000000000    0.6427800000000000    0.0030600000000000 H
   0.6411150000000000    0.6427800000000000    0.2530550000000000 H
   0.8911150000000000    0.1427900000000000    0.0030600000000000 H
   0.8911150000000000    0.1427900000000000    0.2530550000000000 H
   0.8911150000000000    0.6427800000000000    0.0030600000000000 H
   0.8911150000000000    0.6427800000000000    0.2530550000000000 H
   0.5911100000000000    0.2196700000000000    0.0591450000000000 H
   0.5911100000000000    0.2196700000000000    0.3091400000000000 H
   0.5911050000000000    0.7196700000000000    0.0591450000000000 H
   0.5911050000000000    0.7196600000000000    0.3091400000000000 H
   0.8411050000000000    0.2196700000000000    0.0591450000000000 H
   0.8411050000000000    0.2196700000000000    0.3091400000000000 H
   0.8411050000000000    0.7196700000000000    0.0591450000000000 H
   0.8411050000000000    0.7196600000000000    0.3091400000000000 H
   0.5603300000000000    0.2580700000000000    0.0238750000000000 H
   0.5603300000000000    0.2580600000000000    0.2738700000000000 H
   0.5603250000000000    0.7580600000000000    0.0238750000000000 H
   0.5603300000000000    0.7580500000000000    0.2738700000000000 H
   0.8103300000000000    0.2580700000000000    0.0238800000000000 H
   0.8103250000000000    0.2580600000000000    0.2738750000000000 H
   0.8103250000000000    0.7580600000000000    0.0238800000000000 H
   0.8103250000000000    0.7580600000000000    0.2738750000000000 H
   0.5845000000000000    0.2062600000000000    0.1977200000000000 H
   0.5845000000000000    0.2062600000000000    0.4477150000000000 H
   0.5845000000000000    0.7062600000000000    0.1977200000000000 H
   0.5845000000000000    0.7062500000000000    0.4477000000000000 H
   0.8345000000000000    0.2062600000000000    0.1977200000000000 H
   0.8345000000000000    0.2062600000000000    0.4477200000000000 H
   0.8344950000000000    0.7062500000000000    0.1977200000000000 H
   0.8345000000000000    0.7062500000000000    0.4477200000000000 H
   0.6306849999999999    0.1312100000000000    0.1816000000000000 H
   0.6306849999999999    0.1312000000000000    0.4315950000000000 H
   0.6306849999999999    0.6312000000000000    0.1816000000000000 H
   0.6306849999999999    0.6312000000000000    0.4315950000000000 H
   0.8806849999999999    0.1312100000000000    0.1816050000000000 H
   0.8806849999999999    0.1312100000000000    0.4316000000000000 H
   0.8806800000000000    0.6312000000000000    0.1816000000000000 H
   0.8806800000000000    0.6312000000000000    0.4316000000000000 H
   0.0161200000000000    0.0061500000000000    0.5713900000000000 H
   0.0161200000000000    0.0061500000000000    0.8213850000000000 H
   0.0161200000000000    0.5061400000000000    0.5713900000000000 H
   0.0161200000000000    0.5061400000000000    0.8213850000000000 H
   0.2661150000000000    0.0061400000000000    0.5713900000000000 H
   0.2661150000000000    0.0061400000000000    0.8213850000000000 H
   0.2661100000000000    0.5061300000000000    0.5713900000000000 H
   0.2661150000000000    0.5061300000000000    0.8213850000000000 H
   0.2161050000000000    0.1183000000000000    0.6098350000000000 H
   0.2161100000000000    0.1183000000000000    0.8598300000000000 H
   0.2161050000000000    0.6183000000000000    0.6098350000000000 H
   0.2161050000000000    0.6183000000000000    0.8598300000000000 H
   0.4660900000000000    0.1183000000000000    0.6098399999999999 H
   0.4660900000000000    0.1183000000000000    0.8598350000000000 H
   0.4660850000000000    0.6183000000000000    0.6098399999999999 H
   0.4660900000000000    0.6182900000000000    0.8598350000000000 H
   0.1853300000000000    0.0477700000000000    0.6290350000000000 H
   0.1853300000000000    0.0477700000000000    0.8790300000000000 H
   0.1853300000000000    0.5477600000000000    0.6290350000000000 H
   0.1853300000000000    0.5477600000000000    0.8790300000000000 H
   0.4353200000000000    0.0477500000000000    0.6290350000000000 H
   0.4353200000000000    0.0477500000000000    0.8790000000000000 H
   0.4353150000000000    0.5477400000000000    0.6290350000000000 H
   0.4353150000000000    0.5477400000000000    0.8790000000000000 H
   0.2094950000000000    0.3954600000000000    0.6031299999999999 H
   0.2094950000000000    0.3954600000000000    0.8531250000000000 H
   0.2094950000000000    0.8954500000000000    0.6031299999999999 H
   0.2094950000000000    0.8954500000000000    0.8531250000000000 H
   0.4594950000000000    0.3954500000000000    0.6031000000000000 H
   0.4595000000000000    0.3954500000000000    0.8531000000000000 H
   0.4594950000000000    0.8954400000000000    0.6031250000000000 H
   0.4594950000000000    0.8954400000000000    0.8531200000000000 H
   0.0056950000000000    0.3632300000000000    0.5655500000000000 H
   0.0056950000000000    0.3632300000000000    0.8155900000000000 H
   0.0056900000000000    0.8632200000000000    0.5655950000000000 H
   0.0056950000000000    0.8632200000000000    0.8155900000000000 H
   0.2556750000000000    0.3632200000000000    0.5655000000000000 H
   0.2556750000000000    0.3632200000000000    0.8155900000000000 H
   0.2556750000000000    0.8632100000000000    0.5655950000000000 H
   0.2556750000000000    0.8632100000000000    0.8155900000000000 H
   0.1088850000000000    0.3572000000000000    0.7469200000000000 H
   0.1088900000000000    0.3572000000000000    0.9969150000000000 H
   0.1088850000000000    0.8571900000000000    0.7469200000000000 H
   0.1088850000000000    0.8571900000000000    0.9969150000000000 H
   0.3588850000000000    0.3572000000000000    0.7469200000000000 H
   0.3588850000000000    0.3571900000000000    0.9969000000000000 H
   0.3588800000000000    0.8571900000000000    0.7469200000000000 H
   0.3588800000000000    0.8571900000000000    0.9969200000000000 H
   0.1588950000000000    0.2803200000000000    0.6908350000000000 H
   0.1588950000000000    0.2803100000000000    0.9408000000000001 H
   0.1588950000000000    0.7803099999999999    0.6908350000000000 H
   0.1588950000000000    0.7803099999999999    0.9408000000000001 H