H9 O6
1.0
  38.9519617100023225    0.0000000000000000    2.8625037890826892
  13.2137539249985281   36.4241684288311021    2.8691933496593998
   0.0000000000000000    0.0000000000000000   21.1170000000000009
H O
9 6
direct
   0.6189287466103657    0.6013496155315641    0.7437749838966784 H
   0.6230338206184380    0.6529615237575186    0.6780420953726362 H
   0.5988721939540947    0.6045578428374190    0.4037819139441913 H
   0.6577692681080997    0.6613574138380878    0.4657503205250111 H
   0.6281253507129643    0.6330294355746348    0.4394185820604870 H
   0.5574877948351810    0.5641049842607588    0.5008744195612974 H
   0.5567957437051601    0.5631334400176979    0.6910928645714178 H
   0.5587210711298954    0.5653195712831752    0.5992967659343766 H
   0.5395295764471407    0.5434053493156427    0.7370704079341950 H
   0.6325433333333332    0.6180500000000000    0.7357300000000000 O
   0.6398333333333333    0.6664433333333333    0.6778000000000000 O
   0.6149233333333333    0.6189633333333333    0.4006200000000000 O
   0.6475100000000000    0.6504266666666667    0.4356000000000000 O
   0.5510900000000000    0.5571500000000000    0.5439800000000000 O
   0.5511600000000000    0.5570999999999999    0.6502400000000000 O
