H6 C10 N7
1.0
  38.9519617100023225    0.0000000000000000    2.8625037890826892
  13.2137539249985281   36.4241684288311021    2.8691933496593998
   0.0000000000000000    0.0000000000000000   21.1170000000000009
H C N
6 10 7
direct
   0.9559466666666666    0.7142966666666666    0.0972800000000000 H
   0.9130066666666666    0.8218799999999999    0.2252500000000000 H
   0.9684400000000000    0.7662833333333333    0.2547300000000000 H
   0.9404066666666666    0.7014033333333333    0.9138400000000000 H
   0.8949033333333333    0.7044899999999999    0.7403300000000000 H
   0.8416933333333333    0.7609999999999999    0.7717200000000000 H
   0.9458566666666666    0.7377766666666666    0.1272400000000000 C
   0.9221633333333332    0.7972999999999999    0.1979100000000000 C
   0.9525100000000000    0.7669400000000000    0.2140900000000000 C
   0.9159166666666666    0.7686400000000000    0.1102400000000000 C
   0.8986633333333333    0.7704366666666667    0.0510300000000000 C
   0.9185233333333332    0.7146833333333333    0.8815400000000000 C
   0.8893933333333333    0.7461733333333334    0.8985100000000000 C
   0.8877366666666666    0.7612300000000000    0.9599299999999999 C
   0.8932066666666666    0.7166066666666666    0.7859000000000000 C
   0.8642233333333333    0.7480066666666666    0.8027500000000000 C
   0.9639766666666666    0.7370733333333332    0.1788800000000000 N
   0.9036066666666667    0.7982266666666666    0.1460000000000000 N
   0.8688666666666667    0.7992199999999999    0.0347300000000000 N
   0.9114433333333333    0.7457800000000000    0.0058100000000000 N
   0.8617933333333333    0.7932399999999999    0.9755000000000000 N
   0.9204133333333333    0.7000999999999999    0.8254000000000000 N
   0.8623766666666666    0.7632233333333333    0.8586200000000000 N
