H9 O6
1.0
  38.9519617100023225    0.0000000000000000    2.8625037890826892
  13.2137539249985281   36.4241684288311021    2.8691933496593998
   0.0000000000000000    0.0000000000000000   21.1170000000000009
H O
9 6
direct
   0.8440343477101081    0.7743845097094761    0.8285002721438163 H
   0.8819307306912808    0.7508829215522227    0.8874914971230794 H
   0.9006649392298648    0.7120816279833834    0.7967282932950134 H
   0.9190307665396057    0.7107679536553054    0.8664673543914637 H
   0.8534203039034265    0.8122784872286996    0.9996996316765003 H
   0.8805876495104272    0.7700507647117264    0.9642205125448791 H
   0.8904302755007600    0.7783897323769552    0.0465261793487769 H
   0.9507092355902655    0.7375883127220604    0.1410692858286231 H
   0.9125434002770211    0.7767475311330880    0.1200391881473376 H
   0.8623766666666666    0.7632233333333333    0.8586200000000000 O
   0.9204133333333333    0.7000999999999999    0.8254000000000000 O
   0.8617933333333333    0.7932399999999999    0.9755000000000000 O
   0.8688666666666667    0.7992199999999999    0.0347300000000000 O
   0.9639766666666666    0.7370733333333332    0.1788800000000000 O
   0.9036066666666667    0.7982266666666666    0.1460000000000000 O
