H6 O4
1.0
  38.7179988441706371    0.0000000000000000   -0.0094605920228783
   0.0061216052491694   14.6149986623094055   -0.0012753993492751
   0.0000000000000000    0.0000000000000000   30.2500000000000000
H O
6 4
direct
   0.0390865363660350    0.2061404335755866    0.9297777167285568 H
   0.9843473252080277    0.1584492226652545    0.9580564809819534 H
   0.0224246632382031    0.8798822652143197    0.7763671395683469 H
   0.0638107744180138    0.7733539802265840    0.8203244992379881 H
   0.1213607995380732    0.7837998960326437    0.7722535190186670 H
   0.8843185940253359    0.2764144076092949    0.5957514837254451 H
   0.0476733333333333    0.1966700000000000    0.9595549999999999 O
   0.9967800000000000    0.1523800000000000    0.9857450000000000 O
   0.0000000000000000    0.8823299999999999    0.7906100000000000 O
   0.0400066666666667    0.7926800000000001    0.8239250000000000 O
