H6 C12 O4
1.0
  38.7179988441706371    0.0000000000000000   -0.0094605920228783
   0.0061216052491694   14.6149986623094055   -0.0012753993492751
   0.0000000000000000    0.0000000000000000   30.2500000000000000
H C O
6 12 4
direct
   0.9823266666666666    0.8391999999999999    0.0234650000000000 H
   0.9986866666666666    0.9987400000000000    0.0068550000000000 H
   0.0433433333333333    0.1524700000000000    0.8778150000000000 H
   0.0392466666666667    0.0370900000000000    0.8173600000000000 H
   0.0042466666666667    0.7605800000000000    0.8892350000000000 H
   0.9851966666666666    0.7196500000000000    0.9649000000000000 H
   0.0223266666666667    0.1402600000000000    0.9594650000000000 C
   0.0225733333333333    0.0634900000000000    0.9273250000000000 C
   0.0340000000000000    0.0836700000000000    0.8849100000000000 C
   0.0322533333333333    0.0182200000000000    0.8510450000000001 C
   0.0217300000000000    0.9296000000000000    0.8600150000000000 C
   0.0120266666666667    0.9040400000000000    0.9039050000000000 C
   0.0109833333333333    0.9729800000000000    0.9379500000000001 C
   0.0025866666666667    0.8127900000000000    0.9148100000000000 C
   0.0204633333333333    0.8625900000000000    0.8221900000000000 C
   0.9922433333333333    0.7900199999999999    0.9550000000000001 C
   0.9907833333333333    0.8577800000000000    0.9902750000000000 C
   0.9999766666666666    0.9469800000000000    0.9810600000000000 C
   0.0476733333333333    0.1966700000000000    0.9595549999999999 O
   0.0400066666666667    0.7926800000000001    0.8239250000000000 O
   0.0000000000000000    0.8823299999999999    0.7906100000000000 O
   0.9967800000000000    0.1523800000000000    0.9857450000000000 O
