Ca48 H282 C564 O188
1.0
  38.7179988441706371    0.0000000000000000   -0.0094605920228783
   0.0061216052491694   14.6149986623094055   -0.0012753993492751
   0.0000000000000000    0.0000000000000000   30.2500000000000000
Ca H C O
48 282 564 188
direct
   0.3108766666666666    0.7973100000000000    0.2329300000000000 Ca
   0.1056366666666667    0.2017400000000000    0.4821550000000000 Ca
   0.2722633333333333    0.2012400000000000    0.4831550000000000 Ca
   0.0222833333333333    0.2976200000000000    0.0173100000000000 Ca
   0.1889266666666666    0.2964600000000000    0.0174100000000000 Ca
   0.0610300000000000    0.7018400000000000    0.2669500000000000 Ca
   0.2275866666666667    0.7014700000000000    0.2677950000000000 Ca
   0.1443666666666666    0.7965600000000000    0.2326050000000000 Ca
   0.6442099999999999    0.7973100000000000    0.2329300000000000 Ca
   0.4389700000000000    0.2017400000000000    0.4821550000000000 Ca
   0.6055966666666666    0.2012400000000000    0.4831550000000000 Ca
   0.3556166666666666    0.2976200000000000    0.0173100000000000 Ca
   0.5222599999999999    0.2964600000000000    0.0174100000000000 Ca
   0.3943633333333333    0.7018400000000000    0.2669500000000000 Ca
   0.5609200000000000    0.7014700000000000    0.2677950000000000 Ca
   0.4777000000000000    0.7965600000000000    0.2326050000000000 Ca
   0.9775433333333332    0.7973100000000000    0.2329300000000000 Ca
   0.7723033333333333    0.2017400000000000    0.4821550000000000 Ca
   0.9389299999999999    0.2012400000000000    0.4831550000000000 Ca
   0.6889500000000000    0.2976200000000000    0.0173100000000000 Ca
   0.8555933333333332    0.2964600000000000    0.0174100000000000 Ca
   0.7276966666666667    0.7018400000000000    0.2669500000000000 Ca
   0.8942533333333333    0.7014700000000000    0.2677950000000000 Ca
   0.8110333333333333    0.7965600000000000    0.2326050000000000 Ca
   0.3108766666666666    0.7973100000000000    0.7329300000000000 Ca
   0.1056366666666667    0.2017400000000000    0.9821550000000000 Ca
   0.2722633333333333    0.2012400000000000    0.9831550000000000 Ca
   0.0222833333333333    0.2976200000000000    0.5173100000000000 Ca
   0.1889266666666666    0.2964600000000000    0.5174100000000000 Ca
   0.0610300000000000    0.7018400000000000    0.7669500000000000 Ca
   0.2275866666666667    0.7014700000000000    0.7677950000000000 Ca
   0.1443666666666666    0.7965600000000000    0.7326050000000000 Ca
   0.6442099999999999    0.7973100000000000    0.7329300000000000 Ca
   0.4389700000000000    0.2017400000000000    0.9821550000000000 Ca
   0.6055966666666666    0.2012400000000000    0.9831550000000000 Ca
   0.3556166666666666    0.2976200000000000    0.5173100000000000 Ca
   0.5222599999999999    0.2964600000000000    0.5174100000000000 Ca
   0.3943633333333333    0.7018400000000000    0.7669500000000000 Ca
   0.5609200000000000    0.7014700000000000    0.7677950000000000 Ca
   0.4777000000000000    0.7965600000000000    0.7326050000000000 Ca
   0.9775433333333332    0.7973100000000000    0.7329300000000000 Ca
   0.7723033333333333    0.2017400000000000    0.9821550000000000 Ca
   0.9389299999999999    0.2012400000000000    0.9831550000000000 Ca
   0.6889500000000000    0.2976200000000000    0.5173100000000000 Ca
   0.8555933333333332    0.2964600000000000    0.5174100000000000 Ca
   0.7276966666666667    0.7018400000000000    0.7669500000000000 Ca
   0.8942533333333333    0.7014700000000000    0.7677950000000000 Ca
   0.8110333333333333    0.7965600000000000    0.7326050000000000 Ca
   0.1237100000000000    0.6502100000000000    0.3724250000000000 H
   0.2899700000000000    0.6519100000000000    0.3725150000000000 H
   0.1281933333333333    0.5339200000000000    0.4324000000000000 H
   0.2939400000000000    0.5363200000000000    0.4328800000000000 H
   0.1627900000000000    0.2584300000000000    0.3592150000000000 H
   0.3287833333333333    0.2597300000000000    0.3608250000000000 H
   0.1815966666666667    0.2187500000000000    0.2832800000000000 H
   0.0000000000000000    0.2190300000000000    0.2852050000000000 H
   0.1841966666666667    0.3392300000000000    0.2251600000000000 H
   0.0000000000000000    0.3388300000000000    0.2267700000000000 H
   0.1678800000000000    0.4985100000000000    0.2424950000000000 H
   0.0000000000000000    0.4984000000000000    0.2434950000000000 H
   0.1263366666666667    0.3471200000000000    0.1218750000000000 H
   0.2931033333333333    0.3470000000000000    0.1228050000000000 H
   0.1221966666666667    0.4628900000000000    0.1821550000000000 H
   0.2887400000000000    0.4627500000000000    0.1830650000000000 H
   0.0877333333333333    0.7394100000000000    0.1096500000000000 H
   0.2537933333333333    0.7388000000000000    0.1105900000000000 H
   0.0688133333333333    0.7798900000000000    0.0338750000000000 H
   0.2348733333333333    0.7791100000000000    0.0347650000000000 H
   0.0659033333333333    0.6599100000000000    0.4755200000000000 H
   0.2323600000000000    0.6592100000000000    0.4763500000000000 H
   0.0820600000000000    0.5003600000000000    0.4924900000000000 H
   0.2488366666666667    0.4998500000000000    0.4933050000000000 H
   0.0433433333333333    0.1524700000000000    0.3778150000000000 H
   0.2095900000000000    0.1501300000000000    0.3776050000000000 H
   0.0392466666666667    0.0370900000000000    0.3173600000000000 H
   0.2051366666666667    0.0338200000000000    0.3176000000000000 H
   0.0042466666666667    0.7605800000000000    0.3892350000000000 H
   0.1705333333333333    0.7584100000000000    0.3908000000000000 H
   0.3185300000000000    0.7196500000000000    0.4649000000000000 H
   0.1517400000000000    0.7187900000000000    0.4667400000000000 H
   0.3156600000000000    0.8391999999999999    0.0234650000000000 H
   0.1491433333333333    0.8393000000000000    0.0248550000000000 H
   0.3320200000000000    0.9987400000000000    0.0068550000000000 H
   0.1654300000000000    0.9985500000000000    0.0075050000000000 H
   0.0401800000000000    0.8473800000000000    0.1272400000000000 H
   0.2069433333333333    0.8471900000000000    0.1281750000000000 H
   0.0446300000000000    0.9629400000000000    0.0669100000000000 H
   0.2110966666666667    0.9629900000000000    0.0679200000000000 H
   0.0796300000000000    0.2390400000000000    0.1392950000000000 H
   0.2455866666666666    0.2393600000000000    0.1404500000000000 H
   0.0985533333333333    0.2794000000000000    0.2151050000000000 H
   0.2645533333333333    0.2797400000000000    0.2162400000000000 H
   0.1010466666666667    0.1595800000000000    0.2735700000000000 H
   0.2674666666666666    0.1597100000000000    0.2745800000000000 H
   0.0845366666666667    0.0002700000000000    0.2566600000000000 H
   0.2512799999999999    0.0002300000000000    0.2575950000000000 H
   0.4570433333333333    0.6502100000000000    0.3724250000000000 H
   0.6233033333333333    0.6519100000000000    0.3725150000000000 H
   0.4615266666666666    0.5339200000000000    0.4324000000000000 H
   0.6272733333333333    0.5363200000000000    0.4328800000000000 H
   0.4961233333333333    0.2584300000000000    0.3592150000000000 H
   0.6621166666666667    0.2597300000000000    0.3608250000000000 H
   0.5149300000000000    0.2187500000000000    0.2832800000000000 H
   0.3333333333333333    0.2190300000000000    0.2852050000000000 H
   0.5175300000000000    0.3392300000000000    0.2251600000000000 H
   0.3333333333333333    0.3388300000000000    0.2267700000000000 H
   0.5012133333333333    0.4985100000000000    0.2424950000000000 H
   0.3333333333333333    0.4984000000000000    0.2434950000000000 H
   0.4596700000000000    0.3471200000000000    0.1218750000000000 H
   0.6264366666666666    0.3470000000000000    0.1228050000000000 H
   0.4555300000000000    0.4628900000000000    0.1821550000000000 H
   0.6220733333333333    0.4627500000000000    0.1830650000000000 H
   0.4210666666666666    0.7394100000000000    0.1096500000000000 H
   0.5871266666666666    0.7388000000000000    0.1105900000000000 H
   0.4021466666666667    0.7798900000000000    0.0338750000000000 H
   0.5682066666666666    0.7791100000000000    0.0347650000000000 H
   0.3992366666666666    0.6599100000000000    0.4755200000000000 H
   0.5656933333333334    0.6592100000000000    0.4763500000000000 H
   0.4153933333333333    0.5003600000000000    0.4924900000000000 H
   0.5821700000000000    0.4998500000000000    0.4933050000000000 H
   0.3766766666666667    0.1524700000000000    0.3778150000000000 H
   0.5429233333333333    0.1501300000000000    0.3776050000000000 H
   0.3725800000000000    0.0370900000000000    0.3173600000000000 H
   0.5384700000000000    0.0338200000000000    0.3176000000000000 H
   0.3375800000000000    0.7605800000000000    0.3892350000000000 H
   0.5038666666666667    0.7584100000000000    0.3908000000000000 H
   0.6518633333333332    0.7196500000000000    0.4649000000000000 H
   0.4850733333333333    0.7187900000000000    0.4667400000000000 H
   0.6489933333333333    0.8391999999999999    0.0234650000000000 H
   0.4824766666666667    0.8393000000000000    0.0248550000000000 H
   0.6653533333333332    0.9987400000000000    0.0068550000000000 H
   0.4987633333333333    0.9985500000000000    0.0075050000000000 H
   0.3735133333333333    0.8473800000000000    0.1272400000000000 H
   0.5402766666666666    0.8471900000000000    0.1281750000000000 H
   0.3779633333333333    0.9629400000000000    0.0669100000000000 H
   0.5444300000000000    0.9629900000000000    0.0679200000000000 H
   0.4129633333333333    0.2390400000000000    0.1392950000000000 H
   0.5789200000000000    0.2393600000000000    0.1404500000000000 H
   0.4318866666666666    0.2794000000000000    0.2151050000000000 H
   0.5978866666666667    0.2797400000000000    0.2162400000000000 H
   0.4343800000000000    0.1595800000000000    0.2735700000000000 H
   0.6008000000000000    0.1597100000000000    0.2745800000000000 H
   0.4178700000000000    0.0002700000000000    0.2566600000000000 H
   0.5846133333333332    0.0002300000000000    0.2575950000000000 H
   0.7903766666666666    0.6502100000000000    0.3724250000000000 H
   0.9566366666666666    0.6519100000000000    0.3725150000000000 H
   0.7948599999999999    0.5339200000000000    0.4324000000000000 H
   0.9606066666666666    0.5363200000000000    0.4328800000000000 H
   0.8294566666666666    0.2584300000000000    0.3592150000000000 H
   0.9954499999999999    0.2597300000000000    0.3608250000000000 H
   0.8482633333333333    0.2187500000000000    0.2832800000000000 H
   0.6666666666666666    0.2190300000000000    0.2852050000000000 H
   0.8508633333333333    0.3392300000000000    0.2251600000000000 H
   0.6666666666666666    0.3388300000000000    0.2267700000000000 H
   0.8345466666666665    0.4985100000000000    0.2424950000000000 H
   0.6666666666666666    0.4984000000000000    0.2434950000000000 H
   0.7930033333333333    0.3471200000000000    0.1218750000000000 H
   0.9597700000000000    0.3470000000000000    0.1228050000000000 H
   0.7888633333333332    0.4628900000000000    0.1821550000000000 H
   0.9554066666666666    0.4627500000000000    0.1830650000000000 H
   0.7544000000000000    0.7394100000000000    0.1096500000000000 H
   0.9204599999999999    0.7388000000000000    0.1105900000000000 H
   0.7354799999999999    0.7798900000000000    0.0338750000000000 H
   0.9015400000000000    0.7791100000000000    0.0347650000000000 H
   0.7325699999999999    0.6599100000000000    0.4755200000000000 H
   0.8990266666666666    0.6592100000000000    0.4763500000000000 H
   0.7487266666666667    0.5003600000000000    0.4924900000000000 H
   0.9155033333333333    0.4998500000000000    0.4933050000000000 H
   0.7100099999999999    0.1524700000000000    0.3778150000000000 H
   0.8762566666666667    0.1501300000000000    0.3776050000000000 H
   0.7059133333333333    0.0370900000000000    0.3173600000000000 H
   0.8718033333333333    0.0338200000000000    0.3176000000000000 H
   0.6709133333333333    0.7605800000000000    0.3892350000000000 H
   0.8371999999999999    0.7584100000000000    0.3908000000000000 H
   0.9851966666666666    0.7196500000000000    0.4649000000000000 H
   0.8184066666666666    0.7187900000000000    0.4667400000000000 H
   0.8158099999999999    0.8393000000000000    0.0248550000000000 H
   0.8320966666666666    0.9985500000000000    0.0075050000000000 H
   0.7068466666666666    0.8473800000000000    0.1272400000000000 H
   0.8736100000000000    0.8471900000000000    0.1281750000000000 H
   0.7112966666666667    0.9629400000000000    0.0669100000000000 H
   0.8777633333333332    0.9629900000000000    0.0679200000000000 H
   0.7462966666666666    0.2390400000000000    0.1392950000000000 H
   0.9122533333333332    0.2393600000000000    0.1404500000000000 H
   0.7652200000000000    0.2794000000000000    0.2151050000000000 H
   0.9312199999999999    0.2797400000000000    0.2162400000000000 H
   0.7677133333333332    0.1595800000000000    0.2735700000000000 H
   0.9341333333333333    0.1597100000000000    0.2745800000000000 H
   0.7512033333333333    0.0002700000000000    0.2566600000000000 H
   0.9179466666666666    0.0002300000000000    0.2575950000000000 H
   0.1237100000000000    0.6502100000000000    0.8724250000000000 H
   0.2899700000000000    0.6519100000000000    0.8725149999999999 H
   0.1281933333333333    0.5339200000000000    0.9324000000000000 H
   0.2939400000000000    0.5363200000000000    0.9328799999999999 H
   0.1627900000000000    0.2584300000000000    0.8592150000000001 H
   0.3287833333333333    0.2597300000000000    0.8608250000000000 H
   0.1815966666666667    0.2187500000000000    0.7832800000000000 H
   0.0000000000000000    0.2190300000000000    0.7852049999999999 H
   0.1841966666666667    0.3392300000000000    0.7251600000000000 H
   0.0000000000000000    0.3388300000000000    0.7267700000000000 H
   0.1678800000000000    0.4985100000000000    0.7424950000000000 H
   0.0000000000000000    0.4984000000000000    0.7434950000000000 H
   0.1263366666666667    0.3471200000000000    0.6218750000000000 H
   0.2931033333333333    0.3470000000000000    0.6228050000000001 H
   0.1221966666666667    0.4628900000000000    0.6821550000000001 H
   0.2887400000000000    0.4627500000000000    0.6830650000000000 H
   0.0877333333333333    0.7394100000000000    0.6096500000000000 H
   0.2537933333333333    0.7388000000000000    0.6105900000000000 H
   0.0688133333333333    0.7798900000000000    0.5338750000000000 H
   0.2348733333333333    0.7791100000000000    0.5347650000000000 H
   0.0659033333333333    0.6599100000000000    0.9755199999999999 H
   0.2323600000000000    0.6592100000000000    0.9763500000000001 H
   0.0820600000000000    0.5003600000000000    0.9924900000000000 H
   0.2488366666666667    0.4998500000000000    0.9933050000000000 H
   0.2095900000000000    0.1501300000000000    0.8776050000000000 H
   0.2051366666666667    0.0338200000000000    0.8176000000000000 H
   0.1705333333333333    0.7584100000000000    0.8908000000000000 H
   0.3185300000000000    0.7196500000000000    0.9649000000000000 H
   0.1517400000000000    0.7187900000000000    0.9667399999999999 H
   0.3156600000000000    0.8391999999999999    0.5234650000000000 H
   0.1491433333333333    0.8393000000000000    0.5248550000000000 H
   0.3320200000000000    0.9987400000000000    0.5068550000000001 H
   0.1654300000000000    0.9985500000000000    0.5075050000000000 H
   0.0401800000000000    0.8473800000000000    0.6272400000000000 H
   0.2069433333333333    0.8471900000000000    0.6281750000000000 H
   0.0446300000000000    0.9629400000000000    0.5669100000000000 H
   0.2110966666666667    0.9629900000000000    0.5679200000000000 H
   0.0796300000000000    0.2390400000000000    0.6392949999999999 H
   0.2455866666666666    0.2393600000000000    0.6404500000000000 H
   0.0985533333333333    0.2794000000000000    0.7151050000000000 H
   0.2645533333333333    0.2797400000000000    0.7162400000000000 H
   0.1010466666666667    0.1595800000000000    0.7735700000000000 H
   0.2674666666666666    0.1597100000000000    0.7745800000000000 H
   0.0845366666666667    0.0002700000000000    0.7566600000000000 H
   0.2512799999999999    0.0002300000000000    0.7575950000000000 H
   0.4570433333333333    0.6502100000000000    0.8724250000000000 H
   0.6233033333333333    0.6519100000000000    0.8725149999999999 H
   0.4615266666666666    0.5339200000000000    0.9324000000000000 H
   0.6272733333333333    0.5363200000000000    0.9328799999999999 H
   0.4961233333333333    0.2584300000000000    0.8592150000000001 H
   0.6621166666666667    0.2597300000000000    0.8608250000000000 H
   0.5149300000000000    0.2187500000000000    0.7832800000000000 H
   0.3333333333333333    0.2190300000000000    0.7852049999999999 H
   0.5175300000000000    0.3392300000000000    0.7251600000000000 H
   0.3333333333333333    0.3388300000000000    0.7267700000000000 H
   0.5012133333333333    0.4985100000000000    0.7424950000000000 H
   0.3333333333333333    0.4984000000000000    0.7434950000000000 H
   0.4596700000000000    0.3471200000000000    0.6218750000000000 H
   0.6264366666666666    0.3470000000000000    0.6228050000000001 H
   0.4555300000000000    0.4628900000000000    0.6821550000000001 H
   0.6220733333333333    0.4627500000000000    0.6830650000000000 H
   0.4210666666666666    0.7394100000000000    0.6096500000000000 H
   0.5871266666666666    0.7388000000000000    0.6105900000000000 H
   0.4021466666666667    0.7798900000000000    0.5338750000000000 H
   0.5682066666666666    0.7791100000000000    0.5347650000000000 H
   0.3992366666666666    0.6599100000000000    0.9755199999999999 H
   0.5656933333333334    0.6592100000000000    0.9763500000000001 H
   0.4153933333333333    0.5003600000000000    0.9924900000000000 H
   0.5821700000000000    0.4998500000000000    0.9933050000000000 H
   0.3766766666666667    0.1524700000000000    0.8778150000000000 H
   0.5429233333333333    0.1501300000000000    0.8776050000000000 H
   0.3725800000000000    0.0370900000000000    0.8173600000000000 H
   0.5384700000000000    0.0338200000000000    0.8176000000000000 H
   0.3375800000000000    0.7605800000000000    0.8892350000000000 H
   0.5038666666666667    0.7584100000000000    0.8908000000000000 H
   0.6518633333333332    0.7196500000000000    0.9649000000000000 H
   0.4850733333333333    0.7187900000000000    0.9667399999999999 H
   0.6489933333333333    0.8391999999999999    0.5234650000000000 H
   0.4824766666666667    0.8393000000000000    0.5248550000000000 H
   0.6653533333333332    0.9987400000000000    0.5068550000000001 H
   0.4987633333333333    0.9985500000000000    0.5075050000000000 H
   0.3735133333333333    0.8473800000000000    0.6272400000000000 H
   0.5402766666666666    0.8471900000000000    0.6281750000000000 H
   0.3779633333333333    0.9629400000000000    0.5669100000000000 H
   0.5444300000000000    0.9629900000000000    0.5679200000000000 H
   0.4129633333333333    0.2390400000000000    0.6392949999999999 H
   0.5789200000000000    0.2393600000000000    0.6404500000000000 H
   0.4318866666666666    0.2794000000000000    0.7151050000000000 H
   0.5978866666666667    0.2797400000000000    0.7162400000000000 H
   0.4343800000000000    0.1595800000000000    0.7735700000000000 H
   0.6008000000000000    0.1597100000000000    0.7745800000000000 H
   0.4178700000000000    0.0002700000000000    0.7566600000000000 H
   0.5846133333333332    0.0002300000000000    0.7575950000000000 H
   0.7903766666666666    0.6502100000000000    0.8724250000000000 H
   0.9566366666666666    0.6519100000000000    0.8725149999999999 H
   0.7948599999999999    0.5339200000000000    0.9324000000000000 H
   0.9606066666666666    0.5363200000000000    0.9328799999999999 H
   0.8294566666666666    0.2584300000000000    0.8592150000000001 H
   0.9954499999999999    0.2597300000000000    0.8608250000000000 H
   0.8482633333333333    0.2187500000000000    0.7832800000000000 H
   0.6666666666666666    0.2190300000000000    0.7852049999999999 H
   0.8508633333333333    0.3392300000000000    0.7251600000000000 H
   0.6666666666666666    0.3388300000000000    0.7267700000000000 H
   0.8345466666666665    0.4985100000000000    0.7424950000000000 H
   0.6666666666666666    0.4984000000000000    0.7434950000000000 H
   0.7930033333333333    0.3471200000000000    0.6218750000000000 H
   0.9597700000000000    0.3470000000000000    0.6228050000000001 H
   0.7888633333333332    0.4628900000000000    0.6821550000000001 H
   0.9554066666666666    0.4627500000000000    0.6830650000000000 H
   0.7544000000000000    0.7394100000000000    0.6096500000000000 H
   0.9204599999999999    0.7388000000000000    0.6105900000000000 H
   0.7354799999999999    0.7798900000000000    0.5338750000000000 H
   0.9015400000000000    0.7791100000000000    0.5347650000000000 H
   0.7325699999999999    0.6599100000000000    0.9755199999999999 H
   0.8990266666666666    0.6592100000000000    0.9763500000000001 H
   0.7487266666666667    0.5003600000000000    0.9924900000000000 H
   0.9155033333333333    0.4998500000000000    0.9933050000000000 H
   0.7100099999999999    0.1524700000000000    0.8778150000000000 H
   0.8762566666666667    0.1501300000000000    0.8776050000000000 H
   0.7059133333333333    0.0370900000000000    0.8173600000000000 H
   0.8718033333333333    0.0338200000000000    0.8176000000000000 H
   0.6709133333333333    0.7605800000000000    0.8892350000000000 H
   0.8371999999999999    0.7584100000000000    0.8908000000000000 H
   0.8184066666666666    0.7187900000000000    0.9667399999999999 H
   0.9823266666666666    0.8391999999999999    0.5234650000000000 H
   0.8158099999999999    0.8393000000000000    0.5248550000000000 H
   0.9986866666666666    0.9987400000000000    0.5068550000000001 H
   0.8320966666666666    0.9985500000000000    0.5075050000000000 H
   0.7068466666666666    0.8473800000000000    0.6272400000000000 H
   0.8736100000000000    0.8471900000000000    0.6281750000000000 H
   0.7112966666666667    0.9629400000000000    0.5669100000000000 H
   0.8777633333333332    0.9629900000000000    0.5679200000000000 H
   0.7462966666666666    0.2390400000000000    0.6392949999999999 H
   0.9122533333333332    0.2393600000000000    0.6404500000000000 H
   0.7652200000000000    0.2794000000000000    0.7151050000000000 H
   0.9312199999999999    0.2797400000000000    0.7162400000000000 H
   0.7677133333333332    0.1595800000000000    0.7735700000000000 H
   0.9341333333333333    0.1597100000000000    0.7745800000000000 H
   0.7512033333333333    0.0002700000000000    0.7566600000000000 H
   0.9179466666666666    0.0002300000000000    0.7575950000000000 H
   0.1442033333333333    0.6392200000000000    0.2904650000000000 C
   0.3109833333333333    0.6397699999999999    0.2908000000000000 C
   0.1442166666666667    0.5620000000000001    0.3224000000000000 C
   0.3107700000000000    0.5629700000000000    0.3229650000000000 C
   0.1330600000000000    0.5815600000000000    0.3649950000000000 C
   0.2993000000000000    0.5831000000000000    0.3653700000000000 C
   0.1350133333333333    0.5155800000000000    0.3986100000000000 C
   0.3009466666666666    0.5175300000000000    0.3991850000000000 C
   0.1454166666666667    0.4270000000000000    0.3892450000000000 C
   0.3113666666666667    0.4287900000000000    0.3901850000000000 C
   0.1549300000000000    0.4021300000000000    0.3451750000000000 C
   0.3211466666666666    0.4033100000000000    0.3463000000000000 C
   0.1558133333333333    0.4716400000000000    0.3113450000000000 C
   0.3223266666666667    0.4724000000000000    0.3122900000000000 C
   0.1643500000000000    0.3110500000000000    0.3338400000000000 C
   0.3305533333333333    0.3120400000000000    0.3353200000000000 C
   0.1745400000000000    0.2889800000000000    0.2915000000000000 C
   0.0000000000000000    0.2894100000000000    0.2931550000000000 C
   0.1758533333333333    0.3572700000000000    0.2584800000000000 C
   0.0000000000000000    0.3573000000000000    0.2599550000000000 C
   0.1666666666666667    0.4463300000000000    0.2681050000000000 C
   0.0000000000000000    0.4465200000000000    0.2692350000000000 C
   0.1464033333333333    0.3593200000000000    0.4268100000000000 C
   0.3124166666666667    0.3617900000000000    0.4280000000000000 C
   0.1056033333333333    0.3592000000000000    0.0399650000000000 C
   0.2723233333333333    0.3587700000000000    0.0409050000000000 C
   0.1057733333333333    0.4359900000000000    0.0721350000000000 C
   0.2724933333333333    0.4356700000000000    0.0730200000000000 C
   0.1170533333333333    0.4159300000000000    0.1146350000000000 C
   0.2837633333333333    0.4157400000000000    0.1155350000000000 C
   0.1152966666666667    0.4816100000000000    0.1484100000000000 C
   0.2818666666666667    0.4814200000000000    0.1493050000000000 C
   0.1049466666666667    0.5703600000000000    0.1393000000000000 C
   0.2713700000000000    0.5700300000000000    0.1401750000000000 C
   0.0953566666666667    0.5957400000000000    0.0953200000000000 C
   0.2617800000000000    0.5952900000000000    0.0961850000000000 C
   0.0942933333333333    0.5265600000000000    0.0613350000000000 C
   0.2608933333333333    0.5261300000000000    0.0621950000000000 C
   0.0860366666666667    0.6870000000000001    0.0841950000000000 C
   0.2522666666666666    0.6864300000000000    0.0850850000000000 C
   0.0757733333333333    0.7095200000000000    0.0419350000000000 C
   0.2420100000000000    0.7088500000000000    0.0428050000000000 C
   0.0742933333333333    0.6415300000000000    0.0087700000000000 C
   0.2407366666666667    0.6408900000000000    0.0096100000000000 C
   0.0833833333333333    0.5523200000000000    0.0181800000000000 C
   0.2500033333333333    0.5518000000000000    0.0190200000000000 C
   0.1039600000000000    0.6376200000000000    0.1770600000000000 C
   0.2701033333333333    0.6372300000000000    0.1779000000000000 C
   0.0223266666666667    0.1402600000000000    0.4594650000000000 C
   0.1890533333333333    0.1391700000000000    0.4595650000000000 C
   0.0225733333333333    0.0634900000000000    0.4273250000000000 C
   0.1890666666666667    0.0619600000000000    0.4276150000000000 C
   0.0340000000000000    0.0836700000000000    0.3849100000000000 C
   0.2002400000000000    0.0814900000000000    0.3850300000000000 C
   0.0322533333333333    0.0182200000000000    0.3510450000000000 C
   0.1983066666666667    0.0155000000000000    0.3514100000000000 C
   0.0217300000000000    0.9296000000000000    0.3600150000000000 C
   0.1879066666666667    0.9269400000000000    0.3607500000000000 C
   0.0120266666666667    0.9040400000000000    0.4039050000000000 C
   0.1783833333333333    0.9021000000000000    0.4048000000000000 C
   0.0109833333333333    0.9729800000000000    0.4379500000000000 C
   0.1774900000000000    0.9716200000000000    0.4386700000000000 C
   0.0025866666666667    0.8127900000000000    0.4148100000000000 C
   0.1689733333333333    0.8110400000000000    0.4161750000000000 C
   0.3255766666666666    0.7900199999999999    0.4550000000000000 C
   0.1587866666666667    0.7890100000000000    0.4585000000000000 C
   0.3241166666666667    0.8577800000000000    0.4902750000000000 C
   0.1574766666666667    0.8573100000000000    0.4915400000000000 C
   0.3333100000000000    0.9469800000000000    0.4810600000000000 C
   0.1666466666666667    0.9463500000000000    0.4819100000000000 C
   0.0204633333333333    0.8625900000000000    0.3221900000000000 C
   0.1869200000000000    0.8592600000000000    0.3232000000000000 C
   0.0609400000000000    0.8594100000000000    0.2091850000000000 C
   0.2276533333333333    0.8591400000000000    0.2100700000000000 C
   0.0608466666666667    0.9361000000000000    0.1769700000000000 C
   0.2275033333333333    0.9359800000000000    0.1779300000000000 C
   0.0495733333333333    0.9160700000000001    0.1344500000000000 C
   0.2162266666666667    0.9159700000000000    0.1354250000000000 C
   0.0515100000000000    0.9816400000000000    0.1006650000000000 C
   0.2179866666666667    0.9816700000000000    0.1016700000000000 C
   0.0620333333333333    0.0702300000000000    0.1097500000000000 C
   0.2283333333333333    0.0703800000000000    0.1108100000000000 C
   0.0716233333333333    0.0955800000000000    0.1537000000000000 C
   0.2379400000000000    0.0957100000000000    0.1547900000000000 C
   0.0724900000000000    0.0265000000000000    0.1877450000000000 C
   0.2390000000000000    0.0265100000000000    0.1887550000000000 C
   0.0811500000000000    0.1867000000000000    0.1648100000000000 C
   0.2472800000000000    0.1869400000000000    0.1659150000000000 C
   0.0914100000000000    0.2091500000000000    0.2070800000000000 C
   0.2575700000000000    0.2094000000000000    0.2081750000000000 C
   0.0926666666666667    0.1412500000000000    0.2403000000000000 C
   0.2590533333333333    0.1413900000000000    0.2413250000000000 C
   0.0833866666666667    0.0521800000000000    0.2309000000000000 C
   0.2499400000000000    0.0522100000000000    0.2319050000000000 C
   0.0632666666666667    0.1373600000000000    0.0719700000000000 C
   0.2293100000000000    0.1376000000000000    0.0730450000000000 C
   0.4775366666666666    0.6392200000000000    0.2904650000000000 C
   0.6443166666666666    0.6397699999999999    0.2908000000000000 C
   0.4775500000000000    0.5620000000000001    0.3224000000000000 C
   0.6441033333333333    0.5629700000000000    0.3229650000000000 C
   0.4663933333333333    0.5815600000000000    0.3649950000000000 C
   0.6326333333333334    0.5831000000000000    0.3653700000000000 C
   0.4683466666666666    0.5155800000000000    0.3986100000000000 C
   0.6342800000000000    0.5175300000000000    0.3991850000000000 C
   0.4787500000000000    0.4270000000000000    0.3892450000000000 C
   0.6447000000000001    0.4287900000000000    0.3901850000000000 C