H6 C12 N2 O4
1.0
  17.6649999569514655    0.0000000000000000    0.0012332496484592
  -0.0059625619510336   15.5299970009341344   -0.0075893894172890
   0.0000000000000000    0.0000000000000000   19.7699999999999996
H C N O
6 12 2 4
direct
   0.0252900000000000    0.1432000000000000    0.8522500000000000 H
   0.9556000000000000    0.2401400000000000    0.9345400000000000 H
   0.0034300000000000    0.2492100000000000    0.0525500000000000 H
   0.2604800000000000    0.9485700000000000    0.1576600000000000 H
   0.3815700000000000    0.9768000000000000    0.0931100000000000 H
   0.3728900000000000    0.0564200000000000    0.9835000000000000 H
   0.1442400000000000    0.0421300000000000    0.8767300000000000 C
   0.1037900000000000    0.0986700000000000    0.9274400000000000 C
   0.0420200000000000    0.1474900000000000    0.9052500000000000 C
   0.0037300000000000    0.2009500000000000    0.9501500000000001 C
   0.0299800000000000    0.2052500000000000    0.0165900000000000 C
   0.1245200000000000    0.1055200000000000    0.9960300000000000 C
   0.1925200000000000    0.0606500000000000    0.0235700000000000 C
   0.1909400000000000    0.0132800000000000    0.0845000000000000 C
   0.2602200000000000    0.9836400000000000    0.1099200000000000 C
   0.3269400000000000    0.9989000000000000    0.0743500000000000 C
   0.3220400000000000    0.0436000000000000    0.0133600000000000 C
   0.1183700000000000    0.9906500000000000    0.1209500000000000 C
   0.2567700000000000    0.0744100000000000    0.9882600000000000 N
   0.0889700000000000    0.1591900000000000    0.0395000000000000 N
   0.1494100000000000    0.9631100000000000    0.8855000000000000 O
   0.1688000000000000    0.0854400000000000    0.8247400000000000 O
   0.0582900000000000    0.9805400000000000    0.0889700000000000 O
   0.1262700000000000    0.9814900000000000    0.1861400000000000 O
