H18 C12 N4
1.0
  17.6649999569514655    0.0000000000000000    0.0012332496484592
  -0.0059625619510336   15.5299970009341344   -0.0075893894172890
   0.0000000000000000    0.0000000000000000   19.7699999999999996
H C N
18 12 4
direct
   0.2448000000000000    0.6459900000000000    0.8919000000000000 H
   0.1602500000000000    0.7997200000000000    0.8840900000000000 H
   0.1543600000000000    0.7361500000000000    0.6442900000000000 H
   0.2113000000000000    0.6418000000000000    0.6483100000000001 H
   0.1124600000000000    0.6352700000000000    0.6639400000000000 H
   0.1093000000000000    0.8828800000000000    0.7898400000000000 H
   0.1276500000000000    0.8502999999999999    0.7058000000000000 H
   0.0163100000000000    0.7500300000000000    0.7089500000000000 H
   0.9926300000000000    0.8592500000000000    0.7185100000000000 H
   0.0084300000000000    0.7315500000000000    0.8371300000000000 H
   0.9793700000000000    0.8396700000000000    0.8437200000000000 H
   0.8700100000000000    0.7375400000000000    0.8475200000000001 H
   0.8960300000000000    0.6929500000000000    0.7689900000000000 H
   0.8448900000000000    0.7529200000000000    0.6653000000000000 H
   0.7580400000000000    0.8985800000000000    0.6350100000000000 H
   0.7775500000000000    0.9534800000000000    0.8757600000000000 H
   0.8369600000000000    0.8646900000000000    0.8942200000000000 H
   0.8777199999999999    0.9619200000000000    0.8644100000000000 H
   0.2159600000000000    0.6767200000000000    0.8499600000000000 C
   0.1738900000000000    0.7506600000000000    0.8470200000000000 C
   0.1776700000000000    0.6905300000000000    0.7444000000000000 C
   0.1632000000000000    0.6753400000000001    0.6714900000000000 C
   0.1032500000000000    0.8292700000000000    0.7540300000000000 C
   0.0202100000000000    0.8047500000000000    0.7442100000000000 C
   0.9786000000000000    0.7833100000000000    0.8098600000000000 C
   0.8972300000000000    0.7524500000000000    0.7989800000000000 C
   0.8287700000000000    0.8083100000000000    0.6954399999999999 C
   0.7856000000000000    0.8791700000000000    0.6815600000000001 C
   0.8188200000000000    0.8885400000000000    0.7888500000000001 C
   0.8284899999999999    0.9188800000000000    0.8594300000000000 C
   0.2183800000000000    0.6398900000000000    0.7859300000000000 N
   0.1499500000000000    0.7586400000000000    0.7804400000000000 N
   0.7793500000000000    0.9285600000000001    0.7399400000000000 N
   0.8494699999999999    0.8147700000000000    0.7629800000000000 N
