H1 O1
1.0
  12.3092813992752514    0.0000000000000000   -0.7645132003152789
   0.0068751034626216   13.7929981521057332   -0.0019258661035602
   0.0000000000000000    0.0000000000000000   17.5680000000000014
H O
1 1
direct
   0.7879635429001929    0.4851754786349243    0.1021154086526462 H
   0.7268600000000000    0.5215000000000000    0.0780700000000000 O
