Zn8 H48 C58 N32 O15
1.0
  12.3092813992752514    0.0000000000000000   -0.7645132003152789
   0.0068751034626216   13.7929981521057332   -0.0019258661035602
   0.0000000000000000    0.0000000000000000   17.5680000000000014
Zn H C N O
8 48 58 32 15
direct
   0.4623100000000000    0.9050400000000000    0.9262100000000000 Zn
   0.0651100000000000    0.9750000000000000    0.0965300000000000 Zn
   0.0376900000000000    0.4050000000000000    0.0737400000000000 Zn
   0.5650800000000000    0.5250500000000000    0.0965000000000000 Zn
   0.5376500000000000    0.0949800000000000    0.0737600000000000 Zn
   0.9348400000000000    0.0250300000000000    0.9034400000000000 Zn
   0.9622700000000000    0.5950200000000000    0.9262000000000000 Zn
   0.4348700000000000    0.4749800000000000    0.9034500000000000 Zn
   0.4655600000000000    0.6966800000000000    0.8420600000000000 H
   0.2773500000000000    0.3891900000000000    0.0232600000000000 H
   0.2594400000000000    0.5797099999999999    0.7954100000000000 H
   0.1202900000000000    0.6121799999999999    0.8014300000000000 H
   0.5275100000000000    0.7292200000000000    0.1379100000000000 H
   0.5014900000000000    0.8385000000000000    0.0916300000000000 H
   0.0343300000000000    0.1966700000000000    0.1579500000000000 H
   0.2226300000000000    0.8895400000000000    0.9765700000000000 H
   0.9692499999999999    0.7908300000000000    0.2918600000000000 H
   0.9666100000000000    0.7266100000000000    0.4249900000000000 H
   0.1479200000000000    0.9755900000000000    0.5082000000000000 H
   0.1496600000000000    0.0394700000000000    0.3754900000000000 H
   0.2646100000000000    0.7872600000000000    0.5303600000000001 H
   0.4082100000000000    0.8123700000000000    0.6355499999999999 H
   0.1630100000000000    0.8911500000000000    0.7875500000000000 H
   0.0186200000000000    0.8633400000000000    0.6837400000000000 H
   0.2405200000000000    0.0795800000000000    0.2047100000000000 H
   0.3796500000000000    0.1120700000000000    0.1986800000000000 H
   0.9722700000000000    0.2291700000000000    0.8621100000000000 H
   0.9983600000000000    0.3384200000000000    0.9083900000000000 H
   0.5343900000000000    0.3033500000000000    0.1579200000000000 H
   0.7226000000000000    0.6108400000000000    0.9767100000000000 H
   0.4688100000000000    0.7089800000000001    0.2919200000000000 H
   0.4661500000000000    0.7732300000000000    0.4250600000000000 H
   0.6480399999999999    0.5244100000000000    0.5082500000000000 H
   0.6497800000000000    0.4604700000000000    0.3754800000000000 H
   0.7645000000000000    0.7125400000000000    0.5303400000000000 H
   0.9081200000000000    0.6874600000000000    0.6355000000000000 H
   0.6629600000000000    0.6090300000000000    0.7875900000000000 H
   0.5185500000000000    0.6368100000000000    0.6837800000000001 H
   0.7405100000000000    0.4203100000000000    0.2045700000000000 H
   0.8796700000000000    0.3878400000000000    0.1985000000000000 H
   0.4724400000000000    0.2708100000000000    0.8620700000000000 H
   0.4984600000000000    0.1615300000000000    0.9083000000000000 H
   0.9656200000000000    0.8033500000000000    0.8420299999999999 H
   0.7773200000000000    0.1104900000000000    0.0234000000000000 H
   0.0307100000000000    0.2091900000000000    0.7081200000000000 H
   0.0333500000000000    0.2734100000000000    0.5749900000000000 H
   0.8520300000000000    0.0244300000000000    0.4917100000000000 H
   0.8502900000000000    0.9605500000000000    0.6244800000000000 H
   0.7353400000000000    0.2127700000000000    0.4696200000000000 H
   0.5917400000000000    0.1876600000000000    0.3644200000000000 H
   0.8369500000000000    0.1088800000000000    0.2124300000000000 H
   0.9813300000000000    0.1366800000000000    0.3162300000000000 H
   0.7594300000000000    0.9204400000000000    0.7952600000000000 H
   0.6203100000000000    0.8879500000000000    0.8013000000000000 H
   0.0276900000000000    0.7708500000000000    0.1378700000000000 H
   0.0016000000000000    0.6616000000000000    0.0915900000000000 H
   0.4817400000000000    0.6888300000000001    0.9031300000000000 C
   0.5110900000000000    0.7212100000000000    0.0225200000000000 C
   0.1873100000000000    0.5295200000000000    0.8881400000000000 C
   0.2312600000000000    0.4347800000000000    0.9827000000000000 C
   0.0181300000000000    0.1888200000000000    0.0968800000000000 C
   0.9887200000000000    0.2211800000000000    0.9774900000000000 C
   0.3126600000000000    0.0295400000000000    0.1118900000000000 C
   0.2687200000000000    0.9350400000000000    0.0172000000000000 C
   0.0658500000000000    0.9566700000000000    0.2461100000000000 C
   0.0611500000000000    0.9186800000000001    0.3248900000000000 C
   0.0087100000000000    0.8307900000000000    0.3393300000000000 C
   0.0067100000000000    0.7948800000000000    0.4131700000000000 C
   0.0584600000000000    0.8465300000000000    0.4736500000000000 C
   0.1098100000000000    0.9350900000000000    0.4606100000000000 C
   0.1106200000000000    0.9705100000000000    0.3865300000000000 C
   0.1341200000000000    0.8257000000000000    0.6013100000000000 C
   0.2431100000000000    0.8103000000000000    0.5868200000000000 C
   0.3229200000000000    0.8246500000000000    0.6450000000000000 C
   0.2945900000000000    0.8546400000000000    0.7178200000000000 C
   0.1846200000000000    0.8681900000000000    0.7311800000000001 C
   0.1039800000000000    0.8531800000000000    0.6734000000000000 C
   0.3808900000000000    0.8703900000000000    0.7800500000000000 C
   0.5182099999999999    0.3112000000000000    0.0968500000000000 C
   0.4888600000000000    0.2788100000000000    0.9774600000000000 C
   0.8126500000000000    0.4705000000000000    0.1118300000000000 C
   0.7686900000000000    0.5652400000000000    0.0172800000000000 C
   0.5657600000000000    0.5432600000000000    0.2461100000000000 C
   0.5610000000000001    0.5812300000000000    0.3249100000000000 C
   0.5083800000000001    0.6690700000000001    0.3393800000000000 C
   0.5063600000000000    0.7049800000000001    0.4132200000000000 C
   0.5583100000000000    0.6534100000000000    0.4736800000000000 C
   0.6097900000000001    0.5648700000000000    0.4606100000000000 C
   0.6106100000000000    0.5294400000000000    0.3865300000000000 C
   0.6340300000000000    0.6742800000000000    0.6013200000000000 C
   0.7430200000000000    0.6895900000000000    0.5868200000000000 C
   0.8228400000000000    0.6752300000000000    0.6452900000000000 C
   0.7945200000000000    0.6453800000000000    0.7178400000000000 C
   0.6845599999999999    0.6318800000000000    0.7312000000000000 C
   0.6039000000000000    0.6469000000000000    0.6734300000000000 C
   0.8808400000000000    0.6296300000000000    0.7800700000000000 C
   0.9818300000000000    0.8112100000000000    0.9031000000000000 C
   0.0112400000000000    0.7788500000000000    0.0224900000000000 C
   0.6873000000000000    0.9704900000000000    0.8880800000000000 C
   0.7312400000000000    0.0649800000000000    0.9827700000000000 C
   0.9341000000000000    0.0433500000000000    0.7538700000000000 C
   0.9388000000000000    0.0813500000000000    0.6750000000000000 C
   0.9912800000000000    0.1692300000000000    0.6606500000000000 C
   0.9932800000000001    0.2051400000000000    0.5868100000000001 C
   0.9414900000000000    0.1534900000000000    0.5263200000000000 C
   0.8901400000000000    0.0649300000000000    0.5393700000000000 C
   0.8893300000000000    0.0295200000000000    0.6134500000000001 C
   0.8658400000000001    0.1743300000000000    0.3986600000000000 C
   0.7568400000000000    0.1897100000000000    0.4131600000000000 C
   0.6770300000000000    0.1754000000000000    0.3546800000000000 C
   0.7053600000000000    0.1453800000000000    0.2821600000000000 C
   0.8153400000000000    0.1318600000000000    0.2687900000000000 C
   0.8959800000000000    0.1468300000000000    0.3265000000000000 C
   0.6190600000000001    0.1296300000000000    0.2199300000000000 C
   0.2731000000000000    0.4785200000000000    0.9219000000000001 N
   0.0968300000000000    0.5156100000000000    0.9268700000000000 N
   0.1271100000000000    0.4547100000000000    0.9882200000000000 N
   0.1927200000000000    0.5876600000000000    0.8270800000000000 N
   0.5122000000000000    0.6240400000000000    0.0159700000000000 N
   0.4924900000000000    0.7641700000000000    0.9527800000000000 N
   0.4938800000000000    0.6040900000000000    0.9382800000000000 N
   0.5318200000000000    0.7699500000000000    0.0892900000000000 N
   0.2268800000000000    0.9786600000000000    0.0780700000000000 N
   0.4031300000000000    0.0156700000000000    0.0731000000000000 N
   0.3728500000000000    0.9549500000000000    0.0116900000000000 N
   0.3072300000000000    0.0875400000000000    0.1730500000000000 N
   0.9875600000000000    0.1240100000000000    0.9840400000000000 N
   0.0074000000000000    0.2641600000000000    0.0472300000000000 N
   0.0059400000000000    0.1040800000000000    0.0617300000000000 N
   0.9679800000000000    0.2699200000000000    0.9107300000000000 N
   0.7268600000000000    0.5215000000000000    0.0780700000000000 N
   0.9031200000000000    0.4844200000000000    0.0731000000000000 N
   0.8728399999999999    0.5453100000000000    0.0117600000000000 N
   0.8072300000000000    0.4123600000000000    0.1729000000000000 N
   0.4877500000000000    0.3759900000000000    0.9840000000000000 N
   0.5074600000000000    0.2358500000000000    0.0472000000000000 N
   0.5060800000000000    0.3959300000000000    0.0617000000000000 N
   0.4681300000000000    0.2300800000000000    0.9106900000000000 N
   0.7730700000000000    0.0213600000000000    0.9219000000000001 N
   0.5968200000000000    0.9843499999999999    0.9268500000000000 N
   0.6271099999999999    0.0450700000000000    0.9882900000000000 N
   0.6927200000000000    0.9124800000000000    0.8269300000000001 N
   0.0123900000000000    0.8760100000000000    0.0159400000000000 N
   0.9925500000000000    0.7358700000000000    0.9527500000000000 N
   0.9940099999999999    0.8959400000000000    0.9382500000000000 N
   0.0319800000000000    0.7301000000000000    0.0892000000000000 N
   0.0508400000000000    0.8081300000000000    0.5456800000000001 O
   0.4783500000000000    0.8499400000000000    0.7701000000000000 O
   0.3476600000000000    0.9040600000000000    0.8438900000000000 O
   0.1017500000000000    0.0405300000000000    0.2336200000000000 O
   0.0318500000000000    0.9003800000000000    0.1898700000000000 O
   0.5507400000000000    0.6918700000000000    0.5457000000000000 O
   0.9782700000000000    0.6500800000000000    0.7701400000000000 O
   0.8476399999999999    0.5959800000000000    0.8439100000000000 O
   0.6017400000000001    0.4593700000000000    0.2336000000000000 O
   0.5317900000000000    0.5996200000000000    0.1890000000000000 O
   0.9491100000000000    0.1918900000000000    0.4542900000000000 O
   0.5216000000000000    0.1500800000000000    0.2298400000000000 O
   0.6522900000000000    0.0959700000000000    0.1560800000000000 O
   0.8982100000000000    0.9594900000000000    0.7663500000000000 O
   0.9681000000000000    0.0996500000000000    0.8101100000000000 O
