H9 O6
1.0
  16.2454728800349208    0.0000000000000000    9.3479762464423182
   5.3871015228105126   15.3286198684251698    9.3881720857818625
   0.0000000000000000    0.0000000000000000   18.7620000000000005
H O
9 6
direct
  -0.1578740747298937    0.6717110845106975    0.4605270619191933 H
   0.8419393786494123    0.4609376749466708    0.6715744790656389 H
   0.8307615207441518    0.5710551958005393    0.5707851073193131 H
   0.4610552555232149    0.6713961689234232    0.8416337831384970 H
   0.6717147974400800    0.4608648342659086   -0.1579164585901333 H
   0.5711582793361119    0.5708358280917973    0.8305526806599900 H
   0.4610105714305454    0.8415706970713644    0.6711967138536468 H
   0.6716704219838631   -0.1577900800196347    0.4604290935772136 H
   0.5711359734561297   -0.1694146256965972    0.5704675881221093 H
  -0.1266000000000001    0.6139000000000000    0.4921000000000000 O
   0.8732900000000000    0.4924400000000000    0.6137200000000000 O
   0.4925200000000000    0.6136500000000000    0.8731100000000001 O
   0.6139400000000000    0.4923200000000000   -0.1266500000000000 O
   0.4925000000000000    0.8730900000000000    0.6134500000000001 O
   0.6139300000000000   -0.1265800000000000    0.4919900000000000 O
