Cu12 H21 C63 O42
1.0
  16.2454728800349208    0.0000000000000000    9.3479762464423182
   5.3871015228105126   15.3286198684251698    9.3881720857818625
   0.0000000000000000    0.0000000000000000   18.7620000000000005
Cu H C O
12 21 63 42
direct
   0.9997100000000000    0.4347000000000000    0.1000000000000000 Cu
   0.0002300000000000    0.5653400000000000    0.9999600000000000 Cu
   0.4346000000000000    0.9998200000000000    0.5654100000000000 Cu
   0.5653700000000000    0.4346500000000000    0.0001300000000000 Cu
   0.9997700000000000    0.0000600000000000    0.4346000000000000 Cu
   0.4346100000000000    0.5653000000000000    0.9998000000000000 Cu
   0.0002000000000000    0.9999100000000000    0.5653800000000000 Cu
   0.5653899999999999    0.0000900000000000    0.8000000000000000 Cu
   0.9999100000000000    0.4345900000000000    0.5649999999999999 Cu
   0.4345200000000000    0.9998800000000000    0.9999600000000000 Cu
   0.0000400000000000    0.5653800000000000    0.4345100000000000 Cu
   0.5653700000000000    0.0001700000000000    0.4346000000000000 Cu
   0.7340600000000000    0.7344900000000000    0.0273000000000000 H
   0.5042600000000000    0.0279000000000000    0.7340000000000000 H
   0.0272900000000000    0.5046300000000000    0.7340100000000001 H
   0.7340500000000000    0.5051500000000000    0.0270000000000000 H
   0.7341800000000001    0.0265800000000000    0.5051800000000000 H
   0.0281000000000000    0.7339400000000000    0.7336400000000000 H
   0.7340500000000000    0.0277100000000000    0.7342300000000000 H
   0.5043400000000000    0.7339800000000000    0.0277100000000000 H
   0.0280200000000000    0.7339400000000000    0.5041200000000000 H
   0.2658300000000000    0.2658300000000000    0.4957700000000000 H
   0.2658100000000000    0.2655400000000000    0.9726700000000000 H
   0.9726500000000000    0.4953500000000000    0.2660500000000000 H
   0.4957200000000000    0.9720700000000000    0.2659700000000000 H
   0.4956300000000000    0.2658700000000000    0.9722900000000000 H
   0.9719400000000000    0.2659900000000000    0.4959000000000000 H
   0.2657400000000000    0.4952000000000000    0.2659100000000000 H
   0.2659200000000000    0.9722200000000000    0.2658200000000000 H
   0.9718700000000000    0.2660600000000000    0.2663000000000000 H
   0.4952300000000000    0.2661100000000000    0.2663900000000000 H
   0.2660100000000000    0.4947800000000000    0.9730300000000000 H
   0.2658300000000000    0.9733900000000000    0.4948200000000000 H
   0.2566900000000000    0.9715000000000000    0.3855700000000000 C
   0.9706700000000000    0.2568400000000000    0.3863200000000000 C
   0.3857300000000000    0.3859200000000000    0.2569100000000000 C
   0.3860700000000000    0.3856000000000000    0.9713200000000000 C
   0.2566100000000000    0.3857900000000000    0.3861000000000000 C
   0.9708900000000000    0.3859600000000000    0.3862400000000000 C
   0.3859200000000000    0.2565200000000000    0.9712700000000000 C
   0.3860400000000000    0.9709100000000001    0.2567000000000000 C
   0.2567000000000000    0.3854300000000000    0.9715200000000001 C
   0.9709400000000000    0.3859800000000000    0.2569700000000000 C
   0.3860400000000000    0.9713700000000000    0.3856700000000000 C
   0.3857500000000000    0.2567700000000000    0.3862900000000000 C
   0.0293000000000000    0.7431300000000000    0.6136800000000000 C
   0.7433000000000000    0.0284500000000000    0.6144500000000001 C
   0.6139400000000000    0.6143000000000000    0.0287000000000000 C
   0.6139600000000000    0.0286000000000000    0.6143100000000000 C
   0.7432600000000000    0.6145500000000000    0.0285100000000000 C
   0.0290100000000000    0.6140099999999999    0.7430500000000000 C
   0.6140000000000000    0.7434200000000000    0.0287600000000000 C
   0.6139400000000000    0.0290400000000000    0.7433100000000000 C
   0.0290600000000000    0.6140000000000000    0.6138000000000000 C
   0.5696800000000000    0.5699800000000000    0.0236100000000000 C
   0.8369500000000000    0.0231100000000000    0.5700000000000000 C
   0.0240400000000000    0.8367400000000000    0.5694600000000000 C
   0.5697900000000000    0.8369300000000000    0.0235800000000000 C
   0.5697200000000000    0.0239200000000000    0.8368300000000000 C
   0.0238900000000000    0.5697600000000000    0.5696000000000000 C
   0.5697300000000000    0.0233900000000000    0.5700800000000000 C
   0.8368700000000000    0.5703700000000000    0.0233400000000000 C
   0.0237200000000000    0.5698100000000000    0.8367200000000000 C
   0.4299600000000000    0.4301800000000000    0.1632700000000000 C
   0.4303500000000000    0.4299100000000000    0.9764000000000000 C
   0.9759500000000000    0.1632200000000000    0.4305200000000000 C
   0.1630400000000000    0.9768400000000000    0.4297300000000000 C
   0.1630900000000000    0.4296600000000000    0.9766899999999999 C
   0.9762400000000000    0.4302000000000000    0.1630000000000000 C
   0.4299800000000000    0.1632000000000000    0.4305600000000000 C
   0.4302800000000000    0.9765900000000000    0.4299000000000000 C
   0.9760799999999999    0.4301800000000000    0.4304500000000000 C
   0.1631000000000000    0.4300200000000000    0.4303000000000000 C
   0.4301100000000000    0.1630200000000000    0.9764300000000000 C
   0.4302500000000000    0.9760200000000000    0.1631800000000000 C
   0.2998200000000000    0.9716100000000000    0.4285700000000000 C
   0.9706300000000000    0.2999500000000000    0.3001800000000000 C
   0.4287900000000000    0.2999300000000000    0.3001700000000000 C
   0.2999000000000000    0.4284800000000000    0.9714699999999999 C
   0.2996700000000000    0.4288400000000000    0.2999300000000000 C
   0.9706399999999999    0.2999100000000000    0.4293900000000000 C
   0.4291100000000000    0.2996600000000000    0.9711000000000000 C
   0.2998500000000000    0.9710100000000000    0.2996800000000000 C
   0.2997700000000000    0.2994700000000000    0.9713100000000000 C
   0.9710100000000000    0.4289800000000000    0.3000500000000000 C
   0.4291700000000000    0.9709100000000001    0.2997800000000000 C
   0.2997000000000000    0.2997600000000000    0.4292800000000000 C
   0.0293100000000000    0.7000500000000000    0.5706300000000000 C
   0.7001300000000000    0.0289300000000000    0.7003500000000000 C
   0.5708600000000000    0.7002400000000000    0.0289200000000000 C
   0.7001800000000000    0.0283500000000000    0.5714399999999999 C
   0.7001100000000000    0.5714600000000000    0.0285600000000000 C
   0.0293300000000000    0.7000400000000000    0.6998200000000000 C
   0.7001500000000001    0.7005100000000000    0.0287200000000000 C
   0.5708200000000000    0.0290500000000000    0.7002000000000000 C
   0.0289200000000000    0.5710000000000000    0.7000000000000000 C
   0.4921500000000000    0.6138200000000000    0.0206000000000000 O
   0.8736200000000000    0.0201100000000000    0.6142200000000000 O
   0.0208300000000000    0.8733200000000000    0.4920000000000000 O
   0.6137800000000000    0.8734900000000000    0.0206600000000000 O
   0.4922000000000000    0.0208700000000000    0.8732500000000000 O
   0.0208500000000000    0.4922500000000000    0.6136600000000000 O
   0.6136900000000000    0.0205600000000000    0.4925700000000000 O
   0.8731400000000000    0.4929100000000000    0.0204600000000000 O
   0.0209200000000000    0.6137300000000000    0.8731800000000000 O
   0.5074600000000000    0.3863200000000000    0.1268800000000000 O
   0.3864100000000000    0.5073900000000000    0.9792100000000000 O
   0.9788100000000000    0.1267800000000000    0.3865500000000000 O
   0.1267400000000000    0.9797800000000000    0.5072000000000000 O
   0.1263700000000000    0.3858100000000000    0.9796500000000000 O
   0.9794600000000000    0.5076500000000000    0.1267200000000000 O
   0.3860400000000000    0.1265600000000000    0.5080500000000000 O
   0.5077900000000000    0.9796300000000000    0.3859800000000000 O
   0.9790000000000000    0.3862200000000000    0.5080200000000000 O
   0.1266900000000000    0.5075400000000000    0.3862500000000000 O
   0.5076400000000000    0.1266600000000000    0.9794200000000000 O
   0.3862400000000000    0.9789099999999999    0.1266000000000000 O
   0.3860300000000000    0.5076300000000000    0.1266400000000000 O
   0.5078700000000000    0.3860800000000000    0.9793900000000000 O
   0.1263700000000000    0.9798600000000000    0.3858000000000000 O
   0.9791800000000001    0.1266400000000000    0.5079000000000000 O
   0.3861000000000000    0.1264500000000000    0.9793900000000000 O
   0.5077600000000000    0.9791100000000000    0.1267500000000000 O
   0.1265800000000000    0.3860900000000000    0.5078000000000000 O
   0.9791000000000000    0.5077000000000000    0.3863900000000000 O
   0.3863000000000000    0.9794400000000000    0.5074000000000000 O
   0.5074600000000000    0.1268800000000000    0.3865900000000000 O
   0.1268500000000000    0.5071300000000000    0.9795500000000000 O
   0.9790200000000000    0.3863000000000000    0.1268300000000000 O
   0.6136200000000001    0.4925200000000000    0.0207600000000000 O
   0.0211700000000000    0.8731900000000000    0.6134300000000000 O
   0.8732600000000000    0.0201600000000000    0.4928300000000000 O
   0.8735700000000000    0.6142400000000000    0.0203800000000000 O
   0.0205100000000000    0.4923600000000000    0.8733000000000000 O
   0.4922100000000000    0.0203300000000000    0.6140099999999999 O
   0.0209900000000000    0.6137100000000000    0.4920200000000000 O
   0.4922800000000000    0.8732900000000000    0.0205500000000000 O
   0.6137300000000000    0.0210000000000000    0.8733700000000000 O
