La16 H184 C230 N46 Cl48
1.0
  24.3800488262716328    0.0000000000000000   11.3629055803791257
  10.4697790134514044   24.3553510133078746    5.8214060524975846
   0.0000000000000000    0.0000000000000000   27.9239999999999995
La H C N Cl
16 184 230 46 48
direct
   0.2597550000000000    0.4604400000000000    0.3309550000000000 La
   0.2402550000000000    0.0395350000000000    0.1690400000000000 La
   0.7597550000000000    0.4604400000000000    0.3309550000000000 La
   0.7402550000000000    0.0395350000000000    0.1690400000000000 La
   0.2597550000000000    0.9604400000000000    0.3309550000000000 La
   0.2402550000000000    0.5395350000000000    0.1690400000000000 La
   0.7597550000000000    0.9604400000000000    0.3309550000000000 La
   0.7402550000000000    0.5395350000000000    0.1690400000000000 La
   0.2597550000000000    0.4604400000000000    0.8309550000000000 La
   0.2402550000000000    0.0395350000000000    0.6690400000000000 La
   0.7597550000000000    0.4604400000000000    0.8309550000000000 La
   0.7402550000000000    0.0395350000000000    0.6690400000000000 La
   0.2597550000000000    0.9604400000000000    0.8309550000000000 La
   0.2402550000000000    0.5395350000000000    0.6690400000000000 La
   0.7597550000000000    0.9604400000000000    0.8309550000000000 La
   0.7402550000000000    0.5395350000000000    0.6690400000000000 La
   0.0741650000000000    0.2380800000000000    0.2820500000000000 H
   0.1691550000000000    0.1602650000000000    0.2419000000000000 H
   0.3228300000000000    0.0901400000000000    0.0526500000000000 H
   0.4210350000000000    0.0855550000000000    0.4915850000000000 H
   0.4953250000000000    0.4218550000000000    0.0572400000000000 H
   0.1387950000000000    0.4877650000000000    0.2800100000000000 H
   0.3924550000000000    0.4349150000000000    0.1175350000000000 H
   0.0439100000000000    0.4772800000000000    0.3145400000000000 H
   0.0057550000000000    0.2022150000000000    0.1842300000000000 H
   0.1044700000000000    0.1275200000000000    0.1473000000000000 H
   0.1335700000000000    0.0330500000000000    0.1302200000000000 H
   0.0372200000000000    0.0250100000000000    0.1582550000000000 H
   0.4257400000000000    0.2616650000000000    0.2182000000000000 H
   0.3307700000000000    0.3395450000000000    0.2583000000000000 H
   0.1771900000000000    0.4098300000000000    0.4473550000000000 H
   0.0789900000000000    0.4144150000000000    0.0084200000000000 H
   0.0047000000000000    0.0781250000000000    0.4427850000000000 H
   0.3613950000000000    0.0118900000000000    0.2198650000000000 H
   0.1075700000000000    0.0650600000000000    0.3824500000000000 H
   0.4563200000000000    0.0223050000000000    0.1853100000000000 H
   0.4944400000000000    0.2981100000000000    0.3154400000000000 H
   0.3956950000000000    0.3727400000000000    0.3523900000000000 H
   0.5741650000000000    0.2380800000000000    0.2820500000000000 H
   0.6691549999999999    0.1602650000000000    0.2419000000000000 H
   0.8228300000000000    0.0901400000000000    0.0526500000000000 H
   0.9210350000000000    0.0855550000000000    0.4915850000000000 H
   0.9953250000000000    0.4218550000000000    0.0572400000000000 H
   0.8924550000000000    0.4349150000000000    0.1175350000000000 H
   0.5057550000000000    0.2022150000000000    0.1842300000000000 H
   0.6044700000000000    0.1275200000000000    0.1473000000000000 H
   0.6335700000000000    0.0330500000000000    0.1302200000000000 H
   0.5372200000000000    0.0250100000000000    0.1582550000000000 H
   0.9257400000000000    0.2616650000000000    0.2182000000000000 H
   0.8307700000000000    0.3395450000000000    0.2583000000000000 H
   0.6771900000000000    0.4098300000000000    0.4473550000000000 H
   0.5789900000000000    0.4144150000000000    0.0084200000000000 H
   0.5047000000000000    0.0781250000000000    0.4427850000000000 H
   0.8613950000000000    0.0118900000000000    0.2198650000000000 H
   0.6075699999999999    0.0650600000000000    0.3824500000000000 H
   0.9563200000000001    0.0223050000000000    0.1853100000000000 H
   0.9944400000000000    0.2981100000000000    0.3154400000000000 H
   0.8956950000000000    0.3727400000000000    0.3523900000000000 H
   0.8662350000000000    0.4673250000000000    0.3698250000000000 H
   0.9625300000000000    0.4754750000000000    0.3418100000000000 H
   0.0741650000000000    0.7380800000000001    0.2820500000000000 H
   0.1691550000000000    0.6602650000000000    0.2419000000000000 H
   0.3228300000000000    0.5901400000000000    0.0526500000000000 H
   0.4210350000000000    0.5855550000000000    0.4915850000000000 H
   0.4953250000000000    0.9218550000000000    0.0572400000000000 H
   0.1387950000000000    0.9877650000000000    0.2800100000000000 H
   0.3924550000000000    0.9349149999999999    0.1175350000000000 H
   0.0439100000000000    0.9772799999999999    0.3145400000000000 H
   0.0057550000000000    0.7022150000000000    0.1842300000000000 H
   0.1044700000000000    0.6275200000000000    0.1473000000000000 H
   0.1335700000000000    0.5330500000000000    0.1302200000000000 H
   0.0372200000000000    0.5250100000000000    0.1582550000000000 H
   0.4257400000000000    0.7616650000000000    0.2182000000000000 H
   0.3307700000000000    0.8395450000000000    0.2583000000000000 H
   0.1771900000000000    0.9098300000000000    0.4473550000000000 H
   0.0789900000000000    0.9144150000000000    0.0084200000000000 H
   0.0047000000000000    0.5781250000000000    0.4427850000000000 H
   0.1075700000000000    0.5650600000000000    0.3824500000000000 H
   0.4944400000000000    0.7981100000000000    0.3154400000000000 H
   0.3956950000000000    0.8727400000000001    0.3523900000000000 H
   0.3662350000000000    0.9673250000000000    0.3698250000000000 H
   0.4625300000000000    0.9754750000000000    0.3418100000000000 H
   0.5741650000000000    0.7380800000000001    0.2820500000000000 H
   0.6691549999999999    0.6602650000000000    0.2419000000000000 H
   0.8228300000000000    0.5901400000000000    0.0526500000000000 H
   0.9210350000000000    0.5855550000000000    0.4915850000000000 H
   0.9953250000000000    0.9218550000000000    0.0572400000000000 H
   0.6387950000000000    0.9877650000000000    0.2800100000000000 H
   0.8924550000000000    0.9349149999999999    0.1175350000000000 H
   0.5439100000000000    0.9772799999999999    0.3145400000000000 H
   0.5057550000000000    0.7022150000000000    0.1842300000000000 H
   0.6044700000000000    0.6275200000000000    0.1473000000000000 H
   0.9257400000000000    0.7616650000000000    0.2182000000000000 H
   0.8307700000000000    0.8395450000000000    0.2583000000000000 H
   0.6771900000000000    0.9098300000000000    0.4473550000000000 H
   0.5789900000000000    0.9144150000000000    0.0084200000000000 H
   0.5047000000000000    0.5781250000000000    0.4427850000000000 H
   0.8613950000000000    0.5118900000000000    0.2198650000000000 H
   0.6075699999999999    0.5650600000000000    0.3824500000000000 H
   0.9563200000000001    0.5223050000000000    0.1853100000000000 H
   0.9944400000000000    0.7981100000000000    0.3154400000000000 H
   0.8956950000000000    0.8727400000000001    0.3523900000000000 H
   0.8662350000000000    0.9673250000000000    0.3698250000000000 H
   0.9625300000000000    0.9754750000000000    0.3418100000000000 H
   0.0741650000000000    0.2380800000000000    0.7820500000000000 H
   0.1691550000000000    0.1602650000000000    0.7419000000000000 H
   0.3228300000000000    0.0901400000000000    0.5526500000000000 H
   0.4210350000000000    0.0855550000000000    0.9915849999999999 H
   0.4953250000000000    0.4218550000000000    0.5572400000000000 H
   0.1387950000000000    0.4877650000000000    0.7800100000000000 H
   0.3924550000000000    0.4349150000000000    0.6175349999999999 H
   0.0439100000000000    0.4772800000000000    0.8145400000000000 H
   0.0057550000000000    0.2022150000000000    0.6842300000000000 H
   0.1044700000000000    0.1275200000000000    0.6473000000000000 H
   0.1335700000000000    0.0330500000000000    0.6302200000000000 H
   0.0372200000000000    0.0250100000000000    0.6582550000000000 H
   0.4257400000000000    0.2616650000000000    0.7181999999999999 H
   0.3307700000000000    0.3395450000000000    0.7583000000000000 H
   0.1771900000000000    0.4098300000000000    0.9473549999999999 H
   0.0789900000000000    0.4144150000000000    0.5084200000000000 H
   0.0047000000000000    0.0781250000000000    0.9427850000000000 H
   0.3613950000000000    0.0118900000000000    0.7198650000000000 H
   0.1075700000000000    0.0650600000000000    0.8824500000000000 H
   0.4563200000000000    0.0223050000000000    0.6853100000000000 H
   0.4944400000000000    0.2981100000000000    0.8154399999999999 H
   0.3956950000000000    0.3727400000000000    0.8523900000000000 H
   0.3662350000000000    0.4673250000000000    0.8698250000000001 H
   0.4625300000000000    0.4754750000000000    0.8418099999999999 H
   0.5741650000000000    0.2380800000000000    0.7820500000000000 H
   0.6691549999999999    0.1602650000000000    0.7419000000000000 H
   0.8228300000000000    0.0901400000000000    0.5526500000000000 H
   0.9210350000000000    0.0855550000000000    0.9915849999999999 H
   0.9953250000000000    0.4218550000000000    0.5572400000000000 H
   0.6387950000000000    0.4877650000000000    0.7800100000000000 H
   0.8924550000000000    0.4349150000000000    0.6175349999999999 H
   0.5439100000000000    0.4772800000000000    0.8145400000000000 H
   0.5057550000000000    0.2022150000000000    0.6842300000000000 H
   0.6044700000000000    0.1275200000000000    0.6473000000000000 H
   0.6335700000000000    0.0330500000000000    0.6302200000000000 H
   0.5372200000000000    0.0250100000000000    0.6582550000000000 H
   0.9257400000000000    0.2616650000000000    0.7181999999999999 H
   0.8307700000000000    0.3395450000000000    0.7583000000000000 H
   0.6771900000000000    0.4098300000000000    0.9473549999999999 H
   0.5789900000000000    0.4144150000000000    0.5084200000000000 H
   0.5047000000000000    0.0781250000000000    0.9427850000000000 H
   0.8613950000000000    0.0118900000000000    0.7198650000000000 H
   0.6075699999999999    0.0650600000000000    0.8824500000000000 H
   0.9563200000000001    0.0223050000000000    0.6853100000000000 H
   0.9944400000000000    0.2981100000000000    0.8154399999999999 H
   0.8956950000000000    0.3727400000000000    0.8523900000000000 H
   0.8662350000000000    0.4673250000000000    0.8698250000000001 H
   0.9625300000000000    0.4754750000000000    0.8418099999999999 H
   0.0741650000000000    0.7380800000000001    0.7820500000000000 H
   0.1691550000000000    0.6602650000000000    0.7419000000000000 H
   0.3228300000000000    0.5901400000000000    0.5526500000000000 H
   0.4210350000000000    0.5855550000000000    0.9915849999999999 H
   0.4953250000000000    0.9218550000000000    0.5572400000000000 H
   0.1387950000000000    0.9877650000000000    0.7800100000000000 H
   0.3924550000000000    0.9349149999999999    0.6175349999999999 H
   0.0439100000000000    0.9772799999999999    0.8145400000000000 H
   0.0057550000000000    0.7022150000000000    0.6842300000000000 H
   0.1044700000000000    0.6275200000000000    0.6473000000000000 H
   0.1335700000000000    0.5330500000000000    0.6302200000000000 H
   0.0372200000000000    0.5250100000000000    0.6582550000000000 H
   0.4257400000000000    0.7616650000000000    0.7181999999999999 H
   0.3307700000000000    0.8395450000000000    0.7583000000000000 H
   0.1771900000000000    0.9098300000000000    0.9473549999999999 H
   0.0789900000000000    0.9144150000000000    0.5084200000000000 H
   0.0047000000000000    0.5781250000000000    0.9427850000000000 H
   0.3613950000000000    0.5118900000000000    0.7198650000000000 H
   0.1075700000000000    0.5650600000000000    0.8824500000000000 H
   0.4563200000000000    0.5223050000000000    0.6853100000000000 H
   0.4944400000000000    0.7981100000000000    0.8154399999999999 H
   0.3956950000000000    0.8727400000000001    0.8523900000000000 H
   0.3662350000000000    0.9673250000000000    0.8698250000000001 H
   0.4625300000000000    0.9754750000000000    0.8418099999999999 H
   0.5741650000000000    0.7380800000000001    0.7820500000000000 H
   0.6691549999999999    0.6602650000000000    0.7419000000000000 H
   0.8228300000000000    0.5901400000000000    0.5526500000000000 H
   0.9210350000000000    0.5855550000000000    0.9915849999999999 H
   0.9953250000000000    0.9218550000000000    0.5572400000000000 H
   0.6387950000000000    0.9877650000000000    0.7800100000000000 H
   0.8924550000000000    0.9349149999999999    0.6175349999999999 H
   0.5439100000000000    0.9772799999999999    0.8145400000000000 H
   0.5057550000000000    0.7022150000000000    0.6842300000000000 H
   0.6044700000000000    0.6275200000000000    0.6473000000000000 H
   0.6335700000000000    0.5330500000000000    0.6302200000000000 H
   0.5372200000000000    0.5250100000000000    0.6582550000000000 H
   0.9257400000000000    0.7616650000000000    0.7181999999999999 H
   0.8307700000000000    0.8395450000000000    0.7583000000000000 H
   0.6771900000000000    0.9098300000000000    0.9473549999999999 H
   0.5789900000000000    0.9144150000000000    0.5084200000000000 H
   0.5047000000000000    0.5781250000000000    0.9427850000000000 H
   0.8613950000000000    0.5118900000000000    0.7198650000000000 H
   0.6075699999999999    0.5650600000000000    0.8824500000000000 H
   0.9563200000000001    0.5223050000000000    0.6853100000000000 H
   0.9944400000000000    0.7981100000000000    0.8154399999999999 H
   0.8956950000000000    0.8727400000000001    0.8523900000000000 H
   0.8662350000000000    0.9673250000000000    0.8698250000000001 H
   0.9625300000000000    0.9754750000000000    0.8418099999999999 H
   0.0776550000000000    0.2146650000000000    0.2528700000000000 C
   0.4693550000000000    0.0026200000000000    0.0180550000000000 C
   0.0293600000000000    0.2273950000000000    0.2380600000000000 C
   0.1314000000000000    0.1709400000000000    0.2306050000000000 C
   0.3621200000000000    0.0533650000000000    0.0529300000000000 C
   0.4185600000000000    0.0500250000000000    0.0178500000000000 C
   0.4588400000000000    0.4602750000000000    0.0544850000000000 C
   0.1146950000000000    0.4964600000000000    0.2541500000000000 C
   0.4009350000000000    0.4670200000000000    0.0883700000000000 C
   0.0293950000000000    0.0019300000000000    0.2402100000000000 C
   0.0607000000000000    0.4905800000000000    0.2733500000000000 C
   0.0399700000000000    0.1949350000000000    0.1990450000000000 C
   0.0952050000000000    0.1522750000000000    0.1784100000000000 C
   0.1114800000000000    0.0214350000000000    0.1710500000000000 C
   0.0572450000000000    0.0167500000000000    0.1873200000000000 C
   0.4223150000000000    0.2852250000000000    0.2472650000000000 C
   0.0306650000000000    0.4973550000000000    0.4819600000000000 C
   0.4706850000000000    0.2726400000000000    0.2619200000000000 C
   0.3685750000000000    0.3289650000000000    0.2695100000000000 C
   0.1379000000000000    0.4466050000000000    0.4470800000000000 C
   0.0814650000000000    0.4499450000000000    0.4821300000000000 C
   0.0411800000000000    0.0397050000000000    0.4455000000000000 C
   0.3854100000000000    0.0033550000000000    0.2457500000000000 C
   0.0990900000000000    0.0329550000000000    0.4116450000000000 C
   0.4394150000000000    0.0092200000000000    0.2265550000000000 C
   0.4601550000000000    0.3052500000000000    0.3007750000000000 C
   0.4049050000000000    0.3478900000000000    0.3214000000000000 C
   0.5776550000000000    0.2146650000000000    0.2528700000000000 C
   0.9693550000000000    0.0026200000000000    0.0180550000000000 C
   0.5293600000000001    0.2273950000000000    0.2380600000000000 C
   0.6314000000000000    0.1709400000000000    0.2306050000000000 C
   0.8621200000000000    0.0533650000000000    0.0529300000000000 C
   0.9185600000000000    0.0500250000000000    0.0178500000000000 C
   0.9588400000000000    0.4602750000000000    0.0544850000000000 C
   0.9009350000000000    0.4670200000000000    0.0883700000000000 C
   0.5293949999999999    0.0019300000000000    0.2402100000000000 C
   0.5399700000000000    0.1949350000000000    0.1990450000000000 C
   0.5952050000000000    0.1522750000000000    0.1784100000000000 C
   0.6114800000000000    0.0214350000000000    0.1710500000000000 C
   0.5572450000000000    0.0167500000000000    0.1873200000000000 C
   0.9223150000000000    0.2852250000000000    0.2472650000000000 C
   0.5306650000000001    0.4973550000000000    0.4819600000000000 C
   0.9706850000000000    0.2726400000000000    0.2619200000000000 C
   0.8685750000000000    0.3289650000000000    0.2695100000000000 C
   0.6379000000000000    0.4466050000000000    0.4470800000000000 C
   0.5814650000000000    0.4499450000000000    0.4821300000000000 C
   0.5411800000000000    0.0397050000000000    0.4455000000000000 C
   0.8854100000000000    0.0033550000000000    0.2457500000000000 C
   0.5990900000000000    0.0329550000000000    0.4116450000000000 C
   0.9705950000000000    0.4981050000000000    0.2597550000000000 C
   0.9394150000000000    0.0092200000000000    0.2265550000000000 C
   0.9601550000000000    0.3052500000000000    0.3007750000000000 C
   0.9049050000000001    0.3478900000000000    0.3214000000000000 C
   0.8884050000000000    0.4787950000000000    0.3289250000000000 C
   0.9426200000000000    0.4835150000000000    0.3126950000000000 C
   0.0776550000000000    0.7146650000000000    0.2528700000000000 C
   0.4693550000000000    0.5026200000000000    0.0180550000000000 C
   0.0293600000000000    0.7273950000000000    0.2380600000000000 C
   0.1314000000000000    0.6709400000000000    0.2306050000000000 C
   0.3621200000000000    0.5533650000000000    0.0529300000000000 C
   0.4185600000000000    0.5500250000000000    0.0178500000000000 C
   0.4588400000000000    0.9602750000000000    0.0544850000000000 C
   0.1146950000000000    0.9964600000000000    0.2541500000000000 C
   0.4009350000000000    0.9670200000000000    0.0883700000000000 C
   0.0293950000000000    0.5019300000000000    0.2402100000000000 C
   0.0607000000000000    0.9905800000000000    0.2733500000000000 C
   0.0399700000000000    0.6949350000000000    0.1990450000000000 C
   0.0952050000000000    0.6522749999999999    0.1784100000000000 C
   0.1114800000000000    0.5214350000000000    0.1710500000000000 C
   0.0572450000000000    0.5167500000000000    0.1873200000000000 C
   0.4223150000000000    0.7852250000000001    0.2472650000000000 C
   0.0306650000000000    0.9973550000000000    0.4819600000000000 C
   0.4706850000000000    0.7726400000000000    0.2619200000000000 C
   0.3685750000000000    0.8289650000000000    0.2695100000000000 C
   0.1379000000000000    0.9466049999999999    0.4470800000000000 C
   0.0814650000000000    0.9499450000000000    0.4821300000000000 C
   0.0411800000000000    0.5397050000000000    0.4455000000000000 C
   0.0990900000000000    0.5329550000000000    0.4116450000000000 C
   0.4705950000000000    0.9981050000000000    0.2597550000000000 C
   0.4601550000000000    0.8052500000000000    0.3007750000000000 C
   0.4049050000000000    0.8478900000000000    0.3214000000000000 C
   0.3884050000000000    0.9787950000000001    0.3289250000000000 C
   0.4426200000000000    0.9835149999999999    0.3126950000000000 C
   0.5776550000000000    0.7146650000000000    0.2528700000000000 C
   0.9693550000000000    0.5026200000000000    0.0180550000000000 C
   0.5293600000000001    0.7273950000000000    0.2380600000000000 C
   0.6314000000000000    0.6709400000000000    0.2306050000000000 C
   0.8621200000000000    0.5533650000000000    0.0529300000000000 C
   0.9185600000000000    0.5500250000000000    0.0178500000000000 C
   0.9588400000000000    0.9602750000000000    0.0544850000000000 C
   0.6146950000000000    0.9964600000000000    0.2541500000000000 C
   0.9009350000000000    0.9670200000000000    0.0883700000000000 C
   0.5607000000000000    0.9905800000000000    0.2733500000000000 C
   0.5399700000000000    0.6949350000000000    0.1990450000000000 C
   0.5952050000000000    0.6522749999999999    0.1784100000000000 C
   0.9223150000000000    0.7852250000000001    0.2472650000000000 C
   0.5306650000000001    0.9973550000000000    0.4819600000000000 C
   0.9706850000000000    0.7726400000000000    0.2619200000000000 C
   0.8685750000000000    0.8289650000000000    0.2695100000000000 C
   0.6379000000000000    0.9466049999999999    0.4470800000000000 C
   0.5814650000000000    0.9499450000000000    0.4821300000000000 C
   0.5411800000000000    0.5397050000000000    0.4455000000000000 C
   0.8854100000000000    0.5033550000000000    0.2457500000000000 C
   0.5990900000000000    0.5329550000000000    0.4116450000000000 C
   0.9705950000000000    0.9981050000000000    0.2597550000000000 C
   0.9394150000000000    0.5092200000000000    0.2265550000000000 C
   0.9601550000000000    0.8052500000000000    0.3007750000000000 C
   0.9049050000000001    0.8478900000000000    0.3214000000000000 C
   0.8884050000000000    0.9787950000000001    0.3289250000000000 C
   0.9426200000000000    0.9835149999999999    0.3126950000000000 C
   0.0776550000000000    0.2146650000000000    0.7528699999999999 C
   0.4693550000000000    0.0026200000000000    0.5180550000000000 C
   0.0293600000000000    0.2273950000000000    0.7380599999999999 C
   0.1314000000000000    0.1709400000000000    0.7306049999999999 C
   0.3621200000000000    0.0533650000000000    0.5529300000000000 C
   0.4185600000000000    0.0500250000000000    0.5178500000000000 C
   0.4588400000000000    0.4602750000000000    0.5544850000000000 C
   0.1146950000000000    0.4964600000000000    0.7541500000000000 C
   0.4009350000000000    0.4670200000000000    0.5883700000000001 C
   0.0293950000000000    0.0019300000000000    0.7402100000000000 C
   0.0607000000000000    0.4905800000000000    0.7733500000000000 C
   0.0399700000000000    0.1949350000000000    0.6990450000000000 C
   0.0952050000000000    0.1522750000000000    0.6784100000000000 C
   0.1114800000000000    0.0214350000000000    0.6710500000000000 C
   0.0572450000000000    0.0167500000000000    0.6873199999999999 C
   0.4223150000000000    0.2852250000000000    0.7472650000000001 C
   0.0306650000000000    0.4973550000000000    0.9819599999999999 C
   0.4706850000000000    0.2726400000000000    0.7619199999999999 C
   0.3685750000000000    0.3289650000000000    0.7695100000000000 C
   0.1379000000000000    0.4466050000000000    0.9470799999999999 C
   0.0814650000000000    0.4499450000000000    0.9821299999999999 C
   0.0411800000000000    0.0397050000000000    0.9455000000000000 C
   0.3854100000000000    0.0033550000000000    0.7457500000000000 C
   0.0990900000000000    0.0329550000000000    0.9116450000000000 C
   0.4705950000000000    0.4981050000000000    0.7597550000000000 C
   0.4394150000000000    0.0092200000000000    0.7265550000000001 C
   0.4601550000000000    0.3052500000000000    0.8007750000000000 C
   0.4049050000000000    0.3478900000000000    0.8214000000000000 C
   0.3884050000000000    0.4787950000000000    0.8289250000000000 C
   0.4426200000000000    0.4835150000000000    0.8126949999999999 C
   0.5776550000000000    0.2146650000000000    0.7528699999999999 C
   0.9693550000000000    0.0026200000000000    0.5180550000000000 C
   0.5293600000000001    0.2273950000000000    0.7380599999999999 C
   0.6314000000000000    0.1709400000000000    0.7306049999999999 C
   0.8621200000000000    0.0533650000000000    0.5529300000000000 C
   0.9185600000000000    0.0500250000000000    0.5178500000000000 C
   0.9588400000000000    0.4602750000000000    0.5544850000000000 C
   0.6146950000000000    0.4964600000000000    0.7541500000000000 C
   0.9009350000000000    0.4670200000000000    0.5883700000000001 C
   0.5293949999999999    0.0019300000000000    0.7402100000000000 C
   0.5607000000000000    0.4905800000000000    0.7733500000000000 C
   0.5399700000000000    0.1949350000000000    0.6990450000000000 C
   0.5952050000000000    0.1522750000000000    0.6784100000000000 C
   0.6114800000000000    0.0214350000000000    0.6710500000000000 C
   0.5572450000000000    0.0167500000000000    0.6873199999999999 C
   0.9223150000000000    0.2852250000000000    0.7472650000000001 C
   0.5306650000000001    0.4973550000000000    0.9819599999999999 C
   0.9706850000000000    0.2726400000000000    0.7619199999999999 C
   0.8685750000000000    0.3289650000000000    0.7695100000000000 C
   0.6379000000000000    0.4466050000000000    0.9470799999999999 C
   0.5814650000000000    0.4499450000000000    0.9821299999999999 C
   0.5411800000000000    0.0397050000000000    0.9455000000000000 C
   0.8854100000000000    0.0033550000000000    0.7457500000000000 C
   0.5990900000000000    0.0329550000000000    0.9116450000000000 C
   0.9705950000000000    0.4981050000000000    0.7597550000000000 C
   0.9394150000000000    0.0092200000000000    0.7265550000000001 C
   0.9601550000000000    0.3052500000000000    0.8007750000000000 C
   0.9049050000000001    0.3478900000000000    0.8214000000000000 C
   0.8884050000000000    0.4787950000000000    0.8289250000000000 C
   0.9426200000000000    0.4835150000000000    0.8126949999999999 C
   0.0776550000000000    0.7146650000000000    0.7528699999999999 C
   0.4693550000000000    0.5026200000000000    0.5180550000000000 C
   0.0293600000000000    0.7273950000000000    0.7380599999999999 C
   0.1314000000000000    0.6709400000000000    0.7306049999999999 C
   0.3621200000000000    0.5533650000000000    0.5529300000000000 C
   0.4185600000000000    0.5500250000000000    0.5178500000000000 C
   0.4588400000000000    0.9602750000000000    0.5544850000000000 C
   0.1146950000000000    0.9964600000000000    0.7541500000000000 C
   0.4009350000000000    0.9670200000000000    0.5883700000000001 C
   0.0293950000000000    0.5019300000000000    0.7402100000000000 C
   0.0607000000000000    0.9905800000000000    0.7733500000000000 C
   0.0399700000000000    0.6949350000000000    0.6990450000000000 C
   0.0952050000000000    0.6522749999999999    0.6784100000000000 C
   0.1114800000000000    0.5214350000000000    0.6710500000000000 C
   0.0572450000000000    0.5167500000000000    0.6873199999999999 C
   0.4223150000000000    0.7852250000000001    0.7472650000000001 C
   0.0306650000000000    0.9973550000000000    0.9819599999999999 C
   0.4706850000000000    0.7726400000000000    0.7619199999999999 C
   0.3685750000000000    0.8289650000000000    0.7695100000000000 C
   0.1379000000000000    0.9466049999999999    0.9470799999999999 C
   0.0814650000000000    0.9499450000000000    0.9821299999999999 C
   0.0411800000000000    0.5397050000000000    0.9455000000000000 C
   0.3854100000000000    0.5033550000000000    0.7457500000000000 C
   0.0990900000000000    0.5329550000000000    0.9116450000000000 C
   0.4705950000000000    0.9981050000000000    0.7597550000000000 C
   0.4394150000000000    0.5092200000000000    0.7265550000000001 C
   0.4601550000000000    0.8052500000000000    0.8007750000000000 C
   0.4049050000000000    0.8478900000000000    0.8214000000000000 C
   0.3884050000000000    0.9787950000000001    0.8289250000000000 C
   0.4426200000000000    0.9835149999999999    0.8126949999999999 C
   0.5776550000000000    0.7146650000000000    0.7528699999999999 C
   0.9693550000000000    0.5026200000000000    0.5180550000000000 C
   0.5293600000000001    0.7273950000000000    0.7380599999999999 C
   0.6314000000000000    0.6709400000000000    0.7306049999999999 C
   0.8621200000000000    0.5533650000000000    0.5529300000000000 C
   0.9185600000000000    0.5500250000000000    0.5178500000000000 C
   0.9588400000000000    0.9602750000000000    0.5544850000000000 C
   0.6146950000000000    0.9964600000000000    0.7541500000000000 C
   0.9009350000000000    0.9670200000000000    0.5883700000000001 C
   0.5293949999999999    0.5019300000000000    0.7402100000000000 C
   0.5607000000000000    0.9905800000000000    0.7733500000000000 C
   0.5399700000000000    0.6949350000000000    0.6990450000000000 C
   0.5952050000000000    0.6522749999999999    0.6784100000000000 C
   0.6114800000000000    0.5214350000000000    0.6710500000000000 C
   0.5572450000000000    0.5167500000000000    0.6873199999999999 C
   0.9223150000000000    0.7852250000000001    0.7472650000000001 C
   0.5306650000000001    0.9973550000000000    0.9819599999999999 C
   0.9706850000000000    0.7726400000000000    0.7619199999999999 C
   0.8685750000000000    0.8289650000000000    0.7695100000000000 C
   0.6379000000000000    0.9466049999999999    0.9470799999999999 C
   0.5814650000000000    0.9499450000000000    0.9821299999999999 C
   0.5411800000000000    0.5397050000000000    0.9455000000000000 C
   0.8854100000000000    0.5033550000000000    0.7457500000000000 C
   0.5990900000000000    0.5329550000000000    0.9116450000000000 C
   0.9705950000000000    0.9981050000000000    0.7597550000000000 C
   0.9394150000000000    0.5092200000000000    0.7265550000000001 C
   0.9601550000000000    0.8052500000000000    0.8007750000000000 C
   0.9049050000000001    0.8478900000000000    0.8214000000000000 C
   0.8884050000000000    0.9787950000000001    0.8289250000000000 C
   0.9426200000000000    0.9835149999999999    0.8126949999999999 C
   0.3525000000000000    0.0129700000000000    0.0885150000000000 N
   0.1405850000000000    0.1390500000000000    0.1942250000000000 N
   0.1399350000000000    0.0129050000000000    0.2039250000000000 N
   0.1475250000000000    0.4870050000000000    0.4114950000000000 N
   0.3594550000000000    0.3609750000000000    0.3057500000000000 N
   0.8525000000000000    0.0129700000000000    0.0885150000000000 N
   0.6405850000000000    0.1390500000000000    0.1942250000000000 N