H15 C11 N2 O2
1.0
  20.9749997955407892    0.0000000000000000   -0.0029286624753263
  -0.0037860588648345   31.2556152058915977  -18.0876490392476477
   0.0000000000000000    0.0000000000000000   36.1159999999999997
H C N O
15 11 2 2
direct
   0.6599200000000000    0.9643999999999999    0.7239200000000000 H
   0.5569700000000000    0.8528500000000000    0.6044600000000000 H
   0.7409900000000000    0.8325899999999999    0.5568350000000000 H
   0.7728200000000000    0.9077999999999999    0.6089850000000000 H
   0.5802200000000000    0.9284300000000000    0.6586150000000000 H
   0.7419900000000000    0.9793950000000000    0.6664099999999999 H
   0.6594200000000000    0.9918850000000000    0.6769650000000000 H
   0.7748100000000000    0.9250800000000000    0.6871900000000000 H
   0.7801000000000000    0.9021350000000000    0.7385950000000000 H
   0.6714100000000000    0.9645000000000000    0.7886350000000000 H
   0.7511800000000000    0.9683200000000001    0.8054350000000000 H
   0.7041400000000000    0.9243850000000000    0.7981500000000000 H
   0.6806400000000000    0.8626100000000000    0.7228749999999999 H
   0.7047000000000000    0.8655750000000000    0.6773850000000000 H
   0.6411200000000000    0.8981399999999999    0.7098050000000000 H
   0.6042400000000000    0.8663400000000000    0.6069950000000000 C
   0.7072900000000000    0.8551200000000000    0.5800950000000000 C
   0.7243600000000000    0.8970450000000000    0.6093200000000000 C
   0.6794900000000000    0.9245350000000000    0.6390750000000001 C
   0.6179700000000000    0.9085500000000000    0.6369850000000000 C
   0.6967800000000000    0.9691400000000000    0.6738200000000000 C
   0.8137600000000000    0.9756650000000000    0.7436950000000000 C
   0.7564200000000000    0.9469700000000000    0.7195900000000000 C
   0.7363100000000000    0.9189100000000000    0.7386850000000000 C
   0.7143200000000000    0.9455400000000000    0.7851950000000000 C
   0.6877799999999999    0.8846200000000000    0.7105500000000000 C
   0.6484000000000000    0.8395500000000000    0.5790550000000000 N
   0.7033300000000000    0.9726399999999999    0.7165800000000000 N
   0.8114100000000000    0.0156200000000000    0.7563900000000000 O
   0.8607399999999999    0.9565800000000000    0.7486300000000000 O
