H4 C8 O4
1.0
  39.2489153460743765    0.0000000000000000    0.0815178304886134
  -0.0513864591967227   36.5395368432946199    0.1766542083459611
   0.0000000000000000    0.0000000000000000   36.6139999999999972
H C O
4 8 4
direct
   0.6163966666666667    0.2061700000000000    0.6176250000000000 H
   0.5665733333333334    0.1055000000000000    0.6483500000000000 H
   0.5256633333333334    0.1402150000000000    0.6864000000000000 H
   0.5308866666666666    0.2085200000000000    0.6909100000000000 H
   0.5736033333333332    0.2114250000000000    0.6542300000000000 C
   0.5965433333333333    0.1917450000000000    0.6326950000000000 C
   0.5946499999999999    0.1535600000000000    0.6310249999999999 C
   0.5688466666666666    0.1351150000000000    0.6503600000000000 C
   0.5457099999999999    0.1547250000000000    0.6716200000000000 C
   0.5482466666666667    0.1927150000000000    0.6739350000000000 C
   0.5767300000000000    0.2520900000000000    0.6567750000000000 C
   0.6206266666666667    0.1331750000000000    0.6092100000000000 C
   0.5985233333333333    0.2684600000000000    0.6360600000000000 O
   0.5583899999999999    0.2692300000000000    0.6795300000000000 O
   0.6385833333333333    0.1500900000000000    0.5859650000000000 O
   0.6239133333333333    0.0985200000000000    0.6157250000000000 O
