H6 O4
1.0
  39.2489153460743765    0.0000000000000000    0.0815178304886134
  -0.0513864591967227   36.5395368432946199    0.1766542083459611
   0.0000000000000000    0.0000000000000000   36.6139999999999972
H O
6 4
direct
   0.5405810347066332    0.2594996504804121    0.6952253663501212 H
   0.6131616839745631    0.2590126300343076    0.6169335308514203 H
   0.5774356335692964    0.2569382363327623    0.6546449749171673 H
   0.6144642706941627    0.1531772647464917    0.5811384781249133 H
   0.5993607742618217    0.0957916652515640    0.6144032549360929 H
   0.4150677311911332    0.1252524511984272    0.5739324194866123 H
   0.5583899999999999    0.2692300000000000    0.6795300000000000 O
   0.5985233333333333    0.2684600000000000    0.6360600000000000 O
   0.6385833333333333    0.1500900000000000    0.5859650000000000 O
   0.6239133333333333    0.0985200000000000    0.6157250000000000 O
