Ba96 Cd48 H380 C760 N96 O668
1.0
  39.2489153460743765    0.0000000000000000    0.0815178304886134
  -0.0513864591967227   36.5395368432946199    0.1766542083459611
   0.0000000000000000    0.0000000000000000   36.6139999999999972
Ba Cd H C N O
96 48 380 760 96 668
direct
   0.2209600000000000    0.4234600000000000    0.1954500000000000 Ba
   0.1386433333333333    0.4464500000000000    0.3255450000000000 Ba
   0.3050366666666666    0.0535400000000000    0.1743900000000000 Ba
   0.0297166666666667    0.1740500000000000    0.0542850000000000 Ba
   0.1956700000000000    0.3264550000000000    0.4463500000000000 Ba
   0.2791133333333333    0.3039800000000000    0.0757300000000000 Ba
   0.1133300000000000    0.1957050000000000    0.4238500000000000 Ba
   0.0549933333333333    0.0763450000000000    0.3039400000000000 Ba
   0.5542933333333333    0.4234600000000000    0.1954500000000000 Ba
   0.4719766666666667    0.4464500000000000    0.3255450000000000 Ba
   0.6383699999999999    0.0535400000000000    0.1743900000000000 Ba
   0.3630500000000000    0.1740500000000000    0.0542850000000000 Ba
   0.5290033333333333    0.3264550000000000    0.4463500000000000 Ba
   0.6124466666666666    0.3039800000000000    0.0757300000000000 Ba
   0.4466633333333333    0.1957050000000000    0.4238500000000000 Ba
   0.3883266666666667    0.0763450000000000    0.3039400000000000 Ba
   0.8876266666666666    0.4234600000000000    0.1954500000000000 Ba
   0.8053100000000000    0.4464500000000000    0.3255450000000000 Ba
   0.9717033333333333    0.0535400000000000    0.1743900000000000 Ba
   0.6963833333333332    0.1740500000000000    0.0542850000000000 Ba
   0.8623366666666666    0.3264550000000000    0.4463500000000000 Ba
   0.9457800000000000    0.3039800000000000    0.0757300000000000 Ba
   0.7799966666666667    0.1957050000000000    0.4238500000000000 Ba
   0.7216600000000000    0.0763450000000000    0.3039400000000000 Ba
   0.2209600000000000    0.9234599999999999    0.1954500000000000 Ba
   0.1386433333333333    0.9464500000000000    0.3255450000000000 Ba
   0.3050366666666666    0.5535400000000000    0.1743900000000000 Ba
   0.0297166666666667    0.6740500000000000    0.0542850000000000 Ba
   0.1956700000000000    0.8264549999999999    0.4463500000000000 Ba
   0.2791133333333333    0.8039799999999999    0.0757300000000000 Ba
   0.1133300000000000    0.6957050000000000    0.4238500000000000 Ba
   0.0549933333333333    0.5763450000000000    0.3039400000000000 Ba
   0.5542933333333333    0.9234599999999999    0.1954500000000000 Ba
   0.4719766666666667    0.9464500000000000    0.3255450000000000 Ba
   0.6383699999999999    0.5535400000000000    0.1743900000000000 Ba
   0.3630500000000000    0.6740500000000000    0.0542850000000000 Ba
   0.5290033333333333    0.8264549999999999    0.4463500000000000 Ba
   0.6124466666666666    0.8039799999999999    0.0757300000000000 Ba
   0.4466633333333333    0.6957050000000000    0.4238500000000000 Ba
   0.3883266666666667    0.5763450000000000    0.3039400000000000 Ba
   0.8876266666666666    0.9234599999999999    0.1954500000000000 Ba
   0.8053100000000000    0.9464500000000000    0.3255450000000000 Ba
   0.9717033333333333    0.5535400000000000    0.1743900000000000 Ba
   0.6963833333333332    0.6740500000000000    0.0542850000000000 Ba
   0.8623366666666666    0.8264549999999999    0.4463500000000000 Ba
   0.9457800000000000    0.8039799999999999    0.0757300000000000 Ba
   0.7799966666666667    0.6957050000000000    0.4238500000000000 Ba
   0.7216600000000000    0.5763450000000000    0.3039400000000000 Ba
   0.2209600000000000    0.4234600000000000    0.6954500000000000 Ba
   0.1386433333333333    0.4464500000000000    0.8255450000000000 Ba
   0.3050366666666666    0.0535400000000000    0.6743900000000000 Ba
   0.0297166666666667    0.1740500000000000    0.5542850000000000 Ba
   0.1956700000000000    0.3264550000000000    0.9463500000000000 Ba
   0.2791133333333333    0.3039800000000000    0.5757300000000000 Ba
   0.1133300000000000    0.1957050000000000    0.9238500000000001 Ba
   0.0549933333333333    0.0763450000000000    0.8039400000000000 Ba
   0.5542933333333333    0.4234600000000000    0.6954500000000000 Ba
   0.4719766666666667    0.4464500000000000    0.8255450000000000 Ba
   0.6383699999999999    0.0535400000000000    0.6743900000000000 Ba
   0.3630500000000000    0.1740500000000000    0.5542850000000000 Ba
   0.5290033333333333    0.3264550000000000    0.9463500000000000 Ba
   0.6124466666666666    0.3039800000000000    0.5757300000000000 Ba
   0.4466633333333333    0.1957050000000000    0.9238500000000001 Ba
   0.3883266666666667    0.0763450000000000    0.8039400000000000 Ba
   0.8876266666666666    0.4234600000000000    0.6954500000000000 Ba
   0.8053100000000000    0.4464500000000000    0.8255450000000000 Ba
   0.9717033333333333    0.0535400000000000    0.6743900000000000 Ba
   0.6963833333333332    0.1740500000000000    0.5542850000000000 Ba
   0.8623366666666666    0.3264550000000000    0.9463500000000000 Ba
   0.9457800000000000    0.3039800000000000    0.5757300000000000 Ba
   0.7799966666666667    0.1957050000000000    0.9238500000000001 Ba
   0.7216600000000000    0.0763450000000000    0.8039400000000000 Ba
   0.2209600000000000    0.9234599999999999    0.6954500000000000 Ba
   0.1386433333333333    0.9464500000000000    0.8255450000000000 Ba
   0.3050366666666666    0.5535400000000000    0.6743900000000000 Ba
   0.0297166666666667    0.6740500000000000    0.5542850000000000 Ba
   0.1956700000000000    0.8264549999999999    0.9463500000000000 Ba
   0.2791133333333333    0.8039799999999999    0.5757300000000000 Ba
   0.1133300000000000    0.6957050000000000    0.9238500000000001 Ba
   0.0549933333333333    0.5763450000000000    0.8039400000000000 Ba
   0.5542933333333333    0.9234599999999999    0.6954500000000000 Ba
   0.4719766666666667    0.9464500000000000    0.8255450000000000 Ba
   0.6383699999999999    0.5535400000000000    0.6743900000000000 Ba
   0.3630500000000000    0.6740500000000000    0.5542850000000000 Ba
   0.5290033333333333    0.8264549999999999    0.9463500000000000 Ba
   0.6124466666666666    0.8039799999999999    0.5757300000000000 Ba
   0.4466633333333333    0.6957050000000000    0.9238500000000001 Ba
   0.3883266666666667    0.5763450000000000    0.8039400000000000 Ba
   0.8876266666666666    0.9234599999999999    0.6954500000000000 Ba
   0.8053100000000000    0.9464500000000000    0.8255450000000000 Ba
   0.9717033333333333    0.5535400000000000    0.6743900000000000 Ba
   0.6963833333333332    0.6740500000000000    0.5542850000000000 Ba
   0.8623366666666666    0.8264549999999999    0.9463500000000000 Ba
   0.9457800000000000    0.8039799999999999    0.5757300000000000 Ba
   0.7799966666666667    0.6957050000000000    0.9238500000000001 Ba
   0.7216600000000000    0.5763450000000000    0.8039400000000000 Ba
   0.0841333333333333    0.1737600000000000    0.3264700000000000 Cd
   0.2500566666666666    0.3263750000000000    0.1730150000000000 Cd
   0.1670400000000000    0.4236100000000000    0.4230250000000000 Cd
   0.0002500000000000    0.0770400000000000    0.0769600000000000 Cd
   0.4174666666666667    0.1737600000000000    0.3264700000000000 Cd
   0.5833900000000000    0.3263750000000000    0.1730150000000000 Cd
   0.5003733333333333    0.4236100000000000    0.4230250000000000 Cd
   0.3335833333333333    0.0770400000000000    0.0769600000000000 Cd
   0.7507999999999999    0.1737600000000000    0.3264700000000000 Cd
   0.9167233333333333    0.3263750000000000    0.1730150000000000 Cd
   0.8337066666666666    0.4236100000000000    0.4230250000000000 Cd
   0.6669166666666666    0.0770400000000000    0.0769600000000000 Cd
   0.0841333333333333    0.6737600000000000    0.3264700000000000 Cd
   0.2500566666666666    0.8263750000000001    0.1730150000000000 Cd
   0.1670400000000000    0.9236100000000000    0.4230250000000000 Cd
   0.0002500000000000    0.5770400000000000    0.0769600000000000 Cd
   0.4174666666666667    0.6737600000000000    0.3264700000000000 Cd
   0.5833900000000000    0.8263750000000001    0.1730150000000000 Cd
   0.5003733333333333    0.9236100000000000    0.4230250000000000 Cd
   0.3335833333333333    0.5770400000000000    0.0769600000000000 Cd
   0.7507999999999999    0.6737600000000000    0.3264700000000000 Cd
   0.9167233333333333    0.8263750000000001    0.1730150000000000 Cd
   0.8337066666666666    0.9236100000000000    0.4230250000000000 Cd
   0.6669166666666666    0.5770400000000000    0.0769600000000000 Cd
   0.0841333333333333    0.1737600000000000    0.8264700000000000 Cd
   0.2500566666666666    0.3263750000000000    0.6730150000000000 Cd
   0.1670400000000000    0.4236100000000000    0.9230250000000000 Cd
   0.0002500000000000    0.0770400000000000    0.5769600000000000 Cd
   0.4174666666666667    0.1737600000000000    0.8264700000000000 Cd
   0.5833900000000000    0.3263750000000000    0.6730150000000000 Cd
   0.5003733333333333    0.4236100000000000    0.9230250000000000 Cd
   0.3335833333333333    0.0770400000000000    0.5769600000000000 Cd
   0.7507999999999999    0.1737600000000000    0.8264700000000000 Cd
   0.9167233333333333    0.3263750000000000    0.6730150000000000 Cd
   0.8337066666666666    0.4236100000000000    0.9230250000000000 Cd
   0.6669166666666666    0.0770400000000000    0.5769600000000000 Cd
   0.0841333333333333    0.6737600000000000    0.8264700000000000 Cd
   0.2500566666666666    0.8263750000000001    0.6730150000000000 Cd
   0.1670400000000000    0.9236100000000000    0.9230250000000000 Cd
   0.0002500000000000    0.5770400000000000    0.5769600000000000 Cd
   0.4174666666666667    0.6737600000000000    0.8264700000000000 Cd
   0.5833900000000000    0.8263750000000001    0.6730150000000000 Cd
   0.5003733333333333    0.9236100000000000    0.9230250000000000 Cd
   0.3335833333333333    0.5770400000000000    0.5769600000000000 Cd
   0.7507999999999999    0.6737600000000000    0.8264700000000000 Cd
   0.9167233333333333    0.8263750000000001    0.6730150000000000 Cd
   0.8337066666666666    0.9236100000000000    0.9230250000000000 Cd
   0.6669166666666666    0.5770400000000000    0.5769600000000000 Cd
   0.0510933333333333    0.1181500000000000    0.2067550000000000 H
   0.1008066666666667    0.1485050000000000    0.1060850000000000 H
   0.1416200000000000    0.1868500000000000    0.1404950000000000 H
   0.1365433333333333    0.1915900000000000    0.2086600000000000 H
   0.2171233333333333    0.3816450000000000    0.2930650000000000 H
   0.2669600000000000    0.3512900000000000    0.3934050000000000 H
   0.3077166666666666    0.3131050000000000    0.3586850000000000 H
   0.3025966666666666    0.3085050000000000    0.2905350000000000 H
   0.1349266666666666    0.0439400000000000    0.3670450000000000 H
   0.1846800000000000    0.1444450000000000    0.3972250000000000 H
   0.2254333333333333    0.1095250000000000    0.4354250000000000 H
   0.2202333333333333    0.0411900000000000    0.4402250000000000 H
   0.3008033333333333    0.4562200000000000    0.1322500000000000 H
   0.0172900000000000    0.3559950000000000    0.1015650000000000 H
   0.0581333333333333    0.3911950000000000    0.0634550000000000 H
   0.0529400000000000    0.4595300000000000    0.0589350000000000 H
   0.0337300000000000    0.1325450000000000    0.4562950000000000 H
   0.3172666666666666    0.1017200000000000    0.3563100000000000 H
   0.2761400000000000    0.0640000000000000    0.3915350000000000 H
   0.2810733333333333    0.0598750000000000    0.4597800000000000 H
   0.1996366666666667    0.3683600000000000    0.0400000000000000 H
   0.1500066666666666    0.3982150000000000    0.1435200000000000 H
   0.1090366666666667    0.4364000000000000    0.1089050000000000 H
   0.1139366666666667    0.4412250000000000    0.0406750000000000 H
   0.2830633333333333    0.2061700000000000    0.1176250000000000 H
   0.2332400000000000    0.1055000000000000    0.1483500000000000 H
   0.1923300000000000    0.1402150000000000    0.1864000000000000 H
   0.1975533333333333    0.2085200000000000    0.1909100000000000 H
   0.1164733333333333    0.2941700000000000    0.3825850000000000 H
   0.0663133333333333    0.3945000000000000    0.3521250000000000 H
   0.0253900000000000    0.3594450000000000    0.3144750000000000 H
   0.0308500000000000    0.2911900000000000    0.3098900000000000 H
   0.3844266666666666    0.1181500000000000    0.2067550000000000 H
   0.4341400000000000    0.1485050000000000    0.1060850000000000 H
   0.4749533333333333    0.1868500000000000    0.1404950000000000 H
   0.4698766666666666    0.1915900000000000    0.2086600000000000 H
   0.5504566666666666    0.3816450000000000    0.2930650000000000 H
   0.6002933333333333    0.3512900000000000    0.3934050000000000 H
   0.6410499999999999    0.3131050000000000    0.3586850000000000 H
   0.6359299999999999    0.3085050000000000    0.2905350000000000 H
   0.4682600000000000    0.0439400000000000    0.3670450000000000 H
   0.5180133333333333    0.1444450000000000    0.3972250000000000 H
   0.5587666666666666    0.1095250000000000    0.4354250000000000 H
   0.5535666666666667    0.0411900000000000    0.4402250000000000 H
   0.6341366666666666    0.4562200000000000    0.1322500000000000 H
   0.3506233333333333    0.3559950000000000    0.1015650000000000 H
   0.3914666666666666    0.3911950000000000    0.0634550000000000 H
   0.3862733333333333    0.4595300000000000    0.0589350000000000 H
   0.3670633333333333    0.1325450000000000    0.4562950000000000 H
   0.6506000000000000    0.1017200000000000    0.3563100000000000 H
   0.6094733333333333    0.0640000000000000    0.3915350000000000 H
   0.6144066666666665    0.0598750000000000    0.4597800000000000 H
   0.5329699999999999    0.3683600000000000    0.0400000000000000 H
   0.4833400000000000    0.3982150000000000    0.1435200000000000 H
   0.4423700000000000    0.4364000000000000    0.1089050000000000 H
   0.4472699999999999    0.4412250000000000    0.0406750000000000 H
   0.6163966666666667    0.2061700000000000    0.1176250000000000 H
   0.5665733333333334    0.1055000000000000    0.1483500000000000 H
   0.5256633333333334    0.1402150000000000    0.1864000000000000 H
   0.5308866666666666    0.2085200000000000    0.1909100000000000 H
   0.4498066666666666    0.2941700000000000    0.3825850000000000 H
   0.3996466666666667    0.3945000000000000    0.3521250000000000 H
   0.3587233333333333    0.3594450000000000    0.3144750000000000 H
   0.3641833333333333    0.2911900000000000    0.3098900000000000 H
   0.7177600000000000    0.1181500000000000    0.2067550000000000 H
   0.7674733333333333    0.1485050000000000    0.1060850000000000 H
   0.8082866666666666    0.1868500000000000    0.1404950000000000 H
   0.8032100000000000    0.1915900000000000    0.2086600000000000 H
   0.8837900000000000    0.3816450000000000    0.2930650000000000 H
   0.9336266666666666    0.3512900000000000    0.3934050000000000 H
   0.9743833333333333    0.3131050000000000    0.3586850000000000 H
   0.9692633333333333    0.3085050000000000    0.2905350000000000 H
   0.8015933333333333    0.0439400000000000    0.3670450000000000 H
   0.8513466666666666    0.1444450000000000    0.3972250000000000 H
   0.8920999999999999    0.1095250000000000    0.4354250000000000 H
   0.8868999999999999    0.0411900000000000    0.4402250000000000 H
   0.9674699999999999    0.4562200000000000    0.1322500000000000 H
   0.6839566666666667    0.3559950000000000    0.1015650000000000 H
   0.7248000000000000    0.3911950000000000    0.0634550000000000 H
   0.7196066666666666    0.4595300000000000    0.0589350000000000 H
   0.7003966666666667    0.1325450000000000    0.4562950000000000 H
   0.9839333333333333    0.1017200000000000    0.3563100000000000 H
   0.9428066666666666    0.0640000000000000    0.3915350000000000 H
   0.9477399999999999    0.0598750000000000    0.4597800000000000 H
   0.8663033333333333    0.3683600000000000    0.0400000000000000 H
   0.8166733333333333    0.3982150000000000    0.1435200000000000 H
   0.7757033333333333    0.4364000000000000    0.1089050000000000 H
   0.7806033333333333    0.4412250000000000    0.0406750000000000 H
   0.9497300000000000    0.2061700000000000    0.1176250000000000 H
   0.8999066666666666    0.1055000000000000    0.1483500000000000 H
   0.8589966666666666    0.1402150000000000    0.1864000000000000 H
   0.8642200000000000    0.2085200000000000    0.1909100000000000 H
   0.7831399999999999    0.2941700000000000    0.3825850000000000 H
   0.7329800000000000    0.3945000000000000    0.3521250000000000 H
   0.6920566666666667    0.3594450000000000    0.3144750000000000 H
   0.6975166666666667    0.2911900000000000    0.3098900000000000 H
   0.0510933333333333    0.6181500000000000    0.2067550000000000 H
   0.1008066666666667    0.6485050000000000    0.1060850000000000 H
   0.1416200000000000    0.6868500000000000    0.1404950000000000 H
   0.1365433333333333    0.6915900000000000    0.2086600000000000 H
   0.2171233333333333    0.8816450000000000    0.2930650000000000 H
   0.2669600000000000    0.8512900000000000    0.3934050000000000 H
   0.3077166666666666    0.8131050000000000    0.3586850000000000 H
   0.3025966666666666    0.8085050000000000    0.2905350000000000 H
   0.1349266666666666    0.5439400000000000    0.3670450000000000 H
   0.1846800000000000    0.6444449999999999    0.3972250000000000 H
   0.2254333333333333    0.6095250000000000    0.4354250000000000 H
   0.2202333333333333    0.5411899999999999    0.4402250000000000 H
   0.3008033333333333    0.9562200000000001    0.1322500000000000 H
   0.0172900000000000    0.8559950000000001    0.1015650000000000 H
   0.0581333333333333    0.8911950000000000    0.0634550000000000 H
   0.0529400000000000    0.9595300000000000    0.0589350000000000 H
   0.0337300000000000    0.6325450000000000    0.4562950000000000 H
   0.3172666666666666    0.6017200000000000    0.3563100000000000 H
   0.2761400000000000    0.5640000000000001    0.3915350000000000 H
   0.2810733333333333    0.5598750000000000    0.4597800000000000 H
   0.1996366666666667    0.8683600000000000    0.0400000000000000 H
   0.1500066666666666    0.8982150000000000    0.1435200000000000 H
   0.1090366666666667    0.9364000000000000    0.1089050000000000 H
   0.1139366666666667    0.9412250000000000    0.0406750000000000 H
   0.2830633333333333    0.7061700000000000    0.1176250000000000 H
   0.2332400000000000    0.6055000000000000    0.1483500000000000 H
   0.1923300000000000    0.6402150000000000    0.1864000000000000 H
   0.1975533333333333    0.7085200000000000    0.1909100000000000 H
   0.1164733333333333    0.7941700000000000    0.3825850000000000 H
   0.0663133333333333    0.8945000000000001    0.3521250000000000 H
   0.0253900000000000    0.8594450000000000    0.3144750000000000 H
   0.0308500000000000    0.7911900000000001    0.3098900000000000 H
   0.3844266666666666    0.6181500000000000    0.2067550000000000 H
   0.4341400000000000    0.6485050000000000    0.1060850000000000 H
   0.4749533333333333    0.6868500000000000    0.1404950000000000 H
   0.4698766666666666    0.6915900000000000    0.2086600000000000 H
   0.5504566666666666    0.8816450000000000    0.2930650000000000 H
   0.6002933333333333    0.8512900000000000    0.3934050000000000 H
   0.6410499999999999    0.8131050000000000    0.3586850000000000 H
   0.6359299999999999    0.8085050000000000    0.2905350000000000 H
   0.4682600000000000    0.5439400000000000    0.3670450000000000 H
   0.5180133333333333    0.6444449999999999    0.3972250000000000 H
   0.5587666666666666    0.6095250000000000    0.4354250000000000 H
   0.5535666666666667    0.5411899999999999    0.4402250000000000 H
   0.6341366666666666    0.9562200000000001    0.1322500000000000 H
   0.3506233333333333    0.8559950000000001    0.1015650000000000 H
   0.3914666666666666    0.8911950000000000    0.0634550000000000 H
   0.3862733333333333    0.9595300000000000    0.0589350000000000 H
   0.3670633333333333    0.6325450000000000    0.4562950000000000 H
   0.6506000000000000    0.6017200000000000    0.3563100000000000 H
   0.6094733333333333    0.5640000000000001    0.3915350000000000 H
   0.6144066666666665    0.5598750000000000    0.4597800000000000 H
   0.5329699999999999    0.8683600000000000    0.0400000000000000 H
   0.4833400000000000    0.8982150000000000    0.1435200000000000 H
   0.4423700000000000    0.9364000000000000    0.1089050000000000 H
   0.4472699999999999    0.9412250000000000    0.0406750000000000 H
   0.6163966666666667    0.7061700000000000    0.1176250000000000 H
   0.5665733333333334    0.6055000000000000    0.1483500000000000 H
   0.5256633333333334    0.6402150000000000    0.1864000000000000 H
   0.5308866666666666    0.7085200000000000    0.1909100000000000 H
   0.4498066666666666    0.7941700000000000    0.3825850000000000 H
   0.3996466666666667    0.8945000000000001    0.3521250000000000 H
   0.3587233333333333    0.8594450000000000    0.3144750000000000 H
   0.3641833333333333    0.7911900000000001    0.3098900000000000 H
   0.7177600000000000    0.6181500000000000    0.2067550000000000 H
   0.7674733333333333    0.6485050000000000    0.1060850000000000 H
   0.8082866666666666    0.6868500000000000    0.1404950000000000 H
   0.8032100000000000    0.6915900000000000    0.2086600000000000 H
   0.8837900000000000    0.8816450000000000    0.2930650000000000 H
   0.9336266666666666    0.8512900000000000    0.3934050000000000 H
   0.9743833333333333    0.8131050000000000    0.3586850000000000 H
   0.9692633333333333    0.8085050000000000    0.2905350000000000 H
   0.8015933333333333    0.5439400000000000    0.3670450000000000 H
   0.8513466666666666    0.6444449999999999    0.3972250000000000 H
   0.8920999999999999    0.6095250000000000    0.4354250000000000 H
   0.8868999999999999    0.5411899999999999    0.4402250000000000 H
   0.9674699999999999    0.9562200000000001    0.1322500000000000 H
   0.6839566666666667    0.8559950000000001    0.1015650000000000 H
   0.7248000000000000    0.8911950000000000    0.0634550000000000 H
   0.7196066666666666    0.9595300000000000    0.0589350000000000 H
   0.7003966666666667    0.6325450000000000    0.4562950000000000 H
   0.9839333333333333    0.6017200000000000    0.3563100000000000 H
   0.9428066666666666    0.5640000000000001    0.3915350000000000 H
   0.9477399999999999    0.5598750000000000    0.4597800000000000 H
   0.8663033333333333    0.8683600000000000    0.0400000000000000 H
   0.8166733333333333    0.8982150000000000    0.1435200000000000 H
   0.7757033333333333    0.9364000000000000    0.1089050000000000 H
   0.7806033333333333    0.9412250000000000    0.0406750000000000 H
   0.9497300000000000    0.7061700000000000    0.1176250000000000 H
   0.8999066666666666    0.6055000000000000    0.1483500000000000 H
   0.8589966666666666    0.6402150000000000    0.1864000000000000 H
   0.8642200000000000    0.7085200000000000    0.1909100000000000 H
   0.7831399999999999    0.7941700000000000    0.3825850000000000 H
   0.7329800000000000    0.8945000000000001    0.3521250000000000 H
   0.6920566666666667    0.8594450000000000    0.3144750000000000 H
   0.6975166666666667    0.7911900000000001    0.3098900000000000 H
   0.0510933333333333    0.1181500000000000    0.7067550000000000 H
   0.1008066666666667    0.1485050000000000    0.6060850000000000 H
   0.1416200000000000    0.1868500000000000    0.6404950000000000 H
   0.1365433333333333    0.1915900000000000    0.7086600000000001 H
   0.2171233333333333    0.3816450000000000    0.7930650000000000 H
   0.2669600000000000    0.3512900000000000    0.8934050000000000 H
   0.3077166666666666    0.3131050000000000    0.8586849999999999 H
   0.3025966666666666    0.3085050000000000    0.7905350000000000 H
   0.1349266666666666    0.0439400000000000    0.8670450000000001 H
   0.1846800000000000    0.1444450000000000    0.8972249999999999 H
   0.2254333333333333    0.1095250000000000    0.9354250000000000 H
   0.2202333333333333    0.0411900000000000    0.9402250000000000 H
   0.3008033333333333    0.4562200000000000    0.6322500000000000 H
   0.0172900000000000    0.3559950000000000    0.6015650000000000 H
   0.0581333333333333    0.3911950000000000    0.5634550000000000 H
   0.0529400000000000    0.4595300000000000    0.5589350000000000 H
   0.0337300000000000    0.1325450000000000    0.9562950000000000 H
   0.3172666666666666    0.1017200000000000    0.8563100000000000 H
   0.2761400000000000    0.0640000000000000    0.8915350000000000 H
   0.2810733333333333    0.0598750000000000    0.9597800000000001 H
   0.1996366666666667    0.3683600000000000    0.5400000000000000 H
   0.1500066666666666    0.3982150000000000    0.6435200000000000 H
   0.1090366666666667    0.4364000000000000    0.6089050000000000 H
   0.1139366666666667    0.4412250000000000    0.5406750000000000 H
   0.2830633333333333    0.2061700000000000    0.6176250000000000 H
   0.2332400000000000    0.1055000000000000    0.6483500000000000 H
   0.1923300000000000    0.1402150000000000    0.6864000000000000 H
   0.1975533333333333    0.2085200000000000    0.6909100000000000 H
   0.1164733333333333    0.2941700000000000    0.8825850000000000 H
   0.0663133333333333    0.3945000000000000    0.8521250000000000 H
   0.0253900000000000    0.3594450000000000    0.8144750000000001 H
   0.0308500000000000    0.2911900000000000    0.8098900000000000 H
   0.3844266666666666    0.1181500000000000    0.7067550000000000 H
   0.4341400000000000    0.1485050000000000    0.6060850000000000 H
   0.4749533333333333    0.1868500000000000    0.6404950000000000 H
   0.4698766666666666    0.1915900000000000    0.7086600000000001 H
   0.5504566666666666    0.3816450000000000    0.7930650000000000 H
   0.6002933333333333    0.3512900000000000    0.8934050000000000 H
   0.6410499999999999    0.3131050000000000    0.8586849999999999 H
   0.6359299999999999    0.3085050000000000    0.7905350000000000 H
   0.4682600000000000    0.0439400000000000    0.8670450000000001 H
   0.5180133333333333    0.1444450000000000    0.8972249999999999 H
   0.5587666666666666    0.1095250000000000    0.9354250000000000 H
   0.5535666666666667    0.0411900000000000    0.9402250000000000 H
   0.6341366666666666    0.4562200000000000    0.6322500000000000 H
   0.3506233333333333    0.3559950000000000    0.6015650000000000 H
   0.3914666666666666    0.3911950000000000    0.5634550000000000 H
   0.3862733333333333    0.4595300000000000    0.5589350000000000 H
   0.3670633333333333    0.1325450000000000    0.9562950000000000 H
   0.6506000000000000    0.1017200000000000    0.8563100000000000 H
   0.6094733333333333    0.0640000000000000    0.8915350000000000 H
   0.6144066666666665    0.0598750000000000    0.9597800000000001 H
   0.5329699999999999    0.3683600000000000    0.5400000000000000 H
   0.4833400000000000    0.3982150000000000    0.6435200000000000 H
   0.4423700000000000    0.4364000000000000    0.6089050000000000 H
   0.4472699999999999    0.4412250000000000    0.5406750000000000 H
   0.4498066666666666    0.2941700000000000    0.8825850000000000 H
   0.3996466666666667    0.3945000000000000    0.8521250000000000 H
   0.3587233333333333    0.3594450000000000    0.8144750000000001 H
   0.3641833333333333    0.2911900000000000    0.8098900000000000 H
   0.7177600000000000    0.1181500000000000    0.7067550000000000 H
   0.7674733333333333    0.1485050000000000    0.6060850000000000 H
   0.8082866666666666    0.1868500000000000    0.6404950000000000 H
   0.8032100000000000    0.1915900000000000    0.7086600000000001 H
   0.8837900000000000    0.3816450000000000    0.7930650000000000 H
   0.9336266666666666    0.3512900000000000    0.8934050000000000 H
   0.9743833333333333    0.3131050000000000    0.8586849999999999 H
   0.9692633333333333    0.3085050000000000    0.7905350000000000 H
   0.8015933333333333    0.0439400000000000    0.8670450000000001 H
   0.8513466666666666    0.1444450000000000    0.8972249999999999 H
   0.8920999999999999    0.1095250000000000    0.9354250000000000 H
   0.8868999999999999    0.0411900000000000    0.9402250000000000 H
   0.9674699999999999    0.4562200000000000    0.6322500000000000 H
   0.6839566666666667    0.3559950000000000    0.6015650000000000 H
   0.7248000000000000    0.3911950000000000    0.5634550000000000 H
   0.7196066666666666    0.4595300000000000    0.5589350000000000 H
   0.7003966666666667    0.1325450000000000    0.9562950000000000 H
   0.9839333333333333    0.1017200000000000    0.8563100000000000 H
   0.9428066666666666    0.0640000000000000    0.8915350000000000 H
   0.9477399999999999    0.0598750000000000    0.9597800000000001 H
   0.8663033333333333    0.3683600000000000    0.5400000000000000 H
   0.8166733333333333    0.3982150000000000    0.6435200000000000 H
   0.7757033333333333    0.4364000000000000    0.6089050000000000 H
   0.7806033333333333    0.4412250000000000    0.5406750000000000 H
   0.9497300000000000    0.2061700000000000    0.6176250000000000 H
   0.8999066666666666    0.1055000000000000    0.6483500000000000 H
   0.8589966666666666    0.1402150000000000    0.6864000000000000 H
   0.8642200000000000    0.2085200000000000    0.6909100000000000 H
   0.7831399999999999    0.2941700000000000    0.8825850000000000 H
   0.7329800000000000    0.3945000000000000    0.8521250000000000 H
   0.6920566666666667    0.3594450000000000    0.8144750000000001 H
   0.6975166666666667    0.2911900000000000    0.8098900000000000 H
   0.0510933333333333    0.6181500000000000    0.7067550000000000 H
   0.1008066666666667    0.6485050000000000    0.6060850000000000 H
   0.1416200000000000    0.6868500000000000    0.6404950000000000 H
   0.1365433333333333    0.6915900000000000    0.7086600000000001 H
   0.2171233333333333    0.8816450000000000    0.7930650000000000 H
   0.2669600000000000    0.8512900000000000    0.8934050000000000 H
   0.3077166666666666    0.8131050000000000    0.8586849999999999 H