H4 O2
1.0
  14.0477848962767151    0.0000000000000000   -0.4804950654687301
  -0.7005738146549603   17.6117006678425803   -3.2069332572620004
   0.0000000000000000    0.0000000000000000   17.9170000000000016
H O
4 2
direct
   0.2855177978258558    0.0782068769086706    0.9618386981679183 H
   0.2823077530152124    0.0967023283030883    0.8729221274268427 H
   0.7145774431785080    0.0382738486720301    0.9218984100958488 H
   0.7175632168038732    0.1270972558977741    0.9031342335401293 H
   0.2484600000000000    0.0879700000000000    0.9176000000000000 O
   0.7515200000000000    0.0824700000000000    0.9119900000000000 O
