H12 C18 O4
1.0
  14.0477848962767151    0.0000000000000000   -0.4804950654687301
  -0.7005738146549603   17.6117006678425803   -3.2069332572620004
   0.0000000000000000    0.0000000000000000   17.9170000000000016
H C O
12 18 4
direct
   0.8495400000000000    0.3192900000000000    0.8884100000000000 H
   0.1483100000000000    0.3320500000000000    0.9492300000000000 H
   0.2403100000000000    0.4463300000000000    0.9627400000000000 H
   0.2059000000000000    0.5037700000000001    0.8956900000000000 H
   0.1782900000000000    0.5314800000000000    0.9918100000000000 H
   0.8564800000000000    0.4570600000000000    0.8797900000000000 H
   0.8526700000000000    0.6931700000000000    0.8828700000000000 H
   0.2427200000000000    0.7511700000000000    0.9329600000000000 H
   0.1852900000000000    0.7010300000000000    0.9969300000000000 H
   0.1922000000000000    0.6572100000000000    0.9014600000000000 H
   0.1468800000000000    0.8590700000000000    0.9261000000000000 H
   0.8446000000000000    0.8324500000000000    0.8834000000000000 H
   0.9966300000000000    0.2339700000000000    0.9218800000000000 C
   0.9987100000000000    0.3172200000000000    0.9194600000000001 C
   0.9162100000000000    0.3526500000000000    0.9001000000000000 C
   0.0846700000000000    0.3601900000000000    0.9345100000000000 C
   0.0906800000000000    0.4372700000000000    0.9309400000000000 C
   0.1838900000000000    0.4818200000000000    0.9463600000000000 C
   0.9198900000000000    0.4292500000000000    0.8957300000000000 C
   0.0064300000000000    0.4726800000000000    0.9117400000000000 C
   0.0081300000000000    0.5512400000000000    0.9095800000000001 C
   0.0073900000000000    0.6193900000000000    0.9092200000000000 C
   0.0044700000000000    0.6980100000000000    0.9079500000000000 C
   0.9166000000000000    0.7301600000000000    0.8938000000000000 C
   0.0891800000000000    0.7449700000000000    0.9205400000000000 C
   0.1825000000000000    0.7121700000000000    0.9384000000000000 C
   0.0829600000000000    0.8218900000000000    0.9174000000000000 C
   0.9122900000000000    0.8073900000000001    0.8933900000000000 C
   0.9955500000000000    0.8540400000000000    0.9046999999999999 C
   0.9914400000000000    0.9376200000000000    0.9044400000000000 C
   0.0704300000000000   -0.0257400000000000    0.9029900000000000 O
   0.9091100000000000   -0.0342300000000000    0.9061300000000000 O
   0.9165100000000000    0.1974700000000000    0.9093000000000000 O
   0.0759900000000000    0.2053500000000000    0.9352300000000000 O
