H8 C10 N2
1.0
  14.0477848962767151    0.0000000000000000   -0.4804950654687301
  -0.7005738146549603   17.6117006678425803   -3.2069332572620004
   0.0000000000000000    0.0000000000000000   17.9170000000000016
H C N
8 10 2
direct
   0.2504200000000000    0.1097700000000000    0.8081700000000001 H
   0.2584100000000000    0.0666200000000000    0.0272400000000000 H
   0.4367200000000000    0.0607400000000000    0.0301600000000000 H
   0.4284900000000000    0.1110100000000000    0.8030200000000000 H
   0.7492799999999999    0.1917800000000000    0.8898500000000000 H
   0.7418300000000000    0.9729300000000000    0.9336800000000000 H
   0.5635500000000000    0.9700000000000000    0.9396300000000000 H
   0.5712100000000000    0.1968900000000000    0.8886600000000000 H
   0.2950900000000000    0.1000000000000000    0.8560500000000000 C
   0.2995500000000000    0.0745100000000000    0.9785900000000000 C
   0.3982700000000000    0.0714900000000000    0.9795800000000000 C
   0.3937500000000000    0.1001200000000000    0.8536400000000000 C
   0.4473900000000000    0.0849700000000000    0.9161700000000000 C
   0.7047400000000000    0.1439500000000000    0.8997900000000000 C
   0.7005900000000000    0.0215400000000000    0.9256500000000000 C
   0.6018800000000000    0.0205500000000000    0.9287100000000000 C
   0.6060700000000000    0.1463400000000000    0.8997000000000001 C
   0.5526000000000000    0.0838800000000000    0.9150500000000000 C
   0.2484600000000000    0.0879700000000000    0.9176000000000000 N
   0.7515200000000000    0.0824700000000000    0.9119900000000000 N
