Zn6 H90 C120 N6 O24
1.0
  14.0477848962767151    0.0000000000000000   -0.4804950654687301
  -0.7005738146549603   17.6117006678425803   -3.2069332572620004
   0.0000000000000000    0.0000000000000000   17.9170000000000016
Zn H C N O
6 90 120 6 24
direct
   0.5832000000000001    0.5402900000000000    0.7061900000000000 Zn
   0.4167700000000000    0.2938700000000000    0.4597500000000000 Zn
   0.2132600000000000    0.2836500000000000    0.4503600000000000 Zn
   0.7867200000000000    0.5496300000000000    0.7167000000000000 Zn
   0.8993300000000000    0.0814100000000000    0.9096800000000000 Zn
   0.1006600000000000    0.0902900000000000    0.9186500000000000 Zn
   0.4367200000000000    0.5089700000000000    0.0472300000000000 H
   0.5003600000000000    0.4687700000000000    0.1171200000000000 H
   0.4791700000000000    0.5664300000000000    0.1343700000000000 H
   0.4691200000000000    0.4341400000000000    0.3353700000000000 H
   0.5343400000000000    0.4337100000000000    0.2514500000000000 H
   0.4737200000000000    0.5151800000000000    0.2907700000000000 H
   0.8273600000000000    0.5775000000000000    0.4822000000000000 H
   0.8247400000000000    0.5805000000000000    0.3432200000000000 H
   0.5446100000000000    0.4747000000000000    0.4559800000000000 H
   0.5252100000000000    0.5315400000000000    0.9419999999999999 H
   0.8273100000000000    0.5786200000000000    0.9616000000000000 H
   0.8266300000000000    0.5707700000000000    0.0987700000000000 H
   0.5632900000000000    0.9527900000000000    0.4912200000000000 H
   0.4996100000000000    0.8830200000000000    0.5314000000000000 H
   0.5208400000000000    0.8656199999999999    0.4338200000000000 H
   0.5309300000000000    0.6646900000000000    0.5661000000000000 H
   0.4656600000000000    0.7486600000000000    0.5665400000000000 H
   0.5261300000000000    0.7092800000000000    0.4850500000000000 H
   0.1724300000000000    0.5181000000000000    0.4228700000000000 H
   0.1750400000000000    0.6571700000000000    0.4199000000000000 H
   0.4553700000000000    0.5440900000000000    0.5255000000000000 H
   0.4748000000000000    0.0580200000000000    0.4685000000000000 H
   0.1727200000000000    0.0387100000000000    0.4211400000000000 H
   0.1733800000000000    0.9015300000000001    0.4290700000000000 H
   0.7601300000000000    0.3776400000000000    0.5558100000000000 H
   0.7339500000000000    0.2102500000000000    0.3489000000000000 H
   0.5570300000000000    0.2168900000000000    0.3575600000000000 H
   0.5834900000000000    0.3779300000000000    0.5551800000000000 H
   0.8772700000000000    0.2836500000000000    0.3299900000000000 H
   0.8878400000000000    0.2927300000000000    0.5730600000000000 H
   0.0654600000000000    0.2873100000000000    0.5668700000000000 H
   0.0547900000000000    0.2783400000000000    0.3345100000000000 H
   0.2399000000000000    0.4441700000000000    0.6224000000000000 H
   0.2659700000000000    0.6511100000000000    0.7897800000000000 H
   0.4428800000000000    0.6425200000000000    0.7831500000000000 H
   0.4165500000000000    0.4448300000000000    0.6222000000000000 H
   0.1224800000000000    0.6700000000000000    0.7165000000000000 H
   0.1123600000000000    0.4269000000000000    0.7072700000000000 H
   0.9347600000000000    0.4330600000000000    0.7128200000000000 H
   0.9449900000000000    0.6654500000000000    0.7219200000000000 H
   0.4377600000000000    0.8780100000000000    0.6915900000000000 H
   0.4952500000000000    0.9553199999999999    0.6585500000000000 H
   0.4784400000000000    0.9610000000000000    0.7563500000000000 H
   0.4723900000000000    0.1685100000000000    0.6007900000000000 H
   0.5328000000000001    0.0840900000000000    0.6095699999999999 H
   0.4671900000000000    0.1301800000000000    0.6852700000000000 H
   0.8272200000000000    0.3137700000000000    0.7518000000000000 H
   0.8212300000000000    0.1753400000000000    0.7568300000000000 H
   0.5465200000000000    0.2901100000000000    0.6447900000000000 H
   0.5323800000000000    0.7733300000000000    0.7081400000000000 H
   0.8363699999999999    0.7972300000000000    0.7390400000000000 H
   0.8286400000000000    0.9367500000000000    0.7401100000000000 H
   0.5620700000000000    0.3084300000000000    0.1221200000000000 H
   0.5045500000000001    0.3414800000000000    0.0447400000000000 H
   0.5213200000000000    0.2436600000000000    0.0391600000000000 H
   0.5273099999999999    0.3992500000000000    0.8317300000000000 H
   0.4667800000000000    0.3905900000000000    0.9160600000000000 H
   0.5326300000000000    0.3148800000000000    0.8702600000000000 H
   0.1728300000000000    0.2480400000000000    0.6860600000000000 H
   0.1787800000000000    0.2429800000000000    0.8244600000000000 H
   0.4533400000000000    0.3552000000000000    0.7101000000000000 H
   0.4675000000000000    0.2920700000000000    0.2267700000000000 H
   0.1635100000000000    0.2612800000000000    0.2027100000000000 H
   0.1711600000000000    0.2601700000000000    0.0632000000000000 H
   0.1320641286071542   -0.0486561521831380    0.8995658803015670 H
   0.8481831381723520   -0.0614856740525721    0.9052709339048043 H
   0.9868440226915405   -0.0631322451369594    0.9018114413645228 H
   0.1362736412347350    0.2336755257141521    0.9469387255208304 H
   0.8556322010220425    0.2193806878879989    0.9012767582359078 H
  -0.0048202425021477    0.2344346257805601    0.9245798102182635 H
   0.5635500000000000    0.9700000000000000    0.9396300000000000 H
   0.5712100000000000    0.1968900000000000    0.8886600000000000 H
   0.7418300000000000    0.9729300000000000    0.9336800000000000 H
   0.7492799999999999    0.1917800000000000    0.8898500000000000 H
   0.4367200000000000    0.0607400000000000    0.0301600000000000 H
   0.4284900000000000    0.1110100000000000    0.8030200000000000 H
   0.2584100000000000    0.0666200000000000    0.0272400000000000 H
   0.2504200000000000    0.1097700000000000    0.8081700000000001 H
   0.7574600000000000    0.0669200000000000    0.2486300000000000 H
   0.8079499999999999    0.0984700000000000    0.3426000000000000 H
   0.8149999999999999    0.0029800000000000    0.2988400000000000 H
   0.7597500000000000    0.0374000000000000    0.5534000000000000 H
   0.7941500000000000    0.1043500000000000    0.4959400000000000 H
   0.8217800000000000    0.0000000000000000    0.4683800000000000 H
   0.1504700000000000    0.1115000000000000    0.6808100000000000 H
   0.1435800000000000    0.1200500000000000    0.5430400000000000 H
   0.8516899999999999    0.0508800000000000    0.6677600000000000 H
   0.8532600000000000    0.0737700000000000    0.1408200000000000 H
   0.1554800000000000    0.1166200000000000    0.1677000000000000 H
   0.1474400000000000    0.1172200000000000    0.3069000000000000 H
   0.4961900000000000    0.5187700000000000    0.0895800000000000 C
   0.5153300000000000    0.4684200000000000    0.3054500000000000 C
   0.6768800000000000    0.5550100000000000    0.8595000000000000 C
   0.6834700000000000    0.5304000000000000    0.5622000000000000 C
   0.7652400000000000    0.5558700000000000    0.4458600000000000 C
   0.7636300000000000    0.5573100000000000    0.3686000000000000 C
   0.6058100000000000    0.4984600000000000    0.4313700000000000 C
   0.6024800000000000    0.4987400000000000    0.3535500000000000 C
   0.6852400000000000    0.5276300000000000    0.4782700000000000 C
   0.6824700000000000    0.5300000000000000    0.3215400000000000 C
   0.6772700000000000    0.5396000000000000    0.1761800000000000 C
   0.6805000000000000    0.5346300000000000    0.2434300000000000 C
   0.5907700000000000    0.5398300000000000    0.9773400000000000 C
   0.5882200000000000    0.5347800000000000    0.0540300000000000 C
   0.7610900000000000    0.5665000000000000    0.9876600000000000 C
   0.7605900000000000    0.5621200000000000    0.0641400000000000 C
   0.6760400000000000    0.5546000000000000    0.9431100000000000 C
   0.6752400000000000    0.5454900000000000    0.0983900000000000 C
   0.5038100000000000    0.9104800000000000    0.4814100000000000 C
   0.4846400000000000    0.6946300000000000    0.5318300000000000 C
   0.3231200000000000    0.1407100000000000    0.4449300000000000 C
   0.3164100000000000    0.4379100000000000    0.4697500000000000 C
   0.2345900000000000    0.5544500000000000    0.4444800000000000 C
   0.2362000000000000    0.6317199999999999    0.4430400000000000 C
   0.3941100000000000    0.5687700000000000    0.5018200000000000 C
   0.3974500000000000    0.6466000000000000    0.5014999999999999 C
   0.3146400000000000    0.5219400000000000    0.4726600000000000 C
   0.3174200000000000    0.6787000000000000    0.4703000000000000 C
   0.3227200000000000    0.8240300000000000    0.4605300000000000 C
   0.3194300000000000    0.7568000000000000    0.4655900000000000 C
   0.4092500000000000    0.0228000000000000    0.4601500000000000 C
   0.4117900000000000    0.9461000000000001    0.4652800000000000 C
   0.2389400000000000    0.0126000000000000    0.4333300000000000 C
   0.2394300000000000    0.9361100000000000    0.4377700000000000 C
   0.3239800000000000    0.0570800000000000    0.4452900000000000 C
   0.3247700000000000    0.9018000000000000    0.4545300000000000 C
   0.7183500000000000    0.3401000000000000    0.5111800000000000 C
   0.7035700000000000    0.2483500000000000    0.3955000000000000 C
   0.6053600000000000    0.2513200000000000    0.3999200000000000 C
   0.6194800000000000    0.3407900000000000    0.5110300000000000 C
   0.7624300000000001    0.2927500000000000    0.4527000000000000 C
   0.9157300000000000    0.2843500000000000    0.3839500000000000 C
   0.9219100000000000    0.2907700000000000    0.5190399999999999 C
   0.0202900000000000    0.2873600000000000    0.5162500000000000 C
   0.0144400000000000    0.2818600000000000    0.3857800000000000 C
   0.8673100000000000    0.2893900000000000    0.4517100000000000 C
   0.2816600000000000    0.4888300000000000    0.6599900000000000 C
   0.2963700000000000    0.6044800000000000    0.7516900000000000 C
   0.3945800000000000    0.6001400000000000    0.7487300000000000 C
   0.3805400000000000    0.4890000000000000    0.6593000000000000 C
   0.2375400000000000    0.5473000000000000    0.7073100000000000 C
   0.0841300000000000    0.6160300000000000    0.7157900000000000 C
   0.0781900000000000    0.4809200000000000    0.7092900000000000 C
   0.9798100000000000    0.4836900000000000    0.7127800000000000 C
   0.9854300000000000    0.6141799999999999    0.7183500000000000 C
   0.1326700000000000    0.5482700000000000    0.7106900000000000 C
   0.4953900000000000    0.9217700000000000    0.7042600000000000 C
   0.5140000000000000    0.1402400000000000    0.6396800000000000 C
   0.6884900000000000    0.6931700000000000    0.7212900000000000 C
   0.6861699999999999    0.3951800000000000    0.7018300000000000 C
   0.7647300000000000    0.2781800000000000    0.7295300000000000 C
   0.7613900000000000    0.2012000000000000    0.7323600000000000 C
   0.6063499999999999    0.2651900000000000    0.6701000000000000 C
   0.6011000000000000    0.1876500000000000    0.6715000000000000 C
   0.6861300000000000    0.3112600000000000    0.6999200000000000 C
   0.5966300000000000    0.8100100000000000    0.7147600000000000 C
   0.5901000000000000    0.8872000000000000    0.7133000000000000 C
   0.7683600000000000    0.8229500000000000    0.7320300000000000 C
   0.7642000000000000    0.9002300000000000    0.7319500000000000 C
   0.6846000000000000    0.7769800000000000    0.7231000000000000 C
   0.6757800000000000    0.9329300000000000    0.7212600000000000 C
   0.6738499999999999    0.0108400000000000    0.7167900000000000 C
   0.6756500000000000    0.0777000000000000    0.7106400000000000 C
   0.6793800000000000    0.1553400000000000    0.7047000000000000 C
   0.5044100000000000    0.2958000000000000    0.0783000000000000 C
   0.4857200000000000    0.3603900000000000    0.8599900000000000 C
   0.3114500000000000    0.2789000000000000    0.3068400000000000 C
   0.3138200000000000    0.2982200000000000    0.6048600000000000 C
   0.2352800000000000    0.2703300000000000    0.7217200000000000 C
   0.2385900000000000    0.2674900000000000    0.7986900000000000 C
   0.3935400000000000    0.3298500000000000    0.7349300000000000 C
   0.3987400000000000    0.3284700000000000    0.8124700000000000 C
   0.3138500000000000    0.2999900000000000    0.6887500000000000 C
   0.3259500000000000    0.2832700000000000    0.9891900000000000 C
   0.3242100000000000    0.2893200000000000    0.9223100000000000 C
   0.4032300000000000    0.2854700000000000    0.1900600000000000 C
   0.4097200000000000    0.2868000000000000    0.1128700000000000 C
   0.2315000000000000    0.2682600000000000    0.1770000000000000 C
   0.2356200000000000    0.2683100000000000    0.0997600000000000 C
   0.3152800000000000    0.2771400000000000    0.2230400000000000 C
   0.3240200000000000    0.2789200000000000    0.0671000000000000 C
   0.3205100000000000    0.2952000000000000    0.8446600000000000 C
   0.6018800000000000    0.0205500000000000    0.9287100000000000 C
   0.6060700000000000    0.1463400000000000    0.8997000000000001 C
   0.7005900000000000    0.0215400000000000    0.9256500000000000 C
   0.7047400000000000    0.1439500000000000    0.8997900000000000 C
   0.5526000000000000    0.0838800000000000    0.9150500000000000 C
   0.3982700000000000    0.0714900000000000    0.9795800000000000 C
   0.3937500000000000    0.1001200000000000    0.8536400000000000 C
   0.2995500000000000    0.0745100000000000    0.9785900000000000 C
   0.2950900000000000    0.1000000000000000    0.8560500000000000 C
   0.4473900000000000    0.0849700000000000    0.9161700000000000 C
   0.8176900000000000    0.0615100000000000    0.2876900000000000 C
   0.8161700000000000    0.0536900000000000    0.5179700000000000 C
   0.0086200000000000    0.0955100000000000    0.0624000000000000 C
   0.0033400000000000    0.0781900000000000    0.7660000000000000 C
   0.0838000000000000    0.0998500000000000    0.6474000000000000 C
   0.0801600000000000    0.1041700000000000    0.5707800000000000 C
   0.9153400000000000    0.0655600000000000    0.6396900000000000 C
   0.9093800000000000    0.0690900000000000    0.5626000000000000 C
   0.0012800000000000    0.0805800000000000    0.6827500000000000 C
   0.9171800000000000    0.0824200000000000    0.1780500000000000 C
   0.9109800000000000    0.0794000000000000    0.2549700000000000 C
   0.0878000000000000    0.1066300000000000    0.1926900000000000 C
   0.0835200000000000    0.1062100000000000    0.2699200000000000 C
   0.0045500000000000    0.0952500000000000    0.1459700000000000 C
   0.9956800000000000    0.0920400000000000    0.3019900000000000 C
   0.9919600000000000    0.0903800000000000    0.4487300000000000 C
   0.9927600000000000    0.0907700000000000    0.3805900000000000 C
   0.9936300000000000    0.0882200000000000    0.5272800000000000 C
   0.5636100000000001    0.2966400000000000    0.4569300000000000 N
   0.0662900000000000    0.2833900000000000    0.4508300000000000 N
   0.4363700000000000    0.5431200000000000    0.7034300000000000 N
   0.9337000000000000    0.5491200000000001    0.7168200000000000 N
   0.7515200000000000    0.0824700000000000    0.9119900000000000 N
   0.2484600000000000    0.0879700000000000    0.9176000000000000 N
   0.5967300000000000    0.5493600000000000    0.8229300000000001 O
   0.7583700000000000    0.5595800000000000    0.8308000000000000 O
   0.7629899999999999    0.5374600000000000    0.5997100000000000 O
   0.6016100000000000    0.5255800000000000    0.5904500000000000 O
   0.4032900000000000    0.1772200000000000    0.4506200000000000 O
   0.2416400000000000    0.1694600000000000    0.4404000000000000 O
   0.2368800000000000    0.4005400000000000    0.4625600000000000 O
   0.3982600000000000    0.4096300000000000    0.4745400000000000 O
   0.7705300000000000    0.6653900000000000    0.7249800000000000 O
   0.6089100000000000    0.6558000000000000    0.7155800000000000 O
   0.7666500000000001    0.4312900000000000    0.7086200000000000 O
   0.6050600000000000    0.4242800000000000    0.6966000000000000 O
   0.2294400000000000    0.2751900000000000    0.3345800000000000 O
   0.3910600000000000    0.2845600000000000    0.3442200000000000 O
   0.2333200000000000    0.2916300000000000    0.5687200000000000 O
   0.3949100000000000    0.3034100000000000    0.5758200000000000 O
   0.0704300000000000   -0.0257400000000000    0.9029900000000000 O
   0.9091100000000000   -0.0342300000000000    0.9061300000000000 O
   0.0759900000000000    0.2053500000000000    0.9352300000000000 O
   0.9165100000000000    0.1974700000000000    0.9093000000000000 O
   0.9295900000000000    0.0970000000000000    0.0257300000000000 O
   0.0909300000000000    0.0938100000000000    0.0342900000000000 O
   0.9239900000000000    0.0649000000000000    0.7945700000000000 O
   0.0834700000000000    0.0907200000000000    0.8025600000000001 O
