H8 C14 O4
1.0
  15.2812937816838303    0.0000000000000000   -1.6948998076202320
  -1.3407215849856127   15.2478391882915894   -1.4690114769983862
   0.0000000000000000    0.0000000000000000   17.9860000000000007
H C O
8 14 4
direct
   0.5410700000000001    0.3740100000000000    0.4540000000000000 H
   0.7023800000000000    0.3769700000000000    0.4506000000000000 H
   0.6574000000000000    0.2999100000000000    0.2117200000000000 H
   0.4969000000000000    0.3024100000000000    0.2164200000000000 H
   0.9435200000000000    0.3569700000000000    0.2072700000000000 H
   0.7853500000000000    0.3689100000000000    0.2134100000000000 H
   0.8170700000000000    0.3070300000000000    0.4435100000000000 H
   0.9771000000000000    0.3046000000000000    0.4384200000000000 H
   0.5089200000000000    0.3381700000000000    0.3357200000000000 C
   0.5675700000000000    0.3584800000000000    0.4016000000000000 C
   0.6577600000000000    0.3591900000000000    0.3990700000000000 C
   0.6924900000000000    0.3384900000000000    0.3308900000000000 C
   0.6328400000000000    0.3181400000000000    0.2651100000000000 C
   0.5427500000000000    0.3185600000000000    0.2670000000000000 C
   0.4115100000000000    0.3359800000000000    0.3379400000000000 C
   0.9706600000000000    0.3291600000000000    0.3222000000000000 C
   0.9155100000000000    0.3465600000000000    0.2590200000000000 C
   0.8260999999999999    0.3517600000000000    0.2624300000000000 C
   0.7881899999999999    0.3369500000000000    0.3284200000000000 C
   0.8442600000000000    0.3196500000000000    0.3917000000000000 C
   0.9340500000000000    0.3170000000000000    0.3889800000000000 C
   0.0672100000000000    0.3239600000000000    0.3192900000000000 C
   0.3637100000000000    0.3292000000000000    0.2747600000000000 O
   0.3843300000000000    0.3405200000000000    0.4025400000000000 O
   0.0935300000000000    0.3108500000000000    0.2545300000000000 O
   0.1154500000000000    0.3319700000000000    0.3821500000000000 O
