Ca24 H192 C225 N45 O143
1.0
  16.1309496377845676    0.0000000000000000   -1.0790517982274939
  -1.2678832194421634   16.2607058380094003   -2.4294068806159301
   0.0000000000000000    0.0000000000000000   32.9840000000000018
Ca H C N O
24 192 225 45 143
direct
   0.8148500000000000    0.0652700000000000    0.7450650000000000 Ca
   0.3959700000000000    0.3323600000000000    0.6793400000000001 Ca
   0.6042400000000000    0.6659300000000000    0.8201700000000001 Ca
   0.1849300000000000    0.9340800000000000    0.7548850000000000 Ca
   0.1118800000000000    0.8884300000000001    0.8617850000000000 Ca
   0.3880400000000000    0.2755500000000000    0.5554650000000000 Ca
   0.8882700000000000    0.1106500000000000    0.6380350000000000 Ca
   0.3145900000000000    0.4892500000000000    0.5324050000000000 Ca
   0.8958900000000000    0.3585500000000000    0.6661350000000000 Ca
   0.1042000000000000    0.6402500000000000    0.3329550000000000 Ca
   0.6850300000000000    0.5096400000000000    0.4669800000000000 Ca
   0.3145900000000000    0.4892500000000000    0.0324050000000000 Ca
   0.3880400000000000    0.2755500000000000    0.0554650000000000 Ca
   0.8148500000000000    0.0652700000000000    0.2450650000000000 Ca
   0.8958900000000000    0.3585500000000000    0.1661350000000000 Ca
   0.3959700000000000    0.3323600000000000    0.1793400000000000 Ca
   0.6042400000000000    0.6659300000000000    0.3201700000000000 Ca
   0.1042000000000000    0.6402500000000000    0.8329550000000000 Ca
   0.1849300000000000    0.9340800000000000    0.2548850000000000 Ca
   0.6850300000000000    0.5096400000000000    0.9669800000000000 Ca
   0.6118600000000000    0.7234699999999999    0.9442250000000000 Ca
   0.1118800000000000    0.8884300000000001    0.3617850000000000 Ca
   0.6118600000000000    0.7234699999999999    0.4442250000000000 Ca
   0.8882700000000000    0.1106500000000000    0.1380350000000000 Ca
   0.4310835427676856    0.3206672643775682    0.7799061019384291 H
   0.4443782864685622    0.3095343880028700    0.7721777673646818 H
   0.1601750036130229    0.1298757868353315    0.7766568462170523 H
   0.5104800000000000    0.8947000000000001    0.9120950000000000 H
   0.4105500000000000    0.8480900000000000    0.8936900000000000 H
   0.4045200000000000    0.9319800000000000    0.8414850000000000 H
   0.6821600000000000    0.2898800000000000    0.6899600000000000 H
   0.7491500000000000    0.2957300000000000    0.7346500000000000 H
   0.5822400000000000    0.2163200000000000    0.7163200000000001 H
   0.6395100000000000    0.0906300000000000    0.8289050000000000 H
   0.3803400000000000    0.0039700000000000    0.8035200000000000 H
   0.4943100000000000    0.1538100000000000    0.7252750000000000 H
   0.2158400000000000    0.0658800000000000    0.6889800000000000 H
   0.2800500000000000    0.0629800000000000    0.6473300000000000 H
   0.3826300000000000    0.1560600000000000    0.7018050000000000 H
   0.4891000000000000    0.1038300000000000    0.5876000000000000 H
   0.5892700000000000    0.1503300000000000    0.6056200000000000 H
   0.5954000000000000    0.0675000000000000    0.6583850000000000 H
   0.3177800000000000    0.7093200000000000    0.8097850000000000 H
   0.2506900000000000    0.7037700000000000    0.7651350000000000 H
   0.4177700000000000    0.7828600000000000    0.7834050000000000 H
   0.3607300000000000    0.9086700000000000    0.6708850000000000 H
   0.5055700000000000    0.8456800000000000    0.7746600000000000 H
   0.6198500000000000    0.0000000000000000    0.6964100000000000 H
   0.7841900000000001    0.9322100000000000    0.8111200000000001 H
   0.7196399999999999    0.9339100000000000    0.8525750000000001 H
   0.6172400000000000    0.8422400000000000    0.7976350000000000 H
   0.9336300000000000    0.9064000000000000    0.5311450000000000 H
   0.8315600000000000    0.9246900000000000    0.5132600000000000 H
   0.7776700000000000    0.8111200000000000    0.5377000000000000 H
   0.5829500000000000    0.4036900000000000    0.5657799999999999 H
   0.5429600000000000    0.4253900000000000    0.6143850000000000 H
   0.6382000000000000    0.5327700000000000    0.6302200000000000 H
   0.7263500000000001    0.7015500000000000    0.5543300000000000 H
   0.9535600000000000    0.7262500000000000    0.6310450000000000 H
   0.7798200000000000    0.5144600000000000    0.6291550000000000 H
   0.0000000000000000    0.6878000000000000    0.6836250000000000 H
   0.0596900000000000    0.5269400000000000    0.6950250000000000 H
   0.1236600000000000    0.6160099999999999    0.6902750000000000 H
   0.5659900000000000    0.9371500000000000    0.5467350000000000 H
   0.6681400000000000    0.9723400000000000    0.5373350000000000 H
   0.7219900000000000    0.9238600000000000    0.5942700000000000 H
   0.9164400000000000    0.8693900000000000    0.7976650000000001 H
   0.9553700000000001    0.7714800000000001    0.7880100000000000 H
   0.8610700000000000    0.7384500000000001    0.7339050000000000 H
   0.5457000000000000    0.7370200000000000    0.6365250000000000 H
   0.7730300000000000    0.8903200000000000    0.6492599999999999 H
   0.7192900000000000    0.7396700000000000    0.7423649999999999 H
   0.4389100000000000    0.6089300000000000    0.7360650000000000 H
   0.3750300000000000    0.6172600000000000    0.6913400000000001 H
   0.5031400000000000    0.6325900000000000    0.6556700000000000 H
   0.9580632416490168    0.0736293246250032    0.6795334115503588 H
   0.9679515768381597    0.1301847014291756    0.7523761252795148 H
   0.9689375755393383    0.1665092587554530    0.7988447461340723 H
   0.0107100000000000    0.8240900000000000    0.4474300000000000 H
   0.9106800000000000    0.7874100000000001    0.4241700000000000 H
   0.9046500000000000    0.6828300000000000    0.4660350000000000 H
   0.1820700000000000    0.3797600000000000    0.6449950000000000 H
   0.2491700000000000    0.4690600000000000    0.6478400000000000 H
   0.0821900000000000    0.4325500000000000    0.6082200000000000 H
   0.1396700000000000    0.6576600000000000    0.5453450000000000 H
   0.8804500000000000    0.6069900000000000    0.5020450000000000 H
   0.9943900000000000    0.4503000000000000    0.5768550000000000 H
   0.7159100000000000    0.3777400000000000    0.5328800000000000 H
   0.7801100000000000    0.2944400000000000    0.5315300000000001 H
   0.8826700000000000    0.4034400000000000    0.5780050000000000 H
   0.8178299999999999    0.6194800000000000    0.3546250000000000 H
   0.7507000000000000    0.5302100000000000    0.3518900000000000 H
   0.9177999999999999    0.5667400000000000    0.3914100000000000 H
   0.8607200000000000    0.3416500000000000    0.4542950000000000 H
   0.1198300000000000    0.3926900000000000    0.5000000000000000 H
   0.0055800000000000    0.5492700000000000    0.4228200000000000 H
   0.2841900000000000    0.6221800000000000    0.4660700000000000 H
   0.2196800000000000    0.7051200000000000    0.4669450000000000 H
   0.1172100000000000    0.5953000000000001    0.4211100000000000 H
   0.9889500000000000    0.1749900000000000    0.5518250000000000 H
   0.0891800000000000    0.2109600000000000    0.5750550000000000 H
   0.0953000000000000    0.3166700000000000    0.5337650000000000 H
   0.0107100000000000    0.8240900000000000    0.9474300000000000 H
   0.9106800000000000    0.7874100000000001    0.9241699999999999 H
   0.9046500000000000    0.6828300000000000    0.9660350000000000 H
   0.1820700000000000    0.3797600000000000    0.1449950000000000 H
   0.2491700000000000    0.4690600000000000    0.1478400000000000 H
   0.0821900000000000    0.4325500000000000    0.1082200000000000 H
   0.1396700000000000    0.6576600000000000    0.0453450000000000 H
   0.8804500000000000    0.6069900000000000    0.0020450000000000 H
   0.9943900000000000    0.4503000000000000    0.0768550000000000 H
   0.7159100000000000    0.3777400000000000    0.0328800000000000 H
   0.7801100000000000    0.2944400000000000    0.0315300000000000 H
   0.8826700000000000    0.4034400000000000    0.0780050000000000 H
   0.8178299999999999    0.6194800000000000    0.8546250000000000 H
   0.7507000000000000    0.5302100000000000    0.8518900000000000 H
   0.9177999999999999    0.5667400000000000    0.8914100000000000 H
   0.8607200000000000    0.3416500000000000    0.9542950000000000 H
   0.1198300000000000    0.3926900000000000    0.0000000000000000 H
   0.0055800000000000    0.5492700000000000    0.9228200000000000 H
   0.2841900000000000    0.6221800000000000    0.9660700000000000 H
   0.2196800000000000    0.7051200000000000    0.9669449999999999 H
   0.1172100000000000    0.5953000000000001    0.9211100000000000 H
   0.9889500000000000    0.1749900000000000    0.0518250000000000 H
   0.0891800000000000    0.2109600000000000    0.0750550000000000 H
   0.0953000000000000    0.3166700000000000    0.0337650000000000 H
   0.6925956753340025    0.5044346969608358    0.7897646726959530 H
   0.4635968343042003    0.5173521325223537    0.8301765075487921 H
   0.5760227832522127    0.5044915244521527    0.8097195214076293 H
   0.0660800000000000    0.0934200000000000    0.9685600000000000 H
   0.1682300000000000    0.0748200000000000    0.9862250000000000 H
   0.2220600000000000    0.1885700000000000    0.9618800000000001 H
   0.4165000000000000    0.5951800000000000    0.9347000000000000 H
   0.4554900000000000    0.5760700000000000    0.8857500000000000 H
   0.3611900000000000    0.4678400000000000    0.8691249999999999 H
   0.0456600000000000    0.2729600000000000    0.8684650000000000 H
   0.2730700000000000    0.2984500000000000    0.9450499999999999 H
   0.2193000000000000    0.4846100000000000    0.8697050000000000 H
   0.9388800000000000    0.4719900000000000    0.8044249999999999 H
   0.8750500000000000    0.3824500000000000    0.8085300000000000 H
   0.0031900000000000    0.3111300000000000    0.8160800000000000 H
   0.3163206749296907    0.2122299310993575    1.0223940718482638 H
   0.5104800000000000    0.8947000000000001    0.4120950000000000 H
   0.4105500000000000    0.8480900000000000    0.3936900000000000 H
   0.4045200000000000    0.9319800000000000    0.3414850000000000 H
   0.6821600000000000    0.2898800000000000    0.1899600000000000 H
   0.7491500000000000    0.2957300000000000    0.2346500000000000 H
   0.5822400000000000    0.2163200000000000    0.2163200000000000 H
   0.6395100000000000    0.0906300000000000    0.3289050000000000 H
   0.3803400000000000    0.0039700000000000    0.3035200000000000 H
   0.4943100000000000    0.1538100000000000    0.2252750000000000 H
   0.2158400000000000    0.0658800000000000    0.1889800000000000 H
   0.2800500000000000    0.0629800000000000    0.1473300000000000 H
   0.3826300000000000    0.1560600000000000    0.2018050000000000 H
   0.4283794475309951    0.1488094557739875    0.0523172981396029 H
   0.4891000000000000    0.1038300000000000    0.0876000000000000 H
   0.5892700000000000    0.1503300000000000    0.1056200000000000 H
   0.5954000000000000    0.0675000000000000    0.1583850000000000 H
   0.3177800000000000    0.7093200000000000    0.3097850000000000 H
   0.2506900000000000    0.7037700000000000    0.2651350000000000 H
   0.4177700000000000    0.7828600000000000    0.2834050000000000 H
   0.3607300000000000    0.9086700000000000    0.1708850000000000 H
   0.5055700000000000    0.8456800000000000    0.2746600000000000 H
   0.6198500000000000    0.0000000000000000    0.1964100000000000 H
   0.7841900000000001    0.9322100000000000    0.3111200000000000 H
   0.7196399999999999    0.9339100000000000    0.3525750000000000 H
   0.6172400000000000    0.8422400000000000    0.2976350000000000 H
   0.9336300000000000    0.9064000000000000    0.0311450000000000 H
   0.8315600000000000    0.9246900000000000    0.0132600000000000 H
   0.7776700000000000    0.8111200000000000    0.0377000000000000 H
   0.5829500000000000    0.4036900000000000    0.0657800000000000 H
   0.5429600000000000    0.4253900000000000    0.1143850000000000 H
   0.6382000000000000    0.5327700000000000    0.1302200000000000 H
   0.7263500000000001    0.7015500000000000    0.0543300000000000 H
   0.9535600000000000    0.7262500000000000    0.1310450000000000 H
   0.7798200000000000    0.5144600000000000    0.1291550000000000 H
   0.0000000000000000    0.6878000000000000    0.1836250000000000 H
   0.0596900000000000    0.5269400000000000    0.1950250000000000 H
   0.1236600000000000    0.6160099999999999    0.1902750000000000 H
   0.5659900000000000    0.9371500000000000    0.0467350000000000 H
   0.6681400000000000    0.9723400000000000    0.0373350000000000 H
   0.7219900000000000    0.9238600000000000    0.0942700000000000 H
   0.9164400000000000    0.8693900000000000    0.2976650000000000 H
   0.9553700000000001    0.7714800000000001    0.2880100000000000 H
   0.8610700000000000    0.7384500000000001    0.2339050000000000 H
   0.5457000000000000    0.7370200000000000    0.1365250000000000 H
   0.7730300000000000    0.8903200000000000    0.1492600000000000 H
   0.7192900000000000    0.7396700000000000    0.2423650000000000 H
   0.4389100000000000    0.6089300000000000    0.2360650000000000 H
   0.3750300000000000    0.6172600000000000    0.1913400000000000 H
   0.5031400000000000    0.6325900000000000    0.1556700000000000 H
   0.4336500000000000    0.0621400000000000    0.4531650000000000 H
   0.3315800000000000    0.0263800000000000    0.4623150000000000 H
   0.2777000000000000    0.0753200000000000    0.4055450000000000 H
   0.0829500000000000    0.1314900000000000    0.2019850000000000 H
   0.0437300000000000    0.2291800000000000    0.2125100000000000 H
   0.1387000000000000    0.2607900000000000    0.2663800000000000 H
   0.2799400000000000    0.2583600000000000    0.2572750000000000 H
   0.2263300000000000    0.1086600000000000    0.3507850000000000 H
   0.4535900000000000    0.2620900000000000    0.3631650000000000 H
   0.3819846720817535    0.2384643571196567    0.3803862575670750 H
   0.5597600000000000    0.3900200000000000    0.2635000000000000 H
   0.6237100000000000    0.3805800000000000    0.3080350000000000 H
   0.4950400000000000    0.3672500000000000    0.3439250000000000 H
   0.0660800000000000    0.0934200000000000    0.4685600000000000 H
   0.1682300000000000    0.0748200000000000    0.4862250000000000 H
   0.2220600000000000    0.1885700000000000    0.4618800000000000 H
   0.4165000000000000    0.5951800000000000    0.4347000000000000 H
   0.4554900000000000    0.5760700000000000    0.3857500000000000 H
   0.3611900000000000    0.4678400000000000    0.3691250000000000 H
   0.0456600000000000    0.2729600000000000    0.3684650000000000 H
   0.2730700000000000    0.2984500000000000    0.4450500000000000 H
   0.2193000000000000    0.4846100000000000    0.3697050000000000 H
   0.9388800000000000    0.4719900000000000    0.3044250000000000 H
   0.8750500000000000    0.3824500000000000    0.3085300000000000 H
   0.0031900000000000    0.3111300000000000    0.3160800000000000 H
   0.2361800000000000    0.1826900000000000    0.6669000000000000 C
   0.5088800000000000    0.7953000000000000    0.8622000000000001 C
   0.7624200000000000    0.1931300000000000    0.6887650000000000 C
   0.4707500000000000    0.8705000000000001    0.8840500000000000 C
   0.5245800000000000    0.9887800000000000    0.8537250000000001 C
   0.7080300000000000    0.2527300000000000    0.7121200000000000 C
   0.6516999999999999    0.1714600000000000    0.7623550000000000 C
   0.5803400000000000    0.0900600000000000    0.8110150000000000 C
   0.4356000000000000    0.0403100000000000    0.7974700000000000 C
   0.4988000000000000    0.1264700000000000    0.7532650000000001 C
   0.4290600000000000    0.0815600000000000    0.7634000000000001 C
   0.5110600000000000    0.0431700000000000    0.8211750000000000 C
   0.5749400000000000    0.1314000000000000    0.7767600000000000 C
   0.2659700000000000    0.0998900000000000    0.6763200000000000 C
   0.3497900000000000    0.0676400000000000    0.7365500000000000 C
   0.7637600000000000    0.8144800000000000    0.8324050000000001 C
   0.4914300000000000    0.2038300000000000    0.6372400000000000 C
   0.2377500000000000    0.8062200000000000    0.8111250000000000 C
   0.5291700000000000    0.1282700000000000    0.6155000000000000 C
   0.4756400000000000    0.0100900000000000    0.6460200000000000 C
   0.2919600000000000    0.7466100000000000    0.7876799999999999 C
   0.3482800000000000    0.8280400000000000    0.7375100000000000 C
   0.4198300000000000    0.9092400000000000    0.6888400000000000 C
   0.5012000000000000    0.8728900000000001    0.7466349999999999 C
   0.5710300000000000    0.9177000000000000    0.7365250000000000 C
   0.5645900000000000    0.9589700000000000    0.7024550000000001 C
   0.4891900000000000    0.9560400000000000    0.6787000000000000 C
   0.4251000000000000    0.8680099999999999    0.7231200000000000 C
   0.7339700000000000    0.8976700000000000    0.8234500000000000 C
   0.6502800000000000    0.9314000000000000    0.7634150000000000 C
   0.8715000000000001    0.9850200000000000    0.5741450000000000 C
   0.0758700000000000    0.6161000000000000    0.7492850000000000 C
   0.4744600000000000    0.4710600000000000    0.5671450000000000 C
   0.8696000000000000    0.9111000000000000    0.5399750000000000 C
   0.8779700000000000    0.8025600000000001    0.5810600000000000 C
   0.5572300000000000    0.4519900000000000    0.5867550000000000 C
   0.6647900000000000    0.5558000000000000    0.5731750000000000 C
   0.7674500000000000    0.6792800000000000    0.5771750000000000 C
   0.8942700000000000    0.6909200000000000    0.6214750000000000 C
   0.8720500000000000    0.6165800000000000    0.6347950000000000 C
   0.8429600000000000    0.7227600000000000    0.5927900000000000 C
   0.7951900000000000    0.5743300000000000    0.6200300000000000 C
   0.7429200000000000    0.6057100000000000    0.5914150000000000 C
   0.9322900000000000    0.5764600000000000    0.6604600000000000 C
   0.0658900000000000    0.5942800000000000    0.7024500000000000 C
   0.6275900000000000    0.8504699999999999    0.5074600000000000 C
   0.4239700000000000    0.4998300000000000    0.6918250000000000 C
   0.0251500000000000    0.8640400000000000    0.7642450000000001 C
   0.6298899999999999    0.9191700000000000    0.5442950000000000 C
   0.6215400000000000    0.8372700000000000    0.5986350000000000 C
   0.9418800000000001    0.8260900000000000    0.7740000000000000 C
   0.8342600000000000    0.8522999999999999    0.7219949999999999 C
   0.6049500000000000    0.7559700000000000    0.6542600000000001 C
   0.6271000000000000    0.7288900000000000    0.6913199999999999 C
   0.7318700000000000    0.8445200000000000    0.6602749999999999 C
   0.6563800000000000    0.8134900000000000    0.6384750000000000 C
   0.7039800000000001    0.7582000000000000    0.7124900000000001 C
   0.7562700000000000    0.8157100000000000    0.6969750000000000 C
   0.4330100000000000    0.5936300000000000    0.7024200000000000 C
   0.5669400000000000    0.6771500000000000    0.7112550000000000 C
   0.7361200000000000    0.3337500000000000    0.5913400000000000 C
   0.0089100000000000    0.7243700000000000    0.3976800000000000 C
   0.2622600000000000    0.3771100000000000    0.5965900000000000 C
   0.9708700000000000    0.7680500000000000    0.4353200000000000 C
   0.0247300000000000    0.7073800000000000    0.4944400000000000 C
   0.2079800000000000    0.4240000000000000    0.6263850000000000 C
   0.1518000000000000    0.5244400000000000    0.5857200000000000 C
   0.0804900000000000    0.6218800000000000    0.5450600000000000 C
   0.9357100000000000    0.5948400000000000    0.5202050000000000 C
   0.9988800000000000    0.5063299999999999    0.5632250000000000 C
   0.9291400000000000    0.5266600000000000    0.5407950000000000 C
   0.0111800000000000    0.6422500000000000    0.5216300000000000 C
   0.0750600000000000    0.5533300000000000    0.5657000000000000 C
   0.7660000000000000    0.3524700000000000    0.5499350000000000 C
   0.8498500000000000    0.4729600000000000    0.5338100000000000 C
   0.2637600000000000    0.6648200000000000    0.4072200000000000 C
   0.7378500000000000    0.6222400000000000    0.4031050000000000 C
   0.7920000000000000    0.5753000000000000    0.3732900000000000 C
   0.8482900000000000    0.4749500000000000    0.4139950000000000 C
   0.9198100000000000    0.3775900000000000    0.4545850000000000 C
   0.0645900000000000    0.4048300000000000    0.4794450000000000 C
   0.0000000000000000    0.3573100000000000    0.4779850000000000 C
   0.0012100000000000    0.4932000000000000    0.4364200000000000 C
   0.0710300000000000    0.4729800000000000    0.4588150000000000 C
   0.9250800000000000    0.4461600000000000    0.4339800000000000 C
   0.2339900000000000    0.6468699999999999    0.4488100000000000 C
   0.1502700000000000    0.5267700000000000    0.4656450000000000 C
   0.9913700000000000    0.2741000000000000    0.6019050000000000 C
   0.0290600000000000    0.2307600000000000    0.5640750000000000 C
   0.9755700000000000    0.2918900000000000    0.5049900000000000 C
   0.7361200000000000    0.3337500000000000    0.0913400000000000 C
   0.0089100000000000    0.7243700000000000    0.8976800000000000 C
   0.2622600000000000    0.3771100000000000    0.0965900000000000 C
   0.9708700000000000    0.7680500000000000    0.9353199999999999 C
   0.0247300000000000    0.7073800000000000    0.9944400000000000 C
   0.2079800000000000    0.4240000000000000    0.1263850000000000 C
   0.1518000000000000    0.5244400000000000    0.0857200000000000 C
   0.0804900000000000    0.6218800000000000    0.0450600000000000 C
   0.9357100000000000    0.5948400000000000    0.0202050000000000 C
   0.9988800000000000    0.5063299999999999    0.0632250000000000 C
   0.9291400000000000    0.5266600000000000    0.0407950000000000 C
   0.0111800000000000    0.6422500000000000    0.0216300000000000 C
   0.0750600000000000    0.5533300000000000    0.0657000000000000 C
   0.7660000000000000    0.3524700000000000    0.0499350000000000 C
   0.8498500000000000    0.4729600000000000    0.0338100000000000 C
   0.2637600000000000    0.6648200000000000    0.9072200000000000 C
   0.7378500000000000    0.6222400000000000    0.9031050000000000 C
   0.7920000000000000    0.5753000000000000    0.8732900000000000 C
   0.8482900000000000    0.4749500000000000    0.9139950000000000 C
   0.9198100000000000    0.3775900000000000    0.9545850000000000 C
   0.0645900000000000    0.4048300000000000    0.9794450000000000 C
   0.0000000000000000    0.3573100000000000    0.9779850000000000 C
   0.0012100000000000    0.4932000000000000    0.9364200000000000 C
   0.0710300000000000    0.4729800000000000    0.9588150000000000 C
   0.9250800000000000    0.4461600000000000    0.9339800000000000 C
   0.2339900000000000    0.6468699999999999    0.9488099999999999 C
   0.1502700000000000    0.5267700000000000    0.9656450000000000 C
   0.9913700000000000    0.2741000000000000    0.1019050000000000 C
   0.0290600000000000    0.2307600000000000    0.0640750000000000 C
   0.9755700000000000    0.2918900000000000    0.0049900000000000 C
   0.1278600000000000    0.0148500000000000    0.9253150000000000 C
   0.9239500000000000    0.3836200000000000    0.7498300000000000 C
   0.5251800000000000    0.5283700000000000    0.9319850000000001 C
   0.1300200000000000    0.0886100000000000    0.9596100000000001 C
   0.1215500000000000    0.1972100000000000    0.9186099999999999 C
   0.4419600000000000    0.5479300000000000    0.9130150000000000 C
   0.3342800000000000    0.4438800000000000    0.9260150000000000 C
   0.1049300000000000    0.3084100000000000    0.8779200000000000 C
   0.1270900000000000    0.3825100000000000    0.8643500000000000 C
   0.2318800000000000    0.3204600000000000    0.9221500000000000 C
   0.1563700000000000    0.2768700000000000    0.9066799999999999 C
   0.2039900000000000    0.4248700000000000    0.8789800000000000 C
   0.2562900000000000    0.3938500000000000    0.9077200000000001 C
   0.9330200000000000    0.4047000000000000    0.7967299999999999 C
   0.0669100000000000    0.4223600000000000    0.8384950000000000 C
   0.2361800000000000    0.1826900000000000    0.1669000000000000 C
   0.5088800000000000    0.7953000000000000    0.3622000000000000 C
   0.7624200000000000    0.1931300000000000    0.1887650000000000 C
   0.4707500000000000    0.8705000000000001    0.3840500000000000 C
   0.5245800000000000    0.9887800000000000    0.3537250000000000 C
   0.7080300000000000    0.2527300000000000    0.2121200000000000 C
   0.6516999999999999    0.1714600000000000    0.2623550000000000 C
   0.5803400000000000    0.0900600000000000    0.3110150000000000 C
   0.4356000000000000    0.0403100000000000    0.2974700000000000 C
   0.4988000000000000    0.1264700000000000    0.2532650000000000 C
   0.4290600000000000    0.0815600000000000    0.2634000000000000 C
   0.5110600000000000    0.0431700000000000    0.3211750000000000 C
   0.5749400000000000    0.1314000000000000    0.2767600000000000 C
   0.2659700000000000    0.0998900000000000    0.1763200000000000 C
   0.3497900000000000    0.0676400000000000    0.2365500000000000 C
   0.7637600000000000    0.8144800000000000    0.3324050000000000 C
   0.4914300000000000    0.2038300000000000    0.1372400000000000 C
   0.2377500000000000    0.8062200000000000    0.3111250000000000 C
   0.5291700000000000    0.1282700000000000    0.1155000000000000 C
   0.4756400000000000    0.0100900000000000    0.1460200000000000 C
   0.2919600000000000    0.7466100000000000    0.2876800000000000 C
   0.3482800000000000    0.8280400000000000    0.2375100000000000 C
   0.4198300000000000    0.9092400000000000    0.1888400000000000 C
   0.5012000000000000    0.8728900000000001    0.2466350000000000 C
   0.5710300000000000    0.9177000000000000    0.2365250000000000 C
   0.5645900000000000    0.9589700000000000    0.2024550000000000 C
   0.4891900000000000    0.9560400000000000    0.1787000000000000 C
   0.4251000000000000    0.8680099999999999    0.2231200000000000 C
   0.7339700000000000    0.8976700000000000    0.3234500000000000 C
   0.6502800000000000    0.9314000000000000    0.2634150000000000 C
   0.8715000000000001    0.9850200000000000    0.0741450000000000 C
   0.0758700000000000    0.6161000000000000    0.2492850000000000 C
   0.4744600000000000    0.4710600000000000    0.0671450000000000 C
   0.8696000000000000    0.9111000000000000    0.0399750000000000 C
   0.8779700000000000    0.8025600000000001    0.0810600000000000 C
   0.5572300000000000    0.4519900000000000    0.0867550000000000 C
   0.6647900000000000    0.5558000000000000    0.0731750000000000 C
   0.7674500000000000    0.6792800000000000    0.0771750000000000 C
   0.8942700000000000    0.6909200000000000    0.1214750000000000 C
   0.8720500000000000    0.6165800000000000    0.1347950000000000 C
   0.8429600000000000    0.7227600000000000    0.0927900000000000 C
   0.7951900000000000    0.5743300000000000    0.1200300000000000 C
   0.7429200000000000    0.6057100000000000    0.0914150000000000 C
   0.9322900000000000    0.5764600000000000    0.1604600000000000 C
   0.0658900000000000    0.5942800000000000    0.2024500000000000 C
   0.6275900000000000    0.8504699999999999    0.0074600000000000 C
   0.4239700000000000    0.4998300000000000    0.1918250000000000 C
   0.0251500000000000    0.8640400000000000    0.2642450000000000 C
   0.6298899999999999    0.9191700000000000    0.0442950000000000 C
   0.6215400000000000    0.8372700000000000    0.0986350000000000 C
   0.9418800000000001    0.8260900000000000    0.2740000000000000 C
   0.8342600000000000    0.8522999999999999    0.2219950000000000 C
   0.6049500000000000    0.7559700000000000    0.1542600000000000 C
   0.6271000000000000    0.7288900000000000    0.1913200000000000 C
   0.7318700000000000    0.8445200000000000    0.1602750000000000 C
   0.6563800000000000    0.8134900000000000    0.1384750000000000 C
   0.7039800000000001    0.7582000000000000    0.2124900000000000 C
   0.7562700000000000    0.8157100000000000    0.1969750000000000 C
   0.4330100000000000    0.5936300000000000    0.2024200000000000 C
   0.5669400000000000    0.6771500000000000    0.2112550000000000 C
   0.3715300000000000    0.1481500000000000    0.4924900000000000 C
   0.5759000000000000    0.4985800000000000    0.3080600000000000 C
   0.9744900000000000    0.1355900000000000    0.2357150000000000 C
   0.3696300000000000    0.0798300000000000    0.4555200000000000 C
   0.3780000000000000    0.1620500000000000    0.4012750000000000 C
   0.0575200000000000    0.1740100000000000    0.2259950000000000 C
   0.1648000000000000    0.1465500000000000    0.2779100000000000 C
   0.2952900000000000    0.2400800000000000    0.2871950000000000 C
   0.2674700000000000    0.1543200000000000    0.3396450000000000 C
   0.3943200000000000    0.2429300000000000    0.3454800000000000 C
   0.3430000000000000    0.1855300000000000    0.3613850000000000 C
   0.3721300000000000    0.2695800000000000    0.3083200000000000 C
   0.2429800000000000    0.1828300000000000    0.3028700000000000 C
   0.5659500000000000    0.4049000000000000    0.2971600000000000 C
   0.4323600000000000    0.3209300000000000    0.2882600000000000 C
   0.1278600000000000    0.0148500000000000    0.4253150000000000 C
   0.9239500000000000    0.3836200000000000    0.2498300000000000 C
   0.5251800000000000    0.5283700000000000    0.4319850000000000 C
   0.1300200000000000    0.0886100000000000    0.4596100000000000 C
   0.1215500000000000    0.1972100000000000    0.4186100000000000 C
   0.4419600000000000    0.5479300000000000    0.4130150000000000 C
   0.3342800000000000    0.4438800000000000    0.4260150000000000 C
   0.1049300000000000    0.3084100000000000    0.3779200000000000 C
   0.1270900000000000    0.3825100000000000    0.3643500000000000 C
   0.2318800000000000    0.3204600000000000    0.4221500000000000 C