H12 O8
1.0
  16.1309496377845676    0.0000000000000000   -1.0790517982274939
  -1.2678832194421634   16.2607058380094003   -2.4294068806159301
   0.0000000000000000    0.0000000000000000   32.9840000000000018
H O
12 8
direct
   0.4283794475309951    0.1488094557739875    0.0523172981396029 H
   0.3163206749296907    0.2122299310993575    1.0223940718482638 H
   0.1601750036130229    0.1298757868353315    0.7766568462170523 H
   0.9580632416490168    0.0736293246250032    0.6795334115503588 H
   0.9679515768381597    0.1301847014291756    0.7523761252795148 H
   0.9689375755393383    0.1665092587554530    0.7988447461340723 H
   0.4310835427676856    0.3206672643775682    0.7799061019384291 H
   0.4443782864685622    0.3095343880028700    0.7721777673646818 H
   0.6925956753340025    0.5044346969608358    0.7897646726959530 H
   0.4635968343042003    0.5173521325223537    0.8301765075487921 H
   0.5760227832522127    0.5044915244521527    0.8097195214076293 H
   0.3819846720817535    0.2384643571196567    0.3803862575670750 H
   0.4236200000000000    0.1462200000000000    0.0226750000000000 O
   0.3197600000000000    0.2046100000000000    0.9928450000000000 O
   0.1438000000000000    0.0708400000000000    0.7722200000000000 O
   0.9310200000000000    0.0940100000000000    0.7039750000000000 O
   0.9475500000000000    0.1455600000000000    0.7708150000000000 O
   0.4265300000000000    0.3197300000000000    0.7501050000000000 O
   0.6454200000000000    0.5316100000000000    0.8004100000000001 O
   0.5172800000000000    0.5383300000000000    0.8229750000000000 O
