Zn128 H576 C1140 O416
1.0
  34.4480000000000004    0.0000000000000000    0.0000000000000021
   0.0000000000000055   34.4664234831022114   -0.3296608612807630
   0.0000000000000000    0.0000000000000000   34.5840000000000032
Zn H C O
128 576 1140 416
direct
   0.1783750000000000    0.8845750000000000    0.1777650000000000 Zn
   0.4321300000000000    0.1240800000000000    0.8299400000000000 Zn
   0.2928450000000000    0.0862000000000000    0.5000000000000000 Zn
   0.2130500000000000    0.1324050000000000    0.5000000000000000 Zn
   0.2595050000000000    0.1292950000000000    0.5745300000000000 Zn
   0.9710900000000000    0.9547749999999999    0.4654850000000000 Zn
   0.0393300000000000    0.9225150000000000    0.5017000000000000 Zn
   0.9679850000000000    0.8763300000000001    0.5051250000000000 Zn
   0.0066950000000000    0.8784900000000000    0.4331650000000000 Zn
   0.2166800000000000    0.0536600000000000    0.5421350000000000 Zn
   0.4729550000000000    0.2001600000000000    0.7947450000000000 Zn
   0.4777300000000000    0.1200550000000000    0.7491950000000001 Zn
   0.3967000000000000    0.1646250000000000    0.7537250000000000 Zn
   0.2189050000000000    0.8084850000000000    0.2131000000000000 Zn
   0.2237500000000000    0.8886650000000000    0.2586100000000000 Zn
   0.1427100000000000    0.8441449999999999    0.2540500000000000 Zn
   0.1783750000000000    0.8845750000000000    0.6777650000000000 Zn
   0.9710900000000000    0.9547749999999999    0.9654849999999999 Zn
   0.0393300000000000    0.9225150000000000    0.0017000000000000 Zn
   0.9679850000000000    0.8763300000000001    0.0051250000000000 Zn
   0.0066950000000000    0.8784900000000000    0.9331650000000000 Zn
   0.2189050000000000    0.8084850000000000    0.7131000000000001 Zn
   0.2237500000000000    0.8886650000000000    0.7586100000000000 Zn
   0.1427100000000000    0.8441449999999999    0.7540500000000000 Zn
   0.4321300000000000    0.1240800000000000    0.3299400000000000 Zn
   0.2166800000000000    0.0536600000000000    0.0421350000000000 Zn
   0.2928450000000000    0.0862000000000000    0.0000000000000000 Zn
   0.2130500000000000    0.1324050000000000    0.0000000000000000 Zn
   0.2595050000000000    0.1292950000000000    0.0745300000000000 Zn
   0.4729550000000000    0.2001600000000000    0.2947450000000000 Zn
   0.4777300000000000    0.1200550000000000    0.2491950000000000 Zn
   0.3967000000000000    0.1646250000000000    0.2537250000000000 Zn
   0.1783750000000000    0.3845750000000000    0.1777650000000000 Zn
   0.4321300000000000    0.6240800000000000    0.8299400000000000 Zn
   0.2928450000000000    0.5862000000000001    0.5000000000000000 Zn
   0.2130500000000000    0.6324050000000000    0.5000000000000000 Zn
   0.2595050000000000    0.6292949999999999    0.5745300000000000 Zn
   0.9710900000000000    0.4547750000000000    0.4654850000000000 Zn
   0.0393300000000000    0.4225150000000000    0.5017000000000000 Zn
   0.9679850000000000    0.3763300000000000    0.5051250000000000 Zn
   0.0066950000000000    0.3784900000000000    0.4331650000000000 Zn
   0.2166800000000000    0.5536600000000000    0.5421350000000000 Zn
   0.4729550000000000    0.7001600000000000    0.7947450000000000 Zn
   0.4777300000000000    0.6200550000000000    0.7491950000000001 Zn
   0.3967000000000000    0.6646250000000000    0.7537250000000000 Zn
   0.2189050000000000    0.3084850000000000    0.2131000000000000 Zn
   0.2237500000000000    0.3886650000000000    0.2586100000000000 Zn
   0.1427100000000000    0.3441450000000000    0.2540500000000000 Zn
   0.1783750000000000    0.3845750000000000    0.6777650000000000 Zn
   0.4321300000000000    0.6240800000000000    0.3299400000000000 Zn
   0.2130500000000000    0.6324050000000000    0.0000000000000000 Zn
   0.2928450000000000    0.5862000000000001    0.0000000000000000 Zn
   0.9710900000000000    0.4547750000000000    0.9654849999999999 Zn
   0.0393300000000000    0.4225150000000000    0.0017000000000000 Zn
   0.9679850000000000    0.3763300000000000    0.0051250000000000 Zn
   0.0066950000000000    0.3784900000000000    0.9331650000000000 Zn
   0.2595050000000000    0.6292949999999999    0.0745300000000000 Zn
   0.2166800000000000    0.5536600000000000    0.0421350000000000 Zn
   0.4729550000000000    0.7001600000000000    0.2947450000000000 Zn
   0.4777300000000000    0.6200550000000000    0.2491950000000000 Zn
   0.3967000000000000    0.6646250000000000    0.2537250000000000 Zn
   0.2189050000000000    0.3084850000000000    0.7131000000000001 Zn
   0.2237500000000000    0.3886650000000000    0.7586100000000000 Zn
   0.1427100000000000    0.3441450000000000    0.7540500000000000 Zn
   0.6783750000000000    0.3845750000000000    0.1777650000000000 Zn
   0.9321300000000000    0.6240800000000000    0.8299400000000000 Zn
   0.7928450000000000    0.5862000000000001    0.5000000000000000 Zn
   0.7130500000000000    0.6324050000000000    0.5000000000000000 Zn
   0.7595050000000000    0.6292949999999999    0.5745300000000000 Zn
   0.4710900000000000    0.4547750000000000    0.4654850000000000 Zn
   0.5393300000000000    0.4225150000000000    0.5017000000000000 Zn
   0.4679850000000000    0.3763300000000000    0.5051250000000000 Zn
   0.5066950000000000    0.3784900000000000    0.4331650000000000 Zn
   0.7166800000000000    0.5536600000000000    0.5421350000000000 Zn
   0.9729550000000000    0.7001600000000000    0.7947450000000000 Zn
   0.9777300000000000    0.6200550000000000    0.7491950000000001 Zn
   0.8967000000000001    0.6646250000000000    0.7537250000000000 Zn
   0.7189050000000000    0.3084850000000000    0.2131000000000000 Zn
   0.7237500000000000    0.3886650000000000    0.2586100000000000 Zn
   0.6427100000000000    0.3441450000000000    0.2540500000000000 Zn
   0.6783750000000000    0.3845750000000000    0.6777650000000000 Zn
   0.9321300000000000    0.6240800000000000    0.3299400000000000 Zn
   0.7928450000000000    0.5862000000000001    0.0000000000000000 Zn
   0.7130500000000000    0.6324050000000000    0.0000000000000000 Zn
   0.7595050000000000    0.6292949999999999    0.0745300000000000 Zn
   0.4710900000000000    0.4547750000000000    0.9654849999999999 Zn
   0.5393300000000000    0.4225150000000000    0.0017000000000000 Zn
   0.4679850000000000    0.3763300000000000    0.0051250000000000 Zn
   0.5066950000000000    0.3784900000000000    0.9331650000000000 Zn
   0.7166800000000000    0.5536600000000000    0.0421350000000000 Zn
   0.9729550000000000    0.7001600000000000    0.2947450000000000 Zn
   0.9777300000000000    0.6200550000000000    0.2491950000000000 Zn
   0.8967000000000001    0.6646250000000000    0.2537250000000000 Zn
   0.7189050000000000    0.3084850000000000    0.7131000000000001 Zn
   0.7237500000000000    0.3886650000000000    0.7586100000000000 Zn
   0.6427100000000000    0.3441450000000000    0.7540500000000000 Zn
   0.6783750000000000    0.8845750000000000    0.1777650000000000 Zn
   0.9321300000000000    0.1240800000000000    0.8299400000000000 Zn
   0.7928450000000000    0.0862000000000000    0.5000000000000000 Zn
   0.7130500000000000    0.1324050000000000    0.5000000000000000 Zn
   0.7595050000000000    0.1292950000000000    0.5745300000000000 Zn
   0.4710900000000000    0.9547749999999999    0.4654850000000000 Zn
   0.5393300000000000    0.9225150000000000    0.5017000000000000 Zn
   0.4679850000000000    0.8763300000000001    0.5051250000000000 Zn
   0.5066950000000000    0.8784900000000000    0.4331650000000000 Zn
   0.7166800000000000    0.0536600000000000    0.5421350000000000 Zn
   0.9729550000000000    0.2001600000000000    0.7947450000000000 Zn
   0.9777300000000000    0.1200550000000000    0.7491950000000001 Zn
   0.8967000000000001    0.1646250000000000    0.7537250000000000 Zn
   0.7189050000000000    0.8084850000000000    0.2131000000000000 Zn
   0.7237500000000000    0.8886650000000000    0.2586100000000000 Zn
   0.6427100000000000    0.8441449999999999    0.2540500000000000 Zn
   0.6783750000000000    0.8845750000000000    0.6777650000000000 Zn
   0.9321300000000000    0.1240800000000000    0.3299400000000000 Zn
   0.7928450000000000    0.0862000000000000    0.0000000000000000 Zn
   0.7130500000000000    0.1324050000000000    0.0000000000000000 Zn
   0.7595050000000000    0.1292950000000000    0.0745300000000000 Zn
   0.4710900000000000    0.9547749999999999    0.9654849999999999 Zn
   0.5393300000000000    0.9225150000000000    0.0017000000000000 Zn
   0.4679850000000000    0.8763300000000001    0.0051250000000000 Zn
   0.5066950000000000    0.8784900000000000    0.9331650000000000 Zn
   0.7166800000000000    0.0536600000000000    0.0421350000000000 Zn
   0.9729550000000000    0.2001600000000000    0.2947450000000000 Zn
   0.9777300000000000    0.1200550000000000    0.2491950000000000 Zn
   0.8967000000000001    0.1646250000000000    0.2537250000000000 Zn
   0.7189050000000000    0.8084850000000000    0.7131000000000001 Zn
   0.7237500000000000    0.8886650000000000    0.7586100000000000 Zn
   0.6427100000000000    0.8441449999999999    0.7540500000000000 Zn
   0.1632687250574096    0.1130470253452992    1.0238160314694136 H
   0.2029200000000000    0.0000000000000000    0.1382900000000000 H
   0.2820100000000000    0.9775250000000000    0.2537300000000000 H
   0.3295750000000000    0.0046650000000000    0.2865150000000000 H
   0.2916250000000000    0.0976300000000000    0.1721500000000000 H
   0.3378050000000000    0.1070150000000000    0.2211200000000000 H
   0.3542400000000000    0.0660750000000000    0.2721950000000000 H
   0.6005450000000000    0.9425900000000000    0.7356100000000000 H
   0.5841950000000000    0.9016700000000000    0.7867299999999999 H
   0.5380100000000000    0.9110199999999999    0.8357000000000000 H
   0.4567250000000000    0.0079500000000000    0.8695700000000000 H
   0.5758000000000000    0.0000000000000000    0.7212550000000000 H
   0.5274000000000000    0.0311050000000000    0.7540000000000000 H
   0.4938550000000000    0.0000000000000000    0.5595900000000000 H
   0.4402650000000000    0.0066600000000000    0.5200950000000000 H
   0.3901200000000000    0.0513750000000000    0.5310650000000000 H
   0.5000000000000000    0.0161100000000000    0.6212500000000000 H
   0.4746800000000000    0.0625450000000000    0.6585799999999999 H
   0.3571200000000000    0.1399950000000000    0.6377500000000000 H
   0.1479850000000000    0.3815350000000000    0.5000000000000000 H
   0.1442850000000000    0.3453350000000000    0.4586500000000000 H
   0.1621750000000000    0.2809400000000000    0.4471550000000000 H
   0.1886150000000000    0.2357700000000000    0.4902850000000000 H
   0.1731650000000000    0.3628250000000000    0.5687949999999999 H
   0.2306950000000000    0.2431100000000000    0.6180950000000001 H
   0.2871400000000000    0.1687300000000000    0.2728900000000000 H
   0.1564150000000000    0.1796700000000000    0.3519900000000000 H
   0.1994000000000000    0.1537350000000000    0.3978400000000000 H
   0.1687050000000000    0.1974400000000000    0.2880800000000000 H
   0.2266150000000000    0.1935300000000000    0.2531500000000000 H
   0.3359350000000000    0.1136100000000000    0.3935750000000000 H
   0.7795200000000000    0.8602850000000000    0.6294299999999999 H
   0.7402150000000001    0.9142350000000000    0.6169900000000000 H
   0.7501249999999999    0.9644600000000000    0.5728000000000000 H
   0.8755999999999999    0.8772750000000000    0.5553300000000000 H
   0.8394150000000000    0.8438399999999999    0.6019750000000000 H
   0.8545800000000000    0.9972000000000000    0.4906050000000000 H
   0.0248350000000000    0.1481150000000000    0.3778650000000000 H
   0.9938750000000001    0.0941450000000000    0.3903100000000000 H
   0.0000000000000000    0.0440700000000000    0.4346000000000000 H
   0.1207700000000000    0.1312600000000000    0.4521900000000000 H
   0.0846600000000000    0.1646150000000000    0.4054250000000000 H
   0.1001350000000000    0.0114650000000000    0.5170850000000000 H
   0.0821700000000000    0.8951950000000000    0.6141000000000000 H
   0.9109650000000000    0.8291800000000000    0.6555700000000000 H
   0.9540050000000000    0.8551100000000000    0.6097600000000000 H
   0.9231900000000000    0.8114450000000000    0.7195100000000000 H
   0.0332500000000000    0.8401750000000000    0.7348100000000000 H
   0.9810600000000000    0.8153950000000000    0.7544550000000000 H
   0.2203350000000000    0.9466399999999999    0.3487400000000000 H
   0.2539150000000000    0.9932799999999999    0.3857250000000000 H
   0.2391450000000000    0.0085050000000000    0.4476400000000000 H
   0.1868700000000000    0.0000000000000000    0.4875700000000000 H
   0.1367850000000000    0.9573400000000001    0.4769400000000000 H
   0.1034600000000000    0.8684400000000000    0.3704850000000000 H
   0.9260349999999999    0.6460950000000000    0.4391100000000000 H
   0.9010100000000000    0.6279100000000000    0.4918750000000000 H
   0.8974100000000000    0.6643800000000000    0.5490250000000000 H
   0.9162100000000000    0.7285699999999999    0.5604550000000000 H
   0.9437599999999999    0.7731200000000000    0.5173500000000000 H
   0.9856800000000000    0.7647750000000000    0.3897550000000000 H
   0.5607900000000000    0.1227050000000000    0.6951499999999999 H
   0.5986250000000000    0.0883500000000000    0.6498400000000000 H
   0.6595000000000000    0.1042250000000000    0.6245050000000000 H
   0.6978650000000000    0.1589050000000000    0.6374649999999999 H
   0.6859700000000000    0.2105700000000000    0.6805450000000000 H
   0.5780650000000001    0.2450850000000000    0.7666550000000000 H
   0.3152550000000000    0.8861049999999999    0.3127450000000000 H
   0.3531700000000000    0.9203600000000001    0.3580600000000000 H
   0.4140150000000000    0.9043800000000000    0.3833900000000000 H
   0.4403050000000000    0.7980400000000001    0.3272600000000000 H
   0.4522950000000000    0.8496349999999999    0.3704000000000000 H
   0.3323800000000000    0.7637400000000000    0.2411150000000000 H
   0.2029200000000000    0.0000000000000000    0.6382900000000000 H
   0.2820100000000000    0.9775250000000000    0.7537300000000000 H
   0.3295750000000000    0.0046650000000000    0.7865150000000001 H
   0.2916250000000000    0.0976300000000000    0.6721500000000000 H
   0.3378050000000000    0.1070150000000000    0.7211200000000000 H
   0.3542400000000000    0.0660750000000000    0.7721950000000000 H
   0.7795200000000000    0.8602850000000000    0.1294300000000000 H
   0.7402150000000001    0.9142350000000000    0.1169900000000000 H
   0.7501249999999999    0.9644600000000000    0.0728000000000000 H
   0.8755999999999999    0.8772750000000000    0.0553300000000000 H
   0.8394150000000000    0.8438399999999999    0.1019750000000000 H
   0.8545800000000000    0.9972000000000000    0.9906050000000000 H
   0.0821700000000000    0.8951950000000000    0.1141000000000000 H
   0.9109650000000000    0.8291800000000000    0.1555700000000000 H
   0.9540050000000000    0.8551100000000000    0.1097600000000000 H
   0.9231900000000000    0.8114450000000000    0.2195100000000000 H
   0.0332500000000000    0.8401750000000000    0.2348100000000000 H
   0.9810600000000000    0.8153950000000000    0.2544550000000000 H
   0.2203350000000000    0.9466399999999999    0.8487400000000000 H
   0.2539150000000000    0.9932799999999999    0.8857250000000000 H
   0.2391450000000000    0.0085050000000000    0.9476400000000000 H
   0.1868700000000000    0.0000000000000000    0.9875700000000001 H
   0.1367850000000000    0.9573400000000001    0.9769399999999999 H
   0.1034600000000000    0.8684400000000000    0.8704850000000000 H
   0.0119793471227339   -0.0254192495990793    0.9688639158141930 H
   0.0495899525292795    0.9551860553495916    0.0108259598815067 H
   0.9260349999999999    0.6460950000000000    0.9391100000000000 H
   0.9010100000000000    0.6279100000000000    0.9918750000000001 H
   0.8974100000000000    0.6643800000000000    0.0490250000000000 H
   0.9162100000000000    0.7285699999999999    0.0604550000000000 H
   0.9437599999999999    0.7731200000000000    0.0173500000000000 H
   0.9856800000000000    0.7647750000000000    0.8897550000000001 H
   0.3152550000000000    0.8861049999999999    0.8127450000000001 H
   0.3531700000000000    0.9203600000000001    0.8580600000000000 H
   0.4140150000000000    0.9043800000000000    0.8833900000000000 H
   0.4403050000000000    0.7980400000000001    0.8272600000000000 H
   0.4522950000000000    0.8496349999999999    0.8704000000000001 H
   0.3323800000000000    0.7637400000000000    0.7411150000000000 H
   0.6005450000000000    0.9425900000000000    0.2356100000000000 H
   0.5841950000000000    0.9016700000000000    0.2867300000000000 H
   0.5380100000000000    0.9110199999999999    0.3357000000000000 H
   0.4567250000000000    0.0079500000000000    0.3695700000000000 H
   0.5758000000000000    0.0000000000000000    0.2212550000000000 H
   0.5274000000000000    0.0311050000000000    0.2540000000000000 H
   0.1688529426758481    0.0490274787571347    0.0447902486117967 H
   0.4938550000000000    0.0000000000000000    0.0595900000000000 H
   0.4402650000000000    0.0066600000000000    0.0200950000000000 H
   0.3901200000000000    0.0513750000000000    0.0310650000000000 H
   0.5000000000000000    0.0161100000000000    0.1212500000000000 H
   0.4746800000000000    0.0625450000000000    0.1585800000000000 H
   0.3571200000000000    0.1399950000000000    0.1377500000000000 H
   0.1479850000000000    0.3815350000000000    0.0000000000000000 H
   0.1442850000000000    0.3453350000000000    0.9586500000000000 H
   0.1621750000000000    0.2809400000000000    0.9471550000000000 H
   0.1886150000000000    0.2357700000000000    0.9902850000000001 H
   0.1731650000000000    0.3628250000000000    0.0687950000000000 H
   0.2306950000000000    0.2431100000000000    0.1180950000000000 H
   0.2871400000000000    0.1687300000000000    0.7728900000000001 H
   0.1564150000000000    0.1796700000000000    0.8519900000000000 H
   0.1994000000000000    0.1537350000000000    0.8978400000000000 H
   0.1687050000000000    0.1974400000000000    0.7880800000000000 H
   0.2266150000000000    0.1935300000000000    0.7531500000000000 H
   0.3359350000000000    0.1136100000000000    0.8935750000000000 H
   0.5607900000000000    0.1227050000000000    0.1951500000000000 H
   0.5986250000000000    0.0883500000000000    0.1498400000000000 H
   0.6595000000000000    0.1042250000000000    0.1245050000000000 H
   0.6978650000000000    0.1589050000000000    0.1374650000000000 H
   0.6859700000000000    0.2105700000000000    0.1805450000000000 H
   0.5780650000000001    0.2450850000000000    0.2666550000000000 H
   0.2029200000000000    0.5000000000000000    0.1382900000000000 H
   0.2820100000000000    0.4775250000000000    0.2537300000000000 H
   0.3295750000000000    0.5046650000000000    0.2865150000000000 H
   0.2916250000000000    0.5976300000000000    0.1721500000000000 H
   0.3378050000000000    0.6070150000000000    0.2211200000000000 H
   0.3542400000000000    0.5660750000000000    0.2721950000000000 H
   0.6005450000000000    0.4425900000000000    0.7356100000000000 H
   0.5841950000000000    0.4016700000000000    0.7867299999999999 H
   0.5380100000000000    0.4110200000000000    0.8357000000000000 H
   0.4567250000000000    0.5079500000000000    0.8695700000000000 H
   0.5758000000000000    0.5000000000000000    0.7212550000000000 H
   0.5274000000000000    0.5311050000000000    0.7540000000000000 H
   0.4938550000000000    0.5000000000000000    0.5595900000000000 H
   0.4402650000000000    0.5066600000000000    0.5200950000000000 H
   0.3901200000000000    0.5513749999999999    0.5310650000000000 H
   0.5000000000000000    0.5161100000000000    0.6212500000000000 H
   0.4746800000000000    0.5625450000000000    0.6585799999999999 H
   0.3571200000000000    0.6399950000000000    0.6377500000000000 H
   0.1479850000000000    0.8815350000000000    0.5000000000000000 H
   0.1442850000000000    0.8453349999999999    0.4586500000000000 H
   0.1621750000000000    0.7809400000000000    0.4471550000000000 H
   0.1886150000000000    0.7357700000000000    0.4902850000000000 H
   0.1731650000000000    0.8628250000000000    0.5687949999999999 H
   0.2306950000000000    0.7431099999999999    0.6180950000000001 H
   0.2871400000000000    0.6687300000000000    0.2728900000000000 H
   0.1564150000000000    0.6796700000000000    0.3519900000000000 H
   0.1994000000000000    0.6537350000000000    0.3978400000000000 H
   0.1687050000000000    0.6974400000000001    0.2880800000000000 H
   0.2266150000000000    0.6935300000000000    0.2531500000000000 H
   0.3359350000000000    0.6136100000000000    0.3935750000000000 H
   0.7795200000000000    0.3602850000000000    0.6294299999999999 H
   0.7402150000000001    0.4142350000000000    0.6169900000000000 H
   0.7501249999999999    0.4644600000000000    0.5728000000000000 H
   0.8755999999999999    0.3772750000000000    0.5553300000000000 H
   0.8394150000000000    0.3438400000000000    0.6019750000000000 H
   0.8545800000000000    0.4972000000000000    0.4906050000000000 H
   0.0248350000000000    0.6481150000000000    0.3778650000000000 H
   0.9938750000000001    0.5941450000000000    0.3903100000000000 H
   0.0000000000000000    0.5440700000000001    0.4346000000000000 H
   0.1207700000000000    0.6312599999999999    0.4521900000000000 H
   0.0846600000000000    0.6646150000000000    0.4054250000000000 H
   0.1001350000000000    0.5114649999999999    0.5170850000000000 H
   0.0821700000000000    0.3951950000000000    0.6141000000000000 H
   0.9109650000000000    0.3291800000000000    0.6555700000000000 H
   0.9540050000000000    0.3551100000000000    0.6097600000000000 H
   0.9231900000000000    0.3114450000000000    0.7195100000000000 H
   0.0332500000000000    0.3401750000000000    0.7348100000000000 H
   0.9810600000000000    0.3153950000000000    0.7544550000000000 H
   0.2203350000000000    0.4466400000000000    0.3487400000000000 H
   0.2539150000000000    0.4932800000000000    0.3857250000000000 H
   0.2391450000000000    0.5085050000000000    0.4476400000000000 H
   0.1868700000000000    0.5000000000000000    0.4875700000000000 H
   0.1367850000000000    0.4573400000000000    0.4769400000000000 H
   0.1034600000000000    0.3684400000000000    0.3704850000000000 H
   0.9260349999999999    0.1460950000000000    0.4391100000000000 H
   0.9010100000000000    0.1279100000000000    0.4918750000000000 H
   0.8974100000000000    0.1643800000000000    0.5490250000000000 H
   0.9162100000000000    0.2285700000000000    0.5604550000000000 H
   0.9437599999999999    0.2731200000000000    0.5173500000000000 H
   0.9856800000000000    0.2647750000000000    0.3897550000000000 H
   0.5607900000000000    0.6227050000000000    0.6951499999999999 H
   0.5986250000000000    0.5883500000000000    0.6498400000000000 H
   0.6595000000000000    0.6042250000000000    0.6245050000000000 H
   0.6978650000000000    0.6589050000000000    0.6374649999999999 H
   0.6859700000000000    0.7105700000000000    0.6805450000000000 H
   0.5780650000000001    0.7450850000000000    0.7666550000000000 H
   0.3152550000000000    0.3861050000000000    0.3127450000000000 H
   0.3531700000000000    0.4203600000000000    0.3580600000000000 H
   0.4140150000000000    0.4043800000000000    0.3833900000000000 H
   0.4403050000000000    0.2980400000000000    0.3272600000000000 H
   0.4522950000000000    0.3496350000000000    0.3704000000000000 H
   0.3323800000000000    0.2637400000000000    0.2411150000000000 H
   0.2029200000000000    0.5000000000000000    0.6382900000000000 H
   0.2820100000000000    0.4775250000000000    0.7537300000000000 H
   0.3295750000000000    0.5046650000000000    0.7865150000000001 H
   0.2916250000000000    0.5976300000000000    0.6721500000000000 H
   0.3378050000000000    0.6070150000000000    0.7211200000000000 H
   0.3542400000000000    0.5660750000000000    0.7721950000000000 H
   0.6005450000000000    0.4425900000000000    0.2356100000000000 H
   0.5841950000000000    0.4016700000000000    0.2867300000000000 H
   0.5380100000000000    0.4110200000000000    0.3357000000000000 H
   0.4567250000000000    0.5079500000000000    0.3695700000000000 H
   0.5758000000000000    0.5000000000000000    0.2212550000000000 H
   0.5274000000000000    0.5311050000000000    0.2540000000000000 H
   0.7795200000000000    0.3602850000000000    0.1294300000000000 H
   0.7402150000000001    0.4142350000000000    0.1169900000000000 H
   0.7501249999999999    0.4644600000000000    0.0728000000000000 H
   0.8755999999999999    0.3772750000000000    0.0553300000000000 H
   0.8394150000000000    0.3438400000000000    0.1019750000000000 H
   0.8545800000000000    0.4972000000000000    0.9906050000000000 H
   0.4938550000000000    0.5000000000000000    0.0595900000000000 H
   0.4402650000000000    0.5066600000000000    0.0200950000000000 H
   0.3901200000000000    0.5513749999999999    0.0310650000000000 H
   0.5000000000000000    0.5161100000000000    0.1212500000000000 H
   0.4746800000000000    0.5625450000000000    0.1585800000000000 H
   0.3571200000000000    0.6399950000000000    0.1377500000000000 H
   0.1479850000000000    0.8815350000000000    0.0000000000000000 H
   0.1442850000000000    0.8453349999999999    0.9586500000000000 H
   0.1621750000000000    0.7809400000000000    0.9471550000000000 H
   0.1886150000000000    0.7357700000000000    0.9902850000000001 H
   0.1731650000000000    0.8628250000000000    0.0687950000000000 H
   0.2306950000000000    0.7431099999999999    0.1180950000000000 H
   0.1965443501332475    0.6394881355461944    0.9852431633019288 H
   0.0248350000000000    0.6481150000000000    0.8778650000000000 H
   0.9938750000000001    0.5941450000000000    0.8903099999999999 H
   0.0000000000000000    0.5440700000000001    0.9346000000000000 H
   0.1207700000000000    0.6312599999999999    0.9521900000000000 H
   0.0846600000000000    0.6646150000000000    0.9054249999999999 H
   0.1001350000000000    0.5114649999999999    0.0170850000000000 H
   0.2871400000000000    0.6687300000000000    0.7728900000000001 H
   0.1564150000000000    0.6796700000000000    0.8519900000000000 H
   0.1994000000000000    0.6537350000000000    0.8978400000000000 H
   0.1687050000000000    0.6974400000000001    0.7880800000000000 H
   0.2266150000000000    0.6935300000000000    0.7531500000000000 H
   0.3359350000000000    0.6136100000000000    0.8935750000000000 H
   0.0821700000000000    0.3951950000000000    0.1141000000000000 H
   0.9109650000000000    0.3291800000000000    0.1555700000000000 H
   0.9540050000000000    0.3551100000000000    0.1097600000000000 H
   0.9231900000000000    0.3114450000000000    0.2195100000000000 H
   0.0332500000000000    0.3401750000000000    0.2348100000000000 H
   0.9810600000000000    0.3153950000000000    0.2544550000000000 H
   0.2203350000000000    0.4466400000000000    0.8487400000000000 H
   0.2539150000000000    0.4932800000000000    0.8857250000000000 H
   0.2391450000000000    0.5085050000000000    0.9476400000000000 H
   0.1868700000000000    0.5000000000000000    0.9875700000000001 H
   0.1367850000000000    0.4573400000000000    0.9769399999999999 H
   0.1034600000000000    0.3684400000000000    0.8704850000000000 H
   0.9260349999999999    0.1460950000000000    0.9391100000000000 H
   0.9010100000000000    0.1279100000000000    0.9918750000000001 H
   0.8974100000000000    0.1643800000000000    0.0490250000000000 H
   0.9162100000000000    0.2285700000000000    0.0604550000000000 H
   0.9437599999999999    0.2731200000000000    0.0173500000000000 H
   0.9856800000000000    0.2647750000000000    0.8897550000000001 H
   0.5607900000000000    0.6227050000000000    0.1951500000000000 H
   0.5986250000000000    0.5883500000000000    0.1498400000000000 H
   0.6595000000000000    0.6042250000000000    0.1245050000000000 H
   0.6978650000000000    0.6589050000000000    0.1374650000000000 H
   0.6859700000000000    0.7105700000000000    0.1805450000000000 H
   0.5780650000000001    0.7450850000000000    0.2666550000000000 H
   0.3152550000000000    0.3861050000000000    0.8127450000000001 H
   0.3531700000000000    0.4203600000000000    0.8580600000000000 H
   0.4140150000000000    0.4043800000000000    0.8833900000000000 H
   0.4403050000000000    0.2980400000000000    0.8272600000000000 H
   0.4522950000000000    0.3496350000000000    0.8704000000000001 H
   0.3323800000000000    0.2637400000000000    0.7411150000000000 H
   0.7029200000000000    0.5000000000000000    0.1382900000000000 H
   0.7820100000000000    0.4775250000000000    0.2537300000000000 H
   0.8295750000000000    0.5046650000000000    0.2865150000000000 H
   0.7916250000000000    0.5976300000000000    0.1721500000000000 H
   0.8378050000000000    0.6070150000000000    0.2211200000000000 H
   0.8542400000000000    0.5660750000000000    0.2721950000000000 H
   0.1005450000000000    0.4425900000000000    0.7356100000000000 H
   0.0841950000000000    0.4016700000000000    0.7867299999999999 H
   0.0380100000000000    0.4110200000000000    0.8357000000000000 H
   0.9567250000000000    0.5079500000000000    0.8695700000000000 H
   0.0758000000000000    0.5000000000000000    0.7212550000000000 H
   0.0274000000000000    0.5311050000000000    0.7540000000000000 H
   0.9938549999999999    0.5000000000000000    0.5595900000000000 H
   0.9402650000000000    0.5066600000000000    0.5200950000000000 H
   0.8901200000000000    0.5513749999999999    0.5310650000000000 H
   0.0000000000000000    0.5161100000000000    0.6212500000000000 H
   0.9746800000000000    0.5625450000000000    0.6585799999999999 H
   0.8571200000000000    0.6399950000000000    0.6377500000000000 H
   0.6479850000000000    0.8815350000000000    0.5000000000000000 H
   0.6442850000000000    0.8453349999999999    0.4586500000000000 H