H3 C9 O6
1.0
  13.1225434985870244    0.0000000000000000    1.5856784439763933
   4.8677362273968052   12.1721850609601816    1.5437146310851855
   0.0000000000000000    0.0000000000000000   37.0339999999999989
H C O
3 9 6
direct
   0.3882500000000000    0.6195900000000000    0.1663550000000000 H
   0.5497500000000000    0.4562500000000000    0.1869600000000000 H
   0.5899000000000000    0.8129900000000000    0.1490150000000000 H
   0.3846400000000000    0.8236300000000000    0.1433250000000000 C
   0.4800100000000000    0.7260100000000000    0.1564900000000000 C
   0.4677300000000000    0.6255900000000000    0.1673950000000000 C
   0.5571600000000000    0.5352700000000000    0.1788200000000000 C
   0.6598100000000000    0.5433100000000000    0.1799550000000000 C
   0.6722000000000000    0.6444900000000000    0.1694900000000000 C
   0.5819200000000000    0.7344000000000001    0.1575750000000000 C
   0.7528700000000000    0.4435600000000000    0.1915750000000000 C
   0.7769100000000000    0.6641000000000000    0.1709350000000000 C
   0.2904900000000000    0.8175900000000000    0.1481200000000000 O
   0.4066100000000000   -0.0935400000000000    0.1283900000000000 O
   0.8501500000000000    0.4443800000000000    0.1905200000000000 O
   0.7374000000000001    0.3538200000000000    0.2027950000000000 O
   0.8008300000000000    0.6844300000000000    0.1999250000000000 O
   0.8307700000000000    0.6661100000000000    0.1390950000000000 O
