H2 C2 N3
1.0
  13.1225434985870244    0.0000000000000000    1.5856784439763933
   4.8677362273968052   12.1721850609601816    1.5437146310851855
   0.0000000000000000    0.0000000000000000   37.0339999999999989
H C N
2 2 3
direct
   0.9279600000000000    0.0549100000000000    0.6759999999999999 H
   0.1360300000000000    0.2344900000000000    0.6636850000000000 H
   0.9966000000000000    0.0808900000000000    0.6680550000000001 C
   0.1018300000000000    0.1724800000000000    0.6620200000000001 C
   0.0838800000000000    0.0262500000000000    0.6465500000000000 N
   0.1512400000000000    0.0851900000000000    0.6428650000000000 N
   0.0000000000000000    0.1732600000000000    0.6785550000000000 N
