Cu80 H83 C474 N711 O4
1.0
  37.3226926874484093    0.0000000000000000    4.7599617181533249
   2.9942690400129526   24.8501424474452328    2.1493387954672487
   0.0000000000000000    0.0000000000000000   25.1340000000000003
Cu H C N O
80 83 474 711 4
direct
   0.1812300000000000    0.1781050000000000    0.4702850000000000 Cu
   0.2188320000000000    0.3218900000000000    0.0296900000000000 Cu
   0.1812300000000000    0.1781050000000000    0.9702850000000001 Cu
   0.2188320000000000    0.3218900000000000    0.5296900000000000 Cu
   0.3186700000000000    0.5297450000000000    0.8218850000000000 Cu
   0.2813160000000000    0.9702700000000000    0.6781100000000000 Cu
   0.3186700000000000    0.0297450000000000    0.8218850000000000 Cu
   0.2813160000000000    0.4702700000000000    0.6781100000000000 Cu
   0.1812300000000000    0.6781050000000000    0.4702850000000000 Cu
   0.2188320000000000    0.8218900000000000    0.0296900000000000 Cu
   0.1812300000000000    0.6781050000000000    0.9702850000000001 Cu
   0.2188320000000000    0.8218900000000000    0.5296900000000000 Cu
   0.3186700000000000    0.5297450000000000    0.3218850000000000 Cu
   0.2813160000000000    0.9702700000000000    0.1781100000000000 Cu
   0.3186700000000000    0.0297450000000000    0.3218850000000000 Cu
   0.2813160000000000    0.4702700000000000    0.1781100000000000 Cu
   0.3812300000000000    0.1781050000000000    0.4702850000000000 Cu
   0.4188320000000000    0.3218900000000000    0.0296900000000000 Cu
   0.3812300000000000    0.1781050000000000    0.9702850000000001 Cu
   0.4188320000000000    0.3218900000000000    0.5296900000000000 Cu
   0.5186700000000001    0.0297450000000000    0.8218850000000000 Cu
   0.4813160000000000    0.4702700000000000    0.6781100000000000 Cu
   0.5186700000000001    0.5297450000000000    0.8218850000000000 Cu
   0.4813160000000000    0.9702700000000000    0.6781100000000000 Cu
   0.3812300000000000    0.6781050000000000    0.4702850000000000 Cu
   0.4188320000000000    0.8218900000000000    0.0296900000000000 Cu
   0.3812300000000000    0.6781050000000000    0.9702850000000001 Cu
   0.4188320000000000    0.8218900000000000    0.5296900000000000 Cu
   0.5186700000000001    0.5297450000000000    0.3218850000000000 Cu
   0.4813160000000000    0.9702700000000000    0.1781100000000000 Cu
   0.5186700000000001    0.0297450000000000    0.3218850000000000 Cu
   0.4813160000000000    0.4702700000000000    0.1781100000000000 Cu
   0.7186700000000001    0.0297450000000000    0.8218850000000000 Cu
   0.6813160000000000    0.4702700000000000    0.6781100000000000 Cu
   0.7186700000000001    0.5297450000000000    0.8218850000000000 Cu
   0.6813160000000000    0.9702700000000000    0.6781100000000000 Cu
   0.5812300000000000    0.1781050000000000    0.4702850000000000 Cu
   0.6188320000000000    0.3218900000000000    0.0296900000000000 Cu
   0.5812300000000000    0.1781050000000000    0.9702850000000001 Cu
   0.6188320000000000    0.3218900000000000    0.5296900000000000 Cu
   0.5812300000000000    0.6781050000000000    0.4702850000000000 Cu
   0.6188320000000000    0.8218900000000000    0.0296900000000000 Cu
   0.5812300000000000    0.6781050000000000    0.9702850000000001 Cu
   0.6188320000000000    0.8218900000000000    0.5296900000000000 Cu
   0.7186700000000001    0.5297450000000000    0.3218850000000000 Cu
   0.6813160000000000    0.9702700000000000    0.1781100000000000 Cu
   0.7186700000000001    0.0297450000000000    0.3218850000000000 Cu
   0.6813160000000000    0.4702700000000000    0.1781100000000000 Cu
   0.7812300000000001    0.1781050000000000    0.9702850000000001 Cu
   0.8188320000000000    0.3218900000000000    0.5296900000000000 Cu
   0.7812300000000001    0.1781050000000000    0.4702850000000000 Cu
   0.8188320000000000    0.3218900000000000    0.0296900000000000 Cu
   0.9186700000000001    0.5297450000000000    0.3218850000000000 Cu
   0.8813160000000000    0.9702700000000000    0.1781100000000000 Cu
   0.9186700000000001    0.0297450000000000    0.3218850000000000 Cu
   0.8813160000000000    0.4702700000000000    0.1781100000000000 Cu
   0.7812300000000001    0.6781050000000000    0.9702850000000001 Cu
   0.8188320000000000    0.8218900000000000    0.5296900000000000 Cu
   0.7812300000000001    0.6781050000000000    0.4702850000000000 Cu
   0.8188320000000000    0.8218900000000000    0.0296900000000000 Cu
   0.8813160000000000    0.9702700000000000    0.6781100000000000 Cu
   0.9186700000000001    0.5297450000000000    0.8218850000000000 Cu
   0.9186700000000001    0.0297450000000000    0.8218850000000000 Cu
   0.8813160000000000    0.4702700000000000    0.6781100000000000 Cu
   0.1186700000000000    0.0297450000000000    0.8218850000000000 Cu
   0.0813160000000000    0.4702700000000000    0.6781100000000000 Cu
   0.1186700000000000    0.5297450000000000    0.8218850000000000 Cu
   0.0813160000000000    0.9702700000000000    0.6781100000000000 Cu
   0.9812300000000000    0.6781050000000000    0.9702850000000001 Cu
   0.0188320000000000    0.8218900000000000    0.5296900000000000 Cu
   0.9812300000000000    0.6781050000000000    0.4702850000000000 Cu
   0.0188320000000000    0.8218900000000000    0.0296900000000000 Cu
   0.9812300000000000    0.1781050000000000    0.4702850000000000 Cu
   0.0188320000000000    0.3218900000000000    0.0296900000000000 Cu
   0.9812300000000000    0.1781050000000000    0.9702850000000001 Cu
   0.0188320000000000    0.3218900000000000    0.5296900000000000 Cu
   0.1186700000000000    0.5297450000000000    0.3218850000000000 Cu
   0.0813160000000000    0.9702700000000000    0.1781100000000000 Cu
   0.1186700000000000    0.0297450000000000    0.3218850000000000 Cu
   0.0813160000000000    0.4702700000000000    0.1781100000000000 Cu
   0.9388773630374191    0.2612561356943007    0.9174495992711454 H
   0.9612953586001185    0.2925561889938446   -0.0169590118693834 H
   0.2105340000000000    0.2660550000000000    0.7915550000000000 H
   0.1894740000000000    0.2339350000000000    0.7084350000000000 H
   0.2105340000000000    0.2660550000000000    0.2915550000000000 H
   0.1894740000000000    0.2339350000000000    0.2084350000000000 H
   0.2895340000000000    0.2084300000000000    0.7340000000000000 H
   0.3104860000000000    0.2915850000000000    0.7660199999999999 H
   0.2895340000000000    0.7084300000000000    0.7340000000000000 H
   0.3104860000000000    0.7915850000000000    0.7660199999999999 H
   0.2105340000000000    0.7660549999999999    0.7915550000000000 H
   0.1894740000000000    0.7339350000000000    0.7084350000000000 H
   0.2105340000000000    0.7660549999999999    0.2915550000000000 H
   0.1894740000000000    0.7339350000000000    0.2084350000000000 H
   0.2895340000000000    0.2084300000000000    0.2340000000000000 H
   0.3104860000000000    0.2915850000000000    0.2660200000000000 H
   0.2895340000000000    0.7084300000000000    0.2340000000000000 H
   0.3104860000000000    0.7915850000000000    0.2660200000000000 H
   0.4105340000000000    0.2660550000000000    0.7915550000000000 H
   0.3894740000000000    0.2339350000000000    0.7084350000000000 H
   0.4105340000000000    0.2660550000000000    0.2915550000000000 H
   0.3894740000000000    0.2339350000000000    0.2084350000000000 H
   0.4895340000000000    0.7084300000000000    0.7340000000000000 H
   0.5104860000000000    0.7915850000000000    0.7660199999999999 H
   0.4895340000000000    0.2084300000000000    0.7340000000000000 H
   0.5104860000000000    0.2915850000000000    0.7660199999999999 H
   0.4105340000000000    0.7660549999999999    0.7915550000000000 H
   0.3894740000000000    0.7339350000000000    0.7084350000000000 H
   0.4105340000000000    0.7660549999999999    0.2915550000000000 H
   0.3894740000000000    0.7339350000000000    0.2084350000000000 H
   0.4895340000000000    0.2084300000000000    0.2340000000000000 H
   0.5104860000000000    0.2915850000000000    0.2660200000000000 H
   0.4895340000000000    0.7084300000000000    0.2340000000000000 H
   0.5104860000000000    0.7915850000000000    0.2660200000000000 H
   0.6895340000000001    0.7084300000000000    0.7340000000000000 H
   0.7104860000000001    0.7915850000000000    0.7660199999999999 H
   0.6895340000000001    0.2084300000000000    0.7340000000000000 H
   0.7104860000000001    0.2915850000000000    0.7660199999999999 H
   0.6105340000000001    0.2660550000000000    0.7915550000000000 H
   0.5894740000000001    0.2339350000000000    0.7084350000000000 H
   0.6105340000000001    0.2660550000000000    0.2915550000000000 H
   0.5894740000000001    0.2339350000000000    0.2084350000000000 H
   0.6105340000000001    0.7660549999999999    0.7915550000000000 H
   0.5894740000000001    0.7339350000000000    0.7084350000000000 H
   0.6105340000000001    0.7660549999999999    0.2915550000000000 H
   0.5894740000000001    0.7339350000000000    0.2084350000000000 H
   0.6895340000000001    0.2084300000000000    0.2340000000000000 H
   0.7104860000000001    0.2915850000000000    0.2660200000000000 H
   0.6895340000000001    0.7084300000000000    0.2340000000000000 H
   0.7104860000000001    0.7915850000000000    0.2660200000000000 H
   0.8105340000000001    0.2660550000000000    0.2915550000000000 H
   0.7894740000000001    0.2339350000000000    0.2084350000000000 H
   0.8105340000000001    0.2660550000000000    0.7915550000000000 H
   0.7894740000000001    0.2339350000000000    0.7084350000000000 H
   0.8895340000000000    0.2084300000000000    0.2340000000000000 H
   0.9104860000000000    0.2915850000000000    0.2660200000000000 H
   0.8895340000000000    0.7084300000000000    0.2340000000000000 H
   0.9104860000000000    0.7915850000000000    0.2660200000000000 H
   0.8105340000000001    0.7660549999999999    0.2915550000000000 H
   0.7894740000000001    0.7339350000000000    0.2084350000000000 H
   0.8105340000000001    0.7660549999999999    0.7915550000000000 H
   0.7894740000000001    0.7339350000000000    0.7084350000000000 H
   0.8895340000000000    0.2084300000000000    0.7340000000000000 H
   0.9012163060466633    0.1414555626830245    0.8269142933243292 H
   0.9375653482556038    0.4223306680247339    0.8207475751497915 H
   0.8895340000000000    0.7084300000000000    0.7340000000000000 H
   0.9104860000000000    0.7915850000000000    0.7660199999999999 H
   0.0895340000000000    0.7084300000000000    0.7340000000000000 H
   0.1104860000000000    0.7915850000000000    0.7660199999999999 H
   0.0895340000000000    0.2084300000000000    0.7340000000000000 H
   0.1104860000000000    0.2915850000000000    0.7660199999999999 H
   0.0105340000000000    0.7660549999999999    0.2915550000000000 H
   0.9894740000000001    0.7339350000000000    0.2084350000000000 H
   0.0105340000000000    0.7660549999999999    0.7915550000000000 H
   0.9894740000000001    0.7339350000000000    0.7084350000000000 H
   0.0105340000000000    0.2660550000000000    0.7915550000000000 H
   0.9894740000000001    0.2339350000000000    0.7084350000000000 H
   0.0105340000000000    0.2660550000000000    0.2915550000000000 H
   0.9894740000000001    0.2339350000000000    0.2084350000000000 H
   0.0895340000000000    0.2084300000000000    0.2340000000000000 H
   0.1104860000000000    0.2915850000000000    0.2660200000000000 H
   0.0895340000000000    0.7084300000000000    0.2340000000000000 H
   0.1104860000000000    0.7915850000000000    0.2660200000000000 H
   0.2594680000000000    0.4779900000000000    0.7877550000000000 C
   0.2365280000000000    0.3189000000000000    0.9146700000000000 C
   0.2276860000000000    0.3312100000000000    0.8247300000000000 C
   0.2012960000000000    0.3247300000000000    0.6492100000000001 C
   0.2129360000000000    0.3329200000000000    0.7352350000000000 C
   0.2352300000000000    0.4035150000000000    0.7649250000000001 C
   0.1405220000000000    0.0220150000000000    0.7122200000000000 C
   0.1987040000000000    0.1752900000000000    0.8508300000000000 C
   0.1635140000000000    0.1810700000000000    0.5852950000000000 C
   0.1723300000000000    0.1687800000000000    0.6752450000000000 C
   0.1870700000000000    0.1670650000000000    0.7647450000000000 C
   0.1647680000000000    0.0964800000000000    0.7350550000000000 C
   0.2594680000000000    0.4779900000000000    0.2877550000000000 C
   0.2365280000000000    0.3189000000000000    0.4146700000000000 C
   0.2276860000000000    0.3312100000000000    0.3247300000000000 C
   0.2012960000000000    0.3247300000000000    0.1492100000000000 C
   0.2129360000000000    0.3329200000000000    0.2352350000000000 C
   0.2352300000000000    0.4035150000000000    0.2649250000000000 C
   0.1405220000000000    0.0220150000000000    0.2122200000000000 C
   0.1987040000000000    0.1752900000000000    0.3508300000000000 C
   0.1635140000000000    0.1810700000000000    0.0852950000000000 C
   0.1723300000000000    0.1687800000000000    0.1752450000000000 C
   0.1870700000000000    0.1670650000000000    0.2647450000000000 C
   0.1647680000000000    0.0964800000000000    0.2350550000000000 C
   0.2405800000000000    0.2120650000000000    0.5220100000000000 C
   0.2988240000000000    0.3507150000000000    0.6751900000000000 C
   0.2634480000000000    0.0853050000000000    0.6812549999999999 C
   0.2723900000000000    0.1751750000000000    0.6688700000000000 C
   0.2872100000000000    0.2646250000000000    0.6670199999999999 C
   0.2649080000000000    0.2348850000000000    0.5964450000000000 C
   0.3594280000000000    0.2879050000000000    0.9780249999999999 C
   0.3365560000000000    0.4147100000000000    0.8187750000000000 C
   0.3276260000000000    0.3248300000000000    0.8311550000000000 C
   0.3011760000000000    0.1493000000000000    0.8248050000000000 C
   0.3128100000000000    0.2353750000000000    0.8329850000000000 C
   0.3351200000000000    0.2651000000000000    0.9035650000000000 C
   0.2405800000000000    0.7120649999999999    0.5220100000000000 C
   0.2988240000000000    0.8507150000000000    0.6751900000000000 C
   0.2634480000000000    0.5853050000000000    0.6812549999999999 C
   0.2723900000000000    0.6751750000000000    0.6688700000000000 C
   0.2872100000000000    0.7646250000000000    0.6670199999999999 C
   0.2649080000000000    0.7348850000000000    0.5964450000000000 C
   0.3594280000000000    0.7879050000000001    0.9780249999999999 C
   0.3365560000000000    0.9147100000000000    0.8187750000000000 C
   0.3276260000000000    0.8248300000000000    0.8311550000000000 C
   0.3011760000000000    0.6493000000000000    0.8248050000000000 C
   0.3128100000000000    0.7353750000000000    0.8329850000000000 C
   0.3351200000000000    0.7651000000000000    0.9035650000000000 C
   0.2594680000000000    0.9779900000000000    0.7877550000000000 C
   0.2365280000000000    0.8189000000000000    0.9146700000000000 C
   0.2276860000000000    0.8312100000000000    0.8247300000000000 C
   0.2012960000000000    0.8247300000000000    0.6492100000000001 C
   0.2129360000000000    0.8329200000000000    0.7352350000000000 C
   0.2352300000000000    0.9035150000000001    0.7649250000000001 C
   0.1405220000000000    0.5220150000000000    0.7122200000000000 C
   0.1987040000000000    0.6752899999999999    0.8508300000000000 C
   0.1635140000000000    0.6810700000000001    0.5852950000000000 C
   0.1723300000000000    0.6687800000000000    0.6752450000000000 C
   0.1870700000000000    0.6670650000000000    0.7647450000000000 C
   0.1647680000000000    0.5964800000000000    0.7350550000000000 C
   0.2594680000000000    0.9779900000000000    0.2877550000000000 C
   0.2365280000000000    0.8189000000000000    0.4146700000000000 C
   0.2276860000000000    0.8312100000000000    0.3247300000000000 C
   0.2012960000000000    0.8247300000000000    0.1492100000000000 C
   0.2129360000000000    0.8329200000000000    0.2352350000000000 C
   0.2352300000000000    0.9035150000000001    0.2649250000000000 C
   0.1405220000000000    0.5220150000000000    0.2122200000000000 C
   0.1987040000000000    0.6752899999999999    0.3508300000000000 C
   0.1635140000000000    0.6810700000000001    0.0852950000000000 C
   0.1723300000000000    0.6687800000000000    0.1752450000000000 C
   0.1870700000000000    0.6670650000000000    0.2647450000000000 C
   0.1647680000000000    0.5964800000000000    0.2350550000000000 C
   0.2405800000000000    0.2120650000000000    0.0220100000000000 C
   0.2988240000000000    0.3507150000000000    0.1751900000000000 C
   0.2634480000000000    0.0853050000000000    0.1812550000000000 C
   0.2723900000000000    0.1751750000000000    0.1688700000000000 C
   0.2872100000000000    0.2646250000000000    0.1670200000000000 C
   0.2649080000000000    0.2348850000000000    0.0964450000000000 C
   0.3594280000000000    0.2879050000000000    0.4780250000000000 C
   0.3365560000000000    0.4147100000000000    0.3187750000000000 C
   0.3276260000000000    0.3248300000000000    0.3311550000000000 C
   0.3011760000000000    0.1493000000000000    0.3248050000000000 C
   0.3128100000000000    0.2353750000000000    0.3329850000000000 C
   0.3351200000000000    0.2651000000000000    0.4035650000000000 C
   0.2405800000000000    0.7120649999999999    0.0220100000000000 C
   0.2988240000000000    0.8507150000000000    0.1751900000000000 C
   0.2634480000000000    0.5853050000000000    0.1812550000000000 C
   0.2723900000000000    0.6751750000000000    0.1688700000000000 C
   0.2872100000000000    0.7646250000000000    0.1670200000000000 C
   0.2649080000000000    0.7348850000000000    0.0964450000000000 C
   0.3594280000000000    0.7879050000000001    0.4780250000000000 C
   0.3365560000000000    0.9147100000000000    0.3187750000000000 C
   0.3276260000000000    0.8248300000000000    0.3311550000000000 C
   0.3011760000000000    0.6493000000000000    0.3248050000000000 C
   0.3128100000000000    0.7353750000000000    0.3329850000000000 C
   0.3351200000000000    0.7651000000000000    0.4035650000000000 C
   0.4594680000000000    0.4779900000000000    0.7877550000000000 C
   0.4365280000000000    0.3189000000000000    0.9146700000000000 C
   0.4276860000000000    0.3312100000000000    0.8247300000000000 C
   0.4012960000000000    0.3247300000000000    0.6492100000000001 C
   0.4129360000000000    0.3329200000000000    0.7352350000000000 C
   0.4352300000000000    0.4035150000000000    0.7649250000000001 C
   0.3405220000000000    0.0220150000000000    0.7122200000000000 C
   0.3987040000000000    0.1752900000000000    0.8508300000000000 C
   0.3635140000000000    0.1810700000000000    0.5852950000000000 C
   0.3723300000000000    0.1687800000000000    0.6752450000000000 C
   0.3870700000000000    0.1670650000000000    0.7647450000000000 C
   0.3647680000000000    0.0964800000000000    0.7350550000000000 C
   0.4594680000000000    0.4779900000000000    0.2877550000000000 C
   0.4365280000000000    0.3189000000000000    0.4146700000000000 C
   0.4276860000000000    0.3312100000000000    0.3247300000000000 C
   0.4012960000000000    0.3247300000000000    0.1492100000000000 C
   0.4129360000000000    0.3329200000000000    0.2352350000000000 C
   0.4352300000000000    0.4035150000000000    0.2649250000000000 C
   0.3405220000000000    0.0220150000000000    0.2122200000000000 C
   0.3987040000000000    0.1752900000000000    0.3508300000000000 C
   0.3635140000000000    0.1810700000000000    0.0852950000000000 C
   0.3723300000000000    0.1687800000000000    0.1752450000000000 C
   0.3870700000000000    0.1670650000000000    0.2647450000000000 C
   0.3647680000000000    0.0964800000000000    0.2350550000000000 C
   0.4405800000000000    0.7120649999999999    0.5220100000000000 C
   0.4988240000000000    0.8507150000000000    0.6751900000000000 C
   0.4634480000000000    0.5853050000000000    0.6812549999999999 C
   0.4723900000000000    0.6751750000000000    0.6688700000000000 C
   0.4872100000000000    0.7646250000000000    0.6670199999999999 C
   0.4649080000000000    0.7348850000000000    0.5964450000000000 C
   0.5594280000000000    0.7879050000000001    0.9780249999999999 C
   0.5365560000000000    0.9147100000000000    0.8187750000000000 C
   0.5276260000000000    0.8248300000000000    0.8311550000000000 C
   0.5011760000000001    0.6493000000000000    0.8248050000000000 C
   0.5128100000000000    0.7353750000000000    0.8329850000000000 C
   0.5351200000000000    0.7651000000000000    0.9035650000000000 C
   0.4405800000000000    0.2120650000000000    0.5220100000000000 C
   0.4988240000000000    0.3507150000000000    0.6751900000000000 C
   0.4634480000000000    0.0853050000000000    0.6812549999999999 C
   0.4723900000000000    0.1751750000000000    0.6688700000000000 C
   0.4872100000000000    0.2646250000000000    0.6670199999999999 C
   0.4649080000000000    0.2348850000000000    0.5964450000000000 C
   0.5594280000000000    0.2879050000000000    0.9780249999999999 C
   0.5365560000000000    0.4147100000000000    0.8187750000000000 C
   0.5276260000000000    0.3248300000000000    0.8311550000000000 C
   0.5011760000000001    0.1493000000000000    0.8248050000000000 C
   0.5128100000000000    0.2353750000000000    0.8329850000000000 C
   0.5351200000000000    0.2651000000000000    0.9035650000000000 C
   0.4594680000000000    0.9779900000000000    0.7877550000000000 C
   0.4365280000000000    0.8189000000000000    0.9146700000000000 C
   0.4276860000000000    0.8312100000000000    0.8247300000000000 C
   0.4012960000000000    0.8247300000000000    0.6492100000000001 C
   0.4129360000000000    0.8329200000000000    0.7352350000000000 C
   0.4352300000000000    0.9035150000000001    0.7649250000000001 C
   0.3405220000000000    0.5220150000000000    0.7122200000000000 C
   0.3987040000000000    0.6752899999999999    0.8508300000000000 C
   0.3635140000000000    0.6810700000000001    0.5852950000000000 C
   0.3723300000000000    0.6687800000000000    0.6752450000000000 C
   0.3870700000000000    0.6670650000000000    0.7647450000000000 C
   0.3647680000000000    0.5964800000000000    0.7350550000000000 C
   0.4594680000000000    0.9779900000000000    0.2877550000000000 C
   0.4365280000000000    0.8189000000000000    0.4146700000000000 C
   0.4276860000000000    0.8312100000000000    0.3247300000000000 C
   0.4012960000000000    0.8247300000000000    0.1492100000000000 C
   0.4129360000000000    0.8329200000000000    0.2352350000000000 C
   0.4352300000000000    0.9035150000000001    0.2649250000000000 C
   0.3405220000000000    0.5220150000000000    0.2122200000000000 C
   0.3987040000000000    0.6752899999999999    0.3508300000000000 C
   0.3635140000000000    0.6810700000000001    0.0852950000000000 C
   0.3723300000000000    0.6687800000000000    0.1752450000000000 C
   0.3870700000000000    0.6670650000000000    0.2647450000000000 C
   0.3647680000000000    0.5964800000000000    0.2350550000000000 C
   0.4405800000000000    0.2120650000000000    0.0220100000000000 C
   0.4988240000000000    0.3507150000000000    0.1751900000000000 C
   0.4634480000000000    0.0853050000000000    0.1812550000000000 C
   0.4723900000000000    0.1751750000000000    0.1688700000000000 C
   0.4872100000000000    0.2646250000000000    0.1670200000000000 C
   0.4649080000000000    0.2348850000000000    0.0964450000000000 C
   0.5594280000000000    0.2879050000000000    0.4780250000000000 C
   0.5365560000000000    0.4147100000000000    0.3187750000000000 C
   0.5276260000000000    0.3248300000000000    0.3311550000000000 C
   0.5011760000000001    0.1493000000000000    0.3248050000000000 C
   0.5128100000000000    0.2353750000000000    0.3329850000000000 C
   0.5351200000000000    0.2651000000000000    0.4035650000000000 C
   0.4405800000000000    0.7120649999999999    0.0220100000000000 C
   0.4988240000000000    0.8507150000000000    0.1751900000000000 C
   0.4634480000000000    0.5853050000000000    0.1812550000000000 C
   0.4723900000000000    0.6751750000000000    0.1688700000000000 C
   0.4872100000000000    0.7646250000000000    0.1670200000000000 C
   0.4649080000000000    0.7348850000000000    0.0964450000000000 C
   0.5594280000000000    0.7879050000000001    0.4780250000000000 C
   0.5365560000000000    0.9147100000000000    0.3187750000000000 C
   0.5276260000000000    0.8248300000000000    0.3311550000000000 C
   0.5011760000000001    0.6493000000000000    0.3248050000000000 C
   0.5128100000000000    0.7353750000000000    0.3329850000000000 C
   0.5351200000000000    0.7651000000000000    0.4035650000000000 C
   0.6405800000000001    0.7120649999999999    0.5220100000000000 C
   0.6988240000000001    0.8507150000000000    0.6751900000000000 C
   0.6634480000000000    0.5853050000000000    0.6812549999999999 C
   0.6723900000000000    0.6751750000000000    0.6688700000000000 C
   0.6872100000000001    0.7646250000000000    0.6670199999999999 C
   0.6649080000000001    0.7348850000000000    0.5964450000000000 C
   0.7594280000000001    0.7879050000000001    0.9780249999999999 C
   0.7365560000000001    0.9147100000000000    0.8187750000000000 C
   0.7276260000000001    0.8248300000000000    0.8311550000000000 C
   0.7011760000000001    0.6493000000000000    0.8248050000000000 C
   0.7128100000000002    0.7353750000000000    0.8329850000000000 C
   0.7351200000000001    0.7651000000000000    0.9035650000000000 C
   0.6405800000000001    0.2120650000000000    0.5220100000000000 C
   0.6988240000000001    0.3507150000000000    0.6751900000000000 C
   0.6634480000000000    0.0853050000000000    0.6812549999999999 C
   0.6723900000000000    0.1751750000000000    0.6688700000000000 C
   0.6872100000000001    0.2646250000000000    0.6670199999999999 C
   0.6649080000000001    0.2348850000000000    0.5964450000000000 C
   0.7594280000000001    0.2879050000000000    0.9780249999999999 C
   0.7365560000000001    0.4147100000000000    0.8187750000000000 C
   0.7276260000000001    0.3248300000000000    0.8311550000000000 C
   0.7011760000000001    0.1493000000000000    0.8248050000000000 C
   0.7128100000000002    0.2353750000000000    0.8329850000000000 C
   0.7351200000000001    0.2651000000000000    0.9035650000000000 C
   0.6594680000000001    0.4779900000000000    0.7877550000000000 C
   0.6365280000000001    0.3189000000000000    0.9146700000000000 C
   0.6276860000000001    0.3312100000000000    0.8247300000000000 C
   0.6012960000000001    0.3247300000000000    0.6492100000000001 C
   0.6129360000000000    0.3329200000000000    0.7352350000000000 C
   0.6352300000000001    0.4035150000000000    0.7649250000000001 C
   0.5405220000000001    0.0220150000000000    0.7122200000000000 C
   0.5987040000000000    0.1752900000000000    0.8508300000000000 C
   0.5635140000000001    0.1810700000000000    0.5852950000000000 C
   0.5723300000000000    0.1687800000000000    0.6752450000000000 C
   0.5870700000000000    0.1670650000000000    0.7647450000000000 C
   0.5647680000000000    0.0964800000000000    0.7350550000000000 C
   0.6594680000000001    0.4779900000000000    0.2877550000000000 C
   0.6365280000000001    0.3189000000000000    0.4146700000000000 C
   0.6276860000000001    0.3312100000000000    0.3247300000000000 C
   0.6012960000000001    0.3247300000000000    0.1492100000000000 C
   0.6129360000000000    0.3329200000000000    0.2352350000000000 C
   0.6352300000000001    0.4035150000000000    0.2649250000000000 C
   0.5405220000000001    0.0220150000000000    0.2122200000000000 C
   0.5987040000000000    0.1752900000000000    0.3508300000000000 C
   0.5635140000000001    0.1810700000000000    0.0852950000000000 C
   0.5723300000000000    0.1687800000000000    0.1752450000000000 C
   0.5870700000000000    0.1670650000000000    0.2647450000000000 C
   0.5647680000000000    0.0964800000000000    0.2350550000000000 C
   0.6594680000000001    0.9779900000000000    0.7877550000000000 C
   0.6365280000000001    0.8189000000000000    0.9146700000000000 C
   0.6276860000000001    0.8312100000000000    0.8247300000000000 C
   0.6012960000000001    0.8247300000000000    0.6492100000000001 C
   0.6129360000000000    0.8329200000000000    0.7352350000000000 C
   0.6352300000000001    0.9035150000000001    0.7649250000000001 C
   0.5405220000000001    0.5220150000000000    0.7122200000000000 C
   0.5987040000000000    0.6752899999999999    0.8508300000000000 C
   0.5635140000000001    0.6810700000000001    0.5852950000000000 C
   0.5723300000000000    0.6687800000000000    0.6752450000000000 C
   0.5870700000000000    0.6670650000000000    0.7647450000000000 C
   0.5647680000000000    0.5964800000000000    0.7350550000000000 C
   0.6594680000000001    0.9779900000000000    0.2877550000000000 C
   0.6365280000000001    0.8189000000000000    0.4146700000000000 C
   0.6276860000000001    0.8312100000000000    0.3247300000000000 C
   0.6012960000000001    0.8247300000000000    0.1492100000000000 C
   0.6129360000000000    0.8329200000000000    0.2352350000000000 C
   0.6352300000000001    0.9035150000000001    0.2649250000000000 C
   0.5405220000000001    0.5220150000000000    0.2122200000000000 C
   0.5987040000000000    0.6752899999999999    0.3508300000000000 C
   0.5635140000000001    0.6810700000000001    0.0852950000000000 C
   0.5723300000000000    0.6687800000000000    0.1752450000000000 C
   0.5870700000000000    0.6670650000000000    0.2647450000000000 C
   0.5647680000000000    0.5964800000000000    0.2350550000000000 C
   0.6405800000000001    0.2120650000000000    0.0220100000000000 C
   0.6988240000000001    0.3507150000000000    0.1751900000000000 C
   0.6634480000000000    0.0853050000000000    0.1812550000000000 C
   0.6723900000000000    0.1751750000000000    0.1688700000000000 C
   0.6872100000000001    0.2646250000000000    0.1670200000000000 C
   0.6649080000000001    0.2348850000000000    0.0964450000000000 C
   0.7594280000000001    0.2879050000000000    0.4780250000000000 C
   0.7365560000000001    0.4147100000000000    0.3187750000000000 C
   0.7276260000000001    0.3248300000000000    0.3311550000000000 C