H1 C6 N9
1.0
  37.3226926874484093    0.0000000000000000    4.7599617181533249
   2.9942690400129526   24.8501424474452328    2.1493387954672487
   0.0000000000000000    0.0000000000000000   25.1340000000000003
H C N
1 6 9
direct
   0.9104860000000000    0.2915850000000000    0.7660199999999999 H
   0.9128100000000001    0.2353750000000000    0.8329850000000000 C
   0.9276260000000001    0.3248300000000000    0.8311550000000000 C
   0.9351200000000001    0.2651000000000000    0.9035650000000000 C
   0.9011760000000001    0.1493000000000000    0.8248050000000000 C
   0.9365560000000001    0.4147100000000000    0.8187750000000000 C
   0.9594280000000001    0.2879050000000000    0.9780249999999999 C
   0.9702800000000000    0.3149350000000000    0.0071750000000000 N
   0.9160120000000000    0.2847300000000000    0.8059450000000000 N
   0.9368300000000001    0.3158000000000000    0.8809100000000001 N
   0.9223960000000000    0.2246850000000000    0.8822900000000000 N
   0.8999840000000000    0.1991200000000000    0.8056700000000000 N
   0.9014140000000000    0.1029800000000000    0.8372600000000000 N
   0.9307820000000000    0.3709750000000000    0.8004899999999999 N
   0.9422460000000000    0.4576700000000000    0.8298950000000000 N
   0.9482380000000000    0.2516800000000000    0.9520400000000000 N
