Zn64 H705 C1140 N64 O256
1.0
  32.3160000000000025    0.0000000000000000    0.0000000000000020
  -1.6519724918135625   36.1702951451365848    0.0000000000000022
   0.0000000000000000    0.0000000000000000   37.6139999999999972
Zn H C N O
64 705 1140 64 256
direct
   0.8274200000000000    0.6759400000000000    0.2517500000000000 Zn
   0.4148750000000000    0.6886050000000000    0.2518950000000000 Zn
   0.8325850000000000    0.4315700000000000    0.5001650000000000 Zn
   0.9203450000000000    0.4442750000000000    0.5000000000000000 Zn
   0.3325850000000000    0.4315700000000000    0.5001650000000000 Zn
   0.4203450000000000    0.4442750000000000    0.5000000000000000 Zn
   0.3274200000000000    0.6759400000000000    0.2517500000000000 Zn
   0.9148750000000000    0.6886050000000000    0.2518950000000000 Zn
   0.8274200000000000    0.1759400000000000    0.7517499999999999 Zn
   0.4148750000000000    0.1886050000000000    0.7518950000000000 Zn
   0.3325850000000000    0.9315700000000000    0.0001650000000000 Zn
   0.4203450000000000    0.9442750000000000    0.0000000000000000 Zn
   0.8325850000000000    0.9315700000000000    0.0001650000000000 Zn
   0.9203450000000000    0.9442750000000000    0.0000000000000000 Zn
   0.3274200000000000    0.1759400000000000    0.7517499999999999 Zn
   0.9148750000000000    0.1886050000000000    0.7518950000000000 Zn
   0.8274200000000000    0.1759400000000000    0.2517500000000000 Zn
   0.4148750000000000    0.1886050000000000    0.2518950000000000 Zn
   0.3325850000000000    0.9315700000000000    0.5001650000000000 Zn
   0.4203450000000000    0.9442750000000000    0.5000000000000000 Zn
   0.8325850000000000    0.9315700000000000    0.5001650000000000 Zn
   0.9203450000000000    0.9442750000000000    0.5000000000000000 Zn
   0.3274200000000000    0.1759400000000000    0.2517500000000000 Zn
   0.9148750000000000    0.1886050000000000    0.2518950000000000 Zn
   0.8274200000000000    0.6759400000000000    0.7517499999999999 Zn
   0.4148750000000000    0.6886050000000000    0.7518950000000000 Zn
   0.8325850000000000    0.4315700000000000    0.0001650000000000 Zn
   0.9203450000000000    0.4442750000000000    0.0000000000000000 Zn
   0.3325850000000000    0.4315700000000000    0.0001650000000000 Zn
   0.4203450000000000    0.4442750000000000    0.0000000000000000 Zn
   0.3274200000000000    0.6759400000000000    0.7517499999999999 Zn
   0.9148750000000000    0.6886050000000000    0.7518950000000000 Zn
   0.6871400000000000    0.8353950000000000    0.2520000000000000 Zn
   0.0942150000000000    0.0670600000000000    0.5000000000000000 Zn
   0.1819750000000000    0.0797650000000000    0.5000000000000000 Zn
   0.5942149999999999    0.0670600000000000    0.5000000000000000 Zn
   0.6819750000000000    0.0797650000000000    0.5000000000000000 Zn
   0.1871400000000000    0.8353950000000000    0.2520000000000000 Zn
   0.0996850000000000    0.8227300000000000    0.2518900000000000 Zn
   0.5996850000000000    0.8227300000000000    0.2518900000000000 Zn
   0.6871400000000000    0.3353950000000000    0.2520000000000000 Zn
   0.0942150000000000    0.5670600000000000    0.5000000000000000 Zn
   0.1819750000000000    0.5797650000000000    0.5000000000000000 Zn
   0.5942149999999999    0.5670600000000000    0.5000000000000000 Zn
   0.6819750000000000    0.5797650000000000    0.5000000000000000 Zn
   0.1871400000000000    0.3353950000000000    0.2520000000000000 Zn
   0.0996850000000000    0.3227300000000000    0.2518900000000000 Zn
   0.5996850000000000    0.3227300000000000    0.2518900000000000 Zn
   0.6871400000000000    0.8353950000000000    0.7520000000000000 Zn
   0.0942150000000000    0.0670600000000000    0.0000000000000000 Zn
   0.1819750000000000    0.0797650000000000    0.0000000000000000 Zn
   0.5942149999999999    0.0670600000000000    0.0000000000000000 Zn
   0.6819750000000000    0.0797650000000000    0.0000000000000000 Zn
   0.1871400000000000    0.8353950000000000    0.7520000000000000 Zn
   0.0996850000000000    0.8227300000000000    0.7518899999999999 Zn
   0.5996850000000000    0.8227300000000000    0.7518899999999999 Zn
   0.0942150000000000    0.5670600000000000    0.0000000000000000 Zn
   0.1819750000000000    0.5797650000000000    0.0000000000000000 Zn
   0.5942149999999999    0.5670600000000000    0.0000000000000000 Zn
   0.6819750000000000    0.5797650000000000    0.0000000000000000 Zn
   0.1871400000000000    0.3353950000000000    0.7520000000000000 Zn
   0.6871400000000000    0.3353950000000000    0.7520000000000000 Zn
   0.0996850000000000    0.3227300000000000    0.7518899999999999 Zn
   0.5996850000000000    0.3227300000000000    0.7518899999999999 Zn
   0.9450000000000001    0.6215550000000000    0.1623150000000000 H
   0.9529750000000000    0.5754700000000000    0.1137000000000000 H
   0.8145899999999999    0.5945500000000000    0.1677500000000000 H
   0.8014000000000000    0.5000000000000000    0.0794000000000000 H
   0.7824700000000000    0.5472950000000000    0.1263500000000000 H
   0.9212650000000000    0.5264799999999999    0.0739200000000000 H
   0.6838550000000000    0.6223100000000000    0.2882400000000000 H
   0.6857500000000000    0.7295850000000000    0.2369550000000000 H
   0.7616650000000000    0.7254900000000000    0.2308000000000000 H
   0.7609550000000000    0.6238300000000000    0.2810250000000000 H
   0.6201750000000000    0.7167749999999999    0.2290000000000000 H
   0.6194250000000000    0.6526300000000000    0.2830150000000000 H
   0.5554400000000000    0.7363900000000000    0.2092900000000000 H
   0.4812300000000000    0.7320550000000000    0.2115800000000000 H
   0.4814850000000000    0.6549550000000000    0.2926300000000000 H
   0.5549150000000000    0.6550350000000000    0.2935250000000000 H
   0.7961650000000000    0.2554050000000000    0.6725550000000000 H
   0.7878000000000001    0.3029050000000000    0.6255500000000001 H
   0.9266449999999999    0.2821650000000000    0.6779500000000001 H
   0.9502600000000000    0.3772350000000000    0.5895400000000000 H
   0.9582950000000000    0.3311650000000000    0.6381250000000001 H
   0.8198600000000000    0.3501650000000000    0.5841499999999999 H
   0.2961650000000000    0.2554050000000000    0.6725550000000000 H
   0.2878000000000000    0.3029050000000000    0.6255500000000001 H
   0.4266450000000000    0.2821650000000000    0.6779500000000001 H
   0.4502600000000000    0.3772350000000000    0.5895400000000000 H
   0.4582950000000000    0.3311650000000000    0.6381250000000001 H
   0.3198600000000000    0.3501650000000000    0.5841499999999999 H
   0.6893450000000000    0.3779400000000000    0.4675200000000000 H
   0.7664400000000000    0.3794600000000000    0.4747650000000000 H
   0.7668200000000001    0.4811200000000000    0.5210800000000000 H
   0.6909100000000000    0.4852200000000000    0.5149200000000000 H
   0.6253299999999999    0.4723850000000000    0.5228800000000000 H
   0.6249150000000000    0.4082850000000000    0.4726500000000000 H
   0.4863800000000000    0.4876700000000000    0.5402749999999999 H
   0.4869750000000000    0.4106250000000000    0.4630050000000000 H
   0.5605800000000000    0.4919950000000000    0.5426050000000000 H
   0.5604050000000000    0.4107000000000000    0.4621000000000000 H
   0.7974399999999999    0.2565050000000000    0.3293000000000000 H
   0.7888100000000000    0.3048350000000000    0.3755900000000000 H
   0.9281900000000001    0.2576950000000000    0.3491350000000000 H
   0.9511200000000000    0.3489100000000000    0.4409250000000000 H
   0.9593650000000000    0.2992700000000000    0.3959350000000000 H
   0.8206700000000000    0.3489450000000000    0.4200250000000000 H
   0.8028100000000000    0.5000000000000000    0.4264000000000000 H
   0.7834800000000000    0.5491100000000000    0.3801200000000000 H
   0.9457249999999999    0.5932700000000000    0.3147050000000000 H
   0.9540350000000000    0.5436500000000000    0.3597050000000000 H
   0.8152800000000000    0.5932300000000000    0.3356600000000000 H
   0.9335500000000000    0.5000000000000000    0.4065000000000000 H
   0.2012267440758863    0.5294635704502623    0.5433639130224529 H
   0.0788218878514124    0.5289202723808610    0.5583387780638384 H
   0.1392827966070116    0.5267192523000461    0.5537943452532230 H
   0.1893450000000000    0.3779400000000000    0.4675200000000000 H
   0.2664400000000000    0.3794600000000000    0.4747650000000000 H
   0.2668200000000000    0.4811200000000000    0.5210800000000000 H
   0.1909100000000000    0.4852200000000000    0.5149200000000000 H
   0.1253300000000000    0.4723850000000000    0.5228800000000000 H
   0.1249150000000000    0.4082850000000000    0.4726500000000000 H
   0.9863800000000000    0.4876700000000000    0.5402749999999999 H
   0.9869749999999999    0.4106250000000000    0.4630050000000000 H
   0.0605800000000000    0.4919950000000000    0.5426050000000000 H
   0.0604050000000000    0.4107000000000000    0.4621000000000000 H
   0.0810050000000000    0.4979550000000000    0.5972350000000000 H
   0.2974400000000000    0.2565050000000000    0.3293000000000000 H
   0.2888100000000000    0.3048350000000000    0.3755900000000000 H
   0.4281900000000000    0.2576950000000000    0.3491350000000000 H
   0.4511200000000000    0.3489100000000000    0.4409250000000000 H
   0.4593650000000000    0.2992700000000000    0.3959350000000000 H
   0.3206700000000000    0.3489450000000000    0.4200250000000000 H
   0.3028100000000000    0.5000000000000000    0.4264000000000000 H
   0.2834800000000000    0.5491100000000000    0.3801200000000000 H
   0.4457250000000000    0.5932700000000000    0.3147050000000000 H
   0.4540350000000000    0.5436500000000000    0.3597050000000000 H
   0.3152800000000000    0.5932300000000000    0.3356600000000000 H
   0.4335500000000000    0.5000000000000000    0.4065000000000000 H
   0.4450000000000000    0.6215550000000000    0.1623150000000000 H
   0.4529750000000000    0.5754700000000000    0.1137000000000000 H
   0.3145900000000000    0.5945500000000000    0.1677500000000000 H
   0.3014000000000000    0.5000000000000000    0.0794000000000000 H
   0.2824700000000000    0.5472950000000000    0.1263500000000000 H
   0.4212650000000000    0.5264799999999999    0.0739200000000000 H
   0.1838550000000000    0.6223100000000000    0.2882400000000000 H
   0.1857500000000000    0.7295850000000000    0.2369550000000000 H
   0.2616650000000000    0.7254900000000000    0.2308000000000000 H
   0.2609550000000000    0.6238300000000000    0.2810250000000000 H
   0.1201750000000000    0.7167749999999999    0.2290000000000000 H
   0.1194250000000000    0.6526300000000000    0.2830150000000000 H
   0.0554400000000000    0.7363900000000000    0.2092900000000000 H
   0.9812300000000000    0.7320550000000000    0.2115800000000000 H
   0.9814849999999999    0.6549550000000000    0.2926300000000000 H
   0.0549150000000000    0.6550350000000000    0.2935250000000000 H
   0.9450000000000001    0.1215550000000000    0.6623150000000000 H
   0.9529750000000000    0.0754700000000000    0.6137000000000000 H
   0.8145899999999999    0.0945500000000000    0.6677500000000001 H
   0.8014000000000000    0.0000000000000000    0.5794000000000000 H
   0.7824700000000000    0.0472950000000000    0.6263500000000000 H
   0.9212650000000000    0.0264800000000000    0.5739200000000000 H
   0.6838550000000000    0.1223100000000000    0.7882400000000001 H
   0.6857500000000000    0.2295850000000000    0.7369550000000000 H
   0.7616650000000000    0.2254900000000000    0.7308000000000000 H
   0.7609550000000000    0.1238300000000000    0.7810250000000001 H
   0.6201750000000000    0.2167750000000000    0.7290000000000000 H
   0.6194250000000000    0.1526300000000000    0.7830150000000000 H
   0.5554400000000000    0.2363900000000000    0.7092900000000000 H
   0.4812300000000000    0.2320550000000000    0.7115800000000000 H
   0.4814850000000000    0.1549550000000000    0.7926299999999999 H
   0.5549150000000000    0.1550350000000000    0.7935250000000000 H
   0.7961650000000000    0.7554050000000000    0.1725550000000000 H
   0.7878000000000001    0.8029050000000000    0.1255500000000000 H
   0.9266449999999999    0.7821650000000000    0.1779500000000000 H
   0.9502600000000000    0.8772350000000000    0.0895400000000000 H
   0.9582950000000000    0.8311649999999999    0.1381250000000000 H
   0.8198600000000000    0.8501650000000001    0.0841500000000000 H
   0.2961650000000000    0.7554050000000000    0.1725550000000000 H
   0.2878000000000000    0.8029050000000000    0.1255500000000000 H
   0.4266450000000000    0.7821650000000000    0.1779500000000000 H
   0.4502600000000000    0.8772350000000000    0.0895400000000000 H
   0.4582950000000000    0.8311649999999999    0.1381250000000000 H
   0.3198600000000000    0.8501650000000001    0.0841500000000000 H
   0.1893450000000000    0.8779399999999999    0.9675199999999999 H
   0.2664400000000000    0.8794600000000000    0.9747650000000000 H
   0.2668200000000000    0.9811200000000000    0.0210800000000000 H
   0.1909100000000000    0.9852200000000000    0.0149200000000000 H
   0.1253300000000000    0.9723850000000001    0.0228800000000000 H
   0.1249150000000000    0.9082850000000000    0.9726500000000000 H
   0.9863800000000000    0.9876700000000000    0.0402750000000000 H
   0.9869749999999999    0.9106250000000000    0.9630050000000000 H
   0.0605800000000000    0.9919950000000000    0.0426050000000000 H
   0.0604050000000000    0.9107000000000001    0.9621000000000000 H
   0.2974400000000000    0.7565050000000000    0.8292999999999999 H
   0.2888100000000000    0.8048350000000000    0.8755900000000000 H
   0.4281900000000000    0.7576950000000000    0.8491350000000000 H
   0.4511200000000000    0.8489100000000001    0.9409250000000000 H
   0.4593650000000000    0.7992699999999999    0.8959349999999999 H
   0.3206700000000000    0.8489450000000001    0.9200250000000000 H
   0.3028100000000000    0.0000000000000000    0.9264000000000000 H
   0.2834800000000000    0.0491100000000000    0.8801200000000000 H
   0.4457250000000000    0.0932700000000000    0.8147050000000000 H
   0.4540350000000000    0.0436500000000000    0.8597049999999999 H
   0.3152800000000000    0.0932300000000000    0.8356600000000001 H
   0.4335500000000000    0.0000000000000000    0.9065000000000000 H
   0.6893450000000000    0.8779399999999999    0.9675199999999999 H
   0.7664400000000000    0.8794600000000000    0.9747650000000000 H
   0.7668200000000001    0.9811200000000000    0.0210800000000000 H
   0.6909100000000000    0.9852200000000000    0.0149200000000000 H
   0.6253299999999999    0.9723850000000001    0.0228800000000000 H
   0.6249150000000000    0.9082850000000000    0.9726500000000000 H
   0.4863800000000000    0.9876700000000000    0.0402750000000000 H
   0.4869750000000000    0.9106250000000000    0.9630050000000000 H
   0.5605800000000000    0.9919950000000000    0.0426050000000000 H
   0.5604050000000000    0.9107000000000001    0.9621000000000000 H
   0.7974399999999999    0.7565050000000000    0.8292999999999999 H
   0.7888100000000000    0.8048350000000000    0.8755900000000000 H
   0.9281900000000001    0.7576950000000000    0.8491350000000000 H
   0.9511200000000000    0.8489100000000001    0.9409250000000000 H
   0.9593650000000000    0.7992699999999999    0.8959349999999999 H
   0.8206700000000000    0.8489450000000001    0.9200250000000000 H
   0.8028100000000000    0.0000000000000000    0.9264000000000000 H
   0.7834800000000000    0.0491100000000000    0.8801200000000000 H
   0.9457249999999999    0.0932700000000000    0.8147050000000000 H
   0.9540350000000000    0.0436500000000000    0.8597049999999999 H
   0.8152800000000000    0.0932300000000000    0.8356600000000001 H
   0.9335500000000000    0.0000000000000000    0.9065000000000000 H
   0.4450000000000000    0.1215550000000000    0.6623150000000000 H
   0.4529750000000000    0.0754700000000000    0.6137000000000000 H
   0.3145900000000000    0.0945500000000000    0.6677500000000001 H
   0.3014000000000000    0.0000000000000000    0.5794000000000000 H
   0.2824700000000000    0.0472950000000000    0.6263500000000000 H
   0.4212650000000000    0.0264800000000000    0.5739200000000000 H
   0.1838550000000000    0.1223100000000000    0.7882400000000001 H
   0.1857500000000000    0.2295850000000000    0.7369550000000000 H
   0.2616650000000000    0.2254900000000000    0.7308000000000000 H
   0.2609550000000000    0.1238300000000000    0.7810250000000001 H
   0.1201750000000000    0.2167750000000000    0.7290000000000000 H
   0.1194250000000000    0.1526300000000000    0.7830150000000000 H
   0.0554400000000000    0.2363900000000000    0.7092900000000000 H
   0.9812300000000000    0.2320550000000000    0.7115800000000000 H
   0.9814849999999999    0.1549550000000000    0.7926299999999999 H
   0.0549150000000000    0.1550350000000000    0.7935250000000000 H
   0.9450000000000001    0.1215550000000000    0.1623150000000000 H
   0.9529750000000000    0.0754700000000000    0.1137000000000000 H
   0.8145899999999999    0.0945500000000000    0.1677500000000000 H
   0.8014000000000000    0.0000000000000000    0.0794000000000000 H
   0.7824700000000000    0.0472950000000000    0.1263500000000000 H
   0.9212650000000000    0.0264800000000000    0.0739200000000000 H
   0.6838550000000000    0.1223100000000000    0.2882400000000000 H
   0.6857500000000000    0.2295850000000000    0.2369550000000000 H
   0.7616650000000000    0.2254900000000000    0.2308000000000000 H
   0.7609550000000000    0.1238300000000000    0.2810250000000000 H
   0.6201750000000000    0.2167750000000000    0.2290000000000000 H
   0.6194250000000000    0.1526300000000000    0.2830150000000000 H
   0.5554400000000000    0.2363900000000000    0.2092900000000000 H
   0.4812300000000000    0.2320550000000000    0.2115800000000000 H
   0.4814850000000000    0.1549550000000000    0.2926300000000000 H
   0.5549150000000000    0.1550350000000000    0.2935250000000000 H
   0.7961650000000000    0.7554050000000000    0.6725550000000000 H
   0.7878000000000001    0.8029050000000000    0.6255500000000001 H
   0.9266449999999999    0.7821650000000000    0.6779500000000001 H
   0.9502600000000000    0.8772350000000000    0.5895400000000000 H
   0.9582950000000000    0.8311649999999999    0.6381250000000001 H
   0.8198600000000000    0.8501650000000001    0.5841499999999999 H
   0.2961650000000000    0.7554050000000000    0.6725550000000000 H
   0.2878000000000000    0.8029050000000000    0.6255500000000001 H
   0.4266450000000000    0.7821650000000000    0.6779500000000001 H
   0.4502600000000000    0.8772350000000000    0.5895400000000000 H
   0.4582950000000000    0.8311649999999999    0.6381250000000001 H
   0.3198600000000000    0.8501650000000001    0.5841499999999999 H
   0.1893450000000000    0.8779399999999999    0.4675200000000000 H
   0.2664400000000000    0.8794600000000000    0.4747650000000000 H
   0.2668200000000000    0.9811200000000000    0.5210800000000000 H
   0.1909100000000000    0.9852200000000000    0.5149200000000000 H
   0.1253300000000000    0.9723850000000001    0.5228800000000000 H
   0.1249150000000000    0.9082850000000000    0.4726500000000000 H
   0.9863800000000000    0.9876700000000000    0.5402749999999999 H
   0.9869749999999999    0.9106250000000000    0.4630050000000000 H
   0.0605800000000000    0.9919950000000000    0.5426050000000000 H
   0.0604050000000000    0.9107000000000001    0.4621000000000000 H
   0.2974400000000000    0.7565050000000000    0.3293000000000000 H
   0.2888100000000000    0.8048350000000000    0.3755900000000000 H
   0.4281900000000000    0.7576950000000000    0.3491350000000000 H
   0.4511200000000000    0.8489100000000001    0.4409250000000000 H
   0.4593650000000000    0.7992699999999999    0.3959350000000000 H
   0.3206700000000000    0.8489450000000001    0.4200250000000000 H
   0.3028100000000000    0.0000000000000000    0.4264000000000000 H
   0.2834800000000000    0.0491100000000000    0.3801200000000000 H
   0.4457250000000000    0.0932700000000000    0.3147050000000000 H
   0.4540350000000000    0.0436500000000000    0.3597050000000000 H
   0.3152800000000000    0.0932300000000000    0.3356600000000000 H
   0.4335500000000000    0.0000000000000000    0.4065000000000000 H
   0.6893450000000000    0.8779399999999999    0.4675200000000000 H
   0.7664400000000000    0.8794600000000000    0.4747650000000000 H
   0.7668200000000001    0.9811200000000000    0.5210800000000000 H
   0.6909100000000000    0.9852200000000000    0.5149200000000000 H
   0.6253299999999999    0.9723850000000001    0.5228800000000000 H
   0.6249150000000000    0.9082850000000000    0.4726500000000000 H
   0.4863800000000000    0.9876700000000000    0.5402749999999999 H
   0.4869750000000000    0.9106250000000000    0.4630050000000000 H
   0.5605800000000000    0.9919950000000000    0.5426050000000000 H
   0.5604050000000000    0.9107000000000001    0.4621000000000000 H
   0.7974399999999999    0.7565050000000000    0.3293000000000000 H
   0.7888100000000000    0.8048350000000000    0.3755900000000000 H
   0.9281900000000001    0.7576950000000000    0.3491350000000000 H
   0.9511200000000000    0.8489100000000001    0.4409250000000000 H
   0.9593650000000000    0.7992699999999999    0.3959350000000000 H
   0.8206700000000000    0.8489450000000001    0.4200250000000000 H
   0.8028100000000000    0.0000000000000000    0.4264000000000000 H
   0.7834800000000000    0.0491100000000000    0.3801200000000000 H
   0.9457249999999999    0.0932700000000000    0.3147050000000000 H
   0.9540350000000000    0.0436500000000000    0.3597050000000000 H
   0.8152800000000000    0.0932300000000000    0.3356600000000000 H
   0.9335500000000000    0.0000000000000000    0.4065000000000000 H
   0.4450000000000000    0.1215550000000000    0.1623150000000000 H
   0.4529750000000000    0.0754700000000000    0.1137000000000000 H
   0.3145900000000000    0.0945500000000000    0.1677500000000000 H
   0.3014000000000000    0.0000000000000000    0.0794000000000000 H
   0.2824700000000000    0.0472950000000000    0.1263500000000000 H
   0.4212650000000000    0.0264800000000000    0.0739200000000000 H
   0.1838550000000000    0.1223100000000000    0.2882400000000000 H
   0.1857500000000000    0.2295850000000000    0.2369550000000000 H
   0.2616650000000000    0.2254900000000000    0.2308000000000000 H
   0.2609550000000000    0.1238300000000000    0.2810250000000000 H
   0.1201750000000000    0.2167750000000000    0.2290000000000000 H
   0.1194250000000000    0.1526300000000000    0.2830150000000000 H
   0.0554400000000000    0.2363900000000000    0.2092900000000000 H
   0.9812300000000000    0.2320550000000000    0.2115800000000000 H
   0.9814849999999999    0.1549550000000000    0.2926300000000000 H
   0.0549150000000000    0.1550350000000000    0.2935250000000000 H
   0.9450000000000001    0.6215550000000000    0.6623150000000000 H
   0.9529750000000000    0.5754700000000000    0.6137000000000000 H
   0.8145899999999999    0.5945500000000000    0.6677500000000001 H
   0.8014000000000000    0.5000000000000000    0.5794000000000000 H
   0.7824700000000000    0.5472950000000000    0.6263500000000000 H
   0.9212650000000000    0.5264799999999999    0.5739200000000000 H
   0.6838550000000000    0.6223100000000000    0.7882400000000001 H
   0.6857500000000000    0.7295850000000000    0.7369550000000000 H
   0.7616650000000000    0.7254900000000000    0.7308000000000000 H
   0.7609550000000000    0.6238300000000000    0.7810250000000001 H
   0.6201750000000000    0.7167749999999999    0.7290000000000000 H
   0.6194250000000000    0.6526300000000000    0.7830150000000000 H
   0.5554400000000000    0.7363900000000000    0.7092900000000000 H
   0.4812300000000000    0.7320550000000000    0.7115800000000000 H
   0.4814850000000000    0.6549550000000000    0.7926299999999999 H
   0.5549150000000000    0.6550350000000000    0.7935250000000000 H
   0.7961650000000000    0.2554050000000000    0.1725550000000000 H
   0.7878000000000001    0.3029050000000000    0.1255500000000000 H
   0.9266449999999999    0.2821650000000000    0.1779500000000000 H
   0.9502600000000000    0.3772350000000000    0.0895400000000000 H
   0.9582950000000000    0.3311650000000000    0.1381250000000000 H
   0.8198600000000000    0.3501650000000000    0.0841500000000000 H
   0.2961650000000000    0.2554050000000000    0.1725550000000000 H
   0.2878000000000000    0.3029050000000000    0.1255500000000000 H
   0.4266450000000000    0.2821650000000000    0.1779500000000000 H
   0.4502600000000000    0.3772350000000000    0.0895400000000000 H
   0.4582950000000000    0.3311650000000000    0.1381250000000000 H
   0.3198600000000000    0.3501650000000000    0.0841500000000000 H
   0.6893450000000000    0.3779400000000000    0.9675199999999999 H
   0.7664400000000000    0.3794600000000000    0.9747650000000000 H
   0.7668200000000001    0.4811200000000000    0.0210800000000000 H
   0.6909100000000000    0.4852200000000000    0.0149200000000000 H
   0.6253299999999999    0.4723850000000000    0.0228800000000000 H
   0.6249150000000000    0.4082850000000000    0.9726500000000000 H
   0.4863800000000000    0.4876700000000000    0.0402750000000000 H
   0.4869750000000000    0.4106250000000000    0.9630050000000000 H
   0.5605800000000000    0.4919950000000000    0.0426050000000000 H
   0.5604050000000000    0.4107000000000000    0.9621000000000000 H
   0.7974399999999999    0.2565050000000000    0.8292999999999999 H
   0.7888100000000000    0.3048350000000000    0.8755900000000000 H
   0.9281900000000001    0.2576950000000000    0.8491350000000000 H
   0.9511200000000000    0.3489100000000000    0.9409250000000000 H
   0.9593650000000000    0.2992700000000000    0.8959349999999999 H
   0.8206700000000000    0.3489450000000000    0.9200250000000000 H
   0.8028100000000000    0.5000000000000000    0.9264000000000000 H
   0.7834800000000000    0.5491100000000000    0.8801200000000000 H
   0.9457249999999999    0.5932700000000000    0.8147050000000000 H
   0.9540350000000000    0.5436500000000000    0.8597049999999999 H
   0.8152800000000000    0.5932300000000000    0.8356600000000001 H
   0.9335500000000000    0.5000000000000000    0.9065000000000000 H
   0.1893450000000000    0.3779400000000000    0.9675199999999999 H
   0.2664400000000000    0.3794600000000000    0.9747650000000000 H
   0.2668200000000000    0.4811200000000000    0.0210800000000000 H
   0.1909100000000000    0.4852200000000000    0.0149200000000000 H
   0.1253300000000000    0.4723850000000000    0.0228800000000000 H
   0.1249150000000000    0.4082850000000000    0.9726500000000000 H
   0.9863800000000000    0.4876700000000000    0.0402750000000000 H
   0.9869749999999999    0.4106250000000000    0.9630050000000000 H
   0.0605800000000000    0.4919950000000000    0.0426050000000000 H
   0.0604050000000000    0.4107000000000000    0.9621000000000000 H
   0.2974400000000000    0.2565050000000000    0.8292999999999999 H
   0.2888100000000000    0.3048350000000000    0.8755900000000000 H
   0.4281900000000000    0.2576950000000000    0.8491350000000000 H
   0.4511200000000000    0.3489100000000000    0.9409250000000000 H
   0.4593650000000000    0.2992700000000000    0.8959349999999999 H
   0.3206700000000000    0.3489450000000000    0.9200250000000000 H
   0.3028100000000000    0.5000000000000000    0.9264000000000000 H
   0.2834800000000000    0.5491100000000000    0.8801200000000000 H
   0.4457250000000000    0.5932700000000000    0.8147050000000000 H
   0.4540350000000000    0.5436500000000000    0.8597049999999999 H
   0.3152800000000000    0.5932300000000000    0.8356600000000001 H
   0.4335500000000000    0.5000000000000000    0.9065000000000000 H
   0.4450000000000000    0.6215550000000000    0.6623150000000000 H
   0.4529750000000000    0.5754700000000000    0.6137000000000000 H
   0.3145900000000000    0.5945500000000000    0.6677500000000001 H
   0.3014000000000000    0.5000000000000000    0.5794000000000000 H
   0.2824700000000000    0.5472950000000000    0.6263500000000000 H
   0.4212650000000000    0.5264799999999999    0.5739200000000000 H
   0.1838550000000000    0.6223100000000000    0.7882400000000001 H
   0.1857500000000000    0.7295850000000000    0.7369550000000000 H
   0.2616650000000000    0.7254900000000000    0.7308000000000000 H
   0.2609550000000000    0.6238300000000000    0.7810250000000001 H
   0.1201750000000000    0.7167749999999999    0.7290000000000000 H
   0.1194250000000000    0.6526300000000000    0.7830150000000000 H
   0.0554400000000000    0.7363900000000000    0.7092900000000000 H
   0.9812300000000000    0.7320550000000000    0.7115800000000000 H
   0.9814849999999999    0.6549550000000000    0.7926299999999999 H
   0.0549150000000000    0.6550350000000000    0.7935250000000000 H
   0.7117500000000000    0.9992250000000000    0.0773850000000000 H
   0.7310800000000000    0.9622299999999999    0.1236650000000000 H
   0.5810050000000000    0.9979549999999999    0.0972350000000000 H
   0.5688350000000000    0.9180650000000000    0.1890750000000000 H
   0.5605250000000001    0.9676800000000000    0.1440750000000000 H
   0.6992800000000000    0.9181049999999999    0.1681200000000000 H
   0.2117500000000000    0.9992250000000000    0.0773850000000000 H
   0.2310800000000000    0.9622299999999999    0.1236650000000000 H
   0.0810050000000000    0.9979549999999999    0.0972350000000000 H
   0.0688350000000000    0.9180650000000000    0.1890750000000000 H
   0.0605250000000000    0.9676800000000000    0.1440750000000000 H
   0.1992800000000000    0.9181049999999999    0.1681200000000000 H
   0.2171200000000000    0.2548350000000000    0.6744400000000000 H
   0.2257450000000000    0.2065050000000000    0.6281900000000000 H
   0.1938900000000000    0.1623900000000000    0.5837550000000000 H
   0.0634350000000000    0.1624250000000000    0.5628600000000000 H