H6 O4
1.0
  32.3160000000000025    0.0000000000000000    0.0000000000000020
  -1.6519724918135625   36.1702951451365848    0.0000000000000022
   0.0000000000000000    0.0000000000000000   37.6139999999999972
H O
6 4
direct
   0.5806432049416149    0.3557857889014308    0.3092570248215320 H
   0.6991546251078714    0.3882588574321412    0.2974159177504064 H
   0.6400857391024988    0.3747363580697994    0.3064121732866550 H
   0.6776806640513464    0.5412855760602504    0.4394050847794218 H
   0.6054492580716813    0.5231012041973214    0.4471130887276677 H
   0.6386455034254357    0.5669174534961116    0.0698554580088180 H
   0.6070550000000000    0.3548450000000000    0.2971150000000000 O
   0.6746550000000000    0.3735050000000000    0.2905200000000000 O
   0.6757250000000000    0.5383850000000000    0.4649950000000000 O
   0.6078550000000000    0.5212500000000000    0.4727500000000000 O
