H6 C12 O4
1.0
  32.3160000000000025    0.0000000000000000    0.0000000000000020
  -1.6519724918135625   36.1702951451365848    0.0000000000000022
   0.0000000000000000    0.0000000000000000   37.6139999999999972
H C O
6 12 4
direct
   0.7320850000000000    0.4640450000000000    0.3774050000000000 H
   0.6999649999999999    0.4167900000000000    0.3360150000000000 H
   0.5695550000000000    0.3897750000000000    0.3414700000000000 H
   0.5615850000000000    0.4358650000000000    0.3900450000000000 H
   0.5932950000000000    0.4848550000000000    0.4298650000000000 H
   0.7131600000000000    0.5002600000000000    0.4243800000000000 H
   0.6972650000000000    0.4948150000000000    0.4148100000000000 C
   0.7016750000000000    0.4685850000000000    0.3888000000000000 C
   0.6667900000000000    0.4471950000000000    0.3760100000000000 C
   0.6700050000000000    0.4210300000000000    0.3483100000000000 C
   0.6354700000000000    0.4009250000000000    0.3359450000000000 C
   0.5961450000000000    0.4060850000000000    0.3516100000000000 C
   0.5919650000000000    0.4314850000000000    0.3784750000000000 C
   0.6267900000000000    0.4529800000000000    0.3912600000000000 C
   0.6234150000000001    0.4800850000000000    0.4181050000000000 C
   0.6394000000000000    0.3743250000000000    0.3055700000000000 C
   0.6431500000000000    0.5186200000000000    0.4579150000000000 C
   0.6577700000000000    0.5000000000000000    0.4297400000000000 C
   0.6746550000000000    0.3735050000000000    0.2905200000000000 O
   0.6070550000000000    0.3548450000000000    0.2971150000000000 O
   0.6078550000000000    0.5212500000000000    0.4727500000000000 O
   0.6757250000000000    0.5383850000000000    0.4649950000000000 O
