H2 O2
1.0
  32.3160000000000025    0.0000000000000000    0.0000000000000020
  -1.6519724918135625   36.1702951451365848    0.0000000000000022
   0.0000000000000000    0.0000000000000000   37.6139999999999972
H O
2 2
direct
   0.4941042665030917    0.7093067037897312    0.7352511278378969 H
   0.7484470311970386    0.6539144531100480    0.7668091377631195 H
   0.4786350000000000    0.6931450000000000    0.7518950000000000 O
   0.7639750000000001    0.6743500000000000    0.7551550000000000 O
