H8 C14 O4
1.0
  17.3829967567117762    0.0000000000000000   -0.0106186697751904
  -0.0023570329798244   18.6445500177923442   -0.1295147807585997
   0.0000000000000000    0.0000000000000000   36.3680000000000021
H C O
8 14 4
direct
   0.0656500000000000    0.7148900000000000    0.4304100000000000 H
   0.2085100000000000    0.7164000000000000    0.4313600000000000 H
   0.4554500000000000    0.7791100000000000    0.4587200000000000 H
   0.3123600000000000    0.7788700000000000    0.4582950000000000 H
   0.3129100000000000    0.5786500000000000    0.5168650000000000 H
   0.2057600000000000    0.6385300000000000    0.5427500000000000 H
   0.4556100000000000    0.5771800000000000    0.5150850000000000 H
   0.0628900000000000    0.6396700000000000    0.5418250000000000 H
   0.0969200000000000    0.6989800000000000    0.4549950000000000 C
   0.1768300000000000    0.7001300000000000    0.4557500000000000 C
   0.4236000000000000    0.7350800000000000    0.4710250000000000 C
   0.3436300000000000    0.7347200000000000    0.4709150000000000 C
   0.4644600000000000    0.6781400000000000    0.4868100000000000 C
   0.9697200000000000    0.6787100000000000    0.4858700000000000 C
   0.5501500000000000    0.6777900000000000    0.4861950000000000 C
   0.3023700000000000    0.6788800000000000    0.4877100000000000 C
   0.0553900000000000    0.6775800000000000    0.4861100000000000 C
   0.2174500000000000    0.6781300000000000    0.4872150000000000 C
   0.3438600000000000    0.6229900000000000    0.5043550000000000 C
   0.1753500000000000    0.6551800000000000    0.5180100000000000 C
   0.4238100000000000    0.6218100000000000    0.5032799999999999 C
   0.0953900000000000    0.6558000000000000    0.5176700000000000 C
   0.9364700000000000    0.6874100000000000    0.4547850000000000 O
   0.5833800000000000    0.6172500000000000    0.4907050000000000 O
   0.5836800000000000    0.7379599999999999    0.4811650000000000 O
   0.9360900000000000    0.6712200000000000    0.5168650000000000 O
