Zn32 H130 C232 O104
1.0
  17.3829967567117762    0.0000000000000000   -0.0106186697751904
  -0.0023570329798244   18.6445500177923442   -0.1295147807585997
   0.0000000000000000    0.0000000000000000   36.3680000000000021
Zn H C O
32 130 232 104
direct
   0.6935700000000000    0.5939100000000000    0.4874550000000000 Zn
   0.8265900000000000    0.6781000000000000    0.5298900000000000 Zn
   0.8264300000000000    0.6808800000000000    0.4423400000000000 Zn
   0.6932000000000000    0.7648000000000000    0.4859800000000000 Zn
   0.7000400000000000    0.1782400000000000    0.2797900000000000 Zn
   0.8331800000000000    0.0941700000000000    0.2375850000000000 Zn
   0.7001500000000001    0.1809500000000000    0.1922650000000000 Zn
   0.8334800000000000    0.2650200000000000    0.2358600000000000 Zn
   0.6935700000000000    0.5939100000000000    0.9874550000000000 Zn
   0.8265900000000000    0.6781000000000000    0.0298900000000000 Zn
   0.8264300000000000    0.6808800000000000    0.9423400000000000 Zn
   0.6932000000000000    0.7648000000000000    0.9859800000000001 Zn
   0.7000400000000000    0.1782400000000000    0.7797900000000000 Zn
   0.8331800000000000    0.0941700000000000    0.7375849999999999 Zn
   0.7001500000000001    0.1809500000000000    0.6922650000000000 Zn
   0.8334800000000000    0.2650200000000000    0.7358600000000000 Zn
   0.3064700000000000    0.4042700000000000    0.5125450000000000 Zn
   0.1732800000000000    0.3216300000000000    0.4701200000000000 Zn
   0.3068600000000000    0.2343300000000000    0.5140749999999999 Zn
   0.1736500000000000    0.3184600000000000    0.5578100000000000 Zn
   0.3000800000000000    0.8200100000000000    0.7201700000000000 Zn
   0.1668300000000000    0.9039199999999999    0.7625000000000000 Zn
   0.1664500000000000    0.7341900000000000    0.7641600000000000 Zn
   0.2999600000000000    0.8187400000000000    0.8078000000000001 Zn
   0.3064700000000000    0.4042700000000000    0.0125450000000000 Zn
   0.1732800000000000    0.3216300000000000    0.9701200000000000 Zn
   0.3068600000000000    0.2343300000000000    0.0140750000000000 Zn
   0.1736500000000000    0.3184600000000000    0.0578100000000000 Zn
   0.3000800000000000    0.8200100000000000    0.2201700000000000 Zn
   0.1668300000000000    0.9039199999999999    0.2625000000000000 Zn
   0.1664500000000000    0.7341900000000000    0.2641600000000000 Zn
   0.2999600000000000    0.8187400000000000    0.3078000000000000 Zn
   0.6724400000000000    0.0311300000000000    0.1080400000000000 H
   0.6696700000000000    0.9334600000000000    0.0602350000000000 H
   0.8557900000000001    0.9222200000000000    0.1639500000000000 H
   0.8530100000000000    0.8249000000000000    0.1162300000000000 H
   0.6724400000000000    0.0311300000000000    0.6080400000000000 H
   0.6696700000000000    0.9334600000000000    0.5602350000000000 H
   0.8557900000000001    0.9222200000000000    0.6639500000000000 H
   0.8530100000000000    0.8249000000000000    0.6162300000000001 H
   0.8657500000000000    0.4270600000000000    0.6593150000000000 H
   0.8643600000000000    0.5243200000000000    0.6119250000000001 H
   0.6549600000000000    0.4379900000000000    0.5669850000000000 H
   0.6567900000000000    0.3405400000000000    0.6139050000000000 H
   0.0628900000000000    0.6396700000000000    0.5418250000000000 H
   0.2057600000000000    0.6385300000000000    0.5427500000000000 H
   0.0656500000000000    0.7148900000000000    0.4304100000000000 H
   0.2085100000000000    0.7164000000000000    0.4313600000000000 H
   0.3129100000000000    0.5786500000000000    0.5168650000000000 H
   0.4556100000000000    0.5771800000000000    0.5150850000000000 H
   0.4554500000000000    0.7791100000000000    0.4587200000000000 H
   0.3123600000000000    0.7788700000000000    0.4582950000000000 H
   0.6615900000000000    0.0253900000000000    0.3622000000000000 H
   0.6594700000000000    0.9283200000000000    0.4096450000000000 H
   0.8642800000000000    0.9318300000000000    0.3142350000000000 H
   0.8613400000000000    0.8343300000000000    0.3610650000000000 H
   0.6719800000000000    0.4207700000000000    0.4138250000000000 H
   0.6754800000000000    0.3240600000000000    0.3657800000000000 H
   0.8594300000000000    0.5280700000000000    0.3602900000000000 H
   0.8625200000000000    0.4312600000000000    0.3120150000000000 H
   0.0714300000000000    0.2760600000000000    0.2057000000000000 H
   0.2145900000000000    0.2745400000000000    0.2050000000000000 H
   0.2126500000000000    0.0825500000000000    0.2704500000000000 H
   0.0702300000000000    0.0816200000000000    0.2686300000000000 H
   0.4636200000000000    0.1530000000000000    0.2938750000000000 H
   0.3204600000000000    0.1524500000000000    0.2949650000000000 H
   0.4603200000000000    0.1990600000000000    0.1783050000000000 H
   0.3171000000000000    0.2000500000000000    0.1791500000000000 H
   0.8657500000000000    0.4270600000000000    0.1593150000000000 H
   0.8643600000000000    0.5243200000000000    0.1119250000000000 H
   0.6549600000000000    0.4379900000000000    0.0669850000000000 H
   0.6567900000000000    0.3405400000000000    0.1139050000000000 H
   0.0628900000000000    0.6396700000000000    0.0418250000000000 H
   0.2057600000000000    0.6385300000000000    0.0427500000000000 H
   0.0656500000000000    0.7148900000000000    0.9304100000000000 H
   0.2085100000000000    0.7164000000000000    0.9313600000000000 H
   0.3129100000000000    0.5786500000000000    0.0168650000000000 H
   0.4556100000000000    0.5771800000000000    0.0150850000000000 H
   0.4554500000000000    0.7791100000000000    0.9587200000000000 H
   0.3123600000000000    0.7788700000000000    0.9582950000000000 H
   0.6615900000000000    0.0253900000000000    0.8622000000000001 H
   0.6594700000000000    0.9283200000000000    0.9096450000000000 H
   0.8642800000000000    0.9318300000000000    0.8142350000000000 H
   0.8613400000000000    0.8343300000000000    0.8610650000000000 H
   0.6719800000000000    0.4207700000000000    0.9138250000000000 H
   0.6754800000000000    0.3240600000000000    0.8657800000000000 H
   0.8594300000000000    0.5280700000000000    0.8602900000000000 H
   0.8625200000000000    0.4312600000000000    0.8120149999999999 H
   0.0714300000000000    0.2760600000000000    0.7057000000000000 H
   0.2145900000000000    0.2745400000000000    0.7050000000000000 H
   0.2126500000000000    0.0825500000000000    0.7704500000000001 H
   0.0702300000000000    0.0816200000000000    0.7686299999999999 H
   0.4636200000000000    0.1530000000000000    0.7938750000000000 H
   0.3204600000000000    0.1524500000000000    0.7949649999999999 H
   0.4603200000000000    0.1990600000000000    0.6783049999999999 H
   0.3171000000000000    0.2000500000000000    0.6791500000000000 H
   0.3138090829355960    0.9047978705706906    0.3587428127099890 H
   0.1529487695282493    1.0071855892494206    0.3046466191762685 H
   0.2332713379240674    0.9638733414094603    0.3355010752505652 H
   0.1818793988492953    0.2464522306968865    0.4147622108807389 H
   0.3005908583610335    0.1820276337093744    0.4425616411321004 H
   0.3374400000000000    0.9723700000000000    0.6372750000000000 H
   0.3395400000000000    0.0696100000000000    0.5899650000000000 H
   0.1354400000000000    0.0662700000000000    0.6857100000000000 H
   0.1382500000000000    0.1638700000000000    0.6389500000000000 H
   0.6867700000000000    0.4207900000000000    0.4833400000000000 H
   0.5440199999999999    0.4216700000000000    0.4850500000000000 H
   0.5450700000000001    0.2199600000000000    0.5416300000000001 H
   0.6882000000000000    0.2209200000000000    0.5421899999999999 H
   0.9366900000000000    0.3593200000000000    0.4579400000000000 H
   0.7937900000000000    0.3598100000000000    0.4571700000000000 H
   0.9348000000000000    0.2875200000000000    0.5699650000000001 H
   0.7919200000000000    0.2851700000000000    0.5691450000000000 H
   0.1337400000000000    0.5730600000000000    0.8413150000000000 H
   0.1351500000000000    0.4761800000000000    0.8888499999999999 H
   0.3449200000000000    0.5624400000000001    0.9334500000000000 H
   0.3429600000000000    0.6596400000000000    0.8864099999999999 H
   0.3260700000000000    0.6737800000000000    0.6346650000000000 H
   0.3300700000000000    0.5765700000000000    0.5868700000000000 H
   0.1422900000000000    0.4697100000000000    0.6403650000000000 H
   0.1383700000000000    0.5672199999999999    0.6882550000000001 H
   0.7879000000000000    0.9166000000000000    0.7295050000000000 H
   0.9303200000000000    0.9169900000000000    0.7315750000000000 H
   0.9278100000000000    0.7220800000000001    0.7940750000000000 H
   0.7846600000000000    0.7241500000000000    0.7945800000000001 H
   0.5361399999999999    0.8482600000000000    0.7063450000000000 H
   0.6792800000000000    0.8488400000000000    0.7051000000000001 H
   0.5397999999999999    0.7987300000000001    0.8215200000000000 H
   0.6830200000000000    0.7979300000000000    0.8205750000000001 H
   0.3282600000000000    0.9692200000000000    0.8915200000000000 H
   0.3310100000000000    0.0668600000000000    0.9393100000000000 H
   0.1436200000000000    0.0771900000000000    0.8360950000000000 H
   0.1463900000000000    0.1745000000000000    0.8838150000000000 H
   0.3374400000000000    0.9723700000000000    0.1372750000000000 H
   0.3395400000000000    0.0696100000000000    0.0899650000000000 H
   0.1354400000000000    0.0662700000000000    0.1857100000000000 H
   0.1382500000000000    0.1638700000000000    0.1389500000000000 H
   0.6867700000000000    0.4207900000000000    0.9833400000000000 H
   0.5440199999999999    0.4216700000000000    0.9850500000000000 H
   0.5450700000000001    0.2199600000000000    0.0416300000000000 H
   0.6882000000000000    0.2209200000000000    0.0421900000000000 H
   0.9366900000000000    0.3593200000000000    0.9579400000000000 H
   0.7937900000000000    0.3598100000000000    0.9571700000000001 H
   0.9348000000000000    0.2875200000000000    0.0699650000000000 H
   0.7919200000000000    0.2851700000000000    0.0691450000000000 H
   0.1337400000000000    0.5730600000000000    0.3413150000000000 H
   0.1351500000000000    0.4761800000000000    0.3888500000000000 H
   0.3449200000000000    0.5624400000000001    0.4334500000000000 H
   0.3429600000000000    0.6596400000000000    0.3864100000000000 H
   0.3260700000000000    0.6737800000000000    0.1346650000000000 H
   0.3300700000000000    0.5765700000000000    0.0868700000000000 H
   0.1422900000000000    0.4697100000000000    0.1403650000000000 H
   0.1383700000000000    0.5672199999999999    0.1882550000000000 H
   0.7879000000000000    0.9166000000000000    0.2295050000000000 H
   0.9303200000000000    0.9169900000000000    0.2315750000000000 H
   0.9278100000000000    0.7220800000000001    0.2940750000000000 H
   0.7846600000000000    0.7241500000000000    0.2945800000000000 H
   0.5361399999999999    0.8482600000000000    0.2063450000000000 H
   0.6792800000000000    0.8488400000000000    0.2051000000000000 H
   0.5397999999999999    0.7987300000000001    0.3215200000000000 H
   0.6830200000000000    0.7979300000000000    0.3205750000000000 H
   0.2401204148254130    0.2537741618250541    0.3134832122905807 H
   0.7601900000000000    0.8159200000000000    0.0565100000000000 C
   0.7660400000000001    0.0412200000000000    0.1671200000000000 C
   0.7116300000000000    0.9857200000000000    0.1095800000000000 C
   0.7100600000000000    0.9315900000000000    0.0831000000000000 C
   0.7642500000000000    0.9825400000000000    0.1388000000000000 C
   0.8151200000000000    0.9242899999999999    0.1412250000000000 C
   0.8136200000000000    0.8701700000000000    0.1147050000000000 C
   0.7612000000000000    0.8735500000000000    0.0854050000000000 C
   0.7601900000000000    0.8159200000000000    0.5565099999999999 C
   0.7660400000000001    0.0412200000000000    0.6671199999999999 C
   0.7116300000000000    0.9857200000000000    0.6095800000000000 C
   0.7100600000000000    0.9315900000000000    0.5831000000000000 C
   0.7642500000000000    0.9825400000000000    0.6388000000000000 C
   0.8151200000000000    0.9242899999999999    0.6412249999999999 C
   0.8136200000000000    0.8701700000000000    0.6147050000000001 C
   0.7612000000000000    0.8735500000000000    0.5854050000000000 C
   0.7599000000000000    0.5432700000000000    0.5578550000000000 C
   0.7637800000000000    0.3193500000000000    0.6669550000000000 C
   0.8200200000000000    0.4300200000000000    0.6389199999999999 C
   0.8191700000000000    0.4839300000000000    0.6127000000000000 C
   0.7597500000000000    0.4865500000000000    0.5866550000000000 C
   0.7007600000000000    0.4352500000000000    0.5873150000000000 C
   0.7018300000000000    0.3811100000000000    0.6133950000000000 C
   0.7616500000000000    0.3780100000000000    0.6392249999999999 C
   0.5501500000000000    0.6777900000000000    0.4861950000000000 C
   0.9697200000000000    0.6787100000000000    0.4858700000000000 C
   0.0953900000000000    0.6558000000000000    0.5176700000000000 C
   0.1753500000000000    0.6551800000000000    0.5180100000000000 C
   0.0969200000000000    0.6989800000000000    0.4549950000000000 C
   0.1768300000000000    0.7001300000000000    0.4557500000000000 C
   0.0553900000000000    0.6775800000000000    0.4861100000000000 C
   0.2174500000000000    0.6781300000000000    0.4872150000000000 C
   0.3438600000000000    0.6229900000000000    0.5043550000000000 C
   0.4238100000000000    0.6218100000000000    0.5032799999999999 C
   0.4236000000000000    0.7350800000000000    0.4710250000000000 C
   0.3436300000000000    0.7347200000000000    0.4709150000000000 C
   0.4644600000000000    0.6781400000000000    0.4868100000000000 C
   0.3023700000000000    0.6788800000000000    0.4877100000000000 C
   0.7643600000000000    0.0418500000000000    0.3070750000000000 C
   0.7589600000000000    0.8178500000000000    0.4163450000000000 C
   0.7051200000000000    0.9834200000000000    0.3623000000000000 C
   0.7038200000000000    0.9295400000000000    0.3885350000000000 C
   0.8196600000000001    0.9306500000000000    0.3351700000000000 C
   0.8180200000000000    0.8764500000000000    0.3612150000000000 C
   0.7601900000000000    0.8756000000000000    0.3880750000000000 C
   0.7630600000000000    0.9842500000000000    0.3354600000000000 C
   0.7697300000000000    0.3152600000000000    0.3067650000000000 C
   0.7629400000000000    0.5387999999999999    0.4182250000000000 C
   0.7137900000000000    0.4225500000000000    0.3915850000000000 C
   0.7156000000000000    0.3688400000000000    0.3648650000000000 C
   0.8195300000000000    0.4831200000000000    0.3612450000000000 C
   0.8212800000000000    0.4294600000000000    0.3345100000000000 C
   0.7691100000000000    0.3721300000000000    0.3360450000000000 C
   0.7655999999999999    0.4802000000000000    0.3899100000000000 C
   0.5565400000000000    0.1776200000000000    0.2358750000000000 C
   0.9762400000000000    0.1785600000000000    0.2362950000000000 C
   0.1030700000000000    0.2335400000000000    0.2195050000000000 C
   0.1830100000000000    0.2325500000000000    0.2192600000000000 C
   0.1821900000000000    0.1254500000000000    0.2564400000000000 C
   0.1022400000000000    0.1246300000000000    0.2554850000000000 C
   0.0619300000000000    0.1789300000000000    0.2371600000000000 C
   0.2238600000000000    0.1786300000000000    0.2378350000000000 C
   0.4309200000000000    0.1628100000000000    0.2688650000000000 C
   0.3509600000000000    0.1624000000000000    0.2693000000000000 C
   0.4291300000000000    0.1895200000000000    0.2037700000000000 C
   0.3491500000000000    0.1905300000000000    0.2044250000000000 C
   0.4708100000000000    0.1764300000000000    0.2360950000000000 C
   0.3087800000000000    0.1771500000000000    0.2372000000000000 C
   0.7599000000000000    0.5432700000000000    0.0578550000000000 C
   0.7637800000000000    0.3193500000000000    0.1669550000000000 C
   0.8200200000000000    0.4300200000000000    0.1389200000000000 C
   0.8191700000000000    0.4839300000000000    0.1127000000000000 C
   0.7597500000000000    0.4865500000000000    0.0866550000000000 C
   0.7007600000000000    0.4352500000000000    0.0873150000000000 C
   0.7018300000000000    0.3811100000000000    0.1133950000000000 C
   0.7616500000000000    0.3780100000000000    0.1392250000000000 C
   0.5501500000000000    0.6777900000000000    0.9861949999999999 C
   0.9697200000000000    0.6787100000000000    0.9858700000000000 C
   0.0953900000000000    0.6558000000000000    0.0176700000000000 C
   0.1753500000000000    0.6551800000000000    0.0180100000000000 C
   0.0969200000000000    0.6989800000000000    0.9549950000000000 C
   0.1768300000000000    0.7001300000000000    0.9557500000000000 C
   0.0553900000000000    0.6775800000000000    0.9861100000000000 C
   0.2174500000000000    0.6781300000000000    0.9872150000000000 C
   0.3438600000000000    0.6229900000000000    0.0043550000000000 C
   0.4238100000000000    0.6218100000000000    0.0032800000000000 C
   0.4236000000000000    0.7350800000000000    0.9710250000000000 C
   0.3436300000000000    0.7347200000000000    0.9709150000000000 C
   0.4644600000000000    0.6781400000000000    0.9868100000000000 C
   0.3023700000000000    0.6788800000000000    0.9877100000000000 C
   0.7643600000000000    0.0418500000000000    0.8070750000000000 C
   0.7589600000000000    0.8178500000000000    0.9163450000000000 C
   0.7051200000000000    0.9834200000000000    0.8623000000000001 C
   0.7038200000000000    0.9295400000000000    0.8885350000000001 C
   0.8196600000000001    0.9306500000000000    0.8351700000000000 C
   0.8180200000000000    0.8764500000000000    0.8612150000000001 C
   0.7601900000000000    0.8756000000000000    0.8880749999999999 C
   0.7630600000000000    0.9842500000000000    0.8354600000000000 C
   0.7697300000000000    0.3152600000000000    0.8067650000000000 C
   0.7629400000000000    0.5387999999999999    0.9182250000000001 C
   0.7137900000000000    0.4225500000000000    0.8915850000000001 C
   0.7156000000000000    0.3688400000000000    0.8648650000000000 C
   0.8195300000000000    0.4831200000000000    0.8612450000000000 C
   0.8212800000000000    0.4294600000000000    0.8345100000000000 C
   0.7691100000000000    0.3721300000000000    0.8360449999999999 C
   0.7655999999999999    0.4802000000000000    0.8899100000000000 C
   0.5565400000000000    0.1776200000000000    0.7358750000000001 C
   0.9762400000000000    0.1785600000000000    0.7362950000000000 C
   0.1030700000000000    0.2335400000000000    0.7195050000000001 C
   0.1830100000000000    0.2325500000000000    0.7192600000000000 C
   0.1821900000000000    0.1254500000000000    0.7564400000000000 C
   0.1022400000000000    0.1246300000000000    0.7554850000000000 C
   0.0619300000000000    0.1789300000000000    0.7371600000000000 C
   0.2238600000000000    0.1786300000000000    0.7378350000000000 C
   0.4309200000000000    0.1628100000000000    0.7688650000000000 C
   0.3509600000000000    0.1624000000000000    0.7693000000000000 C
   0.4291300000000000    0.1895200000000000    0.7037700000000000 C
   0.3491500000000000    0.1905300000000000    0.7044250000000000 C
   0.4708100000000000    0.1764300000000000    0.7360949999999999 C
   0.3087800000000000    0.1771500000000000    0.7372000000000000 C
   0.2353000000000000    0.9559500000000000    0.6926900000000000 C
   0.2405900000000000    0.1807300000000000    0.5835800000000000 C
   0.2940400000000000    0.0144500000000000    0.6373000000000000 C
   0.2953100000000000    0.0684500000000000    0.6111350000000000 C
   0.1799100000000000    0.0673800000000000    0.6646950000000000 C
   0.1814900000000000    0.1216700000000000    0.6386499999999999 C
   0.2391600000000000    0.1226000000000000    0.6117250000000000 C
   0.2363600000000000    0.0136300000000000    0.6642950000000000 C
   0.4499600000000000    0.3206700000000000    0.5138800000000000 C
   0.0302500000000000    0.3224000000000000    0.5141500000000000 C
   0.6559700000000001    0.3764100000000000    0.4958950000000000 C
   0.5760200000000000    0.3772400000000000    0.4969000000000000 C
   0.5767400000000000    0.2640800000000000    0.5293000000000000 C
   0.6567100000000000    0.2648300000000000    0.5294500000000000 C
   0.5356300000000001    0.3207200000000000    0.5133850000000000 C
   0.6976800000000000    0.3207600000000000    0.5126150000000000 C
   0.9043700000000000    0.3438300000000000    0.4822700000000000 C
   0.8244200000000000    0.3440700000000000    0.4820050000000000 C
   0.9033300000000000    0.3025500000000000    0.5452950000000000 C
   0.8234200000000000    0.3009400000000000    0.5446000000000000 C
   0.9445900000000000    0.3232300000000000    0.5139700000000000 C
   0.7825900000000000    0.3218500000000000    0.5130250000000000 C
   0.2400200000000000    0.4571000000000000    0.9427650000000001 C
   0.2360200000000000    0.6805600000000001    0.8333333333333333 C
   0.1795400000000000    0.5702199999999999    0.8616800000000000 C
   0.1804100000000000    0.5165000000000000    0.8879800000000000 C
   0.2989900000000000    0.5651400000000000    0.9131850000000000 C
   0.2978700000000000    0.6191400000000000    0.8870199999999999 C
   0.2399600000000000    0.5139000000000000    0.9139900000000001 C
   0.2380000000000000    0.6221300000000000    0.8612050000000000 C
   0.2309200000000000    0.6835000000000000    0.6932600000000000 C
   0.2388700000000000    0.4585700000000000    0.5826100000000000 C
   0.2859400000000000    0.6290100000000000    0.6356050000000000 C
   0.2880800000000000    0.5750000000000000    0.6090450000000001 C
   0.1821200000000000    0.5147100000000000    0.6393500000000000 C
   0.1799100000000000    0.5687400000000000    0.6658850000000001 C
   0.2320300000000000    0.6260900000000000    0.6642700000000000 C
   0.2363000000000000    0.5173700000000000    0.6108000000000000 C
   0.4434500000000000    0.8212800000000000    0.7641400000000000 C
   0.0235900000000000    0.8196099999999999    0.7639850000000000 C
   0.8180700000000000    0.8734900000000000    0.7434850000000000 C
   0.8980200000000000    0.8740000000000000    0.7445500000000000 C
   0.8964600000000000    0.7648200000000001    0.7803550000000000 C
   0.8165300000000000    0.7661300000000000    0.7804500000000000 C
   0.9379400000000000    0.8194600000000000    0.7629150000000000 C
   0.7760500000000000    0.8204200000000000    0.7619950000000000 C
   0.5689200000000000    0.8376600000000000    0.7312400000000000 C
   0.6488800000000000    0.8381300000000000    0.7307500000000000 C
   0.5709300000000000    0.8090200000000000    0.7961150000000000 C
   0.6508900000000000    0.8081300000000000    0.7954000000000000 C
   0.5291600000000000    0.8229400000000000    0.7639199999999999 C
   0.6911600000000000    0.8222800000000000    0.7626800000000000 C
   0.2398100000000000    0.1839600000000000    0.9433300000000000 C
   0.2340200000000000    0.9585500000000000    0.8327000000000000 C
   0.2887900000000000    0.0144300000000000    0.8900500000000000 C
   0.2903400000000000    0.0685500000000000    0.9165600000000000 C
   0.1845800000000000    0.0753100000000000    0.8587050000000001 C
   0.1860800000000000    0.1294400000000000    0.8852300000000000 C
   0.2388300000000000    0.1263300000000000    0.9144050000000000 C
   0.2358000000000000    0.0173100000000000    0.8609650000000000 C
   0.2353000000000000    0.9559500000000000    0.1926900000000000 C
   0.2405900000000000    0.1807300000000000    0.0835800000000000 C
   0.2940400000000000    0.0144500000000000    0.1373000000000000 C
   0.2953100000000000    0.0684500000000000    0.1111350000000000 C
   0.1799100000000000    0.0673800000000000    0.1646950000000000 C
   0.1814900000000000    0.1216700000000000    0.1386500000000000 C
   0.2391600000000000    0.1226000000000000    0.1117250000000000 C
   0.2363600000000000    0.0136300000000000    0.1642950000000000 C
   0.4499600000000000    0.3206700000000000    0.0138800000000000 C
   0.0302500000000000    0.3224000000000000    0.0141500000000000 C
   0.6559700000000001    0.3764100000000000    0.9958950000000000 C
   0.5760200000000000    0.3772400000000000    0.9969000000000000 C
   0.5767400000000000    0.2640800000000000    0.0293000000000000 C
   0.6567100000000000    0.2648300000000000    0.0294500000000000 C
   0.5356300000000001    0.3207200000000000    0.0133850000000000 C
   0.6976800000000000    0.3207600000000000    0.0126150000000000 C
   0.9043700000000000    0.3438300000000000    0.9822700000000000 C
   0.8244200000000000    0.3440700000000000    0.9820050000000000 C
   0.9033300000000000    0.3025500000000000    0.0452950000000000 C
   0.8234200000000000    0.3009400000000000    0.0446000000000000 C
   0.9445900000000000    0.3232300000000000    0.0139700000000000 C
   0.7825900000000000    0.3218500000000000    0.0130250000000000 C
   0.2400200000000000    0.4571000000000000    0.4427650000000000 C
   0.2360200000000000    0.6805600000000001    0.3333333333333333 C
   0.1795400000000000    0.5702199999999999    0.3616800000000000 C
   0.1804100000000000    0.5165000000000000    0.3879800000000000 C
   0.2989900000000000    0.5651400000000000    0.4131850000000000 C
   0.2978700000000000    0.6191400000000000    0.3870200000000000 C
   0.2399600000000000    0.5139000000000000    0.4139900000000000 C
   0.2380000000000000    0.6221300000000000    0.3612050000000000 C
   0.2309200000000000    0.6835000000000000    0.1932600000000000 C
   0.2388700000000000    0.4585700000000000    0.0826100000000000 C
   0.2859400000000000    0.6290100000000000    0.1356050000000000 C
   0.2880800000000000    0.5750000000000000    0.1090450000000000 C
   0.1821200000000000    0.5147100000000000    0.1393500000000000 C
   0.1799100000000000    0.5687400000000000    0.1658850000000000 C
   0.2320300000000000    0.6260900000000000    0.1642700000000000 C
   0.2363000000000000    0.5173700000000000    0.1108000000000000 C
   0.4434500000000000    0.8212800000000000    0.2641400000000000 C
   0.0235900000000000    0.8196099999999999    0.2639850000000000 C
   0.8180700000000000    0.8734900000000000    0.2434850000000000 C
   0.8980200000000000    0.8740000000000000    0.2445500000000000 C
   0.8964600000000000    0.7648200000000001    0.2803550000000000 C
   0.8165300000000000    0.7661300000000000    0.2804500000000000 C
   0.9379400000000000    0.8194600000000000    0.2629150000000000 C
   0.7760500000000000    0.8204200000000000    0.2619950000000000 C
   0.5689200000000000    0.8376600000000000    0.2312400000000000 C
   0.6488800000000000    0.8381300000000000    0.2307500000000000 C
   0.5709300000000000    0.8090200000000000    0.2961150000000000 C
   0.6508900000000000    0.8081300000000000    0.2954000000000000 C
   0.5291600000000000    0.8229400000000000    0.2639200000000000 C
   0.6911600000000000    0.8222800000000000    0.2626800000000000 C
   0.8098900000000000    0.7659500000000000    0.0595400000000000 O
   0.7096700000000000    0.8218700000000000    0.0311750000000000 O
   0.7201000000000000    0.0936800000000000    0.1623950000000000 O
   0.8135300000000000    0.0337400000000000    0.1937150000000000 O
   0.8098900000000000    0.7659500000000000    0.5595400000000000 O
   0.7096700000000000    0.8218700000000000    0.5311750000000000 O
   0.7201000000000000    0.0936800000000000    0.6623950000000001 O
   0.8135300000000000    0.0337400000000000    0.6937150000000000 O
   0.8067500000000000    0.5953700000000000    0.5621500000000000 O
   0.7130700000000000    0.5346000000000000    0.5311250000000000 O
   0.8099499999999999    0.3278000000000000    0.6939000000000000 O
   0.7196200000000000    0.2655700000000000    0.6612450000000000 O
   0.7597900000000000    0.6792700000000000    0.4861300000000000 O
   0.5836800000000000    0.7379599999999999    0.4811650000000000 O
   0.5833800000000000    0.6172500000000000    0.4907050000000000 O
   0.9360900000000000    0.6712200000000000    0.5168650000000000 O
   0.9364700000000000    0.6874100000000000    0.4547850000000000 O
   0.8131699999999999    0.0345400000000000    0.2811000000000000 O
   0.7167600000000000    0.0935000000000000    0.3110200000000000 O
   0.7137600000000000    0.8272500000000000    0.4436200000000000 O
   0.8031199999999999    0.7639899999999999    0.4108950000000000 O
   0.7198500000000000    0.2654300000000000    0.3095850000000000 O
   0.8199700000000000    0.3217200000000000    0.2813500000000000 O
   0.8096500000000000    0.5909000000000000    0.4140550000000000 O
   0.7138000000000000    0.5317200000000000    0.4441300000000000 O
   0.5901400000000000    0.1749300000000000    0.2671200000000000 O
   0.5898500000000000    0.1815000000000000    0.2045750000000000 O
   0.9427200000000000    0.2381200000000000    0.2296500000000000 O
   0.9429900000000000    0.1185300000000000    0.2422000000000000 O
   0.7667400000000000    0.1795900000000000    0.2360700000000000 O
   0.8067500000000000    0.5953700000000000    0.0621500000000000 O
   0.7130700000000000    0.5346000000000000    0.0311250000000000 O
   0.8099499999999999    0.3278000000000000    0.1939000000000000 O
   0.7196200000000000    0.2655700000000000    0.1612450000000000 O
   0.7597900000000000    0.6792700000000000    0.9861300000000000 O
   0.5836800000000000    0.7379599999999999    0.9811650000000001 O
   0.5833800000000000    0.6172500000000000    0.9907049999999999 O
   0.9360900000000000    0.6712200000000000    0.0168650000000000 O
   0.9364700000000000    0.6874100000000000    0.9547850000000000 O
   0.8131699999999999    0.0345400000000000    0.7811000000000000 O
   0.7167600000000000    0.0935000000000000    0.8110200000000001 O
   0.7137600000000000    0.8272500000000000    0.9436200000000000 O