H3 C9 O6
1.0
  16.4080537797401114    0.0000000000000000    9.4644141478041934
   5.4673832078300961   15.4798751441550326    9.4848714477376355
   0.0000000000000000    0.0000000000000000   37.9299999999999997
H C O
3 9 6
direct
   0.4736200000000000    0.7667100000000000    0.8830600000000000 H
   0.4735600000000000    0.7662099999999999    0.9966999999999999 H
   0.4739200000000000    0.9934500000000001    0.8832400000000000 H
   0.4771500000000000    0.9294900000000000    0.8322750000000000 C
   0.4726900000000000    0.8852900000000000    0.8785200000000000 C
   0.4769400000000000    0.6646700000000000    0.9644300000000000 C
   0.4725300000000000    0.7571800000000000    0.9424550000000000 C
   0.4770200000000000    0.9288300000000000    0.9646950000000001 C
   0.4726300000000000    0.8849900000000001    0.9425749999999999 C
   0.4725200000000000    0.8000800000000000    0.8998450000000000 C
   0.4724700000000000    0.7998000000000000    0.9637750000000000 C
   0.4726600000000000    0.9276400000000000    0.8999500000000000 C
   0.4795600000000000    0.6283500000000000    0.0028700000000000 O
   0.4795300000000000    0.8855200000000000    0.0031500000000000 O
   0.4794400000000000    0.8865100000000000    0.8141350000000001 O
   0.4795800000000000    0.0057600000000000    0.9431800000000000 O
   0.4793000000000000    0.6284500000000000    0.9428950000000000 O
   0.4798400000000000    0.0063600000000000    0.8141550000000000 O
