Zn24 H54 C135 O96
1.0
  16.4080537797401114    0.0000000000000000    9.4644141478041934
   5.4673832078300961   15.4798751441550326    9.4848714477376355
   0.0000000000000000    0.0000000000000000   37.9299999999999997
Zn H C O
24 54 135 96
direct
   0.5002300000000000    0.5000000000000000    0.0336950000000000 Zn
   0.4999900000000000    0.0676200000000000    0.9661950000000000 Zn
   0.4997600000000000    0.9325200000000000    0.2499950000000000 Zn
   0.5002300000000000    0.5000000000000000    0.5336950000000000 Zn
   0.4999900000000000    0.0676200000000000    0.4661950000000000 Zn
   0.4997600000000000    0.9325200000000000    0.7499950000000000 Zn
   0.4999000000000000    0.9323399999999999    0.0337500000000000 Zn
   0.4999000000000000    0.9323399999999999    0.5337499999999999 Zn
   0.4999000000000000    0.4998900000000000    0.9662250000000000 Zn
   0.9323700000000000    0.5000200000000000    0.0337500000000000 Zn
   0.0676000000000000    0.5000599999999999    0.7500350000000000 Zn
   0.0676200000000000    0.5002000000000000    0.9661999999999999 Zn
   0.9323600000000000    0.4998600000000000    0.7500000000000000 Zn
   0.0675900000000000    0.9323600000000000    0.7499650000000000 Zn
   0.5001500000000000    0.0675800000000000    0.7499500000000000 Zn
   0.4999000000000000    0.4998900000000000    0.4662250000000000 Zn
   0.9323700000000000    0.5000200000000000    0.5337499999999999 Zn
   0.0676000000000000    0.5000599999999999    0.2500350000000000 Zn
   0.0676200000000000    0.5002000000000000    0.4662000000000000 Zn
   0.9323600000000000    0.4998600000000000    0.2500000000000000 Zn
   0.0675900000000000    0.9323600000000000    0.2499650000000000 Zn
   0.5001500000000000    0.0675800000000000    0.2499500000000000 Zn
   0.9323900000000001    0.0676000000000000    0.2499300000000000 Zn
   0.9323900000000001    0.0676000000000000    0.7499300000000000 Zn
   0.2329300000000000    0.2334000000000000    0.5030400000000000 H
   0.0061600000000000    0.2330800000000000    0.6167100000000000 H
   0.2333500000000000    0.0060600000000000    0.6164600000000000 H
   0.2329300000000000    0.2334000000000000    0.0030400000000000 H
   0.0061600000000000    0.2330800000000000    0.1167100000000000 H
   0.2333500000000000    0.0060600000000000    0.1164600000000000 H
   0.7666200000000000    0.7671400000000000    0.4969000000000000 H
   0.7669800000000000    0.9940099999999999    0.3832450000000000 H
   0.9938000000000000    0.7666200000000000    0.3834400000000000 H
   0.7666200000000000    0.7671400000000000    0.9969000000000000 H
   0.7669800000000000    0.9940099999999999    0.8832450000000001 H
   0.9938000000000000    0.7666200000000000    0.8834400000000000 H
   0.4749356925956021    0.6577062705226102    0.0191659143098926 H
   0.4744901118227820    0.6578236828869517    0.9142631811016422 H
   0.4731346159973274    0.6675894137176303    0.9646216199257395 H
   0.4746342705734151    0.8292291955226552    0.8288338194796346 H
   0.4753540789053454    0.0389256778723178    0.8288052394406773 H
   0.4734395062590045   -0.0699292368655413    0.8337315707405381 H
   0.4749201415117134    0.0384268321167865    0.9145173776629870 H
   0.4748544228172390    0.8281833540806158    0.0194342947171432 H
   0.4733231218778103   -0.0709681538577628    0.9649717154114469 H
   0.5260200000000000    0.0064900000000000    0.1169550000000000 H
   0.5264300000000000    0.2332300000000000    0.0032400000000000 H
   0.5263700000000000    0.2337000000000000    0.1166000000000000 H
   0.4739200000000000    0.9934500000000001    0.3832400000000000 H
   0.4735600000000000    0.7662099999999999    0.4967000000000000 H
   0.4736200000000000    0.7667100000000000    0.3830600000000000 H
   0.5260200000000000    0.0064900000000000    0.6169550000000000 H
   0.5264300000000000    0.2332300000000000    0.5032400000000000 H
   0.5263700000000000    0.2337000000000000    0.6166000000000000 H
   0.2332800000000000    0.5268000000000000    0.1168950000000000 H
   0.0063300000000000    0.5262500000000000    0.1168350000000000 H
   0.2334800000000000    0.5267100000000000    0.0033650000000000 H
   0.9937500000000000    0.4737600000000000    0.8830150000000000 H
   0.7665000000000000    0.4731400000000000    0.8832949999999999 H
   0.7669200000000000    0.4733000000000000    0.9966500000000000 H
   0.2333300000000000    0.2332200000000000    0.7636950000000000 H
   0.0059900000000000    0.2336800000000000    0.7635350000000001 H
   0.2330100000000000    0.0065000000000000    0.7635100000000000 H
   0.7668199999999999    0.7664600000000000    0.7362950000000000 H
   0.7666200000000000    0.9934900000000000    0.7364350000000000 H
   0.9939000000000000    0.7665600000000000    0.7364450000000000 H
   0.2332800000000000    0.5268000000000000    0.6168950000000000 H
   0.0063300000000000    0.5262500000000000    0.6168350000000000 H
   0.2334800000000000    0.5267100000000000    0.5033650000000000 H
   0.9937500000000000    0.4737600000000000    0.3830150000000000 H
   0.7665000000000000    0.4731400000000000    0.3832950000000000 H
   0.7669200000000000    0.4733000000000000    0.4966500000000000 H
   0.2333300000000000    0.2332200000000000    0.2636950000000000 H
   0.0059900000000000    0.2336800000000000    0.2635350000000000 H
   0.2330100000000000    0.0065000000000000    0.2635100000000000 H
   0.7668199999999999    0.7664600000000000    0.2362950000000000 H
   0.7666200000000000    0.9934900000000000    0.2364350000000000 H
   0.9939000000000000    0.7665600000000000    0.2364450000000000 H
   0.0702400000000000    0.3351400000000000    0.5354000000000000 C
   0.0708200000000000    0.0703600000000000    0.6675300000000000 C
   0.3349600000000000    0.0707000000000000    0.5351000000000000 C
   0.1995000000000000    0.1998100000000000    0.5359550000000000 C
   0.2423800000000000    0.1145600000000000    0.5571000000000000 C
   0.0719500000000000    0.1996200000000000    0.5999000000000000 C
   0.1143200000000000    0.2425100000000000    0.5572900000000000 C
   0.1997600000000000    0.0719200000000000    0.5997600000000000 C
   0.1145900000000000    0.1143800000000000    0.6212250000000000 C
   0.0702400000000000    0.3351400000000000    0.0354000000000000 C
   0.0708200000000000    0.0703600000000000    0.1675300000000000 C
   0.3349600000000000    0.0707000000000000    0.0351000000000000 C
   0.1995000000000000    0.1998100000000000    0.0359550000000000 C
   0.2423800000000000    0.1145600000000000    0.0571000000000000 C
   0.0719500000000000    0.1996200000000000    0.0999000000000000 C
   0.1143200000000000    0.2425100000000000    0.0572900000000000 C
   0.1997600000000000    0.0719200000000000    0.0997600000000000 C
   0.1145900000000000    0.1143800000000000    0.1212250000000000 C
   0.9296000000000000    0.9292100000000000    0.3323800000000000 C
   0.6649400000000000    0.9298999999999999    0.4645550000000000 C
   0.9292500000000000    0.6650400000000000    0.4648150000000000 C
   0.8002000000000000    0.8005600000000000    0.4639850000000000 C
   0.8853900000000000    0.7576300000000000    0.4427800000000000 C
   0.8004100000000000    0.9281600000000000    0.4000400000000000 C
   0.7575400000000000    0.8858000000000000    0.4426550000000000 C
   0.9280000000000000    0.8002600000000000    0.4001600000000000 C
   0.8855900000000000    0.8854700000000000    0.3787000000000000 C
   0.9296000000000000    0.9292100000000000    0.8323800000000000 C
   0.6649400000000000    0.9298999999999999    0.9645550000000001 C
   0.9292500000000000    0.6650400000000000    0.9648150000000000 C
   0.8002000000000000    0.8005600000000000    0.9639850000000000 C
   0.8853900000000000    0.7576300000000000    0.9427800000000000 C
   0.8004100000000000    0.9281600000000000    0.9000400000000000 C
   0.7575400000000000    0.8858000000000000    0.9426550000000000 C
   0.9280000000000000    0.8002600000000000    0.9001600000000001 C
   0.8855900000000000    0.8854700000000000    0.8787000000000000 C
   0.5229000000000000    0.0705000000000000    0.0355500000000000 C
   0.5230900000000001    0.3352400000000000    0.0351950000000000 C
   0.5228100000000000    0.0710300000000000    0.1676700000000000 C
   0.5273000000000000    0.0723000000000000    0.1001000000000000 C
   0.5273200000000000    0.1146500000000000    0.0575200000000000 C
   0.5275100000000000    0.1998400000000000    0.0361700000000000 C
   0.5274600000000000    0.2427400000000000    0.0573350000000000 C
   0.5274600000000000    0.2001300000000000    0.0999500000000000 C
   0.5272800000000000    0.1149400000000000    0.1214250000000000 C
   0.4769400000000000    0.6646700000000000    0.4644300000000000 C
   0.4770200000000000    0.9288300000000000    0.4646950000000000 C
   0.4771500000000000    0.9294900000000000    0.3322750000000000 C
   0.4726600000000000    0.9276400000000000    0.3999500000000000 C
   0.4726900000000000    0.8852900000000000    0.3785200000000000 C
   0.4724700000000000    0.7998000000000000    0.4637750000000000 C
   0.4726300000000000    0.8849900000000001    0.4425750000000000 C
   0.4725200000000000    0.8000800000000000    0.3998450000000000 C
   0.4725300000000000    0.7571800000000000    0.4424550000000000 C
   0.5229000000000000    0.0705000000000000    0.5355500000000000 C
   0.5230900000000001    0.3352400000000000    0.5351950000000000 C
   0.5228100000000000    0.0710300000000000    0.6676700000000000 C
   0.5273000000000000    0.0723000000000000    0.6001000000000000 C
   0.5273200000000000    0.1146500000000000    0.5575200000000000 C
   0.5275100000000000    0.1998400000000000    0.5361700000000000 C
   0.5274600000000000    0.2427400000000000    0.5573350000000000 C
   0.5274600000000000    0.2001300000000000    0.5999500000000000 C
   0.5272800000000000    0.1149400000000000    0.6214250000000000 C
   0.0705100000000000    0.5230600000000000    0.1677250000000000 C
   0.0708000000000000    0.5230900000000001    0.0354500000000000 C
   0.3352000000000000    0.5234400000000000    0.0355650000000000 C
   0.1998300000000000    0.5278700000000000    0.1001350000000000 C
   0.2426600000000000    0.5278400000000000    0.0575500000000000 C
   0.0721600000000000    0.5275700000000000    0.1000950000000000 C
   0.1146100000000000    0.5276100000000000    0.1214850000000000 C
   0.1999500000000000    0.5278300000000000    0.0362700000000000 C
   0.1147400000000000    0.5276100000000000    0.0574950000000000 C
   0.9292200000000000    0.4768700000000000    0.8323000000000000 C
   0.6649200000000000    0.4764700000000000    0.9646850000000000 C
   0.9296800000000000    0.4770500000000000    0.9643300000000000 C
   0.9279200000000000    0.4724300000000000    0.8998250000000000 C
   0.8852900000000000    0.4723500000000000    0.8785400000000000 C
   0.8855499999999999    0.4724300000000000    0.9424150000000000 C
   0.8000800000000000    0.4720900000000000    0.8999850000000000 C
   0.8003400000000001    0.4721800000000000    0.9637450000000001 C
   0.7574500000000000    0.4721200000000000    0.9425749999999999 C
   0.0701900000000000    0.0712000000000000    0.7615000000000001 C
   0.3350100000000000    0.0705000000000000    0.7618900000000000 C
   0.0705300000000000    0.3351700000000000    0.7619050000000001 C
   0.1997400000000000    0.1998100000000000    0.7642400000000000 C
   0.1144900000000000    0.2426700000000000    0.7641800000000001 C
   0.0718500000000000    0.2000800000000000    0.7641450000000001 C
   0.1995400000000000    0.0722900000000000    0.7641300000000000 C
   0.1143000000000000    0.1149300000000000    0.7640500000000000 C
   0.2424200000000000    0.1146400000000000    0.7641700000000000 C
   0.6648900000000000    0.9291199999999999    0.7380700000000000 C
   0.9296600000000000    0.6647600000000000    0.7381100000000000 C
   0.9293500000000000    0.9291700000000001    0.7382700000000000 C
   0.8003100000000000    0.7999800000000000    0.7357000000000000 C
   0.8001900000000000    0.9276900000000000    0.7358250000000000 C
   0.8854300000000001    0.8852200000000000    0.7359000000000000 C
   0.9280400000000000    0.8000500000000000    0.7358300000000000 C
   0.8855600000000000    0.7572800000000000    0.7358100000000000 C
   0.7574800000000000    0.8851599999999999    0.7357950000000000 C
   0.0705100000000000    0.5230600000000000    0.6677250000000000 C
   0.0708000000000000    0.5230900000000001    0.5354500000000000 C
   0.3352000000000000    0.5234400000000000    0.5355650000000000 C
   0.1998300000000000    0.5278700000000000    0.6001350000000000 C
   0.2426600000000000    0.5278400000000000    0.5575500000000000 C
   0.0721600000000000    0.5275700000000000    0.6000950000000000 C
   0.1146100000000000    0.5276100000000000    0.6214850000000000 C
   0.1999500000000000    0.5278300000000000    0.5362700000000000 C
   0.1147400000000000    0.5276100000000000    0.5574950000000000 C
   0.9292200000000000    0.4768700000000000    0.3323000000000000 C
   0.6649200000000000    0.4764700000000000    0.4646850000000000 C
   0.9296800000000000    0.4770500000000000    0.4643300000000000 C
   0.9279200000000000    0.4724300000000000    0.3998250000000000 C
   0.8852900000000000    0.4723500000000000    0.3785400000000000 C
   0.8855499999999999    0.4724300000000000    0.4424150000000000 C
   0.8000800000000000    0.4720900000000000    0.3999850000000000 C
   0.8003400000000001    0.4721800000000000    0.4637450000000000 C
   0.7574500000000000    0.4721200000000000    0.4425750000000000 C
   0.0701900000000000    0.0712000000000000    0.2615000000000000 C
   0.3350100000000000    0.0705000000000000    0.2618900000000000 C
   0.0705300000000000    0.3351700000000000    0.2619050000000000 C
   0.1997400000000000    0.1998100000000000    0.2642400000000000 C
   0.1144900000000000    0.2426700000000000    0.2641800000000000 C
   0.0718500000000000    0.2000800000000000    0.2641450000000000 C
   0.1995400000000000    0.0722900000000000    0.2641300000000000 C
   0.1143000000000000    0.1149300000000000    0.2640500000000000 C
   0.2424200000000000    0.1146400000000000    0.2641700000000000 C
   0.6648900000000000    0.9291199999999999    0.2380700000000000 C
   0.9296600000000000    0.6647600000000000    0.2381100000000000 C
   0.9293500000000000    0.9291700000000001    0.2382700000000000 C
   0.8003100000000000    0.7999800000000000    0.2357000000000000 C
   0.8001900000000000    0.9276900000000000    0.2358250000000000 C
   0.8854300000000001    0.8852200000000000    0.2359000000000000 C
   0.9280400000000000    0.8000500000000000    0.2358300000000000 C
   0.8855600000000000    0.7572800000000000    0.2358100000000000 C
   0.7574800000000000    0.8851599999999999    0.2357950000000000 C
   0.9933500000000000    0.3713400000000000    0.5570000000000001 O
   0.1133800000000000    0.3716100000000000    0.4969900000000000 O
   0.9939400000000000    0.1135200000000000    0.6857050000000000 O
   0.1140900000000000    0.9934700000000000    0.6856599999999999 O
   0.3712400000000000    0.1139900000000000    0.4966850000000000 O
   0.3712900000000000    0.9937100000000000    0.5566300000000000 O
   0.9933500000000000    0.3713400000000000    0.0570000000000000 O
   0.1133800000000000    0.3716100000000000    0.9969900000000000 O
   0.9939400000000000    0.1135200000000000    0.1857050000000000 O
   0.1140900000000000    0.9934700000000000    0.1856600000000000 O
   0.3712400000000000    0.1139900000000000    0.9966850000000000 O
   0.3712900000000000    0.9937100000000000    0.0566300000000000 O
   0.0064400000000000    0.8859000000000000    0.3142600000000000 O
   0.8864700000000000    0.0061200000000000    0.3141800000000000 O
   0.6285300000000000    0.8867699999999999    0.5029850000000000 O
   0.6287400000000000    0.0068300000000000    0.4429350000000000 O
   0.8859900000000001    0.6287199999999999    0.5032250000000000 O
   0.0061700000000000    0.6287199999999999    0.4432550000000000 O
   0.0064400000000000    0.8859000000000000    0.8142600000000000 O
   0.8864700000000000    0.0061200000000000    0.8141800000000000 O
   0.6285300000000000    0.8867699999999999    0.0029850000000000 O
   0.6287400000000000    0.0068300000000000    0.9429350000000001 O
   0.8859900000000001    0.6287199999999999    0.0032250000000000 O
   0.0061700000000000    0.6287199999999999    0.9432550000000000 O
   0.4795600000000000    0.6283500000000000    0.0028700000000000 O
   0.4793000000000000    0.6284500000000000    0.9428950000000000 O
   0.4794400000000000    0.8865100000000000    0.8141350000000001 O
   0.4798400000000000    0.0063600000000000    0.8141550000000000 O
   0.4795800000000000    0.0057600000000000    0.9431800000000000 O
   0.4795300000000000    0.8855200000000000    0.0031500000000000 O
   0.5204500000000000    0.1136200000000000    0.9970950000000001 O
   0.5202400000000000    0.9936199999999999    0.0571800000000000 O
   0.5207600000000000    0.3716100000000000    0.0566550000000000 O
   0.5205000000000000    0.3714000000000000    0.9967550000000001 O
   0.5204700000000000    0.1141500000000000    0.1857450000000000 O
   0.5201500000000000    0.9941400000000000    0.1858550000000000 O
   0.4793000000000000    0.6284500000000000    0.4428950000000000 O
   0.4795600000000000    0.6283500000000000    0.5028700000000000 O
   0.4795300000000000    0.8855200000000000    0.5031500000000000 O
   0.4795800000000000    0.0057600000000000    0.4431800000000000 O
   0.4794400000000000    0.8865100000000000    0.3141350000000000 O
   0.4798400000000000    0.0063600000000000    0.3141550000000000 O
   0.5204500000000000    0.1136200000000000    0.4970950000000000 O
   0.5202400000000000    0.9936199999999999    0.5571800000000000 O
   0.5207600000000000    0.3716100000000000    0.5566550000000000 O
   0.5205000000000000    0.3714000000000000    0.4967550000000000 O
   0.5204700000000000    0.1141500000000000    0.6857450000000000 O
   0.5201500000000000    0.9941400000000000    0.6858550000000000 O
   0.1135900000000000    0.5206700000000000    0.1858500000000000 O
   0.9936100000000000    0.5203600000000000    0.1858250000000000 O
   0.9938600000000000    0.5204800000000001    0.0569900000000000 O
   0.1140100000000000    0.5206499999999999    0.9970000000000000 O
   0.3715300000000000    0.5209800000000000    0.0571050000000000 O
   0.3714500000000000    0.5208500000000000    0.9971400000000000 O
   0.8860500000000000    0.4793100000000000    0.8141950000000000 O
   0.0061600000000000    0.4795000000000000    0.8141700000000001 O
   0.6284600000000000    0.4789200000000000    0.9432000000000000 O
   0.6288000000000000    0.4790400000000000    0.0031100000000000 O
   0.0065900000000000    0.4797200000000000    0.9427200000000000 O
   0.8865700000000000    0.4795300000000000    0.0027750000000000 O
   0.9933000000000000    0.1145200000000000    0.7602850000000000 O
   0.1133100000000000    0.9943300000000000    0.7603249999999999 O
   0.3715100000000000    0.1135200000000000    0.7605950000000000 O
   0.3711400000000000    0.9936199999999999    0.7606100000000000 O
   0.1137300000000000    0.3714800000000000    0.7606150000000000 O
   0.9935800000000000    0.3714200000000000    0.7606050000000000 O
   0.6284900000000000    0.8860000000000000    0.7393800000000000 O
   0.6286700000000000    0.0060300000000000    0.7393300000000000 O
   0.8865499999999999    0.6283800000000000    0.7393850000000000 O
   0.0065700000000000    0.6285700000000000    0.7394499999999999 O
   0.0062900000000000    0.8859900000000001    0.7395900000000000 O
   0.8861200000000000    0.0060300000000000    0.7396000000000000 O
   0.1135900000000000    0.5206700000000000    0.6858500000000000 O
   0.9936100000000000    0.5203600000000000    0.6858250000000000 O
   0.9938600000000000    0.5204800000000001    0.5569900000000000 O
   0.1140100000000000    0.5206499999999999    0.4970000000000000 O
   0.3715300000000000    0.5209800000000000    0.5571050000000000 O
   0.3714500000000000    0.5208500000000000    0.4971400000000000 O
   0.8860500000000000    0.4793100000000000    0.3141950000000000 O
   0.0061600000000000    0.4795000000000000    0.3141700000000000 O
   0.6284600000000000    0.4789200000000000    0.4432000000000000 O
   0.6288000000000000    0.4790400000000000    0.5031099999999999 O
   0.0065900000000000    0.4797200000000000    0.4427200000000000 O
   0.8865700000000000    0.4795300000000000    0.5027750000000000 O
   0.9933000000000000    0.1145200000000000    0.2602850000000000 O
   0.1133100000000000    0.9943300000000000    0.2603250000000000 O
   0.3715100000000000    0.1135200000000000    0.2605950000000000 O
   0.3711400000000000    0.9936199999999999    0.2606100000000000 O
   0.1137300000000000    0.3714800000000000    0.2606150000000000 O
   0.9935800000000000    0.3714200000000000    0.2606050000000000 O
   0.6284900000000000    0.8860000000000000    0.2393800000000000 O
   0.6286700000000000    0.0060300000000000    0.2393300000000000 O
   0.8865499999999999    0.6283800000000000    0.2393850000000000 O
   0.0065700000000000    0.6285700000000000    0.2394500000000000 O
   0.0062900000000000    0.8859900000000001    0.2395900000000000 O
   0.8861200000000000    0.0060300000000000    0.2396000000000000 O
