P1 O4
1.0
  19.0059999971052207    0.0000000000000000   -0.0003317172776194
   0.0006574244003232   18.8329999168145292    0.0016434892880555
   0.0000000000000000    0.0000000000000000   18.8219999999999992
P O
1 4
direct
   0.3329000000000000    0.9331000000000000    0.4448900000000000 P
   0.3764100000000000    0.9385000000000000    0.3760000000000000 O
   0.2554200000000000    0.9255800000000000    0.4233400000000000 O
   0.3543200000000000    0.8671100000000000    0.4886300000000000 O
   0.3451100000000000    0.0014600000000000    0.4882400000000000 O
