Al48 P47 H3 O190
1.0
  19.0059999971052207    0.0000000000000000   -0.0003317172776194
   0.0006574244003232   18.8329999168145292    0.0016434892880555
   0.0000000000000000    0.0000000000000000   18.8219999999999992
Al P H O
48 47 3 190
direct
   0.5782300000000000    0.0447300000000000    0.1647000000000000 Al
   0.5783000000000000    0.3350000000000000    0.0446000000000000 Al
   0.5783199999999999    0.1650000000000000    0.4554200000000000 Al
   0.5782200000000000    0.4552600000000000    0.3353000000000000 Al
   0.0782200000000000    0.0447300000000000    0.1647000000000000 Al
   0.0782900000000000    0.3350000000000000    0.0446000000000000 Al
   0.0783100000000000    0.1650000000000000    0.4554200000000000 Al
   0.0782100000000000    0.4552600000000000    0.3353000000000000 Al
   0.9217100000000000    0.8350100000000000    0.5445700000000000 Al
   0.9218100000000000    0.5447500000000000    0.6646800000000000 Al
   0.9217300000000000    0.6650100000000000    0.9553900000000000 Al
   0.9218000000000000    0.9552800000000000    0.8352800000000000 Al
   0.4217000000000000    0.8350100000000000    0.5445700000000000 Al
   0.4218000000000000    0.5447500000000000    0.6646800000000000 Al
   0.4217200000000000    0.6650100000000000    0.9553900000000000 Al
   0.4217900000000000    0.9552800000000000    0.8352800000000000 Al
   0.4582000000000000    0.1655000000000000    0.9342000000000000 Al
   0.1673600000000000    0.0660300000000000    0.9490499999999999 Al
   0.0419600000000000    0.0643400000000000    0.6653500000000000 Al
   0.3328400000000000    0.0510700000000000    0.5661000000000000 Al
   0.4582000000000000    0.3344900000000000    0.5657400000000000 Al
   0.1673500000000000    0.4339800000000000    0.5509600000000000 Al
   0.0419500000000000    0.4356100000000000    0.8346600000000000 Al
   0.3328300000000000    0.4489400000000000    0.9338000000000000 Al
   0.4580500000000000    0.9356700000000000    0.3346300000000000 Al
   0.0418100000000000    0.8345100000000000    0.0657300000000000 Al
   0.3326500000000000    0.9339800000000000    0.0509300000000000 Al
   0.0418100000000000    0.6655200000000000    0.4342500000000000 Al
   0.3326600000000000    0.5660300000000000    0.4490200000000000 Al
   0.4580600000000000    0.5644000000000000    0.1653300000000000 Al
   0.1671800000000000    0.5510699999999999    0.0661000000000000 Al
   0.1671700000000000    0.9489400000000000    0.4338900000000000 Al
   0.5418200000000000    0.8345100000000000    0.0657300000000000 Al
   0.8326600000000000    0.9339800000000000    0.0509300000000000 Al
   0.9580600000000000    0.9356700000000000    0.3346300000000000 Al
   0.6671800000000000    0.9489400000000000    0.4338900000000000 Al
   0.5418200000000000    0.6655200000000000    0.4342500000000000 Al
   0.8326600000000000    0.5660300000000000    0.4490200000000000 Al
   0.9580600000000000    0.5644000000000000    0.1653300000000000 Al
   0.6671899999999999    0.5510699999999999    0.0661000000000000 Al
   0.9582100000000000    0.1655000000000000    0.9342000000000000 Al
   0.6673700000000000    0.0660300000000000    0.9490499999999999 Al
   0.5419700000000000    0.0643400000000000    0.6653500000000000 Al
   0.8328400000000000    0.0510700000000000    0.5661000000000000 Al
   0.5419600000000000    0.4356100000000000    0.8346600000000000 Al
   0.8328300000000000    0.4489400000000000    0.9338000000000000 Al
   0.9582100000000000    0.3344900000000000    0.5657400000000000 Al
   0.6673600000000000    0.4339800000000000    0.5509600000000000 Al
   0.5786500000000000    0.0485800000000000    0.3350200000000000 P
   0.5787000000000000    0.1650500000000000    0.0481400000000000 P
   0.5786900000000000    0.3349500000000000    0.4518600000000000 P
   0.5786700000000000    0.4514600000000000    0.1649700000000000 P
   0.0786500000000000    0.0485800000000000    0.3350200000000000 P
   0.0786900000000000    0.1650500000000000    0.0481400000000000 P
   0.0786800000000000    0.3349500000000000    0.4518600000000000 P
   0.0786600000000000    0.4514600000000000    0.1649700000000000 P
   0.9213300000000000    0.6650600000000000    0.5481200000000001 P
   0.9213600000000000    0.5485500000000000    0.8350100000000000 P
   0.9213300000000000    0.8349600000000000    0.9518500000000000 P
   0.9213700000000000    0.9514300000000000    0.6649700000000000 P
   0.4213300000000000    0.6650600000000000    0.5481200000000001 P
   0.4213500000000000    0.5485500000000000    0.8350100000000000 P
   0.4213200000000000    0.8349600000000000    0.9518500000000000 P
   0.4213700000000000    0.9514300000000000    0.6649700000000000 P
   0.3330200000000000    0.0551400000000000    0.9329200000000000 P
   0.4542800000000000    0.3351900000000000    0.9334000000000000 P
   0.1671100000000000    0.0669100000000000    0.5550900000000000 P
   0.0456900000000000    0.0657800000000000    0.8353000000000000 P
   0.3330200000000000    0.4448700000000000    0.5670100000000000 P
   0.4542900000000000    0.1647900000000000    0.5666400000000000 P
   0.1670900000000000    0.4330500000000000    0.9449000000000000 P
   0.0456800000000000    0.4341900000000000    0.6646500000000000 P
   0.4543300000000000    0.9342200000000001    0.1646300000000000 P
   0.1669900000000000    0.9448700000000000    0.0670700000000000 P
   0.0457300000000000    0.6648200000000000    0.0665900000000000 P
   0.1669900000000000    0.5551400000000000    0.4329000000000000 P
   0.0457200000000000    0.8352200000000000    0.4333400000000000 P
   0.3329200000000000    0.5669600000000000    0.0550900000000000 P
   0.4543300000000000    0.5658100000000000    0.3353300000000000 P
   0.6670000000000000    0.9448700000000000    0.0670700000000000 P
   0.5457400000000000    0.6648200000000000    0.0665900000000000 P
   0.8329100000000000    0.9331000000000000    0.4440000000000000 P
   0.9543300000000000    0.9342200000000001    0.1646300000000000 P
   0.6670000000000000    0.5551400000000000    0.4329000000000000 P
   0.5457300000000000    0.8352200000000000    0.4333400000000000 P
   0.8329299999999999    0.5669600000000000    0.0550900000000000 P
   0.9543400000000000    0.5658100000000000    0.3353300000000000 P
   0.8330300000000000    0.0551400000000000    0.9329200000000000 P
   0.9542900000000000    0.3351900000000000    0.9334000000000000 P
   0.6671200000000000    0.0669100000000000    0.5550900000000000 P
   0.5456900000000000    0.0657800000000000    0.8353000000000000 P
   0.6671000000000000    0.4330500000000000    0.9449000000000000 P
   0.5456900000000000    0.4341900000000000    0.6646500000000000 P
   0.8330300000000000    0.4448700000000000    0.5670100000000000 P
   0.9543000000000000    0.1647900000000000    0.5666400000000000 P
   0.2960201169421159   -0.0078902564952562    0.4987839895261084 H
   0.3552038356059439    0.9081582436798410    0.3402864444703068 H
   0.2895425610988815   -0.0780458294910526    0.3946582103863080 H
   0.5894200000000001    0.0617700000000000    0.2553000000000000 O
   0.5805399999999999    0.1205100000000000    0.3736000000000000 O
   0.6387699999999999    0.9998300000000000    0.3609600000000000 O
   0.5063100000000000    0.0139700000000000    0.3495800000000000 O
   0.5896900000000000    0.2445900000000000    0.0618000000000000 O
   0.5802400000000000    0.1264100000000000    0.1200000000000000 O
   0.6390400000000001    0.1390400000000000    0.9997500000000000 O
   0.5066200000000000    0.1509900000000000    0.0126700000000000 O
   0.5896900000000000    0.2554100000000000    0.4382200000000000 O
   0.5802200000000000    0.3735700000000000    0.3799000000000000 O
   0.6390300000000000    0.3609900000000000    0.5002000000000000 O
   0.5066100000000000    0.3490100000000000    0.4873300000000000 O
   0.5894200000000001    0.4382600000000000    0.2447000000000000 O
   0.5805399999999999    0.3795200000000000    0.1263900000000000 O
   0.6388000000000000    0.5001900000000000    0.1390500000000000 O
   0.5063500000000000    0.4861100000000000    0.1503800000000000 O
   0.0894200000000000    0.0617700000000000    0.2553000000000000 O
   0.0805300000000000    0.1205100000000000    0.3736000000000000 O
   0.1387600000000000    0.9998300000000000    0.3609600000000000 O
   0.0063000000000000    0.0139700000000000    0.3495800000000000 O
   0.0896800000000000    0.2445900000000000    0.0618000000000000 O
   0.0802300000000000    0.1264100000000000    0.1200000000000000 O
   0.1390300000000000    0.1390400000000000    0.9997500000000000 O
   0.0066100000000000    0.1509900000000000    0.0126700000000000 O
   0.0896800000000000    0.2554100000000000    0.4382200000000000 O
   0.0802100000000000    0.3735700000000000    0.3799000000000000 O
   0.1390200000000000    0.3609900000000000    0.5002000000000000 O
   0.0066100000000000    0.3490100000000000    0.4873300000000000 O
   0.0894100000000000    0.4382600000000000    0.2447000000000000 O
   0.0805400000000000    0.3795200000000000    0.1263900000000000 O
   0.1387900000000000    0.5001900000000000    0.1390500000000000 O
   0.0063400000000000    0.4861100000000000    0.1503800000000000 O
   0.9103300000000000    0.7446000000000000    0.5617000000000000 O
   0.9198100000000000    0.6264400000000000    0.6200800000000000 O
   0.8610000000000000    0.6390200000000000    0.4997500000000000 O
   0.9934100000000000    0.6510000000000000    0.5126600000000000 O
   0.9106100000000000    0.5617500000000000    0.7552900000000000 O
   0.9194800000000000    0.6204900000000000    0.8736000000000000 O
   0.8612300000000001    0.4998200000000000    0.8609400000000000 O
   0.9936800000000000    0.5139000000000000    0.8496100000000000 O
   0.9103400000000000    0.7554200000000000    0.9381900000000000 O
   0.9197900000000000    0.8736000000000000    0.8799000000000000 O
   0.8609900000000000    0.8609700000000000    0.0000000000000000 O
   0.9934100000000000    0.8490200000000000    0.9873200000000000 O
   0.9106000000000000    0.9382400000000000    0.7446900000000000 O
   0.9194900000000000    0.8794999999999999    0.6263800000000000 O
   0.8612600000000000    0.0000000000000000    0.6390200000000000 O
   0.9937200000000000    0.9860400000000000    0.6504000000000000 O
   0.4103300000000000    0.7446000000000000    0.5617000000000000 O
   0.4198000000000000    0.6264400000000000    0.6200800000000000 O
   0.3609900000000000    0.6390200000000000    0.4997500000000000 O
   0.4934100000000000    0.6510000000000000    0.5126600000000000 O
   0.4106000000000000    0.5617500000000000    0.7552900000000000 O
   0.4194700000000000    0.6204900000000000    0.8736000000000000 O
   0.3612200000000000    0.4998200000000000    0.8609400000000000 O
   0.4936700000000000    0.5139000000000000    0.8496100000000000 O
   0.4103300000000000    0.7554200000000000    0.9381900000000000 O
   0.4197800000000000    0.8736000000000000    0.8799000000000000 O
   0.3609800000000000    0.8609700000000000    0.0000000000000000 O
   0.4934000000000000    0.8490200000000000    0.9873200000000000 O
   0.4105900000000000    0.9382400000000000    0.7446900000000000 O
   0.4194800000000000    0.8794999999999999    0.6263800000000000 O
   0.3612500000000000    0.0000000000000000    0.6390200000000000 O
   0.4937100000000000    0.9860400000000000    0.6504000000000000 O
   0.3451100000000000    0.0014600000000000    0.4882400000000000 O
   0.3766100000000000    0.1234800000000000    0.9383200000000000 O
   0.2555200000000000    0.0767100000000000    0.9254900000000000 O
   0.3451300000000000    0.0117500000000000    0.0013000000000000 O
   0.3543100000000000    0.0113600000000000    0.8669000000000000 O
   0.4419500000000000    0.2556000000000000    0.9227000000000000 O
   0.3821500000000000    0.3709900000000000    0.9411600000000000 O
   0.4934500000000000    0.3634800000000000    0.8674300000000000 O
   0.4972000000000000    0.3495700000000000    0.0016500000000000 O
   0.1236000000000000    0.0615100000000000    0.6234900000000000 O
   0.2446000000000000    0.0744300000000000    0.5766500000000000 O
   0.1549000000000000    0.9985500000000000    0.5117400000000000 O
   0.1456900000000000    0.1328900000000000    0.5113000000000000 O
   0.0581300000000000    0.0744300000000000    0.7555500000000001 O
   0.1178200000000000    0.0589000000000000    0.8712700000000000 O
   0.0063500000000000    0.1324400000000000    0.8618000000000000 O
   0.0027700000000000    0.9979200000000000    0.8515300000000000 O
   0.3766100000000000    0.3765300000000000    0.5616700000000000 O
   0.2555300000000000    0.4232900000000000    0.5744700000000000 O
   0.3451300000000000    0.4881900000000000    0.4985000000000000 O
   0.3543000000000000    0.4887300000000000    0.6329000000000000 O
   0.4419900000000000    0.2443900000000000    0.5773100000000000 O
   0.3821500000000000    0.1290200000000000    0.5588300000000000 O
   0.4934200000000000    0.1364800000000000    0.6326300000000000 O
   0.4972700000000000    0.1503700000000000    0.4984400000000000 O
   0.1236100000000000    0.4385000000000000    0.8764800000000000 O
   0.2445900000000000    0.4255500000000000    0.9233800000000000 O
   0.1548700000000000    0.5013800000000000    0.9882900000000000 O
   0.1456300000000000    0.3670500000000000    0.9885699999999999 O
   0.0581000000000000    0.4255400000000000    0.7444600000000000 O
   0.1178200000000000    0.4410800000000000    0.6287700000000001 O
   0.0063600000000000    0.3675500000000000    0.6381900000000000 O
   0.0027700000000000    0.5020700000000000    0.6484600000000000 O
   0.3764100000000000    0.9385000000000000    0.3760000000000000 O
   0.4418800000000000    0.9255800000000000    0.2444000000000000 O
   0.3821900000000000    0.9411100000000000    0.1287200000000000 O
   0.4936600000000000    0.8675700000000000    0.1381900000000000 O
   0.4972400000000000    0.0020900000000000    0.1484500000000000 O
   0.1234100000000000    0.8765300000000000    0.0616700000000000 O
   0.2444900000000000    0.9233000000000000    0.0744900000000000 O
   0.1548800000000000    0.9882600000000000    0.9986900000000000 O
   0.1457000000000000    0.9886500000000000    0.1330900000000000 O
   0.0580600000000000    0.7444100000000000    0.0772900000000000 O
   0.1178600000000000    0.6290200000000000    0.0588200000000000 O
   0.0065600000000000    0.6365300000000000    0.1325500000000000 O
   0.0028100000000000    0.6504400000000000    0.9983300000000001 O
   0.1234000000000000    0.6234800000000000    0.4383100000000000 O
   0.2444800000000000    0.5767200000000000    0.4255200000000000 O
   0.1548900000000000    0.5118200000000001    0.5014100000000000 O
   0.1457100000000000    0.5112800000000000    0.3670000000000000 O
   0.0580200000000000    0.7556200000000000    0.4226800000000000 O
   0.1178600000000000    0.8709900000000000    0.4411000000000000 O
   0.0066000000000000    0.8635300000000000    0.3673600000000000 O
   0.0027500000000000    0.8496400000000000    0.5015500000000001 O
   0.3764000000000000    0.5615100000000000    0.1235000000000000 O
   0.2554200000000000    0.5744600000000000    0.0766100000000000 O
   0.3451400000000000    0.4986200000000000    0.0116900000000000 O
   0.3543800000000000    0.6329600000000000    0.0114100000000000 O
   0.4419100000000000    0.5744700000000000    0.2555300000000000 O
   0.3821900000000000    0.5589300000000000    0.3712200000000000 O
   0.4936500000000000    0.6324600000000000    0.3617900000000000 O
   0.4972400000000000    0.4979400000000000    0.3515300000000000 O
   0.6234100000000000    0.8765300000000000    0.0616700000000000 O
   0.7445000000000001    0.9233000000000000    0.0744900000000000 O
   0.6548900000000000    0.9882600000000000    0.9986900000000000 O
   0.6457100000000000    0.9886500000000000    0.1330900000000000 O
   0.5580700000000000    0.7444100000000000    0.0772900000000000 O
   0.6178700000000000    0.6290200000000000    0.0588200000000000 O
   0.5065700000000000    0.6365300000000000    0.1325000000000000 O
   0.5028200000000000    0.6504300000000000    0.9983000000000000 O
   0.8764200000000000    0.9385000000000000    0.3765000000000000 O
   0.7554200000000000    0.9255800000000000    0.4233400000000000 O
   0.8451200000000000    0.0014600000000000    0.4882400000000000 O
   0.8543300000000000    0.8671100000000000    0.4886300000000000 O
   0.9418900000000000    0.9255800000000000    0.2444000000000000 O
   0.8822000000000000    0.9411100000000000    0.1287200000000000 O
   0.9936600000000000    0.8675700000000000    0.1381900000000000 O
   0.9972500000000000    0.0020900000000000    0.1484500000000000 O
   0.6234100000000000    0.6234800000000000    0.4383100000000000 O
   0.7444900000000000    0.5767200000000000    0.4255200000000000 O
   0.6548900000000000    0.5118200000000001    0.5014100000000000 O
   0.6457200000000000    0.5112800000000000    0.3670000000000000 O
   0.5580300000000000    0.7556200000000000    0.4226800000000000 O
   0.6178700000000000    0.8709900000000000    0.4411000000000000 O
   0.5066000000000001    0.8635300000000000    0.3673600000000000 O
   0.5027500000000000    0.8496400000000000    0.5015500000000001 O
   0.8764100000000000    0.5615100000000000    0.1235000000000000 O
   0.7554300000000000    0.5744600000000000    0.0766100000000000 O
   0.8451500000000000    0.4986200000000000    0.0116900000000000 O
   0.8543900000000000    0.6329600000000000    0.0114100000000000 O
   0.9419200000000000    0.5744700000000000    0.2555300000000000 O
   0.8821900000000000    0.5589300000000000    0.3712200000000000 O
   0.9936600000000000    0.6324600000000000    0.3617900000000000 O
   0.9972500000000000    0.4979400000000000    0.3515300000000000 O
   0.8766100000000000    0.1234800000000000    0.9383200000000000 O
   0.7555300000000000    0.0767100000000000    0.9254900000000000 O
   0.8451400000000000    0.0117500000000000    0.0013000000000000 O
   0.8543200000000000    0.0113600000000000    0.8669000000000000 O
   0.9419600000000000    0.2556000000000000    0.9227000000000000 O
   0.8821600000000001    0.3709900000000000    0.9411000000000000 O
   0.9934600000000000    0.3634800000000000    0.8674300000000000 O
   0.9972100000000000    0.3495700000000000    0.0016500000000000 O
   0.6236100000000000    0.0615100000000000    0.6234900000000000 O
   0.7446000000000000    0.0744300000000000    0.5766500000000000 O
   0.6549000000000000    0.9985500000000000    0.5117400000000000 O
   0.6457000000000001    0.1328900000000000    0.5113600000000000 O
   0.5581400000000000    0.0744300000000000    0.7555500000000001 O
   0.6178200000000000    0.0589000000000000    0.8712700000000000 O
   0.5063600000000000    0.1324400000000000    0.8618000000000000 O
   0.5027800000000000    0.9979200000000000    0.8515300000000000 O
   0.6236200000000000    0.4385000000000000    0.8764800000000000 O
   0.7446000000000000    0.4255500000000000    0.9233800000000000 O
   0.6548800000000000    0.5013900000000000    0.9882900000000000 O
   0.6456300000000000    0.3670500000000000    0.9885699999999999 O
   0.5581100000000000    0.4255400000000000    0.7444600000000000 O
   0.6178300000000000    0.4410800000000000    0.6287700000000001 O
   0.5063700000000000    0.3675500000000000    0.6381900000000000 O
   0.5027800000000000    0.5020700000000000    0.6484600000000000 O
   0.8766200000000000    0.3765300000000000    0.5616700000000000 O
   0.7555400000000000    0.4232900000000000    0.5744700000000000 O
   0.8451300000000000    0.4881900000000000    0.4985000000000000 O
   0.8543100000000000    0.4887300000000000    0.6329000000000000 O
   0.9419999999999999    0.2443900000000000    0.5773100000000000 O
   0.8821600000000001    0.1290200000000000    0.5588300000000000 O
   0.9934200000000000    0.1364800000000000    0.6326300000000000 O
   0.9972700000000000    0.1503700000000000    0.4984400000000000 O
