H3 O2
1.0
  19.0059999971052207    0.0000000000000000   -0.0003317172776194
   0.0006574244003232   18.8329999168145292    0.0016434892880555
   0.0000000000000000    0.0000000000000000   18.8219999999999992
H O
3 2
direct
   0.2960201169421159   -0.0078902564952562    0.4987839895261084 H
   0.3552038356059439    0.9081582436798410    0.3402864444703068 H
   0.2895425610988815   -0.0780458294910526    0.3946582103863080 H
   0.3451100000000000    0.0014600000000000    0.4882400000000000 O
   0.3764100000000000    0.9385000000000000    0.3760000000000000 O
