P1 O4
1.0
  12.9050740663546879    0.0000000000000000    4.2439708224609314
  -6.4320162615342769   11.8841640497404146    5.1099530966747686
   0.0000000000000000    0.0000000000000000   14.4510000000000005
P O
1 4
direct
   0.0650700000000000    0.3541000000000000    0.3329600000000000 P
   0.1217400000000000    0.2867200000000000    0.2931700000000000 O
   0.0874100000000000    0.4516700000000000    0.2205700000000000 O
   0.1212800000000000    0.4059100000000000    0.3908200000000000 O
   0.9310100000000000    0.2801800000000000    0.4108400000000000 O
