H3 O2
1.0
  12.9050740663546879    0.0000000000000000    4.2439708224609314
  -6.4320162615342769   11.8841640497404146    5.1099530966747686
   0.0000000000000000    0.0000000000000000   14.4510000000000005
H O
3 2
direct
   0.1998327329520529    0.3424481516862773    0.2308806208200353 H
   0.8951308899698277    0.3269147283075420    0.4202176515968747 H
   1.0574758679037508    0.3704279501390234    0.3099665883341969 H
   0.1217400000000000    0.2867200000000000    0.2931700000000000 O
   0.9310100000000000    0.2801800000000000    0.4108400000000000 O
