H12 O8
1.0
  29.8755320059249385    0.0000000000000000    8.2285315435352473
   6.2736843493537924   29.2271725144967647    8.3603152747081335
   0.0000000000000000    0.0000000000000000   31.0219999999999985
H O
12 8
direct
   0.6904734061775526    0.2423825832190827    0.3288018924659017 H
   0.7424388379661231    0.1904176671275687    0.3288777610119096 H
   0.6892766320345652    0.0835455797412868    0.4598643766337365 H
   0.7696722857023566    0.0926885336803767    0.4688645274898572 H
   0.5927089508520177    0.2693163885415722    0.4690716701073662 H
   0.5833016155578724    0.1891676330934756    0.4601813800398920 H
   0.7575349698159481    0.3096239612495983    0.6710030694535909 H
   0.8094148878655292    0.2576287467078633    0.6711368424904902 H
   0.9165946730199560    0.3108322233427725    0.5397492928550709 H
   0.9071856887364256    0.2306958808728970    0.5308438378363114 H
   0.8106915028646393    0.4164787914013219    0.5400396151748110 H
   0.7302829889553868    0.4073611482188458    0.5310152963654778 H
   0.6925000000000000    0.0627550000000000    0.4889600000000000 O
   0.7610200000000000    0.0705700000000000    0.4966000000000000 O
   0.5706150000000000    0.2606700000000000    0.4967850000000000 O
   0.5625750000000000    0.1923300000000000    0.4892300000000000 O
   0.9373199999999999    0.3076700000000000    0.5107000000000000 O
   0.9292800000000000    0.2393400000000000    0.5031300000000000 O
   0.8074650000000000    0.4372700000000000    0.5109450000000000 O
   0.7389350000000000    0.4294800000000000    0.5032799999999999 O
