H15 C11 N2 O2
1.0
  20.9939999200607730    0.0000000000000000   -0.0018320721134917
   0.0097584978697469   31.2361175719296043  -18.0494498476909229
   0.0000000000000000    0.0000000000000000   36.0820000000000007
H C N O
15 11 2 2
direct
   0.9179000000000000    0.2757950000000000    0.7400650000000000 H
   0.8032200000000000    0.3127400000000000    0.7376500000000000 H
   0.7974000000000000    0.2610750000000000    0.6632350000000000 H
   0.8730500000000000    0.2014550000000000    0.6256500000000000 H
   0.8266500000000000    0.1942700000000000    0.6626650000000001 H
   0.9064100000000000    0.2110700000000000    0.6752400000000001 H
   0.9363200000000000    0.2898800000000000    0.6876500000000000 H
   0.8726800000000000    0.3222950000000000    0.6876100000000001 H
   0.8965300000000000    0.2766600000000000    0.6390750000000001 H
   0.8371400000000000    0.4434100000000000    0.7759650000000000 H
   0.0206400000000000    0.3952100000000000    0.7476000000000000 H
   0.8055000000000000    0.3912200000000000    0.7990050000000000 H
   0.9975900000000000    0.3410100000000000    0.7690049999999999 H
   0.8363500000000000    0.3335950000000000    0.8128700000000000 H
   0.9188499999999999    0.3229050000000000    0.8145450000000001 H
   0.8632800000000000    0.2144850000000000    0.6598999999999999 C
   0.8896100000000000    0.2891050000000000    0.6734850000000000 C
   0.7640700000000000    0.2563550000000000    0.7319050000000000 C
   0.8214399999999999    0.2802800000000000    0.7271250000000000 C
   0.8412800000000000    0.2610250000000000    0.6798400000000000 C
   0.8707700000000000    0.4200050000000000    0.7749950000000000 C
   0.9735300000000000    0.3927750000000000    0.7587450000000000 C
   0.8538000000000000    0.3907450000000000    0.7876750000000000 C
   0.8985700000000000    0.3608100000000000    0.7851150000000000 C
   0.9598900000000000    0.3627500000000000    0.7709349999999999 C
   0.8813900000000000    0.3260800000000000    0.7950300000000000 C
   0.8746000000000000    0.2832550000000000    0.7557499999999999 N
   0.9294600000000000    0.4208950000000000    0.7601800000000001 N
   0.7664700000000000    0.2436850000000000    0.7591900000000000 O
   0.7169600000000000    0.2516050000000000    0.7080450000000000 O
