H7 O4
1.0
  20.9939999200607730    0.0000000000000000   -0.0018320721134917
   0.0097584978697469   31.2361175719296043  -18.0494498476909229
   0.0000000000000000    0.0000000000000000   36.0820000000000007
H O
7 4
direct
   0.9612984337558239    0.4005796662760661    0.7591432822228362 H
   0.8869151791880643    0.4202498323305057    0.7709195045208524 H
   0.8790544361581411    0.3113494371829738    0.7815188147705128 H
   0.9156273289843326    0.2761865502488887    0.7408882527686084 H
   0.7414514037685913    0.2387203847365894    0.6718983252458648 H
   0.7091533411635234    0.2500558700145552    0.6808070079972870 H
   0.7854008100986916    0.2337257421701513    0.7312501627438254 H
   0.9294600000000000    0.4208950000000000    0.7601800000000001 O
   0.8746000000000000    0.2832550000000000    0.7557499999999999 O
   0.7169600000000000    0.2516050000000000    0.7080450000000000 O
   0.7664700000000000    0.2436850000000000    0.7591900000000000 O
