H10 O6
1.0
  37.0092362941216351    0.0000000000000000   -3.4208650844295958
  -0.1869577015092009    7.5098767057774802   -1.9946315278434690
   0.0000000000000000    0.0000000000000000   26.7020000000000017
H O
10 6
direct
   0.1136751782833057    0.3805159980278202    0.3234424448718731 H
   0.2282955480697811   -0.2479435489473815    0.2571418343354054 H
   0.2015284482271081   -0.2677088828124463    0.2541787296026007 H
   0.1617856817704559    0.6642578878307006    0.3007184271786861 H
   0.1289209686010853    0.4603903068910156    0.2257082634708825 H
   0.1455400386624310    0.7008674521486985    0.2326365995537608 H
   0.0931448137065235    0.7022487860829734    0.2177442529042274 H
   0.1521340228046360   -0.1088893669172657    0.2405482645360119 H
   0.1249914365276511    0.9850184257649732    0.2433013991324704 H
   0.1441701750014255    0.8128668696794127    0.4150062642849828 H
   0.1141483333333333    0.5057300000000000    0.3239450000000000 O
   0.2142816666666666   -0.1488200000000000    0.2510150000000000 O
   0.1620850000000000    0.7587200000000000    0.3330550000000000 O
   0.1263600000000000    0.3471900000000000    0.2447550000000000 O
   0.1200866666666667    0.7247700000000000    0.2247250000000000 O
   0.1637566666666667   -0.0005400000000000    0.2376650000000000 O
