H4 C4 O6
1.0
  37.0092362941216351    0.0000000000000000   -3.4208650844295958
  -0.1869577015092009    7.5098767057774802   -1.9946315278434690
   0.0000000000000000    0.0000000000000000   26.7020000000000017
H C O
4 4 6
direct
   0.1666150000000000    0.5880600000000000    0.2034850000000000 H
   0.1450333333333333    0.8561800000000001    0.3277500000000000 H
   0.1123766666666667    0.6718400000000000    0.1853400000000000 H
   0.1878300000000000    0.5543000000000000    0.2869400000000000 H
   0.1317916666666666    0.4795100000000000    0.2834550000000000 C
   0.1616450000000000    0.6198600000000000    0.2855200000000000 C
   0.1572616666666667    0.6898600000000000    0.2362800000000000 C
   0.1804416666666667    0.8602300000000001    0.2424350000000000 C
   0.1263600000000000    0.3471900000000000    0.2447550000000000 O
   0.1141483333333333    0.5057300000000000    0.3239450000000000 O
   0.1620850000000000    0.7587200000000000    0.3330550000000000 O
   0.1200866666666667    0.7247700000000000    0.2247250000000000 O
   0.1637566666666667   -0.0005400000000000    0.2376650000000000 O
   0.2142816666666666   -0.1488200000000000    0.2510150000000000 O
