H6 O4
1.0
  31.9888978480091311    0.0000000000000000   18.1515512965045751
   5.2834800045365311   15.0962639233272053    9.0722763735962211
   0.0000000000000000    0.0000000000000000   36.7860000000000014
H O
6 4
direct
   0.0569164562358378    0.4919984696855711    0.5569361791268770 H
   0.0561597866630537    0.2803179334167930    0.5562998034891977 H
   0.0526480296828637    0.3938490096749169    0.5527337549378295 H
   0.9430720261314126    0.5079914727306754    0.4430558971989777 H
   0.9438381211393335    0.7196778291367013    0.4436845129496581 H
   0.9473469397724692    0.6061373105804886    0.4472562094101015 H
   0.0667200000000000    0.4278300000000000    0.5667500000000000 O
   0.0662650000000000    0.3047200000000000    0.5663650000000000 O
   0.9332700000000000    0.5721600000000000    0.4332400000000000 O
   0.9337299999999999    0.6952800000000000    0.4336200000000000 O
