H4 C8 O4
1.0
  31.9888978480091311    0.0000000000000000   18.1515512965045751
   5.2834800045365311   15.0962639233272053    9.0722763735962211
   0.0000000000000000    0.0000000000000000   36.7860000000000014
H C O
4 8 4
direct
   0.9765850000000000    0.6640700000000000    0.4764900000000000 H
   0.9753650000000000    0.4328300000000000    0.4753800000000000 H
   0.0234100000000000    0.3359300000000000    0.5235050000000000 H
   0.0246250000000000    0.5671700000000000    0.5246150000000001 H
   0.9870200000000000    0.5921999999999999    0.4869700000000000 C
   0.9863500000000001    0.4614800000000000    0.4863500000000000 C
   0.9445450000000000    0.6115900000000000    0.4444800000000000 C
   0.9732000000000001    0.5540200000000000    0.4731550000000000 C
   0.0129700000000000    0.4078000000000000    0.5130250000000000 C
   0.0136400000000000    0.5385200000000000    0.5136350000000000 C
   0.0554450000000000    0.3884000000000000    0.5555099999999999 C
   0.0267900000000000    0.4459800000000000    0.5268400000000000 C
   0.9332700000000000    0.5721600000000000    0.4332400000000000 O
   0.9337299999999999    0.6952800000000000    0.4336200000000000 O
   0.0667200000000000    0.4278300000000000    0.5667500000000000 O
   0.0662650000000000    0.3047200000000000    0.5663650000000000 O
