K32 Y32 H6 C126 O256
1.0
  15.2642031460715053    0.0000000000000000    7.9274272191840867
   7.5812833941025106   16.4480663183092410    3.9362942581578633
   0.0000000000000000    0.0000000000000000   37.0640000000000001
K Y H C O
32 32 6 126 256
direct
   0.9379999999999999    0.1244800000000000    0.5622500000000000 K
   0.5619900000000000    0.8755200000000000    0.6877700000000000 K
   0.4380200000000000    0.1244800000000000    0.3122550000000000 K
   0.4380200000000000    0.1244800000000000    0.8122549999999999 K
   0.4380100000000000    0.1244800000000000    0.0622500000000000 K
   0.4380100000000000    0.1244800000000000    0.5622500000000000 K
   0.5619900000000000    0.3755200000000000    0.4377750000000000 K
   0.5619800000000000    0.3755200000000000    0.6877700000000000 K
   0.5619900000000000    0.3755200000000000    0.9377750000000000 K
   0.5619800000000000    0.3755200000000000    0.1877700000000000 K
   0.4380100000000000    0.6244800000000000    0.0622500000000000 K
   0.4380100000000000    0.6244800000000000    0.5622500000000000 K
   0.5620000000000001    0.8755100000000000    0.4377750000000000 K
   0.5620000000000001    0.8755100000000000    0.9377750000000000 K
   0.5619900000000000    0.8755200000000000    0.1877700000000000 K
   0.4380200000000000    0.6244700000000000    0.3122500000000000 K
   0.4380200000000000    0.6244700000000000    0.8122500000000000 K
   0.0620000000000000    0.3755200000000000    0.9377750000000000 K
   0.0620000000000000    0.3755200000000000    0.4377750000000000 K
   0.0619900000000000    0.3755200000000000    0.6877700000000000 K
   0.0619900000000000    0.3755200000000000    0.1877700000000000 K
   0.9380100000000000    0.6244700000000000    0.8122500000000000 K
   0.9379999999999999    0.6244800000000000    0.0622500000000000 K
   0.9380100000000000    0.6244700000000000    0.3122500000000000 K
   0.9379999999999999    0.1244800000000000    0.0622500000000000 K
   0.9379999999999999    0.6244800000000000    0.5622500000000000 K
   0.0620100000000000    0.8755100000000000    0.4377750000000000 K
   0.0620100000000000    0.8755100000000000    0.9377750000000000 K
   0.9379999999999999    0.1244800000000000    0.8122549999999999 K
   0.9379999999999999    0.1244800000000000    0.3122550000000000 K
   0.0620000000000000    0.8755200000000000    0.6877700000000000 K
   0.0620000000000000    0.8755200000000000    0.1877700000000000 K
   0.3127500000000000    0.3747400000000000    0.1873850000000000 Y
   0.8127500000000000    0.3747400000000000    0.4373500000000000 Y
   0.6872600000000000    0.6252500000000000    0.3126400000000000 Y
   0.3127600000000000    0.8747300000000000    0.4373500000000000 Y
   0.1872600000000000    0.1252500000000000    0.3126400000000000 Y
   0.1872500000000000    0.6252600000000000    0.0626400000000000 Y
   0.8127400000000000    0.8747400000000000    0.1873850000000000 Y
   0.6872400000000000    0.1252600000000000    0.0626350000000000 Y
   0.6872400000000000    0.1252600000000000    0.5626350000000000 Y
   0.3127500000000000    0.3747400000000000    0.6873850000000000 Y
   0.8127500000000000    0.3747400000000000    0.9373500000000000 Y
   0.6872600000000000    0.6252500000000000    0.8126400000000000 Y
   0.3127600000000000    0.8747300000000000    0.9373500000000000 Y
   0.1872600000000000    0.1252500000000000    0.8126400000000000 Y
   0.1872500000000000    0.6252600000000000    0.5626400000000000 Y
   0.8127400000000000    0.8747400000000000    0.6873850000000000 Y
   0.1872500000000000    0.1252600000000000    0.5626350000000000 Y
   0.3127500000000000    0.8747400000000000    0.6873850000000000 Y
   0.6872400000000000    0.6252600000000000    0.0626400000000000 Y
   0.8127500000000000    0.8747300000000000    0.9373850000000000 Y
   0.1872700000000000    0.6252500000000000    0.8126400000000000 Y
   0.3127600000000000    0.3747400000000000    0.9373850000000000 Y
   0.6872500000000000    0.1252600000000000    0.8126400000000000 Y
   0.8127400000000000    0.3747400000000000    0.6873850000000000 Y
   0.1872500000000000    0.1252600000000000    0.0626350000000000 Y
   0.3127500000000000    0.8747400000000000    0.1873850000000000 Y
   0.6872400000000000    0.6252600000000000    0.5626400000000000 Y
   0.3127600000000000    0.3747400000000000    0.4373850000000000 Y
   0.8127500000000000    0.8747300000000000    0.4373850000000000 Y
   0.1872700000000000    0.6252500000000000    0.3126400000000000 Y
   0.6872500000000000    0.1252600000000000    0.3126400000000000 Y
   0.8127400000000000    0.3747400000000000    0.1873850000000000 Y
   0.8277352116759868    0.1024275024661198    0.5746195930001236 H
   0.8983365248896384    0.9587129577338575    0.6457800637270976 H
   0.8938006984065465    0.0388168135367250    0.6062053448837641 H
   0.6722418412590984    0.8975753346801870    0.6754067740450120 H
   0.6016527357287076    0.0412854204730903    0.6042406699761760 H
   0.6061782130054292    0.9611802426422356    0.6438209901612233 H
   0.8032600000000000    0.9891000000000000    0.2445750000000000 C
   0.6967300000000000    0.0109000000000000    0.2554500000000000 C
   0.8032600000000000    0.9891000000000000    0.7445750000000000 C
   0.6967300000000000    0.0109000000000000    0.7554500000000000 C
   0.8032500000000000    0.4891100000000000    0.7445500000000000 C
   0.6967400000000000    0.5108900000000000    0.7554500000000000 C
   0.3032700000000000    0.4891000000000000    0.9945750000000000 C
   0.1967400000000000    0.5109000000000000    0.0054500000000000 C
   0.8032600000000000    0.4891000000000000    0.4945750000000000 C
   0.6967300000000000    0.5109000000000000    0.5054500000000000 C
   0.1967400000000000    0.0109000000000000    0.7554500000000000 C
   0.3032700000000000    0.9891000000000000    0.7445750000000000 C
   0.6967300000000000    0.5109000000000000    0.0054500000000000 C
   0.8032600000000000    0.4891000000000000    0.9945750000000000 C
   0.3032700000000000    0.4891000000000000    0.4945750000000000 C
   0.1967400000000000    0.5109000000000000    0.5054500000000000 C
   0.3032700000000000    0.9891000000000000    0.2445750000000000 C
   0.1967400000000000    0.0109000000000000    0.2554500000000000 C
   0.8032500000000000    0.4891100000000000    0.2445500000000000 C
   0.6967400000000000    0.5108900000000000    0.2554500000000000 C
   0.2078100000000000    0.2608600000000000    0.2444050000000000 C
   0.2922000000000000    0.2391400000000000    0.2556200000000000 C
   0.1967500000000000    0.5108900000000000    0.2554500000000000 C
   0.3032600000000000    0.4891000000000000    0.2445700000000000 C
   0.7922000000000000    0.5112100000000001    0.3695850000000000 C
   0.7078100000000001    0.4887800000000000    0.3804450000000000 C
   0.0311800000000000    0.2612000000000000    0.3806200000000000 C
   0.9688300000000000    0.2388000000000000    0.3694100000000000 C
   0.2921900000000000    0.0112200000000000    0.3695900000000000 C
   0.2078300000000000    0.9887700000000000    0.3804400000000000 C
   0.5311700000000000    0.7611900000000000    0.3806200000000000 C
   0.4688500000000000    0.7387899999999999    0.3694100000000000 C
   0.2078200000000000    0.7608500000000000    0.9944050000000000 C
   0.2922000000000000    0.7391400000000000    0.0056000000000000 C
   0.2921900000000000    0.5112200000000000    0.1195800000000000 C
   0.2078100000000000    0.4887800000000000    0.1304400000000000 C
   0.0311700000000000    0.7612000000000000    0.1306150000000000 C
   0.9688200000000000    0.7388000000000000    0.1194050000000000 C
   0.7078100000000001    0.7608600000000000    0.2444000000000000 C
   0.7921899999999999    0.7391400000000000    0.2556200000000000 C
   0.6967300000000000    0.0109000000000000    0.0054450000000000 C
   0.8032700000000000    0.9890900000000000    0.9945800000000000 C
   0.7921700000000000    0.0112300000000000    0.1195850000000000 C
   0.7078100000000001    0.9887800000000000    0.1304350000000000 C
   0.5311600000000000    0.2612000000000000    0.1306150000000000 C
   0.4688300000000000    0.2388000000000000    0.1194050000000000 C
   0.7921800000000000    0.2391400000000000    0.0056200000000000 C
   0.7078100000000001    0.2608500000000000    0.9944050000000000 C
   0.6967300000000000    0.0109000000000000    0.5054450000000000 C
   0.8032700000000000    0.9890900000000000    0.4945800000000000 C
   0.5311600000000000    0.2612000000000000    0.6306150000000000 C
   0.4688300000000000    0.2388000000000000    0.6194050000000000 C
   0.7921800000000000    0.2391400000000000    0.5056200000000000 C
   0.7078100000000001    0.2608500000000000    0.4944050000000000 C
   0.2078100000000000    0.2608600000000000    0.7444050000000000 C
   0.2922000000000000    0.2391400000000000    0.7556200000000000 C
   0.1967500000000000    0.5108900000000000    0.7554500000000000 C
   0.3032600000000000    0.4891000000000000    0.7445700000000000 C
   0.7922000000000000    0.5112100000000001    0.8695850000000001 C
   0.7078100000000001    0.4887800000000000    0.8804449999999999 C
   0.0311800000000000    0.2612000000000000    0.8806200000000000 C
   0.9688300000000000    0.2388000000000000    0.8694100000000000 C
   0.2921900000000000    0.0112200000000000    0.8695900000000000 C
   0.2078300000000000    0.9887700000000000    0.8804400000000000 C
   0.5311700000000000    0.7611900000000000    0.8806200000000000 C
   0.4688500000000000    0.7387899999999999    0.8694100000000000 C
   0.2078200000000000    0.7608500000000000    0.4944050000000000 C
   0.2922000000000000    0.7391400000000000    0.5056000000000000 C
   0.2921900000000000    0.5112200000000000    0.6195800000000000 C
   0.2078100000000000    0.4887800000000000    0.6304400000000000 C
   0.0311700000000000    0.7612000000000000    0.6306150000000000 C
   0.9688200000000000    0.7388000000000000    0.6194050000000000 C
   0.7078100000000001    0.7608600000000000    0.7444000000000000 C
   0.7921899999999999    0.7391400000000000    0.7556200000000000 C
   0.1967400000000000    0.0109100000000000    0.5054450000000000 C
   0.3032800000000000    0.9890900000000000    0.4945800000000000 C
   0.7921899999999999    0.0112200000000000    0.8695900000000000 C
   0.7078200000000000    0.9887700000000000    0.8804400000000000 C
   0.2078200000000000    0.2608600000000000    0.4944050000000000 C
   0.2921900000000000    0.2391500000000000    0.5056000000000000 C
   0.2921800000000000    0.0112300000000000    0.6195850000000001 C
   0.2078200000000000    0.9887800000000000    0.6304350000000000 C
   0.2078200000000000    0.7608600000000000    0.7444000000000000 C
   0.2922000000000000    0.7391400000000000    0.7556200000000000 C
   0.4688300000000000    0.7388000000000000    0.1194050000000000 C
   0.5311600000000000    0.7612000000000000    0.1306150000000000 C
   0.7921800000000000    0.5112200000000000    0.1195800000000000 C
   0.7078000000000000    0.4887900000000000    0.1304400000000000 C
   0.7078200000000000    0.7608500000000000    0.9944050000000000 C
   0.7921899999999999    0.7391400000000000    0.0056150000000000 C
   0.0311900000000000    0.7611900000000000    0.8806149999999999 C
   0.9688400000000000    0.7387899999999999    0.8694100000000000 C
   0.2922100000000000    0.5112100000000001    0.8695850000000001 C
   0.2078200000000000    0.4887800000000000    0.8804400000000000 C
   0.5311700000000000    0.2612000000000000    0.8806200000000000 C
   0.4688500000000000    0.2388000000000000    0.8694100000000000 C
   0.9688200000000000    0.2388000000000000    0.6194050000000000 C
   0.0311700000000000    0.2612100000000000    0.6306150000000000 C
   0.7921899999999999    0.2391400000000000    0.7556200000000000 C
   0.7078000000000000    0.2608600000000000    0.7444050000000000 C
   0.1967400000000000    0.0109100000000000    0.0054450000000000 C
   0.3032800000000000    0.9890900000000000    0.9945800000000000 C
   0.2078200000000000    0.2608600000000000    0.9944050000000000 C
   0.2921900000000000    0.2391500000000000    0.0056000000000000 C
   0.2921800000000000    0.0112300000000000    0.1195850000000000 C
   0.2078200000000000    0.9887800000000000    0.1304350000000000 C
   0.7921899999999999    0.0112200000000000    0.3695900000000000 C
   0.7078200000000000    0.9887700000000000    0.3804400000000000 C
   0.2922000000000000    0.7391400000000000    0.2556200000000000 C
   0.2078200000000000    0.7608600000000000    0.2444000000000000 C
   0.4688300000000000    0.7388000000000000    0.6194050000000000 C
   0.5311600000000000    0.7612000000000000    0.6306150000000000 C
   0.7921800000000000    0.5112200000000000    0.6195800000000000 C
   0.7078000000000000    0.4887900000000000    0.6304400000000000 C
   0.7078200000000000    0.7608500000000000    0.4944050000000000 C
   0.7921899999999999    0.7391400000000000    0.5056150000000000 C
   0.5311700000000000    0.2612000000000000    0.3806200000000000 C
   0.4688500000000000    0.2388000000000000    0.3694100000000000 C
   0.2922100000000000    0.5112100000000001    0.3695850000000000 C
   0.2078200000000000    0.4887800000000000    0.3804400000000000 C
   0.0311900000000000    0.7611900000000000    0.3806150000000000 C
   0.9688400000000000    0.7387899999999999    0.3694100000000000 C
   0.0311700000000000    0.2612100000000000    0.1306150000000000 C
   0.9688200000000000    0.2388000000000000    0.1194050000000000 C
   0.7921899999999999    0.2391400000000000    0.2556200000000000 C
   0.7078000000000000    0.2608600000000000    0.2444050000000000 C
   0.8193300000000000    0.0265900000000000    0.2633100000000000 O
   0.8661400000000000    0.9350100000000000    0.2175300000000000 O
   0.6806600000000000    0.9734100000000000    0.2367150000000000 O
   0.6338400000000000    0.0649900000000000    0.2824950000000000 O
   0.8193300000000000    0.0265900000000000    0.7633099999999999 O
   0.8661400000000000    0.9350100000000000    0.7175300000000000 O
   0.6806600000000000    0.9734100000000000    0.7367150000000000 O
   0.6338400000000000    0.0649900000000000    0.7824949999999999 O
   0.8193400000000000    0.5265900000000000    0.7633099999999999 O
   0.8661400000000000    0.4350200000000000    0.7175250000000000 O
   0.6806600000000000    0.4734100000000000    0.7367150000000000 O
   0.6338500000000000    0.5649800000000000    0.7825000000000000 O
   0.3193300000000000    0.5266000000000000    0.0133100000000000 O
   0.3661600000000000    0.4350100000000000    0.9675300000000000 O
   0.1806800000000000    0.4734000000000000    0.9867150000000000 O
   0.1338500000000000    0.5649900000000000    0.0324950000000000 O
   0.8193200000000000    0.5266000000000000    0.5133100000000000 O
   0.8661500000000000    0.4350100000000000    0.4675300000000000 O
   0.6806700000000000    0.4734000000000000    0.4867150000000000 O
   0.6338400000000000    0.5649900000000000    0.5324950000000001 O
   0.1806700000000000    0.9734100000000000    0.7367150000000000 O
   0.1338500000000000    0.0649900000000000    0.7824949999999999 O
   0.3193400000000000    0.0265900000000000    0.7633099999999999 O
   0.3661600000000000    0.9350100000000000    0.7175300000000000 O
   0.6806700000000000    0.4734000000000000    0.9867150000000000 O
   0.6338400000000000    0.5649900000000000    0.0324950000000000 O
   0.8193200000000000    0.5266000000000000    0.0133100000000000 O
   0.8661500000000000    0.4350100000000000    0.9675300000000000 O
   0.3193300000000000    0.5266000000000000    0.5133100000000000 O
   0.3661600000000000    0.4350100000000000    0.4675300000000000 O
   0.1806800000000000    0.4734000000000000    0.4867150000000000 O
   0.1338500000000000    0.5649900000000000    0.5324950000000001 O
   0.3193400000000000    0.0265900000000000    0.2633100000000000 O
   0.3661600000000000    0.9350100000000000    0.2175300000000000 O
   0.1806700000000000    0.9734100000000000    0.2367150000000000 O
   0.1338500000000000    0.0649900000000000    0.2824950000000000 O
   0.8193400000000000    0.5265900000000000    0.2633100000000000 O
   0.8661400000000000    0.4350200000000000    0.2175250000000000 O
   0.6806600000000000    0.4734100000000000    0.2367150000000000 O
   0.6338500000000000    0.5649800000000000    0.2825000000000000 O
   0.1541500000000000    0.2236900000000000    0.2630900000000000 O
   0.1993600000000000    0.3146500000000000    0.2171700000000000 O
   0.3458600000000000    0.2763100000000000    0.2369350000000000 O
   0.3006600000000000    0.1853500000000000    0.2828550000000000 O
   0.1806700000000000    0.4734000000000000    0.2367000000000000 O
   0.1338600000000000    0.5649800000000000    0.2824950000000000 O
   0.3193500000000000    0.5265900000000000    0.2633100000000000 O
   0.3661600000000000    0.4350100000000000    0.2175250000000000 O
   0.8458599999999999    0.4738400000000000    0.3881700000000000 O
   0.8006400000000000    0.5656800000000000    0.3426950000000000 O
   0.6541500000000000    0.5261500000000000    0.3618500000000000 O
   0.6993600000000000    0.4343100000000000    0.4073350000000000 O
   0.1218100000000000    0.2241500000000000    0.3620900000000000 O
   0.9857600000000000    0.3153700000000000    0.4077000000000000 O
   0.8782100000000000    0.2758500000000000    0.3879350000000000 O
   0.0142600000000000    0.1846200000000000    0.3423300000000000 O
   0.3458700000000000    0.9738400000000000    0.3881700000000000 O
   0.3006400000000000    0.0656900000000000    0.3427000000000000 O
   0.1541600000000000    0.0261500000000000    0.3618550000000000 O
   0.1993800000000000    0.9343000000000000    0.4073300000000000 O
   0.6218000000000000    0.7241400000000000    0.3620900000000000 O
   0.4857700000000000    0.8153600000000000    0.4077000000000000 O
   0.3782200000000000    0.7758400000000000    0.3879350000000000 O
   0.5142500000000000    0.6846200000000000    0.3423300000000000 O
   0.1541500000000000    0.7236900000000001    0.0130850000000000 O
   0.1993700000000000    0.8146400000000000    0.9671750000000000 O
   0.3458700000000000    0.7762900000000000    0.9869399999999999 O
   0.3006500000000000    0.6853600000000000    0.0328500000000000 O
   0.3458600000000000    0.4738400000000000    0.1381650000000000 O
   0.3006400000000000    0.5656900000000000    0.0926950000000000 O
   0.1541500000000000    0.5261600000000000    0.1118550000000000 O
   0.1993600000000000    0.4343100000000000    0.1573300000000000 O
   0.9857399999999999    0.8153800000000000    0.1575000000000000 O
   0.1218000000000000    0.7241500000000000    0.1120900000000000 O
   0.8781900000000000    0.7758500000000000    0.1379350000000000 O
   0.0142500000000000    0.6846300000000000    0.0923250000000000 O
   0.6541500000000000    0.7236800000000000    0.2630850000000000 O
   0.6993400000000000    0.8146500000000000    0.2171750000000000 O
   0.8458500000000000    0.7763099999999999    0.2369350000000000 O
   0.8006500000000000    0.6853500000000000    0.2828500000000000 O
   0.6806700000000000    0.9734000000000000    0.9867150000000000 O
   0.6338400000000000    0.0649900000000000    0.0324900000000000 O
   0.8193200000000000    0.0266000000000000    0.0133100000000000 O
   0.8661600000000000    0.9350000000000001    0.9675300000000000 O
   0.8458500000000000    0.9738500000000000    0.1381700000000000 O
   0.8006200000000000    0.0656900000000000    0.0926950000000000 O
   0.6541400000000001    0.0261500000000000    0.1118500000000000 O
   0.6993600000000000    0.9343100000000000    0.1573300000000000 O
   0.6217900000000000    0.2241500000000000    0.1120850000000000 O
   0.4857600000000000    0.3153700000000000    0.1576950000000000 O
   0.3782100000000000    0.2758500000000000    0.1379300000000000 O
   0.5142400000000000    0.1846300000000000    0.0923000000000000 O
   0.8458599999999999    0.2763000000000000    0.9869399999999999 O
   0.8006400000000000    0.1853600000000000    0.0328500000000000 O
   0.6541400000000001    0.2237000000000000    0.0130850000000000 O
   0.6993500000000000    0.3146400000000000    0.9671750000000000 O
   0.6806700000000000    0.9734000000000000    0.4867150000000000 O
   0.6338400000000000    0.0649900000000000    0.5324900000000000 O
   0.8193200000000000    0.0266000000000000    0.5133100000000000 O
   0.8661600000000000    0.9350000000000001    0.4675300000000000 O
   0.6217900000000000    0.2241500000000000    0.6120850000000000 O
   0.4857600000000000    0.3153700000000000    0.6576950000000000 O
   0.3782100000000000    0.2758500000000000    0.6379300000000000 O
   0.5142400000000000    0.1846300000000000    0.5923000000000000 O
   0.8458599999999999    0.2763000000000000    0.4869400000000000 O
   0.8006400000000000    0.1853600000000000    0.5328500000000000 O
   0.6541400000000001    0.2237000000000000    0.5130850000000000 O
   0.6993500000000000    0.3146400000000000    0.4671750000000000 O
   0.8006200000000000    0.0656900000000000    0.5926950000000000 O
   0.8458500000000000    0.9738500000000000    0.6381700000000000 O
   0.1541500000000000    0.2236900000000000    0.7630900000000000 O
   0.1993600000000000    0.3146500000000000    0.7171700000000000 O
   0.3458600000000000    0.2763100000000000    0.7369350000000000 O
   0.3006600000000000    0.1853500000000000    0.7828550000000001 O
   0.1806700000000000    0.4734000000000000    0.7367000000000000 O
   0.1338600000000000    0.5649800000000000    0.7824949999999999 O
   0.3193500000000000    0.5265900000000000    0.7633099999999999 O
   0.3661600000000000    0.4350100000000000    0.7175250000000000 O
   0.8458599999999999    0.4738400000000000    0.8881700000000000 O
   0.8006400000000000    0.5656800000000000    0.8426950000000000 O
   0.6541500000000000    0.5261500000000000    0.8618500000000000 O
   0.6993600000000000    0.4343100000000000    0.9073350000000000 O
   0.1218100000000000    0.2241500000000000    0.8620900000000000 O
   0.9857600000000000    0.3153700000000000    0.9077000000000000 O
   0.8782100000000000    0.2758500000000000    0.8879349999999999 O
   0.0142600000000000    0.1846200000000000    0.8423300000000000 O
   0.3458700000000000    0.9738400000000000    0.8881700000000000 O
   0.3006400000000000    0.0656900000000000    0.8427000000000000 O
   0.1541600000000000    0.0261500000000000    0.8618550000000000 O
   0.1993800000000000    0.9343000000000000    0.9073300000000000 O
   0.6218000000000000    0.7241400000000000    0.8620900000000000 O
   0.4857700000000000    0.8153600000000000    0.9077000000000000 O
   0.3782200000000000    0.7758400000000000    0.8879349999999999 O
   0.5142500000000000    0.6846200000000000    0.8423300000000000 O
   0.1541500000000000    0.7236900000000001    0.5130850000000000 O
   0.1993700000000000    0.8146400000000000    0.4671750000000000 O
   0.3458700000000000    0.7762900000000000    0.4869400000000000 O
   0.3006500000000000    0.6853600000000000    0.5328500000000000 O
   0.3458600000000000    0.4738400000000000    0.6381650000000000 O
   0.3006400000000000    0.5656900000000000    0.5926950000000000 O
   0.1541500000000000    0.5261600000000000    0.6118550000000000 O
   0.1993600000000000    0.4343100000000000    0.6573300000000000 O
   0.9857399999999999    0.8153800000000000    0.6575000000000000 O
   0.1218000000000000    0.7241500000000000    0.6120900000000000 O
   0.8781900000000000    0.7758500000000000    0.6379350000000000 O
   0.0142500000000000    0.6846300000000000    0.5923250000000000 O
   0.6541500000000000    0.7236800000000000    0.7630850000000000 O
   0.6993400000000000    0.8146500000000000    0.7171750000000000 O
   0.8458500000000000    0.7763099999999999    0.7369350000000000 O
   0.8006500000000000    0.6853500000000000    0.7828500000000000 O
   0.6993600000000000    0.9343100000000000    0.6573300000000000 O
   0.6541400000000001    0.0261500000000000    0.6118500000000000 O
   0.1806800000000000    0.9734000000000000    0.4867150000000000 O
   0.1338500000000000    0.0650000000000000    0.5324900000000000 O
   0.3193300000000000    0.0266000000000000    0.5133100000000000 O
   0.3661700000000000    0.9350000000000001    0.4675300000000000 O
   0.8458599999999999    0.9738400000000000    0.8881700000000000 O
   0.8006300000000000    0.0656900000000000    0.8427000000000000 O
   0.6541500000000000    0.0261500000000000    0.8618550000000000 O
   0.6993700000000000    0.9343000000000000    0.9073300000000000 O
   0.1541500000000000    0.2237000000000000    0.5130850000000000 O
   0.1993600000000000    0.3146400000000000    0.4671750000000000 O
   0.3458700000000000    0.2763000000000000    0.4869400000000000 O
   0.3006500000000000    0.1853600000000000    0.5328500000000000 O
   0.3458500000000000    0.9738500000000000    0.6381700000000000 O
   0.3006300000000000    0.0657000000000000    0.5926950000000000 O
   0.1541500000000000    0.0261600000000000    0.6118500000000000 O
   0.1993700000000000    0.9343100000000000    0.6573300000000000 O
   0.1541600000000000    0.7236800000000000    0.7630850000000000 O
   0.1993600000000000    0.8146500000000000    0.7171700000000000 O
   0.3458600000000000    0.7763099999999999    0.7369350000000000 O
   0.3006600000000000    0.6853500000000000    0.7828500000000000 O
   0.3782000000000000    0.7758500000000000    0.1379000000000000 O
   0.5142400000000000    0.6846300000000000    0.0923250000000000 O
   0.6217800000000000    0.7241500000000000    0.1120900000000000 O
   0.4857500000000000    0.8153800000000000    0.1576950000000000 O
   0.8458400000000000    0.4738500000000000    0.1381650000000000 O
   0.8006200000000000    0.5656900000000000    0.0926950000000000 O
   0.6541400000000001    0.5261600000000000    0.1118550000000000 O
   0.6993500000000000    0.4343200000000000    0.1573300000000000 O
   0.6541400000000001    0.7236900000000001    0.0130850000000000 O
   0.6993600000000000    0.8146400000000000    0.9671750000000000 O
   0.8458599999999999    0.7762900000000000    0.9869350000000000 O
   0.8006400000000000    0.6853600000000000    0.0328500000000000 O
   0.1218100000000000    0.7241400000000000    0.8620900000000000 O
   0.9857600000000000    0.8153600000000000    0.9077000000000000 O
   0.8782100000000000    0.7758400000000000    0.8879349999999999 O
   0.0142600000000000    0.6846200000000000    0.8423250000000000 O
   0.3458700000000000    0.4738400000000000    0.8881700000000000 O
   0.3006500000000000    0.5656800000000000    0.8426950000000000 O
   0.1541600000000000    0.5261500000000000    0.8618550000000000 O
   0.1993700000000000    0.4343100000000000    0.9073350000000000 O
   0.6218000000000000    0.2241500000000000    0.8620900000000000 O
   0.4857700000000000    0.3153700000000000    0.9077000000000000 O
   0.3782200000000000    0.2758500000000000    0.8879349999999999 O
   0.5142500000000000    0.1846300000000000    0.8423000000000000 O
   0.8781900000000000    0.2758600000000000    0.6379300000000000 O
   0.0142500000000000    0.1846300000000000    0.5923250000000000 O
   0.1218000000000000    0.2241600000000000    0.6120850000000000 O
   0.9857399999999999    0.3153800000000000    0.6576950000000000 O
   0.8458500000000000    0.2763100000000000    0.7369350000000000 O
   0.8006500000000000    0.1853500000000000    0.7828550000000001 O
   0.6541500000000000    0.2236900000000000    0.7630900000000000 O
   0.6993400000000000    0.3146500000000000    0.7171500000000000 O
   0.1806800000000000    0.9734000000000000    0.9867150000000000 O
   0.1338500000000000    0.0650000000000000    0.0324900000000000 O
   0.3193300000000000    0.0266000000000000    0.0133100000000000 O
   0.3661700000000000    0.9350000000000001    0.9675300000000000 O
   0.1541500000000000    0.2237000000000000    0.0130850000000000 O
   0.1993600000000000    0.3146400000000000    0.9671750000000000 O
   0.3458700000000000    0.2763000000000000    0.9869399999999999 O
   0.3006500000000000    0.1853600000000000    0.0328500000000000 O
   0.3458500000000000    0.9738500000000000    0.1381700000000000 O
   0.3006300000000000    0.0657000000000000    0.0926950000000000 O
   0.1541500000000000    0.0261600000000000    0.1118500000000000 O
   0.1993700000000000    0.9343100000000000    0.1573300000000000 O
   0.8458599999999999    0.9738400000000000    0.3881700000000000 O
   0.8006300000000000    0.0656900000000000    0.3427000000000000 O
   0.6541500000000000    0.0261500000000000    0.3618550000000000 O
   0.6993700000000000    0.9343000000000000    0.4073300000000000 O
   0.3458600000000000    0.7763099999999999    0.2369350000000000 O
   0.3006600000000000    0.6853500000000000    0.2828500000000000 O
   0.1541600000000000    0.7236800000000000    0.2630850000000000 O
   0.1993600000000000    0.8146500000000000    0.2171700000000000 O
   0.3782000000000000    0.7758500000000000    0.6379000000000000 O
   0.5142400000000000    0.6846300000000000    0.5923250000000000 O
   0.6217800000000000    0.7241500000000000    0.6120900000000000 O
   0.4857500000000000    0.8153800000000000    0.6576950000000000 O
   0.8458400000000000    0.4738500000000000    0.6381650000000000 O
   0.8006200000000000    0.5656900000000000    0.5926950000000000 O
   0.6541400000000001    0.5261600000000000    0.6118550000000000 O
   0.6993500000000000    0.4343200000000000    0.6573300000000000 O
   0.6541400000000001    0.7236900000000001    0.5130850000000000 O
   0.6993600000000000    0.8146400000000000    0.4671750000000000 O
   0.8458599999999999    0.7762900000000000    0.4869350000000000 O
   0.8006400000000000    0.6853600000000000    0.5328500000000000 O
   0.6218000000000000    0.2241500000000000    0.3620900000000000 O
   0.4857700000000000    0.3153700000000000    0.4077000000000000 O
   0.3782200000000000    0.2758500000000000    0.3879350000000000 O
   0.5142500000000000    0.1846300000000000    0.3423000000000000 O
   0.3458700000000000    0.4738400000000000    0.3881700000000000 O