Cu12 H88 C154 O44
1.0
  13.8350234637141849    0.0000000000000000    3.6050429620849145
  -6.9182394439017880   15.8408073545099075    7.6480317307230363
   0.0000000000000000    0.0000000000000000   37.8019999999999996
Cu H C O
12 88 154 44
direct
   0.5263800000000000    0.9770300000000000    0.2245200000000000 Cu
   0.9755400000000000    0.4490600000000000    0.2869050000000000 Cu
   0.4505700000000000    0.4261900000000000    0.0114550000000000 Cu
   0.4737900000000000    0.0229600000000000    0.2754000000000000 Cu
   0.0244700000000000    0.5508900000000000    0.2130800000000000 Cu
   0.5495000000000000    0.5738100000000000    0.4885300000000000 Cu
   0.5263800000000000    0.9770300000000000    0.7245200000000001 Cu
   0.9755400000000000    0.4490600000000000    0.7869050000000000 Cu
   0.4505700000000000    0.4261900000000000    0.5114550000000000 Cu
   0.4737900000000000    0.0229600000000000    0.7754000000000000 Cu
   0.0244700000000000    0.5508900000000000    0.7130799999999999 Cu
   0.5495000000000000    0.5738100000000000    0.9885300000000000 Cu
   0.2520300000000000    0.5436900000000000    0.3067950000000000 H
   0.5399500000000000    0.7677600000000000    0.2403500000000000 H
   0.4986400000000000    0.8155400000000000    0.1768800000000000 H
   0.3318200000000000    0.7279400000000000    0.1788150000000000 H
   0.3696400000000000    0.4928600000000000    0.3338000000000000 H
   0.3982500000000000    0.4470600000000000    0.4004200000000000 H
   0.5090800000000000    0.7034899999999999    0.3745300000000000 H
   0.4771900000000000    0.7495400000000000    0.3086350000000000 H
   0.8656100000000000    0.6136400000000000    0.4213000000000000 H
   0.0208600000000000    0.4807700000000000    0.3757900000000000 H
   0.8525700000000001    0.3538600000000000    0.4152850000000000 H
   0.6894800000000000    0.3577400000000000    0.4570400000000000 H
   0.0374200000000000    0.6676500000000000    0.4197500000000000 H
   0.1994700000000000    0.8007400000000000    0.3760500000000000 H
   0.2583700000000000    0.7490100000000000    0.2737500000000000 H
   0.0945300000000000    0.6173200000000000    0.3165850000000000 H
   0.7083900000000000    0.8425600000000000    0.2718350000000000 H
   0.7722400000000000    0.7514900000000000    0.3838800000000000 H
   0.6831100000000000    0.8307000000000000    0.4077350000000000 H
   0.6038600000000000    0.9143400000000000    0.3639250000000000 H
   0.8770600000000000    0.8396700000000000    0.2464250000000000 H
   0.9516400000000000    0.7523600000000000    0.2234650000000000 H
   0.8059900000000000    0.5475400000000000    0.3516450000000000 H
   0.7279099999999999    0.6331599999999999    0.3747350000000000 H
   0.7479600000000000    0.4562700000000000    0.1932250000000000 H
   0.4600500000000000    0.2322100000000000    0.2596350000000000 H
   0.5013400000000000    0.1843900000000000    0.3231000000000000 H
   0.6681400000000000    0.2719600000000000    0.3211950000000000 H
   0.6303700000000000    0.5071200000000000    0.1662100000000000 H
   0.6017900000000000    0.5529400000000000    0.0995850000000000 H
   0.4910000000000000    0.2965300000000000    0.1254450000000000 H
   0.5228500000000000    0.2504500000000000    0.1913500000000000 H
   0.2916600000000000    0.1573400000000000    0.2281750000000000 H
   0.2277700000000000    0.2484500000000000    0.1161350000000000 H
   0.3169300000000000    0.1693000000000000    0.0922500000000000 H
   0.3962800000000000    0.0856900000000000    0.1360300000000000 H
   0.1229400000000000    0.1602700000000000    0.2535000000000000 H
   0.0483000000000000    0.2475900000000000    0.2765250000000000 H
   0.1939200000000000    0.4523300000000000    0.1483000000000000 H
   0.2720400000000000    0.3667000000000000    0.1252700000000000 H
   0.2520300000000000    0.5436900000000000    0.8067949999999999 H
   0.5399500000000000    0.7677600000000000    0.7403500000000001 H
   0.4986400000000000    0.8155400000000000    0.6768800000000000 H
   0.3318200000000000    0.7279400000000000    0.6788149999999999 H
   0.3696400000000000    0.4928600000000000    0.8338000000000000 H
   0.3982500000000000    0.4470600000000000    0.9004200000000000 H
   0.5090800000000000    0.7034899999999999    0.8745300000000000 H
   0.4771900000000000    0.7495400000000000    0.8086350000000000 H
   0.8656100000000000    0.6136400000000000    0.9213000000000000 H
   0.0208600000000000    0.4807700000000000    0.8757900000000001 H
   0.8525700000000001    0.3538600000000000    0.9152850000000000 H
   0.6894800000000000    0.3577400000000000    0.9570400000000000 H
   0.0374200000000000    0.6676500000000000    0.9197500000000001 H
   0.1994700000000000    0.8007400000000000    0.8760500000000000 H
   0.2583700000000000    0.7490100000000000    0.7737499999999999 H
   0.0945300000000000    0.6173200000000000    0.8165850000000000 H
   0.7083900000000000    0.8425600000000000    0.7718350000000000 H
   0.7722400000000000    0.7514900000000000    0.8838800000000000 H
   0.6831100000000000    0.8307000000000000    0.9077350000000000 H
   0.6038600000000000    0.9143400000000000    0.8639250000000001 H
   0.8770600000000000    0.8396700000000000    0.7464250000000000 H
   0.9516400000000000    0.7523600000000000    0.7234650000000000 H
   0.8059900000000000    0.5475400000000000    0.8516450000000000 H
   0.7279099999999999    0.6331599999999999    0.8747350000000000 H
   0.7479600000000000    0.4562700000000000    0.6932250000000000 H
   0.4600500000000000    0.2322100000000000    0.7596350000000001 H
   0.5013400000000000    0.1843900000000000    0.8230999999999999 H
   0.6681400000000000    0.2719600000000000    0.8211950000000000 H
   0.6303700000000000    0.5071200000000000    0.6662100000000000 H
   0.6017900000000000    0.5529400000000000    0.5995850000000000 H
   0.4910000000000000    0.2965300000000000    0.6254450000000000 H
   0.5228500000000000    0.2504500000000000    0.6913500000000000 H
   0.1344200000000000    0.3864000000000000    0.5786600000000000 H
   0.9792800000000000    0.5193300000000000    0.6241700000000000 H
   0.1476100000000000    0.6462100000000000    0.5846700000000000 H
   0.3106600000000000    0.6422700000000000    0.5429250000000000 H
   0.9627700000000000    0.3324500000000000    0.5801499999999999 H
   0.8007900000000000    0.1993000000000000    0.6238200000000000 H
   0.7416600000000000    0.2509800000000000    0.7261800000000000 H
   0.9054200000000000    0.3827200000000000    0.6833600000000000 H
   0.2916600000000000    0.1573400000000000    0.7281750000000000 H
   0.2277700000000000    0.2484500000000000    0.6161350000000000 H
   0.3169300000000000    0.1693000000000000    0.5922499999999999 H
   0.3962800000000000    0.0856900000000000    0.6360300000000000 H
   0.1229400000000000    0.1602700000000000    0.7535000000000001 H
   0.0483000000000000    0.2475900000000000    0.7765250000000000 H
   0.1939200000000000    0.4523300000000000    0.6483000000000000 H
   0.2720400000000000    0.3667000000000000    0.6252700000000000 H
   0.1804900000000000    0.5802400000000000    0.2450400000000000 C
   0.2830700000000000    0.6301600000000001    0.2428400000000000 C
   0.3078100000000000    0.6025600000000000    0.2782650000000000 C
   0.3997600000000000    0.6517600000000000    0.2780350000000000 C
   0.4680200000000000    0.7288400000000000    0.2410400000000000 C
   0.4446700000000000    0.7557400000000000    0.2053700000000000 C
   0.3522300000000000    0.7070800000000000    0.2060900000000000 C
   0.4210300000000000    0.6244300000000000    0.3166500000000000 C
   0.3987200000000000    0.5390000000000000    0.3429900000000000 C
   0.4152400000000000    0.5131300000000000    0.3800750000000000 C
   0.4551900000000000    0.5724600000000000    0.3915700000000000 C
   0.4786000000000000    0.6578800000000000    0.3653200000000000 C
   0.4614100000000000    0.6834300000000000    0.3283650000000000 C
   0.4721900000000000    0.5451300000000000    0.4313750000000000 C
   0.6705800000000000    0.4902000000000000    0.4646950000000000 C
   0.7687600000000000    0.4857600000000000    0.4419600000000000 C
   0.8643600000000000    0.5566000000000000    0.4203800000000000 C
   0.9559100000000000    0.5561400000000000    0.3960550000000000 C
   0.9502300000000000    0.4821700000000000    0.3945000000000000 C
   0.8555400000000000    0.4108300000000000    0.4167000000000000 C
   0.7644500000000000    0.4123000000000000    0.4402300000000000 C
   0.0544700000000000    0.6333200000000000    0.3711400000000000 C
   0.0849000000000000    0.6859800000000000    0.3875300000000000 C
   0.1756800000000000    0.7600900000000000    0.3633900000000000 C
   0.2386300000000000    0.7830400000000000    0.3222400000000000 C
   0.2094500000000000    0.7306000000000000    0.3057600000000000 C
   0.1182800000000000    0.6567600000000000    0.3299250000000000 C
   0.3352400000000000    0.8626400000000000    0.2960650000000000 C
   0.6002800000000000    0.9295400000000000    0.2901050000000000 C
   0.6528900000000000    0.8839900000000001    0.3150700000000000 C
   0.7052700000000000    0.8407600000000000    0.3012700000000000 C
   0.7481100000000001    0.7921200000000000    0.3258650000000000 C
   0.7391799999999999    0.7889800000000000    0.3644250000000000 C
   0.6889400000000000    0.8334600000000000    0.3778500000000000 C
   0.6451600000000000    0.8806500000000000    0.3535100000000000 C
   0.7968400000000000    0.7422900000000000    0.3122000000000000 C
   0.8600000000000000    0.7751300000000000    0.2694500000000000 C
   0.9025300000000001    0.7269200000000000    0.2565050000000000 C
   0.8831200000000000    0.6445800000000000    0.2861450000000000 C
   0.8211100000000000    0.6115800000000000    0.3288500000000000 C
   0.7782500000000000    0.6598600000000000    0.3416700000000000 C
   0.9273700000000000    0.5922800000000000    0.2724700000000000 C
   0.8194900000000001    0.4196900000000000    0.2549750000000000 C
   0.7169100000000000    0.3697700000000000    0.2571750000000000 C
   0.6921800000000000    0.3973900000000000    0.2215000000000000 C
   0.6002300000000000    0.3482200000000000    0.2219650000000000 C
   0.5319800000000000    0.2711100000000000    0.2589500000000000 C
   0.5553000000000000    0.2442000000000000    0.2946300000000000 C
   0.6477400000000000    0.2928400000000000    0.2939200000000000 C
   0.5789600000000000    0.3755400000000000    0.1833550000000000 C
   0.6013300000000000    0.4609900000000000    0.1570100000000000 C
   0.5847800000000000    0.4868600000000000    0.1199300000000000 C
   0.5448700000000000    0.4275500000000000    0.1084000000000000 C
   0.5214400000000000    0.3421300000000000    0.1346650000000000 C
   0.5386600000000000    0.3165700000000000    0.1716150000000000 C
   0.5279100000000000    0.4548800000000000    0.0686000000000000 C
   0.3998800000000000    0.0704500000000000    0.2098500000000000 C
   0.3472000000000000    0.1159700000000000    0.1849100000000000 C
   0.2947900000000000    0.1591700000000000    0.1987300000000000 C
   0.2519400000000000    0.2078100000000000    0.1741400000000000 C
   0.2608100000000000    0.2109300000000000    0.1355850000000000 C
   0.3111300000000000    0.1665300000000000    0.1221000000000000 C
   0.3549600000000000    0.1193600000000000    0.1464600000000000 C
   0.2031900000000000    0.2576200000000000    0.1878000000000000 C
   0.1399500000000000    0.2247800000000000    0.2305350000000000 C
   0.0974500000000000    0.2730200000000000    0.2434900000000000 C
   0.1168300000000000    0.3553500000000000    0.2138350000000000 C
   0.1788500000000000    0.3883200000000000    0.1711200000000000 C
   0.2216800000000000    0.3400100000000000    0.1583300000000000 C
   0.0725700000000000    0.4076500000000000    0.2275000000000000 C
   0.1804900000000000    0.5802400000000000    0.7450400000000000 C
   0.2830700000000000    0.6301600000000001    0.7428399999999999 C
   0.3078100000000000    0.6025600000000000    0.7782650000000000 C
   0.3997600000000000    0.6517600000000000    0.7780350000000000 C
   0.4680200000000000    0.7288400000000000    0.7410400000000000 C
   0.4446700000000000    0.7557400000000000    0.7053700000000001 C
   0.3522300000000000    0.7070800000000000    0.7060900000000000 C
   0.4210300000000000    0.6244300000000000    0.8166500000000000 C
   0.3987200000000000    0.5390000000000000    0.8429900000000000 C
   0.4152400000000000    0.5131300000000000    0.8800749999999999 C
   0.4551900000000000    0.5724600000000000    0.8915700000000000 C
   0.4786000000000000    0.6578800000000000    0.8653200000000000 C
   0.4614100000000000    0.6834300000000000    0.8283650000000000 C
   0.4721900000000000    0.5451300000000000    0.9313750000000001 C
   0.6705800000000000    0.4902000000000000    0.9646950000000001 C
   0.7687600000000000    0.4857600000000000    0.9419600000000000 C
   0.8643600000000000    0.5566000000000000    0.9203800000000000 C
   0.9559100000000000    0.5561400000000000    0.8960550000000000 C
   0.9502300000000000    0.4821700000000000    0.8945000000000001 C
   0.8555400000000000    0.4108300000000000    0.9167000000000001 C
   0.7644500000000000    0.4123000000000000    0.9402300000000000 C
   0.0544700000000000    0.6333200000000000    0.8711400000000000 C
   0.0849000000000000    0.6859800000000000    0.8875299999999999 C
   0.1756800000000000    0.7600900000000000    0.8633900000000000 C
   0.2386300000000000    0.7830400000000000    0.8222400000000001 C
   0.2094500000000000    0.7306000000000000    0.8057600000000000 C
   0.1182800000000000    0.6567600000000000    0.8299250000000000 C
   0.3352400000000000    0.8626400000000000    0.7960650000000000 C
   0.6002800000000000    0.9295400000000000    0.7901050000000001 C
   0.6528900000000000    0.8839900000000001    0.8150700000000000 C
   0.7052700000000000    0.8407600000000000    0.8012699999999999 C
   0.7481100000000001    0.7921200000000000    0.8258650000000001 C
   0.7391799999999999    0.7889800000000000    0.8644250000000000 C
   0.6889400000000000    0.8334600000000000    0.8778500000000000 C
   0.6451600000000000    0.8806500000000000    0.8535100000000000 C
   0.7968400000000000    0.7422900000000000    0.8122000000000000 C
   0.8600000000000000    0.7751300000000000    0.7694500000000000 C
   0.9025300000000001    0.7269200000000000    0.7565050000000000 C
   0.8831200000000000    0.6445800000000000    0.7861450000000000 C
   0.8211100000000000    0.6115800000000000    0.8288500000000000 C
   0.7782500000000000    0.6598600000000000    0.8416699999999999 C
   0.9273700000000000    0.5922800000000000    0.7724700000000000 C
   0.8194900000000001    0.4196900000000000    0.7549750000000000 C
   0.7169100000000000    0.3697700000000000    0.7571749999999999 C
   0.6921800000000000    0.3973900000000000    0.7215000000000000 C
   0.6002300000000000    0.3482200000000000    0.7219650000000000 C
   0.5319800000000000    0.2711100000000000    0.7589500000000000 C
   0.5553000000000000    0.2442000000000000    0.7946299999999999 C
   0.6477400000000000    0.2928400000000000    0.7939200000000000 C
   0.5789600000000000    0.3755400000000000    0.6833549999999999 C
   0.6013300000000000    0.4609900000000000    0.6570100000000000 C
   0.5847800000000000    0.4868600000000000    0.6199300000000000 C
   0.5448700000000000    0.4275500000000000    0.6084000000000001 C
   0.5214400000000000    0.3421300000000000    0.6346650000000000 C
   0.5386600000000000    0.3165700000000000    0.6716150000000000 C
   0.5279100000000000    0.4548800000000000    0.5686000000000000 C
   0.3294900000000000    0.5097900000000000    0.5352850000000000 C
   0.2313200000000000    0.5142700000000000    0.5580050000000000 C
   0.1357100000000000    0.4434500000000000    0.5795500000000000 C
   0.0441700000000000    0.4439300000000000    0.6039000000000000 C
   0.0498800000000000    0.5179100000000000    0.6054500000000000 C
   0.1446000000000000    0.5892200000000000    0.5832650000000000 C
   0.2356700000000000    0.5877400000000000    0.5597350000000000 C
   0.9456200000000000    0.3667300000000000    0.6288050000000001 C
   0.9152300000000000    0.3141100000000000    0.6123950000000000 C
   0.8245300000000000    0.2399400000000000    0.6365350000000000 C
   0.7615200000000000    0.2169700000000000    0.6776850000000000 C
   0.7906300000000001    0.2694000000000000    0.6941750000000000 C
   0.8817300000000000    0.3433100000000000    0.6700100000000000 C
   0.6649400000000000    0.1373600000000000    0.7038450000000001 C
   0.3998800000000000    0.0704500000000000    0.7098500000000000 C
   0.3472000000000000    0.1159700000000000    0.6849100000000000 C
   0.2947900000000000    0.1591700000000000    0.6987300000000000 C
   0.2519400000000000    0.2078100000000000    0.6741400000000000 C
   0.2608100000000000    0.2109300000000000    0.6355850000000001 C
   0.3111300000000000    0.1665300000000000    0.6221000000000000 C
   0.3549600000000000    0.1193600000000000    0.6464600000000000 C
   0.2031900000000000    0.2576200000000000    0.6878000000000000 C
   0.1399500000000000    0.2247800000000000    0.7305349999999999 C
   0.0974500000000000    0.2730200000000000    0.7434900000000000 C
   0.1168300000000000    0.3553500000000000    0.7138350000000000 C
   0.1788500000000000    0.3883200000000000    0.6711199999999999 C
   0.2216800000000000    0.3400100000000000    0.6583300000000000 C
   0.0725700000000000    0.4076500000000000    0.7275000000000000 C
   0.1170400000000000    0.5140900000000000    0.2805450000000000 O
   0.1627100000000000    0.6083000000000000    0.2115450000000000 O
   0.4327400000000000    0.4657100000000000    0.4576800000000000 O
   0.5253600000000000    0.6033800000000000    0.4363650000000000 O
   0.6782800000000000    0.5611800000000000    0.4623200000000000 O
   0.5857200000000000    0.4232800000000000    0.4840500000000000 O
   0.3487400000000000    0.9151800000000000    0.3095000000000000 O
   0.3980500000000000    0.8727100000000000    0.2618500000000000 O
   0.6028400000000000    0.9246600000000000    0.2570500000000000 O
   0.5546600000000000    0.9686300000000000    0.3040000000000000 O
   0.9677300000000000    0.6192600000000000    0.2327450000000000 O
   0.9219300000000000    0.5239000000000000    0.3016100000000000 O
   0.8829300000000000    0.4858400000000000    0.2194500000000000 O
   0.8372700000000000    0.3916300000000000    0.2884700000000000 O
   0.5670600000000000    0.5343200000000000    0.0423600000000000 O
   0.4749900000000000    0.3966200000000000    0.0635600000000000 O
   0.3975100000000000    0.0754700000000000    0.2428600000000000 O
   0.4453700000000000    0.0312700000000000    0.1958900000000000 O
   0.0322800000000000    0.3807100000000000    0.2672250000000000 O
   0.0780800000000000    0.4760700000000000    0.1983600000000000 O
   0.1170400000000000    0.5140900000000000    0.7805450000000000 O
   0.1627100000000000    0.6083000000000000    0.7115450000000000 O
   0.4327400000000000    0.4657100000000000    0.9576800000000000 O
   0.5253600000000000    0.6033800000000000    0.9363650000000000 O
   0.6782800000000000    0.5611800000000000    0.9623200000000001 O
   0.5857200000000000    0.4232800000000000    0.9840500000000000 O
   0.3487400000000000    0.9151800000000000    0.8095000000000000 O
   0.3980500000000000    0.8727100000000000    0.7618500000000000 O
   0.6028400000000000    0.9246600000000000    0.7570500000000000 O
   0.5546600000000000    0.9686300000000000    0.8040000000000000 O
   0.9677300000000000    0.6192600000000000    0.7327450000000000 O
   0.9219300000000000    0.5239000000000000    0.8016099999999999 O
   0.8829300000000000    0.4858400000000000    0.7194500000000000 O
   0.8372700000000000    0.3916300000000000    0.7884700000000000 O
   0.5670600000000000    0.5343200000000000    0.5423600000000000 O
   0.4749900000000000    0.3966200000000000    0.5635600000000001 O
   0.3218300000000000    0.4387300000000000    0.5377750000000000 O
   0.4143000000000000    0.5767600000000001    0.5157800000000000 O
   0.6513800000000000    0.0848500000000000    0.6903900000000001 O
   0.6022300000000000    0.1272100000000000    0.7380000000000000 O
   0.3975100000000000    0.0754700000000000    0.7428600000000000 O
   0.4453700000000000    0.0312700000000000    0.6958900000000000 O
   0.0322800000000000    0.3807100000000000    0.7672250000000000 O
   0.0780800000000000    0.4760700000000000    0.6983600000000000 O
