H9 O6
1.0
  20.2549983680281862    0.0000000000000000   -0.0081308779014316
   0.0340800087681762   36.8419842318452666    0.0006430142029877
   0.0000000000000000    0.0000000000000000   37.0840000000000032
H O
9 6
direct
   0.2440939644364658    0.9322806192351965    0.0406823596201438 H
   0.1974001602052997    0.8752373827904414    0.0539699821403321 H
   0.2402264256793961    0.7588511093847984    0.0471687335824841 H
   0.4666864897868798    0.6551630406576029    0.4102820057887571 H
   0.4829937575755935    0.6733374275061781    0.3995578146729440 H
   0.3527775951627676    0.6476957289782883    0.4168541932078992 H
  -0.0130473131568246    0.7896742899636661    0.6452752801943441 H
  -0.0163033140740233    0.8143612016807449    0.7295207255537716 H
  -0.0305875534177233    0.8194384775818856    0.6971717798275752 H
   0.2362100000000000    0.9582300000000000    0.0417900000000000 O
   0.1968700000000000    0.9015550000000000    0.0532600000000000 O
   0.4356900000000000    0.6772600000000000    0.3982700000000000 O
   0.3259300000000000    0.6668350000000001    0.4064500000000000 O
   0.0105700000000000    0.7708950000000000    0.6583250000000000 O
   0.0000400000000000    0.7950850000000000    0.7140950000000000 O
