H3 C3 O6
1.0
  20.2549983680281862    0.0000000000000000   -0.0081308779014316
   0.0340800087681762   36.8419842318452666    0.0006430142029877
   0.0000000000000000    0.0000000000000000   37.0840000000000032
H C O
3 3 6
direct
   0.3960200000000000    0.6276349999999999    0.4055700000000000 H
   0.1701700000000000    0.9318750000000000    0.0103600000000000 H
   0.0259400000000000    0.8239950000000000    0.6698700000000000 H
   0.3867600000000000    0.6570300000000000    0.4033650000000000 C
   0.2005400000000000    0.9299350000000000    0.0349700000000000 C
   0.0123400000000000    0.7972250000000001    0.6811150000000000 C
   0.3259300000000000    0.6668350000000001    0.4064500000000000 O
   0.4356900000000000    0.6772600000000000    0.3982700000000000 O
   0.2362100000000000    0.9582300000000000    0.0417900000000000 O
   0.1968700000000000    0.9015550000000000    0.0532600000000000 O
   0.0105700000000000    0.7708950000000000    0.6583250000000000 O
   0.0000400000000000    0.7950850000000000    0.7140950000000000 O
