H6 O4
1.0
  26.3759999959827063    0.0000000000000000    0.0004603480434831
  -0.2073429272002607   26.3991855652317113   -0.0032253684496634
   0.0000000000000000    0.0000000000000000   23.3389999999999986
H O
6 4
direct
   0.7811756859671130    0.8037789405377427    0.2226383611267232 H
   0.7667007148059970    0.8159643612053566    0.3923268992858050 H
   0.7684341349019340    0.8092239806917176    0.3079854050264283 H
   0.4538719692561642    0.8371040782576865    0.4031354160764998 H
   0.4687761411891204    0.8292763963089181    0.2331928229719426 H
   0.4669625552800618    0.8338161792165358    0.3176783845249609 H
   0.7951100000000000    0.8086650000000000    0.2607200000000000 O
   0.7864750000000000    0.8155500000000000    0.3572900000000000 O
   0.4398650000000000    0.8333333333333333    0.3649300000000000 O
   0.4487750000000000    0.8289200000000000    0.2680700000000000 O
