H4 C8 O4
1.0
  21.5670952932750311    0.0000000000000000   -3.5046969356556521
  -4.1318556663859223   21.4067902092574123   -1.9841284456898043
   0.0000000000000000    0.0000000000000000   13.9719999999999995
H C O
4 8 4
direct
   0.9698400000000000    0.3328800000000000    0.6245900000000000 H
   0.8574600000000000    0.3398600000000000    0.6328200000000000 H
   0.9102900000000000    0.4020700000000000    0.9401100000000000 H
   0.0000000000000000    0.3935700000000000    0.9320700000000000 H
   0.0593300000000000    0.3597500000000000    0.7734400000000000 C
   0.0000000000000000    0.3630100000000000    0.7778000000000000 C
   0.9563900000000000    0.3480300000000000    0.6933700000000000 C
   0.8940500000000000    0.3523500000000000    0.6978200000000000 C
   0.8771200000000000    0.3721800000000000    0.7866800000000000 C
   0.9237500000000000    0.3870700000000000    0.8712500000000000 C
   0.9860200000000000    0.3823100000000000    0.8669200000000000 C
   0.8095400000000000    0.3759800000000000    0.7914200000000000 C
   0.0737000000000000    0.3507800000000000    0.6889000000000000 O
   0.0970800000000000    0.3667500000000000    0.8545600000000000 O
   0.7710200000000000    0.3664600000000000    0.7104000000000000 O
   0.7959900000000000    0.3880800000000000    0.8754999999999999 O
