H2 C7 O6
1.0
  13.0134290346157133    0.0000000000000000   -4.6044631349399232
  -2.4298853860033405    7.4940805173075189   -0.5303114283128935
   0.0000000000000000    0.0000000000000000   20.1859999999999999
H C O
2 7 6
direct
   0.7225850000000000    0.6020200000000000    0.3990850000000000 H
   0.4706800000000000    0.4931000000000000    0.5000000000000000 H
   0.4811850000000000    0.2803000000000000    0.4260150000000000 C
   0.3875700000000000    0.1387700000000000    0.4319050000000000 C
   0.6158700000000000    0.3395300000000000    0.3773750000000000 C
   0.6664000000000000    0.2554500000000000    0.3336800000000000 C
   0.6535350000000000    0.5153700000000000    0.4077450000000000 C
   0.6034349999999999    0.5825600000000000    0.4512850000000000 C
   0.5132850000000000    0.4530100000000000    0.4581950000000000 C
   0.3364250000000000    0.0015000000000000    0.3846800000000000 O
   0.3688700000000000    0.1781400000000000    0.4878050000000000 O
   0.5305950000000000    0.2215000000000000    0.3857100000000000 O
   0.6164550000000000    0.0914800000000000    0.3041300000000000 O
   0.7533200000000000    0.3484500000000000    0.3306300000000000 O
   0.6331100000000001    0.7415800000000000    0.5000000000000000 O
