H6 O4
1.0
  13.1899996604871319    0.0000000000000000    0.0029927160427188
  -0.0306724669784916   13.9469648362714196    0.0063289476229558
   0.0000000000000000    0.0000000000000000   33.9759999999999991
H O
6 4
direct
   0.8679887511911880    0.3772389903058488    0.6536001076802647 H
   0.9122027216047036    0.4391696599115555    0.5472132243028175 H
   0.8813814619938868    0.3869855710800081    0.5972406661668560 H
   0.9867886084435414    0.6481391784513332    0.6791824130690022 H
   1.0181659434928243    0.6996186278065876    0.5841984847476744 H
   1.0254642582454228    0.7266224102096639    0.6364304923170153 H
   0.8934700000000000    0.4299100000000000    0.6377550000000000 O
   0.9199700000000000    0.4667500000000000    0.5732450000000000 O
   0.9692700000000000    0.6044000000000000    0.6580500000000000 O
   0.9908700000000000    0.6402500000000000    0.5947000000000000 O
