H3 C2 N4
1.0
  13.1899996604871319    0.0000000000000000    0.0029927160427188
  -0.0306724669784916   13.9469648362714196    0.0063289476229558
   0.0000000000000000    0.0000000000000000   33.9759999999999991
H C N
3 2 4
direct
   0.9406800000000000    0.3007500000000000    0.6743500000000000 H
   0.0647400000000000    0.2717000000000000    0.8188500000000001 H
   0.0680100000000000    0.1622300000000000    0.7955000000000000 H
   0.0314600000000000    0.2803400000000000    0.7612950000000001 C
   0.9699600000000000    0.3094400000000000    0.7039250000000000 C
   0.9842800000000000    0.3943600000000000    0.7206300000000000 N
   0.0245700000000000    0.3768400000000000    0.7579549999999999 N
   0.9976500000000000    0.2360300000000000    0.7278000000000000 N
   0.0727700000000000    0.2353200000000000    0.7928700000000000 N
