H4 C3 O3
1.0
  15.1329999999999991    0.0000000000000000    0.0000000000000009
   0.0000000000000028   17.6780000000000008    0.0000000000000011
   0.0000000000000000    0.0000000000000000   35.3560000000000016
H C O
4 3 3
direct
   0.7334000000000001    0.9907800000000000    0.5517750000000000 H
   0.7742400000000000    0.0071900000000000    0.6201900000000000 H
   0.6644500000000000    0.9904700000000000    0.6335850000000001 H
   0.7368100000000000    0.9226400000000000    0.6120300000000000 H
   0.6831100000000000    0.0000000000000000    0.5730750000000000 C
   0.5995000000000000    0.9609400000000000    0.5642800000000000 C
   0.7165700000000000    0.9822500000000000    0.6123050000000000 C
   0.6658900000000000    0.0743600000000000    0.5711550000000000 O
   0.5250899999999999   -0.0054900000000000    0.5646850000000000 O
   0.6065500000000000    0.8901700000000000    0.5583150000000000 O
