H8 C12 N1 O2
1.0
  15.1329999999999991    0.0000000000000000    0.0000000000000009
   0.0000000000000028   17.6780000000000008    0.0000000000000011
   0.0000000000000000    0.0000000000000000   35.3560000000000016
H C N O
8 12 1 2
direct
   0.2784100000000000    0.1347900000000000    0.3117750000000000 H
   0.3161500000000000    0.1180500000000000    0.2437400000000000 H
   0.5920100000000000    0.1036600000000000    0.2734800000000000 H
   0.5525900000000000    0.1237300000000000    0.3411900000000000 H
   0.6050500000000000    0.1621100000000000    0.2164500000000000 H
   0.6342000000000000    0.1535100000000000    0.1473100000000000 H
   0.3977000000000000    0.0426100000000000    0.1281450000000000 H
   0.3605000000000000    0.0418500000000000    0.1966900000000000 H
   0.4132900000000000    0.1312000000000000    0.3304850000000000 C
   0.3468700000000000    0.1281000000000000    0.3028950000000000 C
   0.3683300000000000    0.1177600000000000    0.2650050000000000 C
   0.4569500000000000    0.1100000000000000    0.2535500000000000 C
   0.5230700000000000    0.1116400000000000    0.2815300000000000 C
   0.5016200000000000    0.1223100000000000    0.3194350000000000 C
   0.4790300000000000    0.1033300000000000    0.2100000000000000 C
   0.5577700000000000    0.1335100000000000    0.1981500000000000 C
   0.5739900000000000    0.1300000000000000    0.1595300000000000 C
   0.4418100000000000    0.0679900000000000    0.1489000000000000 C
   0.4211000000000000    0.0689900000000000    0.1871400000000000 C
   0.3902900000000000    0.1433900000000000    0.3714750000000000 C
   0.5166100000000000    0.0984800000000000    0.1349850000000000 N
   0.4533700000000000    0.1513300000000000    0.3944250000000000 O
   0.3072800000000000    0.1444700000000000    0.3790850000000000 O
