H5 O3
1.0
  15.1329999999999991    0.0000000000000000    0.0000000000000009
   0.0000000000000028   17.6780000000000008    0.0000000000000011
   0.0000000000000000    0.0000000000000000   35.3560000000000016
H O
5 3
direct
   0.5582586483960013    0.1213584488923311    0.1528007210679653 H
   0.4622617529584072    0.0763265501029657    0.1450953724275904 H
   0.5143545496372741    0.1535505201737320    0.3860512400448404 H
   0.2597243799067096    0.1416559842214199    0.3607437844686884 H
   0.3856829840619443    0.1473247461418642    0.3683195229700335 H
   0.5166100000000000    0.0984800000000000    0.1349850000000000 O
   0.4533700000000000    0.1513300000000000    0.3944250000000000 O
   0.3072800000000000    0.1444700000000000    0.3790850000000000 O
