Ag48 H236 C188 N94 O1
1.0
  31.2716887029934263    0.0000000000000000  -15.4547521009905999
  -1.7044085306903451   11.4622764985619732   -1.0743616853852616
   0.0000000000000000    0.0000000000000000   23.3014000000000010
Ag H C N O
48 236 188 94 1
direct
   0.1271866666666667    0.3559100000000000    0.6466850000000000 Ag
   0.8728233333333333    0.6440900000000001    0.8533250000000000 Ag
   0.0003933333333333    0.5018600000000000    0.7502350000000000 Ag
   0.4020233333333333    0.1430700000000000    0.0594600000000000 Ag
   0.2646533333333333    0.8569300000000000    0.4405550000000000 Ag
   0.3331600000000000    0.9981500000000000    0.2493950000000000 Ag
   0.3133166666666666    0.2479900000000000    0.7801800000000000 Ag
   0.3533600000000000    0.7520100000000000    0.7198300000000000 Ag
   0.4605200000000000    0.3559100000000000    0.6466850000000000 Ag
   0.2061566666666667    0.6440900000000001    0.8533250000000000 Ag
   0.3337266666666667    0.5018600000000000    0.7502350000000000 Ag
   0.7353566666666667    0.1430700000000000    0.0594600000000000 Ag
   0.5979866666666667    0.8569300000000000    0.4405550000000000 Ag
   0.6664933333333334    0.9981500000000000    0.2493950000000000 Ag
   0.6466499999999999    0.2479900000000000    0.7801800000000000 Ag
   0.6866933333333333    0.7520100000000000    0.7198300000000000 Ag
   0.7938533333333333    0.3559100000000000    0.6466850000000000 Ag
   0.5394900000000000    0.6440900000000001    0.8533250000000000 Ag
   0.6670600000000000    0.5018600000000000    0.7502350000000000 Ag
   0.0686900000000000    0.1430700000000000    0.0594600000000000 Ag
   0.9313199999999999    0.8569300000000000    0.4405550000000000 Ag
   0.9998266666666666    0.9981500000000000    0.2493950000000000 Ag
   0.9799833333333332    0.2479900000000000    0.7801800000000000 Ag
   0.0200266666666667    0.7520100000000000    0.7198300000000000 Ag
   0.2646533333333333    0.8569300000000000    0.9405550000000000 Ag
   0.3331600000000000    0.9981500000000000    0.7493950000000000 Ag
   0.3533600000000000    0.7520100000000000    0.2198300000000000 Ag
   0.7938533333333333    0.3559100000000000    0.1466850000000000 Ag
   0.5394900000000000    0.6440900000000001    0.3533250000000000 Ag
   0.6670600000000000    0.5018600000000000    0.2502350000000000 Ag
   0.0686900000000000    0.1430700000000000    0.5594600000000000 Ag
   0.9313199999999999    0.8569300000000000    0.9405550000000000 Ag
   0.9998266666666666    0.9981500000000000    0.7493950000000000 Ag
   0.9799833333333332    0.2479900000000000    0.2801800000000000 Ag
   0.0200266666666667    0.7520100000000000    0.2198300000000000 Ag
   0.1271866666666667    0.3559100000000000    0.1466850000000000 Ag
   0.8728233333333333    0.6440900000000001    0.3533250000000000 Ag
   0.0003933333333333    0.5018600000000000    0.2502350000000000 Ag
   0.4020233333333333    0.1430700000000000    0.5594600000000000 Ag
   0.3133166666666666    0.2479900000000000    0.2801800000000000 Ag
   0.4605200000000000    0.3559100000000000    0.1466850000000000 Ag
   0.2061566666666667    0.6440900000000001    0.3533250000000000 Ag
   0.3337266666666667    0.5018600000000000    0.2502350000000000 Ag
   0.7353566666666667    0.1430700000000000    0.5594600000000000 Ag
   0.5979866666666667    0.8569300000000000    0.9405550000000000 Ag
   0.6664933333333334    0.9981500000000000    0.7493950000000000 Ag
   0.6466499999999999    0.2479900000000000    0.2801800000000000 Ag
   0.6866933333333333    0.7520100000000000    0.2198300000000000 Ag
   0.0815166666666667    0.4105300000000000    0.7988649999999999 H
   0.1258300000000000    0.4319300000000000    0.7809349999999999 H
   0.0941866666666667    0.2915400000000000    0.7595450000000000 H
   0.0343166666666667    0.4454000000000000    0.5495750000000000 H
   0.9768500000000000    0.5027900000000000    0.5966850000000000 H
   0.1812333333333333    0.2658900000000000    0.7620000000000000 H
   0.2294500000000000    0.2010500000000000    0.7931349999999999 H
   0.2322466666666667    0.3552000000000000    0.8074300000000000 H
   0.2677600000000000    0.2862000000000000    0.6216400000000000 H
   0.1841066666666667    0.3386200000000000    0.5636700000000000 H
   0.9192666666666667    0.5931400000000000    0.7016350000000000 H
   0.8748199999999999    0.5697100000000000    0.7191149999999999 H
   0.9060533333333333    0.7108000000000000    0.7410350000000000 H
   0.9660633333333333    0.5555500000000000    0.9505399999999999 H
   0.0238900000000000    0.5004300000000000    0.9037150000000000 H
   0.8187733333333334    0.7341100000000000    0.7380150000000000 H
   0.7705599999999999    0.7989500000000000    0.7068800000000000 H
   0.7677633333333334    0.6448000000000000    0.6925850000000000 H
   0.7322500000000000    0.7138000000000000    0.8783750000000000 H
   0.8159000000000000    0.6613800000000000    0.9363400000000000 H
   0.3251433333333333    0.2333800000000000    0.9779800000000001 H
   0.3044000000000000    0.2967900000000000    0.9053599999999999 H
   0.2948166666666666    0.1428800000000000    0.9019500000000000 H
   0.4191066666666666    0.2085900000000000    0.8488899999999999 H
   0.4575633333333333    0.1572200000000000    0.9743450000000000 H
   0.3004533333333334    0.0893700000000000    0.1279400000000000 H
   0.3122433333333333    0.0669300000000000    0.0614450000000000 H
   0.3265700000000000    0.2077600000000000    0.1084850000000000 H
   0.4669533333333333    0.0544500000000000    0.1981600000000000 H
   0.4356566666666666    0.9972800000000001    0.2843500000000000 H
   0.3658633333333333    0.9069900000000000    0.3708400000000000 H
   0.3543833333333333    0.9313700000000000    0.4375400000000000 H
   0.3397066666666667    0.7898900000000000    0.3910800000000000 H
   0.1996366666666667    0.9446400000000000    0.3013100000000000 H
   0.2307100000000000    0.9995500000000000    0.2145450000000000 H
   0.3415333333333333    0.7666200000000000    0.5220350000000000 H
   0.3622766666666666    0.7032100000000000    0.5946550000000000 H
   0.3718600000000000    0.8571200000000000    0.5980650000000000 H
   0.2475700000000000    0.7914099999999999    0.6511250000000000 H
   0.2091100000000000    0.8427900000000000    0.5256700000000000 H
   0.4148499999999999    0.4105300000000000    0.7988649999999999 H
   0.4591633333333333    0.4319300000000000    0.7809349999999999 H
   0.4275200000000000    0.2915400000000000    0.7595450000000000 H
   0.3676500000000000    0.4454000000000000    0.5495750000000000 H
   0.3101833333333333    0.5027900000000000    0.5966850000000000 H
   0.5145666666666666    0.2658900000000000    0.7620000000000000 H
   0.5627833333333333    0.2010500000000000    0.7931349999999999 H
   0.5655800000000000    0.3552000000000000    0.8074300000000000 H
   0.6010933333333333    0.2862000000000000    0.6216400000000000 H
   0.5174400000000000    0.3386200000000000    0.5636700000000000 H
   0.2526000000000000    0.5931400000000000    0.7016350000000000 H
   0.2081533333333333    0.5697100000000000    0.7191149999999999 H
   0.2393866666666667    0.7108000000000000    0.7410350000000000 H
   0.2993966666666666    0.5555500000000000    0.9505399999999999 H
   0.3572233333333333    0.5004300000000000    0.9037150000000000 H
   0.1521066666666667    0.7341100000000000    0.7380150000000000 H
   0.1038933333333333    0.7989500000000000    0.7068800000000000 H
   0.1010966666666667    0.6448000000000000    0.6925850000000000 H
   0.0655833333333333    0.7138000000000000    0.8783750000000000 H
   0.1492333333333333    0.6613800000000000    0.9363400000000000 H
   0.6584766666666666    0.2333800000000000    0.9779800000000001 H
   0.6377333333333333    0.2967900000000000    0.9053599999999999 H
   0.6281500000000000    0.1428800000000000    0.9019500000000000 H
   0.7524400000000000    0.2085900000000000    0.8488899999999999 H
   0.7908966666666666    0.1572200000000000    0.9743450000000000 H
   0.6337866666666667    0.0893700000000000    0.1279400000000000 H
   0.6455766666666667    0.0669300000000000    0.0614450000000000 H
   0.6599033333333333    0.2077600000000000    0.1084850000000000 H
   0.8002866666666666    0.0544500000000000    0.1981600000000000 H
   0.7689900000000000    0.9972800000000001    0.2843500000000000 H
   0.6991966666666666    0.9069900000000000    0.3708400000000000 H
   0.6877166666666666    0.9313700000000000    0.4375400000000000 H
   0.6730400000000000    0.7898900000000000    0.3910800000000000 H
   0.5329699999999999    0.9446400000000000    0.3013100000000000 H
   0.5640433333333333    0.9995500000000000    0.2145450000000000 H
   0.6748666666666666    0.7666200000000000    0.5220350000000000 H
   0.6956100000000000    0.7032100000000000    0.5946550000000000 H
   0.7051933333333333    0.8571200000000000    0.5980650000000000 H
   0.5809033333333333    0.7914099999999999    0.6511250000000000 H
   0.5424433333333334    0.8427900000000000    0.5256700000000000 H
   0.7481833333333333    0.4105300000000000    0.7988649999999999 H
   0.7924966666666666    0.4319300000000000    0.7809349999999999 H
   0.7608533333333333    0.2915400000000000    0.7595450000000000 H
   0.7009833333333333    0.4454000000000000    0.5495750000000000 H
   0.6435166666666666    0.5027900000000000    0.5966850000000000 H
   0.8478999999999999    0.2658900000000000    0.7620000000000000 H
   0.8961166666666667    0.2010500000000000    0.7931349999999999 H
   0.8989133333333332    0.3552000000000000    0.8074300000000000 H
   0.9344266666666666    0.2862000000000000    0.6216400000000000 H
   0.8507733333333333    0.3386200000000000    0.5636700000000000 H
   0.5859333333333333    0.5931400000000000    0.7016350000000000 H
   0.5414866666666667    0.5697100000000000    0.7191149999999999 H
   0.5727200000000000    0.7108000000000000    0.7410350000000000 H
   0.6327300000000000    0.5555500000000000    0.9505399999999999 H
   0.6905566666666666    0.5004300000000000    0.9037150000000000 H
   0.4854400000000000    0.7341100000000000    0.7380150000000000 H
   0.4372266666666667    0.7989500000000000    0.7068800000000000 H
   0.4344300000000000    0.6448000000000000    0.6925850000000000 H
   0.3989166666666666    0.7138000000000000    0.8783750000000000 H
   0.4825666666666666    0.6613800000000000    0.9363400000000000 H
   0.9918100000000000    0.2333800000000000    0.9779800000000001 H
   0.9710666666666666    0.2967900000000000    0.9053599999999999 H
   0.9614833333333332    0.1428800000000000    0.9019500000000000 H
   0.0857733333333333    0.2085900000000000    0.8488899999999999 H
   0.1242300000000000    0.1572200000000000    0.9743450000000000 H
   0.9671200000000000    0.0893700000000000    0.1279400000000000 H
   0.9789099999999999    0.0669300000000000    0.0614450000000000 H
   0.9932366666666665    0.2077600000000000    0.1084850000000000 H
   0.1336200000000000    0.0544500000000000    0.1981600000000000 H
   0.1023233333333333    0.9972800000000001    0.2843500000000000 H
   0.0325300000000000    0.9069900000000000    0.3708400000000000 H
   0.0210500000000000    0.9313700000000000    0.4375400000000000 H
   0.0063733333333333    0.7898900000000000    0.3910800000000000 H
   0.8663033333333333    0.9446400000000000    0.3013100000000000 H
   0.8973766666666666    0.9995500000000000    0.2145450000000000 H
   0.0082000000000000    0.7666200000000000    0.5220350000000000 H
   0.0289433333333333    0.7032100000000000    0.5946550000000000 H
   0.0385266666666667    0.8571200000000000    0.5980650000000000 H
   0.9142366666666666    0.7914099999999999    0.6511250000000000 H
   0.8757766666666666    0.8427900000000000    0.5256700000000000 H
   0.3697625680324932    0.0723246996177275    0.6708172275256273 H
   0.3658633333333333    0.9069900000000000    0.8708400000000001 H
   0.3543833333333333    0.9313700000000000    0.9375400000000000 H
   0.3397066666666667    0.7898900000000000    0.8910800000000000 H
   0.1996366666666667    0.9446400000000000    0.8013100000000000 H
   0.2307100000000000    0.9995500000000000    0.7145450000000000 H
   0.3415333333333333    0.7666200000000000    0.0220350000000000 H
   0.3622766666666666    0.7032100000000000    0.0946550000000000 H
   0.3718600000000000    0.8571200000000000    0.0980650000000000 H
   0.2475700000000000    0.7914099999999999    0.1511250000000000 H
   0.2091100000000000    0.8427900000000000    0.0256700000000000 H
   0.7481833333333333    0.4105300000000000    0.2988650000000000 H
   0.7924966666666666    0.4319300000000000    0.2809350000000000 H
   0.7608533333333333    0.2915400000000000    0.2595450000000000 H
   0.7009833333333333    0.4454000000000000    0.0495750000000000 H
   0.6435166666666666    0.5027900000000000    0.0966850000000000 H
   0.8478999999999999    0.2658900000000000    0.2620000000000000 H
   0.8961166666666667    0.2010500000000000    0.2931350000000000 H
   0.8989133333333332    0.3552000000000000    0.3074300000000000 H
   0.9344266666666666    0.2862000000000000    0.1216400000000000 H
   0.8507733333333333    0.3386200000000000    0.0636700000000000 H
   0.5859333333333333    0.5931400000000000    0.2016350000000000 H
   0.5414866666666667    0.5697100000000000    0.2191150000000000 H
   0.5727200000000000    0.7108000000000000    0.2410350000000000 H
   0.6327300000000000    0.5555500000000000    0.4505400000000000 H
   0.6905566666666666    0.5004300000000000    0.4037150000000000 H
   0.4854400000000000    0.7341100000000000    0.2380150000000000 H
   0.4372266666666667    0.7989500000000000    0.2068800000000000 H
   0.4344300000000000    0.6448000000000000    0.1925850000000000 H
   0.3989166666666666    0.7138000000000000    0.3783750000000000 H
   0.4825666666666666    0.6613800000000000    0.4363400000000000 H
   0.9918100000000000    0.2333800000000000    0.4779800000000000 H
   0.9710666666666666    0.2967900000000000    0.4053600000000000 H
   0.9614833333333332    0.1428800000000000    0.4019500000000000 H
   0.0857733333333333    0.2085900000000000    0.3488900000000000 H
   0.1242300000000000    0.1572200000000000    0.4743450000000000 H
   0.9671200000000000    0.0893700000000000    0.6279399999999999 H
   0.9789099999999999    0.0669300000000000    0.5614450000000000 H
   0.9932366666666665    0.2077600000000000    0.6084849999999999 H
   0.1336200000000000    0.0544500000000000    0.6981600000000000 H
   0.1023233333333333    0.9972800000000001    0.7843500000000000 H
   0.0325300000000000    0.9069900000000000    0.8708400000000001 H
   0.0210500000000000    0.9313700000000000    0.9375400000000000 H
   0.0063733333333333    0.7898900000000000    0.8910800000000000 H
   0.8663033333333333    0.9446400000000000    0.8013100000000000 H
   0.8973766666666666    0.9995500000000000    0.7145450000000000 H
   0.0082000000000000    0.7666200000000000    0.0220350000000000 H
   0.0289433333333333    0.7032100000000000    0.0946550000000000 H
   0.0385266666666667    0.8571200000000000    0.0980650000000000 H
   0.9142366666666666    0.7914099999999999    0.1511250000000000 H
   0.8757766666666666    0.8427900000000000    0.0256700000000000 H
   0.0815166666666667    0.4105300000000000    0.2988650000000000 H
   0.1258300000000000    0.4319300000000000    0.2809350000000000 H
   0.0941866666666667    0.2915400000000000    0.2595450000000000 H
   0.0343166666666667    0.4454000000000000    0.0495750000000000 H
   0.9768500000000000    0.5027900000000000    0.0966850000000000 H
   0.1812333333333333    0.2658900000000000    0.2620000000000000 H
   0.2294500000000000    0.2010500000000000    0.2931350000000000 H
   0.2322466666666667    0.3552000000000000    0.3074300000000000 H
   0.2677600000000000    0.2862000000000000    0.1216400000000000 H
   0.1841066666666667    0.3386200000000000    0.0636700000000000 H
   0.9192666666666667    0.5931400000000000    0.2016350000000000 H
   0.8748199999999999    0.5697100000000000    0.2191150000000000 H
   0.9060533333333333    0.7108000000000000    0.2410350000000000 H
   0.9660633333333333    0.5555500000000000    0.4505400000000000 H
   0.0238900000000000    0.5004300000000000    0.4037150000000000 H
   0.8187733333333334    0.7341100000000000    0.2380150000000000 H
   0.7705599999999999    0.7989500000000000    0.2068800000000000 H
   0.7677633333333334    0.6448000000000000    0.1925850000000000 H
   0.7322500000000000    0.7138000000000000    0.3783750000000000 H
   0.8159000000000000    0.6613800000000000    0.4363400000000000 H
   0.3251433333333333    0.2333800000000000    0.4779800000000000 H
   0.3044000000000000    0.2967900000000000    0.4053600000000000 H
   0.2948166666666666    0.1428800000000000    0.4019500000000000 H
   0.4191066666666666    0.2085900000000000    0.3488900000000000 H
   0.4575633333333333    0.1572200000000000    0.4743450000000000 H
   0.4148499999999999    0.4105300000000000    0.2988650000000000 H
   0.4591633333333333    0.4319300000000000    0.2809350000000000 H
   0.4275200000000000    0.2915400000000000    0.2595450000000000 H
   0.3676500000000000    0.4454000000000000    0.0495750000000000 H
   0.3101833333333333    0.5027900000000000    0.0966850000000000 H
   0.5145666666666666    0.2658900000000000    0.2620000000000000 H
   0.5627833333333333    0.2010500000000000    0.2931350000000000 H
   0.5655800000000000    0.3552000000000000    0.3074300000000000 H
   0.6010933333333333    0.2862000000000000    0.1216400000000000 H
   0.5174400000000000    0.3386200000000000    0.0636700000000000 H
   0.2526000000000000    0.5931400000000000    0.2016350000000000 H
   0.2081533333333333    0.5697100000000000    0.2191150000000000 H
   0.2393866666666667    0.7108000000000000    0.2410350000000000 H
   0.2993966666666666    0.5555500000000000    0.4505400000000000 H
   0.3572233333333333    0.5004300000000000    0.4037150000000000 H
   0.1521066666666667    0.7341100000000000    0.2380150000000000 H
   0.1038933333333333    0.7989500000000000    0.2068800000000000 H
   0.1010966666666667    0.6448000000000000    0.1925850000000000 H
   0.0655833333333333    0.7138000000000000    0.3783750000000000 H
   0.1492333333333333    0.6613800000000000    0.4363400000000000 H
   0.6584766666666666    0.2333800000000000    0.4779800000000000 H
   0.6377333333333333    0.2967900000000000    0.4053600000000000 H
   0.6281500000000000    0.1428800000000000    0.4019500000000000 H
   0.7524400000000000    0.2085900000000000    0.3488900000000000 H
   0.7908966666666666    0.1572200000000000    0.4743450000000000 H
   0.6337866666666667    0.0893700000000000    0.6279399999999999 H
   0.6455766666666667    0.0669300000000000    0.5614450000000000 H
   0.6599033333333333    0.2077600000000000    0.6084849999999999 H
   0.8002866666666666    0.0544500000000000    0.6981600000000000 H
   0.7689900000000000    0.9972800000000001    0.7843500000000000 H
   0.6991966666666666    0.9069900000000000    0.8708400000000001 H
   0.6877166666666666    0.9313700000000000    0.9375400000000000 H
   0.6730400000000000    0.7898900000000000    0.8910800000000000 H
   0.5329699999999999    0.9446400000000000    0.8013100000000000 H
   0.5640433333333333    0.9995500000000000    0.7145450000000000 H
   0.6748666666666666    0.7666200000000000    0.0220350000000000 H
   0.6956100000000000    0.7032100000000000    0.0946550000000000 H
   0.7051933333333333    0.8571200000000000    0.0980650000000000 H
   0.5809033333333333    0.7914099999999999    0.1511250000000000 H
   0.5424433333333334    0.8427900000000000    0.0256700000000000 H
   0.0928000000000000    0.3859200000000000    0.7629699999999999 C
   0.0633933333333333    0.4170300000000000    0.6990850000000000 C
   0.0362100000000000    0.4434700000000000    0.5971850000000000 C
   0.0076266666666667    0.4712000000000000    0.6203650000000001 C
   0.2152433333333333    0.2764300000000000    0.7715500000000000 C
   0.2184766666666667    0.2856600000000000    0.7104950000000000 C
   0.2445533333333333    0.2917900000000000    0.6405350000000000 C
   0.2031400000000000    0.3181800000000000    0.6118600000000000 C
   0.9077566666666665    0.6165800000000000    0.7373950000000000 C
   0.9371699999999999    0.5853300000000000    0.8012450000000000 C
   0.9642599999999999    0.5581100000000000    0.9030199999999999 C
   0.9930233333333333    0.5315299999999999    0.8799900000000000 C
   0.7847666666666666    0.7235700000000000    0.7284650000000000 C
   0.7815333333333333    0.7143400000000000    0.7895200000000000 C
   0.7554566666666667    0.7082100000000000    0.8594800000000000 C
   0.7968700000000000    0.6818200000000000    0.8881550000000000 C
   0.3187900000000000    0.2217100000000000    0.9270700000000001 C
   0.3595800000000000    0.2114800000000000    0.9223800000000000 C
   0.4064000000000000    0.2037400000000000    0.8835649999999999 C
   0.4254366666666666    0.1779400000000000    0.9456800000000001 C
   0.3243333333333333    0.1134900000000000    0.1108300000000000 C
   0.3670666666666667    0.0826300000000000    0.1548250000000000 C
   0.4351633333333333    0.0563400000000000    0.1954000000000000 C
   0.4197700000000000    0.0287300000000000    0.2382700000000000 C
   0.3420800000000000    0.8839900000000001    0.3882900000000000 C
   0.2993666666666667    0.9150199999999999    0.3443100000000000 C
   0.2313566666666667    0.9421000000000000    0.3039100000000000 C
   0.2466400000000000    0.9685800000000000    0.2607550000000000 C
   0.3478866666666666    0.7783000000000000    0.5729450000000000 C
   0.3070966666666667    0.7885200000000000    0.5776350000000000 C
   0.2602766666666667    0.7962600000000000    0.6164499999999999 C
   0.2412400000000000    0.8220700000000000    0.5543350000000000 C
   0.4261333333333333    0.3859200000000000    0.7629699999999999 C
   0.3967266666666667    0.4170300000000000    0.6990850000000000 C
   0.3695433333333333    0.4434700000000000    0.5971850000000000 C
   0.3409600000000000    0.4712000000000000    0.6203650000000001 C
   0.5485766666666667    0.2764300000000000    0.7715500000000000 C
   0.5518099999999999    0.2856600000000000    0.7104950000000000 C
   0.5778866666666667    0.2917900000000000    0.6405350000000000 C
   0.5364733333333334    0.3181800000000000    0.6118600000000000 C
   0.2410900000000000    0.6165800000000000    0.7373950000000000 C
   0.2705033333333333    0.5853300000000000    0.8012450000000000 C
   0.2975933333333333    0.5581100000000000    0.9030199999999999 C
   0.3263566666666666    0.5315299999999999    0.8799900000000000 C
   0.1181000000000000    0.7235700000000000    0.7284650000000000 C
   0.1148666666666667    0.7143400000000000    0.7895200000000000 C
   0.0887900000000000    0.7082100000000000    0.8594800000000000 C
   0.1302033333333333    0.6818200000000000    0.8881550000000000 C
   0.6521233333333334    0.2217100000000000    0.9270700000000001 C
   0.6929133333333333    0.2114800000000000    0.9223800000000000 C
   0.7397333333333334    0.2037400000000000    0.8835649999999999 C
   0.7587699999999999    0.1779400000000000    0.9456800000000001 C
   0.6576666666666666    0.1134900000000000    0.1108300000000000 C
   0.7003999999999999    0.0826300000000000    0.1548250000000000 C
   0.7684966666666666    0.0563400000000000    0.1954000000000000 C
   0.7531033333333332    0.0287300000000000    0.2382700000000000 C
   0.6754133333333333    0.8839900000000001    0.3882900000000000 C
   0.6327000000000000    0.9150199999999999    0.3443100000000000 C
   0.5646899999999999    0.9421000000000000    0.3039100000000000 C
   0.5799733333333333    0.9685800000000000    0.2607550000000000 C
   0.6812199999999999    0.7783000000000000    0.5729450000000000 C
   0.6404300000000001    0.7885200000000000    0.5776350000000000 C
   0.5936100000000000    0.7962600000000000    0.6164499999999999 C
   0.5745733333333334    0.8220700000000000    0.5543350000000000 C
   0.7594666666666666    0.3859200000000000    0.7629699999999999 C
   0.7300599999999999    0.4170300000000000    0.6990850000000000 C
   0.7028766666666666    0.4434700000000000    0.5971850000000000 C
   0.6742933333333333    0.4712000000000000    0.6203650000000001 C
   0.8819100000000000    0.2764300000000000    0.7715500000000000 C
   0.8851433333333333    0.2856600000000000    0.7104950000000000 C
   0.9112199999999999    0.2917900000000000    0.6405350000000000 C
   0.8698066666666666    0.3181800000000000    0.6118600000000000 C
   0.5744233333333333    0.6165800000000000    0.7373950000000000 C
   0.6038366666666666    0.5853300000000000    0.8012450000000000 C
   0.6309266666666666    0.5581100000000000    0.9030199999999999 C
   0.6596899999999999    0.5315299999999999    0.8799900000000000 C
   0.4514333333333333    0.7235700000000000    0.7284650000000000 C
   0.4482000000000000    0.7143400000000000    0.7895200000000000 C
   0.4221233333333333    0.7082100000000000    0.8594800000000000 C
   0.4635366666666667    0.6818200000000000    0.8881550000000000 C
   0.9854566666666666    0.2217100000000000    0.9270700000000001 C
   0.0262466666666667    0.2114800000000000    0.9223800000000000 C
   0.0730666666666667    0.2037400000000000    0.8835649999999999 C
   0.0921033333333333    0.1779400000000000    0.9456800000000001 C
   0.9909999999999999    0.1134900000000000    0.1108300000000000 C
   0.0337333333333333    0.0826300000000000    0.1548250000000000 C
   0.1018300000000000    0.0563400000000000    0.1954000000000000 C
   0.0864366666666667    0.0287300000000000    0.2382700000000000 C
   0.0087466666666667    0.8839900000000001    0.3882900000000000 C
   0.9660333333333333    0.9150199999999999    0.3443100000000000 C
   0.8980233333333333    0.9421000000000000    0.3039100000000000 C
   0.9133066666666666    0.9685800000000000    0.2607550000000000 C
   0.0145533333333333    0.7783000000000000    0.5729450000000000 C
   0.9737633333333333    0.7885200000000000    0.5776350000000000 C
   0.9269433333333332    0.7962600000000000    0.6164499999999999 C
   0.9079066666666666    0.8220700000000000    0.5543350000000000 C
   0.3420800000000000    0.8839900000000001    0.8882900000000000 C
   0.2993666666666667    0.9150199999999999    0.8443100000000000 C
   0.2313566666666667    0.9421000000000000    0.8039100000000000 C
   0.2466400000000000    0.9685800000000000    0.7607550000000001 C
   0.3478866666666666    0.7783000000000000    0.0729450000000000 C
   0.3070966666666667    0.7885200000000000    0.0776350000000000 C
   0.2602766666666667    0.7962600000000000    0.1164500000000000 C
   0.2412400000000000    0.8220700000000000    0.0543350000000000 C
   0.7594666666666666    0.3859200000000000    0.2629700000000000 C
   0.7300599999999999    0.4170300000000000    0.1990850000000000 C
   0.7028766666666666    0.4434700000000000    0.0971850000000000 C
   0.6742933333333333    0.4712000000000000    0.1203650000000000 C
   0.8819100000000000    0.2764300000000000    0.2715500000000000 C
   0.8851433333333333    0.2856600000000000    0.2104950000000000 C
   0.9112199999999999    0.2917900000000000    0.1405350000000000 C
   0.8698066666666666    0.3181800000000000    0.1118600000000000 C
   0.5744233333333333    0.6165800000000000    0.2373950000000000 C
   0.6038366666666666    0.5853300000000000    0.3012450000000000 C
   0.6309266666666666    0.5581100000000000    0.4030200000000000 C
   0.6596899999999999    0.5315299999999999    0.3799900000000000 C
   0.4514333333333333    0.7235700000000000    0.2284650000000000 C
   0.4482000000000000    0.7143400000000000    0.2895200000000000 C
   0.4221233333333333    0.7082100000000000    0.3594800000000000 C
   0.4635366666666667    0.6818200000000000    0.3881550000000000 C
   0.9854566666666666    0.2217100000000000    0.4270700000000000 C
   0.0262466666666667    0.2114800000000000    0.4223800000000000 C
   0.0730666666666667    0.2037400000000000    0.3835650000000000 C
   0.0921033333333333    0.1779400000000000    0.4456800000000000 C
   0.9909999999999999    0.1134900000000000    0.6108300000000000 C
   0.0337333333333333    0.0826300000000000    0.6548250000000000 C
   0.1018300000000000    0.0563400000000000    0.6954000000000000 C
   0.0864366666666667    0.0287300000000000    0.7382700000000000 C
   0.0087466666666667    0.8839900000000001    0.8882900000000000 C
   0.9660333333333333    0.9150199999999999    0.8443100000000000 C
   0.8980233333333333    0.9421000000000000    0.8039100000000000 C
   0.9133066666666666    0.9685800000000000    0.7607550000000001 C
   0.0145533333333333    0.7783000000000000    0.0729450000000000 C
   0.9737633333333333    0.7885200000000000    0.0776350000000000 C
   0.9269433333333332    0.7962600000000000    0.1164500000000000 C
   0.9079066666666666    0.8220700000000000    0.0543350000000000 C
   0.0928000000000000    0.3859200000000000    0.2629700000000000 C
   0.0633933333333333    0.4170300000000000    0.1990850000000000 C
   0.0362100000000000    0.4434700000000000    0.0971850000000000 C
   0.0076266666666667    0.4712000000000000    0.1203650000000000 C
   0.2152433333333333    0.2764300000000000    0.2715500000000000 C
   0.2184766666666667    0.2856600000000000    0.2104950000000000 C
   0.2445533333333333    0.2917900000000000    0.1405350000000000 C
   0.2031400000000000    0.3181800000000000    0.1118600000000000 C
   0.9077566666666665    0.6165800000000000    0.2373950000000000 C
   0.9371699999999999    0.5853300000000000    0.3012450000000000 C
   0.9642599999999999    0.5581100000000000    0.4030200000000000 C
   0.9930233333333333    0.5315299999999999    0.3799900000000000 C
   0.7847666666666666    0.7235700000000000    0.2284650000000000 C
   0.7815333333333333    0.7143400000000000    0.2895200000000000 C
   0.7554566666666667    0.7082100000000000    0.3594800000000000 C
   0.7968700000000000    0.6818200000000000    0.3881550000000000 C