Zn100 H898 C947 N100 O396
1.0
  33.8224979394154843    0.0000000000000000   -0.0118062794853529
  -3.5664155929952628   33.6484670410572022   -0.1942983657352915
   0.0000000000000000    0.0000000000000000   27.8730000000000011
Zn H C N O
100 898 947 100 396
direct
   0.1930920000000000    0.0634300000000000    0.7083900000000000 Zn
   0.0930880000000000    0.1634700000000000    0.7915500000000000 Zn
   0.1634520000000000    0.0928860000000000    0.2084700000000000 Zn
   0.0634600000000000    0.1931840000000000    0.2915700000000000 Zn
   0.3930920000000000    0.0634300000000000    0.7083900000000000 Zn
   0.2930880000000000    0.1634700000000000    0.7915500000000000 Zn
   0.3634520000000000    0.0928860000000000    0.2084700000000000 Zn
   0.2634600000000000    0.1931840000000000    0.2915700000000000 Zn
   0.5930920000000001    0.0634300000000000    0.7083900000000000 Zn
   0.4930880000000000    0.1634700000000000    0.7915500000000000 Zn
   0.5634520000000001    0.0928860000000000    0.2084700000000000 Zn
   0.4634600000000000    0.1931840000000000    0.2915700000000000 Zn
   0.7930920000000001    0.0634300000000000    0.7083900000000000 Zn
   0.6930880000000001    0.1634700000000000    0.7915500000000000 Zn
   0.7634520000000001    0.0928860000000000    0.2084700000000000 Zn
   0.6634600000000000    0.1931840000000000    0.2915700000000000 Zn
   0.9930920000000001    0.0634300000000000    0.7083900000000000 Zn
   0.8930880000000001    0.1634700000000000    0.7915500000000000 Zn
   0.9634520000000001    0.0928860000000000    0.2084700000000000 Zn
   0.8634600000000000    0.1931840000000000    0.2915700000000000 Zn
   0.1930920000000000    0.2634300000000000    0.7083900000000000 Zn
   0.0930880000000000    0.3634700000000000    0.7915500000000000 Zn
   0.1634520000000000    0.2928860000000000    0.2084700000000000 Zn
   0.0634600000000000    0.3931840000000000    0.2915700000000000 Zn
   0.3930920000000000    0.2634300000000000    0.7083900000000000 Zn
   0.2930880000000000    0.3634700000000000    0.7915500000000000 Zn
   0.3634520000000000    0.2928860000000000    0.2084700000000000 Zn
   0.2634600000000000    0.3931840000000000    0.2915700000000000 Zn
   0.5930920000000001    0.2634300000000000    0.7083900000000000 Zn
   0.4930880000000000    0.3634700000000000    0.7915500000000000 Zn
   0.5634520000000001    0.2928860000000000    0.2084700000000000 Zn
   0.4634600000000000    0.3931840000000000    0.2915700000000000 Zn
   0.7930920000000001    0.2634300000000000    0.7083900000000000 Zn
   0.6930880000000001    0.3634700000000000    0.7915500000000000 Zn
   0.7634520000000001    0.2928860000000000    0.2084700000000000 Zn
   0.6634600000000000    0.3931840000000000    0.2915700000000000 Zn
   0.9930920000000001    0.2634300000000000    0.7083900000000000 Zn
   0.8930880000000001    0.3634700000000000    0.7915500000000000 Zn
   0.9634520000000001    0.2928860000000000    0.2084700000000000 Zn
   0.8634600000000000    0.3931840000000000    0.2915700000000000 Zn
   0.1930920000000000    0.4634300000000000    0.7083900000000000 Zn
   0.0930880000000000    0.5634700000000000    0.7915500000000000 Zn
   0.1634520000000000    0.4928860000000000    0.2084700000000000 Zn
   0.0634600000000000    0.5931840000000000    0.2915700000000000 Zn
   0.3930920000000000    0.4634300000000000    0.7083900000000000 Zn
   0.2930880000000000    0.5634700000000000    0.7915500000000000 Zn
   0.3634520000000000    0.4928860000000000    0.2084700000000000 Zn
   0.2634600000000000    0.5931840000000000    0.2915700000000000 Zn
   0.5930920000000001    0.4634300000000000    0.7083900000000000 Zn
   0.4930880000000000    0.5634700000000000    0.7915500000000000 Zn
   0.5634520000000001    0.4928860000000000    0.2084700000000000 Zn
   0.4634600000000000    0.5931840000000000    0.2915700000000000 Zn
   0.7930920000000001    0.4634300000000000    0.7083900000000000 Zn
   0.6930880000000001    0.5634700000000000    0.7915500000000000 Zn
   0.7634520000000001    0.4928860000000000    0.2084700000000000 Zn
   0.6634600000000000    0.5931840000000000    0.2915700000000000 Zn
   0.9930920000000001    0.4634300000000000    0.7083900000000000 Zn
   0.8930880000000001    0.5634700000000000    0.7915500000000000 Zn
   0.9634520000000001    0.4928860000000000    0.2084700000000000 Zn
   0.8634600000000000    0.5931840000000000    0.2915700000000000 Zn
   0.1930920000000000    0.6634300000000001    0.7083900000000000 Zn
   0.0930880000000000    0.7634700000000001    0.7915500000000000 Zn
   0.1634520000000000    0.6928860000000001    0.2084700000000000 Zn
   0.0634600000000000    0.7931840000000001    0.2915700000000000 Zn
   0.3930920000000000    0.6634300000000001    0.7083900000000000 Zn
   0.2930880000000000    0.7634700000000001    0.7915500000000000 Zn
   0.3634520000000000    0.6928860000000001    0.2084700000000000 Zn
   0.2634600000000000    0.7931840000000001    0.2915700000000000 Zn
   0.5930920000000001    0.6634300000000001    0.7083900000000000 Zn
   0.4930880000000000    0.7634700000000001    0.7915500000000000 Zn
   0.5634520000000001    0.6928860000000001    0.2084700000000000 Zn
   0.4634600000000000    0.7931840000000001    0.2915700000000000 Zn
   0.7930920000000001    0.6634300000000001    0.7083900000000000 Zn
   0.6930880000000001    0.7634700000000001    0.7915500000000000 Zn
   0.7634520000000001    0.6928860000000001    0.2084700000000000 Zn
   0.6634600000000000    0.7931840000000001    0.2915700000000000 Zn
   0.9930920000000001    0.6634300000000001    0.7083900000000000 Zn
   0.8930880000000001    0.7634700000000001    0.7915500000000000 Zn
   0.9634520000000001    0.6928860000000001    0.2084700000000000 Zn
   0.8634600000000000    0.7931840000000001    0.2915700000000000 Zn
   0.1930920000000000    0.8634300000000000    0.7083900000000000 Zn
   0.0930880000000000    0.9634700000000000    0.7915500000000000 Zn
   0.1634520000000000    0.8928860000000001    0.2084700000000000 Zn
   0.0634600000000000    0.9931840000000001    0.2915700000000000 Zn
   0.3930920000000000    0.8634300000000000    0.7083900000000000 Zn
   0.2930880000000000    0.9634700000000000    0.7915500000000000 Zn
   0.3634520000000000    0.8928860000000001    0.2084700000000000 Zn
   0.2634600000000000    0.9931840000000001    0.2915700000000000 Zn
   0.5930920000000001    0.8634300000000000    0.7083900000000000 Zn
   0.4930880000000000    0.9634700000000000    0.7915500000000000 Zn
   0.5634520000000001    0.8928860000000001    0.2084700000000000 Zn
   0.4634600000000000    0.9931840000000001    0.2915700000000000 Zn
   0.7930920000000001    0.8634300000000000    0.7083900000000000 Zn
   0.6930880000000001    0.9634700000000000    0.7915500000000000 Zn
   0.7634520000000001    0.8928860000000001    0.2084700000000000 Zn
   0.6634600000000000    0.9931840000000001    0.2915700000000000 Zn
   0.9930920000000001    0.8634300000000000    0.7083900000000000 Zn
   0.8930880000000001    0.9634700000000000    0.7915500000000000 Zn
   0.9634520000000001    0.8928860000000001    0.2084700000000000 Zn
   0.8634600000000000    0.9931840000000001    0.2915700000000000 Zn
   0.0723700000000000    0.1648460000000000    0.1454500000000000 H
   0.0732200000000000    0.0035880000000000    0.1902300000000000 H
   0.0842420000000000    0.0666320000000000    0.3837100000000000 H
   0.0932640000000000    0.1178320000000000    0.3198400000000000 H
   0.0124380000000000    0.1854500000000000    0.3826400000000000 H
   0.0004420000000000    0.1376200000000000    0.4511000000000000 H
   0.0082740000000000    0.0706540000000000    0.4825300000000000 H
   0.0338260000000000    0.0380120000000000    0.4469200000000000 H
   0.0715680000000000    0.0995540000000000    0.5194000000000000 H
   0.1653780000000000    0.0726020000000000    0.8545000000000000 H
   0.0039300000000000    0.0732340000000000    0.8097800000000001 H
   0.0658560000000000    0.0836840000000000    0.6163100000000000 H
   0.1171100000000000    0.0925220000000000    0.6805800000000000 H
   0.1852220000000000    0.0126520000000000    0.6166100000000000 H
   0.1373140000000000    0.0008560000000000    0.5477400000000000 H
   0.0700800000000000    0.0085140000000000    0.5161900000000000 H
   0.0374480000000000    0.0340680000000000    0.5517700000000000 H
   0.0993320000000000    0.0718240000000000    0.4804400000000000 H
   0.0653620000000000    0.1722140000000000    0.6454200000000000 H
   0.1039220000000000    0.1730780000000000    0.6902199999999999 H
   0.1659500000000000    0.1841640000000000    0.8838900000000000 H
   0.0176460000000000    0.1935740000000000    0.8203200000000000 H
   0.0846900000000000    0.1121880000000000    0.8819800000000000 H
   0.0363360000000000    0.0997580000000000    0.9500900000000000 H
   0.1691580000000000    0.1074360000000000    0.9814500000000000 H
   0.1367900000000000    0.1334760000000000    0.9464000000000000 H
   0.1985080000000000    0.1705020000000000    0.0190300000000000 H
   0.1724920000000000    0.0657760000000000    0.3546300000000000 H
   0.1731380000000000    0.1041260000000000    0.3099000000000000 H
   0.1834000000000000    0.1651620000000000    0.1162100000000000 H
   0.1927920000000000    0.0168620000000000    0.1801800000000000 H
   0.1121740000000000    0.0843640000000000    0.1176200000000000 H
   0.0997720000000000    0.0359820000000000    0.0491000000000000 H
   0.1073700000000000    0.1686820000000000    0.0173800000000000 H
   0.1334560000000000    0.1363120000000000    0.0523400000000000 H
   0.1704940000000000    0.1984940000000000    0.9810100000000000 H
   0.2723700000000000    0.1648460000000000    0.1454500000000000 H
   0.2732200000000000    0.0035880000000000    0.1902300000000000 H
   0.2842420000000000    0.0666320000000000    0.3837100000000000 H
   0.2932640000000000    0.1178320000000000    0.3198400000000000 H
   0.2124380000000000    0.1854500000000000    0.3826400000000000 H
   0.2004420000000000    0.1376200000000000    0.4511000000000000 H
   0.2082740000000000    0.0706540000000000    0.4825300000000000 H
   0.2338260000000000    0.0380120000000000    0.4469200000000000 H
   0.2715680000000000    0.0995540000000000    0.5194000000000000 H
   0.3653780000000000    0.0726020000000000    0.8545000000000000 H
   0.2039300000000000    0.0732340000000000    0.8097800000000001 H
   0.2658560000000000    0.0836840000000000    0.6163100000000000 H
   0.3171100000000000    0.0925220000000000    0.6805800000000000 H
   0.3852220000000000    0.0126520000000000    0.6166100000000000 H
   0.3373140000000000    0.0008560000000000    0.5477400000000000 H
   0.2700800000000000    0.0085140000000000    0.5161900000000000 H
   0.2374480000000000    0.0340680000000000    0.5517700000000000 H
   0.2993320000000000    0.0718240000000000    0.4804400000000000 H
   0.2653620000000000    0.1722140000000000    0.6454200000000000 H
   0.3039220000000000    0.1730780000000000    0.6902199999999999 H
   0.3659500000000000    0.1841640000000000    0.8838900000000000 H
   0.2176460000000000    0.1935740000000000    0.8203200000000000 H
   0.2846900000000000    0.1121880000000000    0.8819800000000000 H
   0.2363360000000000    0.0997580000000000    0.9500900000000000 H
   0.3691580000000000    0.1074360000000000    0.9814500000000000 H
   0.3367900000000000    0.1334760000000000    0.9464000000000000 H
   0.3985080000000000    0.1705020000000000    0.0190300000000000 H
   0.3724920000000000    0.0657760000000000    0.3546300000000000 H
   0.3731380000000000    0.1041260000000000    0.3099000000000000 H
   0.3834000000000000    0.1651620000000000    0.1162100000000000 H
   0.3927920000000000    0.0168620000000000    0.1801800000000000 H
   0.3121740000000000    0.0843640000000000    0.1176200000000000 H
   0.2997720000000000    0.0359820000000000    0.0491000000000000 H
   0.3073700000000000    0.1686820000000000    0.0173800000000000 H
   0.3334560000000000    0.1363120000000000    0.0523400000000000 H
   0.3704940000000000    0.1984940000000000    0.9810100000000000 H
   0.4723700000000000    0.1648460000000000    0.1454500000000000 H
   0.4732200000000000    0.0035880000000000    0.1902300000000000 H
   0.4842420000000000    0.0666320000000000    0.3837100000000000 H
   0.4932640000000000    0.1178320000000000    0.3198400000000000 H
   0.4124380000000000    0.1854500000000000    0.3826400000000000 H
   0.4004420000000000    0.1376200000000000    0.4511000000000000 H
   0.4082740000000000    0.0706540000000000    0.4825300000000000 H
   0.4338260000000000    0.0380120000000000    0.4469200000000000 H
   0.4715680000000000    0.0995540000000000    0.5194000000000000 H
   0.5653780000000000    0.0726020000000000    0.8545000000000000 H
   0.4039300000000000    0.0732340000000000    0.8097800000000001 H
   0.4658560000000000    0.0836840000000000    0.6163100000000000 H
   0.5171100000000001    0.0925220000000000    0.6805800000000000 H
   0.5852220000000000    0.0126520000000000    0.6166100000000000 H
   0.5373140000000001    0.0008560000000000    0.5477400000000000 H
   0.4700800000000001    0.0085140000000000    0.5161900000000000 H
   0.4374480000000000    0.0340680000000000    0.5517700000000000 H
   0.4993320000000000    0.0718240000000000    0.4804400000000000 H
   0.4653620000000001    0.1722140000000000    0.6454200000000000 H
   0.5039220000000000    0.1730780000000000    0.6902199999999999 H
   0.5659500000000001    0.1841640000000000    0.8838900000000000 H
   0.4176460000000000    0.1935740000000000    0.8203200000000000 H
   0.4846900000000000    0.1121880000000000    0.8819800000000000 H
   0.4363360000000000    0.0997580000000000    0.9500900000000000 H
   0.5691580000000001    0.1074360000000000    0.9814500000000000 H
   0.5367900000000000    0.1334760000000000    0.9464000000000000 H
   0.5985080000000000    0.1705020000000000    0.0190300000000000 H
   0.5724920000000000    0.0657760000000000    0.3546300000000000 H
   0.5731380000000000    0.1041260000000000    0.3099000000000000 H
   0.5834000000000000    0.1651620000000000    0.1162100000000000 H
   0.5927920000000000    0.0168620000000000    0.1801800000000000 H
   0.5121740000000000    0.0843640000000000    0.1176200000000000 H
   0.4997720000000000    0.0359820000000000    0.0491000000000000 H
   0.5073700000000001    0.1686820000000000    0.0173800000000000 H
   0.5334560000000000    0.1363120000000000    0.0523400000000000 H
   0.5704940000000001    0.1984940000000000    0.9810100000000000 H
   0.6723700000000001    0.1648460000000000    0.1454500000000000 H
   0.6732200000000000    0.0035880000000000    0.1902300000000000 H
   0.6842420000000001    0.0666320000000000    0.3837100000000000 H
   0.6932640000000001    0.1178320000000000    0.3198400000000000 H
   0.6124380000000000    0.1854500000000000    0.3826400000000000 H
   0.6004420000000001    0.1376200000000000    0.4511000000000000 H
   0.6082740000000001    0.0706540000000000    0.4825300000000000 H
   0.6338260000000001    0.0380120000000000    0.4469200000000000 H
   0.6715680000000001    0.0995540000000000    0.5194000000000000 H
   0.7653780000000001    0.0726020000000000    0.8545000000000000 H
   0.6039300000000001    0.0732340000000000    0.8097800000000001 H
   0.6658560000000001    0.0836840000000000    0.6163100000000000 H
   0.7171100000000001    0.0925220000000000    0.6805800000000000 H
   0.7852220000000001    0.0126520000000000    0.6166100000000000 H
   0.7373140000000001    0.0008560000000000    0.5477400000000000 H
   0.6700800000000001    0.0085140000000000    0.5161900000000000 H
   0.6374480000000001    0.0340680000000000    0.5517700000000000 H
   0.6993320000000001    0.0718240000000000    0.4804400000000000 H
   0.6653620000000001    0.1722140000000000    0.6454200000000000 H
   0.7039220000000002    0.1730780000000000    0.6902199999999999 H
   0.7659500000000001    0.1841640000000000    0.8838900000000000 H
   0.6176460000000001    0.1935740000000000    0.8203200000000000 H
   0.6846900000000001    0.1121880000000000    0.8819800000000000 H
   0.6363360000000001    0.0997580000000000    0.9500900000000000 H
   0.7691580000000001    0.1074360000000000    0.9814500000000000 H
   0.7367900000000001    0.1334760000000000    0.9464000000000000 H
   0.7985080000000001    0.1705020000000000    0.0190300000000000 H
   0.7724920000000001    0.0657760000000000    0.3546300000000000 H
   0.7731380000000001    0.1041260000000000    0.3099000000000000 H
   0.7834000000000001    0.1651620000000000    0.1162100000000000 H
   0.7927920000000002    0.0168620000000000    0.1801800000000000 H
   0.7121740000000001    0.0843640000000000    0.1176200000000000 H
   0.6997720000000001    0.0359820000000000    0.0491000000000000 H
   0.7073700000000001    0.1686820000000000    0.0173800000000000 H
   0.7334560000000001    0.1363120000000000    0.0523400000000000 H
   0.7704940000000001    0.1984940000000000    0.9810100000000000 H
   0.8723700000000001    0.1648460000000000    0.1454500000000000 H
   0.8732200000000000    0.0035880000000000    0.1902300000000000 H
   0.8842420000000001    0.0666320000000000    0.3837100000000000 H
   0.8932640000000001    0.1178320000000000    0.3198400000000000 H
   0.8124380000000000    0.1854500000000000    0.3826400000000000 H
   0.8004420000000001    0.1376200000000000    0.4511000000000000 H
   0.8082740000000000    0.0706540000000000    0.4825300000000000 H
   0.8338260000000001    0.0380120000000000    0.4469200000000000 H
   0.8715680000000000    0.0995540000000000    0.5194000000000000 H
   0.9653780000000001    0.0726020000000000    0.8545000000000000 H
   0.8039300000000000    0.0732340000000000    0.8097800000000001 H
   0.8658560000000001    0.0836840000000000    0.6163100000000000 H
   0.9171100000000001    0.0925220000000000    0.6805800000000000 H
   0.9852220000000000    0.0126520000000000    0.6166100000000000 H
   0.9373140000000001    0.0008560000000000    0.5477400000000000 H
   0.8700800000000001    0.0085140000000000    0.5161900000000000 H
   0.8374480000000001    0.0340680000000000    0.5517700000000000 H
   0.8993320000000000    0.0718240000000000    0.4804400000000000 H
   0.8653620000000001    0.1722140000000000    0.6454200000000000 H
   0.9039220000000001    0.1730780000000000    0.6902199999999999 H
   0.9659500000000001    0.1841640000000000    0.8838900000000000 H
   0.8176460000000001    0.1935740000000000    0.8203200000000000 H
   0.8846900000000001    0.1121880000000000    0.8819800000000000 H
   0.8363360000000001    0.0997580000000000    0.9500900000000000 H
   0.9691580000000001    0.1074360000000000    0.9814500000000000 H
   0.9367900000000000    0.1334760000000000    0.9464000000000000 H
   0.9985080000000001    0.1705020000000000    0.0190300000000000 H
   0.9724920000000000    0.0657760000000000    0.3546300000000000 H
   0.9731380000000001    0.1041260000000000    0.3099000000000000 H
   0.9834000000000001    0.1651620000000000    0.1162100000000000 H
   0.9927920000000001    0.0168620000000000    0.1801800000000000 H
   0.9121740000000000    0.0843640000000000    0.1176200000000000 H
   0.8997720000000000    0.0359820000000000    0.0491000000000000 H
   0.9073700000000000    0.1686820000000000    0.0173800000000000 H
   0.9334560000000001    0.1363120000000000    0.0523400000000000 H
   0.9704940000000001    0.1984940000000000    0.9810100000000000 H
   0.0723700000000000    0.3648460000000000    0.1454500000000000 H
   0.0732200000000000    0.2035880000000000    0.1902300000000000 H
   0.0842420000000000    0.2666320000000000    0.3837100000000000 H
   0.0932640000000000    0.3178320000000000    0.3198400000000000 H
   0.0124380000000000    0.3854500000000000    0.3826400000000000 H
   0.0004420000000000    0.3376200000000000    0.4511000000000000 H
   0.0082740000000000    0.2706540000000000    0.4825300000000000 H
   0.0338260000000000    0.2380120000000000    0.4469200000000000 H
   0.0715680000000000    0.2995540000000000    0.5194000000000000 H
   0.1653780000000000    0.2726020000000000    0.8545000000000000 H
   0.0039300000000000    0.2732340000000000    0.8097800000000001 H
   0.0658560000000000    0.2836840000000000    0.6163100000000000 H
   0.1171100000000000    0.2925220000000000    0.6805800000000000 H
   0.1852220000000000    0.2126520000000000    0.6166100000000000 H
   0.1373140000000000    0.2008560000000000    0.5477400000000000 H
   0.0700800000000000    0.2085140000000000    0.5161900000000000 H
   0.0374480000000000    0.2340680000000000    0.5517700000000000 H
   0.0993320000000000    0.2718240000000000    0.4804400000000000 H
   0.0653620000000000    0.3722140000000000    0.6454200000000000 H
   0.1039220000000000    0.3730780000000000    0.6902199999999999 H
   0.1659500000000000    0.3841640000000000    0.8838900000000000 H
   0.0176460000000000    0.3935740000000000    0.8203200000000000 H
   0.0846900000000000    0.3121880000000000    0.8819800000000000 H
   0.0363360000000000    0.2997580000000000    0.9500900000000000 H
   0.1691580000000000    0.3074360000000000    0.9814500000000000 H
   0.1367900000000000    0.3334760000000000    0.9464000000000000 H
   0.1985080000000000    0.3705020000000000    0.0190300000000000 H
   0.1724920000000000    0.2657760000000000    0.3546300000000000 H
   0.1731380000000000    0.3041260000000000    0.3099000000000000 H
   0.1834000000000000    0.3651620000000000    0.1162100000000000 H
   0.1927920000000000    0.2168620000000000    0.1801800000000000 H
   0.1121740000000000    0.2843640000000000    0.1176200000000000 H
   0.0997720000000000    0.2359820000000000    0.0491000000000000 H
   0.1073700000000000    0.3686820000000000    0.0173800000000000 H
   0.1334560000000000    0.3363120000000001    0.0523400000000000 H
   0.1704940000000000    0.3984940000000000    0.9810100000000000 H
   0.2723700000000000    0.3648460000000000    0.1454500000000000 H
   0.2732200000000000    0.2035880000000000    0.1902300000000000 H
   0.2842420000000000    0.2666320000000000    0.3837100000000000 H
   0.2932640000000000    0.3178320000000000    0.3198400000000000 H
   0.2124380000000000    0.3854500000000000    0.3826400000000000 H
   0.2004420000000000    0.3376200000000000    0.4511000000000000 H
   0.2082740000000000    0.2706540000000000    0.4825300000000000 H
   0.2338260000000000    0.2380120000000000    0.4469200000000000 H
   0.2715680000000000    0.2995540000000000    0.5194000000000000 H
   0.3653780000000000    0.2726020000000000    0.8545000000000000 H
   0.2039300000000000    0.2732340000000000    0.8097800000000001 H
   0.2658560000000000    0.2836840000000000    0.6163100000000000 H
   0.3171100000000000    0.2925220000000000    0.6805800000000000 H
   0.3852220000000000    0.2126520000000000    0.6166100000000000 H
   0.3373140000000000    0.2008560000000000    0.5477400000000000 H
   0.2700800000000000    0.2085140000000000    0.5161900000000000 H
   0.2374480000000000    0.2340680000000000    0.5517700000000000 H
   0.2993320000000000    0.2718240000000000    0.4804400000000000 H
   0.2653620000000000    0.3722140000000000    0.6454200000000000 H
   0.3039220000000000    0.3730780000000000    0.6902199999999999 H
   0.3659500000000000    0.3841640000000000    0.8838900000000000 H
   0.2176460000000000    0.3935740000000000    0.8203200000000000 H
   0.2846900000000000    0.3121880000000000    0.8819800000000000 H
   0.2363360000000000    0.2997580000000000    0.9500900000000000 H
   0.3691580000000000    0.3074360000000000    0.9814500000000000 H
   0.3367900000000000    0.3334760000000000    0.9464000000000000 H
   0.3985080000000000    0.3705020000000000    0.0190300000000000 H
   0.3724920000000000    0.2657760000000000    0.3546300000000000 H
   0.3731380000000000    0.3041260000000000    0.3099000000000000 H
   0.3834000000000000    0.3651620000000000    0.1162100000000000 H
   0.3927920000000000    0.2168620000000000    0.1801800000000000 H
   0.3121740000000000    0.2843640000000000    0.1176200000000000 H
   0.2997720000000000    0.2359820000000000    0.0491000000000000 H
   0.3073700000000000    0.3686820000000000    0.0173800000000000 H
   0.3334560000000000    0.3363120000000001    0.0523400000000000 H
   0.3704940000000000    0.3984940000000000    0.9810100000000000 H
   0.4723700000000000    0.3648460000000000    0.1454500000000000 H
   0.4732200000000000    0.2035880000000000    0.1902300000000000 H
   0.4842420000000000    0.2666320000000000    0.3837100000000000 H
   0.4932640000000000    0.3178320000000000    0.3198400000000000 H
   0.4124380000000000    0.3854500000000000    0.3826400000000000 H
   0.4004420000000000    0.3376200000000000    0.4511000000000000 H
   0.4082740000000000    0.2706540000000000    0.4825300000000000 H
   0.4338260000000000    0.2380120000000000    0.4469200000000000 H
   0.4715680000000000    0.2995540000000000    0.5194000000000000 H
   0.5653780000000000    0.2726020000000000    0.8545000000000000 H
   0.4039300000000000    0.2732340000000000    0.8097800000000001 H
   0.4658560000000000    0.2836840000000000    0.6163100000000000 H
   0.5171100000000001    0.2925220000000000    0.6805800000000000 H
   0.5852220000000000    0.2126520000000000    0.6166100000000000 H
   0.5373140000000001    0.2008560000000000    0.5477400000000000 H
   0.4700800000000001    0.2085140000000000    0.5161900000000000 H
   0.4374480000000000    0.2340680000000000    0.5517700000000000 H
   0.4993320000000000    0.2718240000000000    0.4804400000000000 H
   0.4653620000000001    0.3722140000000000    0.6454200000000000 H
   0.5039220000000000    0.3730780000000000    0.6902199999999999 H
   0.5659500000000001    0.3841640000000000    0.8838900000000000 H
   0.4176460000000000    0.3935740000000000    0.8203200000000000 H
   0.4846900000000000    0.3121880000000000    0.8819800000000000 H
   0.4363360000000000    0.2997580000000000    0.9500900000000000 H
   0.5691580000000001    0.3074360000000000    0.9814500000000000 H
   0.5367900000000000    0.3334760000000000    0.9464000000000000 H
   0.5985080000000000    0.3705020000000000    0.0190300000000000 H
   0.5724920000000000    0.2657760000000000    0.3546300000000000 H
   0.5731380000000000    0.3041260000000000    0.3099000000000000 H
   0.5834000000000000    0.3651620000000000    0.1162100000000000 H
   0.5927920000000000    0.2168620000000000    0.1801800000000000 H
   0.5121740000000000    0.2843640000000000    0.1176200000000000 H
   0.4997720000000000    0.2359820000000000    0.0491000000000000 H
   0.5073700000000001    0.3686820000000000    0.0173800000000000 H
   0.5334560000000000    0.3363120000000001    0.0523400000000000 H
   0.5704940000000001    0.3984940000000000    0.9810100000000000 H
   0.6723700000000001    0.3648460000000000    0.1454500000000000 H
   0.6732200000000000    0.2035880000000000    0.1902300000000000 H
   0.6842420000000001    0.2666320000000000    0.3837100000000000 H
   0.6932640000000001    0.3178320000000000    0.3198400000000000 H
   0.6124380000000000    0.3854500000000000    0.3826400000000000 H
   0.6004420000000001    0.3376200000000000    0.4511000000000000 H
   0.6082740000000001    0.2706540000000000    0.4825300000000000 H
   0.6338260000000001    0.2380120000000000    0.4469200000000000 H
   0.6715680000000001    0.2995540000000000    0.5194000000000000 H
   0.7653780000000001    0.2726020000000000    0.8545000000000000 H
   0.6039300000000001    0.2732340000000000    0.8097800000000001 H
   0.6658560000000001    0.2836840000000000    0.6163100000000000 H
   0.7171100000000001    0.2925220000000000    0.6805800000000000 H
   0.7852220000000001    0.2126520000000000    0.6166100000000000 H
   0.7373140000000001    0.2008560000000000    0.5477400000000000 H
   0.6700800000000001    0.2085140000000000    0.5161900000000000 H
   0.6374480000000001    0.2340680000000000    0.5517700000000000 H
   0.6993320000000001    0.2718240000000000    0.4804400000000000 H
   0.6653620000000001    0.3722140000000000    0.6454200000000000 H
   0.7039220000000002    0.3730780000000000    0.6902199999999999 H
   0.7659500000000001    0.3841640000000000    0.8838900000000000 H
   0.6176460000000001    0.3935740000000000    0.8203200000000000 H
   0.6846900000000001    0.3121880000000000    0.8819800000000000 H
   0.6363360000000001    0.2997580000000000    0.9500900000000000 H
   0.7691580000000001    0.3074360000000000    0.9814500000000000 H
   0.7367900000000001    0.3334760000000000    0.9464000000000000 H
   0.7985080000000001    0.3705020000000000    0.0190300000000000 H
   0.7724920000000001    0.2657760000000000    0.3546300000000000 H
   0.7731380000000001    0.3041260000000000    0.3099000000000000 H
   0.7834000000000001    0.3651620000000000    0.1162100000000000 H
   0.7927920000000002    0.2168620000000000    0.1801800000000000 H
   0.7121740000000001    0.2843640000000000    0.1176200000000000 H
   0.6997720000000001    0.2359820000000000    0.0491000000000000 H
   0.7073700000000001    0.3686820000000000    0.0173800000000000 H
   0.7334560000000001    0.3363120000000001    0.0523400000000000 H
   0.7704940000000001    0.3984940000000000    0.9810100000000000 H
   0.8723700000000001    0.3648460000000000    0.1454500000000000 H
   0.8732200000000000    0.2035880000000000    0.1902300000000000 H
   0.8842420000000001    0.2666320000000000    0.3837100000000000 H
   0.8932640000000001    0.3178320000000000    0.3198400000000000 H
   0.8124380000000000    0.3854500000000000    0.3826400000000000 H
   0.8004420000000001    0.3376200000000000    0.4511000000000000 H
   0.8082740000000000    0.2706540000000000    0.4825300000000000 H
   0.8338260000000001    0.2380120000000000    0.4469200000000000 H
   0.8715680000000000    0.2995540000000000    0.5194000000000000 H
   0.9653780000000001    0.2726020000000000    0.8545000000000000 H
   0.8039300000000000    0.2732340000000000    0.8097800000000001 H