H9 C5 S1 N1 O2
1.0
  24.8319992587025453    0.0000000000000000    0.0060676021775923
 -12.4055165104083205   21.5642752880102044   -0.0086840600498665
   0.0000000000000000    0.0000000000000000   27.0489999999999995
H C S N O
9 5 1 1 2
direct
   0.0318050000000000    0.6675850000000000    0.2310900000000000 H
   0.0176550000000000    0.6586700000000000    0.2900700000000000 H
   0.9318850000000001    0.6016850000000000    0.2085900000000000 H
   0.8202300000000000    0.5610150000000000    0.2140300000000000 H
   0.7857750000000000    0.5659500000000000    0.2701800000000000 H
   0.8176500000000000    0.5155600000000000    0.2655000000000000 H
   0.8545600000000000    0.6207850000000000    0.3456000000000000 H
   0.9357400000000000    0.6522650000000000    0.3420000000000000 H
   0.8865350000000001    0.5705000000000000    0.3433200000000000 H
   0.8862449999999999    0.6121950000000000    0.2725000000000000 C
   0.9400150000000000    0.6073999999999999    0.2486600000000000 C
   0.8235150000000000    0.5605599999999999    0.2545000000000000 C
   0.8910500000000000    0.6139650000000000    0.3291000000000000 C
   0.9433750000000001    0.5504450000000000    0.2692800000000000 C
   0.8922050000000000    0.6880950000000000    0.2543900000000000 S
   0.0009000000000000    0.6659550000000000    0.2571000000000000 N
   0.9016500000000001    0.4977300000000000    0.2583500000000000 O
   0.9909500000000000    0.5657250000000000    0.2976000000000000 O
