H2 C6 S1 O4
1.0
  31.2062080608295673    0.0000000000000000   -0.3344285636955872
  -0.0428880308868740   18.8975165158425682    0.4931999090268200
   0.0000000000000000    0.0000000000000000   39.7060000000000031
H C S O
2 6 1 4
direct
   0.9430950000000000    0.3463500000000000    0.7451950000000001 H
   0.9933100000000000    0.2327900000000000    0.7399850000000000 H
   0.9367550000000000    0.1688100000000000    0.7505999999999999 C
   0.8531700000000000    0.3219500000000000    0.7582300000000000 C
   0.9327200000000000    0.2916100000000000    0.7482949999999999 C
   0.9591650000000000    0.2317500000000000    0.7454350000000000 C
   0.8904750000000000    0.2740500000000000    0.7552500000000000 C
   0.9539150000000001    0.0965400000000000    0.7484850000000001 C
   0.8832150000000000    0.1836200000000000    0.7588250000000001 S
   0.9909200000000000    0.0893800000000000    0.7361750000000000 O
   0.9293400000000001    1.0452800000000000    0.7579300000000000 O
   0.8163549999999999    0.2959900000000000    0.7625000000000000 O
   0.8613550000000000    0.3888700000000000    0.7555350000000001 O
