H4 O2
1.0
  31.2062080608295673    0.0000000000000000   -0.3344285636955872
  -0.0428880308868740   18.8975165158425682    0.4931999090268200
   0.0000000000000000    0.0000000000000000   39.7060000000000031
H O
4 2
direct
   0.5515733188107295    0.0270700080606165    0.8126076179452253 H
   0.5386971559582561    0.1129222790176612    0.8068386179144996 H
   0.5422347636804805    0.1050887686610041    0.1756180378617899 H
   0.5630495602447688    0.0230860930686006    0.1745213917342864 H
   0.5454750000000000    0.0671800000000000    0.7972399999999999 O
   0.5531700000000001    0.0629100000000000    0.1876250000000000 O
