Zn16 H212 C456 S16 N60 O124
1.0
  31.2062080608295673    0.0000000000000000   -0.3344285636955872
  -0.0428880308868740   18.8975165158425682    0.4931999090268200
   0.0000000000000000    0.0000000000000000   39.7060000000000031
Zn H C S N O
16 212 456 16 60 124
direct
   0.1948400000000000    0.5584800000000000    0.2426850000000000 Zn
   0.0539900000000000    0.0587200000000000    0.2429650000000000 Zn
   0.3051550000000000    0.4415100000000000    0.2573250000000000 Zn
   0.4460050000000000    0.9412600000000000    0.2570450000000000 Zn
   0.6948400000000000    0.5584800000000000    0.2426850000000000 Zn
   0.5539900000000000    0.0587200000000000    0.2429650000000000 Zn
   0.8051550000000001    0.4415100000000000    0.2573250000000000 Zn
   0.9460050000000000    0.9412600000000000    0.2570450000000000 Zn
   0.1948400000000000    0.5584800000000000    0.7426850000000000 Zn
   0.0539900000000000    0.0587200000000000    0.7429650000000000 Zn
   0.3051550000000000    0.4415100000000000    0.7573250000000000 Zn
   0.4460050000000000    0.9412600000000000    0.7570450000000000 Zn
   0.6948400000000000    0.5584800000000000    0.7426850000000000 Zn
   0.5539900000000000    0.0587200000000000    0.7429650000000000 Zn
   0.8051550000000001    0.4415100000000000    0.7573250000000000 Zn
   0.9460050000000000    0.9412600000000000    0.7570450000000000 Zn
   0.4762150000000000    0.8258799999999999    0.3764150000000000 H
   0.4720200000000000    0.8076700000000000    0.1452000000000000 H
   0.0569000000000000    0.6536300000000000    0.2548200000000000 H
   0.4719900000000000    0.8360800000000000    0.3130600000000000 H
   0.4237450000000000    0.0369300000000000    0.3790000000000000 H
   0.0066850000000000    0.7671900000000000    0.2600300000000000 H
   0.4401300000000000    0.0284600000000000    0.1304950000000000 H
   0.0589800000000000    0.8830700000000000    0.0392350000000000 H
   0.4213550000000000    0.0373800000000000    0.3157900000000000 H
   0.4700550000000000    0.8265800000000000    0.2076000000000000 H
   0.0584550000000000    0.8951300000000000    0.4757600000000000 H
   0.3469250000000000    0.9451600000000000    0.0404550000000000 H
   0.3455950000000000    0.9495500000000000    0.4767150000000000 H
   0.4390050000000000    0.0379600000000000    0.1932400000000000 H
   0.2260300000000000    0.6741000000000000    0.1238800000000000 H
   0.2220400000000000    0.6923700000000000    0.3548500000000000 H
   0.3063850000000000    0.8457100000000000    0.2443800000000000 H
   0.2214450000000000    0.6638400000000000    0.1871400000000000 H
   0.1741900000000000    0.4622700000000000    0.1202200000000000 H
   0.2561500000000000    0.7314600000000000    0.2400600000000000 H
   0.1896400000000000    0.4715300000000000    0.3689500000000000 H
   0.3090650000000000    0.6170300000000000    0.4622300000000000 H
   0.1713650000000000    0.4618000000000000    0.1833850000000000 H
   0.2197250000000000    0.6736100000000000    0.2923800000000000 H
   0.3085750000000000    0.6050500000000000    0.0256850000000000 H
   0.0968650000000000    0.5546600000000000    0.4576000000000000 H
   0.0956000000000000    0.5502300000000000    0.0213150000000000 H
   0.1879550000000000    0.4622900000000000    0.3062100000000000 H
   0.0237700000000000    0.1740900000000000    0.1235950000000000 H
   0.0279700000000000    0.1923100000000000    0.3547900000000000 H
   0.4430950000000000    0.3463500000000000    0.2451950000000000 H
   0.0279950000000000    0.1639000000000000    0.1869500000000000 H
   0.0762550000000000    0.9630500000000000    0.1210100000000000 H
   0.4933100000000000    0.2327900000000000    0.2399850000000000 H
   0.0598700000000000    0.9715300000000000    0.3695150000000000 H
   0.4410150000000000    0.1169100000000000    0.4607700000000000 H
   0.0786450000000000    0.9626100000000000    0.1842200000000000 H
   0.0299350000000000    0.1734000000000000    0.2923650000000000 H
   0.1530700000000000    0.0548200000000000    0.4595500000000000 H
   0.1544000000000000    0.0504400000000000    0.0232950000000000 H
   0.0609950000000000    0.9620300000000001    0.3067700000000000 H
   0.2739600000000000    0.3258800000000000    0.3761300000000000 H
   0.2779650000000000    0.3075900000000000    0.1451600000000000 H
   0.1936000000000000    0.1542700000000000    0.2556300000000000 H
   0.2785450000000000    0.3361400000000000    0.3128700000000000 H
   0.3258050000000000    0.5377100000000000    0.3797900000000000 H
   0.2438400000000000    0.2685200000000000    0.2595000000000000 H
   0.3103400000000000    0.5284500000000000    0.1310150000000000 H
   0.1909300000000000    0.3829500000000000    0.0377800000000000 H
   0.3286250000000000    0.5381800000000000    0.3166250000000000 H
   0.2802800000000000    0.3263600000000000    0.2076250000000000 H
   0.1914200000000000    0.3949300000000000    0.4743250000000000 H
   0.4031250000000000    0.4453200000000000    0.0424100000000000 H
   0.4043950000000000    0.4497500000000000    0.4786950000000000 H
   0.3120200000000000    0.5376900000000000    0.1937950000000000 H
   0.9762150000000001    0.8258799999999999    0.3764150000000000 H
   0.9720200000000000    0.8076700000000000    0.1452000000000000 H
   0.5569000000000000    0.6536300000000000    0.2548200000000000 H
   0.9719900000000000    0.8360800000000000    0.3130600000000000 H
   0.9237450000000000    0.0369300000000000    0.3790000000000000 H
   0.5066850000000001    0.7671900000000000    0.2600300000000000 H
   0.9401300000000000    0.0284600000000000    0.1304950000000000 H
   0.5589800000000000    0.8830700000000000    0.0392350000000000 H
   0.9213549999999999    0.0373800000000000    0.3157900000000000 H
   0.9700550000000000    0.8265800000000000    0.2076000000000000 H
   0.5584550000000000    0.8951300000000000    0.4757600000000000 H
   0.8469249999999999    0.9451600000000000    0.0404550000000000 H
   0.8455950000000000    0.9495500000000000    0.4767150000000000 H
   0.9390050000000000    0.0379600000000000    0.1932400000000000 H
   0.7260300000000000    0.6741000000000000    0.1238800000000000 H
   0.7220400000000000    0.6923700000000000    0.3548500000000000 H
   0.8063850000000000    0.8457100000000000    0.2443800000000000 H
   0.7214450000000000    0.6638400000000000    0.1871400000000000 H
   0.6741900000000001    0.4622700000000000    0.1202200000000000 H
   0.7561500000000000    0.7314600000000000    0.2400600000000000 H
   0.6896400000000000    0.4715300000000000    0.3689500000000000 H
   0.8090649999999999    0.6170300000000000    0.4622300000000000 H
   0.6713650000000000    0.4618000000000000    0.1833850000000000 H
   0.7197249999999999    0.6736100000000000    0.2923800000000000 H
   0.8085750000000000    0.6050500000000000    0.0256850000000000 H
   0.5968650000000000    0.5546600000000000    0.4576000000000000 H
   0.5956000000000000    0.5502300000000000    0.0213150000000000 H
   0.6879550000000000    0.4622900000000000    0.3062100000000000 H
   0.5279700000000001    0.1923100000000000    0.3547900000000000 H
   0.9430950000000000    0.3463500000000000    0.2451950000000000 H
   0.9933100000000000    0.2327900000000000    0.2399850000000000 H
   0.5598700000000000    0.9715300000000000    0.3695150000000000 H
   0.9410149999999999    0.1169100000000000    0.4607700000000000 H
   0.5299350000000000    0.1734000000000000    0.2923650000000000 H
   0.9415400000000000    0.1048500000000000    0.0240000000000000 H
   0.6530700000000000    0.0548200000000000    0.4595500000000000 H
   0.5609950000000000    0.9620300000000001    0.3067700000000000 H
   0.7739600000000000    0.3258800000000000    0.3761300000000000 H
   0.7779650000000000    0.3075900000000000    0.1451600000000000 H
   0.6936000000000000    0.1542700000000000    0.2556300000000000 H
   0.7785450000000000    0.3361400000000000    0.3128700000000000 H
   0.8258050000000000    0.5377100000000000    0.3797900000000000 H
   0.7438400000000001    0.2685200000000000    0.2595000000000000 H
   0.8103400000000001    0.5284500000000000    0.1310150000000000 H
   0.6909300000000000    0.3829500000000000    0.0377800000000000 H
   0.8286249999999999    0.5381800000000000    0.3166250000000000 H
   0.7802800000000000    0.3263600000000000    0.2076250000000000 H
   0.6914200000000000    0.3949300000000000    0.4743250000000000 H
   0.9031250000000000    0.4453200000000000    0.0424100000000000 H
   0.9043950000000001    0.4497500000000000    0.4786950000000000 H
   0.8120200000000000    0.5376900000000000    0.1937950000000000 H
   0.4762150000000000    0.8258799999999999    0.8764149999999999 H
   0.4720200000000000    0.8076700000000000    0.6452000000000000 H
   0.0569000000000000    0.6536300000000000    0.7548200000000000 H
   0.4719900000000000    0.8360800000000000    0.8130600000000000 H
   0.4237450000000000    0.0369300000000000    0.8790000000000000 H
   0.0066850000000000    0.7671900000000000    0.7600300000000000 H
   0.4401300000000000    0.0284600000000000    0.6304950000000000 H
   0.0589800000000000    0.8830700000000000    0.5392350000000000 H
   0.4213550000000000    0.0373800000000000    0.8157900000000000 H
   0.4700550000000000    0.8265800000000000    0.7076000000000000 H
   0.0584550000000000    0.8951300000000000    0.9757600000000000 H
   0.3469250000000000    0.9451600000000000    0.5404550000000000 H
   0.3455950000000000    0.9495500000000000    0.9767150000000000 H
   0.4390050000000000    0.0379600000000000    0.6932400000000000 H
   0.2260300000000000    0.6741000000000000    0.6238800000000000 H
   0.2220400000000000    0.6923700000000000    0.8548500000000000 H
   0.3063850000000000    0.8457100000000000    0.7443800000000000 H
   0.2214450000000000    0.6638400000000000    0.6871400000000000 H
   0.1741900000000000    0.4622700000000000    0.6202200000000000 H
   0.2561500000000000    0.7314600000000000    0.7400599999999999 H
   0.1896400000000000    0.4715300000000000    0.8689500000000000 H
   0.3090650000000000    0.6170300000000000    0.9622299999999999 H
   0.1713650000000000    0.4618000000000000    0.6833850000000000 H
   0.2197250000000000    0.6736100000000000    0.7923800000000000 H
   0.3085750000000000    0.6050500000000000    0.5256850000000000 H
   0.0968650000000000    0.5546600000000000    0.9576000000000000 H
   0.0956000000000000    0.5502300000000000    0.5213150000000000 H
   0.1879550000000000    0.4622900000000000    0.8062100000000000 H
   0.0237700000000000    0.1740900000000000    0.6235950000000000 H
   0.0279700000000000    0.1923100000000000    0.8547899999999999 H
   0.4430950000000000    0.3463500000000000    0.7451950000000001 H
   0.0279950000000000    0.1639000000000000    0.6869499999999999 H
   0.0762550000000000    0.9630500000000000    0.6210100000000001 H
   0.4933100000000000    0.2327900000000000    0.7399850000000000 H
   0.0598700000000000    0.9715300000000000    0.8695150000000000 H
   0.0786450000000000    0.9626100000000000    0.6842200000000001 H
   0.0299350000000000    0.1734000000000000    0.7923650000000000 H
   0.4415400000000000    0.1048500000000000    0.5240000000000000 H
   0.1530700000000000    0.0548200000000000    0.9595500000000000 H
   0.1544000000000000    0.0504400000000000    0.5232950000000000 H
   0.0609950000000000    0.9620300000000001    0.8067700000000000 H
   0.2739600000000000    0.3258800000000000    0.8761300000000001 H
   0.2779650000000000    0.3075900000000000    0.6451600000000000 H
   0.1936000000000000    0.1542700000000000    0.7556300000000000 H
   0.2785450000000000    0.3361400000000000    0.8128700000000000 H
   0.3258050000000000    0.5377100000000000    0.8797900000000001 H
   0.2438400000000000    0.2685200000000000    0.7595000000000001 H
   0.3103400000000000    0.5284500000000000    0.6310150000000000 H
   0.1909300000000000    0.3829500000000000    0.5377800000000000 H
   0.3286250000000000    0.5381800000000000    0.8166249999999999 H
   0.2802800000000000    0.3263600000000000    0.7076249999999999 H
   0.1914200000000000    0.3949300000000000    0.9743250000000000 H
   0.4031250000000000    0.4453200000000000    0.5424100000000001 H
   0.4043950000000000    0.4497500000000000    0.9786950000000000 H
   0.3120200000000000    0.5376900000000000    0.6937949999999999 H
   0.9762150000000001    0.8258799999999999    0.8764149999999999 H
   0.9720200000000000    0.8076700000000000    0.6452000000000000 H
   0.5569000000000000    0.6536300000000000    0.7548200000000000 H
   0.9719900000000000    0.8360800000000000    0.8130600000000000 H
   0.9237450000000000    0.0369300000000000    0.8790000000000000 H
   0.5066850000000001    0.7671900000000000    0.7600300000000000 H
   0.9401300000000000    0.0284600000000000    0.6304950000000000 H
   0.5589800000000000    0.8830700000000000    0.5392350000000000 H
   0.9213549999999999    0.0373800000000000    0.8157900000000000 H
   0.9700550000000000    0.8265800000000000    0.7076000000000000 H
   0.5584550000000000    0.8951300000000000    0.9757600000000000 H
   0.8469249999999999    0.9451600000000000    0.5404550000000000 H
   0.8455950000000000    0.9495500000000000    0.9767150000000000 H
   0.9390050000000000    0.0379600000000000    0.6932400000000000 H
   0.7260300000000000    0.6741000000000000    0.6238800000000000 H
   0.7220400000000000    0.6923700000000000    0.8548500000000000 H
   0.8063850000000000    0.8457100000000000    0.7443800000000000 H
   0.7214450000000000    0.6638400000000000    0.6871400000000000 H
   0.6741900000000001    0.4622700000000000    0.6202200000000000 H
   0.7561500000000000    0.7314600000000000    0.7400599999999999 H
   0.6896400000000000    0.4715300000000000    0.8689500000000000 H
   0.8090649999999999    0.6170300000000000    0.9622299999999999 H
   0.6713650000000000    0.4618000000000000    0.6833850000000000 H
   0.7197249999999999    0.6736100000000000    0.7923800000000000 H
   0.8085750000000000    0.6050500000000000    0.5256850000000000 H
   0.5968650000000000    0.5546600000000000    0.9576000000000000 H
   0.5956000000000000    0.5502300000000000    0.5213150000000000 H
   0.6879550000000000    0.4622900000000000    0.8062100000000000 H
   0.5237700000000000    0.1740900000000000    0.6235950000000000 H
   0.9430950000000000    0.3463500000000000    0.7451950000000001 H
   0.5279950000000000    0.1639000000000000    0.6869499999999999 H
   0.5762550000000000    0.9630500000000000    0.6210100000000001 H
   0.9933100000000000    0.2327900000000000    0.7399850000000000 H
   0.9410149999999999    0.1169100000000000    0.9607700000000000 H
   0.5786450000000000    0.9626100000000000    0.6842200000000001 H
   0.9415400000000000    0.1048500000000000    0.5240000000000000 H
   0.6544000000000000    0.0504400000000000    0.5232950000000000 H
   0.7739600000000000    0.3258800000000000    0.8761300000000001 H
   0.7779650000000000    0.3075900000000000    0.6451600000000000 H
   0.6936000000000000    0.1542700000000000    0.7556300000000000 H
   0.7785450000000000    0.3361400000000000    0.8128700000000000 H
   0.8258050000000000    0.5377100000000000    0.8797900000000001 H
   0.7438400000000001    0.2685200000000000    0.7595000000000001 H
   0.8103400000000001    0.5284500000000000    0.6310150000000000 H
   0.6909300000000000    0.3829500000000000    0.5377800000000000 H
   0.8286249999999999    0.5381800000000000    0.8166249999999999 H
   0.7802800000000000    0.3263600000000000    0.7076249999999999 H
   0.6914200000000000    0.3949300000000000    0.9743250000000000 H
   0.9031250000000000    0.4453200000000000    0.5424100000000001 H
   0.9043950000000001    0.4497500000000000    0.9786950000000000 H
   0.8120200000000000    0.5376900000000000    0.6937949999999999 H
   0.0632350000000000    0.8311800000000000    0.2494150000000000 C
   0.4908800000000000    0.9123200000000000    0.4723750000000000 C
   0.1468200000000000    0.6780400000000000    0.2417800000000000 C
   0.4639550000000000    0.8737300000000000    0.3639350000000000 C
   0.4913150000000000    0.9197100000000000    0.4351200000000000 C
   0.4646050000000000    0.8594800000000000    0.1549150000000000 C
   0.4554150000000000    0.9169600000000000    0.1334600000000000 C
   0.0672750000000000    0.7083700000000001    0.2517000000000000 C
   0.4500600000000000    0.9310100000000000    0.3822900000000000 C
   0.4917050000000000    0.9013200000000000    0.0432850000000000 C
   0.4618650000000000    0.8790200000000000    0.3289100000000000 C
   0.4111800000000000    0.9342000000000000    0.4354450000000000 C
   0.4343900000000000    0.9911400000000000    0.3654000000000000 C
   0.0408300000000000    0.7682300000000000    0.2545500000000000 C
   0.4141300000000000    0.9248700000000000    0.0436550000000000 C
   0.4520850000000000    0.9193000000000000    0.4900750000000000 C
   0.4930300000000000    0.8965900000000000    0.0806550000000000 C
   0.4464600000000000    0.9825700000000001    0.1468400000000000 C
   0.0293100000000000    0.8935800000000000    0.0253000000000000 C
   0.4141000000000000    0.9232100000000000    0.0810050000000000 C
   0.4332500000000000    0.9918000000000000    0.3303900000000000 C
   0.1095200000000000    0.7259300000000000    0.2447600000000000 C
   0.4526300000000000    0.9150000000000000    0.0259500000000000 C
   0.4638500000000000    0.8698000000000000    0.1895000000000000 C
   0.4128650000000000    0.9315500000000000    0.4727600000000000 C
   0.0289800000000000    0.8998200000000000    0.4899800000000000 C
   0.3760300000000000    0.9375599999999999    0.0260500000000000 C
   0.3753450000000000    0.9403600000000000    0.4907400000000000 C
   0.4461400000000000    0.9879500000000000    0.1816400000000000 C
   0.0460800000000000    0.9034400000000000    0.2515250000000000 C
   0.3132000000000000    0.6683200000000000    0.2505800000000000 C
   0.2409700000000000    0.5876700000000000    0.0280100000000000 C
   0.3970050000000000    0.8223400000000000    0.2570400000000000 C
   0.2138400000000000    0.6260500000000000    0.1361000000000000 C
   0.2414250000000000    0.5802900000000000    0.0652950000000000 C
   0.2144300000000000    0.6405900000000000    0.3450150000000000 C
   0.2052000000000000    0.5830500000000000    0.3663100000000000 C
   0.3169850000000000    0.7911600000000000    0.2476450000000000 C
   0.2001700000000000    0.5686099999999999    0.1174600000000000 C
   0.2417500000000000    0.5986800000000000    0.4570750000000000 C
   0.2115800000000000    0.6207000000000000    0.1710900000000000 C
   0.1612550000000000    0.5656500000000000    0.0636600000000000 C
   0.1846200000000000    0.5082100000000001    0.1340100000000000 C
   0.2905000000000000    0.7308800000000000    0.2452850000000000 C
   0.1641200000000000    0.5750300000000000    0.4554850000000000 C
   0.2021400000000000    0.5806400000000000    0.0096750000000000 C
   0.2430300000000000    0.6033500000000001    0.4197050000000000 C
   0.1959950000000000    0.5174700000000000    0.3527700000000000 C
   0.2793850000000000    0.6064800000000000    0.4756800000000000 C
   0.1640250000000000    0.5767300000000000    0.4181300000000000 C
   0.1832800000000000    0.5075300000000000    0.1690350000000000 C
   0.3595250000000000    0.7742599999999999    0.2543600000000000 C
   0.2026700000000000    0.5849100000000000    0.4738000000000000 C
   0.2134350000000000    0.6303600000000000    0.3103650000000000 C
   0.1629150000000000    0.5683000000000000    0.0263650000000000 C
   0.2790650000000000    0.6002800000000000    0.0110050000000000 C
   0.1260100000000000    0.5622600000000000    0.4724300000000000 C
   0.1253550000000000    0.5594600000000000    0.0077700000000000 C
   0.1954150000000000    0.5122000000000000    0.3179550000000000 C
   0.2964150000000000    0.5955500000000000    0.2489350000000000 C
   0.4367550000000000    0.1688100000000000    0.2506000000000000 C
   0.0091150000000000    0.0876800000000000    0.0276350000000000 C
   0.3531700000000000    0.3219500000000000    0.2582300000000000 C
   0.0360350000000000    0.1262500000000000    0.1360750000000000 C
   0.0086750000000000    0.0802700000000000    0.0648900000000000 C
   0.0353900000000000    0.1405000000000000    0.3450950000000000 C
   0.0445800000000000    0.0830300000000000    0.3665500000000000 C
   0.4327200000000000    0.2916100000000000    0.2482950000000000 C
   0.0499300000000000    0.0689700000000000    0.1177200000000000 C
   0.0082850000000000    0.0986500000000000    0.4567250000000000 C
   0.0381200000000000    0.1209600000000000    0.1711000000000000 C
   0.0888100000000000    0.0657800000000000    0.0645650000000000 C
   0.0656050000000000    0.0088400000000000    0.1345500000000000 C
   0.4591650000000000    0.2317500000000000    0.2454350000000000 C
   0.0858650000000000    0.0751000000000000    0.4563550000000000 C
   0.0479100000000000    0.0806700000000000    0.0099350000000000 C
   0.0069650000000000    0.1034000000000000    0.4193550000000000 C
   0.0535400000000000    0.0174200000000000    0.3531700000000000 C
   0.4706850000000000    0.1064100000000000    0.4747000000000000 C
   0.0859000000000000    0.0767800000000000    0.4190050000000000 C
   0.0667450000000000    0.0081900000000000    0.1696200000000000 C
   0.3904750000000000    0.2740500000000000    0.2552500000000000 C
   0.0473650000000000    0.0849900000000000    0.4740600000000000 C
   0.0361400000000000    0.1301800000000000    0.3104600000000000 C
   0.0871300000000000    0.0684500000000000    0.0272500000000000 C
   0.1239650000000000    0.0624200000000000    0.4739000000000000 C
   0.1246450000000000    0.0596100000000000    0.0092700000000000 C
   0.0538600000000000    0.0120300000000000    0.3183700000000000 C
   0.4539150000000000    0.0965400000000000    0.2484850000000000 C
   0.1867900000000000    0.3316600000000000    0.2494300000000000 C
   0.2590200000000000    0.4123000000000000    0.4720000000000000 C
   0.1029850000000000    0.1776400000000000    0.2429700000000000 C
   0.2861500000000000    0.3739300000000000    0.3639000000000000 C
   0.2585700000000000    0.4196900000000000    0.4347150000000000 C
   0.2855700000000000    0.3593800000000000    0.1549950000000000 C
   0.2947900000000000    0.4169300000000000    0.1337000000000000 C
   0.1830050000000000    0.2088200000000000    0.2523500000000000 C
   0.2998200000000000    0.4313700000000000    0.3825000000000000 C
   0.2582400000000000    0.4013000000000000    0.0429350000000000 C
   0.2884100000000000    0.3792800000000000    0.3289150000000000 C
   0.3387400000000000    0.4343300000000000    0.4360000000000000 C
   0.3153750000000000    0.4917700000000000    0.3660000000000000 C
   0.2094900000000000    0.2691000000000000    0.2547250000000000 C
   0.3358750000000000    0.4249500000000000    0.0445250000000000 C
   0.2978500000000000    0.4193600000000000    0.4903350000000000 C
   0.2569700000000000    0.3966200000000000    0.0803050000000000 C
   0.3039900000000000    0.4825100000000000    0.1472400000000000 C
   0.2206100000000000    0.3934900000000000    0.0243300000000000 C
   0.3359700000000000    0.4232500000000000    0.0818750000000000 C
   0.3167100000000000    0.4924500000000000    0.3309750000000000 C
   0.1404700000000000    0.2257300000000000    0.2456450000000000 C
   0.2973250000000000    0.4150500000000000    0.0262000000000000 C
   0.2865600000000000    0.3696100000000000    0.1896450000000000 C
   0.3370800000000000    0.4316700000000000    0.4736450000000000 C
   0.2209250000000000    0.3997000000000000    0.4890050000000000 C
   0.3739850000000000    0.4377100000000000    0.0275800000000000 C
   0.3746400000000000    0.4405200000000000    0.4922350000000000 C
   0.3045650000000000    0.4877700000000000    0.1820500000000000 C
   0.2035750000000000    0.4044300000000000    0.2510750000000000 C
   0.5632350000000000    0.8311800000000000    0.2494150000000000 C
   0.9908800000000000    0.9123200000000000    0.4723750000000000 C
   0.6468200000000000    0.6780400000000000    0.2417800000000000 C
   0.9639550000000000    0.8737300000000000    0.3639350000000000 C
   0.9913149999999999    0.9197100000000000    0.4351200000000000 C
   0.9646049999999999    0.8594800000000000    0.1549150000000000 C
   0.9554150000000000    0.9169600000000000    0.1334600000000000 C
   0.5672750000000000    0.7083700000000001    0.2517000000000000 C
   0.9500600000000000    0.9310100000000000    0.3822900000000000 C
   0.9917050000000001    0.9013200000000000    0.0432850000000000 C
   0.9618650000000000    0.8790200000000000    0.3289100000000000 C
   0.9111800000000000    0.9342000000000000    0.4354450000000000 C
   0.9343900000000001    0.9911400000000000    0.3654000000000000 C
   0.5408300000000000    0.7682300000000000    0.2545500000000000 C
   0.9141300000000000    0.9248700000000000    0.0436550000000000 C
   0.9520850000000001    0.9193000000000000    0.4900750000000000 C
   0.9930300000000001    0.8965900000000000    0.0806550000000000 C
   0.9464600000000001    0.9825700000000001    0.1468400000000000 C
   0.5293099999999999    0.8935800000000000    0.0253000000000000 C
   0.9141000000000000    0.9232100000000000    0.0810050000000000 C
   0.9332500000000000    0.9918000000000000    0.3303900000000000 C
   0.6095200000000001    0.7259300000000000    0.2447600000000000 C
   0.9526300000000000    0.9150000000000000    0.0259500000000000 C
   0.9638500000000000    0.8698000000000000    0.1895000000000000 C
   0.9128650000000000    0.9315500000000000    0.4727600000000000 C
   0.5289800000000000    0.8998200000000000    0.4899800000000000 C
   0.8760300000000000    0.9375599999999999    0.0260500000000000 C
   0.8753450000000000    0.9403600000000000    0.4907400000000000 C
   0.9461400000000000    0.9879500000000000    0.1816400000000000 C
   0.5460800000000000    0.9034400000000000    0.2515250000000000 C
   0.8131999999999999    0.6683200000000000    0.2505800000000000 C
   0.7409700000000000    0.5876700000000000    0.0280100000000000 C
   0.8970050000000001    0.8223400000000000    0.2570400000000000 C
   0.7138400000000000    0.6260500000000000    0.1361000000000000 C
   0.7414250000000000    0.5802900000000000    0.0652950000000000 C
   0.7144300000000000    0.6405900000000000    0.3450150000000000 C
   0.7052000000000000    0.5830500000000000    0.3663100000000000 C
   0.8169850000000001    0.7911600000000000    0.2476450000000000 C
   0.7001700000000000    0.5686099999999999    0.1174600000000000 C
   0.7417500000000000    0.5986800000000000    0.4570750000000000 C
   0.7115800000000000    0.6207000000000000    0.1710900000000000 C
   0.6612550000000000    0.5656500000000000    0.0636600000000000 C
   0.6846200000000000    0.5082100000000001    0.1340100000000000 C
   0.7905000000000000    0.7308800000000000    0.2452850000000000 C
   0.6641200000000000    0.5750300000000000    0.4554850000000000 C
   0.7021400000000000    0.5806400000000000    0.0096750000000000 C
   0.7430300000000000    0.6033500000000001    0.4197050000000000 C
   0.6959950000000000    0.5174700000000000    0.3527700000000000 C
   0.7793850000000000    0.6064800000000000    0.4756800000000000 C
   0.6640250000000000    0.5767300000000000    0.4181300000000000 C
   0.6832800000000000    0.5075300000000000    0.1690350000000000 C
   0.8595250000000000    0.7742599999999999    0.2543600000000000 C
   0.7026700000000000    0.5849100000000000    0.4738000000000000 C
   0.7134350000000000    0.6303600000000000    0.3103650000000000 C
   0.6629150000000000    0.5683000000000000    0.0263650000000000 C
   0.7790650000000000    0.6002800000000000    0.0110050000000000 C
   0.6260100000000000    0.5622600000000000    0.4724300000000000 C
   0.6253550000000000    0.5594600000000000    0.0077700000000000 C
   0.6954150000000000    0.5122000000000000    0.3179550000000000 C
   0.7964150000000000    0.5955500000000000    0.2489350000000000 C
   0.9367550000000000    0.1688100000000000    0.2506000000000000 C
   0.8531700000000000    0.3219500000000000    0.2582300000000000 C
   0.5353900000000000    0.1405000000000000    0.3450950000000000 C
   0.5445800000000000    0.0830300000000000    0.3665500000000000 C
   0.9327200000000000    0.2916100000000000    0.2482950000000000 C
   0.5082850000000000    0.0986500000000000    0.4567250000000000 C
   0.9591650000000000    0.2317500000000000    0.2454350000000000 C
   0.5858650000000000    0.0751000000000000    0.4563550000000000 C
   0.5069650000000000    0.1034000000000000    0.4193550000000000 C
   0.5535400000000000    0.0174200000000000    0.3531700000000000 C
   0.9706850000000000    0.1064100000000000    0.4747000000000000 C
   0.5859000000000000    0.0767800000000000    0.4190050000000000 C
   0.8904750000000000    0.2740500000000000    0.2552500000000000 C
   0.5473650000000000    0.0849900000000000    0.4740600000000000 C
   0.5361399999999999    0.1301800000000000    0.3104600000000000 C
   0.9710150000000000    0.1001600000000000    0.0100000000000000 C
   0.6239650000000000    0.0624200000000000    0.4739000000000000 C
   0.5538600000000000    0.0120300000000000    0.3183700000000000 C
   0.9539150000000001    0.0965400000000000    0.2484850000000000 C
   0.6867900000000000    0.3316600000000000    0.2494300000000000 C
   0.7590200000000000    0.4123000000000000    0.4720000000000000 C
   0.6029850000000000    0.1776400000000000    0.2429700000000000 C
   0.7861500000000000    0.3739300000000000    0.3639000000000000 C
   0.7585700000000000    0.4196900000000000    0.4347150000000000 C
   0.7855700000000000    0.3593800000000000    0.1549950000000000 C
   0.7947900000000000    0.4169300000000000    0.1337000000000000 C
   0.6830050000000000    0.2088200000000000    0.2523500000000000 C
   0.7998200000000000    0.4313700000000000    0.3825000000000000 C
   0.7582400000000000    0.4013000000000000    0.0429350000000000 C