H8 O5
1.0
  27.4019684103056917    0.0000000000000000   -0.0416081795929564
   0.0011472440474456   13.0955789742113033   -4.4963903315911020
   0.0000000000000000    0.0000000000000000   28.1140000000000008
H O
8 5
direct
   0.8438720099780760    0.2550231225117823    0.4537244310048276 H
   0.7879629109732497    0.2108761370155400    0.4323212412780994 H
   0.9317896468992958    0.6450720284464095    0.3051443014198860 H
   0.8865216654984028    0.4536906659396625    0.2754785197954852 H
   0.8435316193142628    0.5264929972763296    0.2733700741762791 H
   0.7466907790221499    0.6426152229531699    0.4349826486265007 H
   0.8095846529269072    0.4566950697695599    0.3995164011769755 H
   0.7663006987760419    0.5288981507557290    0.3460572281688081 H
   0.8093000000000000    0.2682300000000000    0.4496000000000000 O
   0.9647250000000001    0.6248500000000000    0.3104000000000000 O
   0.9190750000000000    0.4801100000000000    0.2854250000000000 O
   0.7601450000000001    0.6291500000000000    0.4641400000000000 O
   0.8076950000000001    0.4874700000000000    0.4357650000000000 O
