Y16 H98 C184 O96
1.0
  20.7552788645962067    0.0000000000000000    6.0103297124904902
   1.4974446877716063   10.2717637569927263    3.0138031998780650
   0.0000000000000000    0.0000000000000000   36.7779999999999987
Y H C O
16 98 184 96
direct
   0.2725000000000000    0.4727700000000000    0.6991900000000000 Y
   0.7725000000000000    0.4727700000000000    0.6991900000000000 Y
   0.7638950000000000    0.4543500000000000    0.5507900000000000 Y
   0.2638950000000000    0.4543500000000000    0.5507900000000000 Y
   0.2272900000000000    0.5274799999999999    0.8007550000000000 Y
   0.7272900000000000    0.5274799999999999    0.8007550000000000 Y
   0.7363999999999999    0.5450800000000000    0.9491050000000000 Y
   0.2364000000000000    0.5450800000000000    0.9491050000000000 Y
   0.7725000000000000    0.4727700000000000    0.1991900000000000 Y
   0.2725000000000000    0.4727700000000000    0.1991900000000000 Y
   0.7638950000000000    0.4543500000000000    0.0507900000000000 Y
   0.2638950000000000    0.4543500000000000    0.0507900000000000 Y
   0.2272900000000000    0.5274799999999999    0.3007550000000000 Y
   0.7272900000000000    0.5274799999999999    0.3007550000000000 Y
   0.7363999999999999    0.5450800000000000    0.4491050000000000 Y
   0.2364000000000000    0.5450800000000000    0.4491050000000000 Y
   0.0024600000000000    0.4172700000000000    0.6929600000000000 H
   0.1066550000000000    0.4338500000000000    0.7072050000000000 H
   0.9980300000000000    0.5818000000000000    0.8071250000000000 H
   0.8936649999999999    0.5661500000000000    0.7929050000000000 H
   0.0024600000000000    0.4172700000000000    0.1929600000000000 H
   0.1066550000000000    0.4338500000000000    0.2072050000000000 H
   0.9980300000000000    0.5818000000000000    0.3071250000000000 H
   0.8936649999999999    0.5661500000000000    0.2929050000000000 H
   0.5024600000000000    0.4172700000000000    0.1929600000000000 H
   0.6066549999999999    0.4338500000000000    0.2072050000000000 H
   0.4980300000000000    0.5818000000000000    0.3071250000000000 H
   0.3936650000000000    0.5661500000000000    0.2929050000000000 H
   0.7091200000000000    0.0049700000000000    0.9426600000000001 H
   0.7174350000000000    0.2132800000000000    0.9568700000000000 H
   0.7905800000000001    0.9961800000000000    0.0573200000000000 H
   0.7827200000000001    0.7874100000000001    0.0431900000000000 H
   0.2091200000000000    0.0049700000000000    0.9426600000000001 H
   0.2174350000000000    0.2132800000000000    0.9568700000000000 H
   0.2905800000000000    0.9961800000000000    0.0573200000000000 H
   0.2827200000000000    0.7874100000000001    0.0431900000000000 H
   0.7091200000000000    0.0049700000000000    0.4426600000000000 H
   0.7174350000000000    0.2132800000000000    0.4568700000000000 H
   0.7905800000000001    0.9961800000000000    0.5573200000000000 H
   0.7827200000000001    0.7874100000000001    0.5431900000000000 H
   0.2585850000000000    0.8760599999999999    0.6435450000000000 H
   0.2549150000000000    0.1162900000000000    0.6130599999999999 H
   0.1813850000000000    0.9583199999999999    0.7565950000000000 H
   0.1799050000000000    0.1977100000000000    0.7265450000000000 H
   0.5024600000000000    0.4172700000000000    0.6929600000000000 H
   0.6066549999999999    0.4338500000000000    0.7072050000000000 H
   0.4980300000000000    0.5818000000000000    0.8071250000000000 H
   0.3936650000000000    0.5661500000000000    0.7929050000000000 H
   0.7201264325730456    0.5101840962420724    0.6842516413536599 H
   0.7585850000000001    0.8760599999999999    0.6435450000000000 H
   0.7549150000000000    0.1162900000000000    0.6130599999999999 H
   0.6813850000000000    0.9583199999999999    0.7565950000000000 H
   0.6799050000000000    0.1977100000000000    0.7265450000000000 H
   0.2091200000000000    0.0049700000000000    0.4426600000000000 H
   0.2174350000000000    0.2132800000000000    0.4568700000000000 H
   0.2905800000000000    0.9961800000000000    0.5573200000000000 H
   0.2827200000000000    0.7874100000000001    0.5431900000000000 H
   0.3555132233365382    0.5630781519897509    0.6455722022294387 H
   0.3258273586782571    0.6192347625535890    0.5510142605248157 H
   0.3568165017883433    0.6206211516884542    0.5913359988564134 H
   0.6495405933673082    0.5713594172534449    0.5236113842107275 H
   0.6687381068103304    0.4930072777779915    0.5777256287596533 H
   0.0625400000000000    0.4819600000000000    0.6062750000000000 H
   0.9425300000000000    0.4899100000000000    0.6371400000000000 H
   0.0208300000000000    0.6369200000000000    0.5000000000000000 H
   0.9016250000000000    0.6391000000000000    0.5236450000000000 H
   0.2412800000000000    0.1245100000000000    0.8563000000000001 H
   0.2449950000000000    0.8851000000000000    0.8869950000000000 H
   0.3184550000000000    0.0418900000000000    0.7432900000000000 H
   0.3193250000000000    0.8037300000000001    0.7734900000000000 H
   0.7412799999999999    0.1245100000000000    0.8563000000000001 H
   0.7449950000000000    0.8851000000000000    0.8869950000000000 H
   0.8184549999999999    0.0418900000000000    0.7432900000000000 H
   0.8193250000000001    0.8037300000000001    0.7734900000000000 H
   0.9379850000000001    0.5175600000000000    0.8935800000000000 H
   0.0578650000000000    0.5102500000000000    0.8629450000000001 H
   0.9793400000000000    0.3628100000000000    0.0066200000000000 H
   0.0986900000000000    0.3600800000000000    0.9764450000000000 H
   0.4379850000000000    0.5175600000000000    0.8935800000000000 H
   0.5578650000000001    0.5102500000000000    0.8629450000000001 H
   0.4793400000000000    0.3628100000000000    0.0066200000000000 H
   0.5986899999999999    0.3600800000000000    0.9764450000000000 H
   0.7585850000000001    0.8760599999999999    0.1435450000000000 H
   0.7549150000000000    0.1162900000000000    0.1130600000000000 H
   0.6813850000000000    0.9583199999999999    0.2565950000000000 H
   0.6799050000000000    0.1977100000000000    0.2265450000000000 H
   0.2585850000000000    0.8760599999999999    0.1435450000000000 H
   0.2549150000000000    0.1162900000000000    0.1130600000000000 H
   0.1813850000000000    0.9583199999999999    0.2565950000000000 H
   0.1799050000000000    0.1977100000000000    0.2265450000000000 H
   0.5625400000000000    0.4819600000000000    0.1062750000000000 H
   0.4425300000000000    0.4899100000000000    0.1371400000000000 H
   0.5208300000000000    0.6369200000000000    0.0000000000000000 H
   0.4016250000000000    0.6391000000000000    0.0236450000000000 H
   0.0625400000000000    0.4819600000000000    0.1062750000000000 H
   0.9425300000000000    0.4899100000000000    0.1371400000000000 H
   0.0208300000000000    0.6369200000000000    0.0000000000000000 H
   0.9016250000000000    0.6391000000000000    0.0236450000000000 H
   0.2412800000000000    0.1245100000000000    0.3563000000000000 H
   0.2449950000000000    0.8851000000000000    0.3869950000000000 H
   0.3184550000000000    0.0418900000000000    0.2432900000000000 H
   0.3193250000000000    0.8037300000000001    0.2734900000000000 H
   0.7412799999999999    0.1245100000000000    0.3563000000000000 H
   0.7449950000000000    0.8851000000000000    0.3869950000000000 H
   0.8184549999999999    0.0418900000000000    0.2432900000000000 H
   0.8193250000000001    0.8037300000000001    0.2734900000000000 H
   0.9379850000000001    0.5175600000000000    0.3935800000000000 H
   0.0578650000000000    0.5102500000000000    0.3629450000000000 H
   0.9793400000000000    0.3628100000000000    0.5066200000000000 H
   0.0986900000000000    0.3600800000000000    0.4764450000000000 H
   0.4379850000000000    0.5175600000000000    0.3935800000000000 H
   0.5578650000000001    0.5102500000000000    0.3629450000000000 H
   0.4793400000000000    0.3628100000000000    0.5066200000000000 H
   0.5986899999999999    0.3600800000000000    0.4764450000000000 H
   0.8798400000000000    0.4828300000000000    0.7322800000000000 C
   0.1200050000000000    0.5174600000000000    0.7679199999999999 C
   0.0018850000000000    0.4536300000000000    0.7178550000000000 C
   0.0599300000000000    0.4626300000000000    0.7258249999999999 C
   0.9984750000000000    0.5456800000000001    0.7822050000000000 C
   0.9403300000000000    0.5371700000000000    0.7742550000000000 C
   0.0585600000000000    0.5090600000000000    0.7581400000000000 C
   0.9414700000000000    0.4909500000000000    0.7419400000000000 C
   0.8798400000000000    0.4828300000000000    0.2322800000000000 C
   0.1200050000000000    0.5174600000000000    0.2679200000000000 C
   0.0018850000000000    0.4536300000000000    0.2178550000000000 C
   0.0599300000000000    0.4626300000000000    0.2258250000000000 C
   0.9984750000000000    0.5456800000000001    0.2822050000000000 C
   0.9403300000000000    0.5371700000000000    0.2742550000000000 C
   0.0585600000000000    0.5090600000000000    0.2581400000000000 C
   0.9414700000000000    0.4909500000000000    0.2419400000000000 C
   0.3798400000000000    0.4828300000000000    0.2322800000000000 C
   0.6200050000000000    0.5174600000000000    0.2679200000000000 C
   0.5018850000000000    0.4536300000000000    0.2178550000000000 C
   0.5599300000000000    0.4626300000000000    0.2258250000000000 C
   0.4984750000000000    0.5456800000000001    0.2822050000000000 C
   0.4403300000000000    0.5371700000000000    0.2742550000000000 C
   0.5585599999999999    0.5090600000000000    0.2581400000000000 C
   0.4414700000000000    0.4909500000000000    0.2419400000000000 C
   0.7418200000000000    0.7595400000000000    0.9823200000000001 C
   0.7587300000000000    0.2400200000000000    0.0177950000000000 C
   0.7270600000000000    0.0038100000000000    0.9676549999999999 C
   0.7315900000000000    0.1198500000000000    0.9756000000000000 C
   0.7727700000000000    0.9969900000000000    0.0323050000000000 C
   0.7684850000000000    0.8806900000000000    0.0244200000000000 C
   0.7545050000000000    0.1171400000000000    0.0080500000000000 C
   0.7457400000000000    0.8828600000000000    0.9919549999999999 C
   0.2418200000000000    0.7595400000000000    0.9823200000000001 C
   0.2587300000000000    0.2400200000000000    0.0177950000000000 C
   0.2270600000000000    0.0038100000000000    0.9676549999999999 C
   0.2315900000000000    0.1198500000000000    0.9756000000000000 C
   0.2727700000000000    0.9969900000000000    0.0323050000000000 C
   0.2684850000000000    0.8806900000000000    0.0244200000000000 C
   0.2545050000000000    0.1171400000000000    0.0080500000000000 C
   0.2457400000000000    0.8828600000000000    0.9919549999999999 C
   0.7418200000000000    0.7595400000000000    0.4823200000000000 C
   0.7587300000000000    0.2400200000000000    0.5177950000000000 C
   0.7270600000000000    0.0038100000000000    0.4676550000000000 C
   0.7315900000000000    0.1198500000000000    0.4756000000000000 C
   0.7727700000000000    0.9969900000000000    0.5323050000000000 C
   0.7684850000000000    0.8806900000000000    0.5244200000000000 C
   0.7545050000000000    0.1171400000000000    0.5080500000000000 C
   0.7457400000000000    0.8828600000000000    0.4919550000000000 C
   0.2225150000000000    0.3113000000000000    0.6503300000000000 C
   0.2282050000000000    0.7613000000000000    0.7198500000000000 C
   0.2410000000000000    0.9477000000000000    0.6612100000000000 C
   0.2391200000000000    0.0806200000000000    0.6444600000000000 C
   0.1969900000000000    0.9945700000000000    0.7254000000000000 C
   0.1961750000000000    0.1269400000000000    0.7085900000000001 C
   0.2181750000000000    0.1703500000000000    0.6681450000000000 C
   0.2210850000000000    0.9037800000000000    0.7018000000000000 C
   0.3798400000000000    0.4828300000000000    0.7322800000000000 C
   0.6200050000000000    0.5174600000000000    0.7679199999999999 C
   0.5018850000000000    0.4536300000000000    0.7178550000000000 C
   0.5599300000000000    0.4626300000000000    0.7258249999999999 C
   0.4984750000000000    0.5456800000000001    0.7822050000000000 C
   0.4403300000000000    0.5371700000000000    0.7742550000000000 C
   0.5585599999999999    0.5090600000000000    0.7581400000000000 C
   0.4414700000000000    0.4909500000000000    0.7419400000000000 C
   0.7225150000000000    0.3113000000000000    0.6503300000000000 C
   0.7282050000000000    0.7613000000000000    0.7198500000000000 C
   0.7410000000000000    0.9477000000000000    0.6612100000000000 C
   0.7391200000000000    0.0806200000000000    0.6444600000000000 C
   0.6969900000000000    0.9945700000000000    0.7254000000000000 C
   0.6961750000000000    0.1269400000000000    0.7085900000000001 C
   0.7181750000000000    0.1703500000000000    0.6681450000000000 C
   0.7210850000000000    0.9037800000000000    0.7018000000000000 C
   0.2418200000000000    0.7595400000000000    0.4823200000000000 C
   0.2587300000000000    0.2400200000000000    0.5177950000000000 C
   0.2270600000000000    0.0038100000000000    0.4676550000000000 C
   0.2315900000000000    0.1198500000000000    0.4756000000000000 C
   0.2727700000000000    0.9969900000000000    0.5323050000000000 C
   0.2684850000000000    0.8806900000000000    0.5244200000000000 C
   0.2545050000000000    0.1171400000000000    0.5080500000000000 C
   0.2457400000000000    0.8828600000000000    0.4919550000000000 C
   0.8449900000000000    0.5536600000000000    0.5997850000000000 C
   0.1195800000000000    0.5428400000000000    0.5299700000000001 C
   0.0265900000000000    0.5173200000000000    0.5886650000000000 C
   0.9603500000000000    0.5213200000000000    0.6057300000000000 C
   0.0032700000000000    0.6049300000000000    0.5247500000000000 C
   0.9370849999999999    0.6067200000000000    0.5415850000000000 C
   0.0483750000000000    0.5572100000000000    0.5480650000000000 C
   0.9154400000000000    0.5628900000000000    0.5820400000000000 C
   0.2766750000000000    0.6902600000000000    0.8496699999999999 C
   0.2717250000000000    0.2389500000000000    0.7800100000000000 C
   0.2588700000000000    0.0527800000000000    0.8386600000000000 C
   0.2606750000000000    0.9208300000000000    0.8555900000000001 C
   0.3025150000000000    0.0068700000000000    0.7746250000000000 C
   0.3032350000000000    0.8745200000000000    0.7914450000000000 C
   0.2787950000000000    0.0965400000000000    0.7980700000000001 C
   0.2813350000000000    0.8311200000000000    0.8318950000000001 C
   0.7766750000000000    0.6902600000000000    0.8496699999999999 C
   0.7717250000000000    0.2389500000000000    0.7800100000000000 C
   0.7588699999999999    0.0527800000000000    0.8386600000000000 C
   0.7606750000000000    0.9208300000000000    0.8555900000000001 C
   0.8025150000000000    0.0068700000000000    0.7746250000000000 C
   0.8032349999999999    0.8745200000000000    0.7914450000000000 C
   0.7787950000000000    0.0965400000000000    0.7980700000000001 C
   0.7813350000000000    0.8311200000000000    0.8318950000000001 C
   0.1555150000000000    0.4449800000000000    0.9002550000000000 C
   0.8807199999999999    0.4567100000000000    0.9698899999999999 C
   0.9738650000000000    0.4821000000000000    0.9112350000000000 C
   0.0400500000000000    0.4787800000000000    0.8943500000000000 C
   0.9970600000000001    0.3948100000000000    0.9752950000000000 C
   0.0632700000000000    0.3928100000000000    0.9584850000000000 C
   0.9519550000000000    0.4423700000000000    0.9518300000000000 C
   0.0849700000000000    0.4366800000000000    0.9180400000000000 C
   0.6555150000000000    0.4449800000000000    0.9002550000000000 C
   0.3807200000000000    0.4567100000000000    0.9698899999999999 C
   0.4738650000000000    0.4821000000000000    0.9112350000000000 C
   0.5400500000000000    0.4787800000000000    0.8943500000000000 C
   0.4970600000000000    0.3948100000000000    0.9752950000000000 C
   0.5632700000000000    0.3928100000000000    0.9584850000000000 C
   0.4519550000000000    0.4423700000000000    0.9518300000000000 C
   0.5849700000000000    0.4366800000000000    0.9180400000000000 C
   0.7225150000000000    0.3113000000000000    0.1503300000000000 C
   0.7282050000000000    0.7613000000000000    0.2198500000000000 C
   0.7410000000000000    0.9477000000000000    0.1612100000000000 C
   0.7391200000000000    0.0806200000000000    0.1444600000000000 C
   0.6969900000000000    0.9945700000000000    0.2254000000000000 C
   0.6961750000000000    0.1269400000000000    0.2085900000000000 C
   0.7181750000000000    0.1703500000000000    0.1681450000000000 C
   0.7210850000000000    0.9037800000000000    0.2018000000000000 C
   0.2225150000000000    0.3113000000000000    0.1503300000000000 C
   0.2282050000000000    0.7613000000000000    0.2198500000000000 C
   0.2410000000000000    0.9477000000000000    0.1612100000000000 C
   0.2391200000000000    0.0806200000000000    0.1444600000000000 C
   0.1969900000000000    0.9945700000000000    0.2254000000000000 C
   0.1961750000000000    0.1269400000000000    0.2085900000000000 C
   0.2181750000000000    0.1703500000000000    0.1681450000000000 C
   0.2210850000000000    0.9037800000000000    0.2018000000000000 C
   0.3449900000000000    0.5536600000000000    0.0997850000000000 C
   0.6195800000000000    0.5428400000000000    0.0299700000000000 C
   0.5265900000000000    0.5173200000000000    0.0886650000000000 C
   0.4603500000000000    0.5213200000000000    0.1057300000000000 C
   0.5032700000000000    0.6049300000000000    0.0247500000000000 C
   0.4370850000000000    0.6067200000000000    0.0415850000000000 C
   0.5483750000000001    0.5572100000000000    0.0480650000000000 C
   0.4154400000000000    0.5628900000000000    0.0820400000000000 C
   0.8449900000000000    0.5536600000000000    0.0997850000000000 C
   0.1195800000000000    0.5428400000000000    0.0299700000000000 C
   0.0265900000000000    0.5173200000000000    0.0886650000000000 C
   0.9603500000000000    0.5213200000000000    0.1057300000000000 C
   0.0032700000000000    0.6049300000000000    0.0247500000000000 C
   0.9370849999999999    0.6067200000000000    0.0415850000000000 C
   0.0483750000000000    0.5572100000000000    0.0480650000000000 C
   0.9154400000000000    0.5628900000000000    0.0820400000000000 C
   0.2766750000000000    0.6902600000000000    0.3496700000000000 C
   0.2717250000000000    0.2389500000000000    0.2800100000000000 C
   0.2588700000000000    0.0527800000000000    0.3386600000000000 C
   0.2606750000000000    0.9208300000000000    0.3555900000000000 C
   0.3025150000000000    0.0068700000000000    0.2746250000000000 C
   0.3032350000000000    0.8745200000000000    0.2914450000000000 C
   0.2787950000000000    0.0965400000000000    0.2980700000000000 C
   0.2813350000000000    0.8311200000000000    0.3318950000000000 C
   0.7766750000000000    0.6902600000000000    0.3496700000000000 C
   0.7717250000000000    0.2389500000000000    0.2800100000000000 C
   0.7588699999999999    0.0527800000000000    0.3386600000000000 C
   0.7606750000000000    0.9208300000000000    0.3555900000000000 C
   0.8025150000000000    0.0068700000000000    0.2746250000000000 C
   0.8032349999999999    0.8745200000000000    0.2914450000000000 C
   0.7787950000000000    0.0965400000000000    0.2980700000000000 C
   0.7813350000000000    0.8311200000000000    0.3318950000000000 C
   0.1555150000000000    0.4449800000000000    0.4002550000000000 C
   0.8807199999999999    0.4567100000000000    0.4698900000000000 C
   0.9738650000000000    0.4821000000000000    0.4112350000000000 C
   0.0400500000000000    0.4787800000000000    0.3943500000000000 C
   0.9970600000000001    0.3948100000000000    0.4752950000000000 C
   0.0632700000000000    0.3928100000000000    0.4584850000000000 C
   0.9519550000000000    0.4423700000000000    0.4518300000000000 C
   0.0849700000000000    0.4366800000000000    0.4180400000000000 C
   0.6555150000000000    0.4449800000000000    0.4002550000000000 C
   0.3807200000000000    0.4567100000000000    0.4698900000000000 C
   0.4738650000000000    0.4821000000000000    0.4112350000000000 C
   0.5400500000000000    0.4787800000000000    0.3943500000000000 C
   0.4970600000000000    0.3948100000000000    0.4752950000000000 C
   0.5632700000000000    0.3928100000000000    0.4584850000000000 C
   0.4519550000000000    0.4423700000000000    0.4518300000000000 C
   0.5849700000000000    0.4366800000000000    0.4180400000000000 C
   0.8828300000000000    0.4472200000000000    0.7016249999999999 O
   0.8239950000000000    0.5144300000000001    0.7542850000000000 O
   0.1167300000000000    0.5524000000000000    0.7987200000000000 O
   0.1760250000000000    0.4867700000000000    0.7459100000000000 O
   0.8828300000000000    0.4472200000000000    0.2016250000000000 O
   0.8239950000000000    0.5144300000000001    0.2542850000000000 O
   0.1167300000000000    0.5524000000000000    0.2987200000000000 O
   0.1760250000000000    0.4867700000000000    0.2459100000000000 O
   0.3828300000000000    0.4472200000000000    0.2016250000000000 O
   0.3239950000000000    0.5144300000000001    0.2542850000000000 O
   0.6167300000000000    0.5524000000000000    0.2987200000000000 O
   0.6760250000000000    0.4867700000000000    0.2459100000000000 O
   0.7246450000000000    0.7654100000000000    0.9514650000000000 O
   0.7571200000000000    0.6480000000000000    0.0045650000000000 O
   0.7760300000000000    0.2335200000000000    0.0486600000000000 O
   0.7436000000000000    0.3519400000000000    0.9956400000000001 O
   0.2246450000000000    0.7654100000000000    0.9514650000000000 O
   0.2571200000000000    0.6480000000000000    0.0045650000000000 O
   0.2760300000000000    0.2335200000000000    0.0486600000000000 O
   0.2436000000000000    0.3519400000000000    0.9956400000000001 O
   0.7246450000000000    0.7654100000000000    0.4514650000000000 O
   0.7571200000000000    0.6480000000000000    0.5045650000000000 O
   0.7760300000000000    0.2335200000000000    0.5486600000000000 O
   0.7436000000000000    0.3519400000000000    0.4956400000000000 O
   0.2340200000000000    0.3501700000000000    0.6135950000000000 O
   0.2149150000000000    0.3859100000000000    0.6733400000000000 O
   0.2147300000000000    0.7235500000000000    0.7568300000000000 O
   0.2492300000000000    0.6849600000000000    0.6965500000000000 O
   0.3828300000000000    0.4472200000000000    0.7016249999999999 O
   0.3239950000000000    0.5144300000000001    0.7542850000000000 O
   0.6167300000000000    0.5524000000000000    0.7987200000000000 O
   0.6760250000000000    0.4867700000000000    0.7459100000000000 O
   0.7340200000000000    0.3501700000000000    0.6135950000000000 O
   0.7149150000000000    0.3859100000000000    0.6733400000000000 O
   0.7147300000000000    0.7235500000000000    0.7568300000000000 O
   0.7492300000000001    0.6849600000000000    0.6965500000000000 O
   0.2246450000000000    0.7654100000000000    0.4514650000000000 O
   0.2571200000000000    0.6480000000000000    0.5045650000000000 O
   0.2760300000000000    0.2335200000000000    0.5486600000000000 O
   0.2436000000000000    0.3519400000000000    0.4956400000000000 O
   0.3253350000000000    0.5306800000000000    0.6365149999999999 O
   0.3079500000000000    0.5681600000000000    0.5766700000000000 O
   0.6383200000000000    0.5696900000000000    0.5000000000000000 O
   0.6578600000000000    0.5009200000000000    0.5532250000000000 O
   0.8253349999999999    0.5306800000000000    0.6365149999999999 O
   0.8079499999999999    0.5681600000000000    0.5766700000000000 O
   0.1383200000000000    0.5696900000000000    0.5000000000000000 O
   0.1578600000000000    0.5009200000000000    0.5532250000000000 O
   0.2650900000000000    0.6510700000000000    0.8864099999999999 O
   0.2840500000000000    0.6160400000000000    0.8265950000000000 O
   0.2846750000000000    0.2765100000000000    0.7430200000000000 O
   0.2513300000000000    0.3154200000000000    0.8032800000000000 O
   0.7650900000000000    0.6510700000000000    0.8864099999999999 O
   0.7840500000000000    0.6160400000000000    0.8265950000000000 O
   0.7846750000000000    0.2765100000000000    0.7430200000000000 O
   0.7513300000000001    0.3154200000000000    0.8032800000000000 O
   0.1750500000000000    0.4673900000000000    0.8635349999999999 O
   0.1927750000000000    0.4301500000000000    0.9232850000000000 O
   0.8619000000000000    0.4295300000000000    0.0068750000000000 O
   0.8424849999999999    0.4989300000000000    0.9466000000000000 O
   0.6750500000000000    0.4673900000000000    0.8635349999999999 O
   0.6927750000000000    0.4301500000000000    0.9232850000000000 O
   0.3619000000000000    0.4295300000000000    0.0068750000000000 O
   0.3424850000000000    0.4989300000000000    0.9466000000000000 O
   0.7340200000000000    0.3501700000000000    0.1135950000000000 O
   0.7149150000000000    0.3859100000000000    0.1733400000000000 O
   0.7147300000000000    0.7235500000000000    0.2568300000000000 O
   0.7492300000000001    0.6849600000000000    0.1965500000000000 O
   0.2340200000000000    0.3501700000000000    0.1135950000000000 O
   0.2149150000000000    0.3859100000000000    0.1733400000000000 O
   0.2147300000000000    0.7235500000000000    0.2568300000000000 O
   0.2492300000000000    0.6849600000000000    0.1965500000000000 O
   0.3253350000000000    0.5306800000000000    0.1365150000000000 O
   0.3079500000000000    0.5681600000000000    0.0766700000000000 O
   0.6383200000000000    0.5696900000000000    0.0000000000000000 O
   0.6578600000000000    0.5009200000000000    0.0532250000000000 O
   0.8253349999999999    0.5306800000000000    0.1365150000000000 O
   0.8079499999999999    0.5681600000000000    0.0766700000000000 O
   0.1383200000000000    0.5696900000000000    0.0000000000000000 O
   0.1578600000000000    0.5009200000000000    0.0532250000000000 O
   0.2650900000000000    0.6510700000000000    0.3864100000000000 O
   0.2840500000000000    0.6160400000000000    0.3265950000000000 O
   0.2846750000000000    0.2765100000000000    0.2430200000000000 O
   0.2513300000000000    0.3154200000000000    0.3032800000000000 O
   0.7650900000000000    0.6510700000000000    0.3864100000000000 O
   0.7840500000000000    0.6160400000000000    0.3265950000000000 O
   0.7846750000000000    0.2765100000000000    0.2430200000000000 O
   0.7513300000000001    0.3154200000000000    0.3032800000000000 O
   0.1750500000000000    0.4673900000000000    0.3635350000000000 O
   0.1927750000000000    0.4301500000000000    0.4232850000000000 O
   0.8619000000000000    0.4295300000000000    0.5068750000000000 O
   0.8424849999999999    0.4989300000000000    0.4466000000000000 O
   0.6750500000000000    0.4673900000000000    0.3635350000000000 O
   0.6927750000000000    0.4301500000000000    0.4232850000000000 O
   0.3619000000000000    0.4295300000000000    0.5068750000000000 O
   0.3424850000000000    0.4989300000000000    0.4466000000000000 O
