H8 C10 N2
1.0
  14.1188470446460492    0.0000000000000000    2.4567700604430809
   0.9796497485967964   28.2210996643117440    4.9461140410485793
   0.0000000000000000    0.0000000000000000   26.5279999999999987
H C N
8 10 2
direct
   0.1079500000000000    0.4677550000000000    0.9983200000000000 H
   0.1826100000000000    0.5016750000000000    0.8391700000000000 H
   0.1923000000000000    0.5869150000000000    0.8431100000000000 H
   0.1184600000000000    0.5506350000000000    0.0107000000000000 H
   0.2264200000000000    0.7345850000000000    0.8602500000000000 H
   0.2354200000000000    0.6499900000000001    0.8532500000000000 H
   0.0889700000000000    0.6221650000000000    0.0123700000000000 H
   0.0888100000000000    0.7078650000000000    0.0129800000000000 H
   0.1283900000000000    0.4954500000000000    0.9653400000000000 C
   0.1698100000000000    0.5143100000000000    0.8763000000000000 C
   0.1759100000000000    0.5619100000000000    0.8790900000000000 C
   0.1581900000000000    0.5769550000000000    0.9277300000000001 C
   0.1341800000000000    0.5421950000000000    0.9715800000000000 C
   0.1988300000000000    0.7082100000000000    0.8932300000000000 C
   0.2031000000000000    0.6604400000000000    0.8899100000000000 C
   0.1621100000000000    0.6275800000000000    0.9321700000000001 C
   0.1223400000000000    0.6451650000000000    0.9777600000000000 C
   0.1212900000000000    0.6935350000000000    0.9784200000000000 C
   0.1461300000000000    0.4811800000000000    0.9186600000000000 N
   0.1575100000000000    0.7249500000000000    0.9366000000000000 N
