H1 O1
1.0
  31.6519999807165000    0.0000000000000000   -0.0011048632294533
   0.0022067943057760   31.6099999229683490    0.0000000000000019
   0.0000000000000000    0.0000000000000000   37.2740000000000009
H O
1 1
direct
   0.0790744246293103    0.1424729399405268    0.0669560011590235 H
   0.0904100000000000    0.1690000000000000    0.0574450000000000 O
