H4 O2
1.0
  39.5411953215283845    0.0000000000000000   -4.1845569113995600
   4.1009377065195611   39.2601073322852017   -2.5810165022122615
   0.0000000000000000    0.0000000000000000   39.4680000000000035
H O
4 2
direct
   0.4529769092769735    0.0412538168103124    0.5525902004859369 H
   0.4268362828660822    0.0179242640705804    0.5270769638111199 H
   0.5458709404527732    0.9589086839656062    0.4475067209085481 H
   0.5720373128215072    0.9822206111494300    0.4730170265730391 H
   0.4300433333333333    0.0347100000000000    0.5461600000000000 O
   0.5688033333333333    0.9654666666666666    0.4539100000000000 O
