H6 C19 O8 F6
1.0
  39.5411953215283845    0.0000000000000000   -4.1845569113995600
   4.1009377065195611   39.2601073322852017   -2.5810165022122615
   0.0000000000000000    0.0000000000000000   39.4680000000000035
H C O F
6 19 8 6
direct
   0.0130900000000000    0.4271699999999999    0.0997866666666667 H
   0.0992066666666667    0.3559466666666666    0.0769333333333333 H
   0.1872133333333333    0.4315733333333333    0.0455800000000000 H
   0.1525833333333333    0.4319333333333333    0.0936400000000000 H
   0.0664866666666667    0.4096633333333333    0.0226066666666667 H
   0.9786033333333333    0.3792600000000000    0.1001000000000000 H
   0.0714366666666667    0.2983166666666667    0.0835533333333333 C
   0.9958699999999999    0.3131900000000000    0.0896966666666667 C
   0.0191233333333333    0.3407266666666666    0.0905833333333333 C
   0.0053000000000000    0.3745066666666667    0.0955866666666667 C
   0.0248600000000000    0.4014666666666666    0.0949166666666667 C
   0.0589500000000000    0.3952700000000000    0.0881666666666667 C
   0.0728166666666667    0.3614333333333333    0.0825000000000000 C
   0.0535800000000000    0.3341133333333333    0.0844266666666667 C
   0.0624566666666667    0.4601066666666667    0.0879300000000000 C
   0.1467033333333333    0.4224333333333333    0.0070500000000000 C
   0.1604833333333333    0.4273266666666666    0.0408533333333333 C
   0.1408000000000000    0.4270866666666666    0.0679500000000000 C
   0.1066200000000000    0.4208366666666666    0.0619033333333333 C
   0.0928900000000000    0.4149633333333333    0.0280533333333333 C
   0.1122266666666667    0.4165366666666667    0.0006200000000000 C
   0.1024833333333333    0.4223233333333333    0.1268333333333333 C
   0.0826566666666667    0.4239033333333333    0.0905500000000000 C
   0.1700033333333333    0.4215566666666666    0.9793399999999999 C
   0.0944333333333333    0.4159866666666666    0.9648433333333333 C
   0.0014333333333333    0.2857766666666667    0.0725066666666667 O
   0.0724466666666667    0.2816200000000000    0.1096233333333333 O
   0.0859533333333333    0.2885233333333333    0.0563033333333333 O
   0.9692333333333333    0.3198733333333333    0.1063966666666667 O
   0.1657233333333333    0.4030300000000000    0.9526399999999999 O
   0.1954133333333333    0.4399033333333333    0.9853566666666667 O
   0.0948966666666667    0.4415800000000000    0.9478266666666666 O
   0.0784900000000000    0.3897000000000000    0.9553799999999999 O
   0.0385633333333333    0.4607233333333333    0.0607000000000000 F
   0.0458566666666667    0.4708900000000000    0.1159500000000000 F
   0.0831000000000000    0.4844633333333333    0.0842833333333333 F
   0.1267733333333333    0.3954433333333333    0.1287433333333333 F
   0.1185500000000000    0.4507633333333333    0.1363566666666667 F
   0.0814666666666667    0.4192533333333333    0.1511733333333333 F
