H4 O2
1.0
  13.6596660806978623    0.0000000000000000   -2.9186549237332438
   0.0000000000000025   15.5120000000000005    0.0000000000000009
   0.0000000000000000    0.0000000000000000   19.5229999999999997
H O
4 2
direct
   0.0985171191905085    0.4999900000000000    0.8791190081021629 H
   0.0950479175835534    0.4999900000000000    0.9086514251209475 H
   0.5233417071524472    0.4999900000000000    0.6540474226250396 H
   0.4015765021622400    0.4999900000000000    0.6208377577195301 H
   0.0311900000000001    0.4999900000000000    0.8861800000000000 O
   0.4689100000000000    0.4999900000000000    0.6137899999999999 O
