H16 C6 N2
1.0
  13.6596660806978623    0.0000000000000000   -2.9186549237332438
   0.0000000000000025   15.5120000000000005    0.0000000000000009
   0.0000000000000000    0.0000000000000000   19.5229999999999997
H C N
16 6 2
direct
   0.5062300000000000    0.5528400000000000    0.6372700000000000 H
   0.3297900000000000    0.5565900000000000    0.5973400000000000 H
   0.3981700000000000    0.5569800000000000    0.7276500000000000 H
   0.2153600000000000    0.5567100000000000    0.6845800000000000 H
   0.9938600000000000    0.5528400000000000    0.8627100000000000 H
   0.1703100000000000    0.5565800000000000    0.9026100000000000 H
   0.1019000000000000    0.5569700000000000    0.7723000000000000 H
   0.2847100000000000    0.5567100000000000    0.8153600000000000 H
   0.9938600000000000    0.4471400000000000    0.8627100000000000 H
   0.1703100000000000    0.4433900000000000    0.9026100000000000 H
   0.1019000000000000    0.4430100000000000    0.7720000000000000 H
   0.2847100000000000    0.4432800000000000    0.8153600000000000 H
   0.5062300000000000    0.4471400000000000    0.6372700000000000 H
   0.3297900000000000    0.4434000000000000    0.5973400000000000 H
   0.3981700000000000    0.4430100000000000    0.7276500000000000 H
   0.2153600000000000    0.4432800000000000    0.6845800000000000 H
   0.3669700000000000    0.4999900000000000    0.6244600000000000 C
   0.3594500000000000    0.4999900000000000    0.7013700000000000 C
   0.2536600000000000    0.4999900000000000    0.7114100000000000 C
   0.1331200000000000    0.4999900000000000    0.8754900000000000 C
   0.1406300000000000    0.4999900000000000    0.7985700000000000 C
   0.2464100000000000    0.4999900000000000    0.7885300000000000 C
   0.4689100000000000    0.4999900000000000    0.6137899999999999 N
   0.0311900000000000    0.4999900000000000    0.8861800000000000 N
