Al28 H140 C248 O140
1.0
  26.8459983644481639    0.0000000000000000   -0.0093710216295006
   0.0251444480157965   13.4639764696843276    0.0011749556509520
   0.0000000000000000    0.0000000000000000   32.9620000000000033
Al H C O
28 140 248 140
direct
   0.2500050000000000    0.0000000000000000    0.0000000000000000 Al
   0.1250000000000000    0.5000000000000000    0.2500100000000000 Al
   0.3750200000000000    0.5000000000000000    0.2499500000000000 Al
   0.1250050000000000    0.0000000000000000    0.4999900000000000 Al
   0.0000000000000000    0.5000000000000000    0.2499950000000000 Al
   0.2500100000000000    0.5000000000000000    0.2499950000000000 Al
   0.0000000000000000    0.0000000000000000    0.0000000000000000 Al
   0.7500050000000000    0.0000000000000000    0.0000000000000000 Al
   0.6250000000000000    0.5000000000000000    0.2500100000000000 Al
   0.8750200000000000    0.5000000000000000    0.2499500000000000 Al
   0.6250050000000000    0.0000000000000000    0.4999900000000000 Al
   0.5000000000000000    0.5000000000000000    0.2499950000000000 Al
   0.7500100000000001    0.5000000000000000    0.2499950000000000 Al
   0.5000000000000000    0.0000000000000000    0.0000000000000000 Al
   0.2500050000000000    0.0000000000000000    0.5000000000000000 Al
   0.1250000000000000    0.5000000000000000    0.7500100000000001 Al
   0.3750200000000000    0.5000000000000000    0.7499500000000000 Al
   0.1250050000000000    0.0000000000000000    0.9999899999999999 Al
   0.0000000000000000    0.5000000000000000    0.7499950000000000 Al
   0.2500100000000000    0.5000000000000000    0.7499950000000000 Al
   0.0000000000000000    0.0000000000000000    0.5000000000000000 Al
   0.7500050000000000    0.0000000000000000    0.5000000000000000 Al
   0.6250000000000000    0.5000000000000000    0.7500100000000001 Al
   0.8750200000000000    0.5000000000000000    0.7499500000000000 Al
   0.6250050000000000    0.0000000000000000    0.9999899999999999 Al
   0.5000000000000000    0.5000000000000000    0.7499950000000000 Al
   0.7500100000000001    0.5000000000000000    0.7499950000000000 Al
   0.5000000000000000    0.0000000000000000    0.5000000000000000 Al
   0.1425050000000000    0.3076900000000000    0.3452650000000000 H
   0.3925650000000000    0.3076700000000000    0.3452850000000000 H
   0.1422750000000000    0.1923000000000000    0.4053500000000000 H
   0.3923150000000000    0.1923000000000000    0.4053750000000000 H
   0.2327800000000000    0.3070300000000000    0.3445000000000000 H
   0.4827300000000000    0.3070100000000000    0.3445200000000000 H
   0.2326100000000000    0.1916700000000000    0.4046050000000000 H
   0.4825850000000000    0.1916200000000000    0.4046100000000000 H
   0.2324950000000000    0.1922600000000000    0.0952000000000000 H
   0.4825400000000000    0.1922000000000000    0.0952300000000000 H
   0.2326650000000000    0.3076400000000000    0.1552800000000000 H
   0.4827250000000000    0.3075400000000000    0.1553250000000000 H
   0.1423100000000000    0.1930900000000000    0.0945500000000000 H
   0.3922800000000000    0.1930600000000000    0.0946000000000000 H
   0.1424150000000000    0.3084400000000000    0.1546600000000000 H
   0.3923700000000000    0.3084200000000000    0.1546900000000000 H
   0.1074550000000000    0.6923300000000000    0.1547050000000000 H
   0.3575150000000000    0.6923100000000000    0.1547300000000000 H
   0.1077050000000000    0.8077000000000000    0.0946150000000000 H
   0.3577450000000000    0.8076900000000000    0.0946350000000000 H
   0.0172900000000000    0.6929900000000000    0.1554700000000000 H
   0.2672400000000000    0.6929700000000000    0.1554500000000000 H
   0.0174350000000000    0.8083700000000000    0.0953850000000000 H
   0.2674100000000000    0.8083300000000000    0.0953900000000000 H
   0.0174800000000000    0.8078000000000000    0.4047600000000000 H
   0.2675250000000000    0.8077400000000000    0.4047900000000000 H
   0.0172950000000000    0.6924500000000000    0.3446700000000000 H
   0.2673550000000000    0.6923600000000000    0.3447150000000000 H
   0.1077400000000000    0.8069400000000000    0.4053950000000000 H
   0.3577100000000000    0.8069000000000000    0.4054200000000000 H
   0.1076500000000000    0.6915800000000000    0.3453000000000000 H
   0.3576050000000000    0.6915500000000000    0.3453000000000000 H
   0.0626000000000000    0.8697200000000000    0.4936150000000000 H
   0.3126050000000000    0.8698700000000000    0.4933200000000000 H
   0.1874150000000000    0.1301300000000000    0.0066700000000000 H
   0.4374200000000000    0.1302800000000000    0.0063750000000000 H
   0.6425050000000000    0.3076900000000000    0.3452650000000000 H
   0.8925650000000001    0.3076700000000000    0.3452850000000000 H
   0.6422750000000000    0.1923000000000000    0.4053500000000000 H
   0.8923150000000000    0.1923000000000000    0.4053750000000000 H
   0.7327800000000000    0.3070300000000000    0.3445000000000000 H
   0.9827300000000000    0.3070100000000000    0.3445200000000000 H
   0.7326100000000000    0.1916700000000000    0.4046050000000000 H
   0.9825850000000000    0.1916200000000000    0.4046100000000000 H
   0.7324950000000000    0.1922600000000000    0.0952000000000000 H
   0.9825400000000000    0.1922000000000000    0.0952300000000000 H
   0.7326650000000000    0.3076400000000000    0.1552800000000000 H
   0.9827250000000001    0.3075400000000000    0.1553250000000000 H
   0.6423099999999999    0.1930900000000000    0.0945500000000000 H
   0.8922800000000000    0.1930600000000000    0.0946000000000000 H
   0.6424150000000000    0.3084400000000000    0.1546600000000000 H
   0.8923700000000000    0.3084200000000000    0.1546900000000000 H
   0.6074550000000000    0.6923300000000000    0.1547050000000000 H
   0.8575150000000000    0.6923100000000000    0.1547300000000000 H
   0.6077049999999999    0.8077000000000000    0.0946150000000000 H
   0.8577450000000000    0.8076900000000000    0.0946350000000000 H
   0.5172900000000000    0.6929900000000000    0.1554700000000000 H
   0.7672399999999999    0.6929700000000000    0.1554500000000000 H
   0.5174350000000000    0.8083700000000000    0.0953850000000000 H
   0.7674099999999999    0.8083300000000000    0.0953900000000000 H
   0.5174800000000001    0.8078000000000000    0.4047600000000000 H
   0.5172949999999999    0.6924500000000000    0.3446700000000000 H
   0.8577100000000000    0.8069000000000000    0.4054200000000000 H
   0.8576050000000000    0.6915500000000000    0.3453000000000000 H
   0.5626000000000000    0.8697200000000000    0.4936150000000000 H
   0.8126050000000000    0.8698700000000000    0.4933200000000000 H
   0.6874150000000000    0.1301300000000000    0.0066700000000000 H
   0.9374199999999999    0.1302800000000000    0.0063750000000000 H
   0.1425050000000000    0.3076900000000000    0.8452649999999999 H
   0.3925650000000000    0.3076700000000000    0.8452850000000001 H
   0.1422750000000000    0.1923000000000000    0.9053500000000000 H
   0.3923150000000000    0.1923000000000000    0.9053750000000000 H
   0.2327800000000000    0.3070300000000000    0.8445000000000000 H
   0.4827300000000000    0.3070100000000000    0.8445199999999999 H
   0.2326100000000000    0.1916700000000000    0.9046050000000000 H
   0.4825850000000000    0.1916200000000000    0.9046100000000000 H
   0.2324950000000000    0.1922600000000000    0.5952000000000000 H
   0.4825400000000000    0.1922000000000000    0.5952300000000000 H
   0.2326650000000000    0.3076400000000000    0.6552800000000000 H
   0.4827250000000000    0.3075400000000000    0.6553249999999999 H
   0.1423100000000000    0.1930900000000000    0.5945500000000000 H
   0.3922800000000000    0.1930600000000000    0.5946000000000000 H
   0.1424150000000000    0.3084400000000000    0.6546600000000000 H
   0.3923700000000000    0.3084200000000000    0.6546900000000000 H
   0.1074550000000000    0.6923300000000000    0.6547050000000000 H
   0.3575150000000000    0.6923100000000000    0.6547300000000000 H
   0.1077050000000000    0.8077000000000000    0.5946150000000000 H
   0.3577450000000000    0.8076900000000000    0.5946350000000000 H
   0.0172900000000000    0.6929900000000000    0.6554700000000000 H
   0.2672400000000000    0.6929700000000000    0.6554500000000000 H
   0.0174350000000000    0.8083700000000000    0.5953850000000001 H
   0.2674100000000000    0.8083300000000000    0.5953900000000000 H
   0.0174800000000000    0.8078000000000000    0.9047600000000000 H
   0.2675250000000000    0.8077400000000000    0.9047900000000000 H
   0.0172950000000000    0.6924500000000000    0.8446700000000000 H
   0.2673550000000000    0.6923600000000000    0.8447150000000000 H
   0.1077400000000000    0.8069400000000000    0.9053949999999999 H
   0.3577100000000000    0.8069000000000000    0.9054200000000000 H
   0.1076500000000000    0.6915800000000000    0.8452999999999999 H
   0.3576050000000000    0.6915500000000000    0.8452999999999999 H
   0.0626000000000000    0.8697200000000000    0.9936150000000000 H
   0.3126050000000000    0.8698700000000000    0.9933200000000000 H
   0.1874150000000000    0.1301300000000000    0.5066700000000000 H
   0.4374200000000000    0.1302800000000000    0.5063750000000000 H
   0.6425050000000000    0.3076900000000000    0.8452649999999999 H
   0.8925650000000001    0.3076700000000000    0.8452850000000001 H
   0.6422750000000000    0.1923000000000000    0.9053500000000000 H
   0.8923150000000000    0.1923000000000000    0.9053750000000000 H
   0.7327800000000000    0.3070300000000000    0.8445000000000000 H
   0.9827300000000000    0.3070100000000000    0.8445199999999999 H
   0.7326100000000000    0.1916700000000000    0.9046050000000000 H
   0.9825850000000000    0.1916200000000000    0.9046100000000000 H
   0.7324950000000000    0.1922600000000000    0.5952000000000000 H
   0.9825400000000000    0.1922000000000000    0.5952300000000000 H
   0.7326650000000000    0.3076400000000000    0.6552800000000000 H
   0.9827250000000001    0.3075400000000000    0.6553249999999999 H
   0.6423099999999999    0.1930900000000000    0.5945500000000000 H
   0.8922800000000000    0.1930600000000000    0.5946000000000000 H
   0.6424150000000000    0.3084400000000000    0.6546600000000000 H
   0.8923700000000000    0.3084200000000000    0.6546900000000000 H
   0.6074550000000000    0.6923300000000000    0.6547050000000000 H
   0.8575150000000000    0.6923100000000000    0.6547300000000000 H
   0.6077049999999999    0.8077000000000000    0.5946150000000000 H
   0.8577450000000000    0.8076900000000000    0.5946350000000000 H
   0.5172900000000000    0.6929900000000000    0.6554700000000000 H
   0.7672399999999999    0.6929700000000000    0.6554500000000000 H
   0.5174350000000000    0.8083700000000000    0.5953850000000001 H
   0.7674099999999999    0.8083300000000000    0.5953900000000000 H
   0.5174800000000001    0.8078000000000000    0.9047600000000000 H
   0.7675250000000000    0.8077400000000000    0.9047900000000000 H
   0.5172949999999999    0.6924500000000000    0.8446700000000000 H
   0.7673550000000000    0.6923600000000000    0.8447150000000000 H
   0.6077399999999999    0.8069400000000000    0.9053949999999999 H
   0.8577100000000000    0.8069000000000000    0.9054200000000000 H
   0.6076500000000000    0.6915800000000000    0.8452999999999999 H
   0.8576050000000000    0.6915500000000000    0.8452999999999999 H
   0.5626000000000000    0.8697200000000000    0.9936150000000000 H
   0.8126050000000000    0.8698700000000000    0.9933200000000000 H
   0.6874150000000000    0.1301300000000000    0.5066700000000000 H
   0.9374199999999999    0.1302800000000000    0.5063750000000000 H
   0.0626350000000000    0.3817100000000000    0.3056050000000000 C
   0.3127100000000000    0.3816900000000000    0.3055950000000000 C
   0.0626150000000000    0.3134000000000000    0.3413100000000000 C
   0.3126800000000000    0.3134000000000000    0.3413100000000000 C
   0.1077500000000000    0.2814700000000000    0.3584200000000000 C
   0.3578050000000000    0.2814700000000000    0.3584000000000000 C
   0.0623700000000000    0.1179200000000000    0.4443000000000000 C
   0.3124000000000000    0.1179400000000000    0.4443000000000000 C
   0.0624200000000000    0.1857500000000000    0.4083700000000000 C
   0.3124550000000000    0.1857700000000000    0.4083750000000000 C
   0.1076550000000000    0.2180100000000000    0.3916950000000000 C
   0.3577000000000000    0.2180100000000000    0.3917100000000000 C
   0.0173900000000000    0.2810900000000000    0.3580100000000000 C
   0.2674450000000000    0.2811000000000000    0.3580050000000000 C
   0.0172750000000000    0.2176200000000000    0.3912850000000000 C
   0.2673200000000000    0.2176500000000000    0.3912800000000000 C
   0.0624000000000000    0.1183000000000000    0.0556000000000000 C
   0.3123750000000000    0.1183000000000000    0.0556050000000000 C
   0.0624150000000000    0.1865900000000000    0.0913150000000000 C
   0.3123850000000000    0.1866000000000000    0.0913150000000000 C
   0.0172750000000000    0.2184500000000000    0.1084050000000000 C
   0.2672400000000000    0.2185000000000000    0.1083850000000000 C
   0.0626100000000000    0.3820500000000000    0.1943100000000000 C
   0.3125550000000000    0.3820900000000000    0.1943000000000000 C
   0.0625700000000000    0.3142200000000000    0.1583800000000000 C
   0.3125200000000000    0.3142500000000000    0.1583750000000000 C
   0.0173450000000000    0.2819000000000000    0.1416500000000000 C
   0.2673000000000000    0.2819600000000000    0.1416600000000000 C
   0.1076300000000000    0.2189500000000000    0.1080450000000000 C
   0.3575950000000000    0.2189400000000000    0.1080550000000000 C
   0.1077200000000000    0.2824000000000000    0.1413150000000000 C
   0.3576750000000000    0.2824000000000000    0.1413300000000000 C
   0.1873100000000000    0.6183100000000000    0.1943950000000000 C
   0.4373850000000000    0.6182800000000001    0.1943850000000000 C
   0.1873400000000000    0.6866000000000000    0.1586850000000000 C
   0.4374050000000000    0.6865900000000000    0.1586500000000000 C
   0.1422150000000000    0.7185300000000000    0.1415600000000000 C
   0.3922700000000000    0.7185200000000000    0.1415700000000000 C
   0.1876200000000000    0.8820600000000000    0.0556850000000000 C
   0.4376500000000000    0.8820800000000000    0.0556900000000000 C
   0.1875650000000000    0.8142300000000000    0.0916150000000000 C
   0.4376000000000000    0.8142500000000000    0.0916200000000000 C
   0.1423200000000000    0.7819900000000000    0.1082850000000000 C
   0.3923650000000000    0.7819900000000000    0.1082950000000000 C
   0.2325750000000000    0.7189000000000000    0.1419900000000000 C
   0.4826300000000000    0.7189100000000000    0.1419800000000000 C
   0.2327000000000000    0.7823500000000000    0.1087100000000000 C
   0.4827450000000000    0.7823800000000000    0.1087100000000000 C
   0.1876450000000000    0.8817000000000000    0.4443850000000000 C
   0.4376200000000000    0.8816900000000000    0.4443900000000000 C
   0.1876350000000000    0.8134000000000000    0.4086800000000000 C
   0.4376050000000000    0.8134100000000000    0.4086800000000000 C
   0.2327800000000000    0.7815000000000000    0.3916050000000000 C
   0.4827450000000000    0.7815500000000000    0.3915850000000000 C
   0.1874650000000000    0.6179100000000000    0.3056900000000000 C
   0.4374100000000000    0.6179500000000000    0.3056800000000000 C
   0.1875000000000000    0.6857500000000000    0.3416000000000000 C
   0.4374500000000000    0.6857799999999999    0.3416100000000000 C
   0.2327200000000000    0.7180299999999999    0.3583350000000000 C
   0.4826750000000000    0.7181000000000000    0.3583100000000000 C
   0.1424250000000000    0.7810500000000000    0.3919350000000000 C
   0.3923900000000000    0.7810400000000000    0.3919500000000000 C
   0.1423450000000000    0.7176000000000000    0.3586650000000000 C
   0.3923000000000000    0.7175900000000000    0.3586750000000000 C
   0.5626350000000000    0.3817100000000000    0.3056050000000000 C
   0.8127100000000000    0.3816900000000000    0.3055950000000000 C
   0.5626150000000000    0.3134000000000000    0.3413100000000000 C
   0.8126800000000001    0.3134000000000000    0.3413100000000000 C
   0.6077500000000000    0.2814700000000000    0.3584200000000000 C
   0.8578049999999999    0.2814700000000000    0.3584000000000000 C
   0.5623700000000000    0.1179200000000000    0.4443000000000000 C
   0.8124000000000000    0.1179400000000000    0.4443000000000000 C
   0.5624200000000000    0.1857500000000000    0.4083700000000000 C
   0.8124549999999999    0.1857700000000000    0.4083750000000000 C
   0.6076550000000001    0.2180100000000000    0.3916950000000000 C
   0.8577000000000000    0.2180100000000000    0.3917100000000000 C
   0.5173900000000000    0.2810900000000000    0.3580100000000000 C
   0.7674449999999999    0.2811000000000000    0.3580050000000000 C
   0.5172750000000000    0.2176200000000000    0.3912850000000000 C
   0.7673200000000000    0.2176500000000000    0.3912800000000000 C
   0.5624000000000000    0.1183000000000000    0.0556000000000000 C
   0.8123750000000001    0.1183000000000000    0.0556050000000000 C
   0.5624150000000000    0.1865900000000000    0.0913150000000000 C
   0.8123850000000000    0.1866000000000000    0.0913150000000000 C
   0.5172750000000000    0.2184500000000000    0.1084050000000000 C
   0.7672399999999999    0.2185000000000000    0.1083850000000000 C
   0.5626100000000001    0.3820500000000000    0.1943100000000000 C
   0.8125550000000000    0.3820900000000000    0.1943000000000000 C
   0.5625700000000000    0.3142200000000000    0.1583800000000000 C
   0.8125200000000000    0.3142500000000000    0.1583750000000000 C
   0.5173449999999999    0.2819000000000000    0.1416500000000000 C
   0.7673000000000000    0.2819600000000000    0.1416600000000000 C
   0.6076300000000000    0.2189500000000000    0.1080450000000000 C
   0.8575950000000000    0.2189400000000000    0.1080550000000000 C
   0.6077200000000000    0.2824000000000000    0.1413150000000000 C
   0.8576750000000000    0.2824000000000000    0.1413300000000000 C
   0.6873100000000000    0.6183100000000000    0.1943950000000000 C
   0.9373850000000000    0.6182800000000001    0.1943850000000000 C
   0.6873400000000001    0.6866000000000000    0.1586850000000000 C
   0.9374050000000000    0.6865900000000000    0.1586500000000000 C
   0.6422150000000000    0.7185300000000000    0.1415600000000000 C
   0.8922700000000000    0.7185200000000000    0.1415700000000000 C
   0.6876200000000000    0.8820600000000000    0.0556850000000000 C
   0.9376500000000000    0.8820800000000000    0.0556900000000000 C
   0.6875650000000000    0.8142300000000000    0.0916150000000000 C
   0.9376000000000000    0.8142500000000000    0.0916200000000000 C
   0.6423200000000000    0.7819900000000000    0.1082850000000000 C
   0.8923650000000001    0.7819900000000000    0.1082950000000000 C
   0.7325750000000000    0.7189000000000000    0.1419900000000000 C
   0.9826300000000000    0.7189100000000000    0.1419800000000000 C
   0.7327000000000000    0.7823500000000000    0.1087100000000000 C
   0.9827450000000000    0.7823800000000000    0.1087100000000000 C
   0.9376200000000000    0.8816900000000000    0.4443900000000000 C
   0.9376050000000000    0.8134100000000000    0.4086800000000000 C
   0.9827450000000000    0.7815500000000000    0.3915850000000000 C
   0.9374100000000001    0.6179500000000000    0.3056800000000000 C
   0.9374500000000000    0.6857799999999999    0.3416100000000000 C
   0.9826750000000000    0.7181000000000000    0.3583100000000000 C
   0.8923900000000000    0.7810400000000000    0.3919500000000000 C
   0.8923000000000000    0.7175900000000000    0.3586750000000000 C
   0.0626350000000000    0.3817100000000000    0.8056050000000000 C
   0.3127100000000000    0.3816900000000000    0.8055950000000001 C
   0.0626150000000000    0.3134000000000000    0.8413100000000000 C
   0.3126800000000000    0.3134000000000000    0.8413100000000000 C
   0.1077500000000000    0.2814700000000000    0.8584200000000000 C
   0.3578050000000000    0.2814700000000000    0.8584000000000001 C
   0.0623700000000000    0.1179200000000000    0.9442999999999999 C
   0.3124000000000000    0.1179400000000000    0.9442999999999999 C
   0.0624200000000000    0.1857500000000000    0.9083700000000000 C
   0.3124550000000000    0.1857700000000000    0.9083749999999999 C
   0.1076550000000000    0.2180100000000000    0.8916950000000000 C
   0.3577000000000000    0.2180100000000000    0.8917100000000000 C
   0.0173900000000000    0.2810900000000000    0.8580099999999999 C
   0.2674450000000000    0.2811000000000000    0.8580050000000000 C
   0.0172750000000000    0.2176200000000000    0.8912850000000000 C
   0.2673200000000000    0.2176500000000000    0.8912800000000001 C
   0.0624000000000000    0.1183000000000000    0.5556000000000000 C
   0.3123750000000000    0.1183000000000000    0.5556050000000000 C
   0.0624150000000000    0.1865900000000000    0.5913150000000000 C
   0.3123850000000000    0.1866000000000000    0.5913150000000000 C
   0.0172750000000000    0.2184500000000000    0.6084050000000000 C
   0.2672400000000000    0.2185000000000000    0.6083850000000000 C
   0.0626100000000000    0.3820500000000000    0.6943100000000000 C
   0.3125550000000000    0.3820900000000000    0.6943000000000000 C
   0.0625700000000000    0.3142200000000000    0.6583800000000000 C
   0.3125200000000000    0.3142500000000000    0.6583749999999999 C
   0.0173450000000000    0.2819000000000000    0.6416500000000001 C
   0.2673000000000000    0.2819600000000000    0.6416600000000000 C
   0.1076300000000000    0.2189500000000000    0.6080449999999999 C
   0.3575950000000000    0.2189400000000000    0.6080550000000000 C
   0.1077200000000000    0.2824000000000000    0.6413150000000000 C
   0.3576750000000000    0.2824000000000000    0.6413300000000000 C
   0.1873100000000000    0.6183100000000000    0.6943950000000000 C
   0.4373850000000000    0.6182800000000001    0.6943850000000000 C
   0.1873400000000000    0.6866000000000000    0.6586850000000000 C
   0.4374050000000000    0.6865900000000000    0.6586500000000000 C
   0.1422150000000000    0.7185300000000000    0.6415600000000000 C
   0.3922700000000000    0.7185200000000000    0.6415700000000000 C
   0.1876200000000000    0.8820600000000000    0.5556850000000000 C
   0.4376500000000000    0.8820800000000000    0.5556900000000000 C
   0.1875650000000000    0.8142300000000000    0.5916150000000000 C
   0.4376000000000000    0.8142500000000000    0.5916200000000000 C
   0.1423200000000000    0.7819900000000000    0.6082850000000000 C
   0.3923650000000000    0.7819900000000000    0.6082950000000000 C
   0.2325750000000000    0.7189000000000000    0.6419900000000001 C
   0.4826300000000000    0.7189100000000000    0.6419800000000000 C
   0.2327000000000000    0.7823500000000000    0.6087100000000000 C
   0.4827450000000000    0.7823800000000000    0.6087100000000000 C
   0.1876450000000000    0.8817000000000000    0.9443850000000000 C
   0.4376200000000000    0.8816900000000000    0.9443900000000001 C
   0.1876350000000000    0.8134000000000000    0.9086799999999999 C
   0.4376050000000000    0.8134100000000000    0.9086799999999999 C
   0.2327800000000000    0.7815000000000000    0.8916050000000000 C
   0.4827450000000000    0.7815500000000000    0.8915850000000001 C
   0.1874650000000000    0.6179100000000000    0.8056900000000000 C
   0.4374100000000000    0.6179500000000000    0.8056800000000000 C
   0.1875000000000000    0.6857500000000000    0.8416000000000000 C
   0.4374500000000000    0.6857799999999999    0.8416100000000000 C
   0.2327200000000000    0.7180299999999999    0.8583350000000001 C
   0.4826750000000000    0.7181000000000000    0.8583100000000000 C
   0.1424250000000000    0.7810500000000000    0.8919349999999999 C
   0.3923900000000000    0.7810400000000000    0.8919500000000000 C
   0.1423450000000000    0.7176000000000000    0.8586650000000000 C
   0.3923000000000000    0.7175900000000000    0.8586750000000001 C
   0.5626350000000000    0.3817100000000000    0.8056050000000000 C
   0.8127100000000000    0.3816900000000000    0.8055950000000001 C
   0.5626150000000000    0.3134000000000000    0.8413100000000000 C
   0.8126800000000001    0.3134000000000000    0.8413100000000000 C
   0.6077500000000000    0.2814700000000000    0.8584200000000000 C
   0.8578049999999999    0.2814700000000000    0.8584000000000001 C
   0.5623700000000000    0.1179200000000000    0.9442999999999999 C
   0.8124000000000000    0.1179400000000000    0.9442999999999999 C
   0.5624200000000000    0.1857500000000000    0.9083700000000000 C
   0.8124549999999999    0.1857700000000000    0.9083749999999999 C
   0.6076550000000001    0.2180100000000000    0.8916950000000000 C
   0.8577000000000000    0.2180100000000000    0.8917100000000000 C
   0.5173900000000000    0.2810900000000000    0.8580099999999999 C
   0.7674449999999999    0.2811000000000000    0.8580050000000000 C
   0.5172750000000000    0.2176200000000000    0.8912850000000000 C
   0.7673200000000000    0.2176500000000000    0.8912800000000001 C
   0.5624000000000000    0.1183000000000000    0.5556000000000000 C
   0.8123750000000001    0.1183000000000000    0.5556050000000000 C
   0.5624150000000000    0.1865900000000000    0.5913150000000000 C
   0.8123850000000000    0.1866000000000000    0.5913150000000000 C
   0.5172750000000000    0.2184500000000000    0.6084050000000000 C
   0.7672399999999999    0.2185000000000000    0.6083850000000000 C
   0.5626100000000001    0.3820500000000000    0.6943100000000000 C
   0.8125550000000000    0.3820900000000000    0.6943000000000000 C
   0.5625700000000000    0.3142200000000000    0.6583800000000000 C
   0.8125200000000000    0.3142500000000000    0.6583749999999999 C
   0.5173449999999999    0.2819000000000000    0.6416500000000001 C
   0.7673000000000000    0.2819600000000000    0.6416600000000000 C
   0.6076300000000000    0.2189500000000000    0.6080449999999999 C
   0.8575950000000000    0.2189400000000000    0.6080550000000000 C
   0.6077200000000000    0.2824000000000000    0.6413150000000000 C
   0.8576750000000000    0.2824000000000000    0.6413300000000000 C
   0.6873100000000000    0.6183100000000000    0.6943950000000000 C
   0.9373850000000000    0.6182800000000001    0.6943850000000000 C
   0.6873400000000001    0.6866000000000000    0.6586850000000000 C
   0.9374050000000000    0.6865900000000000    0.6586500000000000 C
   0.6422150000000000    0.7185300000000000    0.6415600000000000 C
   0.8922700000000000    0.7185200000000000    0.6415700000000000 C
   0.6876200000000000    0.8820600000000000    0.5556850000000000 C
   0.9376500000000000    0.8820800000000000    0.5556900000000000 C
   0.6875650000000000    0.8142300000000000    0.5916150000000000 C
   0.9376000000000000    0.8142500000000000    0.5916200000000000 C
   0.6423200000000000    0.7819900000000000    0.6082850000000000 C
   0.8923650000000001    0.7819900000000000    0.6082950000000000 C
   0.7325750000000000    0.7189000000000000    0.6419900000000001 C
   0.9826300000000000    0.7189100000000000    0.6419800000000000 C
   0.7327000000000000    0.7823500000000000    0.6087100000000000 C
   0.9827450000000000    0.7823800000000000    0.6087100000000000 C
   0.6876450000000001    0.8817000000000000    0.9443850000000000 C
   0.9376200000000000    0.8816900000000000    0.9443900000000001 C
   0.6876350000000000    0.8134000000000000    0.9086799999999999 C
   0.9376050000000000    0.8134100000000000    0.9086799999999999 C
   0.7327800000000000    0.7815000000000000    0.8916050000000000 C
   0.9827450000000000    0.7815500000000000    0.8915850000000001 C
   0.6874650000000000    0.6179100000000000    0.8056900000000000 C
   0.9374100000000001    0.6179500000000000    0.8056800000000000 C
   0.6875000000000000    0.6857500000000000    0.8416000000000000 C
   0.9374500000000000    0.6857799999999999    0.8416100000000000 C
   0.7327200000000000    0.7180299999999999    0.8583350000000001 C
   0.9826750000000000    0.7181000000000000    0.8583100000000000 C
   0.6424250000000000    0.7810500000000000    0.8919349999999999 C
   0.8923900000000000    0.7810400000000000    0.8919500000000000 C
   0.6423449999999999    0.7176000000000000    0.8586650000000000 C
   0.8923000000000000    0.7175900000000000    0.8586750000000001 C
   0.0200450000000000    0.0922300000000000    0.4582500000000000 O
   0.2700800000000000    0.0922300000000000    0.4582500000000000 O
   0.0203600000000000    0.4080800000000000    0.2916000000000000 O
   0.2704400000000000    0.4080600000000000    0.2915900000000000 O
   0.1047000000000000    0.0920900000000000    0.4583000000000000 O
   0.3547300000000000    0.0921200000000000    0.4583150000000000 O
   0.1048850000000000    0.4080200000000000    0.2916550000000000 O
   0.3549750000000000    0.4079300000000000    0.2916000000000000 O
   0.1049400000000000    0.4077300000000000    0.2082750000000000 O
   0.3548700000000000    0.4078200000000000    0.2082550000000000 O
   0.1046750000000000    0.0919600000000000    0.0416050000000000 O
   0.3546450000000000    0.0919400000000000    0.0416150000000000 O
   0.0202850000000000    0.4078900000000000    0.2082900000000000 O
   0.2702200000000000    0.4078800000000000    0.2082950000000000 O
   0.0201450000000000    0.0920200000000000    0.0416350000000000 O
   0.2701150000000000    0.0920100000000000    0.0416350000000000 O
   0.2299400000000000    0.9077600000000000    0.0417450000000000 O
   0.4799700000000000    0.9077600000000000    0.0417400000000000 O
   0.2295800000000000    0.5919400000000000    0.2084000000000000 O
   0.4796600000000000    0.5919200000000000    0.2083950000000000 O
   0.1452900000000000    0.9078700000000000    0.0416800000000000 O