H6 O4
1.0
   6.9294366483186387    0.0000000000000000    0.0296308443781373
   0.0865802142892796   27.5858570683225501    0.0197401259409662
   0.0000000000000000    0.0000000000000000   21.9909999999999997
H O
6 4
direct
   1.0712002459034595    0.0155799639247547    0.3070541826857239 H
  -0.0649500583425345    0.9678252988291848    0.4101512497942884 H
   0.4504461107730914    0.9459867863547852    0.3839381741678429 H
   0.5154535845195864    0.9882121310074056    0.2979134432057110 H
   0.5042809613213356    0.9891395294116644    0.2979026738097784 H
   0.5486913880381319    0.0233888269706811    0.2873308251749992 H
   0.9660000000000000    0.0124650000000000    0.3360200000000000 O
   0.0672200000000000    0.9749399999999999    0.4213300000000000 O
   0.4835800000000000    0.9707049999999999    0.4134200000000000 O
   0.5409500000000000    0.0164950000000000    0.3305300000000000 O
