H6 O4
1.0
   6.9294366483186387    0.0000000000000000    0.0296308443781373
   0.0865802142892796   27.5858570683225501    0.0197401259409662
   0.0000000000000000    0.0000000000000000   21.9909999999999997
H O
6 4
direct
   0.5648673317764514    0.7155726756562887    0.4095313491889032 H
   0.4272026978190069    0.7652790567236971    0.3071039358699611 H
   0.0531364974051979    0.6967203765321608    0.3837529596990042 H
   0.9879114622791052    0.7359535178140375    0.2981476344481530 H
   0.9983159144974135    0.7399380198145726    0.2978208580828240 H
   0.9508211619079603    0.7736459337585769    0.2874665511096558 H
   0.4325100000000000    0.7232149999999999    0.4205100000000000 O
   0.5320500000000000    0.7622750000000000    0.3359600000000000 O
   0.0159100000000000    0.7209300000000000    0.4135800000000000 O
   0.9573800000000000    0.7665600000000000    0.3306200000000000 O
