B1 H12 C12 N8
1.0
  38.7767469802169416    0.0000000000000000   -5.6693575149426412
 -19.5592875552821006   33.3953535402316248   -5.6231927099047017
   0.0000000000000000    0.0000000000000000   17.8359999999999985
B H C N
1 12 12 8
direct
   0.5722733333333333    0.0076066666666667    0.9524600000000000 B
   0.6520266666666666    0.0791666666666667    0.0208900000000000 H
   0.5867366666666667    0.0195600000000000    0.1213300000000000 H
   0.5851899999999999    0.1257433333333333    0.1055300000000000 H
   0.5689133333333334    0.0814700000000000    0.9574900000000000 H
   0.5573100000000000    0.0449866666666667    0.8303500000000000 H
   0.6730699999999999    0.0377966666666667    0.8117000000000000 H
   0.5945799999999999    0.9843766666666667    0.8124500000000000 H
   0.5256933333333333    0.8964433333333333    0.0687100000000000 H
   0.5139033333333334    0.9569666666666666    0.0300000000000000 H
   0.6153733333333333    0.9641666666666666    0.9598100000000001 H
   0.4863133333333333    0.9962299999999999    0.7190400000000000 H
   0.4967900000000000    0.9323866666666666    0.8844600000000000 H
   0.6174966666666666    0.0115633333333333    0.8551900000000000 C
   0.6561733333333333    0.0375300000000000    0.8548000000000000 C
   0.6460800000000000    0.0604100000000000    0.9638000000000000 C
   0.5841200000000000    0.0424666666666667    0.0977900000000000 C
   0.5831833333333334    0.0969866666666667    0.0874000000000000 C
   0.5744433333333333    0.0747866666666667    0.0132500000000000 C
   0.5339666666666667    0.0147033333333333    0.8260400000000000 C
   0.5425666666666666    0.9196266666666666    0.0403700000000000 C
   0.5365466666666666    0.9494233333333333    0.0214200000000000 C
   0.5895400000000000    0.9537833333333332    0.9844900000000000 C
   0.4990000000000000    0.9900966666666666    0.7701000000000000 C
   0.5032533333333333    0.9562366666666666    0.8548900000000000 C
   0.6111666666666666    0.0263366666666667    0.9247400000000000 N
   0.5892200000000000    0.0763566666666667    0.1404400000000000 N
   0.5747700000000000    0.0399000000000000    0.0197700000000000 N
   0.6736433333333333    0.0679200000000000    0.9227100000000000 N
   0.5758366666666667    0.9226300000000000    0.0168900000000000 N
   0.5666200000000000    0.9712700000000000    0.9856400000000000 N
   0.5365366666666667    0.9931699999999999    0.8803200000000000 N
   0.4799066666666666    0.9532099999999999    0.7886600000000000 N
