H5 O3
1.0
  27.6559999957877487    0.0000000000000000   -0.0004826882579102
   0.0117361004575043   15.6379948244051121   -0.0049128225108712
   0.0000000000000000    0.0000000000000000   31.2820000000000000
H O
5 3
direct
   0.6596223334324359    0.8848096501872247    0.4423842559161602 H
   0.6077329457091053    0.9189053771590047    0.4593641458293489 H
   0.5110479936041622    0.5723263316341656    0.2860868451836728 H
   0.4889470063958378    0.5722536683658345    0.2861481548163272 H
   0.5362725328004073    0.6140418165801448    0.3068601303901023 H
   0.6428900000000000    0.9238600000000000    0.4618600000000000 O
   0.5243300000000000    0.5723700000000000    0.2860500000000000 O
   0.4756650000000000    0.5722100000000000    0.2861850000000000 O
