H12 C12 N3 O9
1.0
   9.1251749003621931    0.0000000000000000   -1.1431514719405591
  -9.4634087575748769   32.8042468547329520  -16.9096210182487070
   0.0000000000000000    0.0000000000000000   13.4962999999999997
H C N O
12 12 3 9
direct
   0.3318700000000000    0.8158200000000000    0.3899300000000000 H
   0.4253000000000000    0.8341999999999999    0.3073700000000000 H
   0.1924400000000000    0.7954366666666666    0.1441900000000000 H
   0.0994800000000000    0.7763300000000000    0.2243500000000000 H
   0.3697300000000000    0.9456466666666666    0.2924600000000000 H
   0.2993700000000000    0.9808100000000000    0.4012800000000000 H
   0.0976700000000000    0.9132699999999999    0.1689000000000000 H
   0.0409700000000000    0.9533433333333332    0.2715400000000000 H
   0.0415600000000000    0.8907900000000000    0.6166600000000000 H
   0.0413600000000000    0.9389666666666666    0.6249800000000000 H
   0.3294100000000000    0.9625800000000000    0.7024400000000000 H
   0.3197100000000000    0.9168999999999999    0.7092900000000000 H
   0.1938900000000000    0.8680933333333333    0.4631100000000000 C
   0.2697100000000000    0.8841599999999999    0.3148100000000000 C
   0.1788900000000000    0.9333133333333332    0.4692200000000000 C
   0.3142800000000000    0.8239600000000000    0.3220800000000000 C
   0.2122700000000000    0.7874433333333333    0.2126300000000000 C
   0.2821700000000000    0.7522633333333333    0.1719400000000000 C
   0.2698100000000000    0.9503633333333332    0.3274400000000000 C
   0.1386200000000000    0.9452966666666667    0.2364600000000000 C
   0.1855000000000000    0.9705766666666666    0.1783900000000000 C
   0.1103400000000000    0.9179599999999999    0.6183400000000000 C
   0.2553600000000000    0.9389666666666666    0.7141700000000000 C
   0.2326700000000000    0.9601999999999999    0.8337300000000000 C
   0.1533300000000000    0.9046833333333333    0.5082500000000000 N
   0.2505300000000000    0.8591433333333333    0.3656400000000000 N
   0.2327700000000000    0.9209433333333332    0.3700700000000000 N
   0.1819000000000000    0.8457699999999999    0.5065100000000000 O
   0.3186400000000000    0.8746799999999999    0.2288200000000000 O
   0.1559500000000000    0.9667733333333333    0.5188000000000000 O
   0.4050100000000000    0.7543133333333333    0.2308100000000000 O
   0.3299200000000000    0.9850633333333333    0.1944600000000000 O
   1.0813500000000000    0.9748733333333333    1.1181200000000000 O
   0.3580300000000000    0.9779033333333333   -0.0858200000000000 O
   1.1021100000000001    0.9603566666666666    0.8506899999999999 O
   0.2158200000000000    0.7200700000000000    0.0751000000000000 O
