H7 O5
1.0
   9.1251749003621931    0.0000000000000000   -1.1431514719405591
  -9.4634087575748769   32.8042468547329520  -16.9096210182487070
   0.0000000000000000    0.0000000000000000   13.4962999999999997
H O
7 5
direct
   0.6704126327055536    0.9165854109141330    0.8057999758981451 H
   0.7969130369428155    0.9169822357319627    0.9201847767015315 H
   0.8209732316471865    0.7215179353620728    1.1459766033232688 H
   0.7123052139795027    0.7052566202060796    0.0677085347886934 H
   0.9283690536641115    0.7191780826682010    0.8934851132828574 H
   0.6511759918124819    0.7062650968692424    0.8073476929252872 H
   1.2243457232311283    0.7799719649053524    1.0792692730789941 H
   0.5884000000000000    0.9222333333333332    0.7667000000000000 O
   0.8918500000000000    0.7057166666666667    1.1466499999999999 O
   0.6359600000000000    0.6882066666666666    0.0831800000000000 O
   0.9127000000000000    0.6913199999999999    0.8796300000000000 O
   0.6641600000000000    0.6809600000000000    0.8028000000000000 O
