H6 O4
1.0
   6.2539843936128934    0.0000000000000000   -0.0139715584800544
  -3.1016186779435784   15.0335346461682668   -3.9289722089994372
   0.0000000000000000    0.0000000000000000   16.6439999999999984
H O
6 4
direct
  -0.0055955545791536    0.9082657024214352    0.1894041177069042 H
   0.4656674869368791    0.7684192002846940    0.1985983060794809 H
   0.2402828510241766    0.8273446860309390    0.1921980534580019 H
   1.0055791849213318    0.0917403688092402    0.8105781831656542 H
   0.5343104424516977    0.2315766071490148    0.8014001805950677 H
   0.7597017392350761    0.1726619870278434    0.8077952200409811 H
   0.1404100000000000    0.9006800000000000    0.2012500000000000 O
   0.3964700000000000    0.8192300000000000    0.2048700000000000 O
   0.8595600000000000    0.0993100000000000    0.7987300000000001 O
   0.6034900000000000    0.1807600000000000    0.7951200000000000 O
