H4 O2
1.0
   6.2539843936128934    0.0000000000000000   -0.0139715584800544
  -3.1016186779435784   15.0335346461682668   -3.9289722089994372
   0.0000000000000000    0.0000000000000000   16.6439999999999984
H O
4 2
direct
   0.7025442474838173    0.9546089902980628    0.3341626695006261 H
   0.6157946871076594    1.0390215696935874    0.3989075001027054 H
   0.2974345872079227    0.0453846280233614    0.6658163976120396 H
   0.3841383793134602   -0.0390410045915604    0.6010770016309251 H
   0.6020900000000000    0.9959000000000000    0.3447700000000000 O
   0.3978800000000000    0.0040900000000000    0.6552100000000000 O
