H2 C2 N3
1.0
  38.9963918168352919    0.0000000000000000    7.1585843061223882
   8.8464767786293734   17.7513087634948867    5.6295270483621396
   0.0000000000000000    0.0000000000000000   26.7199999999999989
H C N
2 2 3
direct
   0.5375750000000000    0.8977700000000000    0.3393050000000000 H
   0.5306900000000000    0.8575300000000000    0.5000000000000000 H
   0.5444500000000000    0.8775100000000000    0.3798800000000000 C
   0.5415700000000000    0.8550700000000000    0.4633800000000000 C
   0.5801100000000000    0.8333600000000000    0.3947150000000000 N
   0.5781900000000000    0.8188900000000000    0.4485300000000000 N
   0.5192050000000000    0.8926300000000000    0.4218500000000000 N
