H2 O2
1.0
  38.9963918168352919    0.0000000000000000    7.1585843061223882
   8.8464767786293734   17.7513087634948867    5.6295270483621396
   0.0000000000000000    0.0000000000000000   26.7199999999999989
H O
2 2
direct
   0.8669774500239734    0.1540338968648400    0.2401168260474208 H
   0.7885878546952724    0.0865305656697930    0.4547670138716050 H
   0.8495650000000000    0.1883700000000000    0.2125750000000000 O
   0.7998550000000000    0.0818400000000000    0.4860500000000000 O
