In3 H26 C40 O24
1.0
  12.5129976653474362    0.0000000000000000   -0.0076437562501845
  -0.0166302077561007   12.7844232548511361   -7.3927038001675323
   0.0000000000000000    0.0000000000000000   14.7579999999999991
In H C O
3 26 40 24
direct
   0.8332900000000000    0.0004100000000000    0.5004200000000000 In
   0.1666500000000000    0.4994600000000000    0.9997100000000000 In
   0.4996400000000000    0.5002200000000000    0.4994800000000000 In
   0.6681009875143834    0.3457576528941519    0.5128184352049157 H
   0.6098175049518797    0.6382856905419367    0.7225103874892318 H
   0.6460221099044658    0.4916424231558517    0.6236884336446674 H
   0.0593409028057501    0.6348574731742831    0.9122883148132740 H
  -0.0066224309438326    0.3447503326085053    0.8344038090126444 H
   0.0192106215034018    0.4889080725693405    0.8668809825612380 H
   0.2451700000000000    0.7774799999999999    0.6602900000000000 H
   0.0869400000000000    0.8826700000000000    0.6600900000000000 H
   0.0907100000000000    0.7165100000000000    0.3225700000000000 H
   0.2431300000000000    0.6077100000000000    0.3226400000000000 H
   0.9127200000000000    0.3401700000000000    0.1177500000000000 H
   0.7539300000000000    0.3400600000000000    0.2224300000000000 H
   0.7558200000000000    0.6774400000000000    0.3919400000000000 H
   0.9088600000000000    0.6774500000000000    0.2837000000000000 H
   0.0867500000000000    0.1175900000000000    0.3403600000000000 H
   0.2454900000000000    0.2221900000000000    0.3397100000000000 H
   0.2444600000000000    0.3928600000000000    0.6773400000000001 H
   0.0914300000000000    0.2847700000000000    0.6778900000000000 H
   0.4229300000000000    0.6099700000000000    0.2825900000000000 H
   0.5769700000000000    0.7176800000000000    0.3902300000000000 H
   0.4200000000000000    0.7799000000000000    0.1153800000000000 H
   0.5799000000000000    0.8840100000000000    0.2193000000000000 H
   0.5769600000000000    0.2820900000000000    0.6102800000000000 H
   0.4229000000000000    0.3893200000000000    0.7174000000000000 H
   0.5798900000000000    0.1157300000000000    0.7810800000000000 H
   0.4198800000000000    0.2193000000000000    0.8845900000000000 H
   0.9877800000000000    0.8683200000000000    0.4917900000000000 C
   0.3452500000000000    0.6247100000000000    0.4925200000000000 C
   0.2098200000000000    0.7647699999999999    0.5873600000000000 C
   0.1226100000000000    0.8227800000000000    0.5872500000000000 C
   0.0794900000000000    0.8047200000000000    0.4915700000000000 C
   0.1237700000000000    0.7282400000000000    0.3959700000000000 C
   0.2097000000000000    0.6688900000000000    0.3960600000000000 C
   0.2534700000000000    0.6876500000000000    0.4917700000000000 C
   0.0119800000000000    0.5082600000000000    0.1319800000000000 C
   0.6530500000000000    0.5076400000000000    0.3744000000000000 C
   0.8768800000000000    0.4129900000000000    0.1774000000000000 C
   0.7893200000000000    0.4129400000000000    0.2351600000000000 C
   0.9201100000000000    0.5085600000000000    0.1955300000000000 C
   0.7893200000000000    0.6040400000000000    0.3308700000000000 C
   0.8756500000000000    0.6040900000000000    0.2718300000000000 C
   0.7453400000000000    0.5084500000000000    0.3120000000000000 C
   0.9878400000000001    0.1325500000000000    0.5088200000000001 C
   0.3465400000000000    0.3749100000000000    0.5070300000000000 C
   0.1227800000000000    0.1775000000000000    0.4131000000000000 C
   0.2103000000000000    0.2351800000000000    0.4127500000000000 C
   0.0797900000000000    0.1959800000000000    0.5088900000000000 C
   0.2107800000000000    0.3315800000000000    0.6040100000000000 C
   0.1244600000000000    0.2726000000000000    0.6043600000000000 C
   0.2544300000000000    0.3123900000000000    0.5081900000000000 C
   0.6807299999999999    0.8693200000000000    0.3716600000000000 C
   0.3191700000000000    0.6280400000000000    0.1306600000000000 C
   0.4565600000000000    0.6710300000000000    0.2703300000000000 C
   0.5433800000000000    0.7297600000000000    0.3290100000000000 C
   0.4559800000000000    0.7670000000000000    0.1752000000000000 C
   0.5439400000000000    0.8243600000000000    0.2325000000000000 C
   0.4120500000000000    0.6900700000000000    0.1938000000000000 C
   0.5878600000000000    0.8060500000000000    0.3096900000000000 C
   0.3190600000000000    0.3709800000000000    0.8691400000000000 C
   0.6807600000000000    0.1307600000000000    0.6290400000000000 C
   0.5433600000000000    0.2699100000000000    0.6714000000000000 C
   0.4565000000000000    0.3283700000000000    0.7298000000000000 C
   0.5439200000000000    0.1752700000000000    0.7678600000000000 C
   0.4558900000000000    0.2323400000000000    0.8249000000000000 C
   0.4119500000000000    0.3091600000000000    0.8061800000000000 C
   0.5878600000000000    0.1937400000000000    0.6908100000000000 C
   0.6303500000000000    0.4113200000000000    0.5375700000000000 O
   0.5976100000000000    0.5757200000000000    0.6554300000000000 O
   0.0699200000000000    0.5727000000000000    0.9177500000000000 O
   0.0326900000000000    0.4097100000000000    0.8738400000000000 O
   0.9300500000000000    0.9184600000000001    0.5734800000000000 O
   0.9670800000000001    0.8749200000000000    0.4104100000000000 O
   0.4027300000000000    0.6560300000000000    0.5743300000000000 O
   0.3664200000000000    0.5367600000000000    0.4109900000000000 O
   0.0697200000000000    0.4266200000000000    0.0817900000000000 O
   0.0328500000000000    0.5895300000000000    0.1253000000000000 O
   0.5970600000000000    0.4250600000000000    0.3438700000000000 O
   0.6298899999999999    0.5897200000000000    0.4613100000000000 O
   0.9299200000000000    0.0822600000000000    0.4271400000000000 O
   0.9671500000000000    0.1261100000000000    0.5902900000000000 O
   0.4025900000000000    0.3438900000000000    0.4244900000000000 O
   0.3695100000000000    0.4622500000000000    0.5887000000000000 O
   0.7365500000000000    0.9205200000000000    0.3405900000000000 O
   0.7039400000000000    0.8739500000000000    0.4587100000000000 O
   0.2633200000000000    0.6588900000000000    0.0792700000000000 O
   0.2960100000000000    0.5411600000000000    0.1263000000000000 O
   0.2631800000000000    0.3400600000000000    0.9204000000000000 O
   0.2959700000000000    0.4578100000000000    0.8734200000000000 O
   0.7366200000000001    0.0796800000000000    0.6601600000000000 O
   0.7039299999999999    0.1263000000000000    0.5420600000000000 O
