H6 O4
1.0
  12.5129976653474362    0.0000000000000000   -0.0076437562501845
  -0.0166302077561007   12.7844232548511361   -7.3927038001675323
   0.0000000000000000    0.0000000000000000   14.7579999999999991
H O
6 4
direct
   0.6681009875143834    0.3457576528941519    0.5128184352049157 H
   0.6098175049518797    0.6382856905419367    0.7225103874892318 H
   0.6460221099044658    0.4916424231558517    0.6236884336446674 H
   0.0593409028057501    0.6348574731742831    0.9122883148132740 H
  -0.0066224309438326    0.3447503326085053    0.8344038090126444 H
   0.0192106215034018    0.4889080725693405    0.8668809825612380 H
   0.6303500000000000    0.4113200000000000    0.5375700000000000 O
   0.5976100000000000    0.5757200000000000    0.6554300000000000 O
   0.0699200000000000    0.5727000000000000    0.9177500000000000 O
   0.0326900000000000    0.4097100000000000    0.8738400000000000 O
