H4 C8 O4
1.0
  15.9788253233603097    0.0000000000000000    9.1274720095730419
   5.3123087516209866   15.0964615414181118    9.1158624746062813
   0.0000000000000000    0.0000000000000000   36.8239999999999981
H C O
4 8 4
direct
   0.5472500000000000    0.5474000000000000    0.6679250000000000 H
   0.5487700000000000    0.5488800000000000    0.7838100000000000 H
   0.4527500000000000    0.4525900000000000    0.8320799999999999 H
   0.4512300000000000    0.4511200000000000    0.7161950000000000 H
   0.6108000000000000    0.6110700000000000    0.6943650000000000 C
   0.5535400000000000    0.5537100000000000    0.7230900000000000 C
   0.5262000000000000    0.5262500000000000    0.7038800000000001 C
   0.5270400000000000    0.5270600000000000    0.7693850000000000 C
   0.3892100000000000    0.3889200000000000    0.8056400000000000 C
   0.4464700000000000    0.4462900000000000    0.7769150000000000 C
   0.4738100000000000    0.4737500000000000    0.7961250000000000 C
   0.4729700000000000    0.4729300000000000    0.7306200000000000 C
   0.6332400000000000    0.6333700000000000    0.7141250000000000 O
   0.6324900000000000    0.6330100000000000    0.6525050000000000 O
   0.3667600000000000    0.3666200000000000    0.7858800000000000 O
   0.3675100000000000    0.3669800000000000    0.8474999999999999 O
