H7 O4
1.0
  21.0279999871890091    0.0000000000000000    0.0007340156700690
   0.0037983328366451   31.4342711752279271  -18.1142204153229400
   0.0000000000000000    0.0000000000000000   36.2719999999999985
H O
7 4
direct
   0.2054328286450028    0.5994736466515868    0.2411512643840993 H
   0.1310214886103077    0.5802221736598033    0.2297384857287778 H
   0.1594746881337463    0.7240517842313033    0.2595386234773616 H
   0.1231793254516688    0.6888055477953390    0.2192471014417864 H
  -0.0143179653932344    0.7641841413925972    0.3287636602659980 H
   0.9533649738367292    0.7516971958439296    0.3174963770759326 H
   0.0287355902093236    0.7671608076717963    0.2689193334973878 H
   0.1736500000000000    0.5792400000000000    0.2400350000000000 O
   0.1186200000000000    0.7168700000000000    0.2446350000000000 O
   0.9612500000000000    0.7492250000000000    0.2900000000000000 O
   0.0109400000000000    0.7562650000000000    0.2406850000000000 O
