Zn48 H712 C517 Br48 N94 O98
1.0
  21.0279999871890091    0.0000000000000000    0.0007340156700690
   0.0037983328366451   31.4342711752279271  -18.1142204153229400
   0.0000000000000000    0.0000000000000000   36.2719999999999985
Zn H C Br N O
48 712 517 48 94 98
direct
   0.6945200000000000    0.0377650000000000    0.7623800000000001 Zn
   0.8611900000000000    0.7372950000000000    0.2751700000000000 Zn
   0.7778600000000000    0.7752600000000001    0.5375000000000000 Zn
   0.6111900000000000    0.2626300000000000    0.7247550000000000 Zn
   0.4445300000000000    0.9621800000000000    0.2375300000000000 Zn
   0.5278500000000000    0.2246900000000000    0.4621300000000000 Zn
   0.9445200000000000    0.9621649999999999    0.2375550000000000 Zn
   0.0278500000000000    0.2246150000000000    0.4621550000000000 Zn
   0.1112000000000000    0.2626550000000000    0.7248000000000000 Zn
   0.3611900000000000    0.7373550000000000    0.2752200000000000 Zn
   0.1945100000000000    0.0377900000000000    0.7624750000000000 Zn
   0.2778500000000000    0.7753000000000000    0.5378500000000001 Zn
   0.6945200000000000    0.5377650000000000    0.7623800000000001 Zn
   0.8611900000000000    0.2372950000000000    0.2751700000000000 Zn
   0.7778600000000000    0.2752600000000000    0.5375000000000000 Zn
   0.6111900000000000    0.7626299999999999    0.7247550000000000 Zn
   0.4445300000000000    0.4621800000000000    0.2375300000000000 Zn
   0.5278500000000000    0.7246900000000001    0.4621300000000000 Zn
   0.9445200000000000    0.4621650000000000    0.2375550000000000 Zn
   0.0278500000000000    0.7246150000000000    0.4621550000000000 Zn
   0.1112000000000000    0.7626550000000001    0.7248000000000000 Zn
   0.3611900000000000    0.2373550000000000    0.2752200000000000 Zn
   0.1945100000000000    0.5377900000000000    0.7624750000000000 Zn
   0.2778500000000000    0.2753000000000000    0.5378500000000001 Zn
   0.6945200000000000    0.0377650000000000    0.2623800000000000 Zn
   0.8611900000000000    0.7372950000000000    0.7751700000000000 Zn
   0.7778600000000000    0.7752600000000001    0.0375000000000000 Zn
   0.6111900000000000    0.2626300000000000    0.2247550000000000 Zn
   0.4445300000000000    0.9621800000000000    0.7375300000000000 Zn
   0.5278500000000000    0.2246900000000000    0.9621299999999999 Zn
   0.9445200000000000    0.9621649999999999    0.7375550000000000 Zn
   0.0278500000000000    0.2246150000000000    0.9621550000000000 Zn
   0.1112000000000000    0.2626550000000000    0.2248000000000000 Zn
   0.3611900000000000    0.7373550000000000    0.7752200000000000 Zn
   0.1945100000000000    0.0377900000000000    0.2624750000000000 Zn
   0.2778500000000000    0.7753000000000000    0.0378500000000000 Zn
   0.9445200000000000    0.4621650000000000    0.7375550000000000 Zn
   0.0278500000000000    0.7246150000000000    0.9621550000000000 Zn
   0.1112000000000000    0.7626550000000001    0.2248000000000000 Zn
   0.3611900000000000    0.2373550000000000    0.7752200000000000 Zn
   0.1945100000000000    0.5377900000000000    0.2624750000000000 Zn
   0.2778500000000000    0.2753000000000000    0.0378500000000000 Zn
   0.6945200000000000    0.5377650000000000    0.2623800000000000 Zn
   0.8611900000000000    0.2372950000000000    0.7751700000000000 Zn
   0.7778600000000000    0.2752600000000000    0.0375000000000000 Zn
   0.6111900000000000    0.7626299999999999    0.2247550000000000 Zn
   0.4445300000000000    0.4621800000000000    0.7375300000000000 Zn
   0.5278500000000000    0.7246900000000001    0.9621299999999999 Zn
   0.6398000000000000    0.2236300000000000    0.8607750000000001 H
   0.6155800000000000    0.1783450000000000    0.8126599999999999 H
   0.6795900000000000    0.2101300000000000    0.8123750000000001 H
   0.5713100000000000    0.3056750000000000    0.8369450000000001 H
   0.6173100000000000    0.2984350000000000    0.8738100000000000 H
   0.6507900000000000    0.2885550000000000    0.8244750000000001 H
   0.5411500000000000    0.2395400000000000    0.8366850000000000 H
   0.5493900000000000    0.1098250000000000    0.7026950000000000 H
   0.7416700000000001    0.1588900000000000    0.7315650000000000 H
   0.7648400000000000    0.1044300000000000    0.7521200000000000 H
   0.5811400000000000    0.0573650000000000    0.7248450000000000 H
   0.5805500000000000    0.1664700000000000    0.6880850000000001 H
   0.6629400000000000    0.1769800000000000    0.6863550000000000 H
   0.6617200000000000    0.2243950000000000    0.7602900000000000 H
   0.5467900000000000    0.1880100000000000    0.7627550000000001 H
   0.0287355902093236    0.7671608076717963    0.2689193334973878 H
   0.8062200000000000    0.6390550000000000    0.3629600000000000 H
   0.7819100000000000    0.6871500000000000    0.3657250000000000 H
   0.8460500000000000    0.6874500000000000    0.3977200000000000 H
   0.7076900000000000    0.6631600000000000    0.4030650000000000 H
   0.7381000000000000    0.6629100000000000    0.4689150000000000 H
   0.7840700000000000    0.6260749999999999    0.4248300000000000 H
   0.8175200000000000    0.6754150000000000    0.4641700000000000 H
  -0.0143179653932344    0.7641841413925972    0.3287636602659980 H
   0.9533649738367292    0.7516971958439296    0.3174963770759326 H
   0.7160900000000000    0.7970999999999999    0.4069000000000000 H
   0.9082800000000000    0.7680500000000000    0.4271200000000000 H
   0.9314600000000000    0.7474350000000000    0.3521050000000000 H
   0.7478500000000000    0.7749050000000000    0.3323000000000000 H
   0.7472000000000000    0.8117000000000000    0.4781300000000000 H
   0.8295900000000000    0.8134250000000001    0.4903800000000000 H
   0.8283199999999999    0.7395300000000000    0.4640950000000000 H
   0.7133000000000000    0.7370750000000000    0.4252950000000000 H
   0.7231000000000000    0.8630599999999999    0.7241000000000000 H
   0.6988000000000000    0.8657800000000000    0.6787300000000001 H
   0.7628500000000000    0.8978500000000000    0.7104200000000001 H
   0.6244700000000000    0.9030450000000000    0.7399750000000000 H
   0.6547300000000000    0.9689550000000000    0.8059700000000001 H
   0.7007600000000000    0.9249250000000000    0.7988550000000000 H
   0.7341700000000000    0.9642550000000000    0.7887500000000001 H
   0.6327100000000000    0.9068900000000000    0.6098100000000000 H
   0.8249600000000000    0.9271100000000000    0.6589400000000000 H
   0.8481800000000000    0.8521550000000000    0.6045500000000000 H
   0.6645100000000000    0.8323450000000000    0.5574150000000000 H
   0.6637999999999999    0.9780800000000001    0.6663150000000000 H
   0.7461900000000000    0.9903550000000000    0.6768050000000000 H
   0.7449900000000000    0.9640599999999999    0.7244500000000000 H
   0.6299700000000000    0.9252450000000000    0.6882300000000000 H
   0.4881500000000000    0.3370550000000000    0.5310600000000000 H
   0.5340900000000000    0.3738850000000000    0.5751600000000000 H
   0.5675700000000000    0.3245400000000000    0.5358300000000000 H
   0.4576700000000000    0.3368200000000000    0.5969100000000001 H
   0.5561700000000001    0.3608950000000000    0.6370000000000000 H
   0.5960100000000000    0.3124950000000000    0.6022750000000000 H
   0.5318400000000000    0.3128000000000000    0.6342600000000000 H
   0.4660300000000000    0.2028850000000000    0.5930950000000000 H
   0.6582300000000000    0.2318400000000000    0.5727949999999999 H
   0.6814500000000000    0.2524500000000000    0.6477999999999999 H
   0.4978400000000000    0.2250700000000000    0.6676850000000000 H
   0.4971000000000000    0.1882800000000000    0.5218600000000000 H
   0.5794899999999999    0.1865050000000000    0.5095700000000000 H
   0.5782900000000000    0.2604150000000000    0.5358800000000000 H
   0.4632300000000000    0.2629050000000000    0.5746750000000000 H
   0.3898100000000000    0.7763900000000000    0.1392050000000000 H
   0.3656100000000000    0.8216700000000000    0.1873400000000000 H
   0.4296100000000000    0.7898550000000000    0.1875900000000000 H
   0.2911600000000000    0.7605000000000000    0.1633100000000000 H
   0.3213000000000000    0.6943300000000000    0.1629500000000000 H
   0.3673000000000000    0.7015850000000000    0.1261400000000000 H
   0.4007800000000000    0.7114250000000000    0.1754500000000000 H
   0.2994600000000000    0.8901700000000000    0.2972900000000000 H
   0.4917300000000000    0.8410500000000001    0.2683450000000000 H
   0.5148800000000000    0.8954949999999999    0.2477700000000000 H
   0.3312000000000000    0.9426099999999999    0.2751150000000000 H
   0.3306400000000000    0.8335250000000001    0.3118950000000000 H
   0.4130300000000000    0.8229800000000000    0.3135850000000000 H
   0.4117500000000000    0.7755550000000000    0.2396600000000000 H
   0.2968100000000000    0.8119900000000000    0.2372400000000000 H
   0.4728800000000000    0.1369450000000000    0.2758000000000000 H
   0.4486000000000000    0.1342050000000000    0.3212000000000000 H
   0.5127100000000000    0.1021800000000000    0.2895250000000000 H
   0.3743300000000000    0.0968900000000000    0.2599450000000000 H
   0.4046800000000000    0.0310100000000000    0.1939550000000000 H
   0.4506500000000000    0.0750650000000000    0.2010800000000000 H
   0.4841200000000000    0.0357450000000000    0.2111650000000000 H
   0.3827600000000000    0.0930400000000000    0.3901900000000000 H
   0.5749100000000000    0.0729050000000000    0.3408950000000000 H
   0.5981100000000000    0.1478500000000000    0.3953150000000000 H
   0.4145300000000000    0.1675800000000000    0.4426100000000000 H
   0.4138400000000000    0.0218850000000000    0.3336100000000000 H
   0.4962400000000000    0.0096250000000000    0.3231050000000000 H
   0.4949700000000000    0.0359050000000000    0.2754350000000000 H
   0.3799100000000000    0.0746850000000000    0.3116900000000000 H
   0.8897200000000000    0.7763350000000000    0.1391400000000000 H
   0.8655200000000000    0.8216150000000000    0.1872750000000000 H
   0.9295500000000000    0.7898149999999999    0.1875200000000000 H
   0.7911100000000000    0.7604200000000000    0.1632600000000000 H
   0.8213200000000001    0.6942699999999999    0.1629650000000000 H
   0.8672900000000000    0.7015300000000000    0.1261000000000000 H
   0.9007900000000000    0.7113900000000000    0.1754200000000000 H
   0.7994300000000000    0.8901650000000000    0.2973200000000000 H
   0.9916400000000000    0.8409700000000000    0.2682600000000000 H
   0.0148000000000000    0.8954299999999999    0.2477000000000000 H
   0.8311700000000000    0.9426250000000000    0.2751700000000000 H
   0.8305800000000000    0.8334650000000000    0.3118500000000000 H
   0.9129699999999999    0.8229350000000000    0.3135500000000000 H
   0.9117200000000000    0.7755200000000000    0.2396200000000000 H
   0.7967800000000000    0.8119400000000000    0.2371950000000000 H
   0.9730000000000000    0.1369000000000000    0.2758700000000000 H
   0.9486300000000000    0.1341700000000000    0.3212250000000000 H
   0.0127400000000000    0.1021250000000000    0.2895750000000000 H
   0.8744100000000000    0.0968700000000000    0.2599300000000000 H
   0.9047900000000000    0.0309700000000000    0.1939600000000000 H
   0.9508000000000000    0.0750100000000000    0.2010950000000000 H
   0.9842100000000000    0.0356950000000000    0.2112150000000000 H
   0.8826300000000000    0.0930650000000000    0.3901500000000000 H
   0.0748700000000000    0.0727750000000000    0.3410000000000000 H
   0.0981400000000000    0.1477050000000000    0.3954250000000000 H
   0.9144800000000000    0.1675800000000000    0.4425850000000000 H
   0.9136700000000000    0.0218750000000000    0.3336250000000000 H
   0.9960599999999999    0.0095600000000000    0.3231450000000000 H
   0.9949400000000000    0.0358900000000000    0.2755000000000000 H
   0.8798600000000000    0.0746750000000000    0.3116900000000000 H
   0.0563500000000000    0.3607950000000000    0.6370050000000000 H
   0.0320100000000000    0.3127100000000000    0.6342500000000000 H
   0.0961200000000000    0.3123800000000000    0.6022100000000000 H
   0.9881400000000000    0.3369850000000000    0.5310900000000000 H
   0.0341400000000000    0.3738000000000000    0.5751550000000000 H
   0.0675500000000000    0.3244450000000000    0.5358000000000001 H
   0.9577700000000000    0.3367500000000000    0.5969600000000000 H
   0.9660800000000000    0.2028800000000000    0.5931300000000000 H
   0.1583200000000000    0.2317200000000000    0.5727850000000000 H
   0.1815200000000000    0.2523800000000000    0.6478050000000000 H
   0.9978700000000000    0.2251150000000000    0.6677350000000000 H
   0.9971700000000000    0.1881850000000000    0.5218700000000001 H
   0.0795500000000000    0.1864300000000000    0.5095800000000000 H
   0.0783200000000000    0.2603300000000000    0.5358800000000000 H
   0.9633000000000000    0.2628300000000000    0.5747000000000000 H
   0.3062600000000000    0.6391000000000000    0.3629750000000000 H
   0.2819000000000000    0.6871849999999999    0.3657400000000000 H
   0.3460500000000000    0.6875100000000001    0.3977450000000000 H
   0.2077100000000000    0.6631650000000000    0.4030500000000000 H
   0.2381600000000000    0.6629500000000000    0.4689400000000000 H
   0.2841200000000000    0.6261099999999999    0.4248500000000000 H
   0.3175700000000000    0.6754599999999999    0.4641750000000000 H
   0.2159800000000000    0.7970349999999999    0.4068600000000000 H
   0.4082400000000000    0.7682300000000000    0.4272200000000000 H
   0.4314900000000000    0.7476250000000000    0.3522100000000000 H
   0.2478100000000000    0.7748550000000001    0.3322750000000000 H
   0.2470400000000000    0.8117050000000000    0.4781150000000000 H
   0.3294300000000000    0.8135049999999999    0.4904000000000000 H
   0.3282800000000000    0.7395849999999999    0.4640950000000000 H
   0.2132200000000000    0.7370800000000000    0.4253100000000000 H
   0.0712300000000000    0.3056850000000000    0.8370000000000000 H
   0.1507200000000000    0.2885900000000000    0.8245500000000000 H
   0.1172200000000000    0.2984400000000000    0.8738650000000000 H
   0.0410900000000000    0.2395250000000000    0.8366950000000000 H
   0.1397100000000000    0.2236300000000000    0.8608250000000000 H
   0.1155400000000000    0.1783500000000000    0.8126900000000000 H
   0.1795500000000000    0.2101550000000000    0.8124450000000000 H
   0.0494800000000000    0.1098100000000000    0.7026700000000000 H
   0.2416900000000000    0.1589750000000000    0.7317500000000000 H
   0.2648100000000000    0.1045250000000000    0.7523299999999999 H
   0.0811900000000000    0.0573550000000000    0.7248000000000000 H
   0.0806700000000000    0.1664800000000000    0.6881100000000000 H
   0.1630700000000000    0.1770150000000000    0.6864000000000000 H
   0.1617400000000000    0.2244500000000000    0.7603650000000000 H
   0.0468000000000000    0.1880150000000000    0.7627650000000000 H
   0.2229100000000000    0.8630050000000000    0.7241200000000000 H
   0.1986100000000000    0.8657699999999999    0.6787700000000000 H
   0.2627300000000000    0.8977800000000000    0.7104400000000000 H
   0.1243600000000000    0.9030750000000001    0.7400599999999999 H
   0.1547400000000000    0.9689400000000000    0.8060499999999999 H
   0.2007200000000000    0.9248750000000000    0.7988900000000000 H
   0.2341600000000000    0.9641999999999999    0.7888050000000000 H
   0.1326800000000000    0.9069350000000000    0.6098399999999999 H
   0.3248700000000000    0.9270900000000000    0.6590650000000000 H
   0.3480900000000000    0.8521449999999999    0.6046000000000000 H
   0.1644800000000000    0.8324000000000000    0.5574150000000000 H
   0.1637500000000000    0.9780949999999999    0.6664000000000000 H
   0.2461500000000000    0.9903600000000000    0.6768850000000000 H
   0.2449500000000000    0.9640550000000000    0.7245400000000000 H
   0.1298900000000000    0.9252850000000000    0.6883150000000000 H
   0.6398000000000000    0.7236300000000000    0.8607750000000001 H
   0.6155800000000000    0.6783450000000000    0.8126599999999999 H
   0.6795900000000000    0.7101300000000000    0.8123750000000001 H
   0.5713100000000000    0.8056749999999999    0.8369450000000001 H
   0.6173100000000000    0.7984350000000000    0.8738100000000000 H
   0.6507900000000000    0.7885550000000000    0.8244750000000001 H
   0.5411500000000000    0.7395400000000000    0.8366850000000000 H
   0.5493900000000000    0.6098250000000001    0.7026950000000000 H
   0.7416700000000001    0.6588900000000000    0.7315650000000000 H
   0.7648400000000000    0.6044300000000000    0.7521200000000000 H
   0.5811400000000000    0.5573650000000000    0.7248450000000000 H
   0.5805500000000000    0.6664700000000000    0.6880850000000001 H
   0.6629400000000000    0.6769800000000000    0.6863550000000000 H
   0.6617200000000000    0.7243950000000000    0.7602900000000000 H
   0.5467900000000000    0.6880100000000000    0.7627550000000001 H
   0.8062200000000000    0.1390550000000000    0.3629600000000000 H
   0.7819100000000000    0.1871500000000000    0.3657250000000000 H
   0.8460500000000000    0.1874500000000000    0.3977200000000000 H
   0.7076900000000000    0.1631600000000000    0.4030650000000000 H
   0.7381000000000000    0.1629100000000000    0.4689150000000000 H
   0.7840700000000000    0.1260750000000000    0.4248300000000000 H
   0.8175200000000000    0.1754150000000000    0.4641700000000000 H
   0.7160900000000000    0.2971000000000000    0.4069000000000000 H
   0.9082800000000000    0.2680500000000000    0.4271200000000000 H
   0.9314600000000000    0.2474350000000000    0.3521050000000000 H
   0.7478500000000000    0.2749050000000000    0.3323000000000000 H
   0.7472000000000000    0.3117000000000000    0.4781300000000000 H
   0.8295900000000000    0.3134250000000000    0.4903800000000000 H
   0.8283199999999999    0.2395300000000000    0.4640950000000000 H
   0.7133000000000000    0.2370750000000000    0.4252950000000000 H
   0.7231000000000000    0.3630600000000000    0.7241000000000000 H
   0.6988000000000000    0.3657800000000000    0.6787300000000001 H
   0.7628500000000000    0.3978500000000000    0.7104200000000001 H
   0.6244700000000000    0.4030450000000000    0.7399750000000000 H
   0.6547300000000000    0.4689550000000000    0.8059700000000001 H
   0.7007600000000000    0.4249250000000000    0.7988550000000000 H
   0.7341700000000000    0.4642550000000000    0.7887500000000001 H
   0.6327100000000000    0.4068900000000000    0.6098100000000000 H
   0.8249600000000000    0.4271100000000000    0.6589400000000000 H
   0.8481800000000000    0.3521550000000000    0.6045500000000000 H
   0.6645100000000000    0.3323450000000000    0.5574150000000000 H
   0.6637999999999999    0.4780800000000000    0.6663150000000000 H
   0.7461900000000000    0.4903550000000000    0.6768050000000000 H
   0.7449900000000000    0.4640600000000000    0.7244500000000000 H
   0.6299700000000000    0.4252450000000000    0.6882300000000000 H
   0.4881500000000000    0.8370550000000000    0.5310600000000000 H
   0.5340900000000000    0.8738850000000000    0.5751600000000000 H
   0.5675700000000000    0.8245400000000001    0.5358300000000000 H
   0.4576700000000000    0.8368200000000000    0.5969100000000001 H
   0.5561700000000001    0.8608950000000000    0.6370000000000000 H
   0.5960100000000000    0.8124950000000000    0.6022750000000000 H
   0.5318400000000000    0.8128000000000000    0.6342600000000000 H
   0.4660300000000000    0.7028850000000000    0.5930950000000000 H
   0.6582300000000000    0.7318400000000000    0.5727949999999999 H
   0.6814500000000000    0.7524500000000001    0.6477999999999999 H
   0.4978400000000000    0.7250700000000000    0.6676850000000000 H
   0.4971000000000000    0.6882800000000000    0.5218600000000000 H
   0.5794899999999999    0.6865050000000000    0.5095700000000000 H
   0.5782900000000000    0.7604150000000001    0.5358800000000000 H
   0.4632300000000000    0.7629049999999999    0.5746750000000000 H
   0.3898100000000000    0.2763900000000000    0.1392050000000000 H
   0.3656100000000000    0.3216700000000000    0.1873400000000000 H
   0.4296100000000000    0.2898550000000000    0.1875900000000000 H
   0.2911600000000000    0.2605000000000000    0.1633100000000000 H
   0.3213000000000000    0.1943300000000000    0.1629500000000000 H
   0.3673000000000000    0.2015850000000000    0.1261400000000000 H
   0.4007800000000000    0.2114250000000000    0.1754500000000000 H
   0.2994600000000000    0.3901700000000000    0.2972900000000000 H
   0.4917300000000000    0.3410500000000000    0.2683450000000000 H
   0.5148800000000000    0.3954950000000000    0.2477700000000000 H
   0.3312000000000000    0.4426100000000000    0.2751150000000000 H
   0.3306400000000000    0.3335250000000000    0.3118950000000000 H
   0.4130300000000000    0.3229800000000000    0.3135850000000000 H
   0.4117500000000000    0.2755550000000000    0.2396600000000000 H
   0.2968100000000000    0.3119900000000000    0.2372400000000000 H
   0.4728800000000000    0.6369450000000000    0.2758000000000000 H
   0.4486000000000000    0.6342050000000000    0.3212000000000000 H
   0.5127100000000000    0.6021800000000000    0.2895250000000000 H
   0.3743300000000000    0.5968900000000000    0.2599450000000000 H
   0.4046800000000000    0.5310100000000000    0.1939550000000000 H
   0.4506500000000000    0.5750650000000000    0.2010800000000000 H
   0.4841200000000000    0.5357450000000000    0.2111650000000000 H
   0.3827600000000000    0.5930400000000000    0.3901900000000000 H
   0.5749100000000000    0.5729050000000000    0.3408950000000000 H
   0.5981100000000000    0.6478500000000000    0.3953150000000000 H
   0.4145300000000000    0.6675800000000001    0.4426100000000000 H
   0.4138400000000000    0.5218850000000000    0.3336100000000000 H
   0.4962400000000000    0.5096250000000000    0.3231050000000000 H
   0.4949700000000000    0.5359050000000000    0.2754350000000000 H
   0.3799100000000000    0.5746850000000000    0.3116900000000000 H
   0.8897200000000000    0.2763350000000000    0.1391400000000000 H
   0.8655200000000000    0.3216150000000000    0.1872750000000000 H
   0.9295500000000000    0.2898150000000000    0.1875200000000000 H
   0.7911100000000000    0.2604200000000000    0.1632600000000000 H
   0.8213200000000001    0.1942700000000000    0.1629650000000000 H
   0.8672900000000000    0.2015300000000000    0.1261000000000000 H
   0.9007900000000000    0.2113900000000000    0.1754200000000000 H
   0.7994300000000000    0.3901650000000000    0.2973200000000000 H
   0.9916400000000000    0.3409700000000000    0.2682600000000000 H
   0.0148000000000000    0.3954300000000000    0.2477000000000000 H
   0.8311700000000000    0.4426250000000000    0.2751700000000000 H
   0.8305800000000000    0.3334650000000000    0.3118500000000000 H
   0.9129699999999999    0.3229350000000000    0.3135500000000000 H
   0.9117200000000000    0.2755200000000000    0.2396200000000000 H
   0.7967800000000000    0.3119400000000000    0.2371950000000000 H
   0.9730000000000000    0.6369000000000000    0.2758700000000000 H
   0.9486300000000000    0.6341700000000000    0.3212250000000000 H
   0.0127400000000000    0.6021250000000000    0.2895750000000000 H
   0.8744100000000000    0.5968700000000000    0.2599300000000000 H
   0.9047900000000000    0.5309700000000001    0.1939600000000000 H
   0.9508000000000000    0.5750100000000000    0.2010950000000000 H
   0.9842100000000000    0.5356950000000000    0.2112150000000000 H
   0.8826300000000000    0.5930650000000000    0.3901500000000000 H
   0.0748700000000000    0.5727750000000000    0.3410000000000000 H
   0.0981400000000000    0.6477050000000000    0.3954250000000000 H
   0.9144800000000000    0.6675800000000001    0.4425850000000000 H
   0.9136700000000000    0.5218750000000000    0.3336250000000000 H
   0.9960599999999999    0.5095600000000000    0.3231450000000000 H
   0.9949400000000000    0.5358900000000000    0.2755000000000000 H
   0.8798600000000000    0.5746750000000000    0.3116900000000000 H
   0.0563500000000000    0.8607950000000000    0.6370050000000000 H
   0.0320100000000000    0.8127100000000000    0.6342500000000000 H
   0.0961200000000000    0.8123800000000000    0.6022100000000000 H
   0.9881400000000000    0.8369850000000000    0.5310900000000000 H
   0.0341400000000000    0.8738000000000000    0.5751550000000000 H
   0.0675500000000000    0.8244450000000000    0.5358000000000001 H
   0.9577700000000000    0.8367500000000000    0.5969600000000000 H
   0.9660800000000000    0.7028799999999999    0.5931300000000000 H
   0.1583200000000000    0.7317200000000000    0.5727850000000000 H
   0.1815200000000000    0.7523800000000000    0.6478050000000000 H
   0.9978700000000000    0.7251150000000000    0.6677350000000000 H
   0.9971700000000000    0.6881850000000000    0.5218700000000001 H
   0.0795500000000000    0.6864300000000000    0.5095800000000000 H
   0.0783200000000000    0.7603300000000000    0.5358800000000000 H
   0.9633000000000000    0.7628300000000000    0.5747000000000000 H
   0.3062600000000000    0.1391000000000000    0.3629750000000000 H
   0.2819000000000000    0.1871850000000000    0.3657400000000000 H
   0.3460500000000000    0.1875100000000000    0.3977450000000000 H
   0.2077100000000000    0.1631650000000000    0.4030500000000000 H
   0.2381600000000000    0.1629500000000000    0.4689400000000000 H
   0.2841200000000000    0.1261100000000000    0.4248500000000000 H
   0.3175700000000000    0.1754600000000000    0.4641750000000000 H
   0.2159800000000000    0.2970350000000000    0.4068600000000000 H
   0.4082400000000000    0.2682300000000000    0.4272200000000000 H
   0.4314900000000000    0.2476250000000000    0.3522100000000000 H
   0.2478100000000000    0.2748550000000000    0.3322750000000000 H
   0.2470400000000000    0.3117050000000000    0.4781150000000000 H
   0.3294300000000000    0.3135050000000000    0.4904000000000000 H
   0.3282800000000000    0.2395850000000000    0.4640950000000000 H
   0.2132200000000000    0.2370800000000000    0.4253100000000000 H
   0.0712300000000000    0.8056850000000000    0.8370000000000000 H
   0.1507200000000000    0.7885900000000000    0.8245500000000000 H
   0.1172200000000000    0.7984400000000000    0.8738650000000000 H
   0.0410900000000000    0.7395250000000000    0.8366950000000000 H
   0.1397100000000000    0.7236300000000000    0.8608250000000000 H
   0.1155400000000000    0.6783500000000000    0.8126900000000000 H
   0.1795500000000000    0.7101550000000000    0.8124450000000000 H
   0.0494800000000000    0.6098100000000000    0.7026700000000000 H
   0.2416900000000000    0.6589750000000000    0.7317500000000000 H
   0.2648100000000000    0.6045250000000000    0.7523299999999999 H
   0.0811900000000000    0.5573550000000000    0.7248000000000000 H
   0.0806700000000000    0.6664800000000000    0.6881100000000000 H
   0.1630700000000000    0.6770150000000000    0.6864000000000000 H
   0.1617400000000000    0.7244500000000000    0.7603650000000000 H
   0.0468000000000000    0.6880150000000000    0.7627650000000000 H
   0.2229100000000000    0.3630050000000000    0.7241200000000000 H
   0.1986100000000000    0.3657700000000000    0.6787700000000000 H
   0.2627300000000000    0.3977800000000000    0.7104400000000000 H
   0.1243600000000000    0.4030750000000000    0.7400599999999999 H
   0.1547400000000000    0.4689400000000000    0.8060499999999999 H
   0.2007200000000000    0.4248750000000000    0.7988900000000000 H
   0.2341600000000000    0.4642000000000000    0.7888050000000000 H
   0.1326800000000000    0.4069350000000000    0.6098399999999999 H
   0.3248700000000000    0.4270900000000000    0.6590650000000000 H
   0.3480900000000000    0.3521450000000000    0.6046000000000000 H
   0.1644800000000000    0.3324000000000000    0.5574150000000000 H
   0.1637500000000000    0.4780950000000000    0.6664000000000000 H
   0.2461500000000000    0.4903600000000000    0.6768850000000000 H
   0.2449500000000000    0.4640550000000000    0.7245400000000000 H
   0.1298900000000000    0.4252850000000000    0.6883150000000000 H
   0.6398000000000000    0.2236300000000000    0.3607750000000000 H
   0.6155800000000000    0.1783450000000000    0.3126600000000000 H
   0.6795900000000000    0.2101300000000000    0.3123750000000000 H
   0.5713100000000000    0.3056750000000000    0.3369450000000000 H
   0.6173100000000000    0.2984350000000000    0.3738100000000000 H
   0.6507900000000000    0.2885550000000000    0.3244750000000000 H
   0.5411500000000000    0.2395400000000000    0.3366850000000000 H
   0.5493900000000000    0.1098250000000000    0.2026950000000000 H
   0.7416700000000001    0.1588900000000000    0.2315650000000000 H
   0.7648400000000000    0.1044300000000000    0.2521200000000000 H
   0.5811400000000000    0.0573650000000000    0.2248450000000000 H
   0.5805500000000000    0.1664700000000000    0.1880850000000000 H
   0.6629400000000000    0.1769800000000000    0.1863550000000000 H
   0.6617200000000000    0.2243950000000000    0.2602900000000000 H
   0.5467900000000000    0.1880100000000000    0.2627550000000000 H
   0.8062200000000000    0.6390550000000000    0.8629599999999999 H
   0.7819100000000000    0.6871500000000000    0.8657250000000001 H
   0.8460500000000000    0.6874500000000000    0.8977200000000001 H
   0.7076900000000000    0.6631600000000000    0.9030650000000000 H
   0.7381000000000000    0.6629100000000000    0.9689150000000000 H
   0.7840700000000000    0.6260749999999999    0.9248300000000000 H
   0.8175200000000000    0.6754150000000000    0.9641700000000000 H
   0.7160900000000000    0.7970999999999999    0.9069000000000000 H
   0.9082800000000000    0.7680500000000000    0.9271199999999999 H
   0.9314600000000000    0.7474350000000000    0.8521050000000000 H