Zn8 H26 C40 O26
1.0
  15.9817740090690084    0.0000000000000000    9.1565528733823367
   5.3125227970883175   15.0833955978640120    9.1514427151544524
   0.0000000000000000    0.0000000000000000   18.4250000000000007
Zn H C O
8 26 40 26
direct
   0.7932700000000000    0.7932900000000001    0.6196199999999999 Zn
   0.7932700000000000    0.6196300000000000    0.7932900000000001 Zn
   0.6195200000000000    0.7932500000000000    0.7932399999999999 Zn
   0.7938400000000000    0.7936400000000000    0.7936400000000000 Zn
   0.2067200000000000    0.2067000000000000    0.3803600000000000 Zn
   0.2067200000000000    0.3803700000000000    0.2066900000000000 Zn
   0.3804600000000000    0.2067400000000000    0.2067400000000000 Zn
   0.2061500000000000    0.2063500000000000    0.2063400000000000 Zn
   0.3356400000000000    0.0476500000000000    0.0476400000000000 H
   0.4320700000000000    0.9514400000000000    0.9514400000000000 H
   0.6643400000000000    0.9523500000000000    0.9523400000000000 H
   0.5679100000000000    0.0485500000000000    0.0485500000000000 H
   0.8864361596231928    0.8866107509124960    0.5073639715586679 H
   0.8873419308538725    0.8869492445839887    0.7193939700154540 H
   0.8946630749935478    0.8945524238344397    0.6056182970822903 H
   0.0485900000000000    0.5678100000000000    0.0486100000000000 H
   0.9524400000000000    0.6642500000000000    0.9524000000000000 H
   0.0475400000000000    0.3357500000000000    0.0475900000000000 H
   0.9513900000000000    0.4321800000000000    0.9513000000000000 H
   0.1135597028323773    0.1133978417631760    0.4926152738148938 H
   0.1126432172828495    0.1130485486472000    0.2805237452006936 H
   0.1053199471179482    0.1054443657485160    0.3943273783597806 H
   0.9517600000000001    0.4319500000000000    0.6642700000000000 H
   0.0482300000000000    0.3357200000000000    0.5680400000000000 H
   0.9517600000000001    0.6642700000000000    0.4319400000000000 H
   0.0482300000000000    0.5680400000000000    0.3357100000000000 H
   0.3356100000000000    0.0482800000000000    0.5680500000000001 H
   0.4317700000000000    0.9518200000000000    0.6642700000000000 H
   0.6643800000000000    0.9517200000000000    0.4319300000000000 H
   0.5682100000000000    0.0481800000000000    0.3357100000000000 H
   0.5682100000000000    0.3357300000000000    0.0481700000000000 H
   0.6643700000000000    0.4319400000000000    0.9516900000000000 H
   0.4317800000000000    0.6642700000000000    0.9518100000000000 H
   0.3356100000000000    0.5680500000000001    0.0482900000000000 H
   0.3888100000000000    0.1109900000000000    0.1109900000000000 C
   0.6111799999999999    0.8890000000000000    0.8889899999999999 C
   0.4076400000000000    0.0263900000000000    0.0263900000000000 C
   0.4610700000000000    0.9731000000000000    0.9730900000000000 C
   0.5537700000000000    0.9463400000000000    0.9463400000000000 C
   0.5923500000000000    0.9736000000000000    0.9735900000000000 C
   0.5389200000000000    0.0269000000000000    0.0269000000000000 C
   0.4462200000000000    0.0536500000000000    0.0536400000000000 C
   0.1109100000000000    0.3888300000000000    0.1109900000000000 C
   0.8890800000000000    0.6111700000000000    0.8889899999999999 C
   0.0269200000000000    0.5388700000000000    0.0269300000000000 C
   0.9736600000000000    0.5923000000000000    0.9736200000000000 C
   0.0263300000000000    0.4077000000000000    0.0263600000000000 C
   0.9730700000000000    0.4611300000000000    0.9730500000000000 C
   0.0536100000000000    0.4462300000000000    0.0536000000000000 C
   0.9463700000000000    0.5537700000000000    0.9463400000000000 C
   0.1112500000000000    0.3890600000000000    0.3890600000000000 C
   0.8887400000000000    0.6109300000000000    0.6109000000000000 C
   0.9732600000000000    0.4609800000000000    0.5923000000000000 C
   0.0267300000000000    0.4076900000000000    0.5390200000000001 C
   0.9732600000000000    0.5923100000000000    0.4609700000000000 C
   0.0267300000000000    0.5390200000000001    0.4076800000000000 C
   0.9462100000000000    0.5536200000000000    0.5536100000000000 C
   0.0537800000000000    0.4463800000000000    0.4463700000000000 C
   0.3891100000000000    0.1112700000000000    0.3890700000000000 C
   0.6108800000000000    0.8887200000000000    0.6109000000000000 C
   0.4076200000000000    0.0267500000000000    0.5390200000000001 C
   0.4608800000000000    0.9733000000000001    0.5923000000000000 C
   0.5535900000000000    0.9462000000000000    0.5536100000000000 C
   0.5923600000000000    0.9732400000000000    0.4609000000000000 C
   0.5391100000000000    0.0266900000000000    0.4076800000000000 C
   0.4464000000000000    0.0538100000000000    0.4463700000000000 C
   0.3891100000000000    0.3890700000000000    0.1112700000000000 C
   0.6108800000000000    0.6109200000000000    0.8887100000000000 C
   0.5391100000000000    0.4076900000000000    0.0267000000000000 C
   0.5923600000000000    0.4609700000000000    0.9732300000000000 C
   0.4608800000000000    0.5923100000000000    0.9732900000000000 C
   0.4076300000000000    0.5390200000000001    0.0267600000000000 C
   0.5535800000000000    0.5536200000000000    0.9462000000000000 C
   0.4464000000000000    0.4463800000000000    0.0537800000000000 C
   0.4284200000000000    0.1332600000000000    0.1332500000000000 O
   0.3049900000000000    0.1329400000000000    0.1329300000000000 O
   0.5715700000000000    0.8667400000000000    0.8667300000000000 O
   0.6950000000000000    0.8670600000000001    0.8670600000000001 O
   0.8667300000000000    0.8667899999999999    0.5715900000000000 O
   0.8672600000000000    0.8669900000000000    0.6949300000000000 O
   0.1332600000000000    0.4284000000000000    0.1332000000000000 O
   0.1327300000000000    0.3050700000000000    0.1329900000000000 O
   0.8667300000000000    0.5715900000000000    0.8667800000000000 O
   0.8672600000000000    0.6949300000000000    0.8669900000000000 O
   0.1332600000000000    0.1332100000000000    0.4283900000000000 O
   0.1327200000000000    0.1330000000000000    0.3050000000000000 O
   0.1334400000000000    0.3053200000000000    0.4286000000000000 O
   0.1334400000000000    0.4286100000000000    0.3053100000000000 O
   0.8665500000000000    0.6946700000000000    0.5713800000000000 O
   0.8665500000000000    0.5713800000000000    0.6946700000000000 O
   0.7500200000000000    0.7500300000000000    0.7500200000000000 O
   0.4287100000000000    0.1335500000000000    0.3053200000000000 O
   0.3053000000000000    0.1333900000000000    0.4286300000000000 O
   0.6946800000000000    0.8666100000000000    0.5713500000000000 O
   0.5712800000000000    0.8664500000000001    0.6946700000000000 O
   0.4287100000000000    0.3053300000000000    0.1335000000000000 O
   0.3053000000000000    0.4286400000000000    0.1333900000000000 O
   0.6946800000000000    0.5713600000000000    0.8660000000000000 O
   0.5712800000000000    0.6946700000000000    0.8664500000000001 O
   0.2499700000000000    0.2499700000000000    0.2499600000000000 O
