Cd16 H188 C278 N30 O66
1.0
  23.7219999674823967    0.0000000000000000    0.0012420810149050
  -0.0014489924784154   27.6519914334641967    0.0217178277814918
   0.0000000000000000    0.0000000000000000   21.3919999999999995
Cd H C N O
16 188 278 30 66
direct
   0.0000000000000000    0.8044100000000001    0.0622700000000000 Cd
   0.0000000000000000    0.3044100000000000    0.0622700000000000 Cd
   0.0001600000000000    0.0548100000000000    0.4378100000000000 Cd
   0.0001600000000000    0.5548100000000000    0.4378100000000000 Cd
   0.4999400000000000    0.1955950000000000    0.9376700000000000 Cd
   0.4999400000000000    0.6955950000000000    0.9376700000000000 Cd
   0.4997500000000000    0.9451900000000000    0.5621699999999999 Cd
   0.4997500000000000    0.4451900000000000    0.5621699999999999 Cd
   0.9999700000000000    0.6955900000000000    0.9376900000000000 Cd
   0.9999700000000000    0.1955900000000000    0.9376900000000000 Cd
   0.9998200000000000    0.4451700000000000    0.5621699999999999 Cd
   0.9998200000000000    0.9451700000000001    0.5621699999999999 Cd
   0.4999900000000000    0.3043900000000000    0.0622800000000000 Cd
   0.4999900000000000    0.8043899999999999    0.0622800000000000 Cd
   0.5002100000000000    0.0547750000000000    0.4378000000000000 Cd
   0.5002100000000000    0.5547750000000000    0.4378000000000000 Cd
   0.7917300000000000    0.6302550000000000    0.9874000000000001 H
   0.7921300000000000    0.7689200000000000    0.8927600000000000 H
   0.8961100000000000    0.6335999999999999    0.9860200000000000 H
   0.8963600000000000    0.7660199999999999    0.8962800000000000 H
   0.7079299999999999    0.6285450000000000    0.9827100000000000 H
   0.7079900000000000    0.7707999999999999    0.8974299999999999 H
   0.6035500000000000    0.6324149999999999    0.9821700000000000 H
   0.6037500000000000    0.7677400000000000    0.9000200000000000 H
   0.7917300000000000    0.1302550000000000    0.9874000000000001 H
   0.7921300000000000    0.2689200000000000    0.8927600000000000 H
   0.8961100000000000    0.1336000000000000    0.9860200000000000 H
   0.8963600000000000    0.2660200000000000    0.8962800000000000 H
   0.7079299999999999    0.1285450000000000    0.9827100000000000 H
   0.7079900000000000    0.2708000000000000    0.8974299999999999 H
   0.6035500000000000    0.1324150000000000    0.9821700000000000 H
   0.6037500000000000    0.2677400000000000    0.9000200000000000 H
   0.7920199999999999    0.0187200000000000    0.6070100000000000 H
   0.7915600000000000    0.8802200000000000    0.5122000000000000 H
   0.8959200000000000    0.8835550000000000    0.5135200000000000 H
   0.8962599999999999    0.0157850000000000    0.6034000000000000 H
   0.7076800000000000    0.0205100000000000    0.6025300000000000 H
   0.7078700000000000    0.8784250000000000    0.5170600000000000 H
   0.6035400000000000    0.8820900000000000    0.5177000000000000 H
   0.6034300000000000    0.0172700000000000    0.6000300000000000 H
   0.7920199999999999    0.5187200000000000    0.6070100000000000 H
   0.7915600000000000    0.3802200000000000    0.5122000000000000 H
   0.8959200000000000    0.3835550000000000    0.5135200000000000 H
   0.8962599999999999    0.5157850000000000    0.6034000000000000 H
   0.7076800000000000    0.5205100000000000    0.6025300000000000 H
   0.7078700000000000    0.3784250000000000    0.5170600000000000 H
   0.6035400000000000    0.3820900000000000    0.5177000000000000 H
   0.6034300000000000    0.5172700000000000    0.6000300000000000 H
   0.7079900000000000    0.7320800000000001    0.1090500000000000 H
   0.7081700000000000    0.8688650000000000    0.0099300000000000 H
   0.6037400000000001    0.8654999999999999    0.0116000000000000 H
   0.6037500000000000    0.7347250000000000    0.1053500000000000 H
   0.7918900000000000    0.8721500000000000    0.0184100000000000 H
   0.7920700000000001    0.7289000000000000    0.1008300000000000 H
   0.8962800000000000    0.8683550000000000    0.0187000000000000 H
   0.8963500000000000    0.7322400000000000    0.0986100000000000 H
   0.7079900000000000    0.2320800000000000    0.1090500000000000 H
   0.7081700000000000    0.3688650000000000    0.0099300000000000 H
   0.6037400000000001    0.3655000000000000    0.0116000000000000 H
   0.6037500000000000    0.2347250000000000    0.1053500000000000 H
   0.7918900000000000    0.3721500000000000    0.0184100000000000 H
   0.7920700000000001    0.2289000000000000    0.1008300000000000 H
   0.8962800000000000    0.3683550000000000    0.0187000000000000 H
   0.8963500000000000    0.2322400000000000    0.0986100000000000 H
   0.7923100000000000    0.9799150000000000    0.3968300000000000 H
   0.7920700000000001    0.1213750000000000    0.4840100000000000 H
   0.8964100000000000    0.1177150000000000    0.4833700000000000 H
   0.8965800000000000    0.9831400000000000    0.3994800000000000 H
   0.7080000000000000    0.9813499999999999    0.3932400000000000 H
   0.7084100000000000    0.1199150000000000    0.4878800000000000 H
   0.6040300000000000    0.1164600000000000    0.4867800000000000 H
   0.6037200000000000    0.9842750000000000    0.3967800000000000 H
   0.7923100000000000    0.4799150000000000    0.3968300000000000 H
   0.7920700000000001    0.6213750000000000    0.4840100000000000 H
   0.8964100000000000    0.6177150000000000    0.4833700000000000 H
   0.8965800000000000    0.4831400000000000    0.3994800000000000 H
   0.7080000000000000    0.4813500000000000    0.3932400000000000 H
   0.7084100000000000    0.6199150000000000    0.4878800000000000 H
   0.6040300000000000    0.6164600000000000    0.4867800000000000 H
   0.6037200000000000    0.4842750000000000    0.3967800000000000 H
   0.0000000000000000    0.2944950000000000    0.2872100000000000 H
   0.0001300000000000    0.3272400000000000    0.3969800000000000 H
   0.9999600000000000    0.4723050000000000    0.3235000000000000 H
   0.9999600000000000    0.4390850000000000    0.2149500000000000 H
   0.0000000000000000    0.5442850000000000    0.2125200000000000 H
   0.0001900000000000    0.5768950000000000    0.1026300000000000 H
   0.9998300000000000    0.7220450000000000    0.1755500000000000 H
   0.9998600000000000    0.6889800000000000    0.2841900000000000 H
   0.0000000000000000    0.7944950000000000    0.2872100000000000 H
   0.0001300000000000    0.8272400000000000    0.3969800000000000 H
   0.9999600000000000    0.9723050000000000    0.3235000000000000 H
   0.9999600000000000    0.9390849999999999    0.2149500000000000 H
   0.0000000000000000    0.0442850000000000    0.2125200000000000 H
   0.0001900000000000    0.0768950000000000    0.1026300000000000 H
   0.9998300000000000    0.2220450000000000    0.1755500000000000 H
   0.9998600000000000    0.1889800000000000    0.2841900000000000 H
   0.3788474431705632    0.4764730955566294    0.5765457727685548 H
   0.3786921371073569    0.4227222229215670    0.5400566319353372 H
   0.4998000000000000    0.7054400000000001    0.7127700000000000 H
   0.5000200000000000    0.6727050000000000    0.6029900000000000 H
   0.5000200000000000    0.5276400000000000    0.6764600000000000 H
   0.5002700000000000    0.5608450000000000    0.7850000000000000 H
   0.4997900000000000    0.4556400000000000    0.7874000000000000 H
   0.5000000000000000    0.4230650000000000    0.8973000000000000 H
   0.5000700000000000    0.2778950000000000    0.8244400000000000 H
   0.5003100000000000    0.3109250000000000    0.7157900000000000 H
   0.4998000000000000    0.2054400000000000    0.7127700000000000 H
   0.5000200000000000    0.1727050000000000    0.6029900000000000 H
   0.5000200000000000    0.0276400000000000    0.6764600000000000 H
   0.5002700000000000    0.0608450000000000    0.7850000000000000 H
   0.4997900000000000    0.9556400000000000    0.7874000000000000 H
   0.5000000000000000    0.9230650000000000    0.8973000000000000 H
   0.5000700000000000    0.7778950000000000    0.8244400000000000 H
   0.5003100000000000    0.8109250000000000    0.7157900000000000 H
   0.2079200000000000    0.6281550000000000    0.9834600000000000 H
   0.2079900000000000    0.7702800000000001    0.8978300000000000 H
   0.1035400000000000    0.6320150000000000    0.9828500000000000 H
   0.1037400000000000    0.7671800000000000    0.9003000000000000 H
   0.2920500000000000    0.7681750000000001    0.8925700000000000 H
   0.2917600000000000    0.6300950000000000    0.9886700000000000 H
   0.3961500000000000    0.6334100000000000    0.9869900000000000 H
   0.3963100000000000    0.7653000000000000    0.8959700000000000 H
   0.2079200000000000    0.1281550000000000    0.9834600000000000 H
   0.2079900000000000    0.2702800000000000    0.8978300000000000 H
   0.1035400000000000    0.1320150000000000    0.9828500000000000 H
   0.1037400000000000    0.2671800000000000    0.9003000000000000 H
   0.2920500000000000    0.2681750000000000    0.8925700000000000 H
   0.2917600000000000    0.1300950000000000    0.9886700000000000 H
   0.3961500000000000    0.1334100000000000    0.9869900000000000 H
   0.3963100000000000    0.2653000000000000    0.8959700000000000 H
   0.2076600000000000    0.0200400000000000    0.6032000000000000 H
   0.2079000000000000    0.8786050000000001    0.5159500000000000 H
   0.1035600000000000    0.8822700000000000    0.5165900000000000 H
   0.1033900000000000    0.0168250000000000    0.6005400000000000 H
   0.2919700000000000    0.0186400000000000    0.6067100000000000 H
   0.2915600000000000    0.8800350000000000    0.5121700000000000 H
   0.3959400000000000    0.8834900000000000    0.5132600000000000 H
   0.3962500000000000    0.0157100000000000    0.6031800000000000 H
   0.1207290812898554    0.4768994369455453    0.5756692921083865 H
   0.1208266102608510    0.4222109345239973    0.5415764975097037 H
   0.9999000000000000    0.2054700000000000    0.7127599999999999 H
   0.9998600000000000    0.1727250000000000    0.6029900000000000 H
   0.0000000000000000    0.0276650000000000    0.6764800000000000 H
   0.0000200000000000    0.0608850000000000    0.7850300000000000 H
   0.9998500000000000    0.9556899999999999    0.7874000000000000 H
   0.9997900000000000    0.9230849999999999    0.8973400000000000 H
   0.0000000000000000    0.7779350000000000    0.8244300000000000 H
   0.0000000000000000    0.8109900000000000    0.7157900000000000 H
   0.9999000000000000    0.7054700000000000    0.7127599999999999 H
   0.9998600000000000    0.6727250000000000    0.6029900000000000 H
   0.0000000000000000    0.5276650000000001    0.6764800000000000 H
   0.0000200000000000    0.5608850000000000    0.7850300000000000 H
   0.9998500000000000    0.4556900000000000    0.7874000000000000 H
   0.9997900000000000    0.4230850000000000    0.8973400000000000 H
   0.0000000000000000    0.2779350000000000    0.8244300000000000 H
   0.0000000000000000    0.3109900000000000    0.7157900000000000 H
   0.2079500000000000    0.9812600000000000    0.3929400000000000 H
   0.2084100000000000    0.1197350000000000    0.4878000000000000 H
   0.1040600000000000    0.1164050000000000    0.4864900000000000 H
   0.1037000000000000    0.9842000000000000    0.3964800000000000 H
   0.2922900000000000    0.9794300000000000    0.3975300000000000 H
   0.2921100000000000    0.1215600000000000    0.4828700000000000 H
   0.3964300000000000    0.1178850000000000    0.4822100000000000 H
   0.3965300000000000    0.9826650000000000    0.4000100000000000 H
   0.2079500000000000    0.4812600000000000    0.3929400000000000 H
   0.2084100000000000    0.6197350000000000    0.4878000000000000 H
   0.1040600000000000    0.6164050000000000    0.4864900000000000 H
   0.1037000000000000    0.4842000000000000    0.3964800000000000 H
   0.2922900000000000    0.4794300000000000    0.3975300000000000 H
   0.2921100000000000    0.6215600000000000    0.4828700000000000 H
   0.3964300000000000    0.6178850000000000    0.4822100000000000 H
   0.3965300000000000    0.4826650000000000    0.4000100000000000 H
   0.2919200000000000    0.8726200000000000    0.0193900000000000 H
   0.2919900000000000    0.7287850000000000    0.1000700000000000 H
   0.3963100000000000    0.8688300000000000    0.0198400000000000 H
   0.3962900000000000    0.7321050000000000    0.0979600000000000 H
   0.2079700000000000    0.7321800000000001    0.1088900000000000 H
   0.2081800000000000    0.8691050000000000    0.0101000000000000 H
   0.1037600000000000    0.8658150000000000    0.0119400000000000 H
   0.1037100000000000    0.7347900000000001    0.1050400000000000 H
   0.2919200000000000    0.3726200000000000    0.0193900000000000 H
   0.2919900000000000    0.2287850000000000    0.1000700000000000 H
   0.3963100000000000    0.3688300000000000    0.0198400000000000 H
   0.3962900000000000    0.2321050000000000    0.0979600000000000 H
   0.2079700000000000    0.2321800000000000    0.1088900000000000 H
   0.2081800000000000    0.3691050000000000    0.0101000000000000 H
   0.1037600000000000    0.3658150000000000    0.0119400000000000 H
   0.1037100000000000    0.2347900000000000    0.1050400000000000 H
   0.5018899999999999    0.0443400000000000    0.2125700000000000 H
   0.5019700000000000    0.0769250000000000    0.1026700000000000 H
   0.4983000000000000    0.1890250000000000    0.2841000000000000 H
   0.4984900000000000    0.2220650000000000    0.1755200000000000 H
   0.5002000000000000    0.8272500000000000    0.3969600000000000 H
   0.5004300000000000    0.7945200000000000    0.2871900000000000 H
   0.4997600000000000    0.9723200000000001    0.3235200000000000 H
   0.4994900000000000    0.9391200000000000    0.2149600000000000 H
   0.5018899999999999    0.5443400000000000    0.2125700000000000 H
   0.5019700000000000    0.5769250000000000    0.1026700000000000 H
   0.4983000000000000    0.6890250000000000    0.2841000000000000 H
   0.4984900000000000    0.7220650000000000    0.1755200000000000 H
   0.5002000000000000    0.3272500000000000    0.3969600000000000 H
   0.5004300000000000    0.2945200000000000    0.2871900000000000 H
   0.4997600000000000    0.4723200000000000    0.3235200000000000 H
   0.4994900000000000    0.4391200000000000    0.2149600000000000 H
   0.8123400000000000    0.6614250000000000    0.9664100000000000 C
   0.8125700000000000    0.7379050000000000    0.9143500000000000 C
   0.8708900000000001    0.6627850000000000    0.9660400000000000 C
   0.8711100000000001    0.7367450000000000    0.9158800000000000 C
   0.7812400000000000    0.6996650000000000    0.9402100000000000 C
   0.6874200000000000    0.6606350000000000    0.9640100000000000 C
   0.6874400000000001    0.7389450000000000    0.9167100000000000 C
   0.6288700000000000    0.6621750000000000    0.9638400000000000 C
   0.6289000000000000    0.7377850000000000    0.9179800000000000 C
   0.7186500000000000    0.6997250000000000    0.9402000000000000 C
   0.8123400000000000    0.1614250000000000    0.9664100000000000 C
   0.8125700000000000    0.2379050000000000    0.9143500000000000 C
   0.8708900000000001    0.1627850000000000    0.9660400000000000 C
   0.8711100000000001    0.2367450000000000    0.9158800000000000 C
   0.7812400000000000    0.1996650000000000    0.9402100000000000 C
   0.6874200000000000    0.1606350000000000    0.9640100000000000 C
   0.6874400000000001    0.2389450000000000    0.9167100000000000 C
   0.6288700000000000    0.1621750000000000    0.9638400000000000 C
   0.6289000000000000    0.2377850000000000    0.9179800000000000 C
   0.7186500000000000    0.1997250000000000    0.9402000000000000 C
   0.8124400000000001    0.9877400000000001    0.5853900000000000 C
   0.8121800000000000    0.9113550000000000    0.5332500000000000 C
   0.8707300000000000    0.9127050000000000    0.5335800000000001 C
   0.8709900000000000    0.9865600000000000    0.5838400000000000 C
   0.7810800000000000    0.9495350000000000    0.5595000000000000 C
   0.6872000000000000    0.9886500000000000    0.5832300000000000 C
   0.6873100000000000    0.9104449999999999    0.5358200000000000 C
   0.6287600000000000    0.9118950000000000    0.5360400000000000 C
   0.6286500000000000    0.9874000000000001    0.5820000000000000 C
   0.7184800000000000    0.9495400000000001    0.5596400000000000 C
   0.8124400000000001    0.4877400000000000    0.5853900000000000 C
   0.8121800000000000    0.4113550000000000    0.5332500000000000 C
   0.8707300000000000    0.4127050000000000    0.5335800000000001 C
   0.8709900000000000    0.4865600000000000    0.5838400000000000 C
   0.7810800000000000    0.4495350000000000    0.5595000000000000 C
   0.6872000000000000    0.4886500000000000    0.5832300000000000 C
   0.6873100000000000    0.4104450000000000    0.5358200000000000 C
   0.6287600000000000    0.4118950000000000    0.5360400000000000 C
   0.6286500000000000    0.4874000000000000    0.5820000000000000 C
   0.7184800000000000    0.4495400000000000    0.5596400000000000 C
   0.6874800000000000    0.7625950000000000    0.0863800000000000 C
   0.6875800000000000    0.8381149999999999    0.0320100000000000 C
   0.6290400000000000    0.8367200000000000    0.0324900000000000 C
   0.6289300000000000    0.7636650000000000    0.0848200000000000 C
   0.7187400000000000    0.8004150000000000    0.0590000000000000 C
   0.8124700000000000    0.8398500000000000    0.0363000000000000 C
   0.8125800000000000    0.7610350000000000    0.0822800000000000 C
   0.8710300000000000    0.8383800000000000    0.0365400000000000 C
   0.8711200000000000    0.7623200000000000    0.0811600000000000 C
   0.7813200000000000    0.8004599999999999    0.0594700000000000 C
   0.6874800000000000    0.2625950000000000    0.0863800000000000 C
   0.6875800000000000    0.3381150000000000    0.0320100000000000 C
   0.6290400000000000    0.3367200000000000    0.0324900000000000 C
   0.6289300000000000    0.2636650000000000    0.0848200000000000 C
   0.7187400000000000    0.3004150000000000    0.0590000000000000 C
   0.8124700000000000    0.3398500000000000    0.0363000000000000 C
   0.8125800000000000    0.2610350000000000    0.0822800000000000 C
   0.8710300000000000    0.3383800000000000    0.0365400000000000 C
   0.8711200000000000    0.2623200000000000    0.0811600000000000 C
   0.7813200000000000    0.3004600000000000    0.0594700000000000 C
   0.8127799999999999    0.0116300000000000    0.4165300000000000 C
   0.8126400000000000    0.0895100000000000    0.4648400000000000 C
   0.8711800000000000    0.0880650000000000    0.4646600000000000 C
   0.8713300000000000    0.0128700000000000    0.4178200000000000 C
   0.7814900000000000    0.0505700000000000    0.4405800000000000 C
   0.6875599999999999    0.0123400000000000    0.4148300000000000 C
   0.6878000000000000    0.0887450000000000    0.4669300000000000 C
   0.6292500000000000    0.0873550000000000    0.4666000000000000 C
   0.6290100000000000    0.0134950000000000    0.4163800000000000 C
   0.7189000000000000    0.0505700000000000    0.4406300000000000 C
   0.8127799999999999    0.5116300000000000    0.4165300000000000 C
   0.8126400000000000    0.5895100000000000    0.4648400000000000 C
   0.8711800000000000    0.5880650000000001    0.4646600000000000 C
   0.8713300000000000    0.5128700000000000    0.4178200000000000 C
   0.7814900000000000    0.5505700000000000    0.4405800000000000 C
   0.6875599999999999    0.5123400000000000    0.4148300000000000 C
   0.6878000000000000    0.5887450000000000    0.4669300000000000 C
   0.6292500000000000    0.5873550000000000    0.4666000000000000 C
   0.6290100000000000    0.5134950000000000    0.4163800000000000 C
   0.7189000000000000    0.5505700000000000    0.4406300000000000 C
   0.0000300000000000    0.3455600000000000    0.1791900000000000 C
   0.0000000000000000    0.4202950000000000    0.4328700000000000 C
   0.0000000000000000    0.3332850000000000    0.2960600000000000 C
   0.0001100000000000    0.3513850000000000    0.3567100000000000 C
   0.0000000000000000    0.4333550000000000    0.3159000000000000 C
   0.0000000000000000    0.4150150000000000    0.2553000000000000 C
   0.0000600000000000    0.3649800000000000    0.2447700000000000 C
   0.0000600000000000    0.4015750000000000    0.3672000000000000 C
   0.0000000000000000    0.5955650000000000    0.3204100000000000 C
   0.0000000000000000    0.6699450000000000    0.0663900000000000 C
   0.0001100000000000    0.5830649999999999    0.2035300000000000 C
   0.0000000000000000    0.6011000000000000    0.1428000000000000 C
   0.9999300000000000    0.6831100000000000    0.1832200000000000 C
   0.9999400000000001    0.6648450000000000    0.2439500000000000 C
   0.0000000000000000    0.6148200000000000    0.2547000000000000 C
   0.0000000000000000    0.6512750000000000    0.1321000000000000 C
   0.0000300000000000    0.8455600000000000    0.1791900000000000 C
   0.0000000000000000    0.9202950000000000    0.4328700000000000 C
   0.0000000000000000    0.8332850000000001    0.2960600000000000 C
   0.0001100000000000    0.8513850000000001    0.3567100000000000 C
   0.0000000000000000    0.9333549999999999    0.3159000000000000 C
   0.0000000000000000    0.9150150000000000    0.2553000000000000 C
   0.0000600000000000    0.8649800000000001    0.2447700000000000 C
   0.0000600000000000    0.9015750000000000    0.3672000000000000 C
   0.0000000000000000    0.0955650000000000    0.3204100000000000 C
   0.0000000000000000    0.1699450000000000    0.0663900000000000 C
   0.0001100000000000    0.0830650000000000    0.2035300000000000 C
   0.0000000000000000    0.1011000000000000    0.1428000000000000 C
   0.9999300000000000    0.1831100000000000    0.1832200000000000 C
   0.9999400000000001    0.1648450000000000    0.2439500000000000 C
   0.0000000000000000    0.1148200000000000    0.2547000000000000 C
   0.0000000000000000    0.1512750000000000    0.1321000000000000 C
   0.5000300000000000    0.6544050000000000    0.8207600000000000 C
   0.5000200000000000    0.5796650000000000    0.5670900000000000 C
   0.4999300000000000    0.6666666666666666    0.7039100000000000 C
   0.5000100000000000    0.6485600000000000    0.6432600000000001 C
   0.5000500000000000    0.5665850000000000    0.6840000000000001 C
   0.5001500000000000    0.5849250000000000    0.7446000000000000 C
   0.5000400000000000    0.6349549999999999    0.7552000000000000 C
   0.5000200000000000    0.5983700000000000    0.6327600000000000 C
   0.5000400000000000    0.4043750000000000    0.6795400000000000 C
   0.4999900000000000    0.3300300000000000    0.9335900000000000 C
   0.4999400000000000    0.4168650000000000    0.7964100000000000 C
   0.5000000000000000    0.3988500000000000    0.8571400000000000 C
   0.5000800000000000    0.3168300000000000    0.8167600000000000 C
   0.5001900000000000    0.3350800000000000    0.7560200000000000 C
   0.5000599999999999    0.3851000000000000    0.7452400000000000 C
   0.5000300000000000    0.3486750000000000    0.8678000000000000 C
   0.5000300000000000    0.1544050000000000    0.8207600000000000 C
   0.5000200000000000    0.0796650000000000    0.5670900000000000 C
   0.4999300000000000    0.1666666666666667    0.7039100000000000 C
   0.5000100000000000    0.1485600000000000    0.6432600000000001 C
   0.5000500000000000    0.0665850000000000    0.6840000000000001 C
   0.5001500000000000    0.0849250000000000    0.7446000000000000 C
   0.5000400000000000    0.1349550000000000    0.7552000000000000 C
   0.5000200000000000    0.0983700000000000    0.6327600000000000 C
   0.5000400000000000    0.9043749999999999    0.6795400000000000 C
   0.4999900000000000    0.8300300000000000    0.9335900000000000 C
   0.4999400000000000    0.9168650000000000    0.7964100000000000 C
   0.5000000000000000    0.8988499999999999    0.8571400000000000 C
   0.5000800000000000    0.8168299999999999    0.8167600000000000 C
   0.5001900000000000    0.8350800000000000    0.7560200000000000 C
   0.5000599999999999    0.8851000000000000    0.7452400000000000 C
   0.5000300000000000    0.8486750000000001    0.8678000000000000 C
   0.1874100000000000    0.6602150000000000    0.9646900000000000 C
   0.1874500000000000    0.7384450000000000    0.9171600000000000 C
   0.1288600000000000    0.6617500000000001    0.9644000000000000 C
   0.1289000000000000    0.7372700000000000    0.9183500000000000 C
   0.2186400000000000    0.6992650000000000    0.9407600000000000 C
   0.3125200000000000    0.7373000000000001    0.9144500000000000 C
   0.3123600000000000    0.6611300000000000    0.9672900000000000 C
   0.3709100000000000    0.6624900000000000    0.9667800000000000 C
   0.3710700000000000    0.7361450000000000    0.9158800000000000 C
   0.2812200000000000    0.6992050000000000    0.9407300000000000 C
   0.1874100000000000    0.1602150000000000    0.9646900000000000 C
   0.1874500000000000    0.2384450000000000    0.9171600000000000 C
   0.1288600000000000    0.1617500000000000    0.9644000000000000 C
   0.1289000000000000    0.2372700000000000    0.9183500000000000 C
   0.2186400000000000    0.1992650000000000    0.9407600000000000 C
   0.3125200000000000    0.2373000000000000    0.9144500000000000 C
   0.3123600000000000    0.1611300000000000    0.9672900000000000 C
   0.3709100000000000    0.1624900000000000    0.9667800000000000 C
   0.3710700000000000    0.2361450000000000    0.9158800000000000 C
   0.2812200000000000    0.1992050000000000    0.9407300000000000 C
   0.1871900000000000    0.9883299999999999    0.5834800000000000 C
   0.1873300000000000    0.9104700000000000    0.5351300000000000 C
   0.1287900000000000    0.9119150000000000    0.5353100000000000 C
   0.1286400000000000    0.9871000000000000    0.5821800000000000 C
   0.2184800000000000    0.9493950000000000    0.5594300000000000 C
   0.3124100000000000    0.9876350000000000    0.5851499999999999 C
   0.3121700000000000    0.9112100000000001    0.5331000000000000 C
   0.3707200000000000    0.9126050000000000    0.5333500000000000 C
   0.3709600000000000    0.9864800000000000    0.5835000000000000 C
   0.2810700000000000    0.9494000000000000    0.5593600000000000 C
   0.9999600000000000    0.1544300000000000    0.8207700000000000 C
   0.9999600000000000    0.0796750000000000    0.5671100000000000 C
   0.9999000000000000    0.1666850000000000    0.7039100000000000 C
   0.9998800000000000    0.1485800000000000    0.6432600000000001 C
   0.9999500000000000    0.0666100000000000    0.6840100000000000 C
   0.9999800000000000    0.0849550000000000    0.7446000000000000 C
   0.9999500000000000    0.1349900000000000    0.7552000000000000 C
   0.9999100000000000    0.0983900000000000    0.6327700000000001 C
   0.9999700000000000    0.9044200000000000    0.6795600000000001 C
   0.9999300000000000    0.8300449999999999    0.9335900000000000 C
   0.9998700000000000    0.9169100000000000    0.7964400000000000 C
   0.9998600000000000    0.8988849999999999    0.8571700000000000 C
   0.0000100000000000    0.8168700000000000    0.8167600000000000 C
   0.0000300000000000    0.8351299999999999    0.7560200000000000 C
   0.9999600000000000    0.8851550000000000    0.7452700000000000 C
   0.9999200000000000    0.8487050000000000    0.8678700000000000 C
   0.9999600000000000    0.6544300000000001    0.8207700000000000 C
   0.9999600000000000    0.5796749999999999    0.5671100000000000 C
   0.9999000000000000    0.6666850000000000    0.7039100000000000 C
   0.9998800000000000    0.6485799999999999    0.6432600000000001 C
   0.9999500000000000    0.5666100000000001    0.6840100000000000 C
   0.9999800000000000    0.5849550000000000    0.7446000000000000 C
   0.9999500000000000    0.6349899999999999    0.7552000000000000 C
   0.9999100000000000    0.5983900000000000    0.6327700000000001 C
   0.9999700000000000    0.4044200000000000    0.6795600000000001 C
   0.9999300000000000    0.3300450000000000    0.9335900000000000 C
   0.9998700000000000    0.4169100000000000    0.7964400000000000 C
   0.9998600000000000    0.3988850000000000    0.8571700000000000 C
   0.0000100000000000    0.3168700000000000    0.8167600000000000 C
   0.0000300000000000    0.3351300000000000    0.7560200000000000 C
   0.9999600000000000    0.3851550000000000    0.7452700000000000 C
   0.9999200000000000    0.3487050000000000    0.8678700000000000 C
   0.1875300000000000    0.0122350000000000    0.4145900000000000 C
   0.1877900000000000    0.0886050000000000    0.4667600000000000 C
   0.1292400000000000    0.0872600000000000    0.4664000000000000 C
   0.1289700000000000    0.0134200000000000    0.4161300000000000 C
   0.2188900000000000    0.0504350000000000    0.4404400000000000 C
   0.3127700000000000    0.0113000000000000    0.4167900000000000 C
   0.3126700000000000    0.0895300000000000    0.4641300000000000 C
   0.3712100000000000    0.0880800000000000    0.4639000000000000 C
   0.3713200000000000    0.0125500000000000    0.4180100000000000 C
   0.2814900000000000    0.0504200000000000    0.4403600000000000 C
   0.1875300000000000    0.5122350000000000    0.4145900000000000 C
   0.1877900000000000    0.5886050000000000    0.4667600000000000 C
   0.1292400000000000    0.5872600000000000    0.4664000000000000 C
   0.1289700000000000    0.5134200000000000    0.4161300000000000 C
   0.2188900000000000    0.5504350000000000    0.4404400000000000 C
   0.3127700000000000    0.5113000000000000    0.4167900000000000 C
   0.3126700000000000    0.5895300000000000    0.4641300000000000 C
   0.3712100000000000    0.5880800000000000    0.4639000000000000 C
   0.3713200000000000    0.5125500000000000    0.4180100000000000 C
   0.2814900000000000    0.5504200000000000    0.4403600000000000 C
   0.3124900000000000    0.8401900000000000    0.0370000000000000 C
   0.3125300000000000    0.7610550000000000    0.0819600000000000 C
   0.3710400000000000    0.8387050000000000    0.0372200000000000 C
   0.3710700000000000    0.7623200000000000    0.0809000000000000 C
   0.2813000000000000    0.8006300000000000    0.0595500000000000 C
   0.1874600000000000    0.7627300000000000    0.0862900000000000 C
   0.1875800000000000    0.8383450000000000    0.0321200000000000 C