H4 C8 O4
1.0
  23.7219999674823967    0.0000000000000000    0.0012420810149050
  -0.0014489924784154   27.6519914334641967    0.0217178277814918
   0.0000000000000000    0.0000000000000000   21.3919999999999995
H C O
4 8 4
direct
   0.5002000000000000    0.3272500000000000    0.3969600000000000 H
   0.5004300000000000    0.2945200000000000    0.2871900000000000 H
   0.4994900000000000    0.4391200000000000    0.2149600000000000 H
   0.4997600000000000    0.4723200000000000    0.3235200000000000 H
   0.4999600000000000    0.4202950000000000    0.4328800000000000 C
   0.4999700000000000    0.4015900000000000    0.3672100000000000 C
   0.5001100000000001    0.3514000000000000    0.3567000000000000 C
   0.5002000000000000    0.3333333333333333    0.2960500000000000 C
   0.4999500000000000    0.3650050000000000    0.2447600000000000 C
   0.4997200000000000    0.4150400000000000    0.2553100000000000 C
   0.4998100000000000    0.4333750000000000    0.3159800000000000 C
   0.4999600000000000    0.3455800000000000    0.1791900000000000 C
   0.4988800000000000    0.3897300000000000    0.4775900000000000 O
   0.5010900000000000    0.4659450000000000    0.4432000000000000 O
   0.5012600000000000    0.2994450000000000    0.1721400000000000 O
   0.4987100000000000    0.3748050000000000    0.1334600000000000 O
