H8 C10 N2
1.0
  23.7219999674823967    0.0000000000000000    0.0012420810149050
  -0.0014489924784154   27.6519914334641967    0.0217178277814918
   0.0000000000000000    0.0000000000000000   21.3919999999999995
H C N
8 10 2
direct
   0.2915600000000000    0.3800350000000000    0.5121700000000000 H
   0.3959400000000000    0.3834900000000000    0.5132600000000000 H
   0.2079000000000000    0.3786050000000000    0.5159500000000000 H
   0.1035600000000000    0.3822700000000000    0.5165900000000000 H
   0.3962500000000000    0.5157100000000000    0.6031800000000000 H
   0.2919700000000000    0.5186400000000000    0.6067100000000000 H
   0.1033900000000000    0.5168250000000000    0.6005400000000000 H
   0.2076600000000000    0.5200399999999999    0.6032000000000000 H
   0.3709600000000000    0.4864800000000000    0.5835000000000000 C
   0.3124100000000000    0.4876350000000000    0.5851499999999999 C
   0.2810700000000000    0.4494000000000000    0.5593600000000000 C
   0.3121700000000000    0.4112100000000000    0.5331000000000000 C
   0.3707200000000000    0.4126050000000000    0.5333500000000000 C
   0.1286400000000000    0.4871000000000000    0.5821800000000000 C
   0.1871900000000000    0.4883300000000000    0.5834800000000000 C
   0.2184800000000000    0.4493950000000000    0.5594300000000000 C
   0.1873300000000000    0.4104700000000000    0.5351300000000000 C
   0.1287900000000000    0.4119150000000000    0.5353100000000000 C
   0.0996000000000000    0.4496550000000000    0.5582800000000000 N
   0.3999500000000000    0.4497000000000000    0.5579400000000000 N
