H6 O4
1.0
  23.7219999674823967    0.0000000000000000    0.0012420810149050
  -0.0014489924784154   27.6519914334641967    0.0217178277814918
   0.0000000000000000    0.0000000000000000   21.3919999999999995
H O
6 4
direct
   0.4979782601118799    0.3546732480483193    0.4763630127438263 H
   0.5019932114113066    0.4934254335602202    0.4150070997335924 H
   0.5000280400321552    0.4246594057107586    0.4417550030953729 H
   0.5022896778002393    0.2751748493590140    0.2048838301800436 H
   0.4977233322556883    0.4098556749628327    0.1348732468616383 H
   0.4999838307604746    0.3447800111727575    0.1739679123677411 H
   0.4988800000000000    0.3897300000000000    0.4775900000000000 O
   0.5010900000000000    0.4659450000000000    0.4432000000000000 O
   0.5012600000000000    0.2994450000000000    0.1721400000000000 O
   0.4987100000000000    0.3748050000000000    0.1334600000000000 O
