H16 C29 O8
1.0
  12.1940000000000008    0.0000000000000000    0.0000000000000007
  -0.0006378480284020   36.5459999944337284    0.0000000000000022
   0.0000000000000000    0.0000000000000000   23.1690000000000005
H C O
16 29 8
direct
   0.6075199999999999    0.2256000000000000    0.7987800000000000 H
   0.7532700000000000    0.2253966666666666    0.8731700000000000 H
   0.3924200000000000    0.1077333333333333    0.7987800000000000 H
   0.2466700000000000    0.1079366666666667    0.8731700000000000 H
   0.6766000000000000    0.2025200000000000    0.7013400000000000 H
   0.6759800000000000    0.2510966666666666    0.6268600000000000 H
   0.3233500000000000    0.1308133333333333    0.7013400000000000 H
   0.3239700000000000    0.0822366666666667    0.6268600000000000 H
   0.6766000000000000    0.1308166666666667    0.7013400000000000 H
   0.6759800000000000    0.0822400000000000    0.6268600000000000 H
   0.3233500000000000    0.2025166666666667    0.7013400000000000 H
   0.3239700000000000    0.2510966666666666    0.6268600000000000 H
   0.6075199999999999    0.1077366666666667    0.7987800000000000 H
   0.7532700000000000    0.1079400000000000    0.8731700000000000 H
   0.3924200000000000    0.2256000000000000    0.7987800000000000 H
   0.2466800000000000    0.2253933333333333    0.8731700000000000 H
   0.6396800000000000    0.1996066666666667    0.8143300000000000 C
   0.7214000000000000    0.1997200000000000    0.8562500000000000 C
   0.3602600000000000    0.1337266666666667    0.8143300000000000 C
   0.2785400000000000    0.1336166666666667    0.8562500000000000 C
   0.5987000000000000    0.2132466666666666    0.6857000000000000 C
   0.5990300000000000    0.2404766666666667    0.6438100000000000 C
   0.4012500000000000    0.1200866666666667    0.6857799999999999 C
   0.4009200000000000    0.0928566666666667    0.6438100000000000 C
   0.5987000000000000    0.1200900000000000    0.6857000000000000 C
   0.5990300000000000    0.0928600000000000    0.6438000000000000 C
   0.4012500000000000    0.2132466666666666    0.6857000000000000 C
   0.4009200000000000    0.2404766666666667    0.6438100000000000 C
   0.6396800000000000    0.1337300000000000    0.8143300000000000 C
   0.7214000000000000    0.1336166666666667    0.8562500000000000 C
   0.3602600000000000    0.1996033333333333    0.8143300000000000 C
   0.2785400000000000    0.1997166666666667    0.8562500000000000 C
   0.5983100000000000    0.1666666666666667    0.7920700000000001 C
   0.8509500000000000    0.1666666666666667    0.9224200000000000 C
   0.7634300000000001    0.1666666666666667    0.8774900000000000 C
   0.4016300000000000    0.1666666666666667    0.7920700000000001 C
   0.1489900000000000    0.1666666666666667    0.9224200000000000 C
   0.2365100000000000    0.1666666666666667    0.8774900000000000 C
   0.4999700000000000    0.1994666666666667    0.7080800000000000 C
   0.4999800000000000    0.2836433333333333    0.5775800000000000 C
   0.4999800000000000    0.2544800000000000    0.6225000000000001 C
   0.4999700000000000    0.1338666666666667    0.7080800000000000 C
   0.4999800000000000    0.0496900000000000    0.5775800000000000 C
   0.4999800000000000    0.0788533333333333    0.6225000000000001 C
   0.4999700000000000    0.1666666666666667    0.7500800000000000 C
  -0.1148600000000000    0.1978600000000000   -0.0600200000000000 O
   0.1148100000000000    0.1354733333333333   -0.0601000000000000 O
   0.5934600000000000    0.2950366666666666    0.5600100000000000 O
   0.4064900000000000    0.0382966666666666    0.5600100000000000 O
   0.5934600000000000    0.0382966666666667    0.5600100000000000 O
   0.4064900000000000    0.2950366666666666    0.5600100000000000 O
  -0.1148700000000000    0.1354766666666667   -0.0600200000000000 O
   0.1148100000000000    0.1978566666666667   -0.0600200000000000 O
