H12 O8
1.0
  12.1940000000000008    0.0000000000000000    0.0000000000000007
  -0.0006378480284020   36.5459999944337284    0.0000000000000022
   0.0000000000000000    0.0000000000000000   23.1690000000000005
H O
12 8
direct
  -0.1432844320952870    0.2207910063552586   -0.0748744381769669 H
  -0.1433003878445327    0.1125459613149422   -0.0748737088096780 H
  -0.1535333473162385    0.1666677722638558   -0.0802252340218572 H
   0.1432239603379718    0.2207945988576619   -0.0748546405932343 H
   0.1432072026721816    0.1125464558093962   -0.0749846909852146 H
   0.1534460445486566    0.1666633173920151   -0.0802714871142959 H
   0.3706019450060282    0.0610072799687979    0.5493931767627460 H
   0.6293513567098006    0.0610071302363006    0.5493932467601272 H
   0.4999796083086776    0.0974527571092941    0.5323555396258521 H
   0.3706029420173878    0.2723254602805350    0.5493931751926171 H
   0.6293493924853452    0.2723262220640985    0.5493935313041550 H
   0.4999796084373805    0.2358773879410687    0.5323547672799829 H
  -0.1148600000000000    0.1978600000000000   -0.0600200000000000 O
  -0.1148700000000000    0.1354766666666667   -0.0600200000000000 O
   0.1148100000000000    0.1978566666666667   -0.0600200000000000 O
   0.1148100000000000    0.1354733333333333   -0.0601000000000000 O
   0.4064900000000000    0.0382966666666666    0.5600100000000000 O
   0.5934600000000000    0.0382966666666667    0.5600100000000000 O
   0.4064900000000000    0.2950366666666666    0.5600100000000000 O
   0.5934600000000000    0.2950366666666666    0.5600100000000000 O
