H6 O4
1.0
  10.0089955546811584    0.0000000000000000    0.0094332588643964
   0.0064278269243548   13.1539984214767181    0.0004591612195210
   0.0000000000000000    0.0000000000000000   15.5470000000000006
H O
6 4
direct
   0.0704234784397242    1.0428355911875895    0.1714101961004801 H
   0.7676525755019570    0.8572392261676642    0.1520465405035691 H
   0.9105379197385988    0.9585843917217373    0.1511465082332791 H
   0.6805586846825006    0.2553514068833636    0.9034510767076306 H
   0.5165355576243558   -0.0105676939639140    0.9363609455093291 H
   0.6051942852698123    0.1165564911799540    0.9326756236949731 H
   0.0269800000000000    0.9822600000000000    0.1934000000000000 O
   0.8498400000000000    0.8739500000000000    0.1818700000000000 O
   0.6225100000000000    0.2040900000000000    0.8787199999999999 O
   0.5282400000000000    0.0486000000000000    0.8998900000000000 O
