Zn8 H20 C42 S7 O32
1.0
  10.0089955546811584    0.0000000000000000    0.0094332588643964
   0.0064278269243548   13.1539984214767181    0.0004591612195210
   0.0000000000000000    0.0000000000000000   15.5470000000000006
Zn H C S O
8 20 42 7 32
direct
   0.0997200000000000    0.2586600000000000    0.2479300000000000 Zn
   0.1103400000000000    0.9427200000000000    0.3037200000000000 Zn
   0.4105900000000000    0.7421800000000000    0.7479100000000000 Zn
   0.4000100000000000    0.0583700000000000    0.8039400000000000 Zn
   0.6002500000000000    0.2437200000000000    0.7557900000000000 Zn
   0.6107399999999999    0.5589900000000000    0.6998799999999999 Zn
   0.9071600000000000    0.7596500000000000    0.2557200000000000 Zn
   0.8996900000000000    0.4446700000000000    0.1999100000000000 Zn
   0.7807900000000000    0.0415500000000000    0.3378500000000000 H
   0.5305800000000001    0.9747200000000000    0.3571800000000000 H
   0.6805586846825006    0.2553514068833636    0.9034510767076306 H
   0.5165355576243558   -0.0105676939639140    0.9363609455093291 H
   0.6051942852698123    0.1165564911799540    0.9326756236949731 H
   0.5046100000000000    0.8629300000000000    0.5848900000000000 H
   0.6603599999999999    0.7779500000000000    0.4667800000000000 H
   0.7291200000000000    0.9606500000000000    0.8366300000000000 H
   0.9791700000000000    0.0274600000000000    0.8562900000000000 H
   0.0704234784397242    1.0428355911875895    0.1714101961004801 H
   0.7676525755019570    0.8572392261676642    0.1520465405035691 H
   0.9105379197385988    0.9585843917217373    0.1511465082332791 H
   0.2813300000000000    0.4597800000000000    0.6652100000000000 H
   0.0309900000000000    0.5263200000000000    0.6451400000000000 H
   0.0069400000000000    0.6419600000000000    0.4190900000000000 H
   0.1638800000000000    0.7247400000000001    0.5373500000000000 H
   0.5042200000000000    0.3610500000000000    0.9186800000000001 H
   0.3478900000000000    0.2767700000000000    0.0366500000000000 H
   0.2273100000000000    0.5418200000000000    0.1648700000000000 H
   0.4774600000000000    0.4752300000000000    0.1443500000000000 H
   0.3199800000000000    0.1026800000000000    0.2882800000000000 C
   0.8173200000000000    0.2321500000000000    0.2520100000000000 C
   0.6914900000000000    0.0795700000000000    0.3147500000000000 C
   0.6976800000000000    0.1719100000000000    0.2716200000000000 C
   0.5595300000000000    0.0447800000000000    0.3250700000000000 C
   0.4668100000000000    0.1113800000000000    0.2897200000000000 C
   0.5944500000000000    0.0498000000000000    0.6612900000000000 C
   0.8956200000000000    0.8831300000000000    0.4169800000000000 C
   0.5996700000000000    0.8935400000000000    0.5632300000000000 C
   0.6529500000000000    0.9837399999999999    0.5946500000000000 C
   0.6819900000000000    0.8482900000000000    0.5007800000000000 C
   0.7966200000000000    0.9049199999999999    0.4845300000000000 C
   0.1902400000000000    0.9003800000000000    0.7878200000000000 C
   0.6932600000000000    0.7702300000000000    0.7502900000000000 C
   0.8185400000000000    0.9227400000000000    0.8134700000000000 C
   0.8126200000000000    0.8306500000000000    0.7699700000000000 C
   0.9504200000000000    0.9575100000000000    0.8239800000000000 C
   0.0434300000000000    0.8910600000000000    0.7885900000000000 C
   0.8205900000000000    0.3996100000000000    0.7155899999999999 C
   0.3178600000000000    0.2707300000000000    0.7532400000000000 C
   0.1920000000000000    0.4223000000000000    0.6888800000000000 C
   0.1982300000000000    0.3307700000000000    0.7332100000000000 C
   0.0600200000000000    0.4568700000000000    0.6781500000000000 C
   0.9673800000000000    0.3909300000000000    0.7144500000000000 C
   0.0930500000000000    0.4542100000000000    0.3423100000000000 C
   0.3972900000000000    0.6169700000000000    0.5868800000000000 C
   0.1012700000000000    0.6101000000000000    0.4407400000000000 C
   0.1527900000000000    0.5193100000000000    0.4091700000000000 C
   0.1842600000000000    0.6541900000000000    0.5032900000000000 C
   0.2978200000000000    0.5962499999999999    0.5194600000000000 C
   0.4160000000000000    0.5485500000000000    0.8423700000000000 C
   0.1132800000000000    0.3834500000000000    0.0867000000000000 C
   0.4093900000000000    0.3921500000000000    0.9403200000000000 C
   0.3569300000000000    0.4826700000000000    0.9089300000000000 C
   0.3267300000000000    0.3472900000000000    0.0027600000000000 C
   0.2125200000000000    0.4044800000000000    0.0190600000000000 C
   0.6884700000000000    0.6021300000000001    0.2142200000000000 C
   0.1913300000000000    0.7316400000000000    0.2528700000000000 C
   0.3166600000000000    0.5794200000000000    0.1883000000000000 C
   0.3105100000000000    0.6709800000000000    0.2325900000000000 C
   0.4486600000000000    0.5448000000000000    0.1773100000000000 C
   0.5415400000000000    0.6107300000000000    0.2133100000000000 C
   0.5415600000000000    0.2162600000000000    0.2434300000000000 S
   0.8036799999999999    0.0135900000000000    0.5467500000000000 S
   0.9690000000000000    0.7864700000000000    0.7417800000000000 S
   0.0421400000000000    0.2868800000000000    0.7620200000000000 S
   0.3028000000000000    0.4875700000000000    0.4570700000000000 S
   0.2064200000000000    0.5132700000000000    0.9568800000000000 S
   0.4668100000000000    0.7148000000000000    0.2610000000000000 S
   0.2680700000000000    0.0267500000000000    0.3266400000000000 O
   0.2583500000000000    0.1728300000000000    0.2478500000000000 O
   0.7997500000000000    0.3151000000000000    0.2110000000000000 O
   0.9295400000000000    0.1963800000000000    0.2778800000000000 O
   0.6225100000000000    0.2040900000000000    0.8787199999999999 O
   0.5282400000000000    0.0486000000000000    0.8998900000000000 O
   0.4828000000000000    0.0215600000000000    0.6930800000000000 O
   0.6602400000000000    0.1295700000000000    0.6819000000000000 O
   0.8847400000000000    0.7978499999999999    0.3786200000000000 O
   0.9822300000000000    0.9521600000000000    0.3999800000000000 O
   0.2400300000000000    0.9769700000000000    0.8264400000000000 O
   0.2540000000000000    0.8309900000000000    0.7478100000000000 O
   0.7110700000000000    0.6884800000000000    0.7075600000000000 O
   0.5810300000000000    0.8043000000000000    0.7778300000000000 O
   0.0269800000000000    0.9822600000000000    0.1934000000000000 O
   0.8498400000000000    0.8739500000000000    0.1818700000000000 O
   0.7689900000000000    0.4753800000000000    0.6768100000000000 O
   0.7586400000000000    0.3298400000000000    0.7562900000000000 O
   0.3006100000000000    0.1889600000000000    0.7959500000000000 O
   0.4298500000000000    0.3054700000000000    0.7258599999999999 O
   0.9828800000000000    0.4846100000000000    0.3099200000000000 O
   0.1565500000000000    0.3731400000000000    0.3221600000000000 O
   0.3884700000000000    0.7024600000000000    0.6251700000000000 O
   0.4826700000000000    0.5469600000000000    0.6038600000000000 O
   0.5274700000000000    0.5200100000000000    0.8104500000000000 O
   0.3506500000000000    0.6287500000000000    0.8220000000000000 O
   0.1223700000000000    0.2980200000000000    0.1249900000000000 O
   0.0278600000000000    0.4534600000000000    0.1037200000000000 O
   0.7403800000000000    0.5268500000000000    0.1748000000000000 O
   0.7504000000000000    0.6713400000000000    0.2555900000000000 O
   0.2102500000000000    0.8131800000000000    0.2957300000000000 O
   0.0786900000000000    0.6981400000000000    0.2258000000000000 O
