H5 O3
1.0
  26.7919372558738971    0.0000000000000000   -0.0579834227722991
  -6.0425780183104090   30.9026931917029692    0.0703448086696478
   0.0000000000000000    0.0000000000000000   23.7439999999999998
H O
5 3
direct
   0.3681532530111699    0.0817655621461049    0.6107649471343739 H
   0.3774119230056303    0.0357521600220174    0.6325647780347841 H
   0.6158376042285061    0.1828876671285251    0.9547314365967029 H
   0.5155065087166879    0.2265191538856386    0.8703145555451768 H
   0.5371507633591780    0.1873975828413048    0.8853111050211775 H
   0.3737350000000000    0.0532300000000000    0.5992300000000000 O
   0.6254700000000000    0.2143600000000000    0.9582000000000001 O
   0.5334650000000000    0.2170350000000000    0.8938000000000000 O
