H16 C20 N3 O3 F2
1.0
  26.7919372558738971    0.0000000000000000   -0.0579834227722991
  -6.0425780183104090   30.9026931917029692    0.0703448086696478
   0.0000000000000000    0.0000000000000000   23.7439999999999998
H C N O F
16 20 3 3 2
direct
   0.4620550000000000    0.2056250000000000    0.8294800000000000 H
   0.4840650000000000    0.0609350000000000    0.7644400000000000 H
   0.4989600000000000    0.0286550000000000    0.9175000000000000 H
   0.4194400000000000    0.0287250000000000    0.7277400000000001 H
   0.4582650000000000    0.0511450000000000    0.6698700000000000 H
   0.3421100000000000    0.0198500000000000    0.6705100000000001 H
   0.3280600000000000    0.0920100000000000    0.6375000000000000 H
   0.3637600000000000    0.1156700000000000    0.5784000000000000 H
   0.4437450000000000    0.1252700000000000    0.6330600000000000 H
   0.3983900000000000    0.1499550000000000    0.6690800000000000 H
   0.4074100000000000    0.0570900000000000    0.5768600000000000 H
   0.5992100000000000    0.0953250000000000    0.9123300000000000 H
   0.5866100000000000    0.0562150000000000    0.7654600000000000 H
   0.4989300000000000    0.9491050000000000    0.9056000000000000 H
   0.3881650000000000    0.9960899999999999    0.6352000000000000 H
   0.5845650000000000    0.9762850000000001    0.7528200000000000 H
   0.4670750000000000    0.1741100000000000    0.8143300000000000 C
   0.4364550000000000    0.1530050000000000    0.7728100000000000 C
   0.4421350000000000    0.1120850000000000    0.7507800000000000 C
   0.4781700000000000    0.0923550000000000    0.7783700000000000 C
   0.4204850000000000    0.0489450000000000    0.6897900000000000 C
   0.3792700000000000    0.0269200000000000    0.6494100000000000 C
   0.3653200000000000    0.0962500000000000    0.6166199999999999 C
   0.4070650000000000    0.1189600000000000    0.6558600000000000 C
   0.5670900000000000    0.0326650000000000    0.7957600000000000 C
   0.6126400000000000    0.1724400000000000    0.9535800000000000 C
   0.5740000000000000    0.1553900000000000    0.9085000000000000 C
   0.5382150000000000    0.1788400000000000    0.8828600000000000 C
   0.5048100000000000    0.1549300000000000    0.8398200000000000 C
   0.5082800000000000    0.1127600000000000    0.8226300000000000 C
   0.5734950000000000    0.1134700000000000    0.8918700000000001 C
   0.5428350000000000    0.0466500000000000    0.8422900000000000 C
   0.5179500000000000    0.0170150000000000    0.8817800000000000 C
   0.5663800000000000    0.9885200000000001    0.7886200000000000 C
   0.5418600000000000    0.9596150000000000    0.8287099999999999 C
   0.5175850000000000    0.9729200000000000    0.8753600000000000 C
   0.3737350000000000    0.0532300000000000    0.5992300000000000 N
   0.4123150000000000    0.0921400000000000    0.7063000000000000 N
   0.5430800000000000    0.0921200000000000    0.8507900000000000 N
   0.6254700000000000    0.2143600000000000    0.9582000000000001 O
   0.6311700000000000    0.1462850000000000    0.9825400000000000 O
   0.5334650000000000    0.2170350000000000    0.8938000000000000 O
   0.3979550000000000    0.1721700000000000    0.7530200000000000 F
   0.5416700000000000    0.9166850000000000    0.8222000000000000 F
