H4 O2
1.0
  28.0955697925534302    0.0000000000000000   -0.9609901309374602
  -1.4011476293099205   35.2234013356851605   -6.4138665145240008
   0.0000000000000000    0.0000000000000000   35.8340000000000032
H O
4 2
direct
   0.5164709878817515    0.1431340397415097    0.7491283450603438 H
   0.5143373835409512    0.1411400211536674    0.7018193307490622 H
   0.3020991205366818    0.1643569683496421    0.7481161888497312 H
   0.2969368035527449    0.1318942913290923    0.7078023863343238 H
   0.5331450000000000    0.1416950000000000    0.7254150000000000 O
   0.2818050000000000    0.1483200000000000    0.7284650000000000 O
