H12 C18 O4
1.0
  28.0955697925534302    0.0000000000000000   -0.9609901309374602
  -1.4011476293099205   35.2234013356851605   -6.4138665145240008
   0.0000000000000000    0.0000000000000000   35.8340000000000032
H C O
12 18 4
direct
   0.2663150000000000    0.6574400000000000    0.4351300000000000 H
   0.2636550000000000    0.6996249999999999    0.4158650000000000 H
   0.2333900000000000    0.6952950000000000    0.4580300000000000 H
   0.0893900000000000    0.6214900000000000    0.4122300000000000 H
   0.0864150000000000    0.6240200000000000    0.3430300000000000 H
   0.2266700000000000    0.6776000000000000    0.3550500000000000 H
   0.2337500000000000    0.6460350000000000    0.6133850000000000 H
   0.0817550000000000    0.6306400000000000    0.6013550000000000 H
   0.0855800000000000    0.6300850000000000    0.5316000000000000 H
   0.2522750000000000    0.6707400000000000    0.5223700000000000 H
   0.2810350000000000    0.6542150000000000    0.5610600000000000 H
   0.2606600000000000    0.6218300000000000    0.5195800000000000 H
   0.1629750000000000    0.6416350000000000    0.4945950000000000 C
   0.1621050000000000    0.6446600000000000    0.4611550000000000 C
   0.1602550000000000    0.6476000000000000    0.4223300000000000 C
   0.1993700000000000    0.6642350000000000    0.4062350000000000 C
   0.2428600000000000    0.6801950000000000    0.4299950000000000 C
   0.1192950000000000    0.6337450000000000    0.3993450000000000 C
   0.1176400000000000    0.6351650000000000    0.3608600000000000 C
   0.1967700000000000    0.6649250000000000    0.3674650000000000 C
   0.1569250000000000    0.6499950000000000    0.3443750000000000 C
   0.1569100000000000    0.6491100000000000    0.3024300000000000 C
   0.1557250000000000    0.6394500000000000    0.6534200000000000 C
   0.1576400000000000    0.6385700000000000    0.6115200000000000 C
   0.2016150000000000    0.6427350000000001    0.5950299999999999 C
   0.1157500000000000    0.6341300000000000    0.5885000000000000 C
   0.1178100000000000    0.6341550000000000    0.5498800000000000 C
   0.2048600000000000    0.6434000000000000    0.5564350000000000 C
   0.2522050000000000    0.6479000000000000    0.5391500000000000 C
   0.1620100000000000    0.6394600000000000    0.5335500000000000 C
   0.1974550000000000    0.6517050000000000    0.2879100000000000 O
   0.1166600000000000    0.6458150000000000    0.2843600000000000 O
   0.1955300000000000    0.6422800000000000    0.6721100000000000 O
   0.1147200000000000    0.6375950000000000    0.6672899999999999 O
