H6 O4
1.0
  28.0955697925534302    0.0000000000000000   -0.9609901309374602
  -1.4011476293099205   35.2234013356851605   -6.4138665145240008
   0.0000000000000000    0.0000000000000000   35.8340000000000032
H O
6 4
direct
   0.0855818191503519    0.6444611848899449    0.2951084089148917 H
   0.2282747994424492    0.6548614442930465    0.3013497072325131 H
   0.1569362733224678    0.6499399396613135    0.3019234277854869 H
   0.2264576467821331    0.6431078109260550    0.6610190440530904 H
   0.0843486280579387    0.6349179855278347    0.6531996859628137 H
   0.1544388707090367    0.6386581172612363    0.6530464253627788 H
   0.1166600000000000    0.6458150000000000    0.2843600000000000 O
   0.1974550000000000    0.6517050000000000    0.2879100000000000 O
   0.1955300000000000    0.6422800000000000    0.6721100000000000 O
   0.1147200000000000    0.6375950000000000    0.6672899999999999 O
