Zn48 H762 C1086 N48 O192
1.0
  28.0955697925534302    0.0000000000000000   -0.9609901309374602
  -1.4011476293099205   35.2234013356851605   -6.4138665145240008
   0.0000000000000000    0.0000000000000000   35.8340000000000032
Zn H C N O
48 762 1086 48 192
direct
   0.2916000000000000    0.7701450000000001    0.8530949999999999 Zn
   0.2083850000000000    0.1469350000000000    0.2298750000000000 Zn
   0.6066300000000000    0.1418250000000000    0.2251800000000000 Zn
   0.8933599999999999    0.7748150000000000    0.8583499999999999 Zn
   0.2916000000000000    0.2701450000000000    0.8530949999999999 Zn
   0.2083850000000000    0.6469350000000000    0.2298750000000000 Zn
   0.6066300000000000    0.6418250000000000    0.2251800000000000 Zn
   0.8933599999999999    0.2748150000000000    0.8583499999999999 Zn
   0.7916000000000001    0.7701450000000001    0.8530949999999999 Zn
   0.7083850000000000    0.1469350000000000    0.2298750000000000 Zn
   0.1066300000000000    0.1418250000000000    0.2251800000000000 Zn
   0.3933600000000000    0.7748150000000000    0.8583499999999999 Zn
   0.2916000000000000    0.2701450000000000    0.3530950000000000 Zn
   0.7916000000000001    0.2701450000000000    0.8530949999999999 Zn
   0.7083850000000000    0.6469350000000000    0.2298750000000000 Zn
   0.1066300000000000    0.6418250000000000    0.2251800000000000 Zn
   0.8933599999999999    0.2748150000000000    0.3583500000000000 Zn
   0.3933600000000000    0.2748150000000000    0.8583499999999999 Zn
   0.2916000000000000    0.7701450000000001    0.3530950000000000 Zn
   0.2083850000000000    0.1469350000000000    0.7298750000000001 Zn
   0.6066300000000000    0.1418250000000000    0.7251799999999999 Zn
   0.8933599999999999    0.7748150000000000    0.3583500000000000 Zn
   0.7916000000000001    0.7701450000000001    0.3530950000000000 Zn
   0.7083850000000000    0.1469350000000000    0.7298750000000001 Zn
   0.1066300000000000    0.1418250000000000    0.7251799999999999 Zn
   0.3933600000000000    0.7748150000000000    0.3583500000000000 Zn
   0.7916000000000001    0.2701450000000000    0.3530950000000000 Zn
   0.7083850000000000    0.6469350000000000    0.7298750000000001 Zn
   0.2083850000000000    0.6469350000000000    0.7298750000000001 Zn
   0.1066300000000000    0.6418250000000000    0.7251799999999999 Zn
   0.6066300000000000    0.6418250000000000    0.7251799999999999 Zn
   0.3933600000000000    0.2748150000000000    0.3583500000000000 Zn
   0.9496650000000000    0.0407050000000000    0.9548400000000000 Zn
   0.0503300000000000    0.5451450000000000    0.9593250000000000 Zn
   0.9496650000000000    0.5407050000000000    0.4548400000000000 Zn
   0.0503300000000000    0.0451450000000000    0.4593250000000000 Zn
   0.9496650000000000    0.0407050000000000    0.4548400000000000 Zn
   0.0503300000000000    0.5451450000000000    0.4593250000000000 Zn
   0.9496650000000000    0.5407050000000000    0.9548400000000000 Zn
   0.0503300000000000    0.0451450000000000    0.9593250000000000 Zn
   0.4496650000000000    0.0407050000000000    0.9548400000000000 Zn
   0.5503300000000000    0.5451450000000000    0.9593250000000000 Zn
   0.4496650000000000    0.5407050000000000    0.4548400000000000 Zn
   0.5503300000000000    0.0451450000000000    0.4593250000000000 Zn
   0.4496650000000000    0.0407050000000000    0.4548400000000000 Zn
   0.5503300000000000    0.5451450000000000    0.4593250000000000 Zn
   0.4496650000000000    0.5407050000000000    0.9548400000000000 Zn
   0.5503300000000000    0.0451450000000000    0.9593250000000000 Zn
   0.2183600000000000    0.7544850000000001    0.5236150000000001 H
   0.2501800000000000    0.7343850000000001    0.5585599999999999 H
   0.2395850000000000    0.7832150000000000    0.5671850000000001 H
   0.2345600000000000    0.7170700000000000    0.6676850000000000 H
   0.2671700000000000    0.7168550000000000    0.6257250000000000 H
   0.2368600000000000    0.7575900000000000    0.6453850000000000 H
   0.4136800000000000    0.7887500000000001    0.7411000000000000 H
   0.4123700000000000    0.7902500000000000    0.6716100000000000 H
   0.2723050000000000    0.7373499999999999    0.7279900000000000 H
   0.2626050000000000    0.7657700000000001    0.4710000000000000 H
   0.4136550000000000    0.7893100000000000    0.4808000000000000 H
   0.4133150000000000    0.7853850000000000    0.5493850000000000 H
   0.2816450000000000    0.9763950000000000    0.2456100000000000 H
   0.2498050000000000    0.9415100000000001    0.2657000000000000 H
   0.2604200000000000    0.9328099999999999    0.2169100000000000 H
   0.2654650000000000    0.8323450000000000    0.2830500000000000 H
   0.2328300000000000    0.8743300000000001    0.2832700000000000 H
   0.2630650000000000    0.8546400000000001    0.2425250000000000 H
   0.0862150000000000    0.7590500000000000    0.2114350000000000 H
   0.0875200000000000    0.8285850000000000    0.2099500000000000 H
   0.2276850000000000    0.7720450000000000    0.2627500000000000 H
   0.2374000000000000    0.0290100000000000    0.2342500000000000 H
   0.0863600000000000    0.0193550000000000    0.2105700000000000 H
   0.0866900000000000    0.9507650000000001    0.2145350000000000 H
   0.3800650000000000    0.1888200000000000    0.2779050000000000 H
   0.3669750000000000    0.1051250000000000    0.1744500000000000 H
   0.2785150000000000    0.1084450000000000    0.1787800000000000 H
   0.2917450000000000    0.1889650000000000    0.2775900000000000 H
   0.4386350000000000    0.1418250000000000    0.1649950000000000 H
   0.4439200000000000    0.1463650000000000    0.2865300000000000 H
   0.5327300000000000    0.1436550000000000    0.2834350000000000 H
   0.5273949999999999    0.1391700000000000    0.1672550000000000 H
   0.1199500000000000    0.7220850000000000    0.8111999999999999 H
   0.1329850000000000    0.8255550000000000    0.8948900000000000 H
   0.2214400000000000    0.8212600000000000    0.8915750000000000 H
   0.2082750000000000    0.7224150000000000    0.8110999999999999 H
   0.0612400000000000    0.8350000000000000    0.8582500000000000 H
   0.0561800000000000    0.7134500000000000    0.8536349999999999 H
   0.9673800000000000    0.7165300000000000    0.8564100000000000 H
   0.9724950000000000    0.8327249999999999    0.8609599999999999 H
   0.2188800000000000    0.9390050000000000    0.8457950000000001 H
   0.2476250000000000    0.9776600000000000    0.8292750000000000 H
   0.2392200000000000    0.9804999999999999    0.8781749999999999 H
   0.2361950000000000    0.0842550000000000    0.8003950000000000 H
   0.2664000000000000    0.0420450000000000    0.8047850000000000 H
   0.2335950000000000    0.0650900000000000    0.8426350000000000 H
   0.4136100000000000    0.1568850000000000    0.8759000000000000 H
   0.4106150000000000    0.0876700000000000    0.8784149999999999 H
   0.2732600000000000    0.1450550000000000    0.8223950000000000 H
   0.2661900000000000    0.8866650000000000    0.8540700000000000 H
   0.4181850000000000    0.8986149999999999    0.8695200000000001 H
   0.4143200000000000    0.9683750000000000    0.8700550000000000 H
   0.2810350000000000    0.1542150000000000    0.0610600000000000 H
   0.2522750000000000    0.1707400000000000    0.0223700000000000 H
   0.2606600000000000    0.1218300000000000    0.0195800000000000 H
   0.2636550000000000    0.1996250000000000    0.9158649999999999 H
   0.2333900000000000    0.1952950000000000    0.9580299999999999 H
   0.2663150000000000    0.1574400000000000    0.9351300000000000 H
   0.0864150000000000    0.1240200000000000    0.8430299999999999 H
   0.0893900000000000    0.1214900000000000    0.9122300000000000 H
   0.2266700000000000    0.1776000000000000    0.8550500000000000 H
   0.2337500000000000    0.1460350000000000    0.1133850000000000 H
   0.0817550000000000    0.1306400000000000    0.1013550000000000 H
   0.0855800000000000    0.1300850000000000    0.0316000000000000 H
   0.2183600000000000    0.2544850000000000    0.5236150000000001 H
   0.2501800000000000    0.2343850000000000    0.5585599999999999 H
   0.2395850000000000    0.2832150000000000    0.5671850000000001 H
   0.2345600000000000    0.2170700000000000    0.6676850000000000 H
   0.2671700000000000    0.2168550000000000    0.6257250000000000 H
   0.2368600000000000    0.2575900000000000    0.6453850000000000 H
   0.4136800000000000    0.2887500000000000    0.7411000000000000 H
   0.4123700000000000    0.2902500000000000    0.6716100000000000 H
   0.2723050000000000    0.2373500000000000    0.7279900000000000 H
   0.2626050000000000    0.2657700000000000    0.4710000000000000 H
   0.4136550000000000    0.2893100000000000    0.4808000000000000 H
   0.4133150000000000    0.2853850000000000    0.5493850000000000 H
   0.2816450000000000    0.4763950000000000    0.2456100000000000 H
   0.2498050000000000    0.4415100000000000    0.2657000000000000 H
   0.2604200000000000    0.4328100000000000    0.2169100000000000 H
   0.2654650000000000    0.3323450000000000    0.2830500000000000 H
   0.2328300000000000    0.3743300000000000    0.2832700000000000 H
   0.2630650000000000    0.3546400000000000    0.2425250000000000 H
   0.0862150000000000    0.2590500000000000    0.2114350000000000 H
   0.0875200000000000    0.3285850000000000    0.2099500000000000 H
   0.2276850000000000    0.2720450000000000    0.2627500000000000 H
   0.2374000000000000    0.5290100000000000    0.2342500000000000 H
   0.0863600000000000    0.5193550000000000    0.2105700000000000 H
   0.0866900000000000    0.4507650000000000    0.2145350000000000 H
   0.3800650000000000    0.6888200000000000    0.2779050000000000 H
   0.3669750000000000    0.6051250000000000    0.1744500000000000 H
   0.2785150000000000    0.6084450000000000    0.1787800000000000 H
   0.2917450000000000    0.6889650000000000    0.2775900000000000 H
   0.4386350000000000    0.6418250000000000    0.1649950000000000 H
   0.4439200000000000    0.6463650000000000    0.2865300000000000 H
   0.5327300000000000    0.6436550000000000    0.2834350000000000 H
   0.5273949999999999    0.6391700000000000    0.1672550000000000 H
   0.1199500000000000    0.2220850000000000    0.8111999999999999 H
   0.1329850000000000    0.3255550000000000    0.8948900000000000 H
   0.2214400000000000    0.3212600000000000    0.8915750000000000 H
   0.2082750000000000    0.2224150000000000    0.8110999999999999 H
   0.0612400000000000    0.3350000000000000    0.8582500000000000 H
   0.0561800000000000    0.2134500000000000    0.8536349999999999 H
   0.9673800000000000    0.2165300000000000    0.8564100000000000 H
   0.9724950000000000    0.3327250000000000    0.8609599999999999 H
   0.2188800000000000    0.4390050000000000    0.8457950000000001 H
   0.2476250000000000    0.4776600000000000    0.8292750000000000 H
   0.2392200000000000    0.4805000000000000    0.8781749999999999 H
   0.2361950000000000    0.5842550000000000    0.8003950000000000 H
   0.2664000000000000    0.5420450000000000    0.8047850000000000 H
   0.2335950000000000    0.5650900000000000    0.8426350000000000 H
   0.4136100000000000    0.6568849999999999    0.8759000000000000 H
   0.4106150000000000    0.5876700000000000    0.8784149999999999 H
   0.2732600000000000    0.6450549999999999    0.8223950000000000 H
   0.2661900000000000    0.3866650000000000    0.8540700000000000 H
   0.4181850000000000    0.3986150000000000    0.8695200000000001 H
   0.4143200000000000    0.4683750000000000    0.8700550000000000 H
   0.2810350000000000    0.6542150000000000    0.0610600000000000 H
   0.2522750000000000    0.6707400000000000    0.0223700000000000 H
   0.2606600000000000    0.6218300000000000    0.0195800000000000 H
   0.2636550000000000    0.6996249999999999    0.9158649999999999 H
   0.2333900000000000    0.6952950000000000    0.9580299999999999 H
   0.2663150000000000    0.6574400000000000    0.9351300000000000 H
   0.0864150000000000    0.6240200000000000    0.8430299999999999 H
   0.0893900000000000    0.6214900000000000    0.9122300000000000 H
   0.2266700000000000    0.6776000000000000    0.8550500000000000 H
   0.2337500000000000    0.6460350000000000    0.1133850000000000 H
   0.0817550000000000    0.6306400000000000    0.1013550000000000 H
   0.0855800000000000    0.6300850000000000    0.0316000000000000 H
   0.7183600000000000    0.7544850000000001    0.5236150000000001 H
   0.7501800000000001    0.7343850000000001    0.5585599999999999 H
   0.7395849999999999    0.7832150000000000    0.5671850000000001 H
   0.7345600000000000    0.7170700000000000    0.6676850000000000 H
   0.7671700000000000    0.7168550000000000    0.6257250000000000 H
   0.7368600000000000    0.7575900000000000    0.6453850000000000 H
   0.9136800000000000    0.7887500000000001    0.7411000000000000 H
   0.9123700000000000    0.7902500000000000    0.6716100000000000 H
   0.7723050000000000    0.7373499999999999    0.7279900000000000 H
   0.7626050000000000    0.7657700000000001    0.4710000000000000 H
   0.9136550000000000    0.7893100000000000    0.4808000000000000 H
   0.9133150000000000    0.7853850000000000    0.5493850000000000 H
   0.7816449999999999    0.9763950000000000    0.2456100000000000 H
   0.7498050000000001    0.9415100000000001    0.2657000000000000 H
   0.7604200000000000    0.9328099999999999    0.2169100000000000 H
   0.7654650000000001    0.8323450000000000    0.2830500000000000 H
   0.7328300000000000    0.8743300000000001    0.2832700000000000 H
   0.7630650000000000    0.8546400000000001    0.2425250000000000 H
   0.5862150000000000    0.7590500000000000    0.2114350000000000 H
   0.5875200000000000    0.8285850000000000    0.2099500000000000 H
   0.7276850000000000    0.7720450000000000    0.2627500000000000 H
   0.7374000000000001    0.0290100000000000    0.2342500000000000 H
   0.5863600000000000    0.0193550000000000    0.2105700000000000 H
   0.5866900000000000    0.9507650000000001    0.2145350000000000 H
   0.8800650000000000    0.1888200000000000    0.2779050000000000 H
   0.8669750000000001    0.1051250000000000    0.1744500000000000 H
   0.7785150000000001    0.1084450000000000    0.1787800000000000 H
   0.7917449999999999    0.1889650000000000    0.2775900000000000 H
   0.9386350000000000    0.1418250000000000    0.1649950000000000 H
   0.9439200000000000    0.1463650000000000    0.2865300000000000 H
   0.0327300000000000    0.1436550000000000    0.2834350000000000 H
   0.0273950000000000    0.1391700000000000    0.1672550000000000 H
   0.6199500000000000    0.7220850000000000    0.8111999999999999 H
   0.6329850000000000    0.8255550000000000    0.8948900000000000 H
   0.7214400000000000    0.8212600000000000    0.8915750000000000 H
   0.7082750000000000    0.7224150000000000    0.8110999999999999 H
   0.5612400000000000    0.8350000000000000    0.8582500000000000 H
   0.5561800000000000    0.7134500000000000    0.8536349999999999 H
   0.4673800000000000    0.7165300000000000    0.8564100000000000 H
   0.4724950000000000    0.8327249999999999    0.8609599999999999 H
   0.7188800000000000    0.9390050000000000    0.8457950000000001 H
   0.7476250000000000    0.9776600000000000    0.8292750000000000 H
   0.7392200000000000    0.9804999999999999    0.8781749999999999 H
   0.7361949999999999    0.0842550000000000    0.8003950000000000 H
   0.7664000000000000    0.0420450000000000    0.8047850000000000 H
   0.7335950000000000    0.0650900000000000    0.8426350000000000 H
   0.9136100000000000    0.1568850000000000    0.8759000000000000 H
   0.9106150000000000    0.0876700000000000    0.8784149999999999 H
   0.7732600000000001    0.1450550000000000    0.8223950000000000 H
   0.7661899999999999    0.8866650000000000    0.8540700000000000 H
   0.9181850000000000    0.8986149999999999    0.8695200000000001 H
   0.9143200000000000    0.9683750000000000    0.8700550000000000 H
   0.7810349999999999    0.1542150000000000    0.0610600000000000 H
   0.7522750000000000    0.1707400000000000    0.0223700000000000 H
   0.7606600000000000    0.1218300000000000    0.0195800000000000 H
   0.7636550000000000    0.1996250000000000    0.9158649999999999 H
   0.7333900000000000    0.1952950000000000    0.9580299999999999 H
   0.7663150000000001    0.1574400000000000    0.9351300000000000 H
   0.5864150000000000    0.1240200000000000    0.8430299999999999 H
   0.5893900000000000    0.1214900000000000    0.9122300000000000 H
   0.7266700000000000    0.1776000000000000    0.8550500000000000 H
   0.7337500000000000    0.1460350000000000    0.1133850000000000 H
   0.5817550000000000    0.1306400000000000    0.1013550000000000 H
   0.5855800000000000    0.1300850000000000    0.0316000000000000 H
   0.2183600000000000    0.2544850000000000    0.0236150000000000 H
   0.2501800000000000    0.2343850000000000    0.0585600000000000 H
   0.2395850000000000    0.2832150000000000    0.0671850000000000 H
   0.2345600000000000    0.2170700000000000    0.1676850000000000 H
   0.2671700000000000    0.2168550000000000    0.1257250000000000 H
   0.2368600000000000    0.2575900000000000    0.1453850000000000 H
   0.4136800000000000    0.2887500000000000    0.2411000000000000 H
   0.4123700000000000    0.2902500000000000    0.1716100000000000 H
   0.2723050000000000    0.2373500000000000    0.2279900000000000 H
   0.2626050000000000    0.2657700000000000    0.9710000000000000 H
   0.4136550000000000    0.2893100000000000    0.9808000000000000 H
   0.4133150000000000    0.2853850000000000    0.0493850000000000 H
   0.7183600000000000    0.2544850000000000    0.5236150000000001 H
   0.7501800000000001    0.2343850000000000    0.5585599999999999 H
   0.7395849999999999    0.2832150000000000    0.5671850000000001 H
   0.7345600000000000    0.2170700000000000    0.6676850000000000 H
   0.7671700000000000    0.2168550000000000    0.6257250000000000 H
   0.7368600000000000    0.2575900000000000    0.6453850000000000 H
   0.9136800000000000    0.2887500000000000    0.7411000000000000 H
   0.9123700000000000    0.2902500000000000    0.6716100000000000 H
   0.7723050000000000    0.2373500000000000    0.7279900000000000 H
   0.7626050000000000    0.2657700000000000    0.4710000000000000 H
   0.9136550000000000    0.2893100000000000    0.4808000000000000 H
   0.9133150000000000    0.2853850000000000    0.5493850000000000 H
   0.7816449999999999    0.4763950000000000    0.2456100000000000 H
   0.7498050000000001    0.4415100000000000    0.2657000000000000 H
   0.7604200000000000    0.4328100000000000    0.2169100000000000 H
   0.7654650000000001    0.3323450000000000    0.2830500000000000 H
   0.7328300000000000    0.3743300000000000    0.2832700000000000 H
   0.7630650000000000    0.3546400000000000    0.2425250000000000 H
   0.5862150000000000    0.2590500000000000    0.2114350000000000 H
   0.5875200000000000    0.3285850000000000    0.2099500000000000 H
   0.7276850000000000    0.2720450000000000    0.2627500000000000 H
   0.7374000000000001    0.5290100000000000    0.2342500000000000 H
   0.5863600000000000    0.5193550000000000    0.2105700000000000 H
   0.5866900000000000    0.4507650000000000    0.2145350000000000 H
   0.1199500000000000    0.2220850000000000    0.3112000000000000 H
   0.1329850000000000    0.3255550000000000    0.3948900000000000 H
   0.2214400000000000    0.3212600000000000    0.3915750000000000 H
   0.2082750000000000    0.2224150000000000    0.3111000000000000 H
   0.0612400000000000    0.3350000000000000    0.3582500000000000 H
   0.0561800000000000    0.2134500000000000    0.3536350000000000 H
   0.9673800000000000    0.2165300000000000    0.3564100000000000 H
   0.9724950000000000    0.3327250000000000    0.3609600000000000 H
   0.2188800000000000    0.4390050000000000    0.3457950000000000 H
   0.2476250000000000    0.4776600000000000    0.3292750000000000 H
   0.2392200000000000    0.4805000000000000    0.3781750000000000 H
   0.2361950000000000    0.5842550000000000    0.3003950000000000 H
   0.2664000000000000    0.5420450000000000    0.3047850000000000 H
   0.2335950000000000    0.5650900000000000    0.3426350000000000 H
   0.4136100000000000    0.6568849999999999    0.3759000000000000 H
   0.4106150000000000    0.5876700000000000    0.3784150000000000 H
   0.2732600000000000    0.6450549999999999    0.3223950000000000 H
   0.2661900000000000    0.3866650000000000    0.3540700000000000 H
   0.4181850000000000    0.3986150000000000    0.3695200000000000 H
   0.4143200000000000    0.4683750000000000    0.3700550000000000 H
   0.0855818191503519    0.6444611848899449    0.2951084089148917 H
   0.2282747994424492    0.6548614442930465    0.3013497072325131 H
   0.1569362733224678    0.6499399396613135    0.3019234277854869 H
   0.8800650000000000    0.6888200000000000    0.2779050000000000 H
   0.8669750000000001    0.6051250000000000    0.1744500000000000 H
   0.7785150000000001    0.6084450000000000    0.1787800000000000 H
   0.7917449999999999    0.6889650000000000    0.2775900000000000 H
   0.9386350000000000    0.6418250000000000    0.1649950000000000 H
   0.9439200000000000    0.6463650000000000    0.2865300000000000 H
   0.0327300000000000    0.6436550000000000    0.2834350000000000 H
   0.0273950000000000    0.6391700000000000    0.1672550000000000 H
   0.6199500000000000    0.2220850000000000    0.8111999999999999 H
   0.6329850000000000    0.3255550000000000    0.8948900000000000 H
   0.7214400000000000    0.3212600000000000    0.8915750000000000 H
   0.7082750000000000    0.2224150000000000    0.8110999999999999 H
   0.5612400000000000    0.3350000000000000    0.8582500000000000 H
   0.5561800000000000    0.2134500000000000    0.8536349999999999 H
   0.4673800000000000    0.2165300000000000    0.8564100000000000 H
   0.4724950000000000    0.3327250000000000    0.8609599999999999 H
   0.7188800000000000    0.4390050000000000    0.8457950000000001 H
   0.7476250000000000    0.4776600000000000    0.8292750000000000 H
   0.7392200000000000    0.4805000000000000    0.8781749999999999 H
   0.7361949999999999    0.5842550000000000    0.8003950000000000 H
   0.7664000000000000    0.5420450000000000    0.8047850000000000 H
   0.7335950000000000    0.5650900000000000    0.8426350000000000 H
   0.9136100000000000    0.6568849999999999    0.8759000000000000 H
   0.9106150000000000    0.5876700000000000    0.8784149999999999 H
   0.7732600000000001    0.6450549999999999    0.8223950000000000 H
   0.7661899999999999    0.3866650000000000    0.8540700000000000 H
   0.9181850000000000    0.3986150000000000    0.8695200000000001 H
   0.9143200000000000    0.4683750000000000    0.8700550000000000 H
   0.7810349999999999    0.6542150000000000    0.0610600000000000 H
   0.7522750000000000    0.6707400000000000    0.0223700000000000 H
   0.7606600000000000    0.6218300000000000    0.0195800000000000 H
   0.7636550000000000    0.6996249999999999    0.9158649999999999 H
   0.7333900000000000    0.6952950000000000    0.9580299999999999 H
   0.7663150000000001    0.6574400000000000    0.9351300000000000 H
   0.5864150000000000    0.6240200000000000    0.8430299999999999 H
   0.5893900000000000    0.6214900000000000    0.9122300000000000 H
   0.7266700000000000    0.6776000000000000    0.8550500000000000 H
   0.7337500000000000    0.6460350000000000    0.1133850000000000 H
   0.5817550000000000    0.6306400000000000    0.1013550000000000 H
   0.5855800000000000    0.6300850000000000    0.0316000000000000 H
   0.2183600000000000    0.7544850000000001    0.0236150000000000 H
   0.2501800000000000    0.7343850000000001    0.0585600000000000 H
   0.2395850000000000    0.7832150000000000    0.0671850000000000 H
   0.2345600000000000    0.7170700000000000    0.1676850000000000 H
   0.2671700000000000    0.7168550000000000    0.1257250000000000 H
   0.2368600000000000    0.7575900000000000    0.1453850000000000 H
   0.4136800000000000    0.7887500000000001    0.2411000000000000 H
   0.4123700000000000    0.7902500000000000    0.1716100000000000 H
   0.2723050000000000    0.7373499999999999    0.2279900000000000 H
   0.2626050000000000    0.7657700000000001    0.9710000000000000 H
   0.4136550000000000    0.7893100000000000    0.9808000000000000 H
   0.4133150000000000    0.7853850000000000    0.0493850000000000 H
   0.2816450000000000    0.9763950000000000    0.7456100000000000 H
   0.2498050000000000    0.9415100000000001    0.7657000000000000 H
   0.2604200000000000    0.9328099999999999    0.7169099999999999 H
   0.2654650000000000    0.8323450000000000    0.7830500000000000 H
   0.2328300000000000    0.8743300000000001    0.7832700000000000 H
   0.2630650000000000    0.8546400000000001    0.7425250000000000 H
   0.0862150000000000    0.7590500000000000    0.7114350000000000 H
   0.0875200000000000    0.8285850000000000    0.7099500000000000 H
   0.2276850000000000    0.7720450000000000    0.7627500000000000 H
   0.2374000000000000    0.0290100000000000    0.7342500000000001 H
   0.0863600000000000    0.0193550000000000    0.7105700000000000 H
   0.0866900000000000    0.9507650000000001    0.7145350000000000 H
   0.3800650000000000    0.1888200000000000    0.7779050000000001 H
   0.3669750000000000    0.1051250000000000    0.6744500000000000 H
   0.2785150000000000    0.1084450000000000    0.6787799999999999 H
   0.2917450000000000    0.1889650000000000    0.7775900000000000 H
   0.4386350000000000    0.1418250000000000    0.6649950000000000 H
   0.4439200000000000    0.1463650000000000    0.7865300000000000 H
   0.5327300000000000    0.1436550000000000    0.7834350000000000 H
   0.5273949999999999    0.1391700000000000    0.6672549999999999 H
   0.1199500000000000    0.7220850000000000    0.3112000000000000 H
   0.1329850000000000    0.8255550000000000    0.3948900000000000 H
   0.2214400000000000    0.8212600000000000    0.3915750000000000 H
   0.2082750000000000    0.7224150000000000    0.3111000000000000 H
   0.0612400000000000    0.8350000000000000    0.3582500000000000 H
   0.0561800000000000    0.7134500000000000    0.3536350000000000 H
   0.9673800000000000    0.7165300000000000    0.3564100000000000 H
   0.9724950000000000    0.8327249999999999    0.3609600000000000 H
   0.2188800000000000    0.9390050000000000    0.3457950000000000 H
   0.2476250000000000    0.9776600000000000    0.3292750000000000 H
   0.2392200000000000    0.9804999999999999    0.3781750000000000 H
   0.2361950000000000    0.0842550000000000    0.3003950000000000 H
   0.2664000000000000    0.0420450000000000    0.3047850000000000 H
   0.2335950000000000    0.0650900000000000    0.3426350000000000 H
   0.4136100000000000    0.1568850000000000    0.3759000000000000 H
   0.4106150000000000    0.0876700000000000    0.3784150000000000 H
   0.2732600000000000    0.1450550000000000    0.3223950000000000 H
   0.2661900000000000    0.8866650000000000    0.3540700000000000 H
   0.4181850000000000    0.8986149999999999    0.3695200000000000 H
   0.4143200000000000    0.9683750000000000    0.3700550000000000 H
   0.2810350000000000    0.1542150000000000    0.5610600000000000 H
   0.2522750000000000    0.1707400000000000    0.5223700000000000 H
   0.2606600000000000    0.1218300000000000    0.5195800000000000 H
   0.2636550000000000    0.1996250000000000    0.4158650000000000 H
   0.2333900000000000    0.1952950000000000    0.4580300000000000 H
   0.2663150000000000    0.1574400000000000    0.4351300000000000 H
   0.0864150000000000    0.1240200000000000    0.3430300000000000 H
   0.0893900000000000    0.1214900000000000    0.4122300000000000 H
   0.2266700000000000    0.1776000000000000    0.3550500000000000 H
   0.2337500000000000    0.1460350000000000    0.6133850000000000 H
   0.0817550000000000    0.1306400000000000    0.6013550000000000 H
   0.0855800000000000    0.1300850000000000    0.5316000000000000 H
   0.7183600000000000    0.7544850000000001    0.0236150000000000 H
   0.7501800000000001    0.7343850000000001    0.0585600000000000 H
   0.7395849999999999    0.7832150000000000    0.0671850000000000 H
   0.7345600000000000    0.7170700000000000    0.1676850000000000 H
   0.7671700000000000    0.7168550000000000    0.1257250000000000 H
   0.7368600000000000    0.7575900000000000    0.1453850000000000 H
   0.9136800000000000    0.7887500000000001    0.2411000000000000 H
   0.9123700000000000    0.7902500000000000    0.1716100000000000 H
   0.7723050000000000    0.7373499999999999    0.2279900000000000 H
   0.7626050000000000    0.7657700000000001    0.9710000000000000 H
   0.9136550000000000    0.7893100000000000    0.9808000000000000 H
   0.9133150000000000    0.7853850000000000    0.0493850000000000 H
   0.7816449999999999    0.9763950000000000    0.7456100000000000 H
   0.7498050000000001    0.9415100000000001    0.7657000000000000 H
   0.7604200000000000    0.9328099999999999    0.7169099999999999 H
   0.7654650000000001    0.8323450000000000    0.7830500000000000 H
   0.7328300000000000    0.8743300000000001    0.7832700000000000 H
   0.7630650000000000    0.8546400000000001    0.7425250000000000 H
   0.5862150000000000    0.7590500000000000    0.7114350000000000 H
   0.5875200000000000    0.8285850000000000    0.7099500000000000 H
   0.7276850000000000    0.7720450000000000    0.7627500000000000 H
   0.7374000000000001    0.0290100000000000    0.7342500000000001 H
   0.5863600000000000    0.0193550000000000    0.7105700000000000 H
   0.5866900000000000    0.9507650000000001    0.7145350000000000 H
   0.8800650000000000    0.1888200000000000    0.7779050000000001 H
   0.8669750000000001    0.1051250000000000    0.6744500000000000 H
   0.7785150000000001    0.1084450000000000    0.6787799999999999 H
   0.7917449999999999    0.1889650000000000    0.7775900000000000 H
   0.9386350000000000    0.1418250000000000    0.6649950000000000 H
   0.9439200000000000    0.1463650000000000    0.7865300000000000 H
   0.0327300000000000    0.1436550000000000    0.7834350000000000 H
   0.0273950000000000    0.1391700000000000    0.6672549999999999 H
   0.6199500000000000    0.7220850000000000    0.3112000000000000 H