H2 C6 S1 O4
1.0
  36.2676803755508885    0.0000000000000000   -0.4101952911490870
  -0.0008239264726853   14.0409977859338397   -0.0078419733610293
   0.0000000000000000    0.0000000000000000   31.2669999999999995
H C S O
2 6 1 4
direct
   0.3587683333333333    0.6991600000000000    0.1604900000000000 H
   0.3628300000000000    0.8166400000000000    0.0955350000000000 H
   0.2952633333333333    0.8674900000000000    0.0514700000000000 C
   0.3033066666666666    0.8033600000000000    0.0876650000000000 C
   0.2993350000000000    0.6898400000000000    0.1481250000000000 C
   0.2854066666666666    0.6226600000000000    0.1808250000000000 C
   0.3373200000000000    0.7852100000000000    0.1067150000000000 C
   0.3350716666666667    0.7213500000000000    0.1413150000000000 C
   0.2686400000000000    0.7398400000000001    0.1119700000000000 S
   0.2618683333333333   -0.1160499999999999    0.0407200000000000 O
   0.3226416666666666   -0.0959200000000000    0.0315600000000000 O
   0.2509533333333333    0.6052700000000000    0.1802150000000000 O
   0.3087850000000000    0.5870900000000000    0.2073800000000000 O
