Cd24 H235 C282 N282 O94
1.0
  20.4719999875277452    0.0000000000000000   -0.0007146076087883
  -0.0079365452514067   37.8929984705168010   -0.0072749337033451
   0.0000000000000000    0.0000000000000000   15.3859999999999992
Cd H C N O
24 235 282 282 94
direct
   0.5000000000000000    0.1666733333333333    0.9999900000000000 Cd
   0.2500000000000000    0.1666733333333333    0.4999000000000000 Cd
   0.7500000000000000    0.1666733333333333    0.4999000000000000 Cd
   0.0000000000000000    0.0000033333333333    0.4999800000000000 Cd
   0.5000000000000000    0.0000033333333333    0.4999700000000000 Cd
   0.2500000000000000    0.0000033333333333    0.9999900000000000 Cd
   0.7500000000000000    0.0000066666666667    0.9999900000000000 Cd
   0.0000000000000000    0.1666733333333333    0.0000000000000000 Cd
   0.5000000000000000    0.5000066666666667    0.9999900000000000 Cd
   0.2500000000000000    0.5000066666666667    0.4999000000000000 Cd
   0.7500000000000000    0.5000066666666667    0.4999000000000000 Cd
   0.0000000000000000    0.3333366666666667    0.4999800000000000 Cd
   0.5000000000000000    0.3333366666666667    0.4999700000000000 Cd
   0.2500000000000000    0.3333366666666667    0.9999900000000000 Cd
   0.7500000000000000    0.3333400000000000    0.9999900000000000 Cd
   0.0000000000000000    0.5000066666666667    0.0000000000000000 Cd
   0.5000000000000000    0.8333400000000000    0.9999900000000000 Cd
   0.2500000000000000    0.8333400000000000    0.4999000000000000 Cd
   0.7500000000000000    0.8333400000000000    0.4999000000000000 Cd
   0.0000000000000000    0.6666700000000000    0.4999800000000000 Cd
   0.5000000000000000    0.6666700000000000    0.4999700000000000 Cd
   0.2500000000000000    0.6666700000000000    0.9999900000000000 Cd
   0.7500000000000000    0.6666733333333333    0.9999900000000000 Cd
   0.0000000000000000    0.8333400000000000    0.0000000000000000 Cd
   0.1881300000000000    0.2527300000000000    0.0670600000000000 H
   0.6881400000000000    0.2527300000000000    0.0670600000000000 H
   0.3271400000000000    0.2607966666666667    0.8673600000000000 H
   0.8271500000000001    0.2607966666666667    0.8673600000000000 H
   0.2600900000000000    0.1645000000000000    0.8900000000000000 H
   0.7600900000000000    0.1645033333333333    0.8900700000000000 H
   0.2186200000000000    0.1576900000000000    0.7306400000000000 H
   0.7186200000000000    0.1576900000000000    0.7306400000000000 H
   0.3658200000000000    0.2175433333333333    0.6103100000000000 H
   0.8658200000000000    0.2175433333333333    0.6103100000000000 H
   0.0618800000000000    0.0806266666666667    0.5670600000000000 H
   0.5618800000000000    0.0806266666666667    0.5670500000000001 H
   0.4228700000000000    0.0725300000000000    0.3673600000000000 H
   0.9228800000000000    0.0725300000000000    0.3673600000000000 H
   0.4899100000000000    0.1688300000000000    0.3901200000000000 H
   0.9899100000000000    0.1688333333333333    0.3901300000000000 H
   0.0313200000000000    0.1756633333333333    0.2307100000000000 H
   0.5313099999999999    0.1756600000000000    0.2307000000000000 H
   0.3841300000000000    0.1157800000000000    0.1103500000000000 H
   0.8841300000000000    0.1157800000000000    0.1103000000000000 H
   0.3118600000000000    0.0860733333333333    0.4328900000000000 H
   0.8118700000000000    0.0860733333333333    0.4329000000000000 H
   0.1728400000000000    0.0941333333333333    0.6325600000000000 H
   0.6728400000000000    0.0941333333333333    0.6325600000000000 H
   0.2399000000000000    0.3311866666666666    0.6098300000000000 H
   0.7399000000000000    0.3311833333333333    0.6098200000000000 H
   0.2813700000000000    0.3243633333333333    0.7692300000000000 H
   0.7813700000000000    0.3243633333333333    0.7692300000000000 H
   0.1341800000000000    0.0508466666666667    0.8896600000000000 H
   0.6341900000000000    0.0508466666666667    0.8896600000000000 H
   0.4381200000000000    0.2472366666666667    0.9328000000000000 H
   0.9381200000000000    0.2472366666666667    0.9328700000000000 H
   0.0771200000000000    0.2392033333333333    0.1326100000000000 H
   0.5771200000000000    0.2392033333333333    0.1326000000000000 H
   0.0101000000000000    0.0021533333333333    0.1098000000000000 H
   0.5101000000000000    0.0021533333333333    0.1098600000000000 H
   0.4687100000000000    0.0089966666666667    0.2692800000000000 H
   0.9687000000000000    0.0090000000000000    0.2692900000000000 H
   0.1158300000000000    0.2824500000000000    0.3896000000000000 H
   0.6158400000000001    0.2824500000000000    0.3896100000000000 H
   0.3118700000000000    0.0806166666666667    0.9328900000000000 H
   0.8118700000000000    0.0806166666666667    0.9328900000000000 H
   0.1728600000000000    0.0725500000000000    0.1325900000000000 H
   0.6728600000000000    0.0725500000000000    0.1325900000000000 H
   0.2399100000000000    0.1688433333333333    0.1098800000000000 H
   0.7399100000000000    0.1688433333333333    0.1098800000000000 H
   0.2813800000000000    0.1756566666666667    0.2693100000000000 H
   0.7813800000000000    0.1756600000000000    0.2693100000000000 H
   0.1341800000000000    0.1158033333333333    0.3896400000000000 H
   0.6341900000000000    0.1158000000000000    0.3896400000000000 H
   0.4381200000000000    0.2527199999999999    0.4328900000000000 H
   0.9381100000000000    0.2527199999999999    0.4329000000000000 H
   0.0771300000000000    0.2608166666666666    0.6326000000000001 H
   0.5771300000000000    0.2608166666666666    0.6325900000000000 H
   0.0100900000000000    0.1645133333333333    0.6098300000000000 H
   0.5100900000000000    0.1645133333333333    0.6098300000000000 H
   0.4686900000000000    0.1576833333333333    0.7692400000000000 H
   0.9686800000000000    0.1576833333333333    0.7692500000000000 H
   0.1158800000000000    0.2175666666666666    0.8895999999999999 H
   0.6158700000000000    0.2175666666666666    0.8895999999999999 H
   0.1881400000000000    0.2472700000000000    0.5670600000000000 H
   0.6881400000000000    0.2472700000000000    0.5670600000000000 H
   0.3271600000000000    0.2392133333333333    0.3673900000000000 H
   0.8271600000000000    0.2392133333333333    0.3673900000000000 H
   0.2601000000000000    0.0021600000000000    0.3901200000000000 H
   0.7601000000000000    0.0021600000000000    0.3901000000000000 H
   0.2186300000000000    0.0089833333333333    0.2307200000000000 H
   0.7186300000000000    0.0089866666666667    0.2307200000000000 H
   0.3658200000000000    0.2825000000000000    0.1102900000000000 H
   0.8658200000000000    0.2825033333333333    0.1102900000000000 H
   0.0618800000000000    0.0861066666666667    0.0670900000000000 H
   0.5618900000000000    0.0861066666666667    0.0670700000000000 H
   0.4228800000000000    0.0941400000000000    0.8673500000000000 H
   0.9228800000000000    0.0941433333333333    0.8673000000000000 H
   0.4898900000000000    0.3311900000000000    0.8900900000000000 H
   0.9899000000000000    0.3311933333333333    0.8901000000000000 H
   0.0313000000000000    0.3243433333333333    0.7306700000000000 H
   0.5312900000000000    0.3243466666666667    0.7306700000000000 H
   0.3841700000000000    0.0508966666666667    0.6103400000000000 H
   0.8841800000000000    0.0509033333333333    0.6103499999999999 H
   0.1881300000000000    0.5860633333333334    0.0670600000000000 H
   0.6881400000000000    0.5860633333333334    0.0670600000000000 H
   0.3271400000000000    0.5941300000000000    0.8673600000000000 H
   0.8271500000000001    0.5941300000000000    0.8673600000000000 H
   0.2600900000000000    0.4978333333333333    0.8900000000000000 H
   0.7600900000000000    0.4978366666666666    0.8900700000000000 H
   0.2186200000000000    0.4910233333333333    0.7306400000000000 H
   0.7186200000000000    0.4910233333333333    0.7306400000000000 H
   0.3658200000000000    0.5508766666666667    0.6103100000000000 H
   0.8658200000000000    0.5508766666666667    0.6103100000000000 H
   0.0618800000000000    0.4139600000000000    0.5670600000000000 H
   0.5618800000000000    0.4139600000000000    0.5670500000000001 H
   0.4228700000000000    0.4058633333333333    0.3673600000000000 H
   0.9228800000000000    0.4058633333333333    0.3673600000000000 H
   0.4899100000000000    0.5021633333333333    0.3901200000000000 H
   0.9899100000000000    0.5021666666666667    0.3901300000000000 H
   0.0313200000000000    0.5089966666666667    0.2307100000000000 H
   0.5313099999999999    0.5089933333333333    0.2307000000000000 H
   0.3841300000000000    0.4491133333333333    0.1103500000000000 H
   0.8841300000000000    0.4491133333333333    0.1103000000000000 H
   0.3118600000000000    0.4194066666666666    0.4328900000000000 H
   0.8118700000000000    0.4194066666666666    0.4329000000000000 H
   0.1728400000000000    0.4274666666666667    0.6325600000000000 H
   0.6728400000000000    0.4274666666666667    0.6325600000000000 H
   0.2399000000000000    0.6645200000000000    0.6098300000000000 H
   0.7399000000000000    0.6645166666666666    0.6098200000000000 H
   0.2813700000000000    0.6576966666666666    0.7692300000000000 H
   0.7813700000000000    0.6576966666666666    0.7692300000000000 H
   0.1341800000000000    0.3841800000000000    0.8896600000000000 H
   0.6341900000000000    0.3841800000000000    0.8896600000000000 H
   0.4381200000000000    0.5805700000000000    0.9328000000000000 H
   0.5771200000000000    0.5725366666666667    0.1326000000000000 H
   0.0101000000000000    0.3354866666666667    0.1098000000000000 H
   0.5101000000000000    0.3354866666666667    0.1098600000000000 H
   0.4687100000000000    0.3423300000000000    0.2692800000000000 H
   0.9687000000000000    0.3423333333333333    0.2692900000000000 H
   0.6158400000000001    0.6157833333333333    0.3896100000000000 H
   0.3118700000000000    0.4139500000000000    0.9328900000000000 H
   0.8118700000000000    0.4139500000000000    0.9328900000000000 H
   0.1728600000000000    0.4058833333333333    0.1325900000000000 H
   0.6728600000000000    0.4058833333333333    0.1325900000000000 H
   0.2399100000000000    0.5021766666666667    0.1098800000000000 H
   0.7399100000000000    0.5021766666666667    0.1098800000000000 H
   0.2813800000000000    0.5089900000000001    0.2693100000000000 H
   0.7813800000000000    0.5089933333333333    0.2693100000000000 H
   0.1341800000000000    0.4491366666666666    0.3896400000000000 H
   0.6341900000000000    0.4491333333333333    0.3896400000000000 H
   0.4381200000000000    0.5860533333333333    0.4328900000000000 H
   0.9381100000000000    0.5860533333333333    0.4329000000000000 H
   0.0771300000000000    0.5941500000000000    0.6326000000000001 H
   0.5771300000000000    0.5941500000000000    0.6325900000000000 H
   0.0100900000000000    0.4978466666666667    0.6098300000000000 H
   0.5100900000000000    0.4978466666666667    0.6098300000000000 H
   0.4686900000000000    0.4910166666666667    0.7692400000000000 H
   0.9686800000000000    0.4910166666666667    0.7692500000000000 H
   0.1158800000000000    0.5508999999999999    0.8895999999999999 H
   0.6158700000000000    0.5508999999999999    0.8895999999999999 H
   0.1881400000000000    0.5806033333333334    0.5670600000000000 H
   0.6881400000000000    0.5806033333333334    0.5670600000000000 H
   0.3271600000000000    0.5725466666666666    0.3673900000000000 H
   0.8271600000000000    0.5725466666666666    0.3673900000000000 H
   0.2601000000000000    0.3354933333333333    0.3901200000000000 H
   0.7601000000000000    0.3354933333333333    0.3901000000000000 H
   0.2186300000000000    0.3423166666666667    0.2307200000000000 H
   0.7186300000000000    0.3423200000000000    0.2307200000000000 H
   0.3658200000000000    0.6158333333333332    0.1102900000000000 H
   0.8658200000000000    0.6158366666666666    0.1102900000000000 H
   0.0618800000000000    0.4194400000000000    0.0670900000000000 H
   0.5618900000000000    0.4194400000000000    0.0670700000000000 H
   0.4228800000000000    0.4274733333333333    0.8673500000000000 H
   0.9228800000000000    0.4274766666666666    0.8673000000000000 H
   0.4898900000000000    0.6645233333333334    0.8900900000000000 H
   0.9899000000000000    0.6645266666666667    0.8901000000000000 H
   0.0313000000000000    0.6576766666666667    0.7306700000000000 H
   0.5312900000000000    0.6576800000000000    0.7306700000000000 H
   0.3841700000000000    0.3842300000000000    0.6103400000000000 H
   0.8841800000000000    0.3842366666666667    0.6103499999999999 H
   0.1881300000000000    0.9193966666666666    0.0670600000000000 H
   0.6881400000000000    0.9193966666666666    0.0670600000000000 H
   0.3271400000000000    0.9274633333333333    0.8673600000000000 H
   0.8271500000000001    0.9274633333333333    0.8673600000000000 H
   0.2600900000000000    0.8311666666666666    0.8900000000000000 H
   0.7600900000000000    0.8311700000000000    0.8900700000000000 H
   0.2186200000000000    0.8243566666666666    0.7306400000000000 H
   0.7186200000000000    0.8243566666666666    0.7306400000000000 H
   0.3658200000000000    0.8842099999999999    0.6103100000000000 H
   0.8658200000000000    0.8842099999999999    0.6103100000000000 H
   0.0618800000000000    0.7472933333333333    0.5670600000000000 H
   0.5618800000000000    0.7472933333333333    0.5670500000000001 H
   0.4228700000000000    0.7391966666666666    0.3673600000000000 H
   0.9228800000000000    0.7391966666666666    0.3673600000000000 H
   0.4899100000000000    0.8354966666666666    0.3901200000000000 H
   0.9899100000000000    0.8354999999999999    0.3901300000000000 H
   0.0313200000000000    0.8423299999999999    0.2307100000000000 H
   0.5313099999999999    0.8423266666666667    0.2307000000000000 H
   0.3841300000000000    0.7824466666666666    0.1103500000000000 H
   0.8841300000000000    0.7824466666666666    0.1103000000000000 H
   0.3118600000000000    0.7527400000000000    0.4328900000000000 H
   0.8118700000000000    0.7527400000000000    0.4329000000000000 H
   0.1728400000000000    0.7607999999999999    0.6325600000000000 H
   0.6728400000000000    0.7607999999999999    0.6325600000000000 H
   0.2399000000000000    0.9978533333333333    0.6098300000000000 H
   0.7399000000000000    0.9978499999999999    0.6098200000000000 H
   0.2813700000000000    0.9910300000000000    0.7692300000000000 H
   0.7813700000000000    0.9910300000000000    0.7692300000000000 H
   0.1341800000000000    0.7175133333333333    0.8896600000000000 H
   0.6341900000000000    0.7175133333333333    0.8896600000000000 H
   0.4381200000000000    0.9139033333333333    0.9328000000000000 H
   0.9381200000000000    0.9139033333333333    0.9328700000000000 H
   0.0771200000000000    0.9058700000000000    0.1326100000000000 H
   0.5771200000000000    0.9058700000000000    0.1326000000000000 H
   0.5101000000000000    0.6688200000000000    0.1098600000000000 H
   0.4687100000000000    0.6756633333333333    0.2692800000000000 H
   0.1158300000000000    0.9491166666666666    0.3896000000000000 H
   0.6158400000000001    0.9491166666666666    0.3896100000000000 H
   0.3118700000000000    0.7472833333333333    0.9328900000000000 H
   0.8118700000000000    0.7472833333333333    0.9328900000000000 H
   0.1728600000000000    0.7392166666666666    0.1325900000000000 H
   0.6728600000000000    0.7392166666666666    0.1325900000000000 H
   0.2399100000000000    0.8355100000000000    0.1098800000000000 H
   0.7399100000000000    0.8355100000000000    0.1098800000000000 H
   0.2813800000000000    0.8423233333333333    0.2693100000000000 H
   0.7813800000000000    0.8423266666666667    0.2693100000000000 H
   0.1341800000000000    0.7824700000000000    0.3896400000000000 H
   0.6341900000000000    0.7824666666666666    0.3896400000000000 H
   0.4381200000000000    0.9193866666666666    0.4328900000000000 H
   0.9381100000000000    0.9193866666666666    0.4329000000000000 H
   0.0771300000000000    0.9274833333333332    0.6326000000000001 H
   0.5771300000000000    0.9274833333333332    0.6325900000000000 H
   0.0100900000000000    0.8311799999999999    0.6098300000000000 H
   0.5100900000000000    0.8311799999999999    0.6098300000000000 H
   0.4686900000000000    0.8243499999999999    0.7692400000000000 H
   0.9686800000000000    0.8243499999999999    0.7692500000000000 H
   0.1158800000000000    0.8842333333333332    0.8895999999999999 H
   0.6158700000000000    0.8842333333333332    0.8895999999999999 H
   0.1881400000000000    0.9139366666666666    0.5670600000000000 H
   0.6881400000000000    0.9139366666666666    0.5670600000000000 H
   0.3271600000000000    0.9058799999999999    0.3673900000000000 H
   0.8271600000000000    0.9058799999999999    0.3673900000000000 H
   0.2601000000000000    0.6688266666666667    0.3901200000000000 H
   0.7601000000000000    0.6688266666666667    0.3901000000000000 H
   0.2186300000000000    0.6756500000000000    0.2307200000000000 H
   0.7186300000000000    0.6756533333333333    0.2307200000000000 H
   0.3658200000000000    0.9491666666666666    0.1102900000000000 H
   0.8658200000000000    0.9491700000000000    0.1102900000000000 H
   0.0618800000000000    0.7527733333333333    0.0670900000000000 H
   0.5618900000000000    0.7527733333333333    0.0670700000000000 H
   0.4228800000000000    0.7608066666666666    0.8673500000000000 H
   0.9228800000000000    0.7608100000000000    0.8673000000000000 H
   0.4898900000000000    0.9978566666666666    0.8900900000000000 H
   0.9899000000000000    0.9978600000000000    0.8901000000000000 H
   0.0313000000000000    0.9910099999999999    0.7306700000000000 H
   0.5312900000000000    0.9910133333333333    0.7306700000000000 H
   0.3841700000000000    0.7175633333333333    0.6103400000000000 H
   0.8841800000000000    0.7175699999999999    0.6103499999999999 H
   0.2213400000000000    0.2457633333333333    0.0150200000000000 C
   0.7213400000000000    0.2457633333333333    0.0150200000000000 C
   0.2919600000000000    0.2505966666666666    0.9136200000000000 C
   0.7919600000000000    0.2505966666666666    0.9136200000000000 C
   0.2957000000000000    0.1852000000000000    0.8747500000000000 C
   0.7957000000000000    0.1852000000000000    0.8747500000000000 C
   0.3645000000000000    0.1703600000000000    0.9022700000000000 C
   0.8645000000000000    0.1703600000000000    0.9022700000000000 C
   0.2607100000000000    0.1745200000000000    0.7194300000000000 C
   0.7607200000000000    0.1745200000000000    0.7194300000000000 C
   0.3355200000000000    0.2055900000000000    0.6600900000000000 C
   0.8355200000000000    0.2055933333333333    0.6600900000000000 C
   0.0286800000000000    0.0875833333333333    0.5150200000000000 C
   0.5286800000000000    0.0875833333333333    0.5150100000000000 C
   0.4580600000000000    0.0827333333333333    0.4136000000000000 C
   0.9580600000000000    0.0827333333333333    0.4136300000000000 C
   0.4543000000000000    0.1481300000000000    0.3748000000000000 C
   0.9543000000000000    0.1481300000000000    0.3748100000000000 C
   0.3854900000000000    0.1629700000000000    0.4023400000000000 C
   0.8854900000000000    0.1629700000000000    0.4023400000000000 C
   0.4892300000000000    0.1588166666666667    0.2194800000000000 C
   0.9892300000000001    0.1588200000000000    0.2194900000000000 C
   0.4144400000000000    0.1277366666666667    0.1601300000000000 C
   0.9144400000000000    0.1277400000000000    0.1601300000000000 C
   0.2786600000000000    0.0791033333333333    0.4849400000000000 C
   0.7786700000000000    0.0791066666666667    0.4849400000000000 C
   0.2080300000000000    0.0839366666666667    0.5863100000000000 C
   0.7080300000000000    0.0839366666666667    0.5863100000000000 C
   0.2043100000000000    0.0185466666666667    0.6251000000000000 C
   0.7043100000000000    0.0185466666666667    0.6251600000000000 C
   0.1354900000000000    0.0037000000000000    0.5976500000000000 C
   0.6354900000000000    0.0037000000000000    0.5976500000000000 C
   0.2392800000000000    0.0078533333333333    0.7804700000000000 C
   0.7392800000000000    0.0078533333333333    0.7804700000000000 C
   0.1644900000000000    0.0389066666666667    0.8398600000000001 C
   0.6645000000000000    0.0389066666666667    0.8398600000000001 C
   0.4713200000000000    0.2542133333333333    0.9849200000000000 C
   0.9713200000000000    0.2542133333333333    0.9849200000000000 C
   0.0419400000000000    0.2493966666666667    0.0863500000000000 C
   0.5419400000000000    0.2493966666666667    0.0863400000000000 C
   0.0457100000000000    0.3147966666666666    0.1251800000000000 C
   0.5457000000000000    0.3147933333333333    0.1251700000000000 C
   0.1145100000000000    0.3296433333333333    0.0976000000000000 C
   0.6145100000000000    0.3296400000000000    0.0976400000000000 C
   0.0107700000000000    0.3254899999999999    0.2805000000000000 C
   0.5107699999999999    0.3254899999999999    0.2805000000000000 C
   0.0855400000000000    0.2944099999999999    0.3398400000000000 C
   0.5855399999999999    0.2944099999999999    0.3398400000000000 C
   0.2786600000000000    0.0875833333333333    0.9849300000000000 C
   0.7786700000000000    0.0875833333333333    0.9849300000000000 C
   0.2080400000000000    0.0827466666666667    0.0863300000000000 C
   0.7080400000000000    0.0827500000000000    0.0863300000000000 C
   0.2043000000000000    0.1481433333333333    0.1252000000000000 C
   0.7043000000000000    0.1481433333333333    0.1252000000000000 C
   0.1354900000000000    0.1629800000000000    0.0976800000000000 C
   0.6354900000000000    0.1629800000000000    0.0976800000000000 C
   0.2392800000000000    0.1588266666666667    0.2805200000000000 C
   0.7392900000000000    0.1588266666666667    0.2805200000000000 C
   0.1644800000000000    0.1277533333333333    0.3398600000000000 C
   0.6644900000000000    0.1277533333333333    0.3398600000000000 C
   0.4713300000000000    0.2457600000000000    0.4849400000000000 C
   0.9713200000000000    0.2457600000000000    0.4849400000000000 C
   0.0419400000000000    0.2506133333333333    0.5863300000000000 C
   0.5419400000000000    0.2506100000000000    0.5863200000000000 C
   0.0457000000000000    0.1852133333333333    0.6251500000000000 C
   0.5457000000000000    0.1852166666666666    0.6251500000000000 C
   0.1145000000000000    0.1703700000000000    0.5976100000000000 C
   0.6145000000000000    0.1703700000000000    0.5976100000000000 C
   0.0107700000000000    0.1745266666666667    0.7804700000000000 C
   0.5107699999999999    0.1745266666666667    0.7804700000000000 C
   0.0855600000000000    0.2056066666666667    0.8398300000000000 C
   0.5855600000000000    0.2056066666666667    0.8398200000000000 C
   0.2213400000000000    0.2542400000000000    0.5150100000000000 C
   0.7213400000000000    0.2542400000000000    0.5150100000000000 C
   0.2919600000000000    0.2494066666666667    0.4136400000000000 C
   0.7919700000000000    0.2494066666666667    0.4136400000000000 C
   0.2956900000000000    0.3147966666666666    0.3747000000000000 C
   0.7956900000000000    0.3148000000000000    0.3747900000000000 C
   0.3645100000000000    0.3296400000000000    0.4023100000000000 C
   0.8645100000000000    0.3296433333333333    0.4023100000000000 C
   0.2607100000000000    0.3254899999999999    0.2194800000000000 C
   0.7607200000000000    0.3254933333333333    0.2194800000000000 C
   0.3355100000000000    0.2944400000000000    0.1600900000000000 C
   0.8355100000000000    0.2944433333333333    0.1600900000000000 C
   0.0286800000000000    0.0791300000000000    0.0150400000000000 C
   0.5286800000000000    0.0791300000000000    0.0150300000000000 C
   0.4580600000000000    0.0839500000000000    0.9136100000000000 C
   0.9580600000000000    0.0839500000000000    0.9136100000000000 C
   0.4542900000000000    0.0185500000000000    0.8747800000000000 C
   0.9542900000000000    0.0185500000000000    0.8747800000000000 C
   0.3854900000000000    0.0037000000000000    0.9023099999999999 C
   0.8854900000000000    0.0037000000000000    0.9023099999999999 C
   0.4892300000000000    0.0078566666666667    0.7194500000000000 C
   0.9892300000000001    0.0078566666666667    0.7194600000000000 C
   0.4144700000000000    0.0389366666666667    0.6601100000000000 C
   0.9144700000000000    0.0389433333333333    0.6601200000000000 C
   0.2213400000000000    0.5790966666666666    0.0150200000000000 C
   0.7213400000000000    0.5790966666666666    0.0150200000000000 C
   0.2919600000000000    0.5839299999999999    0.9136200000000000 C
   0.7919600000000000    0.5839299999999999    0.9136200000000000 C
   0.2957000000000000    0.5185333333333333    0.8747500000000000 C
   0.7957000000000000    0.5185333333333333    0.8747500000000000 C
   0.3645000000000000    0.5036933333333333    0.9022700000000000 C
   0.8645000000000000    0.5036933333333333    0.9022700000000000 C
   0.2607100000000000    0.5078533333333333    0.7194300000000000 C
   0.7607200000000000    0.5078533333333333    0.7194300000000000 C
   0.3355200000000000    0.5389233333333333    0.6600900000000000 C
   0.8355200000000000    0.5389266666666667    0.6600900000000000 C
   0.0286800000000000    0.4209166666666666    0.5150200000000000 C
   0.5286800000000000    0.4209166666666666    0.5150100000000000 C
   0.4580600000000000    0.4160666666666666    0.4136000000000000 C
   0.9580600000000000    0.4160666666666666    0.4136300000000000 C
   0.4543000000000000    0.4814633333333333    0.3748000000000000 C
   0.9543000000000000    0.4814633333333333    0.3748100000000000 C
   0.3854900000000000    0.4963033333333333    0.4023400000000000 C
   0.8854900000000000    0.4963033333333333    0.4023400000000000 C
   0.4892300000000000    0.4921500000000000    0.2194800000000000 C
   0.9892300000000001    0.4921533333333333    0.2194900000000000 C
   0.4144400000000000    0.4610700000000000    0.1601300000000000 C
   0.9144400000000000    0.4610733333333333    0.1601300000000000 C
   0.2786600000000000    0.4124366666666667    0.4849400000000000 C
   0.7786700000000000    0.4124400000000000    0.4849400000000000 C
   0.2080300000000000    0.4172700000000000    0.5863100000000000 C
   0.7080300000000000    0.4172700000000000    0.5863100000000000 C
   0.2043100000000000    0.3518800000000000    0.6251000000000000 C
   0.7043100000000000    0.3518800000000000    0.6251600000000000 C
   0.1354900000000000    0.3370333333333333    0.5976500000000000 C
   0.6354900000000000    0.3370333333333333    0.5976500000000000 C
   0.2392800000000000    0.3411866666666666    0.7804700000000000 C
   0.7392800000000000    0.3411866666666666    0.7804700000000000 C
   0.1644900000000000    0.3722400000000000    0.8398600000000001 C
   0.6645000000000000    0.3722400000000000    0.8398600000000001 C
   0.4713200000000000    0.5875466666666667    0.9849200000000000 C
   0.5419400000000000    0.5827300000000000    0.0863400000000000 C
   0.5457000000000000    0.6481266666666666    0.1251700000000000 C
   0.6145100000000000    0.6629733333333333    0.0976400000000000 C
   0.5107699999999999    0.6588233333333333    0.2805000000000000 C
   0.5855399999999999    0.6277433333333333    0.3398400000000000 C
   0.2786600000000000    0.4209166666666666    0.9849300000000000 C
   0.7786700000000000    0.4209166666666666    0.9849300000000000 C
   0.2080400000000000    0.4160800000000000    0.0863300000000000 C
   0.7080400000000000    0.4160833333333333    0.0863300000000000 C
   0.2043000000000000    0.4814766666666667    0.1252000000000000 C
   0.7043000000000000    0.4814766666666667    0.1252000000000000 C
   0.1354900000000000    0.4963133333333333    0.0976800000000000 C
   0.6354900000000000    0.4963133333333333    0.0976800000000000 C
   0.2392800000000000    0.4921600000000000    0.2805200000000000 C
   0.7392900000000000    0.4921600000000000    0.2805200000000000 C
   0.1644800000000000    0.4610866666666666    0.3398600000000000 C
   0.6644900000000000    0.4610866666666666    0.3398600000000000 C
   0.4713300000000000    0.5790933333333333    0.4849400000000000 C
   0.9713200000000000    0.5790933333333333    0.4849400000000000 C
   0.0419400000000000    0.5839466666666666    0.5863300000000000 C
   0.5419400000000000    0.5839433333333333    0.5863200000000000 C
   0.0457000000000000    0.5185466666666667    0.6251500000000000 C
   0.5457000000000000    0.5185500000000000    0.6251500000000000 C
   0.1145000000000000    0.5037033333333333    0.5976100000000000 C
   0.6145000000000000    0.5037033333333333    0.5976100000000000 C
   0.0107700000000000    0.5078600000000000    0.7804700000000000 C
   0.5107699999999999    0.5078600000000000    0.7804700000000000 C
   0.0855600000000000    0.5389400000000000    0.8398300000000000 C
   0.5855600000000000    0.5389400000000000    0.8398200000000000 C
   0.2213400000000000    0.5875733333333333    0.5150100000000000 C
   0.7213400000000000    0.5875733333333333    0.5150100000000000 C
   0.2919600000000000    0.5827400000000000    0.4136400000000000 C
   0.7919700000000000    0.5827400000000000    0.4136400000000000 C
   0.2956900000000000    0.6481299999999999    0.3747000000000000 C
   0.7956900000000000    0.6481333333333332    0.3747900000000000 C
   0.3645100000000000    0.6629733333333333    0.4023100000000000 C
   0.8645100000000000    0.6629766666666665    0.4023100000000000 C
   0.2607100000000000    0.6588233333333333    0.2194800000000000 C
   0.7607200000000000    0.6588266666666667    0.2194800000000000 C
   0.3355100000000000    0.6277733333333333    0.1600900000000000 C
   0.8355100000000000    0.6277766666666666    0.1600900000000000 C
   0.0286800000000000    0.4124633333333333    0.0150400000000000 C
   0.5286800000000000    0.4124633333333333    0.0150300000000000 C
   0.4580600000000000    0.4172833333333333    0.9136100000000000 C