H6 O4
1.0
  12.9403129572490148    0.0000000000000000    7.6373409357218867
   4.8706975555868217   11.4083099144385969    6.4926705767444108
   0.0000000000000000    0.0000000000000000   14.7409999999999997
H O
6 4
direct
   0.5804507311966179    0.1466380369665262    0.8153267022482334 H
   0.8659840939204396   -0.1261481273798190    0.7128812097635131 H
   0.7200705352713701    0.0031517706517916    0.7667406050978938 H
   0.4677185436698932    0.6715064383083432   -0.0157505741822605 H
   0.5788905529156920    0.5616836397768444   -0.0797132406120520 H
   0.3201856594474922    0.8080794312304861    0.0769816906458468 H
   0.6604800000000000    0.1059100000000000    0.7812800000000000 O
   0.8207000000000000   -0.0480600000000000    0.7239300000000000 O
   0.5161200000000000    0.6007400000000001   -0.0239500000000000 O
   0.3735000000000000    0.7301299999999999    0.0679500000000000 O
