H3 O2
1.0
  18.2699867516615022    0.0000000000000000   -0.0220021388311903
   0.0150454183321506   20.9569552714949765    0.0406002949020030
   0.0000000000000000    0.0000000000000000   37.1799999999999997
H O
3 2
direct
   0.4783741135627236    0.4631363615275656    0.8457375318639807 H
   0.3465484929678547    0.3753164639393972    0.9195636244601131 H
   0.3977083787578903    0.3170839906749792    0.9012264703322500 H
   0.5213700000000000    0.4472500000000000    0.8328800000000001 O
   0.3600800000000000    0.3301800000000000    0.9184099999999999 O
