H4 C6 N1 O2
1.0
  18.2699867516615022    0.0000000000000000   -0.0220021388311903
   0.0150454183321506   20.9569552714949765    0.0406002949020030
   0.0000000000000000    0.0000000000000000   37.1799999999999997
H C N O
4 6 1 2
direct
   0.4891700000000000    0.3394900000000000    0.8537850000000000 H
   0.4250600000000000    0.2613600000000000    0.8939049999999999 H
   0.2998000000000000    0.4045900000000000    0.9400800000000000 H
   0.3580200000000000    0.4882600000000000    0.9005400000000000 H
   0.4640200000000000    0.4684400000000000    0.8500300000000001 C
   0.4474000000000000    0.3554300000000000    0.8725650000000000 C
   0.4282500000000000    0.4199400000000000    0.8743099999999999 C
   0.4120000000000000    0.3121100000000000    0.8947000000000001 C
   0.3414300000000000    0.3923900000000000    0.9199999999999999 C
   0.3739200000000000    0.4383200000000000    0.8986100000000000 C
   0.3600800000000000    0.3301800000000000    0.9184099999999999 N
   0.5213700000000000    0.4472500000000000    0.8328800000000001 O
   0.4378400000000000    0.5229200000000001    0.8469300000000000 O
