H1 O1
1.0
  18.2699867516615022    0.0000000000000000   -0.0220021388311903
   0.0150454183321506   20.9569552714949765    0.0406002949020030
   0.0000000000000000    0.0000000000000000   37.1799999999999997
H O
1 1
direct
   0.2033881589254740    0.9829514777805115    0.7465402765279056 H
   0.2502200000000000    0.9633900000000000    0.7401150000000000 O
