H8 C10 N2
1.0
  23.6789999422957109    0.0000000000000000   -0.0016531060529756
  -0.0029948467328631   28.6079964271592324    0.0139805056310276
   0.0000000000000000    0.0000000000000000   35.0640000000000001
H C N
8 10 2
direct
   0.8890500000000000    0.5676500000000000    0.6830499999999999 H
   0.8848100000000000    0.5626800000000000    0.8009100000000000 H
   0.7794000000000000    0.5624550000000000    0.8019050000000000 H
   0.7835100000000000    0.5679050000000000    0.6786950000000000 H
   0.5954600000000000    0.6081700000000000    0.7878200000000000 H
   0.7007300000000000    0.6107400000000001    0.7891850000000000 H
   0.7003000000000000    0.5215200000000000    0.6896300000000000 H
   0.5947100000000000    0.5228550000000000    0.6924500000000000 H
   0.8627600000000000    0.5660250000000000    0.7085600000000000 C
   0.8605100000000000    0.5635950000000000    0.7745050000000000 C
   0.8018400000000000    0.5638950000000000    0.7747999999999999 C
   0.8041000000000000    0.5660750000000000    0.7064500000000000 C
   0.7721900000000000    0.5652050000000000    0.7401650000000000 C
   0.7097900000000000    0.5656850000000000    0.7396600000000000 C
   0.6204700000000000    0.5890649999999999    0.7668550000000001 C
   0.6791600000000000    0.5901100000000000    0.7675100000000000 C
   0.6789200000000000    0.5414900000000000    0.7117900000000000 C
   0.6202299999999999    0.5417850000000000    0.7132650000000000 C
   0.8906800000000000    0.5647000000000000    0.7420000000000000 N
   0.5913400000000000    0.5648250000000000    0.7404500000000001 N
