H5 C8 N1 O4
1.0
  23.6789999422957109    0.0000000000000000   -0.0016531060529756
  -0.0029948467328631   28.6079964271592324    0.0139805056310276
   0.0000000000000000    0.0000000000000000   35.0640000000000001
H C N O
5 8 1 4
direct
   0.9960200000000000    0.3486450000000000    0.3752500000000000 H
   0.0142600000000000    0.2574450000000000    0.2792150000000000 H
   0.0177800000000000    0.2005300000000000    0.3934500000000000 H
   0.0140800000000000    0.1509150000000000    0.3336950000000000 H
   0.0179900000000000    0.1758550000000000    0.2902500000000000 H
   0.0070500000000000    0.2845550000000000    0.4307500000000000 C
   0.0000000000000000    0.3136550000000000    0.3640800000000000 C
   0.9976800000000000    0.3482350000000000    0.2986650000000000 C
   0.0000000000000000    0.3069350000000000    0.3246500000000000 C
   0.0122600000000000    0.2621200000000000    0.3099900000000000 C
   0.0145600000000000    0.2302000000000000    0.3740200000000000 C
   0.0174900000000000    0.2230100000000000    0.3342200000000000 C
   0.0074200000000000    0.2754300000000000    0.3887300000000000 C
   0.0277200000000000    0.1792450000000000    0.3186250000000000 N
   0.0097700000000000    0.2511400000000000    0.4548050000000000 O
   0.0050300000000000    0.3272850000000000    0.4417450000000000 O
   1.0000000000000000    0.3435700000000000    0.2629500000000000 O
   0.9854400000000000    0.3878550000000000    0.3138800000000000 O
