H6 O4
1.0
  23.6789999422957109    0.0000000000000000   -0.0016531060529756
  -0.0029948467328631   28.6079964271592324    0.0139805056310276
   0.0000000000000000    0.0000000000000000   35.0640000000000001
H O
6 4
direct
   0.9796788197261191    0.3941598966664380    0.3407784877115490 H
   1.0059292829213304    0.3150938362806788    0.2484892319400872 H
   0.9930853423321090    0.3511372344914281    0.2952339809669846 H
   0.0100253784569549    0.2501190192469403    0.4271548010838845 H
   0.0049250783102574    0.3319175806217157    0.4143389571393806 H
   0.0083456410698523    0.3140293567607943    0.0827556936622310 H
   0.9854400000000000    0.3878550000000000    0.3138800000000000 O
   1.0000000000000000    0.3435700000000000    0.2629500000000000 O
   0.0097700000000000    0.2511400000000000    0.4548050000000000 O
   0.0050300000000000    0.3272850000000000    0.4417450000000000 O
