H4 O2
1.0
  23.6789999422957109    0.0000000000000000   -0.0016531060529756
  -0.0029948467328631   28.6079964271592324    0.0139805056310276
   0.0000000000000000    0.0000000000000000   35.0640000000000001
H O
4 2
direct
   0.6123426841695788    0.5480751958024542    0.7206868304205608 H
   0.6125026405660708    0.5824351066708396    0.7596329565446998 H
   0.8703901922502877    0.5656628938133370    0.7176987402883102 H
   0.8687384969355395    0.5638963751777849    0.7656396604942091 H
   0.5913400000000000    0.5648250000000000    0.7404500000000001 O
   0.8906800000000000    0.5647000000000000    0.7420000000000000 O
