Cd32 H408 C566 N94 O128
1.0
  23.6789999422957109    0.0000000000000000   -0.0016531060529756
  -0.0029948467328631   28.6079964271592324    0.0139805056310276
   0.0000000000000000    0.0000000000000000   35.0640000000000001
Cd H C N O
32 408 566 94 128
direct
   0.5085800000000000    0.3191050000000000    0.0076550000000000 Cd
   0.0085400000000000    0.1808750000000000    0.4923550000000000 Cd
   0.5085900000000000    0.1808800000000000    0.4923400000000000 Cd
   0.4910200000000000    0.4310950000000000    0.2578550000000000 Cd
   0.9910800000000000    0.4311400000000000    0.2578050000000000 Cd
   0.4909600000000000    0.0689350000000000    0.2421700000000000 Cd
   0.9910300000000000    0.0688800000000000    0.2421850000000000 Cd
   0.0085400000000000    0.3191300000000000    0.0076300000000000 Cd
   0.5085800000000000    0.8191050000000000    0.0076550000000000 Cd
   0.0085400000000000    0.6808750000000000    0.4923550000000000 Cd
   0.5085900000000000    0.6808800000000000    0.4923400000000000 Cd
   0.4910200000000000    0.9310950000000000    0.2578550000000000 Cd
   0.9910800000000000    0.9311400000000001    0.2578050000000000 Cd
   0.4909600000000000    0.5689350000000000    0.2421700000000000 Cd
   0.9910300000000000    0.5688800000000001    0.2421850000000000 Cd
   0.0085400000000000    0.8191300000000000    0.0076300000000000 Cd
   0.5085800000000000    0.3191050000000000    0.5076550000000000 Cd
   0.0085400000000000    0.1808750000000000    0.9923550000000000 Cd
   0.5085900000000000    0.1808800000000000    0.9923400000000000 Cd
   0.4910200000000000    0.4310950000000000    0.7578549999999999 Cd
   0.9910800000000000    0.4311400000000000    0.7578050000000001 Cd
   0.4909600000000000    0.0689350000000000    0.7421700000000000 Cd
   0.9910300000000000    0.0688800000000000    0.7421850000000000 Cd
   0.0085400000000000    0.3191300000000000    0.5076300000000000 Cd
   0.5085800000000000    0.8191050000000000    0.5076550000000000 Cd
   0.0085400000000000    0.6808750000000000    0.9923550000000000 Cd
   0.5085900000000000    0.6808800000000000    0.9923400000000000 Cd
   0.4910200000000000    0.9310950000000000    0.7578549999999999 Cd
   0.9910800000000000    0.9311400000000001    0.7578050000000001 Cd
   0.4909600000000000    0.5689350000000000    0.7421700000000000 Cd
   0.9910300000000000    0.5688800000000001    0.7421850000000000 Cd
   0.0085400000000000    0.8191300000000000    0.5076300000000000 Cd
   0.1104200000000000    0.3175000000000000    0.0669750000000000 H
   0.6104300000000000    0.3178000000000000    0.0667300000000000 H
   0.1147000000000000    0.3130100000000000    0.4491150000000000 H
   0.6147500000000000    0.3129200000000000    0.4488800000000000 H
   0.2201100000000000    0.3125900000000000    0.4481450000000000 H
   0.7201600000000000    0.3125050000000000    0.4479200000000000 H
   0.2159600000000000    0.3177600000000000    0.0713700000000000 H
   0.7159799999999999    0.3179600000000000    0.0711400000000000 H
   0.4955300000000000    0.1514800000000000    0.1247550000000000 H
   0.9960500000000000    0.1513550000000000    0.1247350000000000 H
   0.4039600000000000    0.3579300000000000    0.4619500000000000 H
   0.9039199999999999    0.3580900000000000    0.4616800000000000 H
   0.2986800000000000    0.3605500000000000    0.4607000000000000 H
   0.7986200000000000    0.3606000000000000    0.4604350000000000 H
   0.2992900000000000    0.2717250000000000    0.0605750000000000 H
   0.7993400000000001    0.2719150000000000    0.0603850000000000 H
   0.4048200000000000    0.2732850000000000    0.0577700000000000 H
   0.9049100000000000    0.2735550000000000    0.0575600000000000 H
   0.0142600000000000    0.2425650000000000    0.2207500000000000 H
   0.5145300000000000    0.2426400000000000    0.2207550000000000 H
   0.0177800000000000    0.2994800000000000    0.1065000000000000 H
   0.5179600000000000    0.2995200000000000    0.1064850000000000 H
   0.0140900000000000    0.3490950000000000    0.1662500000000000 H
   0.5138900000000000    0.3491350000000000    0.1662950000000000 H
   0.0180000000000000    0.3241550000000000    0.2097350000000000 H
   0.5178100000000000    0.3242000000000000    0.2097000000000000 H
   0.1104100000000000    0.1825250000000000    0.4330000000000000 H
   0.6104400000000000    0.1821950000000000    0.4332650000000000 H
   0.1147300000000000    0.1869900000000000    0.0508700000000000 H
   0.6147700000000000    0.1870950000000000    0.0511150000000000 H
   0.2201400000000000    0.1874050000000000    0.0518400000000000 H
   0.7201800000000000    0.1875000000000000    0.0520850000000000 H
   0.2159500000000000    0.1822650000000000    0.4286150000000000 H
   0.7159900000000000    0.1820350000000000    0.4288650000000000 H
   0.4960300000000000    0.3485800000000000    0.3753050000000000 H
   0.9960200000000000    0.3486450000000000    0.3752500000000000 H
   0.4039800000000000    0.1420650000000000    0.0380350000000000 H
   0.9039400000000000    0.1418950000000000    0.0383100000000000 H
   0.2986900000000000    0.1394500000000000    0.0392850000000000 H
   0.7986400000000000    0.1393900000000000    0.0395700000000000 H
   0.2993000000000000    0.2282700000000000    0.4394100000000000 H
   0.7993400000000001    0.2280750000000000    0.4396200000000000 H
   0.4048300000000000    0.2267050000000000    0.4422100000000000 H
   0.9049000000000000    0.2264350000000000    0.4424350000000000 H
   0.0142600000000000    0.2574450000000000    0.2792150000000000 H
   0.5140900000000000    0.2574300000000000    0.2792250000000000 H
   0.0177800000000000    0.2005300000000000    0.3934500000000000 H
   0.5179200000000000    0.2004700000000000    0.3934700000000000 H
   0.0140800000000000    0.1509150000000000    0.3336950000000000 H
   0.5139700000000000    0.1509000000000000    0.3336500000000000 H
   0.0179900000000000    0.1758550000000000    0.2902500000000000 H
   0.5181900000000000    0.1758600000000000    0.2902350000000000 H
   0.3891100000000000    0.4325250000000000    0.3170450000000000 H
   0.8890900000000000    0.4323600000000000    0.3169350000000000 H
   0.3848600000000000    0.4370100000000000    0.1991850000000000 H
   0.8848000000000000    0.4373450000000000    0.1990900000000000 H
   0.2794200000000000    0.4374300000000000    0.1981950000000000 H
   0.7793900000000000    0.4375900000000000    0.1981050000000000 H
   0.2835700000000000    0.4322350000000000    0.3214000000000000 H
   0.7835500000000000    0.4321150000000000    0.3213150000000000 H
   0.0031800000000000    0.0990000000000000    0.3750150000000000 H
   0.5029300000000000    0.0989950000000000    0.3749750000000000 H
   0.0954900000000000    0.3919050000000000    0.2122750000000000 H
   0.5954900000000000    0.3918450000000000    0.2121500000000000 H
   0.2007700000000000    0.3892950000000000    0.2109300000000000 H
   0.7007700000000000    0.3893150000000000    0.2108150000000000 H
   0.2003900000000000    0.4785250000000000    0.3104800000000000 H
   0.7002900000000000    0.4784650000000000    0.3104100000000000 H
   0.0948300000000000    0.4771050000000000    0.3076800000000000 H
   0.5947400000000000    0.4769650000000000    0.3076250000000000 H
   0.4863100000000000    0.0068600000000000    0.4706550000000000 H
   0.9864900000000000    0.0068450000000000    0.4706650000000000 H
   0.4815900000000000    0.4509400000000000    0.3561650000000000 H
   0.9822700000000000    0.4509050000000000    0.3561650000000000 H
   0.4855900000000000    0.4008500000000000    0.4156150000000000 H
   0.9862000000000000    0.4008500000000000    0.4156500000000000 H
   0.4823900000000000    0.4254450000000000    0.4592350000000000 H
   0.9828400000000000    0.4254650000000000    0.4592450000000000 H
   0.3889600000000000    0.0676950000000000    0.1829300000000000 H
   0.8890500000000000    0.0676500000000000    0.1830500000000000 H
   0.3847500000000000    0.0625550000000000    0.3007700000000000 H
   0.8848100000000000    0.0626800000000000    0.3009100000000000 H
   0.2793300000000000    0.0623600000000000    0.3017800000000000 H
   0.7794000000000000    0.0624550000000000    0.3019050000000000 H
   0.2834100000000000    0.0679000000000000    0.1785500000000000 H
   0.7835100000000000    0.0679050000000000    0.1786950000000000 H
   0.0031800000000000    0.4010050000000000    0.1249800000000000 H
   0.5033400000000000    0.4010250000000000    0.1250050000000000 H
   0.0954300000000000    0.1081050000000000    0.2877300000000000 H
   0.5954600000000000    0.1081700000000000    0.2878200000000000 H
   0.2007200000000000    0.1106850000000000    0.2890500000000000 H
   0.7007300000000000    0.1107400000000000    0.2891850000000000 H
   0.2002500000000000    0.0214900000000000    0.1895000000000000 H
   0.7003000000000000    0.0215200000000000    0.1896300000000000 H
   0.0946800000000000    0.0229250000000000    0.1923100000000000 H
   0.5947100000000000    0.0228550000000000    0.1924500000000000 H
   0.4861500000000000    0.4931200000000000    0.0293600000000000 H
   0.9865000000000000    0.4931550000000000    0.0293300000000000 H
   0.4821700000000000    0.0490900000000000    0.1438550000000000 H
   0.9822600000000000    0.0490950000000000    0.1438250000000000 H
   0.4856900000000000    0.0991650000000000    0.0843550000000000 H
   0.9862100000000000    0.0991450000000000    0.0843350000000000 H
   0.4823300000000000    0.0745250000000000    0.0407600000000000 H
   0.9828500000000000    0.0745350000000000    0.0407450000000000 H
   0.1104200000000000    0.8175000000000000    0.0669750000000000 H
   0.6104300000000000    0.8178000000000001    0.0667300000000000 H
   0.1147000000000000    0.8130100000000000    0.4491150000000000 H
   0.6147500000000000    0.8129200000000000    0.4488800000000000 H
   0.2201100000000000    0.8125899999999999    0.4481450000000000 H
   0.7201600000000000    0.8125050000000000    0.4479200000000000 H
   0.2159600000000000    0.8177600000000000    0.0713700000000000 H
   0.7159799999999999    0.8179600000000000    0.0711400000000000 H
   0.4955300000000000    0.6514800000000001    0.1247550000000000 H
   0.9960500000000000    0.6513550000000000    0.1247350000000000 H
   0.4039600000000000    0.8579300000000001    0.4619500000000000 H
   0.9039199999999999    0.8580900000000000    0.4616800000000000 H
   0.2986800000000000    0.8605499999999999    0.4607000000000000 H
   0.7986200000000000    0.8606000000000000    0.4604350000000000 H
   0.2992900000000000    0.7717250000000000    0.0605750000000000 H
   0.7993400000000001    0.7719150000000000    0.0603850000000000 H
   0.4048200000000000    0.7732850000000000    0.0577700000000000 H
   0.9049100000000000    0.7735550000000000    0.0575600000000000 H
   0.0142600000000000    0.7425650000000000    0.2207500000000000 H
   0.5145300000000000    0.7426400000000000    0.2207550000000000 H
   0.0177800000000000    0.7994800000000000    0.1065000000000000 H
   0.5179600000000000    0.7995200000000000    0.1064850000000000 H
   0.0140900000000000    0.8490949999999999    0.1662500000000000 H
   0.5138900000000000    0.8491350000000000    0.1662950000000000 H
   0.0180000000000000    0.8241550000000000    0.2097350000000000 H
   0.5178100000000000    0.8242000000000000    0.2097000000000000 H
   0.1104100000000000    0.6825250000000000    0.4330000000000000 H
   0.6104400000000000    0.6821950000000000    0.4332650000000000 H
   0.1147300000000000    0.6869900000000000    0.0508700000000000 H
   0.6147700000000000    0.6870950000000000    0.0511150000000000 H
   0.2201400000000000    0.6874050000000000    0.0518400000000000 H
   0.7201800000000000    0.6875000000000000    0.0520850000000000 H
   0.2159500000000000    0.6822650000000000    0.4286150000000000 H
   0.7159900000000000    0.6820349999999999    0.4288650000000000 H
   0.4960300000000000    0.8485800000000000    0.3753050000000000 H
   0.9960200000000000    0.8486450000000000    0.3752500000000000 H
   0.4039800000000000    0.6420650000000000    0.0380350000000000 H
   0.9039400000000000    0.6418950000000000    0.0383100000000000 H
   0.2986900000000000    0.6394500000000000    0.0392850000000000 H
   0.7986400000000000    0.6393900000000000    0.0395700000000000 H
   0.2993000000000000    0.7282700000000000    0.4394100000000000 H
   0.7993400000000001    0.7280750000000000    0.4396200000000000 H
   0.4048300000000000    0.7267049999999999    0.4422100000000000 H
   0.9049000000000000    0.7264349999999999    0.4424350000000000 H
   0.0142600000000000    0.7574449999999999    0.2792150000000000 H
   0.5140900000000000    0.7574300000000000    0.2792250000000000 H
   0.0177800000000000    0.7005300000000000    0.3934500000000000 H
   0.5179200000000000    0.7004700000000000    0.3934700000000000 H
   0.0140800000000000    0.6509150000000000    0.3336950000000000 H
   0.5139700000000000    0.6509000000000000    0.3336500000000000 H
   0.0179900000000000    0.6758550000000000    0.2902500000000000 H
   0.5181900000000000    0.6758600000000000    0.2902350000000000 H
   0.3891100000000000    0.9325250000000000    0.3170450000000000 H
   0.8890900000000000    0.9323600000000001    0.3169350000000000 H
   0.3848600000000000    0.9370100000000000    0.1991850000000000 H
   0.8848000000000000    0.9373450000000000    0.1990900000000000 H
   0.2794200000000000    0.9374300000000000    0.1981950000000000 H
   0.7793900000000000    0.9375899999999999    0.1981050000000000 H
   0.2835700000000000    0.9322349999999999    0.3214000000000000 H
   0.7835500000000000    0.9321150000000000    0.3213150000000000 H
   0.0031800000000000    0.5990000000000000    0.3750150000000000 H
   0.5029300000000000    0.5989949999999999    0.3749750000000000 H
   0.0954900000000000    0.8919049999999999    0.2122750000000000 H
   0.5954900000000000    0.8918450000000000    0.2121500000000000 H
   0.2007700000000000    0.8892949999999999    0.2109300000000000 H
   0.7007700000000000    0.8893150000000001    0.2108150000000000 H
   0.2003900000000000    0.9785250000000000    0.3104800000000000 H
   0.7002900000000000    0.9784649999999999    0.3104100000000000 H
   0.0948300000000000    0.9771050000000000    0.3076800000000000 H
   0.5947400000000000    0.9769650000000000    0.3076250000000000 H
   0.4863100000000000    0.5068600000000000    0.4706550000000000 H
   0.9864900000000000    0.5068450000000000    0.4706650000000000 H
   0.4815900000000000    0.9509400000000000    0.3561650000000000 H
   0.9822700000000000    0.9509050000000000    0.3561650000000000 H
   0.4855900000000000    0.9008499999999999    0.4156150000000000 H
   0.9862000000000000    0.9008499999999999    0.4156500000000000 H
   0.4823900000000000    0.9254450000000001    0.4592350000000000 H
   0.9828400000000000    0.9254650000000000    0.4592450000000000 H
   0.3889600000000000    0.5676950000000001    0.1829300000000000 H
   0.8890500000000000    0.5676500000000000    0.1830500000000000 H
   0.3847500000000000    0.5625550000000000    0.3007700000000000 H
   0.8848100000000000    0.5626800000000000    0.3009100000000000 H
   0.2793300000000000    0.5623600000000000    0.3017800000000000 H
   0.7794000000000000    0.5624550000000000    0.3019050000000000 H
   0.2834100000000000    0.5679000000000000    0.1785500000000000 H
   0.7835100000000000    0.5679050000000000    0.1786950000000000 H
   0.0031800000000000    0.9010050000000001    0.1249800000000000 H
   0.5033400000000000    0.9010250000000000    0.1250050000000000 H
   0.0954300000000000    0.6081050000000000    0.2877300000000000 H
   0.5954600000000000    0.6081700000000000    0.2878200000000000 H
   0.2007200000000000    0.6106850000000000    0.2890500000000000 H
   0.7007300000000000    0.6107400000000001    0.2891850000000000 H
   0.2002500000000000    0.5214900000000000    0.1895000000000000 H
   0.7003000000000000    0.5215200000000000    0.1896300000000000 H
   0.0946800000000000    0.5229250000000000    0.1923100000000000 H
   0.5947100000000000    0.5228550000000000    0.1924500000000000 H
   0.4861500000000000    0.9931200000000000    0.0293600000000000 H
   0.9865000000000000    0.9931550000000000    0.0293300000000000 H
   0.4821700000000000    0.5490900000000000    0.1438550000000000 H
   0.9822600000000000    0.5490950000000000    0.1438250000000000 H
   0.4856900000000000    0.5991649999999999    0.0843550000000000 H
   0.9862100000000000    0.5991450000000000    0.0843350000000000 H
   0.4823300000000000    0.5745250000000000    0.0407600000000000 H
   0.9828500000000000    0.5745350000000000    0.0407450000000000 H
   0.1104200000000000    0.3175000000000000    0.5669750000000000 H
   0.6104300000000000    0.3178000000000000    0.5667300000000000 H
   0.1147000000000000    0.3130100000000000    0.9491149999999999 H
   0.6147500000000000    0.3129200000000000    0.9488799999999999 H
   0.2201100000000000    0.3125900000000000    0.9481450000000000 H
   0.7201600000000000    0.3125050000000000    0.9479200000000000 H
   0.2159600000000000    0.3177600000000000    0.5713700000000000 H
   0.7159799999999999    0.3179600000000000    0.5711400000000000 H
   0.4955300000000000    0.1514800000000000    0.6247549999999999 H
   0.9960500000000000    0.1513550000000000    0.6247350000000000 H
   0.4039600000000000    0.3579300000000000    0.9619500000000001 H
   0.9039199999999999    0.3580900000000000    0.9616800000000000 H
   0.2986800000000000    0.3605500000000000    0.9607000000000000 H
   0.7986200000000000    0.3606000000000000    0.9604349999999999 H
   0.2992900000000000    0.2717250000000000    0.5605750000000000 H
   0.7993400000000001    0.2719150000000000    0.5603850000000000 H
   0.4048200000000000    0.2732850000000000    0.5577700000000000 H
   0.9049100000000000    0.2735550000000000    0.5575600000000001 H
   0.0142600000000000    0.2425650000000000    0.7207500000000000 H
   0.5145300000000000    0.2426400000000000    0.7207550000000000 H
   0.0177800000000000    0.2994800000000000    0.6065000000000000 H
   0.5179600000000000    0.2995200000000000    0.6064849999999999 H
   0.0140900000000000    0.3490950000000000    0.6662500000000000 H
   0.5138900000000000    0.3491350000000000    0.6662950000000000 H
   0.0180000000000000    0.3241550000000000    0.7097350000000000 H
   0.5178100000000000    0.3242000000000000    0.7097000000000000 H
   0.1104100000000000    0.1825250000000000    0.9330000000000001 H
   0.6104400000000000    0.1821950000000000    0.9332650000000000 H
   0.1147300000000000    0.1869900000000000    0.5508700000000000 H
   0.6147700000000000    0.1870950000000000    0.5511150000000000 H
   0.2201400000000000    0.1874050000000000    0.5518400000000000 H
   0.7201800000000000    0.1875000000000000    0.5520850000000000 H
   0.2159500000000000    0.1822650000000000    0.9286150000000000 H
   0.7159900000000000    0.1820350000000000    0.9288650000000001 H
   0.4960300000000000    0.3485800000000000    0.8753050000000000 H
   0.9960200000000000    0.3486450000000000    0.8752500000000000 H
   0.4039800000000000    0.1420650000000000    0.5380350000000000 H
   0.9039400000000000    0.1418950000000000    0.5383100000000000 H
   0.2986900000000000    0.1394500000000000    0.5392850000000000 H
   0.7986400000000000    0.1393900000000000    0.5395700000000000 H
   0.2993000000000000    0.2282700000000000    0.9394100000000001 H
   0.7993400000000001    0.2280750000000000    0.9396200000000000 H
   0.4048300000000000    0.2267050000000000    0.9422100000000000 H
   0.9049000000000000    0.2264350000000000    0.9424350000000000 H
   0.0142600000000000    0.2574450000000000    0.7792150000000000 H
   0.5140900000000000    0.2574300000000000    0.7792250000000001 H
   0.0177800000000000    0.2005300000000000    0.8934500000000001 H
   0.5179200000000000    0.2004700000000000    0.8934700000000000 H
   0.0140800000000000    0.1509150000000000    0.8336950000000001 H
   0.5139700000000000    0.1509000000000000    0.8336500000000000 H
   0.0179900000000000    0.1758550000000000    0.7902500000000000 H
   0.5181900000000000    0.1758600000000000    0.7902350000000000 H
   0.3891100000000000    0.4325250000000000    0.8170450000000000 H
   0.8890900000000000    0.4323600000000000    0.8169350000000000 H
   0.3848600000000000    0.4370100000000000    0.6991849999999999 H
   0.8848000000000000    0.4373450000000000    0.6990900000000000 H
   0.2794200000000000    0.4374300000000000    0.6981950000000000 H
   0.7793900000000000    0.4375900000000000    0.6981050000000000 H
   0.2835700000000000    0.4322350000000000    0.8214000000000000 H
   0.7835500000000000    0.4321150000000000    0.8213150000000000 H
   0.0031800000000000    0.0990000000000000    0.8750150000000000 H
   0.5029300000000000    0.0989950000000000    0.8749750000000001 H
   0.0954900000000000    0.3919050000000000    0.7122750000000000 H
   0.5954900000000000    0.3918450000000000    0.7121500000000001 H
   0.2007700000000000    0.3892950000000000    0.7109300000000001 H
   0.7007700000000000    0.3893150000000000    0.7108150000000000 H
   0.2003900000000000    0.4785250000000000    0.8104800000000000 H
   0.7002900000000000    0.4784650000000000    0.8104100000000001 H
   0.0948300000000000    0.4771050000000000    0.8076800000000000 H
   0.5947400000000000    0.4769650000000000    0.8076250000000000 H
   0.4863100000000000    0.0068600000000000    0.9706550000000000 H
   0.9864900000000000    0.0068450000000000    0.9706650000000000 H
   0.4815900000000000    0.4509400000000000    0.8561650000000001 H
   0.9822700000000000    0.4509050000000000    0.8561650000000001 H
   0.4855900000000000    0.4008500000000000    0.9156150000000001 H
   0.9862000000000000    0.4008500000000000    0.9156500000000001 H
   0.4823900000000000    0.4254450000000000    0.9592350000000001 H
   0.9828400000000000    0.4254650000000000    0.9592450000000000 H
   0.3889600000000000    0.0676950000000000    0.6829300000000000 H
   0.8890500000000000    0.0676500000000000    0.6830499999999999 H
   0.3847500000000000    0.0625550000000000    0.8007700000000000 H
   0.8848100000000000    0.0626800000000000    0.8009100000000000 H
   0.2793300000000000    0.0623600000000000    0.8017799999999999 H
   0.7794000000000000    0.0624550000000000    0.8019050000000000 H
   0.2834100000000000    0.0679000000000000    0.6785500000000000 H
   0.7835100000000000    0.0679050000000000    0.6786950000000000 H
   0.0031800000000000    0.4010050000000000    0.6249800000000000 H
   0.5033400000000000    0.4010250000000000    0.6250050000000000 H
   0.0954300000000000    0.1081050000000000    0.7877300000000000 H
   0.5954600000000000    0.1081700000000000    0.7878200000000000 H
   0.2007200000000000    0.1106850000000000    0.7890500000000000 H
   0.7007300000000000    0.1107400000000000    0.7891850000000000 H
   0.2002500000000000    0.0214900000000000    0.6895000000000000 H
   0.7003000000000000    0.0215200000000000    0.6896300000000000 H
   0.0946800000000000    0.0229250000000000    0.6923100000000000 H
   0.5947100000000000    0.0228550000000000    0.6924500000000000 H
   0.4861500000000000    0.4931200000000000    0.5293600000000001 H
   0.9865000000000000    0.4931550000000000    0.5293300000000000 H
   0.4821700000000000    0.0490900000000000    0.6438550000000001 H
   0.9822600000000000    0.0490950000000000    0.6438250000000000 H
   0.4856900000000000    0.0991650000000000    0.5843550000000000 H
   0.9862100000000000    0.0991450000000000    0.5843350000000000 H
   0.4823300000000000    0.0745250000000000    0.5407600000000000 H
   0.9828500000000000    0.0745350000000000    0.5407450000000000 H
   0.1104200000000000    0.8175000000000000    0.5669750000000000 H
   0.6104300000000000    0.8178000000000001    0.5667300000000000 H
   0.1147000000000000    0.8130100000000000    0.9491149999999999 H
   0.6147500000000000    0.8129200000000000    0.9488799999999999 H
   0.2201100000000000    0.8125899999999999    0.9481450000000000 H
   0.7201600000000000    0.8125050000000000    0.9479200000000000 H
   0.2159600000000000    0.8177600000000000    0.5713700000000000 H
   0.7159799999999999    0.8179600000000000    0.5711400000000000 H
   0.4955300000000000    0.6514800000000001    0.6247549999999999 H
   0.9960500000000000    0.6513550000000000    0.6247350000000000 H
   0.4039600000000000    0.8579300000000001    0.9619500000000001 H
   0.9039199999999999    0.8580900000000000    0.9616800000000000 H
   0.2986800000000000    0.8605499999999999    0.9607000000000000 H
   0.7986200000000000    0.8606000000000000    0.9604349999999999 H
   0.2992900000000000    0.7717250000000000    0.5605750000000000 H
   0.7993400000000001    0.7719150000000000    0.5603850000000000 H
   0.4048200000000000    0.7732850000000000    0.5577700000000000 H
   0.9049100000000000    0.7735550000000000    0.5575600000000001 H
   0.0142600000000000    0.7425650000000000    0.7207500000000000 H
   0.5145300000000000    0.7426400000000000    0.7207550000000000 H
   0.0177800000000000    0.7994800000000000    0.6065000000000000 H
   0.5179600000000000    0.7995200000000000    0.6064849999999999 H
   0.0140900000000000    0.8490949999999999    0.6662500000000000 H
   0.5138900000000000    0.8491350000000000    0.6662950000000000 H
   0.0180000000000000    0.8241550000000000    0.7097350000000000 H
   0.5178100000000000    0.8242000000000000    0.7097000000000000 H
   0.1104100000000000    0.6825250000000000    0.9330000000000001 H
   0.6104400000000000    0.6821950000000000    0.9332650000000000 H
   0.1147300000000000    0.6869900000000000    0.5508700000000000 H
   0.6147700000000000    0.6870950000000000    0.5511150000000000 H
   0.2201400000000000    0.6874050000000000    0.5518400000000000 H
   0.7201800000000000    0.6875000000000000    0.5520850000000000 H
   0.2159500000000000    0.6822650000000000    0.9286150000000000 H
   0.7159900000000000    0.6820349999999999    0.9288650000000001 H
   0.4960300000000000    0.8485800000000000    0.8753050000000000 H
   0.9960200000000000    0.8486450000000000    0.8752500000000000 H
   0.4039800000000000    0.6420650000000000    0.5380350000000000 H
   0.9039400000000000    0.6418950000000000    0.5383100000000000 H
   0.2986900000000000    0.6394500000000000    0.5392850000000000 H
   0.7986400000000000    0.6393900000000000    0.5395700000000000 H
   0.2993000000000000    0.7282700000000000    0.9394100000000001 H
   0.7993400000000001    0.7280750000000000    0.9396200000000000 H
   0.4048300000000000    0.7267049999999999    0.9422100000000000 H
   0.9049000000000000    0.7264349999999999    0.9424350000000000 H
   0.0142600000000000    0.7574449999999999    0.7792150000000000 H
   0.5140900000000000    0.7574300000000000    0.7792250000000001 H
   0.0177800000000000    0.7005300000000000    0.8934500000000001 H
   0.5179200000000000    0.7004700000000000    0.8934700000000000 H
   0.0140800000000000    0.6509150000000000    0.8336950000000001 H
   0.5139700000000000    0.6509000000000000    0.8336500000000000 H
   0.0179900000000000    0.6758550000000000    0.7902500000000000 H
   0.5181900000000000    0.6758600000000000    0.7902350000000000 H
   0.3891100000000000    0.9325250000000000    0.8170450000000000 H
   0.8890900000000000    0.9323600000000001    0.8169350000000000 H
   0.3848600000000000    0.9370100000000000    0.6991849999999999 H
   0.8848000000000000    0.9373450000000000    0.6990900000000000 H
   0.2794200000000000    0.9374300000000000    0.6981950000000000 H
   0.7793900000000000    0.9375899999999999    0.6981050000000000 H
   0.2835700000000000    0.9322349999999999    0.8214000000000000 H
   0.7835500000000000    0.9321150000000000    0.8213150000000000 H
   0.0031800000000000    0.5990000000000000    0.8750150000000000 H
   0.5029300000000000    0.5989949999999999    0.8749750000000001 H
   0.0954900000000000    0.8919049999999999    0.7122750000000000 H
   0.5954900000000000    0.8918450000000000    0.7121500000000001 H
   0.2007700000000000    0.8892949999999999    0.7109300000000001 H
   0.7007700000000000    0.8893150000000001    0.7108150000000000 H
   0.2003900000000000    0.9785250000000000    0.8104800000000000 H
   0.7002900000000000    0.9784649999999999    0.8104100000000001 H
   0.0948300000000000    0.9771050000000000    0.8076800000000000 H
   0.5947400000000000    0.9769650000000000    0.8076250000000000 H
   0.4863100000000000    0.5068600000000000    0.9706550000000000 H
   0.9864900000000000    0.5068450000000000    0.9706650000000000 H
   0.4815900000000000    0.9509400000000000    0.8561650000000001 H
   0.9822700000000000    0.9509050000000000    0.8561650000000001 H
   0.4855900000000000    0.9008499999999999    0.9156150000000001 H
   0.9862000000000000    0.9008499999999999    0.9156500000000001 H
   0.4823900000000000    0.9254450000000001    0.9592350000000001 H
   0.9828400000000000    0.9254650000000000    0.9592450000000000 H
   0.3889600000000000    0.5676950000000001    0.6829300000000000 H
   0.3847500000000000    0.5625550000000000    0.8007700000000000 H
   0.2793300000000000    0.5623600000000000    0.8017799999999999 H
   0.2834100000000000    0.5679000000000000    0.6785500000000000 H
   0.0031800000000000    0.9010050000000001    0.6249800000000000 H
   0.5033400000000000    0.9010250000000000    0.6250050000000000 H
   0.0954300000000000    0.6081050000000000    0.7877300000000000 H
   0.2007200000000000    0.6106850000000000    0.7890500000000000 H
   0.2002500000000000    0.5214900000000000    0.6895000000000000 H
   0.0946800000000000    0.5229250000000000    0.6923100000000000 H
   0.4861500000000000    0.9931200000000000    0.5293600000000001 H
   0.9865000000000000    0.9931550000000000    0.5293300000000000 H
   0.4821700000000000    0.5490900000000000    0.6438550000000001 H
   0.9822600000000000    0.5490950000000000    0.6438250000000000 H