H6 O4
1.0
  14.8024017469092097    0.0000000000000000   -1.3518130503509687
   1.1285640948672171   13.0356646981209341   -0.5504588648938127
   0.0000000000000000    0.0000000000000000   13.0999999999999996
H O
6 4
direct
   0.3711213796733214    0.0286433348140769    0.1666039025858641 H
   0.3710232850055997    0.8334404357363264    0.9713964739690329 H
   0.4030976483660655   -0.0872013550398884    0.0872543142344196 H
   0.1288694621095732    0.9713435991360085    0.8333951194340675 H
   0.1289861816249865    0.1665572806338655    0.0286009918657507 H
   0.0968954422021637    0.0871957475321730   -0.0872495831841192 H
   0.3288800000000000    0.0173100000000000    0.1071500000000000 O
   0.3288200000000000    0.8928700000000001    0.9827100000000000 O
   0.1711200000000000    0.9826800000000000    0.8928400000000000 O
   0.1711900000000000    0.1071300000000000    0.0172800000000000 O
