H7 C15 O6
1.0
  23.2470832184763836    0.0000000000000000    1.9770389053414643
   2.2021343372861044    9.1783939319236545    3.8078042479849930
   0.0000000000000000    0.0000000000000000   26.8599999999999994
H C O
7 15 6
direct
   0.8148400000000000    0.8439300000000000    0.4234800000000000 H
   0.7186566666666666    0.2868100000000000    0.3889900000000000 H
   0.6982966666666667    0.2318100000000000    0.4857650000000000 H
   0.7171433333333332    0.8650300000000000    0.7243400000000000 H
   0.7401766666666666    0.7421200000000000    0.5864500000000000 H
   0.7279633333333333    0.1887800000000000    0.5679149999999999 H
   0.7988566666666665    0.7898600000000000    0.5206450000000000 H
   0.7795833333333333    0.8980700000000000    0.4920100000000000 C
   0.7895099999999999    0.9282400000000000    0.4376000000000000 C
   0.7676799999999999    0.0685300000000000    0.3999400000000000 C
   0.7356300000000000    0.1777700000000000    0.4181150000000000 C
   0.7248866666666667    0.1464500000000000    0.4726700000000000 C
   0.7784533333333333    0.0994200000000000    0.3414250000000000 C
   0.7219966666666666    0.0381000000000000    0.6480350000000000 C
   0.7222166666666666    0.8941900000000000    0.6811650000000000 C
   0.7282033333333333    0.7886900000000000    0.6582850000000000 C
   0.7357433333333333    0.8269500000000000    0.6028350000000000 C
   0.7362000000000000    0.9703400000000000    0.5689700000000000 C
   0.7278433333333333    0.0760100000000000    0.5923700000000000 C
   0.7465566666666666    0.0060100000000000    0.5107350000000001 C
   0.7171833333333333    0.1514100000000000    0.6717299999999999 C
   0.7254133333333332    0.6358200000000001    0.6921400000000000 C
   0.8067433333333333   -0.0112999999999999    0.3297600000000000 O
   0.7605466666666666    0.2282600000000000    0.3082250000000000 O
   0.6961066666666667    0.2835600000000000    0.6459650000000000 O
   0.7358066666666666    0.1073100000000000    0.7215850000000000 O
   0.7103866666666666    0.6031500000000000    0.7414849999999999 O
   0.7384733333333333    0.5410500000000000    0.6699300000000000 O
