H9 O6
1.0
  23.2470832184763836    0.0000000000000000    1.9770389053414643
   2.2021343372861044    9.1783939319236545    3.8078042479849930
   0.0000000000000000    0.0000000000000000   26.8599999999999994
H O
9 6
direct
   0.7441277128859345    0.3111705149073510    0.3188110482361459 H
   0.8250841426954661   -0.1083393054179354    0.3540795081154400 H
   0.7865879135859259    0.0904784842900519    0.3427551182344035 H
   0.7532449383566944    0.5123064578981821    0.6397672362555912 H
   0.7008301411251149    0.6281325397237025    0.7731802249222958 H
   0.7273302728332655    0.5701800379385962    0.7068871354501974 H
   0.7525955196462197    0.0080861593313920    0.7450758872214065 H
   0.6810718688823908    0.3271840405159054    0.6093768106879759 H
   0.7164017072256169    0.1636142316239989    0.6743617290382967 H
   0.7605466666666666    0.2282600000000000    0.3082250000000000 O
   0.8067433333333333   -0.0112999999999999    0.3297600000000000 O
   0.7384733333333333    0.5410500000000000    0.6699300000000000 O
   0.7103866666666666    0.6031500000000000    0.7414849999999999 O
   0.7358066666666666    0.1073100000000000    0.7215850000000000 O
   0.6961066666666667    0.2835600000000000    0.6459650000000000 O
