H6 O4
1.0
  14.7879997747658809    0.0000000000000000    0.0025809928847464
  -0.0221313665040546   18.1149864119073207   -0.0015808319679862
   0.0000000000000000    0.0000000000000000   19.4860000000000007
H O
6 4
direct
   0.3317793327132122    0.1569720777817369    0.4072409309686655 H
   0.0654454427767261    0.1570513978238686    0.4065867507523709 H
   0.1983376742066337    0.1508631590566087    0.4007618179623447 H
   0.0673004822479679    0.0826253045959157    0.1008811516243361 H
   0.3336649148732752    1.0818981680771269    1.1017953956349529 H
   0.2008476428352110    0.0877083970743018    0.1080538317153410 H
   0.2748500000000000    0.1751400000000000    0.4252600000000000 O
   0.1223600000000000    0.1751100000000000    0.4248100000000000 O
   0.1242000000000000    0.0664000000000000    0.0812700000000000 O
   0.2767300000000000    1.0660699999999999    1.0819000000000001 O
