Cd24 H45 C135 N30 O60
1.0
  20.6795367215230712    0.0000000000000000    3.2605192812156085
  13.2780076267928244   15.8610154847660567    3.2950898705259997
   0.0000000000000000    0.0000000000000000   16.3180000000000014
Cd H C N O
24 45 135 30 60
direct
   0.3568600000000000    0.8963600000000000    0.2102600000000000 Cd
   0.8568500000000000    0.3963700000000000    0.2102600000000000 Cd
   0.8568600000000000    0.8963600000000000    0.2102600000000000 Cd
   0.1040000000000000    0.1436700000000000    0.2896100000000000 Cd
   0.1040000000000000    0.6436600000000000    0.2896100000000000 Cd
   0.6040000000000000    0.1436600000000000    0.2896100000000000 Cd
   0.6040000000000000    0.6436500000000001    0.2896100000000000 Cd
   0.1431000000000000    0.1036400000000000    0.7897800000000000 Cd
   0.1431000000000000    0.6036300000000000    0.7897800000000000 Cd
   0.6431000000000000    0.1036400000000000    0.7897800000000000 Cd
   0.6431000000000000    0.6036300000000000    0.7897800000000000 Cd
   0.3959600000000000    0.3563500000000000    0.7104200000000001 Cd
   0.3959700000000000    0.8563400000000000    0.7104200000000001 Cd
   0.8959700000000000    0.3563400000000000    0.7104200000000001 Cd
   0.8959700000000000    0.8563300000000000    0.7104200000000001 Cd
   0.0081300000000000    0.4922800000000000    0.2500300000000000 Cd
   0.0081300000000000    0.9922700000000000    0.2500300000000000 Cd
   0.5081300000000000    0.4922800000000000    0.2500400000000000 Cd
   0.5081300000000000    0.9922700000000000    0.2500300000000000 Cd
   0.4918300000000000    0.0077200000000000    0.7500000000000000 Cd
   0.4918400000000000    0.5077100000000000    0.7000000000000000 Cd
   0.9918300000000000    0.0077200000000000    0.7500000000000000 Cd
   0.9918300000000000    0.5077100000000000    0.7500000000000000 Cd
   0.3568600000000000    0.3963700000000000    0.2102600000000000 Cd
   0.3477200000000000    0.3692800000000000    0.9963000000000000 H
   0.3477200000000000    0.8692800000000001    0.9963000000000000 H
   0.8477200000000000    0.3692800000000000    0.9963200000000000 H
   0.8477200000000000    0.8692700000000000    0.9963000000000000 H
   0.1972700000000000    0.4141800000000000    0.2802100000000000 H
   0.1972700000000000    0.9141700000000000    0.2802100000000000 H
   0.6972699999999999    0.4141700000000000    0.2802100000000000 H
   0.6972699999999999    0.9141600000000000    0.2802100000000000 H
   0.0411800000000000    0.0046200000000000    0.0265500000000000 H
   0.0411800000000000    0.5046100000000000    0.0265500000000000 H
   0.5411800000000000    0.0046200000000000    0.0265500000000000 H
   0.5411800000000000    0.5046100000000000    0.0265500000000000 H
   0.1302500000000000    0.1524800000000000    0.5037500000000000 H
   0.1302600000000000    0.6524700000000000    0.5037500000000000 H
   0.6302500000000000    0.1524800000000000    0.5037500000000000 H
   0.6302500000000000    0.6524700000000000    0.5037500000000000 H
   0.0872700000000000    0.3029200000000000    0.2197100000000000 H
   0.0872700000000000    0.8029100000000000    0.2197100000000000 H
   0.5872600000000000    0.3029200000000000    0.2197100000000000 H
   0.5872700000000000    0.8029100000000000    0.2197100000000000 H
   0.4953800000000000    0.4587900000000000    0.4730000000000000 H
   0.4953900000000000    0.9587800000000000    0.4730000000000000 H
   0.9953900000000000    0.4587900000000000    0.4733900000000000 H
   0.9953900000000000    0.9587800000000000    0.4733900000000000 H
   0.1522400000000000    0.1307300000000000    0.0037200000000000 H
   0.1522500000000000    0.6307199999999999    0.0037200000000000 H
   0.6522400000000000    0.1307200000000000    0.0037200000000000 H
   0.3027000000000000    0.0858300000000000    0.7198200000000000 H
   0.3027000000000000    0.5858200000000000    0.7198200000000000 H
   0.8026900000000000    0.0858200000000000    0.7198200000000000 H
   0.4587800000000000    0.4953800000000000    0.9734800000000000 H
   0.4587800000000000    0.9953700000000000    0.9734800000000000 H
   0.9587800000000000    0.9953700000000000    0.9734800000000000 H
   0.3697100000000000    0.3475300000000000    0.4962800000000000 H
   0.3697200000000000    0.8475200000000001    0.4962800000000000 H
   0.8697100000000000    0.3475300000000000    0.4962800000000000 H
   0.8697100000000000    0.8475200000000001    0.4962800000000000 H
   0.4127000000000000    0.1970900000000000    0.7803200000000000 H
   0.4127000000000000    0.6970800000000000    0.7803200000000000 H
   0.9126900000000000    0.1970900000000000    0.7803200000000000 H
   0.9127000000000000    0.6970800000000000    0.7803200000000000 H
   0.0045800000000000    0.0412200000000000    0.5266400000000000 H
   0.0045800000000000    0.5412000000000000    0.5266400000000000 H
   0.5045800000000000    0.0412200000000000    0.5266400000000000 H
   0.5045800000000000    0.5412100000000000    0.5266400000000000 H
   0.2870500000000000    0.4072900000000000    0.8515300000000000 C
   0.2870500000000000    0.9072800000000000    0.8515300000000000 C
   0.7870400000000000    0.4072900000000000    0.8515300000000000 C
   0.7870400000000000    0.9072800000000000    0.8515300000000000 C
   0.2370000000000000    0.4253600000000000    0.9330900000000000 C
   0.2370000000000000    0.9253500000000000    0.9330900000000000 C
   0.7369900000000000    0.4253500000000000    0.9330900000000000 C
   0.7369900000000000    0.9253500000000000    0.9330900000000000 C
   0.2810500000000000    0.3994800000000000    0.0000000000000000 C
   0.2810500000000000    0.8994700000000000    0.0000000000000000 C
   0.7810400000000000    0.3994800000000000    0.0000000000000000 C
   0.7810500000000000    0.8994700000000000    0.0000000000000000 C
   0.2381200000000000    0.4130000000000000    0.0818000000000000 C
   0.2381200000000000    0.9129900000000000    0.0818000000000000 C
   0.7381100000000000    0.4130000000000000    0.0818000000000000 C
   0.7381200000000000    0.9129900000000000    0.0818000000000000 C
   0.1967100000000000    0.4192500000000000    0.2129900000000000 C
   0.1967100000000000    0.9192399999999999    0.2129900000000000 C
   0.6967100000000001    0.4192500000000000    0.2100000000000000 C
   0.6967100000000001    0.9192399999999999    0.2129900000000000 C
   0.1520500000000000    0.4490600000000000    0.0902000000000000 C
   0.1520500000000000    0.9490499999999999    0.0902000000000000 C
   0.6520400000000000    0.4490600000000000    0.0902000000000000 C
   0.6520400000000000    0.9490499999999999    0.0902000000000000 C
   0.1076000000000000    0.4753400000000000    0.0198900000000000 C
   0.1076000000000000    0.9753300000000000    0.0198900000000000 C
   0.6075900000000000    0.4753400000000000    0.0198900000000000 C
   0.6075900000000000    0.9753300000000000    0.0198900000000000 C
   0.9182399999999999    0.6965100000000000    0.7130800000000000 C
   0.4488000000000000    0.1519400000000000    0.5901999999999999 C
   0.4488000000000000    0.6519300000000000    0.5902600000000000 C
   0.9488000000000000    0.1519300000000000    0.5902700000000000 C
   0.1497400000000000    0.4645200000000000    0.9412600000000000 C
   0.1497400000000000    0.9645000000000000    0.9412600000000000 C
   0.6497400000000000    0.4645100000000000    0.9412600000000000 C
   0.6497400000000000    0.9645000000000000    0.9412600000000000 C
   0.0971800000000000    0.4943800000000000    0.8686900000000000 C
   0.0971800000000000    0.9943700000000000    0.8686900000000000 C
   0.5971800000000000    0.4943800000000000    0.8686900000000000 C
   0.5971800000000000    0.9943600000000000    0.8686900000000000 C
   0.0919900000000000    0.2128400000000000    0.6485000000000000 C
   0.0919900000000000    0.7128300000000000    0.6485000000000000 C
   0.5919800000000000    0.2128400000000000    0.6485000000000000 C
   0.5919800000000000    0.7128300000000000    0.6485500000000000 C
   0.0740400000000000    0.2630300000000000    0.5669500000000000 C
   0.0740400000000000    0.7630100000000000    0.5669500000000000 C
   0.5740300000000000    0.2630300000000000    0.5669500000000000 C
   0.5740400000000000    0.7630100000000000    0.5669500000000000 C
   0.1001700000000000    0.2191000000000000    0.4960700000000000 C
   0.1001700000000000    0.7190900000000000    0.4960700000000000 C
   0.6001600000000000    0.2191000000000000    0.4960700000000000 C
   0.6001600000000000    0.7190900000000000    0.4960700000000000 C
   0.0871000000000000    0.2620700000000000    0.4181800000000000 C
   0.0871000000000000    0.7620600000000000    0.4181800000000000 C
   0.5870900000000000    0.2620700000000000    0.4181000000000000 C
   0.5871000000000000    0.7620600000000000    0.4181800000000000 C
   0.0817300000000000    0.3034800000000000    0.2869000000000000 C
   0.0817300000000000    0.8034700000000000    0.2869000000000000 C
   0.5817200000000000    0.3034800000000000    0.2869600000000000 C
   0.5817300000000000    0.8034700000000000    0.2869600000000000 C
   0.0511700000000000    0.3480700000000000    0.4097700000000000 C
   0.0511700000000000    0.8480600000000000    0.4097700000000000 C
   0.5511600000000000    0.3480700000000000    0.4097700000000000 C
   0.5511700000000000    0.8480600000000000    0.4097700000000000 C
   0.0245500000000000    0.3924300000000000    0.4800700000000000 C
   0.0245500000000000    0.8924200000000000    0.4800700000000000 C
   0.5245500000000000    0.3924300000000000    0.4800000000000000 C
   0.5245500000000000    0.8924200000000000    0.4800000000000000 C
   0.0349800000000000    0.3502300000000000    0.5587400000000000 C
   0.0349900000000000    0.8502200000000000    0.5587400000000000 C
   0.5349900000000000    0.3502300000000000    0.5587400000000000 C
   0.5349900000000000    0.8502200000000000    0.5587400000000000 C
   0.0049800000000000    0.4026400000000000    0.6312800000000000 C
   0.0049900000000000    0.9026300000000000    0.6312800000000000 C
   0.5049900000000000    0.4026400000000000    0.6312800000000000 C
   0.5049900000000000    0.9026300000000000    0.6312800000000000 C
   0.2129200000000000    0.0927200000000000    0.1485000000000000 C
   0.2129200000000000    0.5927100000000000    0.1485000000000000 C
   0.7129100000000000    0.0927200000000000    0.1485000000000000 C
   0.2629700000000000    0.0746500000000000    0.0669400000000000 C
   0.2629700000000000    0.5746400000000000    0.0669400000000000 C
   0.7629600000000000    0.0746500000000000    0.0669400000000000 C
   0.2189100000000000    0.1005300000000000    0.9960599999999999 C
   0.2189200000000000    0.6005200000000001    0.9960599999999999 C
   0.7189100000000000    0.1005300000000000    0.9960599999999999 C
   0.2618400000000000    0.0870100000000000    0.9182300000000000 C
   0.2618500000000000    0.5870000000000000    0.9182300000000000 C
   0.7618400000000000    0.0870000000000000    0.9182300000000000 C
   0.3032500000000000    0.0807600000000000    0.7870400000000000 C
   0.3032500000000000    0.5807500000000000    0.7870400000000000 C
   0.8032500000000000    0.0807500000000000    0.7870400000000000 C
   0.3479200000000000    0.0509500000000000    0.9098300000000000 C
   0.3479200000000000    0.5509400000000000    0.9098300000000000 C
   0.8479100000000001    0.0509400000000000    0.9098300000000000 C
   0.3923700000000000    0.0246600000000000    0.9801400000000000 C
   0.3923700000000000    0.5246499999999999    0.9801400000000000 C
   0.8923600000000000    0.0246600000000000    0.9801400000000000 C
   0.3502200000000000    0.0354900000000000    0.0587700000000000 C
   0.3502200000000000    0.5354800000000000    0.0587700000000000 C
   0.8502200000000000    0.0354900000000000    0.0587700000000000 C
   0.4027800000000000    0.0056300000000000    0.1313400000000000 C
   0.4027800000000000    0.5056200000000000    0.1313400000000000 C
   0.9027800000000000    0.0056300000000000    0.1313400000000000 C
   0.4079700000000000    0.2871700000000000    0.3514900000000000 C
   0.4079800000000000    0.7871600000000000    0.3514900000000000 C
   0.9079700000000001    0.2871700000000000    0.3514900000000000 C
   0.9079700000000001    0.7871600000000000    0.3514900000000000 C
   0.4259200000000000    0.2369800000000000    0.4330800000000000 C
   0.4259300000000000    0.7369700000000000    0.4330800000000000 C
   0.9259200000000000    0.2369800000000000    0.4330800000000000 C
   0.9259200000000000    0.7369700000000000    0.4330800000000000 C
   0.3998000000000000    0.2809000000000000    0.5039700000000000 C
   0.3998000000000000    0.7808900000000000    0.5039700000000000 C
   0.8998000000000000    0.2809000000000000    0.5039700000000000 C
   0.8998000000000000    0.7808900000000000    0.5039700000000000 C
   0.4128700000000000    0.2379400000000000    0.5818500000000000 C
   0.4128700000000000    0.7379300000000000    0.5818500000000000 C
   0.9128700000000000    0.2379400000000000    0.5818500000000000 C
   0.9128700000000000    0.7379300000000000    0.5818500000000000 C
   0.4182400000000000    0.1965200000000000    0.7130800000000000 C
   0.4182400000000000    0.6965100000000000    0.7130800000000000 C
   0.9182399999999999    0.1965200000000000    0.7130800000000000 C
   0.9488000000000000    0.6519200000000001    0.5902700000000000 C
   0.4754200000000000    0.1075800000000000    0.5199600000000000 C
   0.4754200000000000    0.6075700000000001    0.5199600000000000 C
   0.9754200000000000    0.1075800000000000    0.5199600000000000 C
   0.9754200000000000    0.6075700000000001    0.5199600000000000 C
   0.4649800000000000    0.1497800000000000    0.4412900000000000 C
   0.4649800000000000    0.6497700000000000    0.4412900000000000 C
   0.9649799999999999    0.1497800000000000    0.4412900000000000 C
   0.9649799999999999    0.6497700000000000    0.4412900000000000 C
   0.4949800000000000    0.0973600000000000    0.3687500000000000 C
   0.4949800000000000    0.5973500000000000    0.3687500000000000 C
   0.9949800000000000    0.0973600000000000    0.3687500000000000 C
   0.9949800000000000    0.5973500000000000    0.3687500000000000 C
   0.2648000000000000    0.3951200000000000    0.1612500000000000 N
   0.2648000000000000    0.8951100000000000    0.1612500000000000 N
   0.7648000000000000    0.3951100000000000    0.1612500000000000 N
   0.7648000000000000    0.8951000000000000    0.1612500000000000 N
   0.1275600000000000    0.4516700000000000    0.1745400000000000 N
   0.1275600000000000    0.9516600000000000    0.1745400000000000 N
   0.6275600000000000    0.4516700000000000    0.1745400000000000 N
   0.6275600000000000    0.9516600000000000    0.1745400000000000 N
   0.1054600000000000    0.2354400000000000    0.3387000000000000 N
   0.1054600000000000    0.7354300000000000    0.3387000000000000 N
   0.6054500000000000    0.2354400000000000    0.3387000000000000 N
   0.6054500000000000    0.7354300000000000    0.3387000000000000 N
   0.0491400000000000    0.3725600000000000    0.3254000000000000 N
   0.0491400000000000    0.8725500000000000    0.3254000000000000 N
   0.5491300000000000    0.3725600000000000    0.3254200000000000 N
   0.5491400000000000    0.8725500000000000    0.3254200000000000 N
   0.2351600000000000    0.1048900000000000    0.8387800000000000 N
   0.2351600000000000    0.6048800000000000    0.8387800000000000 N
   0.7351600000000000    0.1048900000000000    0.8387800000000000 N
   0.3724000000000000    0.0483300000000000    0.8254899999999999 N
   0.3724000000000000    0.5483300000000000    0.8254899999999999 N
   0.8724000000000000    0.0483300000000000    0.8254899999999999 N
   0.3945100000000000    0.2645700000000000    0.6613200000000000 N
   0.3945200000000000    0.7645600000000000    0.6613200000000000 N
   0.8945100000000000    0.2645700000000000    0.6613200000000000 N
   0.8945100000000000    0.7645600000000000    0.6613200000000000 N
   0.4508300000000000    0.1274500000000000    0.6746200000000000 N
   0.4508300000000000    0.6274400000000000    0.6746000000000000 N
   0.9508200000000000    0.1274500000000000    0.6746200000000000 N
   0.9508300000000000    0.6274400000000000    0.6746200000000000 N
   0.0650100000000000    0.0665000000000000    0.8296000000000000 O
   0.0650100000000000    0.5664900000000000    0.8296000000000000 O
   0.5649999999999999    0.0665000000000000    0.8296100000000000 O
   0.5650100000000000    0.5664900000000000    0.8296100000000000 O
   0.0803300000000000    0.4493100000000000    0.8536000000000000 O
   0.3660700000000000    0.3453900000000000    0.8499000000000000 O
   0.3660700000000000    0.8453800000000000    0.8499000000000000 O
   0.8660700000000000    0.3453900000000000    0.8499000000000000 O
   0.8660700000000000    0.8453800000000000    0.8499000000000000 O
   0.2519600000000000    0.4532700000000000    0.7843400000000000 O
   0.2519600000000000    0.9532600000000000    0.7843400000000000 O
   0.7519500000000000    0.4532700000000000    0.7843400000000000 O
   0.7519500000000000    0.9532500000000000    0.7843400000000000 O
   0.0803300000000000    0.9493000000000000    0.8536200000000000 O
   0.5803300000000000    0.4493000000000000    0.8536100000000000 O
   0.5803300000000000    0.9492900000000000    0.8536100000000000 O
   0.1534900000000000    0.1337300000000000    0.6502400000000000 O
   0.1534900000000000    0.6337200000000000    0.6502400000000000 O
   0.6534799999999999    0.1337200000000000    0.6502400000000000 O
   0.6534799999999999    0.6337200000000000    0.6502400000000000 O
   0.0463900000000000    0.2478800000000000    0.7157300000000000 O
   0.0463900000000000    0.7478700000000000    0.7157300000000000 O
   0.5463900000000000    0.2478900000000000    0.7157300000000000 O
   0.5463900000000000    0.7478800000000000    0.7157300000000000 O
   0.4330000000000000    0.4344900000000000    0.6703100000000000 O
   0.4330000000000000    0.9344800000000000    0.6703100000000000 O
   0.9330000000000001    0.4344900000000000    0.6703100000000000 O
   0.9330000000000001    0.9344800000000000    0.6703100000000000 O
   0.0499100000000000    0.4197000000000000    0.6463700000000000 O
   0.0499200000000000    0.9196900000000000    0.6463700000000000 O
   0.5499200000000000    0.4197000000000000    0.6463700000000000 O
   0.5499200000000000    0.9196900000000000    0.6463700000000000 O
   0.1338900000000000    0.1546200000000000    0.1501300000000000 O
   0.1338900000000000    0.6546100000000000    0.1501300000000000 O
   0.6338900000000000    0.1546200000000000    0.1501300000000000 O
   0.2480100000000000    0.0467400000000000    0.2156900000000000 O
   0.2480100000000000    0.5467300000000000    0.2156900000000000 O
   0.7480100000000000    0.0467400000000000    0.2156900000000000 O
   0.4349500000000000    0.4335100000000000    0.1704200000000000 O
   0.4349600000000000    0.9335000000000000    0.1704200000000000 O
   0.9349499999999999    0.9334900000000000    0.1704200000000000 O
   0.4196400000000000    0.0507000000000000    0.1464100000000000 O
   0.4196400000000000    0.5506900000000000    0.1464100000000000 O
   0.9196400000000000    0.0506900000000000    0.1464100000000000 O
   0.3464700000000000    0.3662800000000000    0.3497900000000000 O
   0.3464700000000000    0.8662700000000000    0.3490000000000000 O
   0.8464600000000000    0.3662800000000000    0.3497900000000000 O
   0.8464600000000000    0.8662700000000000    0.3497900000000000 O
   0.4535700000000000    0.2521300000000000    0.2843000000000000 O
   0.4535700000000000    0.7521200000000000    0.2843000000000000 O
   0.9535700000000000    0.2521300000000000    0.2843000000000000 O
   0.9535700000000000    0.7521200000000000    0.2843000000000000 O
   0.0669600000000000    0.0655200000000000    0.3297200000000000 O
   0.0669700000000000    0.5655100000000000    0.3297000000000000 O
   0.5669700000000000    0.0655200000000000    0.3297000000000000 O
   0.5669700000000000    0.5655100000000000    0.3297000000000000 O
   0.4500400000000000    0.0803100000000000    0.3536600000000000 O
   0.4500500000000000    0.5803000000000000    0.3536600000000000 O
   0.9500500000000000    0.0803100000000000    0.3536600000000000 O
   0.9500500000000000    0.5802900000000000    0.3536600000000000 O
