Zn16 Ni16 H1 C63 N63 O1
1.0
  29.8299953475904509    0.0000000000000000    0.0166602140417033
   0.2218807241559607    7.4859602054897838    0.1836872234843406
   0.0000000000000000    0.0000000000000000   26.1000000000000014
Zn Ni H C N O
16 16 1 63 63 1
direct
   0.7498825000000000    0.0146900000000000    0.3754000000000000 Zn
   0.7501300000000000    0.9853100000000000    0.6246150000000000 Zn
   0.9998825000000000    0.0146900000000000    0.8754000000000000 Zn
   0.0001300000000000    0.9853100000000000    0.1246150000000000 Zn
   0.4998825000000000    0.0146900000000000    0.8754000000000000 Zn
   0.5001300000000000    0.9853100000000000    0.1246150000000000 Zn
   0.2498825000000000    0.0146900000000000    0.3754000000000000 Zn
   0.2501300000000000    0.9853100000000000    0.6246150000000000 Zn
   0.9998825000000000    0.0146900000000000    0.3754000000000000 Zn
   0.0001300000000000    0.9853100000000000    0.6246150000000000 Zn
   0.2498825000000000    0.0146900000000000    0.8754000000000000 Zn
   0.7498825000000000    0.0146900000000000    0.8754000000000000 Zn
   0.7501300000000000    0.9853100000000000    0.1246150000000000 Zn
   0.2501300000000000    0.9853100000000000    0.1246150000000000 Zn
   0.4998825000000000    0.0146900000000000    0.3754000000000000 Zn
   0.5001300000000000    0.9853100000000000    0.6246150000000000 Zn
   0.6248650000000000    0.0038500000000000    0.2499800000000000 Ni
   0.7490525000000000    0.4999900000000000    0.5010550000000000 Ni
   0.8748650000000000    0.0038500000000000    0.7499800000000000 Ni
   0.9990525000000000    0.4999900000000000    0.0010550000000000 Ni
   0.3748650000000000    0.0038500000000000    0.7499800000000000 Ni
   0.4990525000000000    0.4999900000000000    0.0010550000000000 Ni
   0.1248650000000000    0.0038500000000000    0.2499800000000000 Ni
   0.2490525000000000    0.4999900000000000    0.5010550000000000 Ni
   0.8748650000000000    0.0038500000000000    0.2499800000000000 Ni
   0.9990525000000000    0.4999900000000000    0.5010550000000000 Ni
   0.1248650000000000    0.0038500000000000    0.7499800000000000 Ni
   0.2490525000000000    0.4999900000000000    0.0010550000000000 Ni
   0.6248650000000000    0.0038500000000000    0.7499800000000000 Ni
   0.7490525000000000    0.4999900000000000    0.0010550000000000 Ni
   0.3748650000000000    0.0038500000000000    0.2499800000000000 Ni
   0.4990525000000000    0.4999900000000000    0.5010550000000000 Ni
   0.2515640729996608    0.6864105480201266    0.0539360278264406 H
   0.6688350000000001    0.0066800000000000    0.2993700000000000 C
   0.6686675000000000    0.9987900000000000    0.2004500000000000 C
   0.5811775000000000    0.9935200000000000    0.2006550000000000 C
   0.5813500000000000    0.0013100000000000    0.2995450000000000 C
   0.7492325000000000    0.6795500000000000    0.4518600000000000 C
   0.7484850000000001    0.3312900000000000    0.4512200000000000 C
   0.7507775000000000    0.3203500000000000    0.5481600000000000 C
   0.7515400000000000    0.6685900000000000    0.5488350000000000 C
   0.9188350000000001    0.0066800000000000    0.7993700000000000 C
   0.9186675000000000    0.9987900000000000    0.7004500000000000 C
   0.8311775000000000    0.9935200000000000    0.7006550000000000 C
   0.8313500000000000    0.0013100000000000    0.7995450000000000 C
   0.9992325000000000    0.6795500000000000    0.9518599999999999 C
   0.9984850000000001    0.3312900000000000    0.9512200000000000 C
   0.0007775000000000    0.3203500000000000    0.0481600000000000 C
   0.0015400000000000    0.6685900000000000    0.0488350000000000 C
   0.4188350000000000    0.0066800000000000    0.7993700000000000 C
   0.4186675000000000    0.9987900000000000    0.7004500000000000 C
   0.3311775000000000    0.9935200000000000    0.7006550000000000 C
   0.3313500000000000    0.0013100000000000    0.7995450000000000 C
   0.4992325000000000    0.6795500000000000    0.9518599999999999 C
   0.4984850000000000    0.3312900000000000    0.9512200000000000 C
   0.5007775000000000    0.3203500000000000    0.0481600000000000 C
   0.5015400000000000    0.6685900000000000    0.0488350000000000 C
   0.1688350000000000    0.0066800000000000    0.2993700000000000 C
   0.1686675000000000    0.9987900000000000    0.2004500000000000 C
   0.0811775000000000    0.9935200000000000    0.2006550000000000 C
   0.0813500000000000    0.0013100000000000    0.2995450000000000 C
   0.2492325000000000    0.6795500000000000    0.4518600000000000 C
   0.2484850000000000    0.3312900000000000    0.4512200000000000 C
   0.2507775000000000    0.3203500000000000    0.5481600000000000 C
   0.2515400000000000    0.6685900000000000    0.5488350000000000 C
   0.9188350000000001    0.0066800000000000    0.2993700000000000 C
   0.9186675000000000    0.9987900000000000    0.2004500000000000 C
   0.8311775000000000    0.9935200000000000    0.2006550000000000 C
   0.8313500000000000    0.0013100000000000    0.2995450000000000 C
   0.9992325000000000    0.6795500000000000    0.4518600000000000 C
   0.9984850000000001    0.3312900000000000    0.4512200000000000 C
   0.0007775000000000    0.3203500000000000    0.5481600000000000 C
   0.0015400000000000    0.6685900000000000    0.5488350000000000 C
   0.1688350000000000    0.0066800000000000    0.7993700000000000 C
   0.1686675000000000    0.9987900000000000    0.7004500000000000 C
   0.0811775000000000    0.9935200000000000    0.7006550000000000 C
   0.0813500000000000    0.0013100000000000    0.7995450000000000 C
   0.2492325000000000    0.6795500000000000    0.9518599999999999 C
   0.2484850000000000    0.3312900000000000    0.9512200000000000 C
   0.2507775000000000    0.3203500000000000    0.0481600000000000 C
   0.6688350000000001    0.0066800000000000    0.7993700000000000 C
   0.6686675000000000    0.9987900000000000    0.7004500000000000 C
   0.5811775000000000    0.9935200000000000    0.7006550000000000 C
   0.5813500000000000    0.0013100000000000    0.7995450000000000 C
   0.7492325000000000    0.6795500000000000    0.9518599999999999 C
   0.7484850000000001    0.3312900000000000    0.9512200000000000 C
   0.7507775000000000    0.3203500000000000    0.0481600000000000 C
   0.7515400000000000    0.6685900000000000    0.0488350000000000 C
   0.4188350000000000    0.0066800000000000    0.2993700000000000 C
   0.4186675000000000    0.9987900000000000    0.2004500000000000 C
   0.3311775000000000    0.9935200000000000    0.2006550000000000 C
   0.3313500000000000    0.0013100000000000    0.2995450000000000 C
   0.4992325000000000    0.6795500000000000    0.4518600000000000 C
   0.4984850000000000    0.3312900000000000    0.4512200000000000 C
   0.5007775000000000    0.3203500000000000    0.5481600000000000 C
   0.5015400000000000    0.6685900000000000    0.5488350000000000 C
   0.6969550000000000    0.0142000000000000    0.3303800000000000 N
   0.6969350000000000    0.9963100000000000    0.1693850000000000 N
   0.5530400000000000    0.9860600000000000    0.1696650000000000 N
   0.5530775000000000    0.0037700000000000    0.3306000000000000 N
   0.7495300000000000    0.7953700000000000    0.4210100000000000 N
   0.7483625000000000    0.2220700000000000    0.4199750000000000 N
   0.7505174999999999    0.2045100000000000    0.5790000000000000 N
   0.7516875000000000    0.7777800000000000    0.5800900000000000 N
   0.9469550000000000    0.0142000000000000    0.8303800000000000 N
   0.9469350000000000    0.9963100000000000    0.6693850000000000 N
   0.8030400000000000    0.9860600000000000    0.6696650000000000 N
   0.8030775000000000    0.0037700000000000    0.8306000000000000 N
   0.9995300000000000    0.7953700000000000    0.9210100000000000 N
   0.9983625000000000    0.2220700000000000    0.9199750000000000 N
   0.0005175000000000    0.2045100000000000    0.0790000000000000 N
   0.0016875000000000    0.7777800000000000    0.0800900000000000 N
   0.4469550000000000    0.0142000000000000    0.8303800000000000 N
   0.4469350000000000    0.9963100000000000    0.6693850000000000 N
   0.3030400000000000    0.9860600000000000    0.6696650000000000 N
   0.3030775000000000    0.0037700000000000    0.8306000000000000 N
   0.4995300000000000    0.7953700000000000    0.9210100000000000 N
   0.4983625000000000    0.2220700000000000    0.9199750000000000 N
   0.5005174999999999    0.2045100000000000    0.0790000000000000 N
   0.5016875000000000    0.7777800000000000    0.0800900000000000 N
   0.1969550000000000    0.0142000000000000    0.3303800000000000 N
   0.1969350000000000    0.9963100000000000    0.1693850000000000 N
   0.0530400000000000    0.9860600000000000    0.1696650000000000 N
   0.0530775000000000    0.0037700000000000    0.3306000000000000 N
   0.2495300000000000    0.7953700000000000    0.4210100000000000 N
   0.2483625000000000    0.2220700000000000    0.4199750000000000 N
   0.2505175000000000    0.2045100000000000    0.5790000000000000 N
   0.2516875000000000    0.7777800000000000    0.5800900000000000 N
   0.9469550000000000    0.0142000000000000    0.3303800000000000 N
   0.9469350000000000    0.9963100000000000    0.1693850000000000 N
   0.8030400000000000    0.9860600000000000    0.1696650000000000 N
   0.8030775000000000    0.0037700000000000    0.3306000000000000 N
   0.9995300000000000    0.7953700000000000    0.4210100000000000 N
   0.9983625000000000    0.2220700000000000    0.4199750000000000 N
   0.0005175000000000    0.2045100000000000    0.5790000000000000 N
   0.0016875000000000    0.7777800000000000    0.5800900000000000 N
   0.1969550000000000    0.0142000000000000    0.8303800000000000 N
   0.1969350000000000    0.9963100000000000    0.6693850000000000 N
   0.0530400000000000    0.9860600000000000    0.6696650000000000 N
   0.0530775000000000    0.0037700000000000    0.8306000000000000 N
   0.2495300000000000    0.7953700000000000    0.9210100000000000 N
   0.2483625000000000    0.2220700000000000    0.9199750000000000 N
   0.2505175000000000    0.2045100000000000    0.0790000000000000 N
   0.6969550000000000    0.0142000000000000    0.8303800000000000 N
   0.6969350000000000    0.9963100000000000    0.6693850000000000 N
   0.5530400000000000    0.9860600000000000    0.6696650000000000 N
   0.5530775000000000    0.0037700000000000    0.8306000000000000 N
   0.7495300000000000    0.7953700000000000    0.9210100000000000 N
   0.7483625000000000    0.2220700000000000    0.9199750000000000 N
   0.7505174999999999    0.2045100000000000    0.0790000000000000 N
   0.7516875000000000    0.7777800000000000    0.0800900000000000 N
   0.4469550000000000    0.0142000000000000    0.3303800000000000 N
   0.4469350000000000    0.9963100000000000    0.1693850000000000 N
   0.3030400000000000    0.9860600000000000    0.1696650000000000 N
   0.3030775000000000    0.0037700000000000    0.3306000000000000 N
   0.4995300000000000    0.7953700000000000    0.4210100000000000 N
   0.4983625000000000    0.2220700000000000    0.4199750000000000 N
   0.5005174999999999    0.2045100000000000    0.5790000000000000 N
   0.5016875000000000    0.7777800000000000    0.5800900000000000 N
   0.2516875000000000    0.7777800000000000    0.0800900000000000 O
