C1 N1
1.0
  29.8299953475904509    0.0000000000000000    0.0166602140417033
   0.2218807241559607    7.4859602054897838    0.1836872234843406
   0.0000000000000000    0.0000000000000000   26.1000000000000014
C N
1 1
direct
   0.2515400000000000    0.6685900000000000    0.0488350000000000 C
   0.2516875000000000    0.7777800000000000    0.0800900000000000 N
