H8 C10 N2
1.0
  28.2639823673224022    0.0000000000000000   -0.0315711844608560
  -0.0232547964346727   35.7574119258666414   -5.5527963746505575
   0.0000000000000000    0.0000000000000000   39.1060000000000016
H C N
8 10 2
direct
   0.0455150000000000    0.3535850000000000    0.0510900000000000 H
   0.0385700000000000    0.4138750000000000    0.0292400000000000 H
   0.1891700000000000    0.4293450000000000    0.0476150000000000 H
   0.1889100000000000    0.3698400000000000    0.0714950000000000 H
   0.1713950000000000    0.4884600000000000    0.0544750000000000 H
   0.1691100000000000    0.5479849999999999    0.0294950000000000 H
   0.0520300000000000    0.4504050000000000    0.9886100000000000 H
   0.0550500000000000    0.5117300000000000    0.9670750000000000 H
   0.0766700000000000    0.3711950000000000    0.0500500000000000 C
   0.0730200000000000    0.4051450000000000    0.0376650000000000 C
   0.1135850000000000    0.4274600000000000    0.0365050000000000 C
   0.1561000000000000    0.4141100000000000    0.0486000000000000 C
   0.1565900000000000    0.3803500000000000    0.0612550000000000 C
   0.1452400000000000    0.4919500000000000    0.0347550000000000 C
   0.1123650000000000    0.4636200000000000    0.0232300000000000 C
   0.1441100000000000    0.5253700000000000    0.0213900000000000 C
   0.0790000000000000    0.4708600000000000    0.9984450000000000 C
   0.0801950000000000    0.5000000000000000    0.9863550000000000 C
   0.1177900000000000    0.3587150000000000    0.0617250000000000 N
   0.1121300000000000    0.5318849999999999    0.9974499999999999 N
