H16 C22 O4
1.0
  31.6319459329918509    0.0000000000000000   -8.7223937507017091
  -0.0067970773843596   13.4629918537073205   -0.0131585238279604
   0.0000000000000000    0.0000000000000000   30.2600000000000016
H C O
16 22 4
direct
   0.1596200000000000    0.2981400000000000    0.3221750000000000 H
   0.1333866666666667    0.3749100000000000    0.3848700000000000 H
   0.2599600000000000    0.4725200000000000    0.4508800000000000 H
   0.2851833333333333    0.3965900000000000    0.3878450000000000 H
   0.1905166666666667    0.6349100000000000    0.4114550000000000 H
   0.1949100000000000    0.7197500000000000    0.4578150000000000 H
   0.2376133333333333    0.6397900000000000    0.4562950000000000 H
   0.1598133333333333    0.3232700000000000    0.4768850000000000 H
   0.1742366666666667    0.7010400000000000    0.6774650000000000 H
   0.2002700000000000    0.6241100000000001    0.6146850000000000 H
   0.0736166666666667    0.5264000000000000    0.5490850000000000 H
   0.0485833333333333    0.6025800000000000    0.6121700000000000 H
   0.1428866666666667    0.3639900000000000    0.5881400000000000 H
   0.1385400000000000    0.2792000000000000    0.5417600000000000 H
   0.0958233333333333    0.3591500000000000    0.5432450000000000 H
   0.1736800000000000    0.6756799999999999    0.5227600000000000 H
   0.2415600000000000    0.2882400000000000    0.3169650000000000 C
   0.2242400000000000    0.3406800000000000    0.3518900000000000 C
   0.1813000000000000    0.3357500000000000    0.3508900000000000 C
   0.1668766666666667    0.3783500000000000    0.3859550000000000 C
   0.1949800000000000    0.4277100000000000    0.4226200000000000 C
   0.2376766666666667    0.4352100000000000    0.4226050000000000 C
   0.2520466666666666    0.3921700000000000    0.3877600000000000 C
   0.1804466666666667    0.4673500000000000    0.4616100000000000 C
   0.1851833333333333    0.5682199999999999    0.4748850000000000 C
   0.2029700000000000    0.6446300000000000    0.4486900000000000 C
   0.1621233333333333    0.4015600000000000    0.4867700000000000 C
   0.0923800000000000    0.7112300000000000    0.6829300000000000 C
   0.1095733333333333    0.6586100000000000    0.6479450000000000 C
   0.1524866666666667    0.6634300000000000    0.6488050000000000 C
   0.1668033333333333    0.6207100000000000    0.6136900000000000 C
   0.1386266666666667    0.5712699999999999    0.5771100000000000 C
   0.0959666666666667    0.5637900000000000    0.5772850000000000 C
   0.0816966666666667    0.6069900000000000    0.6121700000000000 C
   0.1530700000000000    0.5316000000000000    0.5380600000000000 C
   0.1483066666666666    0.4307400000000000    0.5247600000000000 C
   0.1304733333333333    0.3543100000000000    0.5508999999999999 C
   0.1713733333333333    0.5973900000000000    0.5128800000000000 C
   0.2800000000000000    0.2952800000000000    0.3185750000000000 O
   0.2149733333333333    0.2334500000000000    0.2871850000000000 O
   0.0539433333333333    0.7044400000000000    0.6814000000000000 O
   0.1190600000000000    0.7659400000000000    0.7126800000000000 O
