Zn12 H346 C462 N66 O48
1.0
  31.6319459329918509    0.0000000000000000   -8.7223937507017091
  -0.0067970773843596   13.4629918537073205   -0.0131585238279604
   0.0000000000000000    0.0000000000000000   30.2600000000000016
Zn H C N O
12 346 462 66 48
direct
   0.0835266666666667    0.8253700000000000    0.2500100000000000 Zn
   0.2505833333333333    0.1741000000000000    0.2499700000000000 Zn
   0.4168600000000000    0.8253700000000000    0.2500100000000000 Zn
   0.5839166666666666    0.1741000000000000    0.2499700000000000 Zn
   0.7501933333333333    0.8253700000000000    0.2500100000000000 Zn
   0.9172499999999999    0.1741000000000000    0.2499700000000000 Zn
   0.0835266666666667    0.8253700000000000    0.7500100000000001 Zn
   0.2505833333333333    0.1741000000000000    0.7499700000000000 Zn
   0.4168600000000000    0.8253700000000000    0.7500100000000001 Zn
   0.5839166666666666    0.1741000000000000    0.7499700000000000 Zn
   0.7501933333333333    0.8253700000000000    0.7500100000000001 Zn
   0.9172499999999999    0.1741000000000000    0.7499700000000000 Zn
   0.1596033333333333    0.1609200000000000    0.1736750000000000 H
   0.2541066666666666    0.9417300000000000    0.2112850000000000 H
   0.1886600000000000    0.8665700000000000    0.1412150000000000 H
   0.1220233333333333    0.1551500000000000    0.0907950000000000 H
   0.0531566666666667    0.1370300000000000    0.0313650000000000 H
   0.0477900000000000    0.8292700000000000    0.0676200000000000 H
   0.1150600000000000    0.8481000000000000    0.1287200000000000 H
   0.0072866666666667    0.2985200000000000    0.1775000000000000 H
   0.0333800000000000    0.3752800000000000    0.1147850000000000 H
   0.2402366666666667    0.4722300000000000    0.0491600000000000 H
   0.2153500000000000    0.3960800000000000    0.1123350000000000 H
   0.3093399999999999    0.6353799999999999    0.0884350000000000 H
   0.3049433333333333    0.7201900000000000    0.0421400000000000 H
   0.2622900000000000    0.6399100000000000    0.0435250000000000 H
   0.0067233333333333    0.3237200000000000    0.0226600000000000 H
   0.0073600000000000    0.1610500000000000    0.3260450000000000 H
   0.2462566666666667    0.9423500000000000    0.2886700000000000 H
   0.3113433333333333    0.8671800000000000    0.3590350000000000 H
   0.0449166666666667    0.1558700000000000    0.4088350000000000 H
   0.1138100000000000    0.1376500000000000    0.4682100000000000 H
   0.1186433333333333    0.8295000000000000    0.4320850000000000 H
   0.0513366666666667    0.8484000000000000    0.3710450000000000 H
   0.1596200000000000    0.2981400000000000    0.3221750000000000 H
   0.1333866666666667    0.3749100000000000    0.3848700000000000 H
   0.2599600000000000    0.4725200000000000    0.4508800000000000 H
   0.2851833333333333    0.3965900000000000    0.3878450000000000 H
   0.1905166666666667    0.6349100000000000    0.4114550000000000 H
   0.1949100000000000    0.7197500000000000    0.4578150000000000 H
   0.2376133333333333    0.6397900000000000    0.4562950000000000 H
   0.1598133333333333    0.3232700000000000    0.4768850000000000 H
   0.1742966666666667    0.8390400000000000    0.3262050000000000 H
   0.0793833333333333    0.0572800000000000    0.2886100000000000 H
   0.1445866666666666    0.1327000000000000    0.3589150000000000 H
   0.2115933333333333    0.8445100000000000    0.4090700000000000 H
   0.2804533333333333    0.8628300000000000    0.4685450000000000 H
   0.2854900000000000    0.1708500000000000    0.4325500000000000 H
   0.2182333333333333    0.1518500000000000    0.3714050000000000 H
   0.3254633333333333    0.7010300000000000    0.3223850000000000 H
   0.2995833333333333    0.6240700000000000    0.3852350000000000 H
   0.0932233333333333    0.5271100000000000    0.4509050000000000 H
   0.1183166666666667    0.6030500000000000    0.3878700000000000 H
   0.0235133333333333    0.3645300000000000    0.4114450000000000 H
   0.0280300000000000    0.2797900000000000    0.4577800000000000 H
   0.0706966666666667    0.3598300000000000    0.4561700000000000 H
   0.3262166666666667    0.6762899999999999    0.4771550000000000 H
   0.3253600000000000    0.8397600000000000    0.1737350000000000 H
   0.0877300000000000    0.0570900000000000    0.2112500000000000 H
   0.0223800000000000    0.1323900000000000    0.1411800000000000 H
   0.2881000000000000    0.8447800000000000    0.0908850000000000 H
   0.2193266666666667    0.8629500000000000    0.0313150000000000 H
   0.2145566666666666    0.1713300000000000    0.0670800000000000 H
   0.2817499999999999    0.1525300000000000    0.1282800000000000 H
   0.1742366666666667    0.7010400000000000    0.1774650000000000 H
   0.2002700000000000    0.6241100000000001    0.1146850000000000 H
   0.0736166666666667    0.5264000000000000    0.0490850000000000 H
   0.0485833333333333    0.6025800000000000    0.1121700000000000 H
   0.1428866666666667    0.3639900000000000    0.0881400000000000 H
   0.1385400000000000    0.2792000000000000    0.0417600000000000 H
   0.0958233333333333    0.3591500000000000    0.0432450000000000 H
   0.1736800000000000    0.6756799999999999    0.0227600000000000 H
   0.4929366666666666    0.1609200000000000    0.1736750000000000 H
   0.5874400000000000    0.9417300000000000    0.2112850000000000 H
   0.5219933333333333    0.8665700000000000    0.1412150000000000 H
   0.4553566666666666    0.1551500000000000    0.0907950000000000 H
   0.3864900000000000    0.1370300000000000    0.0313650000000000 H
   0.3811233333333333    0.8292700000000000    0.0676200000000000 H
   0.4483933333333333    0.8481000000000000    0.1287200000000000 H
   0.3406200000000000    0.2985200000000000    0.1775000000000000 H
   0.3667133333333333    0.3752800000000000    0.1147850000000000 H
   0.5735699999999999    0.4722300000000000    0.0491600000000000 H
   0.5486833333333333    0.3960800000000000    0.1123350000000000 H
   0.6426733333333332    0.6353799999999999    0.0884350000000000 H
   0.6382766666666666    0.7201900000000000    0.0421400000000000 H
   0.5956233333333333    0.6399100000000000    0.0435250000000000 H
   0.3400566666666667    0.3237200000000000    0.0226600000000000 H
   0.3406933333333333    0.1610500000000000    0.3260450000000000 H
   0.5795900000000000    0.9423500000000000    0.2886700000000000 H
   0.6446766666666666    0.8671800000000000    0.3590350000000000 H
   0.3782500000000000    0.1558700000000000    0.4088350000000000 H
   0.4471433333333333    0.1376500000000000    0.4682100000000000 H
   0.4519766666666666    0.8295000000000000    0.4320850000000000 H
   0.3846700000000000    0.8484000000000000    0.3710450000000000 H
   0.4929533333333333    0.2981400000000000    0.3221750000000000 H
   0.4667200000000000    0.3749100000000000    0.3848700000000000 H
   0.5932933333333332    0.4725200000000000    0.4508800000000000 H
   0.6185166666666666    0.3965900000000000    0.3878450000000000 H
   0.5238499999999999    0.6349100000000000    0.4114550000000000 H
   0.5282433333333333    0.7197500000000000    0.4578150000000000 H
   0.5709466666666667    0.6397900000000000    0.4562950000000000 H
   0.4931466666666666    0.3232700000000000    0.4768850000000000 H
   0.5076300000000000    0.8390400000000000    0.3262050000000000 H
   0.4127166666666666    0.0572800000000000    0.2886100000000000 H
   0.4779200000000000    0.1327000000000000    0.3589150000000000 H
   0.5449266666666667    0.8445100000000000    0.4090700000000000 H
   0.6137866666666667    0.8628300000000000    0.4685450000000000 H
   0.6188233333333333    0.1708500000000000    0.4325500000000000 H
   0.5515666666666666    0.1518500000000000    0.3714050000000000 H
   0.6587966666666667    0.7010300000000000    0.3223850000000000 H
   0.6329166666666666    0.6240700000000000    0.3852350000000000 H
   0.4265566666666666    0.5271100000000000    0.4509050000000000 H
   0.4516500000000000    0.6030500000000000    0.3878700000000000 H
   0.3568466666666666    0.3645300000000000    0.4114450000000000 H
   0.3613633333333333    0.2797900000000000    0.4577800000000000 H
   0.4040300000000000    0.3598300000000000    0.4561700000000000 H
   0.6595500000000000    0.6762899999999999    0.4771550000000000 H
   0.4210633333333333    0.0570900000000000    0.2112500000000000 H
   0.3557133333333333    0.1323900000000000    0.1411800000000000 H
   0.6214333333333333    0.8447800000000000    0.0908850000000000 H
   0.5526599999999999    0.8629500000000000    0.0313150000000000 H
   0.5478900000000000    0.1713300000000000    0.0670800000000000 H
   0.6150833333333332    0.1525300000000000    0.1282800000000000 H
   0.5075700000000000    0.7010400000000000    0.1774650000000000 H
   0.5336033333333333    0.6241100000000001    0.1146850000000000 H
   0.4069500000000000    0.5264000000000000    0.0490850000000000 H
   0.3819166666666666    0.6025800000000000    0.1121700000000000 H
   0.4762200000000000    0.3639900000000000    0.0881400000000000 H
   0.4718733333333333    0.2792000000000000    0.0417600000000000 H
   0.4291566666666666    0.3591500000000000    0.0432450000000000 H
   0.5070133333333333    0.6756799999999999    0.0227600000000000 H
   0.8262699999999999    0.1609200000000000    0.1736750000000000 H
   0.9207733333333332    0.9417300000000000    0.2112850000000000 H
   0.8553266666666666    0.8665700000000000    0.1412150000000000 H
   0.7886900000000000    0.1551500000000000    0.0907950000000000 H
   0.7198233333333333    0.1370300000000000    0.0313650000000000 H
   0.7144566666666666    0.8292700000000000    0.0676200000000000 H
   0.7817266666666667    0.8481000000000000    0.1287200000000000 H
   0.6739533333333333    0.2985200000000000    0.1775000000000000 H
   0.7000466666666666    0.3752800000000000    0.1147850000000000 H
   0.9069033333333333    0.4722300000000000    0.0491600000000000 H
   0.8820166666666667    0.3960800000000000    0.1123350000000000 H
   0.9760066666666666    0.6353799999999999    0.0884350000000000 H
   0.9716100000000000    0.7201900000000000    0.0421400000000000 H
   0.9289566666666667    0.6399100000000000    0.0435250000000000 H
   0.6733899999999999    0.3237200000000000    0.0226600000000000 H
   0.6740266666666667    0.1610500000000000    0.3260450000000000 H
   0.9129233333333333    0.9423500000000000    0.2886700000000000 H
   0.9780099999999999    0.8671800000000000    0.3590350000000000 H
   0.7115833333333333    0.1558700000000000    0.4088350000000000 H
   0.7804766666666666    0.1376500000000000    0.4682100000000000 H
   0.7853100000000000    0.8295000000000000    0.4320850000000000 H
   0.7180033333333333    0.8484000000000000    0.3710450000000000 H
   0.8262866666666666    0.2981400000000000    0.3221750000000000 H
   0.8000533333333333    0.3749100000000000    0.3848700000000000 H
   0.9266266666666666    0.4725200000000000    0.4508800000000000 H
   0.9518500000000000    0.3965900000000000    0.3878450000000000 H
   0.8571833333333333    0.6349100000000000    0.4114550000000000 H
   0.8615766666666667    0.7197500000000000    0.4578150000000000 H
   0.9042800000000000    0.6397900000000000    0.4562950000000000 H
   0.8264799999999999    0.3232700000000000    0.4768850000000000 H
   0.8409633333333333    0.8390400000000000    0.3262050000000000 H
   0.7460500000000000    0.0572800000000000    0.2886100000000000 H
   0.8112533333333333    0.1327000000000000    0.3589150000000000 H
   0.8782599999999999    0.8445100000000000    0.4090700000000000 H
   0.9471200000000000    0.8628300000000000    0.4685450000000000 H
   0.9521566666666665    0.1708500000000000    0.4325500000000000 H
   0.8848999999999999    0.1518500000000000    0.3714050000000000 H
   0.9921300000000000    0.7010300000000000    0.3223850000000000 H
   0.9662499999999999    0.6240700000000000    0.3852350000000000 H
   0.7598900000000000    0.5271100000000000    0.4509050000000000 H
   0.7849833333333333    0.6030500000000000    0.3878700000000000 H
   0.6901800000000000    0.3645300000000000    0.4114450000000000 H
   0.6946966666666666    0.2797900000000000    0.4577800000000000 H
   0.7373633333333333    0.3598300000000000    0.4561700000000000 H
   0.9928833333333333    0.6762899999999999    0.4771550000000000 H
   0.9920266666666666    0.8397600000000000    0.1737350000000000 H
   0.8409033333333333    0.7010400000000000    0.1774650000000000 H
   0.8669366666666666    0.6241100000000001    0.1146850000000000 H
   0.7402833333333333    0.5264000000000000    0.0490850000000000 H
   0.7152499999999999    0.6025800000000000    0.1121700000000000 H
   0.8095533333333333    0.3639900000000000    0.0881400000000000 H
   0.8052066666666666    0.2792000000000000    0.0417600000000000 H
   0.7624900000000000    0.3591500000000000    0.0432450000000000 H
   0.8403466666666666    0.6756799999999999    0.0227600000000000 H
   0.1596033333333333    0.1609200000000000    0.6736750000000000 H
   0.2541066666666666    0.9417300000000000    0.7112849999999999 H
   0.1886600000000000    0.8665700000000000    0.6412150000000000 H
   0.1220233333333333    0.1551500000000000    0.5907950000000000 H
   0.0531566666666667    0.1370300000000000    0.5313650000000000 H
   0.0477900000000000    0.8292700000000000    0.5676200000000000 H
   0.1150600000000000    0.8481000000000000    0.6287199999999999 H
   0.0072866666666667    0.2985200000000000    0.6775000000000000 H
   0.0333800000000000    0.3752800000000000    0.6147850000000000 H
   0.2402366666666667    0.4722300000000000    0.5491600000000000 H
   0.2153500000000000    0.3960800000000000    0.6123350000000000 H
   0.3093399999999999    0.6353799999999999    0.5884350000000000 H
   0.3049433333333333    0.7201900000000000    0.5421400000000000 H
   0.2622900000000000    0.6399100000000000    0.5435250000000000 H
   0.0067233333333333    0.3237200000000000    0.5226600000000000 H
   0.0073600000000000    0.1610500000000000    0.8260449999999999 H
   0.2462566666666667    0.9423500000000000    0.7886700000000000 H
   0.3113433333333333    0.8671800000000000    0.8590350000000000 H
   0.0449166666666667    0.1558700000000000    0.9088350000000001 H
   0.1138100000000000    0.1376500000000000    0.9682100000000000 H
   0.1186433333333333    0.8295000000000000    0.9320850000000001 H
   0.0513366666666667    0.8484000000000000    0.8710450000000001 H
   0.1596200000000000    0.2981400000000000    0.8221750000000000 H
   0.1333866666666667    0.3749100000000000    0.8848700000000000 H
   0.2599600000000000    0.4725200000000000    0.9508799999999999 H
   0.2851833333333333    0.3965900000000000    0.8878450000000000 H
   0.1905166666666667    0.6349100000000000    0.9114550000000000 H
   0.1949100000000000    0.7197500000000000    0.9578150000000001 H
   0.2376133333333333    0.6397900000000000    0.9562950000000000 H
   0.1598133333333333    0.3232700000000000    0.9768850000000000 H
   0.1742966666666667    0.8390400000000000    0.8262050000000001 H
   0.0793833333333333    0.0572800000000000    0.7886100000000000 H
   0.1445866666666666    0.1327000000000000    0.8589150000000000 H
   0.2115933333333333    0.8445100000000000    0.9090700000000000 H
   0.2804533333333333    0.8628300000000000    0.9685450000000000 H
   0.2854900000000000    0.1708500000000000    0.9325500000000000 H
   0.2182333333333333    0.1518500000000000    0.8714050000000000 H
   0.3254633333333333    0.7010300000000000    0.8223849999999999 H
   0.2995833333333333    0.6240700000000000    0.8852350000000000 H
   0.0932233333333333    0.5271100000000000    0.9509050000000000 H
   0.1183166666666667    0.6030500000000000    0.8878699999999999 H
   0.0235133333333333    0.3645300000000000    0.9114450000000001 H
   0.0280300000000000    0.2797900000000000    0.9577800000000001 H
   0.0706966666666667    0.3598300000000000    0.9561700000000000 H
   0.3262166666666667    0.6762899999999999    0.9771550000000000 H
   0.3253600000000000    0.8397600000000000    0.6737350000000000 H
   0.0877300000000000    0.0570900000000000    0.7112499999999999 H
   0.0223800000000000    0.1323900000000000    0.6411800000000000 H
   0.2881000000000000    0.8447800000000000    0.5908850000000000 H
   0.2193266666666667    0.8629500000000000    0.5313150000000000 H
   0.2145566666666666    0.1713300000000000    0.5670800000000000 H
   0.2817499999999999    0.1525300000000000    0.6282799999999999 H
   0.1742366666666667    0.7010400000000000    0.6774650000000000 H
   0.2002700000000000    0.6241100000000001    0.6146850000000000 H
   0.0736166666666667    0.5264000000000000    0.5490850000000000 H
   0.0485833333333333    0.6025800000000000    0.6121700000000000 H
   0.1428866666666667    0.3639900000000000    0.5881400000000000 H
   0.1385400000000000    0.2792000000000000    0.5417600000000000 H
   0.0958233333333333    0.3591500000000000    0.5432450000000000 H
   0.1736800000000000    0.6756799999999999    0.5227600000000000 H
   0.4929366666666666    0.1609200000000000    0.6736750000000000 H
   0.5874400000000000    0.9417300000000000    0.7112849999999999 H
   0.5219933333333333    0.8665700000000000    0.6412150000000000 H
   0.4553566666666666    0.1551500000000000    0.5907950000000000 H
   0.3864900000000000    0.1370300000000000    0.5313650000000000 H
   0.3811233333333333    0.8292700000000000    0.5676200000000000 H
   0.4483933333333333    0.8481000000000000    0.6287199999999999 H
   0.3406200000000000    0.2985200000000000    0.6775000000000000 H
   0.3667133333333333    0.3752800000000000    0.6147850000000000 H
   0.5735699999999999    0.4722300000000000    0.5491600000000000 H
   0.5486833333333333    0.3960800000000000    0.6123350000000000 H
   0.6426733333333332    0.6353799999999999    0.5884350000000000 H
   0.6382766666666666    0.7201900000000000    0.5421400000000000 H
   0.5956233333333333    0.6399100000000000    0.5435250000000000 H
   0.3400566666666667    0.3237200000000000    0.5226600000000000 H
   0.3406933333333333    0.1610500000000000    0.8260449999999999 H
   0.3782500000000000    0.1558700000000000    0.9088350000000001 H
   0.4471433333333333    0.1376500000000000    0.9682100000000000 H
   0.4519766666666666    0.8295000000000000    0.9320850000000001 H
   0.3846700000000000    0.8484000000000000    0.8710450000000001 H
   0.4929533333333333    0.2981400000000000    0.8221750000000000 H
   0.4667200000000000    0.3749100000000000    0.8848700000000000 H
   0.5932933333333332    0.4725200000000000    0.9508799999999999 H
   0.6185166666666666    0.3965900000000000    0.8878450000000000 H
   0.5238499999999999    0.6349100000000000    0.9114550000000000 H
   0.5282433333333333    0.7197500000000000    0.9578150000000001 H
   0.5709466666666667    0.6397900000000000    0.9562950000000000 H
   0.4931466666666666    0.3232700000000000    0.9768850000000000 H
   0.5076300000000000    0.8390400000000000    0.8262050000000001 H
   0.4127166666666666    0.0572800000000000    0.7886100000000000 H
   0.4779200000000000    0.1327000000000000    0.8589150000000000 H
   0.5449266666666667    0.8445100000000000    0.9090700000000000 H
   0.6137866666666667    0.8628300000000000    0.9685450000000000 H
   0.6188233333333333    0.1708500000000000    0.9325500000000000 H
   0.5515666666666666    0.1518500000000000    0.8714050000000000 H
   0.6587966666666667    0.7010300000000000    0.8223849999999999 H
   0.6329166666666666    0.6240700000000000    0.8852350000000000 H
   0.4265566666666666    0.5271100000000000    0.9509050000000000 H
   0.4516500000000000    0.6030500000000000    0.8878699999999999 H
   0.3568466666666666    0.3645300000000000    0.9114450000000001 H
   0.3613633333333333    0.2797900000000000    0.9577800000000001 H
   0.4040300000000000    0.3598300000000000    0.9561700000000000 H
   0.6595500000000000    0.6762899999999999    0.9771550000000000 H
   0.6586933333333334    0.8397600000000000    0.6737350000000000 H
   0.4210633333333333    0.0570900000000000    0.7112499999999999 H
   0.3557133333333333    0.1323900000000000    0.6411800000000000 H
   0.6214333333333333    0.8447800000000000    0.5908850000000000 H
   0.5526599999999999    0.8629500000000000    0.5313150000000000 H
   0.5478900000000000    0.1713300000000000    0.5670800000000000 H
   0.6150833333333332    0.1525300000000000    0.6282799999999999 H
   0.5075700000000000    0.7010400000000000    0.6774650000000000 H
   0.5336033333333333    0.6241100000000001    0.6146850000000000 H
   0.4069500000000000    0.5264000000000000    0.5490850000000000 H
   0.3819166666666666    0.6025800000000000    0.6121700000000000 H
   0.4762200000000000    0.3639900000000000    0.5881400000000000 H
   0.4718733333333333    0.2792000000000000    0.5417600000000000 H
   0.4291566666666666    0.3591500000000000    0.5432450000000000 H
   0.5070133333333333    0.6756799999999999    0.5227600000000000 H
   0.8262699999999999    0.1609200000000000    0.6736750000000000 H
   0.9207733333333332    0.9417300000000000    0.7112849999999999 H
   0.8553266666666666    0.8665700000000000    0.6412150000000000 H
   0.7886900000000000    0.1551500000000000    0.5907950000000000 H
   0.7198233333333333    0.1370300000000000    0.5313650000000000 H
   0.7144566666666666    0.8292700000000000    0.5676200000000000 H
   0.7817266666666667    0.8481000000000000    0.6287199999999999 H
   0.6739533333333333    0.2985200000000000    0.6775000000000000 H
   0.7000466666666666    0.3752800000000000    0.6147850000000000 H
   0.9069033333333333    0.4722300000000000    0.5491600000000000 H
   0.8820166666666667    0.3960800000000000    0.6123350000000000 H
   0.9760066666666666    0.6353799999999999    0.5884350000000000 H
   0.9716100000000000    0.7201900000000000    0.5421400000000000 H
   0.9289566666666667    0.6399100000000000    0.5435250000000000 H
   0.6733899999999999    0.3237200000000000    0.5226600000000000 H
   0.9129233333333333    0.9423500000000000    0.7886700000000000 H
   0.9780099999999999    0.8671800000000000    0.8590350000000000 H
   0.8262866666666666    0.2981400000000000    0.8221750000000000 H
   0.8000533333333333    0.3749100000000000    0.8848700000000000 H
   0.9266266666666666    0.4725200000000000    0.9508799999999999 H
   0.9518500000000000    0.3965900000000000    0.8878450000000000 H
   0.8571833333333333    0.6349100000000000    0.9114550000000000 H
   0.8615766666666667    0.7197500000000000    0.9578150000000001 H
   0.9042800000000000    0.6397900000000000    0.9562950000000000 H
   0.8264799999999999    0.3232700000000000    0.9768850000000000 H
   0.8409633333333333    0.8390400000000000    0.8262050000000001 H
   0.7460500000000000    0.0572800000000000    0.7886100000000000 H
   0.8112533333333333    0.1327000000000000    0.8589150000000000 H
   0.8782599999999999    0.8445100000000000    0.9090700000000000 H
   0.9471200000000000    0.8628300000000000    0.9685450000000000 H
   0.9521566666666665    0.1708500000000000    0.9325500000000000 H
   0.8848999999999999    0.1518500000000000    0.8714050000000000 H
   0.9921300000000000    0.7010300000000000    0.8223849999999999 H
   0.9662499999999999    0.6240700000000000    0.8852350000000000 H
   0.7598900000000000    0.5271100000000000    0.9509050000000000 H
   0.7849833333333333    0.6030500000000000    0.8878699999999999 H
   0.6901800000000000    0.3645300000000000    0.9114450000000001 H
   0.6946966666666666    0.2797900000000000    0.9577800000000001 H
   0.7373633333333333    0.3598300000000000    0.9561700000000000 H
   0.9928833333333333    0.6762899999999999    0.9771550000000000 H
   0.9920266666666666    0.8397600000000000    0.6737350000000000 H
   0.7543966666666666    0.0570900000000000    0.7112499999999999 H
   0.6890466666666666    0.1323900000000000    0.6411800000000000 H
   0.9547666666666665    0.8447800000000000    0.5908850000000000 H
   0.8859933333333333    0.8629500000000000    0.5313150000000000 H
   0.8812233333333332    0.1713300000000000    0.5670800000000000 H
   0.9484166666666666    0.1525300000000000    0.6282799999999999 H
   0.8409033333333333    0.7010400000000000    0.6774650000000000 H
   0.8669366666666666    0.6241100000000001    0.6146850000000000 H
   0.7402833333333333    0.5264000000000000    0.5490850000000000 H
   0.7152499999999999    0.6025800000000000    0.6121700000000000 H
   0.8095533333333333    0.3639900000000000    0.5881400000000000 H
   0.8052066666666666    0.2792000000000000    0.5417600000000000 H
   0.7624900000000000    0.3591500000000000    0.5432450000000000 H
   0.8403466666666666    0.6756799999999999    0.5227600000000000 H
   0.1763166666666667    0.0911400000000000    0.1751200000000000 C
   0.2242800000000000    0.9754200000000000    0.1935150000000000 C
   0.1923966666666667    0.9370900000000000    0.1589900000000000 C
   0.1226066666666667    0.0024600000000000    0.1132100000000000 C
   0.1051833333333333    0.0845600000000000    0.0861900000000000 C
   0.0670700000000000    0.0745100000000000    0.0528950000000000 C
   0.0461966666666667    0.9819800000000000    0.0457900000000000 C
   0.0640833333333333    0.9005800000000000    0.0730900000000000 C
   0.1019433333333333    0.9106700000000000    0.1068650000000000 C
   0.2593533333333333    0.2883200000000000    0.1830900000000000 C
   0.2764600000000000    0.3409600000000000    0.1481050000000000 C
   0.3193733333333333    0.3365200000000000    0.1489650000000000 C
   0.3332433333333333    0.3787300000000000    0.1137800000000000 C
   0.3053233333333333    0.4282100000000000    0.0772450000000000 C
   0.2626466666666666    0.4352400000000000    0.0773900000000000 C
   0.2484700000000000    0.3920700000000000    0.1123100000000000 C
   0.3196900000000000    0.4679200000000000    0.0382050000000000 C
   0.3148366666666667    0.5687500000000000    0.0250000000000000 C
   0.2969333333333333    0.6450100000000000    0.0512050000000000 C
   0.0045033333333333    0.4020500000000000    0.0129250000000000 C
   0.3244266666666666    0.0909500000000000    0.3248500000000000 C
   0.2761566666666667    0.9757800000000000    0.3064750000000000 C
   0.3078500000000000    0.9374700000000000    0.3411500000000000 C
   0.0440633333333333    0.0029200000000000    0.3865450000000000 C
   0.0616366666666667    0.0851600000000000    0.4134800000000000 C
   0.0997566666666667    0.0750600000000000    0.4467300000000000 C
   0.1204633333333333    0.9823800000000000    0.4538650000000000 C
   0.1024533333333333    0.9009000000000000    0.4266100000000000 C
   0.0645800000000000    0.9110200000000001    0.3928800000000000 C
   0.2415600000000000    0.2882400000000000    0.3169650000000000 C
   0.2242400000000000    0.3406800000000000    0.3518900000000000 C
   0.1813000000000000    0.3357500000000000    0.3508900000000000 C
   0.1668766666666667    0.3783500000000000    0.3859550000000000 C
   0.1949800000000000    0.4277100000000000    0.4226200000000000 C
   0.2376766666666667    0.4352100000000000    0.4226050000000000 C
   0.2520466666666666    0.3921700000000000    0.3877600000000000 C
   0.1804466666666667    0.4673500000000000    0.4616100000000000 C
   0.1851833333333333    0.5682199999999999    0.4748850000000000 C
   0.2029700000000000    0.6446300000000000    0.4486900000000000 C
   0.1621233333333333    0.4015600000000000    0.4867700000000000 C
   0.1574400000000000    0.9086100000000000    0.3247900000000000 C
   0.1092600000000000    0.0238600000000000    0.3064150000000000 C
   0.1410133333333333    0.0623100000000000    0.3410400000000000 C
   0.2108833333333333    0.9973600000000000    0.3868150000000000 C
   0.2283633333333333    0.9152000000000000    0.4137550000000000 C
   0.2664566666666667    0.9253500000000000    0.4470600000000000 C
   0.2872033333333333    0.0180200000000000    0.4542250000000000 C
   0.2692633333333333    0.0994600000000000    0.4270050000000000 C
   0.2314200000000000    0.0892700000000000    0.3932250000000000 C
   0.0746066666666667    0.7114200000000001    0.3170950000000000 C
   0.0573600000000000    0.6590000000000000    0.3520700000000000 C
   0.0144500000000000    0.6638800000000000    0.3512050000000000 C
   0.3330466666666667    0.6210200000000000    0.3861900000000000 C
   0.0282300000000000    0.5719100000000000    0.4228700000000000 C
   0.0708966666666667    0.5644300000000000    0.4227200000000000 C
   0.0852000000000000    0.6075000000000000    0.3878550000000000 C
   0.0137333333333333    0.5322400000000000    0.4618650000000000 C
   0.0183433333333333    0.4313200000000000    0.4749700000000000 C
   0.0360566666666667    0.3549100000000000    0.4486650000000000 C
   0.3286000000000000    0.5980300000000000    0.4870100000000000 C
   0.0095133333333333    0.9085000000000000    0.1753600000000000 C
   0.0577866666666667    0.0236900000000000    0.1935650000000000 C
   0.0259633333333333    0.0620700000000000    0.1590500000000000 C
   0.2889666666666666    0.9978300000000000    0.1130300000000000 C
   0.2714166666666666    0.9155400000000000    0.0861200000000000 C
   0.2333633333333333    0.9256100000000000    0.0527550000000000 C
   0.2127000000000000    0.0183300000000000    0.0454850000000000 C
   0.2307066666666666    0.0998900000000000    0.0726800000000000 C
   0.2685166666666666    0.0898100000000000    0.1065100000000000 C
   0.0923800000000000    0.7112300000000000    0.1829300000000000 C
   0.1095733333333333    0.6586100000000000    0.1479450000000000 C
   0.1524866666666667    0.6634300000000000    0.1488050000000000 C
   0.1668033333333333    0.6207100000000000    0.1136900000000000 C
   0.1386266666666667    0.5712699999999999    0.0771100000000000 C
   0.0959666666666667    0.5637900000000000    0.0772850000000000 C
   0.0816966666666667    0.6069900000000000    0.1121700000000000 C
   0.1530700000000000    0.5316000000000000    0.0380600000000000 C
   0.1483066666666666    0.4307400000000000    0.0247600000000000 C
   0.1304733333333333    0.3543100000000000    0.0509000000000000 C