Zn6 H104 C140 N12 O24
1.0
  18.7619531808386810    0.0000000000000000   -0.0419146754401632
  -3.1016186779435784   15.0335346461682668   -3.9289722089994372
   0.0000000000000000    0.0000000000000000   16.6439999999999984
Zn H C N O
6 104 140 12 24
direct
   0.7964133333333333    0.9998600000000000    0.2496600000000000 Zn
   0.5369066666666666    0.0001500000000000    0.7503200000000000 Zn
   0.4630799999999999    0.9998600000000000    0.2496600000000000 Zn
   0.2035733333333333    0.0001500000000000    0.7503200000000000 Zn
   0.1297466666666666    0.9998600000000000    0.2496600000000000 Zn
   0.8702399999999999    0.0001500000000000    0.7503200000000000 Zn
   0.3705766666666667    0.1081200000000000    0.1286300000000000 H
   0.2232233333333333    0.8915100000000000    0.9592100000000000 H
   0.1361966666666667    0.8983200000000000    0.0700400000000000 H
   0.2757666666666667    0.1077500000000000    0.2301200000000000 H
   0.2960766666666667    0.8918700000000001    0.8713400000000000 H
   0.4434300000000000    0.1084700000000000    0.0407700000000000 H
   0.5304533333333333    0.1016700000000000    0.9299300000000000 H
   0.3908833333333333    0.8922500000000000    0.7698600000000000 H
   0.0372433333333333    0.1081200000000000    0.1286300000000000 H
   0.8898900000000000    0.8915100000000000    0.9592100000000000 H
   0.8028633333333333    0.8983200000000000    0.0700400000000000 H
   0.9424333333333332    0.1077500000000000    0.2301200000000000 H
   0.9627433333333333    0.8918700000000001    0.8713400000000000 H
   0.1100966666666666    0.1084700000000000    0.0407700000000000 H
   0.1971200000000000    0.1016700000000000    0.9299300000000000 H
   0.0575500000000000    0.8922500000000000    0.7698600000000000 H
   0.7039099999999999    0.1081200000000000    0.1286300000000000 H
   0.5565566666666666    0.8915100000000000    0.9592100000000000 H
   0.4695300000000000    0.8983200000000000    0.0700400000000000 H
   0.6091000000000000    0.1077500000000000    0.2301200000000000 H
   0.6294100000000000    0.8918700000000001    0.8713400000000000 H
   0.7767633333333333    0.1084700000000000    0.0407700000000000 H
   0.8637866666666666    0.1016700000000000    0.9299300000000000 H
   0.7242166666666666    0.8922500000000000    0.7698600000000000 H
   0.6651466666666666    0.1083900000000000    0.6283600000000000 H
   0.7410300000000000    0.8917000000000000    0.4597800000000000 H
   0.8304966666666667    0.8989400000000000    0.5710900000000000 H
   0.7599399999999999    0.1083200000000000    0.7304000000000000 H
   0.6681900000000000    0.8916300000000000    0.3716100000000000 H
   0.5922633333333334    0.1082700000000000    0.5402100000000000 H
   0.5028033333333333    0.1010300000000000    0.4288900000000000 H
   0.5733999999999999    0.8916900000000000    0.2695600000000000 H
   0.9984799999999999    0.1083900000000000    0.6283600000000000 H
   0.0743633333333333    0.8917000000000000    0.4597800000000000 H
   0.1638300000000000    0.8989400000000000    0.5710900000000000 H
   0.0932733333333333    0.1083200000000000    0.7304000000000000 H
   0.0015233333333333    0.8916300000000000    0.3716100000000000 H
   0.9255966666666666    0.1082700000000000    0.5402100000000000 H
   0.8361366666666666    0.1010300000000000    0.4288900000000000 H
   0.9067333333333333    0.8916900000000000    0.2695600000000000 H
   0.3318133333333333    0.1083900000000000    0.6283600000000000 H
   0.4076966666666667    0.8917000000000000    0.4597800000000000 H
   0.4971633333333333    0.8989400000000000    0.5710900000000000 H
   0.4266066666666666    0.1083200000000000    0.7304000000000000 H
   0.3348566666666666    0.8916300000000000    0.3716100000000000 H
   0.2589300000000000    0.1082700000000000    0.5402100000000000 H
   0.1694700000000000    0.1010300000000000    0.4288900000000000 H
   0.2400666666666667    0.8916900000000000    0.2695600000000000 H
   0.7515433333333333    0.6559900000000000    0.1601300000000000 H
   0.9309833333333333    0.8129300000000000    0.1237000000000000 H
   0.8439599999999999    0.6778700000000000    0.0515100000000000 H
   0.0848766666666667    0.6559900000000000    0.1601300000000000 H
   0.9971833333333333    0.5179800000000000    0.0882900000000000 H
   0.7800499999999999    0.5558200000000000    0.9807800000000000 H
   0.8866099999999999    0.4441700000000000    0.0191900000000000 H
   0.7356699999999999    0.1870600000000000    0.8762700000000000 H
   0.8226966666666666    0.3221200000000000    0.9484700000000000 H
   0.5817800000000000    0.3440000000000000    0.8398500000000000 H
   0.6694733333333333    0.4820100000000000    0.9116900000000000 H
   0.6602999999999999    0.1870100000000000    0.3760700000000000 H
   0.6183399999999999    0.3221900000000000    0.4486900000000000 H
   0.8657333333333332    0.3437200000000000    0.3392300000000000 H
   0.8241866666666666    0.4818200000000000    0.4116900000000000 H
   0.5948766666666667    0.4442700000000000    0.5189000000000000 H
   0.7384433333333333    0.5557200000000000    0.4810900000000000 H
   0.6730200000000000    0.8129800000000000    0.6239100000000000 H
   0.7149766666666666    0.6778000000000000    0.5512899999999999 H
   0.4675866666666667    0.6562700000000000    0.6607499999999999 H
   0.5091366666666667    0.5181700000000000    0.5883000000000000 H
   0.3351930616404439    0.0917403688092402    0.8105781831656542 H
   0.1781034808172325    0.2315766071490148    0.8014001805950677 H
   0.2532339130783587    0.1726619870278434    0.8077952200409811 H
   0.3269666666666666    0.1870100000000000    0.3760700000000000 H
   0.2850066666666666    0.3221900000000000    0.4486900000000000 H
   0.5324000000000000    0.3437200000000000    0.3392300000000000 H
   0.4908533333333333    0.4818200000000000    0.4116900000000000 H
   0.2615433333333333    0.4442700000000000    0.5189000000000000 H
   0.4051100000000000    0.5557200000000000    0.4810900000000000 H
   0.3396866666666666    0.8129800000000000    0.6239100000000000 H
   0.3816433333333333    0.6778000000000000    0.5512899999999999 H
   0.1342533333333333    0.6562700000000000    0.6607499999999999 H
   0.1758033333333333    0.5181700000000000    0.5883000000000000 H
   0.3314681484736155    0.9082657024214352    0.1894041177069042 H
   0.4885558289789597    0.7684192002846940    0.1985983060794809 H
   0.4134276170080589    0.8273446860309390    0.1921980534580019 H
   0.3305166666666667    0.5179800000000000    0.0882900000000000 H
   0.2643166666666666    0.8129300000000000    0.1237000000000000 H
   0.1772933333333333    0.6778700000000000    0.0515100000000000 H
   0.1133833333333333    0.5558200000000000    0.9807800000000000 H
   0.2199433333333333    0.4441700000000000    0.0191900000000000 H
   0.0690033333333333    0.1870600000000000    0.8762700000000000 H
   0.1560300000000000    0.3221200000000000    0.9484700000000000 H
   0.9151133333333332    0.3440000000000000    0.8398500000000000 H
   0.0028066666666667    0.4820100000000000    0.9116900000000000 H
   0.9936333333333333    0.1870100000000000    0.3760700000000000 H
   0.9516733333333333    0.3221900000000000    0.4486900000000000 H
   0.1990666666666666    0.3437200000000000    0.3392300000000000 H
   0.1575200000000000    0.4818200000000000    0.4116900000000000 H
   0.9282100000000000    0.4442700000000000    0.5189000000000000 H
   0.0717766666666667    0.5557200000000000    0.4810900000000000 H
   0.0063533333333333    0.8129800000000000    0.6239100000000000 H
   0.0483100000000000    0.6778000000000000    0.5512899999999999 H
   0.8009200000000000    0.6562700000000000    0.6607499999999999 H
   0.8424699999999999    0.5181700000000000    0.5883000000000000 H
   0.3194633333333333    0.0605100000000000    0.1108900000000000 C
   0.2383933333333333    0.9408400000000000    0.0180600000000000 C
   0.1887266666666667    0.9441200000000000    0.0798000000000000 C
   0.2669800000000000    0.0605200000000000    0.1695300000000000 C
   0.3061166666666666    0.0003900000000000    0.0322800000000000 C
   0.3471866666666666    0.9394900000000000    0.8890800000000000 C
   0.4282566666666666    0.0591500000000000    0.9819099999999999 C
   0.4779266666666666    0.0558700000000000    0.9201900000000000 C
   0.3996766666666667    0.9394600000000000    0.8304500000000000 C
   0.3605333333333333    0.9996200000000000    0.9677000000000000 C
   0.9861300000000000    0.0605100000000000    0.1108900000000000 C
   0.9050600000000000    0.9408400000000000    0.0180600000000000 C
   0.8553933333333332    0.9441200000000000    0.0798000000000000 C
   0.9336466666666666    0.0605200000000000    0.1695300000000000 C
   0.9727833333333333    0.0003900000000000    0.0322800000000000 C
   0.0138533333333333    0.9394900000000000    0.8890800000000000 C
   0.0949233333333333    0.0591500000000000    0.9819099999999999 C
   0.1445933333333333    0.0558700000000000    0.9201900000000000 C
   0.0663433333333333    0.9394600000000000    0.8304500000000000 C
   0.0272000000000000    0.9996200000000000    0.9677000000000000 C
   0.6527966666666667    0.0605100000000000    0.1108900000000000 C
   0.5717266666666667    0.9408400000000000    0.0180600000000000 C
   0.5220600000000000    0.9441200000000000    0.0798000000000000 C
   0.6003133333333333    0.0605200000000000    0.1695300000000000 C
   0.6394500000000000    0.0003900000000000    0.0322800000000000 C
   0.6805200000000000    0.9394900000000000    0.8890800000000000 C
   0.7615900000000000    0.0591500000000000    0.9819099999999999 C
   0.8112600000000000    0.0558700000000000    0.9201900000000000 C
   0.7330099999999999    0.9394600000000000    0.8304500000000000 C
   0.6938666666666666    0.9996200000000000    0.9677000000000000 C
   0.7005633333333333    0.0608200000000000    0.6109200000000000 C
   0.7421666666666666    0.9410800000000000    0.5185300000000000 C
   0.7929733333333333    0.9445800000000000    0.5805200000000000 C
   0.7531099999999999    0.0610500000000000    0.6698400000000000 C
   0.6940433333333333    0.0005400000000000    0.5324100000000000 C
   0.6327666666666667    0.9391900000000000    0.3890500000000000 C
   0.5911400000000000    0.0588900000000000    0.4814600000000000 C
   0.5403333333333333    0.0554000000000000    0.4194700000000000 C
   0.5802133333333332    0.9389500000000000    0.3301400000000000 C
   0.6392666666666666    0.9994700000000000    0.4675700000000000 C
   0.0338966666666667    0.0608200000000000    0.6109200000000000 C
   0.0755000000000000    0.9410800000000000    0.5185300000000000 C
   0.1263066666666667    0.9445800000000000    0.5805200000000000 C
   0.0864433333333333    0.0610500000000000    0.6698400000000000 C
   0.0273766666666667    0.0005400000000000    0.5324100000000000 C
   0.9661000000000000    0.9391900000000000    0.3890500000000000 C
   0.9244733333333333    0.0588900000000000    0.4814600000000000 C
   0.8736666666666666    0.0554000000000000    0.4194700000000000 C
   0.9135466666666666    0.9389500000000000    0.3301400000000000 C
   0.9725999999999999    0.9994700000000000    0.4675700000000000 C
   0.3672300000000000    0.0608200000000000    0.6109200000000000 C
   0.4088333333333333    0.9410800000000000    0.5185300000000000 C
   0.4596399999999999    0.9445800000000000    0.5805200000000000 C
   0.4197766666666666    0.0610500000000000    0.6698400000000000 C
   0.3607100000000000    0.0005400000000000    0.5324100000000000 C
   0.2994333333333333    0.9391900000000000    0.3890500000000000 C
   0.2578066666666666    0.0588900000000000    0.4814600000000000 C
   0.2070000000000000    0.0554000000000000    0.4194700000000000 C
   0.2468800000000000    0.9389500000000000    0.3301400000000000 C
   0.3059333333333333    0.9994700000000000    0.4675700000000000 C
   0.7354533333333333    0.8250500000000000    0.1869300000000000 C
   0.6985933333333333    0.6594900000000000    0.1356400000000000 C
   0.6808333333333333    0.7433999999999999    0.1454400000000000 C
   0.5978666666666665    0.1749400000000000    0.8130600000000000 C
   0.0687866666666667    0.8250500000000000    0.1869300000000000 C
   0.9456533333333332    0.7482400000000000    0.1147500000000000 C
   0.8968400000000000    0.6716900000000000    0.0738600000000000 C
   0.0319266666666667    0.6594900000000000    0.1356400000000000 C
   0.9827833333333333    0.5828300000000000    0.0954500000000000 C
   0.0141666666666667    0.7433999999999999    0.1454400000000000 C
   0.9143899999999999    0.5869500000000000    0.0626600000000000 C
   0.8006199999999999    0.4957600000000000    0.9804700000000000 C
   0.8660366666666666    0.5042300000000000    0.0195000000000000 C
   0.7210066666666666    0.2517500000000000    0.8852100000000001 C
   0.7698166666666666    0.3283000000000000    0.9261100000000000 C
   0.6347333333333334    0.3405000000000000    0.8643400000000000 C
   0.6838700000000000    0.4171600000000000    0.9045299999999999 C
   0.6524933333333334    0.2566000000000000    0.8545400000000000 C
   0.7522700000000000    0.4130400000000000    0.9373100000000000 C
   0.7935399999999999    0.1748400000000000    0.3119700000000000 C
   0.5397799999999999    0.8251500000000001    0.6879999999999999 C
   0.6963666666666666    0.2516800000000000    0.3850300000000000 C
   0.6730999999999999    0.3282600000000000    0.4261300000000000 C
   0.8118133333333333    0.3403200000000000    0.3639500000000000 C
   0.7882899999999999    0.4170000000000000    0.4044300000000000 C
   0.7662266666666666    0.2564800000000000    0.3540100000000000 C
   0.7187233333333333    0.4129500000000000    0.4373600000000000 C
   0.6354000000000000    0.5042800000000000    0.5194299999999999 C
   0.6979233333333333    0.4957100000000000    0.4805700000000000 C
   0.6369533333333333    0.7483100000000000    0.6149500000000000 C
   0.6602200000000000    0.6717300000000000    0.5738600000000000 C
   0.5215066666666667    0.6596600000000000    0.6360400000000000 C
   0.5450300000000000    0.5829800000000001    0.5955500000000000 C
   0.5670933333333333    0.7435100000000000    0.6459800000000000 C
   0.6145966666666667    0.5870400000000000    0.5626300000000000 C
   0.4602066666666667    0.1748400000000000    0.3119700000000000 C
   0.2064466666666667    0.8251500000000001    0.6879999999999999 C
   0.3630333333333333    0.2516800000000000    0.3850300000000000 C
   0.3397666666666667    0.3282600000000000    0.4261300000000000 C
   0.4784800000000000    0.3403200000000000    0.3639500000000000 C
   0.4549566666666667    0.4170000000000000    0.4044300000000000 C
   0.4328933333333333    0.2564800000000000    0.3540100000000000 C
   0.3853900000000000    0.4129500000000000    0.4373600000000000 C
   0.3020666666666666    0.5042800000000000    0.5194299999999999 C
   0.3645900000000000    0.4957100000000000    0.4805700000000000 C
   0.3036200000000000    0.7483100000000000    0.6149500000000000 C
   0.3268866666666667    0.6717300000000000    0.5738600000000000 C
   0.1881733333333333    0.6596600000000000    0.6360400000000000 C
   0.2116966666666667    0.5829800000000001    0.5955500000000000 C
   0.2337600000000000    0.7435100000000000    0.6459800000000000 C
   0.2812633333333333    0.5870400000000000    0.5626300000000000 C
   0.9311999999999999    0.1749400000000000    0.8130600000000000 C
   0.3161166666666667    0.5828300000000000    0.0954500000000000 C
   0.2789866666666667    0.7482400000000000    0.1147500000000000 C
   0.2301733333333333    0.6716900000000000    0.0738600000000000 C
   0.2477233333333333    0.5869500000000000    0.0626600000000000 C
   0.1339533333333333    0.4957600000000000    0.9804700000000000 C
   0.1993700000000000    0.5042300000000000    0.0195000000000000 C
   0.0543400000000000    0.2517500000000000    0.8852100000000001 C
   0.1031500000000000    0.3283000000000000    0.9261100000000000 C
   0.9680666666666666    0.3405000000000000    0.8643400000000000 C
   0.0172033333333333    0.4171600000000000    0.9045299999999999 C
   0.9858266666666666    0.2566000000000000    0.8545400000000000 C
   0.0856033333333333    0.4130400000000000    0.9373100000000000 C
   0.1268733333333333    0.1748400000000000    0.3119700000000000 C
   0.8731133333333333    0.8251500000000001    0.6879999999999999 C
   0.0297000000000000    0.2516800000000000    0.3850300000000000 C
   0.0064333333333333    0.3282600000000000    0.4261300000000000 C
   0.1451466666666666    0.3403200000000000    0.3639500000000000 C
   0.1216233333333333    0.4170000000000000    0.4044300000000000 C
   0.0995600000000000    0.2564800000000000    0.3540100000000000 C
   0.0520566666666667    0.4129500000000000    0.4373600000000000 C
   0.9687333333333332    0.5042800000000000    0.5194299999999999 C
   0.0312566666666667    0.4957100000000000    0.4805700000000000 C
   0.9702866666666666    0.7483100000000000    0.6149500000000000 C
   0.9935533333333333    0.6717300000000000    0.5738600000000000 C
   0.8548399999999999    0.6596600000000000    0.6360400000000000 C
   0.8783633333333333    0.5829800000000001    0.5955500000000000 C
   0.9004266666666666    0.7435100000000000    0.6459800000000000 C
   0.9479299999999999    0.5870400000000000    0.5626300000000000 C
   0.2019766666666666    0.0035400000000000    0.1545700000000000 N
   0.4646733333333333    0.9964600000000000    0.8454000000000000 N
   0.8686433333333332    0.0035400000000000    0.1545700000000000 N
   0.1313400000000000    0.9964600000000000    0.8454000000000000 N
   0.5353100000000000    0.0035400000000000    0.1545700000000000 N
   0.7980066666666666    0.9964600000000000    0.8454000000000000 N
   0.7992933333333333    0.0040900000000000    0.6552100000000000 N
   0.5340300000000000    0.9959000000000000    0.3447700000000000 N
   0.1326266666666667    0.0040900000000000    0.6552100000000000 N
   0.8673633333333333    0.9959000000000000    0.3447700000000000 N
   0.4659600000000000    0.0040900000000000    0.6552100000000000 N
   0.2006966666666667    0.9959000000000000    0.3447700000000000 N
   0.7988233333333332    0.8192300000000000    0.2048700000000000 O
   0.7134699999999999    0.9006800000000000    0.2012500000000000 O
   0.5344966666666666    0.1807600000000000    0.7951200000000000 O
   0.6198533333333334    0.0993100000000000    0.7987300000000001 O
   0.1321566666666666    0.8192300000000000    0.2048700000000000 O
   0.0468033333333333    0.9006800000000000    0.2012500000000000 O
   0.8583200000000000    0.1807600000000000    0.2923500000000000 O
   0.7468066666666666    0.0991000000000000    0.2988300000000000 O
   0.4750000000000000    0.8192199999999999    0.7076300000000000 O
   0.5865166666666666    0.9008800000000000    0.7011500000000001 O
   0.2865200000000000    0.0993100000000000    0.7987300000000001 O
   0.2011633333333333    0.1807600000000000    0.7951200000000000 O
   0.5249866666666667    0.1807600000000000    0.2923500000000000 O
   0.4134733333333333    0.0991000000000000    0.2988300000000000 O
   0.1416666666666667    0.8192199999999999    0.7076300000000000 O
   0.2531833333333333    0.9008800000000000    0.7011500000000001 O
   0.3801366666666667    0.9006800000000000    0.2012500000000000 O
   0.4654900000000000    0.8192300000000000    0.2048700000000000 O
   0.8678299999999999    0.1807600000000000    0.7951200000000000 O
   0.9531866666666666    0.0993100000000000    0.7987300000000001 O
   0.1916533333333333    0.1807600000000000    0.2923500000000000 O
   0.0801400000000000    0.0991000000000000    0.2988300000000000 O
   0.8083333333333333    0.8192199999999999    0.7076300000000000 O
   0.9198499999999999    0.9008800000000000    0.7011500000000001 O
