H8 C10 N2
1.0
  18.7619531808386810    0.0000000000000000   -0.0419146754401632
  -3.1016186779435784   15.0335346461682668   -3.9289722089994372
   0.0000000000000000    0.0000000000000000   16.6439999999999984
H C N
8 10 2
direct
   0.2757666666666667    0.1077500000000000    0.2301200000000000 H
   0.2232233333333333    0.8915100000000000    0.9592100000000000 H
   0.1361966666666667    0.8983200000000000    0.0700400000000000 H
   0.2960766666666667    0.8918700000000001    0.8713400000000000 H
   0.3705766666666667    0.1081200000000000    0.1286300000000000 H
   0.3908833333333333    0.8922500000000000    0.7698600000000000 H
   0.4434300000000000    0.1084700000000000    0.0407700000000000 H
   0.5304533333333333    0.1016700000000000    0.9299300000000000 H
   0.2669800000000000    0.0605200000000000    0.1695300000000000 C
   0.3194633333333333    0.0605100000000000    0.1108900000000000 C
   0.3061166666666666    0.0003900000000000    0.0322800000000000 C
   0.2383933333333333    0.9408400000000000    0.0180600000000000 C
   0.1887266666666667    0.9441200000000000    0.0798000000000000 C
   0.3996766666666667    0.9394600000000000    0.8304500000000000 C
   0.3471866666666666    0.9394900000000000    0.8890800000000000 C
   0.3605333333333333    0.9996200000000000    0.9677000000000000 C
   0.4282566666666666    0.0591500000000000    0.9819099999999999 C
   0.4779266666666666    0.0558700000000000    0.9201900000000000 C
   0.2019766666666666    0.0035400000000000    0.1545700000000000 N
   0.4646733333333333    0.9964600000000000    0.8454000000000000 N
