H9 O5
1.0
  17.9879993835609611    0.0000000000000000   -0.0047092473339353
  -0.0041749149326150   15.9469994535048922    0.0000000000000010
   0.0000000000000000    0.0000000000000000   16.6619999999999990
H O
9 5
direct
   0.6644635357953550    0.2059448703863340    0.0293120688803091 H
   0.7359486535757749    0.1785275339327923    0.0886627663481034 H
   0.8852072281683413    0.3615564621415387    0.8447604482998983 H
   0.9813172673090901    0.4000744436716990    0.8322704673480023 H
   0.7376333567485625    0.3430744075967713    0.7043713243363180 H
   0.7117703682876757    0.3624889134915265    0.7563564163607575 H
   0.7369641669007668    0.4892263605667226    0.8204796094601973 H
   0.7389457663447196    0.4642467932141313    0.9311917142905911 H
   0.7971946206767132    0.4080824100246876    0.9788199792874627 H
   0.6868933333333332    0.1656800000000000    0.0664300000000000 O
   0.9255633333333333    0.4026700000000000    0.8466700000000000 O
   0.7597999999999999    0.3972700000000000    0.7156300000000000 O
   0.7748200000000000    0.5166400000000000    0.7883800000000000 O
   0.7867666666666666    0.4352800000000000    0.9273900000000000 O
