H4 C8 O4
1.0
  15.9944807576706971    0.0000000000000000    9.2247428848993795
   5.3209182223000813   15.0713464563093140    9.2285579190623075
   0.0000000000000000    0.0000000000000000   36.9080000000000013
H C O
4 8 4
direct
   0.6432099999999999    0.6425800000000000    0.4652650000000000 H
   0.5475600000000000    0.5470400000000000    0.5128800000000000 H
   0.6427200000000000    0.6431800000000000    0.5816600000000000 H
   0.5464900000000000    0.5471500000000000    0.6296050000000000 H
   0.7060200000000000    0.7058500000000000    0.4919450000000000 C
   0.6486499999999999    0.6485500000000000    0.5206350000000000 C
   0.6218900000000001    0.6215500000000000    0.5011949999999999 C
   0.5685800000000000    0.5683000000000000    0.5277450000000000 C
   0.6214400000000000    0.6217000000000000    0.5670250000000000 C
   0.5681300000000000    0.5684900000000001    0.5935850000000000 C
   0.5413200000000000    0.5413900000000000    0.5741300000000000 C
   0.4839800000000000    0.4841300000000000    0.6027500000000000 C
   0.7279700000000000    0.7279400000000000    0.4500450000000000 O
   0.4618900000000000    0.4619600000000000    0.5829650000000000 O
   0.4617400000000000    0.4621300000000000    0.6447200000000000 O
   0.7281700000000000    0.7278400000000000    0.5117699999999999 O
