H10 O7
1.0
  12.9658558743976506    0.0000000000000000    5.2701610453901635
   5.4362057930293899   12.5340030698830809    5.2105007072252887
   0.0000000000000000    0.0000000000000000   18.5850000000000009
H O
10 7
direct
   0.8214553956954117    0.9163779862703427    0.5142531305590324 H
   0.6294354958816920    0.7862793134409036    0.6431044282861392 H
   0.3636787146392865    0.9445472784449911    0.7803278746711847 H
   0.5014412831673341    0.8776486106620028    0.7120537801254839 H
   0.6703705138301381    0.5672870937724281    0.7860795731777549 H
   0.6810883052094484    0.6488845797502485    0.7574111781160515 H
  -0.1370203122981584    1.0432868750866933    0.5953697890341278 H
   0.8335863534694454    0.9709476846238936    0.6295042826071547 H
   0.8486279937651526    0.8156438387095620    0.7161993714869261 H
   0.7254371271495133    0.7532444787238526    0.7916687306384815 H
   0.8903600000000000    0.9207000000000000    0.4753400000000000 O
   0.5543900000000000    0.7917600000000000    0.6744500000000000 O
   0.4003700000000000    0.8850300000000000    0.7542700000000000 O
   0.6910500000000001    0.5891300000000000    0.8196300000000000 O
  -0.1046700000000000    0.9812900000000000    0.6345000000000000 O
   0.9093200000000000    0.8258100000000000    0.7211100000000000 O
   0.7335900000000000    0.7043400000000000    0.8425900000000000 O
