Zn8 H48 C94 N6 O32
1.0
  12.9658558743976506    0.0000000000000000    5.2701610453901635
   5.4362057930293899   12.5340030698830809    5.2105007072252887
   0.0000000000000000    0.0000000000000000   18.5850000000000009
Zn H C N O
8 48 94 6 32
direct
   0.5511700000000000    0.2456200000000000    0.3140100000000000 Zn
   0.8943000000000000    0.0535600000000000    0.4156100000000000 Zn
   0.1108200000000000    0.2479300000000000    0.2041000000000000 Zn
   0.6069900000000000    0.5487700000000000    0.9321700000000001 Zn
   0.4195800000000000    0.7441000000000000    0.7199000000000000 Zn
   0.0764600000000000    0.9361400000000000    0.6183600000000000 Zn
   0.8599300000000000    0.7417899999999999    0.8298200000000000 Zn
   0.3637600000000000    0.4409400000000000    0.1018000000000000 Zn
   0.4599300000000000    0.6012900000000000    0.2103900000000000 H
   0.5682900000000000    0.6620200000000001    0.2511500000000000 H
   0.7716400000000000    0.5463700000000000    0.2473500000000000 H
   0.8868600000000000    0.0222800000000000    0.1923000000000000 H
   0.9050000000000000    0.0492800000000000    0.0479300000000000 H
   0.8192900000000000    0.2185100000000000    0.0000000000000000 H
   0.3431900000000000    0.3559700000000000    0.0000000000000000 H
   0.4517300000000000    0.2027800000000000    0.9385000000000000 H
   0.6765000000000000    0.0734900000000000    0.0682100000000000 H
   0.5615300000000000    0.2325900000000000    0.1276500000000000 H
   0.8999500000000000    0.8512300000000000    0.9169800000000000 H
   0.7972300000000000    0.9969200000000000    0.9854200000000000 H
   0.4948500000000000    0.0220900000000000    0.9525700000000000 H
   0.6102700000000000    0.8755500000000001    0.8857300000000000 H
   0.2690900000000000    0.8996900000000000    0.3065200000000000 H
   0.4789000000000000    0.8398800000000000    0.2657800000000000 H
   0.5618200000000000    0.9557200000000000    0.2704800000000000 H
   0.1031000000000000    0.4716900000000000    0.3254000000000000 H
   0.0042200000000000    0.4448800000000000    0.4699000000000000 H
   0.0355500000000000    0.2583400000000000    0.5500600000000000 H
   0.6892800000000000    0.1223400000000000    0.5450600000000000 H
   0.5782600000000000    0.2757300000000000    0.6129800000000000 H
   0.8093100000000000    0.4202400000000000    0.4484600000000000 H
   0.9110600000000000    0.2611200000000000    0.3892800000000000 H
   0.6563900000000000    0.6319700000000000    0.6331599999999999 H
   0.7685200000000000    0.4784300000000000    0.5653000000000000 H
   0.4559900000000000    0.4576000000000000    0.5985900000000000 H
   0.3574700000000000    0.6116700000000000    0.6648400000000000 H
   0.5108300000000000    0.3884300000000000    0.8235800000000000 H
   0.4024700000000000    0.3276900000000000    0.7828200000000000 H
   0.1991200000000000    0.4433400000000000    0.7866200000000000 H
   0.0839000000000000    0.9674300000000000    0.8416300000000000 H
   0.0657600000000000    0.9404300000000000    0.9860400000000000 H
   0.1514800000000000    0.7711900000000000    0.0323600000000000 H
   0.7016700000000000    0.0900200000000000    0.7274500000000000 H
   0.4918600000000000    0.1498300000000000    0.7681800000000000 H
   0.4089400000000000    0.0339900000000000    0.7634800000000000 H
   0.8676600000000000    0.5180200000000000    0.7085000000000000 H
   0.9665500000000000    0.5448000000000000    0.5640900000000000 H
   0.9352200000000001    0.7313499999999999    0.4839200000000000 H
   0.2814700000000000    0.8673600000000000    0.4889100000000000 H
   0.3924900000000000    0.7139799999999999    0.4209900000000000 H
   0.1614600000000000    0.5694500000000000    0.5855300000000000 H
   0.0597000000000000    0.7285700000000001    0.6447000000000001 H
   0.3143600000000000    0.3577400000000000    0.4008200000000000 H
   0.2022400000000000    0.5112700000000000    0.4686800000000000 H
   0.5147600000000000    0.5321100000000000    0.4353800000000000 H
   0.6132900000000000    0.3780500000000000    0.3691200000000000 H
   0.5287500000000001    0.4208300000000000    0.1684000000000000 C
   0.6004699999999999    0.4558900000000000    0.1862200000000000 C
   0.5484800000000000    0.5533400000000001    0.2094000000000000 C
   0.6090200000000000    0.5868400000000000    0.2318200000000000 C
   0.7217000000000000    0.5229700000000000    0.2300000000000000 C
   0.7764700000000000    0.4269600000000000    0.2038200000000000 C
   0.7161300000000000    0.3917900000000000    0.1809900000000000 C
   0.8995900000000000    0.3683700000000000    0.2002300000000000 C
   0.7960100000000000    0.1632300000000000    0.2792900000000000 C
   0.8071100000000000    0.1895300000000000    0.1915500000000000 C
   0.8574000000000001    0.1023000000000000    0.1555700000000000 C
   0.8673500000000000    0.1178000000000000    0.0751000000000000 C
   0.8273900000000000    0.2211500000000000    0.0302500000000000 C
   0.7804100000000000    0.3096600000000000    0.0643700000000000 C
   0.7697200000000000    0.2950600000000000    0.1460800000000000 C
   0.7433999999999999    0.4194400000000000    0.0107100000000000 C
   0.4159000000000000    0.2875800000000000    0.0000000000000000 C
   0.4762400000000000    0.2011600000000000    0.9881900000000000 C
   0.5688299999999999    0.1152500000000000    0.0000000000000000 C
   0.6074100000000000    0.1380900000000000    0.0430000000000000 C
   0.5434800000000000    0.2268200000000000    0.0776000000000000 C
   0.8090200000000000    0.8931400000000000    0.9267700000000000 C
   0.7484100000000000    0.9777400000000001    0.9651999999999999 C
   0.6358000000000000    0.0231900000000000    0.9751500000000000 C
   0.5809500000000000    0.9927300000000000    0.9459900000000000 C
   0.6467300000000000    0.9069300000000000    0.9089400000000000 C
   0.1189100000000000    0.0724600000000000    0.3493200000000000 C
   0.2434900000000000    0.0378500000000000    0.3313100000000000 C
   0.3083000000000000    0.9478300000000000    0.3077900000000000 C
   0.4247000000000000    0.9148300000000000    0.2854000000000000 C
   0.4712100000000000    0.9788300000000000    0.2876600000000000 C
   0.4076100000000000    0.0674400000000000    0.3141400000000000 C
   0.2893000000000000    0.1022100000000000    0.3367900000000000 C
   0.4680400000000000    0.1261200000000000    0.3183000000000000 C
   0.2387900000000000    0.3306900000000000    0.2382000000000000 C
   0.1887800000000000    0.3044500000000000    0.3261100000000000 C
   0.1165300000000000    0.3917100000000000    0.3621600000000000 C
   0.0616300000000000    0.3763200000000000    0.4426500000000000 C
   0.0793800000000000    0.2730400000000000    0.4874500000000000 C
   0.1543900000000000    0.1844800000000000    0.4532700000000000 C
   0.2110700000000000    0.1989600000000000    0.3716200000000000 C
   0.1722400000000000    0.0747500000000000    0.5067600000000000 C
   0.7124900000000000    0.1902400000000000    0.5268200000000000 C
   0.6509000000000000    0.2767700000000000    0.5631900000000000 C
   0.6843500000000000    0.3620900000000000    0.5371800000000000 C
   0.7796000000000000    0.3561100000000000    0.4732400000000000 C
   0.8374000000000000    0.2673200000000000    0.4393700000000000 C
   0.6161200000000000    0.5908099999999999    0.6236000000000000 C
   0.6773500000000000    0.5058700000000000    0.5855300000000000 C
   0.6216699999999999    0.4542900000000000    0.5758300000000000 C
   0.5043299999999999    0.4932500000000000    0.6049400000000000 C
   0.4485000000000000    0.5792900000000000    0.6416700000000000 C
   0.4420000000000000    0.5688800000000001    0.8655000000000000 C
   0.3702900000000000    0.5338300000000000    0.8477500000000000 C
   0.4222800000000000    0.4363800000000000    0.8245500000000000 C
   0.3617400000000000    0.4028700000000000    0.8021500000000000 C
   0.2490600000000000    0.4667400000000000    0.8039500000000001 C
   0.1942900000000000    0.5627600000000000    0.8301500000000001 C
   0.2546300000000000    0.5979300000000000    0.8529800000000000 C
   0.0711700000000000    0.6213400000000000    0.8337400000000000 C
   0.1747400000000000    0.8264800000000000    0.7546800000000000 C
   0.1636500000000000    0.8001800000000000    0.8424199999999999 C
   0.1133600000000000    0.8874100000000000    0.8784000000000000 C
   0.1034100000000000    0.8719200000000000    0.9588600000000000 C
   0.1433700000000000    0.7685600000000000    0.0000000000000000 C
   0.1903500000000000    0.6800600000000000    0.9696000000000000 C
   0.2010400000000000    0.6946600000000001    0.8878000000000000 C
   0.2273600000000000    0.5702700000000001    0.0000000000000000 C
   0.8518500000000000    0.9172500000000000    0.6846000000000000 C
   0.7272800000000000    0.9518600000000000    0.7026500000000000 C
   0.6624700000000000    0.0418800000000000    0.7261000000000000 C
   0.5460600000000000    0.0748800000000000    0.7485700000000000 C
   0.4995600000000000    0.0108800000000000    0.7463000000000000 C
   0.5631500000000000    0.9222600000000000    0.7198200000000000 C
   0.6814600000000000    0.8875000000000000    0.6971700000000000 C
   0.5027199999999999    0.8635900000000000    0.7156000000000000 C
   0.7319700000000000    0.6590200000000001    0.7956900000000000 C
   0.7819800000000000    0.6852600000000000    0.7078600000000000 C
   0.8542400000000000    0.5979900000000000    0.6718000000000000 C
   0.9091399999999999    0.6133800000000000    0.5913300000000000 C
   0.8913900000000000    0.7166500000000000    0.5465000000000000 C
   0.8163899999999999    0.8052200000000000    0.5807000000000000 C
   0.7597000000000000    0.7907400000000000    0.6623500000000000 C
   0.7985300000000000    0.9149400000000000    0.5272000000000000 C
   0.2582600000000000    0.7994599999999999    0.5071500000000000 C
   0.3198500000000000    0.7129300000000000    0.4707800000000000 C
   0.2864100000000000    0.6276100000000000    0.4967900000000000 C
   0.1911600000000000    0.6335800000000000    0.5607400000000000 C
   0.1333600000000000    0.7223700000000000    0.5946100000000000 C
   0.3546400000000000    0.3989000000000000    0.4103500000000000 C
   0.2934100000000000    0.4838400000000000    0.4484500000000000 C
   0.3490900000000000    0.5354100000000001    0.4581000000000000 C
   0.4664200000000000    0.4964500000000000    0.4290300000000000 C
   0.5222500000000000    0.4104200000000000    0.3922900000000000 C
   0.4553600000000000    0.3095900000000000    0.0514700000000000 N
   0.7590800000000000    0.8581299999999999    0.8988400000000000 N
   0.8050200000000000    0.1850600000000000    0.4658400000000000 N
   0.5031600000000001    0.6271200000000000    0.6515000000000000 N
   0.1657300000000000    0.8046400000000000    0.5681400000000000 N
   0.4676000000000000    0.3625900000000000    0.3824700000000000 N
   0.2849600000000000    0.5811400000000000    0.0416600000000000 O
   0.8953300000000000    0.9812900000000000    0.6345000000000000 O
   0.9093200000000000    0.8258100000000000    0.7211100000000000 O
   0.7335900000000000    0.7043400000000000    0.8425900000000000 O
   0.4714400000000000    0.4847800000000000    0.1182000000000000 O
   0.5263099999999999    0.3294500000000000    0.2050000000000000 O
   0.7024000000000000    0.2084700000000000    0.3264000000000000 O
   0.8831100000000000    0.0933700000000000    0.3029700000000000 O
   0.9412500000000000    0.3896300000000000    0.2393400000000000 O
   0.9613500000000000    0.2966900000000000    0.1588600000000000 O
   0.7569800000000000    0.4928700000000000    0.0187300000000000 O
   0.6858000000000000    0.4085700000000000    0.9923100000000000 O
   0.0754300000000000    0.0084200000000000    0.3994200000000000 O
   0.0614500000000000    0.1639000000000000    0.3128000000000000 O
   0.2371700000000000    0.2853700000000000    0.1913800000000000 O
   0.2797000000000000    0.4005900000000000    0.2143500000000000 O
   0.5703900000000000    0.1046800000000000    0.2797000000000000 O
   0.4163700000000000    0.1979600000000000    0.3595000000000000 O
   0.2667900000000000    0.0005900000000000    0.4991400000000000 O
   0.0804100000000000    0.0689800000000000    0.5586200000000000 O
   0.4993200000000000    0.5049500000000000    0.9157700000000000 O
   0.4444500000000000    0.6602700000000000    0.8289100000000000 O
   0.2683500000000000    0.7812600000000000    0.7075700000000000 O
   0.0876400000000000    0.8963500000000000    0.7310100000000000 O
   0.0295100000000000    0.6000799999999999    0.7946299999999999 O
   0.0094100000000000    0.6930200000000000    0.8751000000000000 O
   0.2137800000000000    0.4968400000000000    0.0000000000000000 O
   0.6910500000000001    0.5891300000000000    0.8196300000000000 O
   0.4003700000000000    0.8850300000000000    0.7542700000000000 O
   0.5543900000000000    0.7917600000000000    0.6744500000000000 O
   0.7039900000000000    0.9891000000000000    0.5348000000000001 O
   0.8903600000000000    0.9207000000000000    0.4753400000000000 O
