H7 C15 O6
1.0
  38.7451386974606393    0.0000000000000000    3.2950648422357736
   4.4042686745722088   18.3567878638473090    7.6156084959699859
   0.0000000000000000    0.0000000000000000   26.8599999999999994
H C O
7 15 6
direct
   0.6367780000000001    0.0943900000000000    0.0679150000000000 H
   0.6302860000000001    0.9325150000000000    0.2243400000000000 H
   0.6441060000000001    0.8710599999999999    0.0864500000000000 H
   0.6793140000000001    0.8949300000000000    0.0206450000000000 H
   0.6311940000000000    0.1434050000000000    0.8889899999999999 H
   0.6189780000000001    0.1159050000000000    0.9857650000000000 H
   0.6889040000000001    0.9219649999999999    0.9234800000000001 H
   0.6331980000000000    0.0190500000000000    0.1480350000000000 C
   0.6367060000000001    0.0380050000000000    0.0923700000000000 C
   0.6479340000000001    0.0030050000000000    0.0107350000000000 C
   0.6303100000000000    0.0757050000000000    0.1717300000000000 C
   0.6333300000000001    0.9470950000000000    0.1811650000000000 C
   0.6369220000000001    0.8943449999999999    0.1582850000000000 C
   0.6414460000000001    0.9134750000000000    0.1028350000000000 C
   0.6417200000000001    0.9851700000000000    0.0689700000000000 C
   0.6352480000000000    0.8179100000000000    0.1921400000000000 C
   0.6606080000000001    0.0342650000000000    0.8999400000000000 C
   0.6413780000000001    0.0888850000000000    0.9181150000000000 C
   0.6349320000000001    0.0732250000000000    0.9726699999999999 C
   0.6670720000000001    0.0497100000000000    0.8414250000000000 C
   0.6677500000000001    0.9490350000000001    0.9920100000000001 C
   0.6737060000000001    0.9641200000000000    0.9376000000000000 C
   0.6176640000000001    0.1417800000000000    0.1459650000000000 O
   0.6414840000000001    0.0536550000000000    0.2215850000000000 O
   0.6262320000000001    0.8015749999999999    0.2414850000000000 O
   0.6430840000000001    0.7705250000000000    0.1699300000000000 O
   0.6563280000000001    0.1141300000000000    0.8082250000000000 O
   0.6840460000000002    0.9943500000000001    0.8297600000000001 O
