Cd60 H273 C585 O234
1.0
  38.7451386974606393    0.0000000000000000    3.2950648422357736
   4.4042686745722088   18.3567878638473090    7.6156084959699859
   0.0000000000000000    0.0000000000000000   26.8599999999999994
Cd H C O
60 273 585 234
direct
   0.1716280000000000    0.3303150000000000    0.2736400000000000 Cd
   0.0999980000000000    0.0000050000000000    0.2500000000000000 Cd
   0.0283660000000000    0.1696950000000000    0.2263600000000000 Cd
   0.3716280000000000    0.3303150000000000    0.2736400000000000 Cd
   0.2999980000000000    0.0000050000000000    0.2500000000000000 Cd
   0.2283660000000000    0.1696950000000000    0.2263600000000000 Cd
   0.5716280000000000    0.3303150000000000    0.2736400000000000 Cd
   0.4999980000000001    0.0000050000000000    0.2500000000000000 Cd
   0.4283660000000000    0.1696950000000000    0.2263600000000000 Cd
   0.7716280000000001    0.3303150000000000    0.2736400000000000 Cd
   0.6999980000000001    0.0000050000000000    0.2500000000000000 Cd
   0.6283660000000001    0.1696950000000000    0.2263600000000000 Cd
   0.9716280000000000    0.3303150000000000    0.2736400000000000 Cd
   0.8999980000000001    0.0000050000000000    0.2500000000000000 Cd
   0.8283660000000000    0.1696950000000000    0.2263600000000000 Cd
   0.1716280000000000    0.8303150000000000    0.2736400000000000 Cd
   0.0999980000000000    0.5000050000000000    0.2500000000000000 Cd
   0.0283660000000000    0.6696950000000000    0.2263600000000000 Cd
   0.3716280000000000    0.8303150000000000    0.2736400000000000 Cd
   0.2999980000000000    0.5000050000000000    0.2500000000000000 Cd
   0.2283660000000000    0.6696950000000000    0.2263600000000000 Cd
   0.5716280000000000    0.8303150000000000    0.2736400000000000 Cd
   0.4999980000000001    0.5000050000000000    0.2500000000000000 Cd
   0.4283660000000000    0.6696950000000000    0.2263600000000000 Cd
   0.7716280000000001    0.8303150000000000    0.2736400000000000 Cd
   0.6999980000000001    0.5000050000000000    0.2500000000000000 Cd
   0.6283660000000001    0.6696950000000000    0.2263600000000000 Cd
   0.9716280000000000    0.8303150000000000    0.2736400000000000 Cd
   0.8999980000000001    0.5000050000000000    0.2500000000000000 Cd
   0.8283660000000000    0.6696950000000000    0.2263600000000000 Cd
   0.1716280000000000    0.3303150000000000    0.7736400000000000 Cd
   0.0999980000000000    0.0000050000000000    0.7500000000000000 Cd
   0.0283660000000000    0.1696950000000000    0.7263600000000000 Cd
   0.3716280000000000    0.3303150000000000    0.7736400000000000 Cd
   0.2999980000000000    0.0000050000000000    0.7500000000000000 Cd
   0.2283660000000000    0.1696950000000000    0.7263600000000000 Cd
   0.5716280000000000    0.3303150000000000    0.7736400000000000 Cd
   0.4999980000000001    0.0000050000000000    0.7500000000000000 Cd
   0.4283660000000000    0.1696950000000000    0.7263600000000000 Cd
   0.7716280000000001    0.3303150000000000    0.7736400000000000 Cd
   0.6999980000000001    0.0000050000000000    0.7500000000000000 Cd
   0.6283660000000001    0.1696950000000000    0.7263600000000000 Cd
   0.9716280000000000    0.3303150000000000    0.7736400000000000 Cd
   0.8999980000000001    0.0000050000000000    0.7500000000000000 Cd
   0.8283660000000000    0.1696950000000000    0.7263600000000000 Cd
   0.1716280000000000    0.8303150000000000    0.7736400000000000 Cd
   0.0999980000000000    0.5000050000000000    0.7500000000000000 Cd
   0.0283660000000000    0.6696950000000000    0.7263600000000000 Cd
   0.3716280000000000    0.8303150000000000    0.7736400000000000 Cd
   0.2999980000000000    0.5000050000000000    0.7500000000000000 Cd
   0.2283660000000000    0.6696950000000000    0.7263600000000000 Cd
   0.5716280000000000    0.8303150000000000    0.7736400000000000 Cd
   0.4999980000000001    0.5000050000000000    0.7500000000000000 Cd
   0.4283660000000000    0.6696950000000000    0.7263600000000000 Cd
   0.7716280000000001    0.8303150000000000    0.7736400000000000 Cd
   0.6999980000000001    0.5000050000000000    0.7500000000000000 Cd
   0.6283660000000001    0.6696950000000000    0.7263600000000000 Cd
   0.9716280000000000    0.8303150000000000    0.7736400000000000 Cd
   0.8999980000000001    0.5000050000000000    0.7500000000000000 Cd
   0.8283660000000000    0.6696950000000000    0.7263600000000000 Cd
   0.0302860000000000    0.4325150000000000    0.2243400000000000 H
   0.0441060000000000    0.3710600000000000    0.0864500000000000 H
   0.0367780000000000    0.0943900000000000    0.0679150000000000 H
   0.0793140000000000    0.3949300000000000    0.0206450000000000 H
   0.0889040000000000    0.4219650000000000    0.4234800000000000 H
   0.0311940000000000    0.1434050000000000    0.3889900000000000 H
   0.0189780000000000    0.1159050000000000    0.4857650000000000 H
   0.1697100000000000    0.0674900000000000    0.2756550000000000 H
   0.1558900000000000    0.1289550000000000    0.4135450000000000 H
   0.1632180000000000    0.4056200000000000    0.4320850000000000 H
   0.1206860000000000    0.1050900000000000    0.4793550000000000 H
   0.1110960000000000    0.0780500000000000    0.0765200000000000 H
   0.1688020000000000    0.3566150000000000    0.1110100000000000 H
   0.1810200000000000    0.3841100000000000    0.0142350000000000 H
   0.2302860000000000    0.4325150000000000    0.2243400000000000 H
   0.2441060000000000    0.3710600000000000    0.0864500000000000 H
   0.2367780000000000    0.0943900000000000    0.0679150000000000 H
   0.2793140000000000    0.3949300000000000    0.0206450000000000 H
   0.2889040000000000    0.4219650000000000    0.4234800000000000 H
   0.2311940000000000    0.1434050000000000    0.3889900000000000 H
   0.2189780000000000    0.1159050000000000    0.4857650000000000 H
   0.3697100000000000    0.0674900000000000    0.2756550000000000 H
   0.3558900000000000    0.1289550000000000    0.4135450000000000 H
   0.3632180000000000    0.4056200000000000    0.4320850000000000 H
   0.3206860000000000    0.1050900000000000    0.4793550000000000 H
   0.3110960000000000    0.0780500000000000    0.0765200000000000 H
   0.3688020000000000    0.3566150000000000    0.1110100000000000 H
   0.3810200000000000    0.3841100000000000    0.0142350000000000 H
   0.4302860000000000    0.4325150000000000    0.2243400000000000 H
   0.4441060000000000    0.3710600000000000    0.0864500000000000 H
   0.4367780000000000    0.0943900000000000    0.0679150000000000 H
   0.4793140000000000    0.3949300000000000    0.0206450000000000 H
   0.4889040000000000    0.4219650000000000    0.4234800000000000 H
   0.4311940000000000    0.1434050000000000    0.3889900000000000 H
   0.4189780000000000    0.1159050000000000    0.4857650000000000 H
   0.5697100000000000    0.0674900000000000    0.2756550000000000 H
   0.5558900000000000    0.1289550000000000    0.4135450000000000 H
   0.5632180000000000    0.4056200000000000    0.4320850000000000 H
   0.5206860000000000    0.1050900000000000    0.4793550000000000 H
   0.5110960000000000    0.0780500000000000    0.0765200000000000 H
   0.5688020000000000    0.3566150000000000    0.1110100000000000 H
   0.5810200000000001    0.3841100000000000    0.0142350000000000 H
   0.6302860000000001    0.4325150000000000    0.2243400000000000 H
   0.6441060000000001    0.3710600000000000    0.0864500000000000 H
   0.6793140000000001    0.3949300000000000    0.0206450000000000 H
   0.6889040000000001    0.4219650000000000    0.4234800000000000 H
   0.6311940000000000    0.1434050000000000    0.3889900000000000 H
   0.6189780000000001    0.1159050000000000    0.4857650000000000 H
   0.7697100000000001    0.0674900000000000    0.2756550000000000 H
   0.7558900000000001    0.1289550000000000    0.4135450000000000 H
   0.7632180000000001    0.4056200000000000    0.4320850000000000 H
   0.7206860000000002    0.1050900000000000    0.4793550000000000 H
   0.7110960000000001    0.0780500000000000    0.0765200000000000 H
   0.7688020000000001    0.3566150000000000    0.1110100000000000 H
   0.7810200000000000    0.3841100000000000    0.0142350000000000 H
   0.8302860000000001    0.4325150000000000    0.2243400000000000 H
   0.8441060000000000    0.3710600000000000    0.0864500000000000 H
   0.8367780000000000    0.0943900000000000    0.0679150000000000 H
   0.8793140000000000    0.3949300000000000    0.0206450000000000 H
   0.8889040000000000    0.4219650000000000    0.4234800000000000 H
   0.8311940000000000    0.1434050000000000    0.3889900000000000 H
   0.8189780000000001    0.1159050000000000    0.4857650000000000 H
   0.9697100000000001    0.0674900000000000    0.2756550000000000 H
   0.9558900000000000    0.1289550000000000    0.4135450000000000 H
   0.9632180000000000    0.4056200000000000    0.4320850000000000 H
   0.9206860000000001    0.1050900000000000    0.4793550000000000 H
   0.9110960000000000    0.0780500000000000    0.0765200000000000 H
   0.9688020000000001    0.3566150000000000    0.1110100000000000 H
   0.9810200000000000    0.3841100000000000    0.0142350000000000 H
   0.0302860000000000    0.9325150000000000    0.2243400000000000 H
   0.0441060000000000    0.8710599999999999    0.0864500000000000 H
   0.0367780000000000    0.5943900000000000    0.0679150000000000 H
   0.0793140000000000    0.8949300000000000    0.0206450000000000 H
   0.0889040000000000    0.9219649999999999    0.4234800000000000 H
   0.0311940000000000    0.6434050000000000    0.3889900000000000 H
   0.0189780000000000    0.6159050000000000    0.4857650000000000 H
   0.1697100000000000    0.5674900000000000    0.2756550000000000 H
   0.1558900000000000    0.6289549999999999    0.4135450000000000 H
   0.1632180000000000    0.9056200000000000    0.4320850000000000 H
   0.1206860000000000    0.6050900000000000    0.4793550000000000 H
   0.1110960000000000    0.5780500000000000    0.0765200000000000 H
   0.1688020000000000    0.8566150000000000    0.1110100000000000 H
   0.1810200000000000    0.8841100000000000    0.0142350000000000 H
   0.2302860000000000    0.9325150000000000    0.2243400000000000 H
   0.2441060000000000    0.8710599999999999    0.0864500000000000 H
   0.2367780000000000    0.5943900000000000    0.0679150000000000 H
   0.2793140000000000    0.8949300000000000    0.0206450000000000 H
   0.2889040000000000    0.9219649999999999    0.4234800000000000 H
   0.2311940000000000    0.6434050000000000    0.3889900000000000 H
   0.2189780000000000    0.6159050000000000    0.4857650000000000 H
   0.3697100000000000    0.5674900000000000    0.2756550000000000 H
   0.3558900000000000    0.6289549999999999    0.4135450000000000 H
   0.3632180000000000    0.9056200000000000    0.4320850000000000 H
   0.3206860000000000    0.6050900000000000    0.4793550000000000 H
   0.3110960000000000    0.5780500000000000    0.0765200000000000 H
   0.3688020000000000    0.8566150000000000    0.1110100000000000 H
   0.3810200000000000    0.8841100000000000    0.0142350000000000 H
   0.4302860000000000    0.9325150000000000    0.2243400000000000 H
   0.4441060000000000    0.8710599999999999    0.0864500000000000 H
   0.4367780000000000    0.5943900000000000    0.0679150000000000 H
   0.4793140000000000    0.8949300000000000    0.0206450000000000 H
   0.4889040000000000    0.9219649999999999    0.4234800000000000 H
   0.4311940000000000    0.6434050000000000    0.3889900000000000 H
   0.4189780000000000    0.6159050000000000    0.4857650000000000 H
   0.5697100000000000    0.5674900000000000    0.2756550000000000 H
   0.5558900000000000    0.6289549999999999    0.4135450000000000 H
   0.5632180000000000    0.9056200000000000    0.4320850000000000 H
   0.5206860000000000    0.6050900000000000    0.4793550000000000 H
   0.5110960000000000    0.5780500000000000    0.0765200000000000 H
   0.5688020000000000    0.8566150000000000    0.1110100000000000 H
   0.5810200000000001    0.8841100000000000    0.0142350000000000 H
   0.6367780000000001    0.5943900000000000    0.0679150000000000 H
   0.6889040000000001    0.9219649999999999    0.4234800000000000 H
   0.6311940000000000    0.6434050000000000    0.3889900000000000 H
   0.6189780000000001    0.6159050000000000    0.4857650000000000 H
   0.7697100000000001    0.5674900000000000    0.2756550000000000 H
   0.7558900000000001    0.6289549999999999    0.4135450000000000 H
   0.7632180000000001    0.9056200000000000    0.4320850000000000 H
   0.7206860000000002    0.6050900000000000    0.4793550000000000 H
   0.7110960000000001    0.5780500000000000    0.0765200000000000 H
   0.7688020000000001    0.8566150000000000    0.1110100000000000 H
   0.7810200000000000    0.8841100000000000    0.0142350000000000 H
   0.8302860000000001    0.9325150000000000    0.2243400000000000 H
   0.8441060000000000    0.8710599999999999    0.0864500000000000 H
   0.8367780000000000    0.5943900000000000    0.0679150000000000 H
   0.8793140000000000    0.8949300000000000    0.0206450000000000 H
   0.8889040000000000    0.9219649999999999    0.4234800000000000 H
   0.8311940000000000    0.6434050000000000    0.3889900000000000 H
   0.8189780000000001    0.6159050000000000    0.4857650000000000 H
   0.9697100000000001    0.5674900000000000    0.2756550000000000 H
   0.9558900000000000    0.6289549999999999    0.4135450000000000 H
   0.9632180000000000    0.9056200000000000    0.4320850000000000 H
   0.9206860000000001    0.6050900000000000    0.4793550000000000 H
   0.9110960000000000    0.5780500000000000    0.0765200000000000 H
   0.9688020000000001    0.8566150000000000    0.1110100000000000 H
   0.9810200000000000    0.8841100000000000    0.0142350000000000 H
   0.0302860000000000    0.4325150000000000    0.7243400000000000 H
   0.0441060000000000    0.3710600000000000    0.5864500000000000 H
   0.0367780000000000    0.0943900000000000    0.5679149999999999 H
   0.0793140000000000    0.3949300000000000    0.5206450000000000 H
   0.0889040000000000    0.4219650000000000    0.9234800000000001 H
   0.0311940000000000    0.1434050000000000    0.8889899999999999 H
   0.0189780000000000    0.1159050000000000    0.9857650000000000 H
   0.1697100000000000    0.0674900000000000    0.7756550000000000 H
   0.1558900000000000    0.1289550000000000    0.9135450000000001 H
   0.1632180000000000    0.4056200000000000    0.9320850000000001 H
   0.1206860000000000    0.1050900000000000    0.9793550000000000 H
   0.1110960000000000    0.0780500000000000    0.5765200000000000 H
   0.1688020000000000    0.3566150000000000    0.6110100000000001 H
   0.1810200000000000    0.3841100000000000    0.5142350000000000 H
   0.2302860000000000    0.4325150000000000    0.7243400000000000 H
   0.2441060000000000    0.3710600000000000    0.5864500000000000 H
   0.2367780000000000    0.0943900000000000    0.5679149999999999 H
   0.2793140000000000    0.3949300000000000    0.5206450000000000 H
   0.2889040000000000    0.4219650000000000    0.9234800000000001 H
   0.2311940000000000    0.1434050000000000    0.8889899999999999 H
   0.2189780000000000    0.1159050000000000    0.9857650000000000 H
   0.3697100000000000    0.0674900000000000    0.7756550000000000 H
   0.3558900000000000    0.1289550000000000    0.9135450000000001 H
   0.3632180000000000    0.4056200000000000    0.9320850000000001 H
   0.3206860000000000    0.1050900000000000    0.9793550000000000 H
   0.3110960000000000    0.0780500000000000    0.5765200000000000 H
   0.3688020000000000    0.3566150000000000    0.6110100000000001 H
   0.3810200000000000    0.3841100000000000    0.5142350000000000 H
   0.4302860000000000    0.4325150000000000    0.7243400000000000 H
   0.4441060000000000    0.3710600000000000    0.5864500000000000 H
   0.4367780000000000    0.0943900000000000    0.5679149999999999 H
   0.4793140000000000    0.3949300000000000    0.5206450000000000 H
   0.4889040000000000    0.4219650000000000    0.9234800000000001 H
   0.4311940000000000    0.1434050000000000    0.8889899999999999 H
   0.4189780000000000    0.1159050000000000    0.9857650000000000 H
   0.5697100000000000    0.0674900000000000    0.7756550000000000 H
   0.5558900000000000    0.1289550000000000    0.9135450000000001 H
   0.5632180000000000    0.4056200000000000    0.9320850000000001 H
   0.5206860000000000    0.1050900000000000    0.9793550000000000 H
   0.5110960000000000    0.0780500000000000    0.5765200000000000 H
   0.5688020000000000    0.3566150000000000    0.6110100000000001 H
   0.5810200000000001    0.3841100000000000    0.5142350000000000 H
   0.6302860000000001    0.4325150000000000    0.7243400000000000 H
   0.6441060000000001    0.3710600000000000    0.5864500000000000 H
   0.6367780000000001    0.0943900000000000    0.5679149999999999 H
   0.6793140000000001    0.3949300000000000    0.5206450000000000 H
   0.6889040000000001    0.4219650000000000    0.9234800000000001 H
   0.7697100000000001    0.0674900000000000    0.7756550000000000 H
   0.7558900000000001    0.1289550000000000    0.9135450000000001 H
   0.7632180000000001    0.4056200000000000    0.9320850000000001 H
   0.7206860000000002    0.1050900000000000    0.9793550000000000 H
   0.7110960000000001    0.0780500000000000    0.5765200000000000 H
   0.7688020000000001    0.3566150000000000    0.6110100000000001 H
   0.7810200000000000    0.3841100000000000    0.5142350000000000 H
   0.8302860000000001    0.4325150000000000    0.7243400000000000 H
   0.8441060000000000    0.3710600000000000    0.5864500000000000 H
   0.8367780000000000    0.0943900000000000    0.5679149999999999 H
   0.8793140000000000    0.3949300000000000    0.5206450000000000 H
   0.8889040000000000    0.4219650000000000    0.9234800000000001 H
   0.8311940000000000    0.1434050000000000    0.8889899999999999 H
   0.8189780000000001    0.1159050000000000    0.9857650000000000 H
   0.9697100000000001    0.0674900000000000    0.7756550000000000 H
   0.9558900000000000    0.1289550000000000    0.9135450000000001 H
   0.9632180000000000    0.4056200000000000    0.9320850000000001 H
   0.9206860000000001    0.1050900000000000    0.9793550000000000 H
   0.9110960000000000    0.0780500000000000    0.5765200000000000 H
   0.9688020000000001    0.3566150000000000    0.6110100000000001 H
   0.9810200000000000    0.3841100000000000    0.5142350000000000 H
   0.0302860000000000    0.9325150000000000    0.7243400000000000 H
   0.0441060000000000    0.8710599999999999    0.5864500000000000 H
   0.0367780000000000    0.5943900000000000    0.5679149999999999 H
   0.0793140000000000    0.8949300000000000    0.5206450000000000 H
   0.0889040000000000    0.9219649999999999    0.9234800000000001 H
   0.0311940000000000    0.6434050000000000    0.8889899999999999 H
   0.0189780000000000    0.6159050000000000    0.9857650000000000 H
   0.1697100000000000    0.5674900000000000    0.7756550000000000 H
   0.1558900000000000    0.6289549999999999    0.9135450000000001 H
   0.1632180000000000    0.9056200000000000    0.9320850000000001 H
   0.1206860000000000    0.6050900000000000    0.9793550000000000 H
   0.1110960000000000    0.5780500000000000    0.5765200000000000 H
   0.1688020000000000    0.8566150000000000    0.6110100000000001 H
   0.1810200000000000    0.8841100000000000    0.5142350000000000 H
   0.2302860000000000    0.9325150000000000    0.7243400000000000 H
   0.2441060000000000    0.8710599999999999    0.5864500000000000 H
   0.2367780000000000    0.5943900000000000    0.5679149999999999 H
   0.2793140000000000    0.8949300000000000    0.5206450000000000 H
   0.2889040000000000    0.9219649999999999    0.9234800000000001 H
   0.2311940000000000    0.6434050000000000    0.8889899999999999 H
   0.2189780000000000    0.6159050000000000    0.9857650000000000 H
   0.3697100000000000    0.5674900000000000    0.7756550000000000 H
   0.3558900000000000    0.6289549999999999    0.9135450000000001 H
   0.3632180000000000    0.9056200000000000    0.9320850000000001 H
   0.3206860000000000    0.6050900000000000    0.9793550000000000 H
   0.3110960000000000    0.5780500000000000    0.5765200000000000 H
   0.3688020000000000    0.8566150000000000    0.6110100000000001 H
   0.3810200000000000    0.8841100000000000    0.5142350000000000 H
   0.4302860000000000    0.9325150000000000    0.7243400000000000 H
   0.4441060000000000    0.8710599999999999    0.5864500000000000 H
   0.4367780000000000    0.5943900000000000    0.5679149999999999 H
   0.4793140000000000    0.8949300000000000    0.5206450000000000 H
   0.4889040000000000    0.9219649999999999    0.9234800000000001 H
   0.4311940000000000    0.6434050000000000    0.8889899999999999 H
   0.4189780000000000    0.6159050000000000    0.9857650000000000 H
   0.5697100000000000    0.5674900000000000    0.7756550000000000 H
   0.5558900000000000    0.6289549999999999    0.9135450000000001 H
   0.5632180000000000    0.9056200000000000    0.9320850000000001 H
   0.5206860000000000    0.6050900000000000    0.9793550000000000 H
   0.5110960000000000    0.5780500000000000    0.5765200000000000 H
   0.5688020000000000    0.8566150000000000    0.6110100000000001 H
   0.5810200000000001    0.8841100000000000    0.5142350000000000 H
   0.6302860000000001    0.9325150000000000    0.7243400000000000 H
   0.6441060000000001    0.8710599999999999    0.5864500000000000 H
   0.6367780000000001    0.5943900000000000    0.5679149999999999 H
   0.6793140000000001    0.8949300000000000    0.5206450000000000 H
   0.6311940000000000    0.6434050000000000    0.8889899999999999 H
   0.6189780000000001    0.6159050000000000    0.9857650000000000 H
   0.7697100000000001    0.5674900000000000    0.7756550000000000 H
   0.7558900000000001    0.6289549999999999    0.9135450000000001 H
   0.7632180000000001    0.9056200000000000    0.9320850000000001 H
   0.7206860000000002    0.6050900000000000    0.9793550000000000 H
   0.7110960000000001    0.5780500000000000    0.5765200000000000 H
   0.7688020000000001    0.8566150000000000    0.6110100000000001 H
   0.7810200000000000    0.8841100000000000    0.5142350000000000 H
   0.8302860000000001    0.9325150000000000    0.7243400000000000 H
   0.8441060000000000    0.8710599999999999    0.5864500000000000 H
   0.8367780000000000    0.5943900000000000    0.5679149999999999 H
   0.8793140000000000    0.8949300000000000    0.5206450000000000 H
   0.8889040000000000    0.9219649999999999    0.9234800000000001 H
   0.8311940000000000    0.6434050000000000    0.8889899999999999 H
   0.8189780000000001    0.6159050000000000    0.9857650000000000 H
   0.9697100000000001    0.5674900000000000    0.7756550000000000 H
   0.9558900000000000    0.6289549999999999    0.9135450000000001 H
   0.9632180000000000    0.9056200000000000    0.9320850000000001 H
   0.9206860000000001    0.6050900000000000    0.9793550000000000 H
   0.9110960000000000    0.5780500000000000    0.5765200000000000 H
   0.9688020000000001    0.8566150000000000    0.6110100000000001 H
   0.9810200000000000    0.8841100000000000    0.5142350000000000 H
   0.0331980000000000    0.0190500000000000    0.1480350000000000 C
   0.0333300000000000    0.4470950000000000    0.1811650000000000 C
   0.0369220000000000    0.3943450000000000    0.1582850000000000 C
   0.0414460000000000    0.4134750000000000    0.1028350000000000 C
   0.0417200000000000    0.4851700000000000    0.0689700000000000 C
   0.0367060000000000    0.0380050000000000    0.0923700000000000 C
   0.0479340000000000    0.0030050000000000    0.0107350000000000 C
   0.0677500000000000    0.4490350000000000    0.4920100000000000 C
   0.0737060000000000    0.4641200000000000    0.4376000000000000 C
   0.0606080000000000    0.0342650000000000    0.3999400000000000 C
   0.0413780000000000    0.0888850000000000    0.4181150000000000 C
   0.0349320000000000    0.0732250000000000    0.4726700000000000 C
   0.0303100000000000    0.0757050000000000    0.1717300000000000 C
   0.0352480000000000    0.3179100000000000    0.1921400000000000 C
   0.0670720000000000    0.0497100000000000    0.3414250000000000 C
   0.1667980000000000    0.4809600000000000    0.3519700000000000 C
   0.1666640000000000    0.0529150000000000    0.3188350000000000 C
   0.1630720000000000    0.1056650000000000    0.3417100000000000 C
   0.1585480000000000    0.0865350000000000    0.3971600000000000 C
   0.1582740000000000    0.0148450000000000    0.4310300000000000 C
   0.1632880000000000    0.4620050000000000    0.4076300000000000 C
   0.1520600000000000    0.4970050000000000    0.4892600000000000 C
   0.1322480000000000    0.0509750000000000    0.0079900000000000 C
   0.1262920000000000    0.0358950000000000    0.0624000000000000 C
   0.1393880000000000    0.4657550000000000    0.1000600000000000 C
   0.1586200000000000    0.4111300000000000    0.0818850000000000 C
   0.1650640000000000    0.4267900000000000    0.0273300000000000 C
   0.1696880000000000    0.4242950000000000    0.3282750000000000 C
   0.1647460000000000    0.1820950000000000    0.3078500000000000 C
   0.1329260000000000    0.4503100000000000    0.1585700000000000 C
   0.2331980000000000    0.0190500000000000    0.1480350000000000 C
   0.2333300000000000    0.4470950000000000    0.1811650000000000 C
   0.2369220000000000    0.3943450000000000    0.1582850000000000 C
   0.2414460000000000    0.4134750000000000    0.1028350000000000 C
   0.2417200000000000    0.4851700000000000    0.0689700000000000 C
   0.2367060000000000    0.0380050000000000    0.0923700000000000 C
   0.2479340000000000    0.0030050000000000    0.0107350000000000 C
   0.2677500000000000    0.4490350000000000    0.4920100000000000 C
   0.2737060000000000    0.4641200000000000    0.4376000000000000 C
   0.2606080000000000    0.0342650000000000    0.3999400000000000 C
   0.2413780000000000    0.0888850000000000    0.4181150000000000 C
   0.2349320000000000    0.0732250000000000    0.4726700000000000 C
   0.2303100000000000    0.0757050000000000    0.1717300000000000 C
   0.2352480000000000    0.3179100000000000    0.1921400000000000 C
   0.2670720000000000    0.0497100000000000    0.3414250000000000 C
   0.3667980000000000    0.4809600000000000    0.3519700000000000 C
   0.3666640000000000    0.0529150000000000    0.3188350000000000 C
   0.3630720000000000    0.1056650000000000    0.3417100000000000 C
   0.3585480000000000    0.0865350000000000    0.3971600000000000 C
   0.3582740000000000    0.0148450000000000    0.4310300000000000 C
   0.3632880000000001    0.4620050000000000    0.4076300000000000 C
   0.3520600000000000    0.4970050000000000    0.4892600000000000 C
   0.3322480000000000    0.0509750000000000    0.0079900000000000 C
   0.3262920000000000    0.0358950000000000    0.0624000000000000 C
   0.3393880000000000    0.4657550000000000    0.1000600000000000 C
   0.3586200000000000    0.4111300000000000    0.0818850000000000 C
   0.3650640000000001    0.4267900000000000    0.0273300000000000 C
   0.3696880000000000    0.4242950000000000    0.3282750000000000 C
   0.3647460000000000    0.1820950000000000    0.3078500000000000 C
   0.3329260000000001    0.4503100000000000    0.1585700000000000 C
   0.4331980000000000    0.0190500000000000    0.1480350000000000 C
   0.4333300000000000    0.4470950000000000    0.1811650000000000 C
   0.4369220000000000    0.3943450000000000    0.1582850000000000 C
   0.4414460000000000    0.4134750000000000    0.1028350000000000 C
   0.4417200000000000    0.4851700000000000    0.0689700000000000 C
   0.4367060000000000    0.0380050000000000    0.0923700000000000 C
   0.4479340000000001    0.0030050000000000    0.0107350000000000 C
   0.4677500000000000    0.4490350000000000    0.4920100000000000 C
   0.4737060000000000    0.4641200000000000    0.4376000000000000 C
   0.4606080000000000    0.0342650000000000    0.3999400000000000 C
   0.4413780000000000    0.0888850000000000    0.4181150000000000 C
   0.4349320000000000    0.0732250000000000    0.4726700000000000 C
   0.4303100000000000    0.0757050000000000    0.1717300000000000 C
   0.4352480000000000    0.3179100000000000    0.1921400000000000 C
   0.4670720000000000    0.0497100000000000    0.3414250000000000 C
   0.5667980000000000    0.4809600000000000    0.3519700000000000 C
   0.5666640000000001    0.0529150000000000    0.3188350000000000 C
   0.5630720000000000    0.1056650000000000    0.3417100000000000 C
   0.5585480000000000    0.0865350000000000    0.3971600000000000 C
   0.5582740000000000    0.0148450000000000    0.4310300000000000 C
   0.5632880000000000    0.4620050000000000    0.4076300000000000 C
   0.5520600000000000    0.4970050000000000    0.4892600000000000 C
   0.5322480000000001    0.0509750000000000    0.0079900000000000 C
   0.5262920000000000    0.0358950000000000    0.0624000000000000 C
   0.5393880000000000    0.4657550000000000    0.1000600000000000 C
   0.5586200000000000    0.4111300000000000    0.0818850000000000 C
   0.5650640000000000    0.4267900000000000    0.0273300000000000 C
   0.5696880000000000    0.4242950000000000    0.3282750000000000 C
   0.5647460000000000    0.1820950000000000    0.3078500000000000 C
   0.5329260000000000    0.4503100000000000    0.1585700000000000 C
   0.6333300000000001    0.4470950000000000    0.1811650000000000 C
   0.6369220000000001    0.3943450000000000    0.1582850000000000 C
   0.6414460000000001    0.4134750000000000    0.1028350000000000 C
   0.6417200000000001    0.4851700000000000    0.0689700000000000 C
   0.6677500000000001    0.4490350000000000    0.4920100000000000 C
   0.6737060000000001    0.4641200000000000    0.4376000000000000 C
   0.6606080000000001    0.0342650000000000    0.3999400000000000 C
   0.6413780000000001    0.0888850000000000    0.4181150000000000 C
   0.6349320000000001    0.0732250000000000    0.4726700000000000 C
   0.6352480000000000    0.3179100000000000    0.1921400000000000 C
   0.6670720000000001    0.0497100000000000    0.3414250000000000 C
   0.7667980000000001    0.4809600000000000    0.3519700000000000 C
   0.7666640000000001    0.0529150000000000    0.3188350000000000 C