Ca4 H19 C27 O23
1.0
   6.7439579663628102    0.0000000000000000    1.0155938892744480
   2.1376445088146925    8.3156317168056848    3.6104882768525575
   0.0000000000000000    0.0000000000000000   20.3670000000000009
Ca H C O
4 19 27 23
direct
   0.2448200000000000    0.4552000000000000    0.3090600000000000 Ca
   0.7551500000000000    0.5448300000000000    0.6909350000000000 Ca
   0.2448200000000000    0.4552000000000000    0.8090600000000000 Ca
   0.7551500000000000    0.5448300000000000    0.1909350000000000 Ca
   0.2499800000000000    0.2730300000000000    0.4732550000000000 H
   0.2441100000000000    0.9127400000000000    0.3700900000000000 H
   0.2224100000000000    0.4773900000000000    0.5492650000000000 H
   0.2745100000000000    0.8930200000000000    0.5836400000000000 H
   0.7500200000000000    0.7270100000000000    0.5267450000000000 H
   0.7558900000000000    0.0872900000000000    0.6299049999999999 H
   0.7775800000000000    0.5226400000000000    0.4507350000000000 H
   0.7254900000000000    0.1070100000000000    0.4163500000000000 H
  -0.2216236981067965    0.4401621113077920    0.8463899735869421 H
   0.7173051696250311    0.3205642001093772    0.8437954731689323 H
   0.2499800000000000    0.2730300000000000    0.9732550000000000 H
   0.2541193230584619    0.2054903086924486    0.9293414080840413 H
   0.2441100000000000    0.9127400000000000    0.8700900000000000 H
   0.2224100000000000    0.4773900000000000    0.0492650000000000 H
   0.2745100000000000    0.8930200000000000    0.0836400000000000 H
   0.7425034692885604    0.8870327631581725    0.0688518476682407 H
   0.7696223128198914    0.2023875268684099    0.1856458307910625 H
   0.7802343821556856    0.6127296124756616    0.0207623126512961 H
   0.7757186874281250    0.4029545475339650    0.0994838290087628 H
   0.2303700000000000    0.6057300000000000    0.4041000000000000 C
   0.2537800000000000    0.5880400000000000    0.6536450000000000 C
   0.2572300000000000    0.0955400000000000    0.4450900000000000 C
   0.2459900000000000    0.8470299999999999    0.4274600000000000 C
   0.2556800000000000    0.9228900000000000    0.4738400000000000 C
   0.2373900000000000    0.6858700000000000    0.4546150000000000 C
   0.2343600000000000    0.6014100000000000    0.5284200000000000 C
   0.2625700000000000    0.8356100000000000    0.5474500000000000 C
   0.2501300000000000    0.6756700000000000    0.5747599999999999 C
   0.7696200000000000    0.3943000000000000    0.5958950000000000 C
   0.7462000000000000    0.4120000000000000    0.3463500000000000 C
   0.7427500000000000    0.9045000000000000    0.5549100000000000 C
   0.7539900000000000    0.1530100000000000    0.5725300000000000 C
   0.7443100000000000    0.0771400000000000    0.5261550000000000 C
   0.7625900000000000    0.3141700000000000    0.5453800000000000 C
   0.7656100000000000    0.3986200000000000    0.4715750000000000 C
   0.7374100000000000    0.1644200000000000    0.4525400000000000 C
   0.7498400000000000    0.3243700000000000    0.4252300000000000 C
   0.2303700000000000    0.6057300000000000    0.9041000000000000 C
   0.2537800000000000    0.5880400000000000    0.1536450000000000 C
   0.2572300000000000    0.0955400000000000    0.9450900000000000 C
   0.2459900000000000    0.8470299999999999    0.9274600000000000 C
   0.2556800000000000    0.9228900000000000    0.9738400000000000 C
   0.2373900000000000    0.6858700000000000    0.9546150000000000 C
   0.2343600000000000    0.6014100000000000    0.0284200000000000 C
   0.2625700000000000    0.8356100000000000    0.0474500000000000 C
   0.2501300000000000    0.6756700000000000    0.0747600000000000 C
   0.2310500000000000    0.6848000000000000    0.3376350000000000 O
   0.2251100000000000    0.4567300000000000    0.4294800000000000 O
   0.3868900000000000    0.5997800000000000    0.6880650000000000 O
   0.1228200000000000    0.5062700000000000    0.6859150000000001 O
   0.2560600000000000    0.1536000000000000    0.4952450000000000 O
   0.2583800000000000    0.1770300000000000    0.3800550000000000 O
   0.7689400000000000    0.3152200000000000    0.6623600000000001 O
   0.7748699999999999    0.5433000000000000    0.5705200000000000 O
   0.6130900000000000    0.4002600000000000    0.3119300000000000 O
   0.8771600000000001    0.4937600000000000    0.3140800000000000 O
   0.7439500000000000    0.8464400000000000    0.5047550000000000 O
   0.7416000000000000    0.8230200000000000    0.6199450000000000 O
  -0.1228400000000000    0.4937600000000000    0.8140800000000000 O
   0.6130900000000000    0.4002600000000000    0.8119300000000000 O
   0.2310500000000000    0.6848000000000000    0.8376350000000000 O
   0.2251100000000000    0.4567300000000000    0.9294800000000000 O
   0.3868900000000000    0.5997800000000000    0.1880650000000000 O
   0.1228200000000000    0.5062700000000000    0.1859150000000000 O
   0.2560600000000000    0.1536000000000000    0.9952449999999999 O
   0.2583800000000000    0.1770300000000000    0.8800550000000000 O
   0.7416000000000000    0.8230200000000000    0.1199450000000000 O
   0.7689400000000000    0.3152200000000000    0.1623600000000000 O
   0.7748699999999999    0.5433000000000000    0.0705200000000000 O
