H5 O3
1.0
  20.4719999875277452    0.0000000000000000   -0.0007146076087883
  -0.0079365452514067   37.8929984705168010   -0.0072749337033451
   0.0000000000000000    0.0000000000000000   30.7719999999999985
H O
5 3
direct
   0.5170942284747968    0.8435432182273999    0.4005490726155142 H
   0.5709754377914394    0.8659130264435309    0.4225242949320699 H
   0.6206923690597487    0.8403933274690469    0.2915040923851679 H
   0.4821075014886704    0.9193038204862025    0.2486069904007160 H
   0.5331300575556390    0.9224542984914369    0.2853277462903181 H
   0.5345700000000000    0.8500366666666666    0.4290500000000000 O
   0.6417600000000000    0.8518133333333333    0.2666650000000000 O
   0.5091400000000000    0.9365533333333333    0.2640000000000000 O
