H6 C12 O4
1.0
  26.3339985520659923    0.0000000000000000    0.0087326849391348
  -5.7359524738003502   25.8881645398010605    0.0064790809979477
   0.0000000000000000    0.0000000000000000   22.4070000000000000
H C O
6 12 4
direct
   0.0483800000000000    0.9378649999999999    0.3148500000000000 H
   0.1236450000000000    0.9240349999999999    0.5169500000000000 H
   0.0308250000000000    0.9307400000000000    0.5049200000000000 H
   0.1341850000000000    0.9352900000000000    0.2685500000000000 H
   0.2276200000000000    0.9321600000000000    0.2805500000000000 H
   0.2095550000000000    0.9219200000000001    0.4707500000000000 H
   0.0350150000000000    0.9353350000000000    0.4088300000000000 C
   0.0655800000000000    0.9350550000000000    0.3586500000000000 C
   0.1181250000000000    0.9313650000000000    0.3635800000000000 C
   0.1395950000000000    0.9274800000000001    0.4219500000000000 C
   0.1071750000000000    0.9272450000000000    0.4727000000000000 C
   0.0561550000000000    0.9310300000000000    0.4664300000000000 C
   0.1506500000000000    0.9323500000000000    0.3128000000000000 C
   0.2021050000000000    0.9302500000000000    0.3191000000000000 C
   0.2233350000000000    0.9262250000000001    0.3766000000000000 C
   0.1923850000000000    0.9246650000000001    0.4269000000000000 C
   0.2797800000000000    0.9252600000000000    0.3831900000000000 C
   0.9796800000000000    0.9401300000000000    0.4022400000000000 C
   0.2954700000000000    0.9153850000000000    0.4347800000000000 O
   0.3075400000000000    0.9353250000000000    0.3363600000000000 O
   0.9626450000000000    0.9421050000000000    0.3492300000000000 O
   0.9541050000000000    0.9420750000000000    0.4500500000000000 O
