H12 C24 N4 O4
1.0
  26.3339985520659923    0.0000000000000000    0.0087326849391348
  -5.7359524738003502   25.8881645398010605    0.0064790809979477
   0.0000000000000000    0.0000000000000000   22.4070000000000000
H C N O
12 24 4 4
direct
   0.4478750000000000    0.0113100000000000    0.2335700000000000 H
   0.4506400000000000    0.0152750000000000    0.1223500000000000 H
   0.4396450000000000    0.0011800000000000    0.6563000000000000 H
   0.3315900000000000    0.8747549999999999    0.1199700000000000 H
   0.3339900000000000    0.8760350000000000    0.2321200000000000 H
   0.2598150000000000    0.9456200000000000    0.9514899999999999 H
   0.2561150000000000    0.9405399999999999    0.8395500000000000 H
   0.3167000000000000    0.8639150000000000    0.6662300000000000 H
   0.3148550000000000    0.8634450000000000    0.5544100000000000 H
   0.4334650000000000    0.9946850000000000    0.5454599999999999 H
   0.5110150000000000    0.9339500000000001    0.8322100000000000 H
   0.5139750000000000    0.9373150000000000    0.9435900000000000 H
   0.4226800000000000    0.9817650000000000    0.2069000000000000 C
   0.4241200000000000    0.9838800000000000    0.1448600000000000 C
   0.3910250000000000    0.9450750000000000    0.1129000000000000 C
   0.3578600000000000    0.9054550000000000    0.1437800000000000 C
   0.3587900000000000    0.9060800000000000    0.2056600000000000 C
   0.4372550000000000    0.9434050000000000    0.0185600000000000 C
   0.4336500000000000    0.9396750000000000    0.9527900000000000 C
   0.3859700000000000    0.9396000000000000    0.9234100000000000 C
   0.3405300000000000    0.9429100000000000    0.9555600000000000 C
   0.3418550000000000    0.9467150000000000    0.0212400000000000 C
   0.2941900000000000    0.9430100000000000    0.9256700000000000 C
   0.2921000000000000    0.9401100000000000    0.8632800000000000 C
   0.3364000000000000    0.9374549999999999    0.8305000000000000 C
   0.3839350000000000    0.9371300000000000    0.8599000000000000 C
   0.4297250000000000    0.9351650000000000    0.8275400000000001 C
   0.4758950000000000    0.9347150000000000    0.8574800000000000 C
   0.4777500000000000    0.9367799999999999    0.9200100000000000 C
   0.4291850000000000    0.9343399999999999    0.7616000000000001 C
   0.3332800000000000    0.9356650000000000    0.7647900000000000 C
   0.3784750000000000    0.9327150000000000    0.6698200000000000 C
   0.3430900000000000    0.8934949999999999    0.6409899999999999 C
   0.3418950000000000    0.8931200000000000    0.5790000000000000 C
   0.4080600000000000    0.9666850000000000    0.5738000000000000 C
   0.4114600000000000    0.9700100000000000    0.6356500000000000 C
   0.3905950000000000    0.9435950000000000    0.2367000000000000 N
   0.3902800000000000    0.9450350000000001    0.0480000000000000 N
   0.3805950000000000    0.9344950000000001    0.7339300000000000 N
   0.3737900000000000    0.9289350000000001    0.5458000000000000 N
   0.4775400000000000    0.9444850000000000    0.0465000000000000 O
   0.3044050000000000    0.9510449999999999    0.0517300000000000 O
   0.4677900000000000    0.9332950000000000    0.7313100000000000 O
   0.2933150000000000    0.9356249999999999    0.7369000000000000 O
