H4 O2
1.0
  26.3339985520659923    0.0000000000000000    0.0087326849391348
  -5.7359524738003502   25.8881645398010605    0.0064790809979477
   0.0000000000000000    0.0000000000000000   22.4070000000000000
H O
4 2
direct
   0.3674934258092172    0.9163459650757045    0.2141540838584531 H
   0.4139100213391671    0.9713317730876113    0.2150454063921714 H
   0.3506222245071511    0.9029198289927455    0.5699156967036395 H
   0.3986487570951956    0.9563180779207364    0.5661106273319370 H
   0.3905950000000000    0.9435950000000000    0.2367000000000000 O
   0.3737900000000000    0.9289350000000001    0.5458000000000000 O
