Zn16 H186 C372 N32 O92
1.0
  26.3339985520659923    0.0000000000000000    0.0087326849391348
  -5.7359524738003502   25.8881645398010605    0.0064790809979477
   0.0000000000000000    0.0000000000000000   22.4070000000000000
Zn H C N O
16 186 372 32 92
direct
   0.1265800000000000    0.0727700000000000    0.9534800000000000 Zn
   0.3865750000000000    0.4404000000000000    0.3283600000000000 Zn
   0.3734050000000000    0.4271750000000000    0.4534800000000000 Zn
   0.1134450000000000    0.0595800000000000    0.8283000000000000 Zn
   0.6265800000000000    0.0727700000000000    0.9534800000000000 Zn
   0.8865750000000000    0.4404000000000000    0.3283600000000000 Zn
   0.8734050000000000    0.4271750000000000    0.4534800000000000 Zn
   0.6134450000000000    0.0595800000000000    0.8283000000000000 Zn
   0.1265800000000000    0.5727700000000000    0.9534800000000000 Zn
   0.3865750000000000    0.9404000000000000    0.3283600000000000 Zn
   0.3734050000000000    0.9271750000000001    0.4534800000000000 Zn
   0.1134450000000000    0.5595800000000000    0.8283000000000000 Zn
   0.6265800000000000    0.5727700000000000    0.9534800000000000 Zn
   0.8865750000000000    0.9404000000000000    0.3283600000000000 Zn
   0.8734050000000000    0.9271750000000001    0.4534800000000000 Zn
   0.6134450000000000    0.5595800000000000    0.8283000000000000 Zn
   0.0521350000000000    0.4886350000000000    0.7337000000000000 H
   0.0493150000000000    0.4846300000000000    0.6225100000000000 H
   0.1684000000000000    0.1251300000000000    0.6198000000000000 H
   0.1660500000000000    0.1238850000000000    0.7300000000000000 H
   0.2401400000000000    0.0543200000000000    0.4513900000000000 H
   0.2438200000000000    0.0594450000000000    0.3394000000000000 H
   0.4889150000000000    0.0659900000000000    0.3323500000000000 H
   0.4859750000000000    0.0626050000000000    0.4437400000000000 H
   0.1832300000000000    0.1360400000000000    0.1661500000000000 H
   0.1850700000000000    0.1364900000000000    0.0543200000000000 H
   0.0664250000000000    0.0052850000000000    0.0455700000000000 H
   0.0602500000000000    0.4988000000000000    0.1564000000000000 H
   0.1181400000000000    0.2164650000000000    0.7781700000000000 H
   0.1137100000000000    0.3088150000000000    0.7645999999999999 H
   0.1351450000000000    0.2382700000000000    0.9672900000000000 H
   0.1123650000000000    0.3949100000000000    0.8093600000000000 H
   0.1316500000000000    0.4172250000000000    0.9983900000000000 H
   0.1381100000000000    0.3254500000000000    0.0115000000000000 H
   0.4516700000000000    0.0621250000000000    0.8148500000000000 H
   0.3762550000000000    0.0758600000000000    0.0169600000000000 H
   0.4690950000000000    0.0691750000000000    0.0000000000000000 H
   0.3658950000000000    0.0647000000000000    0.7685400000000000 H
   0.2724550000000000    0.0678300000000000    0.7805299999999999 H
   0.2903850000000000    0.0779950000000000    0.9707300000000000 H
   0.4478750000000000    0.0113100000000000    0.2335700000000000 H
   0.4506400000000000    0.0152750000000000    0.1223500000000000 H
   0.3315900000000000    0.3747550000000000    0.1199700000000000 H
   0.3339900000000000    0.3760350000000000    0.2321200000000000 H
   0.2598150000000000    0.4456200000000000    0.9514899999999999 H
   0.2561150000000000    0.4405400000000000    0.8395500000000000 H
   0.0110150000000000    0.4339500000000000    0.8322100000000000 H
   0.0139750000000000    0.4373150000000000    0.9435900000000000 H
   0.3167000000000000    0.3639150000000000    0.6662300000000000 H
   0.3148550000000000    0.3634450000000000    0.5544100000000000 H
   0.4334650000000000    0.4946850000000000    0.5454599999999999 H
   0.4396450000000000    0.0011800000000000    0.6563000000000000 H
   0.3819100000000000    0.2835850000000000    0.2781000000000000 H
   0.3863300000000000    0.1912450000000000    0.2645900000000000 H
   0.3648350000000000    0.2616350000000000    0.4672900000000000 H
   0.3876500000000000    0.1051100000000000    0.3092800000000000 H
   0.3682900000000000    0.0826550000000000    0.4983100000000000 H
   0.3618250000000000    0.1744250000000000    0.5114400000000000 H
   0.0483800000000000    0.4378650000000000    0.3148500000000000 H
   0.1236450000000000    0.4240350000000000    0.5169500000000000 H
   0.0308250000000000    0.4307400000000000    0.5049200000000000 H
   0.1341850000000000    0.4352900000000000    0.2685500000000000 H
   0.2276200000000000    0.4321600000000000    0.2805500000000000 H
   0.2095550000000000    0.4219200000000000    0.4707500000000000 H
   0.5521350000000000    0.4886350000000000    0.7337000000000000 H
   0.5493150000000000    0.4846300000000000    0.6225100000000000 H
   0.6684000000000000    0.1251300000000000    0.6198000000000000 H
   0.6660500000000000    0.1238850000000000    0.7300000000000000 H
   0.7401400000000000    0.0543200000000000    0.4513900000000000 H
   0.7438200000000000    0.0594450000000000    0.3394000000000000 H
   0.9889150000000000    0.0659900000000000    0.3323500000000000 H
   0.9859750000000000    0.0626050000000000    0.4437400000000000 H
   0.6832300000000000    0.1360400000000000    0.1661500000000000 H
   0.6850700000000001    0.1364900000000000    0.0543200000000000 H
   0.5664250000000000    0.0052850000000000    0.0455700000000000 H
   0.5602500000000000    0.4988000000000000    0.1564000000000000 H
   0.6181400000000000    0.2164650000000000    0.7781700000000000 H
   0.6137100000000000    0.3088150000000000    0.7645999999999999 H
   0.6351450000000000    0.2382700000000000    0.9672900000000000 H
   0.6123650000000000    0.3949100000000000    0.8093600000000000 H
   0.6316500000000000    0.4172250000000000    0.9983900000000000 H
   0.6381100000000000    0.3254500000000000    0.0115000000000000 H
   0.9516700000000000    0.0621250000000000    0.8148500000000000 H
   0.8762550000000000    0.0758600000000000    0.0169600000000000 H
   0.9690950000000000    0.0691750000000000    0.0000000000000000 H
   0.8658950000000001    0.0647000000000000    0.7685400000000000 H
   0.7724550000000000    0.0678300000000000    0.7805299999999999 H
   0.7903850000000000    0.0779950000000000    0.9707300000000000 H
   0.9478750000000000    0.0113100000000000    0.2335700000000000 H
   0.9506399999999999    0.0152750000000000    0.1223500000000000 H
   0.8315900000000001    0.3747550000000000    0.1199700000000000 H
   0.8339900000000000    0.3760350000000000    0.2321200000000000 H
   0.7598150000000000    0.4456200000000000    0.9514899999999999 H
   0.7561150000000000    0.4405400000000000    0.8395500000000000 H
   0.5110150000000000    0.4339500000000000    0.8322100000000000 H
   0.5139750000000000    0.4373150000000000    0.9435900000000000 H
   0.8167000000000000    0.3639150000000000    0.6662300000000000 H
   0.8148550000000000    0.3634450000000000    0.5544100000000000 H
   0.9334650000000000    0.4946850000000000    0.5454599999999999 H
   0.9396450000000001    0.0011800000000000    0.6563000000000000 H
   0.8819100000000000    0.2835850000000000    0.2781000000000000 H
   0.8863300000000001    0.1912450000000000    0.2645900000000000 H
   0.8648350000000000    0.2616350000000000    0.4672900000000000 H
   0.8876500000000001    0.1051100000000000    0.3092800000000000 H
   0.8682900000000000    0.0826550000000000    0.4983100000000000 H
   0.8618250000000001    0.1744250000000000    0.5114400000000000 H
   0.5483800000000000    0.4378650000000000    0.3148500000000000 H
   0.6236450000000000    0.4240350000000000    0.5169500000000000 H
   0.5308250000000000    0.4307400000000000    0.5049200000000000 H
   0.6341850000000000    0.4352900000000000    0.2685500000000000 H
   0.7276199999999999    0.4321600000000000    0.2805500000000000 H
   0.7095549999999999    0.4219200000000000    0.4707500000000000 H
   0.0521350000000000    0.9886349999999999    0.7337000000000000 H
   0.0493150000000000    0.9846300000000000    0.6225100000000000 H
   0.1684000000000000    0.6251300000000000    0.6198000000000000 H
   0.1660500000000000    0.6238850000000000    0.7300000000000000 H
   0.2401400000000000    0.5543200000000000    0.4513900000000000 H
   0.2438200000000000    0.5594450000000000    0.3394000000000000 H
   0.4889150000000000    0.5659900000000000    0.3323500000000000 H
   0.4859750000000000    0.5626050000000000    0.4437400000000000 H
   0.1832300000000000    0.6360399999999999    0.1661500000000000 H
   0.1850700000000000    0.6364900000000000    0.0543200000000000 H
   0.0664250000000000    0.5052850000000000    0.0455700000000000 H
   0.0602500000000000    0.9988000000000000    0.1564000000000000 H
   0.1181400000000000    0.7164650000000000    0.7781700000000000 H
   0.1137100000000000    0.8088150000000001    0.7645999999999999 H
   0.1351450000000000    0.7382700000000000    0.9672900000000000 H
   0.1123650000000000    0.8949100000000000    0.8093600000000000 H
   0.1316500000000000    0.9172250000000000    0.9983900000000000 H
   0.1381100000000000    0.8254500000000000    0.0115000000000000 H
   0.4516700000000000    0.5621250000000000    0.8148500000000000 H
   0.3762550000000000    0.5758600000000000    0.0169600000000000 H
   0.4690950000000000    0.5691750000000000    0.0000000000000000 H
   0.3658950000000000    0.5647000000000000    0.7685400000000000 H
   0.2724550000000000    0.5678300000000001    0.7805299999999999 H
   0.2903850000000000    0.5779950000000000    0.9707300000000000 H
   0.4478750000000000    0.5113100000000000    0.2335700000000000 H
   0.4506400000000000    0.5152750000000000    0.1223500000000000 H
   0.3315900000000000    0.8747549999999999    0.1199700000000000 H
   0.3339900000000000    0.8760350000000000    0.2321200000000000 H
   0.2598150000000000    0.9456200000000000    0.9514899999999999 H
   0.2561150000000000    0.9405399999999999    0.8395500000000000 H
   0.0110150000000000    0.9339500000000001    0.8322100000000000 H
   0.0139750000000000    0.9373150000000000    0.9435900000000000 H
   0.3167000000000000    0.8639150000000000    0.6662300000000000 H
   0.3148550000000000    0.8634450000000000    0.5544100000000000 H
   0.4334650000000000    0.9946850000000000    0.5454599999999999 H
   0.4396450000000000    0.5011800000000000    0.6563000000000000 H
   0.3819100000000000    0.7835850000000000    0.2781000000000000 H
   0.3863300000000000    0.6912450000000000    0.2645900000000000 H
   0.3648350000000000    0.7616350000000001    0.4672900000000000 H
   0.3876500000000000    0.6051100000000000    0.3092800000000000 H
   0.3682900000000000    0.5826550000000000    0.4983100000000000 H
   0.3618250000000000    0.6744250000000001    0.5114400000000000 H
   0.5521350000000000    0.9886349999999999    0.7337000000000000 H
   0.5493150000000000    0.9846300000000000    0.6225100000000000 H
   0.6684000000000000    0.6251300000000000    0.6198000000000000 H
   0.6660500000000000    0.6238850000000000    0.7300000000000000 H
   0.7401400000000000    0.5543200000000000    0.4513900000000000 H
   0.7438200000000000    0.5594450000000000    0.3394000000000000 H
   0.9889150000000000    0.5659900000000000    0.3323500000000000 H
   0.9859750000000000    0.5626050000000000    0.4437400000000000 H
   0.6832300000000000    0.6360399999999999    0.1661500000000000 H
   0.6850700000000001    0.6364900000000000    0.0543200000000000 H
   0.5664250000000000    0.5052850000000000    0.0455700000000000 H
   0.5602500000000000    0.9988000000000000    0.1564000000000000 H
   0.6181400000000000    0.7164650000000000    0.7781700000000000 H
   0.6137100000000000    0.8088150000000001    0.7645999999999999 H
   0.6351450000000000    0.7382700000000000    0.9672900000000000 H
   0.6123650000000000    0.8949100000000000    0.8093600000000000 H
   0.6316500000000000    0.9172250000000000    0.9983900000000000 H
   0.6381100000000000    0.8254500000000000    0.0115000000000000 H
   0.9516700000000000    0.5621250000000000    0.8148500000000000 H
   0.8762550000000000    0.5758600000000000    0.0169600000000000 H
   0.9690950000000000    0.5691750000000000    0.0000000000000000 H
   0.8658950000000001    0.5647000000000000    0.7685400000000000 H
   0.7724550000000000    0.5678300000000001    0.7805299999999999 H
   0.7903850000000000    0.5779950000000000    0.9707300000000000 H
   0.9478750000000000    0.5113100000000000    0.2335700000000000 H
   0.9506399999999999    0.5152750000000000    0.1223500000000000 H
   0.8315900000000001    0.8747549999999999    0.1199700000000000 H
   0.8339900000000000    0.8760350000000000    0.2321200000000000 H
   0.7598150000000000    0.9456200000000000    0.9514899999999999 H
   0.7561150000000000    0.9405399999999999    0.8395500000000000 H
   0.5110150000000000    0.9339500000000001    0.8322100000000000 H
   0.5139750000000000    0.9373150000000000    0.9435900000000000 H
   0.8167000000000000    0.8639150000000000    0.6662300000000000 H
   0.8148550000000000    0.8634450000000000    0.5544100000000000 H
   0.9334650000000000    0.9946850000000000    0.5454599999999999 H
   0.9396450000000001    0.5011800000000000    0.6563000000000000 H
   0.8819100000000000    0.7835850000000000    0.2781000000000000 H
   0.8863300000000001    0.6912450000000000    0.2645900000000000 H
   0.8648350000000000    0.7616350000000001    0.4672900000000000 H
   0.8876500000000001    0.6051100000000000    0.3092800000000000 H
   0.8682900000000000    0.5826550000000000    0.4983100000000000 H
   0.8618250000000001    0.6744250000000001    0.5114400000000000 H
   0.5483800000000000    0.9378649999999999    0.3148500000000000 H
   0.6236450000000000    0.9240349999999999    0.5169500000000000 H
   0.5308250000000000    0.9307400000000000    0.5049200000000000 H
   0.6341850000000000    0.9352900000000000    0.2685500000000000 H
   0.7276199999999999    0.9321600000000000    0.2805500000000000 H
   0.7095549999999999    0.9219200000000001    0.4707500000000000 H
   0.0773250000000000    0.0181650000000000    0.7069900000000000 C
   0.0758550000000000    0.0160300000000000    0.6449500000000000 C
   0.1089400000000000    0.0548200000000000    0.6129800000000000 C
   0.1421300000000000    0.0944450000000000    0.6437200000000000 C
   0.1412300000000000    0.0938350000000000    0.7056000000000000 C
   0.0627000000000000    0.0565200000000000    0.5186100000000000 C
   0.0663000000000000    0.0602450000000000    0.4528500000000000 C
   0.1139750000000000    0.0603300000000000    0.4234300000000000 C
   0.1594200000000000    0.0570150000000000    0.4555400000000000 C
   0.1581050000000000    0.0532100000000000    0.5212100000000000 C
   0.2057600000000000    0.0569350000000000    0.4256000000000000 C
   0.2078400000000000    0.0598500000000000    0.3632100000000000 C
   0.1635350000000000    0.0625050000000000    0.3305000000000000 C
   0.1160000000000000    0.0628150000000000    0.3599200000000000 C
   0.0702050000000000    0.0647850000000000    0.3276000000000000 C
   0.0240400000000000    0.0652250000000000    0.3575900000000000 C
   0.0221950000000000    0.0631500000000000    0.4201200000000000 C
   0.0707400000000000    0.0656250000000000    0.2617000000000000 C
   0.1666666666666667    0.0643100000000000    0.2647700000000000 C
   0.1214450000000000    0.0672500000000000    0.1698300000000000 C
   0.1568300000000000    0.1064600000000000    0.1409500000000000 C
   0.1580250000000000    0.1068250000000000    0.0789600000000000 C
   0.0918400000000000    0.0332750000000000    0.0738600000000000 C
   0.0884450000000000    0.0299600000000000    0.1357200000000000 C
   0.1273450000000000    0.1661300000000000    0.8811700000000000 C
   0.1270300000000000    0.2223450000000000    0.8738899999999999 C
   0.1212300000000000    0.2425450000000000    0.8161600000000000 C
   0.1187300000000000    0.2934850000000000    0.8089400000000000 C
   0.1220000000000000    0.3270400000000000    0.8589200000000000 C
   0.1288500000000000    0.3069850000000000    0.9173000000000000 C
   0.1309800000000000    0.2543550000000000    0.9232399999999999 C
   0.1179400000000000    0.3791900000000000    0.8532600000000000 C
   0.1208500000000000    0.4108950000000000    0.9028000000000000 C
   0.1287950000000000    0.3912450000000000    0.9603300000000000 C
   0.1325250000000000    0.3406200000000000    0.9672500000000001 C
   0.1160100000000000    0.4659650000000000    0.8963100000000001 C
   0.0203100000000000    0.0598350000000000    0.9022300000000000 C
   0.4649700000000000    0.0646200000000000    0.9088300000000000 C
   0.4344400000000000    0.0649100000000000    0.8586400000000000 C
   0.3818900000000000    0.0685950000000000    0.8635699999999999 C
   0.3603800000000000    0.0724550000000000    0.9219400000000000 C
   0.3927650000000000    0.0726700000000000    0.9727600000000000 C
   0.4437900000000000    0.0688950000000000    0.9664300000000000 C
   0.3494000000000000    0.0676250000000000    0.8127900000000000 C
   0.2979400000000000    0.0697200000000000    0.8190800000000000 C
   0.2766750000000000    0.0737350000000000    0.8766600000000000 C
   0.3075850000000000    0.0752650000000000    0.9269100000000000 C
   0.2202250000000000    0.0747100000000000    0.8831000000000000 C
   0.4226800000000000    0.4817650000000000    0.2069000000000000 C
   0.4241200000000000    0.4838800000000000    0.1448600000000000 C
   0.3910250000000000    0.4450750000000000    0.1129000000000000 C
   0.3578600000000000    0.4054550000000000    0.1437800000000000 C
   0.3587900000000000    0.4060800000000000    0.2056600000000000 C
   0.4372550000000000    0.4434050000000000    0.0185600000000000 C
   0.4336500000000000    0.4396750000000000    0.9527900000000000 C
   0.3859700000000000    0.4396000000000000    0.9234100000000000 C
   0.3405300000000000    0.4429100000000000    0.9555600000000000 C
   0.3418550000000000    0.4467150000000000    0.0212400000000000 C
   0.2941900000000000    0.4430100000000000    0.9256700000000000 C
   0.2921000000000000    0.4401100000000000    0.8632800000000000 C
   0.3364000000000000    0.4374550000000000    0.8305000000000000 C
   0.3839350000000000    0.4371300000000000    0.8599000000000000 C
   0.4297250000000000    0.4351650000000000    0.8275400000000001 C
   0.4758950000000000    0.4347150000000000    0.8574800000000000 C
   0.4777500000000000    0.4367800000000000    0.9200100000000000 C
   0.4291850000000000    0.4343400000000000    0.7616000000000001 C
   0.3332800000000000    0.4356650000000000    0.7647900000000000 C
   0.3784750000000000    0.4327150000000000    0.6698200000000000 C
   0.3430900000000000    0.3934950000000000    0.6409899999999999 C
   0.3418950000000000    0.3931200000000000    0.5790000000000000 C
   0.4080600000000000    0.4666850000000000    0.5738000000000000 C
   0.4114600000000000    0.4700100000000000    0.6356500000000000 C
   0.3726650000000000    0.3338400000000000    0.3811000000000000 C
   0.3729850000000000    0.2776350000000000    0.3738900000000000 C
   0.3788050000000000    0.2574750000000000    0.3161400000000000 C
   0.3812950000000000    0.2065400000000000    0.3089000000000000 C
   0.3780000000000000    0.1729450000000000    0.3588700000000000 C
   0.3711350000000000    0.1929600000000000    0.4172000000000000 C
   0.3690100000000000    0.2455850000000000    0.4232200000000000 C
   0.3820600000000000    0.1207950000000000    0.3531900000000000 C
   0.3791350000000000    0.0890550000000000    0.4027500000000000 C
   0.3711600000000000    0.1086650000000000    0.4602500000000000 C
   0.3674350000000000    0.1592800000000000    0.4672000000000000 C
   0.3839850000000000    0.0339950000000000    0.3962200000000000 C
   0.4796800000000000    0.4401300000000000    0.4022400000000000 C
   0.0350150000000000    0.4353350000000000    0.4088300000000000 C
   0.0655800000000000    0.4350550000000000    0.3586500000000000 C
   0.1181250000000000    0.4313650000000000    0.3635800000000000 C
   0.1395950000000000    0.4274800000000000    0.4219500000000000 C
   0.1071750000000000    0.4272450000000000    0.4727000000000000 C
   0.0561550000000000    0.4310300000000000    0.4664300000000000 C
   0.1506500000000000    0.4323500000000000    0.3128000000000000 C
   0.2021050000000000    0.4302500000000000    0.3191000000000000 C
   0.2233350000000000    0.4262250000000000    0.3766000000000000 C
   0.1923850000000000    0.4246650000000000    0.4269000000000000 C
   0.2797800000000000    0.4252600000000000    0.3831900000000000 C
   0.5773250000000000    0.0181650000000000    0.7069900000000000 C
   0.5758550000000000    0.0160300000000000    0.6449500000000000 C
   0.6089400000000000    0.0548200000000000    0.6129800000000000 C
   0.6421300000000000    0.0944450000000000    0.6437200000000000 C
   0.6412300000000000    0.0938350000000000    0.7056000000000000 C
   0.5627000000000000    0.0565200000000000    0.5186100000000000 C
   0.5663000000000000    0.0602450000000000    0.4528500000000000 C
   0.6139750000000000    0.0603300000000000    0.4234300000000000 C
   0.6594200000000000    0.0570150000000000    0.4555400000000000 C
   0.6581049999999999    0.0532100000000000    0.5212100000000000 C
   0.7057599999999999    0.0569350000000000    0.4256000000000000 C
   0.7078400000000000    0.0598500000000000    0.3632100000000000 C
   0.6635350000000000    0.0625050000000000    0.3305000000000000 C
   0.6160000000000000    0.0628150000000000    0.3599200000000000 C
   0.5702050000000000    0.0647850000000000    0.3276000000000000 C
   0.5240400000000000    0.0652250000000000    0.3575900000000000 C
   0.5221950000000000    0.0631500000000000    0.4201200000000000 C
   0.5707400000000000    0.0656250000000000    0.2617000000000000 C
   0.6666666666666666    0.0643100000000000    0.2647700000000000 C
   0.6214450000000000    0.0672500000000000    0.1698300000000000 C
   0.6568300000000000    0.1064600000000000    0.1409500000000000 C
   0.6580250000000000    0.1068250000000000    0.0789600000000000 C
   0.5918400000000000    0.0332750000000000    0.0738600000000000 C
   0.5884450000000000    0.0299600000000000    0.1357200000000000 C
   0.6273450000000000    0.1661300000000000    0.8811700000000000 C
   0.6270300000000000    0.2223450000000000    0.8738899999999999 C
   0.6212299999999999    0.2425450000000000    0.8161600000000000 C
   0.6187300000000000    0.2934850000000000    0.8089400000000000 C
   0.6220000000000000    0.3270400000000000    0.8589200000000000 C
   0.6288500000000000    0.3069850000000000    0.9173000000000000 C
   0.6309800000000000    0.2543550000000000    0.9232399999999999 C
   0.6179400000000000    0.3791900000000000    0.8532600000000000 C
   0.6208500000000000    0.4108950000000000    0.9028000000000000 C
   0.6287950000000000    0.3912450000000000    0.9603300000000000 C
   0.6325250000000000    0.3406200000000000    0.9672500000000001 C
   0.6160099999999999    0.4659650000000000    0.8963100000000001 C
   0.5203100000000001    0.0598350000000000    0.9022300000000000 C
   0.9649700000000000    0.0646200000000000    0.9088300000000000 C
   0.9344399999999999    0.0649100000000000    0.8586400000000000 C
   0.8818900000000001    0.0685950000000000    0.8635699999999999 C
   0.8603799999999999    0.0724550000000000    0.9219400000000000 C
   0.8927650000000000    0.0726700000000000    0.9727600000000000 C
   0.9437900000000000    0.0688950000000000    0.9664300000000000 C
   0.8493999999999999    0.0676250000000000    0.8127900000000000 C
   0.7979400000000000    0.0697200000000000    0.8190800000000000 C
   0.7766750000000000    0.0737350000000000    0.8766600000000000 C
   0.8075850000000000    0.0752650000000000    0.9269100000000000 C
   0.7202250000000000    0.0747100000000000    0.8831000000000000 C
   0.9226799999999999    0.4817650000000000    0.2069000000000000 C
   0.9241200000000001    0.4838800000000000    0.1448600000000000 C
   0.8910250000000000    0.4450750000000000    0.1129000000000000 C
   0.8578600000000001    0.4054550000000000    0.1437800000000000 C
   0.8587899999999999    0.4060800000000000    0.2056600000000000 C
   0.9372549999999999    0.4434050000000000    0.0185600000000000 C
   0.9336500000000000    0.4396750000000000    0.9527900000000000 C
   0.8859699999999999    0.4396000000000000    0.9234100000000000 C
   0.8405300000000000    0.4429100000000000    0.9555600000000000 C
   0.8418550000000000    0.4467150000000000    0.0212400000000000 C
   0.7941900000000000    0.4430100000000000    0.9256700000000000 C
   0.7921000000000000    0.4401100000000000    0.8632800000000000 C
   0.8364000000000000    0.4374550000000000    0.8305000000000000 C
   0.8839350000000000    0.4371300000000000    0.8599000000000000 C
   0.9297250000000000    0.4351650000000000    0.8275400000000001 C
   0.9758950000000000    0.4347150000000000    0.8574800000000000 C
   0.9777500000000000    0.4367800000000000    0.9200100000000000 C
   0.9291849999999999    0.4343400000000000    0.7616000000000001 C
   0.8332800000000000    0.4356650000000000    0.7647900000000000 C
   0.8784750000000000    0.4327150000000000    0.6698200000000000 C
   0.8430900000000000    0.3934950000000000    0.6409899999999999 C
   0.8418950000000001    0.3931200000000000    0.5790000000000000 C
   0.9080600000000000    0.4666850000000000    0.5738000000000000 C
   0.9114599999999999    0.4700100000000000    0.6356500000000000 C
   0.8726650000000000    0.3338400000000000    0.3811000000000000 C
   0.8729850000000000    0.2776350000000000    0.3738900000000000 C
   0.8788050000000001    0.2574750000000000    0.3161400000000000 C
   0.8812949999999999    0.2065400000000000    0.3089000000000000 C
   0.8780000000000000    0.1729450000000000    0.3588700000000000 C
   0.8711350000000000    0.1929600000000000    0.4172000000000000 C
   0.8690100000000001    0.2455850000000000    0.4232200000000000 C
   0.8820600000000001    0.1207950000000000    0.3531900000000000 C
   0.8791350000000000    0.0890550000000000    0.4027500000000000 C
   0.8711599999999999    0.1086650000000000    0.4602500000000000 C
   0.8674350000000000    0.1592800000000000    0.4672000000000000 C
   0.8839850000000000    0.0339950000000000    0.3962200000000000 C
   0.9796800000000000    0.4401300000000000    0.4022400000000000 C
   0.5350150000000000    0.4353350000000000    0.4088300000000000 C
   0.5655800000000000    0.4350550000000000    0.3586500000000000 C
   0.6181250000000000    0.4313650000000000    0.3635800000000000 C
   0.6395950000000000    0.4274800000000000    0.4219500000000000 C
   0.6071750000000000    0.4272450000000000    0.4727000000000000 C
   0.5561550000000000    0.4310300000000000    0.4664300000000000 C
   0.6506500000000000    0.4323500000000000    0.3128000000000000 C
   0.7021050000000000    0.4302500000000000    0.3191000000000000 C
   0.7233350000000001    0.4262250000000000    0.3766000000000000 C
   0.6923850000000000    0.4246650000000000    0.4269000000000000 C
   0.7797799999999999    0.4252600000000000    0.3831900000000000 C
   0.0773250000000000    0.5181650000000000    0.7069900000000000 C
   0.0758550000000000    0.5160300000000000    0.6449500000000000 C
   0.1089400000000000    0.5548200000000000    0.6129800000000000 C
   0.1421300000000000    0.5944450000000000    0.6437200000000000 C
   0.1412300000000000    0.5938350000000000    0.7056000000000000 C
   0.0627000000000000    0.5565200000000000    0.5186100000000000 C
   0.0663000000000000    0.5602450000000000    0.4528500000000000 C
   0.1139750000000000    0.5603300000000000    0.4234300000000000 C
   0.1594200000000000    0.5570150000000000    0.4555400000000000 C
   0.1581050000000000    0.5532100000000000    0.5212100000000000 C
   0.2057600000000000    0.5569350000000000    0.4256000000000000 C
   0.2078400000000000    0.5598500000000000    0.3632100000000000 C
   0.1635350000000000    0.5625050000000000    0.3305000000000000 C
   0.1160000000000000    0.5628150000000000    0.3599200000000000 C
   0.0702050000000000    0.5647850000000000    0.3276000000000000 C
   0.0240400000000000    0.5652250000000000    0.3575900000000000 C
   0.0221950000000000    0.5631500000000000    0.4201200000000000 C
   0.0707400000000000    0.5656250000000000    0.2617000000000000 C
   0.1666666666666667    0.5643100000000000    0.2647700000000000 C
   0.1214450000000000    0.5672500000000000    0.1698300000000000 C
   0.1568300000000000    0.6064600000000000    0.1409500000000000 C
   0.1580250000000000    0.6068249999999999    0.0789600000000000 C
   0.0918400000000000    0.5332749999999999    0.0738600000000000 C
   0.0884450000000000    0.5299600000000000    0.1357200000000000 C
   0.1273450000000000    0.6661300000000000    0.8811700000000000 C
   0.1270300000000000    0.7223450000000000    0.8738899999999999 C
   0.1212300000000000    0.7425450000000000    0.8161600000000000 C
   0.1187300000000000    0.7934850000000000    0.8089400000000000 C
   0.1220000000000000    0.8270400000000000    0.8589200000000000 C
   0.1288500000000000    0.8069850000000001    0.9173000000000000 C
   0.1309800000000000    0.7543550000000000    0.9232399999999999 C
   0.1179400000000000    0.8791900000000000    0.8532600000000000 C
   0.1208500000000000    0.9108950000000000    0.9028000000000000 C
   0.1287950000000000    0.8912450000000001    0.9603300000000000 C
   0.1325250000000000    0.8406199999999999    0.9672500000000001 C
   0.1160100000000000    0.9659650000000000    0.8963100000000001 C
   0.0203100000000000    0.5598350000000000    0.9022300000000000 C
   0.4649700000000000    0.5646200000000000    0.9088300000000000 C
   0.4344400000000000    0.5649100000000000    0.8586400000000000 C
   0.3818900000000000    0.5685950000000000    0.8635699999999999 C
   0.3603800000000000    0.5724550000000000    0.9219400000000000 C
   0.3927650000000000    0.5726700000000000    0.9727600000000000 C
   0.4437900000000000    0.5688950000000000    0.9664300000000000 C