Zn4 H44 C54 Br4 N4 O16
1.0
  22.2070000000000007    0.0000000000000000    0.0000000000000014
   0.0000000000000023   14.0079999999999991    0.0000000000000009
   0.0000000000000000    0.0000000000000000   16.1750000000000007
Zn H C Br N O
4 44 54 4 4 16
direct
   0.2499900000000000    0.9015700000000000    0.0000000000000000 Zn
   0.7500100000000000    0.0984300000000000    0.9999900000000000 Zn
   0.7500000000000000    0.9016200000000000    0.9999900000000000 Zn
   0.2500000000000000    0.0983700000000000    0.9999900000000000 Zn
   0.6710869992592466    0.1406872809147554    1.1098897985670109 H
   0.6709622755627592    0.8554848020424493    1.1100340549891903 H
   0.6666018388672499   -0.0024272789064586    1.1161201712508813 H
   0.3289290487972297    0.1406619764257589    1.1099041316063245 H
   0.3290235969207344    0.8554508203968234    0.1100201992481420 H
   0.3334007188428065    0.9975561645408795    0.1161223128192370 H
   0.6710744511351407    0.8593629426272198    0.8901130621492359 H
   0.6709663920280287    0.1445582502235798    0.8899674382936682 H
   0.6665910320764658    1.0024713645430579    0.8838743664129632 H
   0.1523500000000000    0.4289200000000000    0.0005800000000000 H
   0.3475600000000000    0.4289600000000000    0.9994000000000000 H
   0.3430000000000000    0.2521800000000000    0.9992000000000000 H
   0.1569500000000000    0.2521300000000000    0.0006900000000000 H
   0.1523500000000000    0.5710499999999999    0.9994000000000000 H
   0.3475700000000000    0.5710100000000000    0.0005900000000000 H
   0.1569500000000000    0.7478399999999999    0.9993200000000000 H
   0.3430000000000000    0.7477900000000000    0.0007200000000000 H
   0.8719400000000000    0.1514600000000000    0.7966500000000000 H
   0.9308800000000000    0.1527100000000000    0.6649000000000000 H
   0.8722000000000000    0.8456700000000000    0.7958000000000000 H
   0.9311400000000000    0.8456700000000000    0.6640400000000000 H
   0.8722000000000000    0.1543500000000000    0.2042100000000000 H
   0.9311400000000000    0.1543500000000000    0.3359800000000000 H
   0.8719200000000000    0.8485600000000000    0.2033800000000000 H
   0.9308500000000000    0.8473100000000000    0.3351400000000000 H
   0.1278200000000000    0.1544000000000000    0.2041800000000000 H
   0.0688800000000000    0.1544500000000000    0.3359400000000000 H
   0.1280600000000000    0.8486100000000000    0.2034000000000000 H
   0.0691100000000000    0.8474200000000000    0.3351500000000000 H
   0.1281300000000000    0.1514700000000000    0.7966500000000000 H
   0.0692000000000000    0.1527800000000000    0.6648900000000000 H
   0.1277700000000000    0.8456800000000000    0.7957700000000000 H
   0.0688300000000000    0.8457400000000000    0.6640100000000000 H
   0.6524400000000000    0.5710400000000000    0.0007500000000000 H
   0.8476500000000000    0.5710900000000000    0.9992500000000000 H
   0.6570000000000000    0.7478200000000000    0.0008400000000000 H
   0.8430500000000000    0.7478800000000000    0.9991700000000000 H
   0.6524400000000000    0.4290000000000000    0.9992300000000000 H
   0.8476500000000000    0.4289500000000000    0.0007500000000000 H
   0.8430500000000000    0.2521600000000000    0.0008400000000000 H
   0.6570000000000000    0.2522200000000000    0.9991400000000000 H
   0.3289238839673379    0.8593609992971197   -0.1098746072356004 H
   0.3290443191253771    0.1445486809170660    0.8899694223650421 H
   0.3334118488883718    0.0024804670501350    0.8838842937732978 H
   0.1961400000000000    0.3941600000000000    0.0003000000000000 C
   0.3037900000000000    0.3941800000000000    0.9996699999999999 C
   0.3020600000000000    0.2951100000000000    0.9996600000000000 C
   0.1978900000000000    0.2950800000000000    0.0003400000000000 C
   0.2499600000000000    0.4469900000000000    0.9999900000000000 C
   0.1961400000000000    0.6058100000000000    0.9996800000000000 C
   0.3037900000000000    0.6057900000000001    0.0003200000000000 C
   0.1978900000000000    0.7048900000000000    0.9996500000000000 C
   0.3020600000000000    0.7048700000000000    0.0003000000000000 C
   0.2499600000000000    0.5529800000000000    0.0000000000000000 C
   0.8304300000000000    0.0018100000000000    0.1194300000000000 C
   0.8304300000000000    0.9981900000000000    0.8805800000000000 C
   0.1695800000000000    0.0018200000000000    0.1194400000000000 C
   0.1695900000000000    0.9981800000000000    0.8804999999999999 C
   0.8857300000000000    0.0849500000000000    0.7673800000000000 C
   0.9184400000000000    0.0853000000000000    0.6939900000000000 C
   0.8858700000000000    0.9124600000000000    0.7669100000000000 C
   0.9185900000000000    0.9127999999999999    0.6935100000000000 C
   0.8688300000000000    0.9985200000000000    0.8043000000000000 C
   0.9348000000000000    0.9992100000000000    0.6559800000000000 C
   0.8858600000000000    0.0875600000000000    0.2331100000000000 C
   0.9185800000000000    0.0872200000000000    0.3065100000000000 C
   0.8857000000000000    0.9150700000000001    0.2326500000000000 C
   0.9184200000000000    0.9147200000000000    0.3060400000000000 C
   0.8688100000000000    0.0014800000000000    0.1957300000000000 C
   0.9347800000000001    0.0007800000000000    0.3440500000000000 C
   0.1141400000000000    0.0876200000000000    0.2330800000000000 C
   0.0814200000000000    0.0873100000000000    0.3064800000000000 C
   0.1142700000000000    0.9151300000000000    0.2326500000000000 C
   0.0815500000000000    0.9148100000000000    0.3060400000000000 C
   0.1311700000000000    0.0015200000000000    0.1957100000000000 C
   0.0652100000000000    0.0008800000000000    0.3440400000000000 C
   0.1143200000000000    0.0849800000000000    0.7673800000000000 C
   0.0816100000000000    0.0853600000000000    0.6939800000000000 C
   0.1141200000000000    0.9124800000000000    0.7668900000000000 C
   0.0814000000000000    0.9128600000000000    0.6934900000000001 C
   0.1311800000000000    0.9985300000000000    0.8043000000000000 C
   0.0652300000000000    0.9992900000000000    0.6559600000000000 C
   0.0621300000000000    0.0001500000000000    0.5000000000000000 C
   0.0317800000000000    0.0005000000000000    0.4239100000000000 C
   0.0317900000000000    0.9996900000000000    0.5760999999999999 C
   0.9378700000000000    0.9999700000000000    0.5000100000000000 C
   0.9682200000000000    0.0004100000000000    0.4239200000000000 C
   0.9682300000000000    0.9996100000000000    0.5760999999999999 C
   0.6962200000000000    0.6058200000000000    0.0004000000000000 C
   0.8038700000000000    0.6058500000000000    0.9996000000000000 C
   0.6979500000000000    0.7049000000000000    0.0004200000000000 C
   0.8021100000000000    0.7049200000000000    0.9995800000000000 C
   0.7500500000000000    0.5530200000000000    0.0000000000000000 C
   0.6962200000000000    0.3942200000000000    0.9995000000000001 C
   0.8038700000000000    0.3941900000000000    0.0004000000000000 C
   0.8021200000000001    0.2951200000000000    0.0000000000000000 C
   0.6979500000000000    0.2951400000000000    0.9995600000000000 C
   0.7500500000000000    0.4470200000000000    0.9999900000000000 C
   0.8512300000000000    0.9998400000000000    0.5000200000000000 Br
   0.1487800000000000    0.0003000000000000    0.4999900000000000 Br
   0.6487800000000000    0.0001800000000000    0.4999900000000000 Br
   0.3512300000000000    0.9997000000000000    0.5000300000000000 Br
   0.2499800000000000    0.2460100000000000    0.9999900000000000 N
   0.2499800000000000    0.7539600000000000    0.0000000000000000 N
   0.7500300000000000    0.7539900000000000    0.0000000000000000 N
   0.7500300000000000    0.2460500000000000    0.9999900000000000 N
   0.6851300000000000    0.0791300000000000    1.0903300000000000 O
   0.6849600000000000    0.9171000000000000    1.0905499999999999 O
   0.3148800000000000    0.0791100000000000    1.0903399999999999 O
   0.3150300000000000    0.9170700000000001    0.0905400000000000 O
   0.6851300000000000    0.9209100000000000    0.9096800000000000 O
   0.6849700000000000    0.0829500000000000    0.9094600000000000 O
   0.8148800000000000    0.9209000000000001    0.0903300000000000 O
   0.8150400000000000    0.0829400000000000    0.0905500000000000 O
   0.8150400000000000    0.9170900000000000    0.9094700000000000 O
   0.8148900000000000    0.0791300000000000    0.9096800000000000 O
   0.1851100000000000    0.9209100000000000    0.0903400000000000 O
   0.1849600000000000    0.0829400000000000    0.0905400000000000 O
   0.1849600000000000    0.9170800000000000    0.9094700000000000 O
   0.1851200000000000    0.0791100000000000    0.9096900000000000 O
   0.3148700000000000    0.9209100000000000   -0.0903100000000000 O
   0.3150400000000000    0.0829400000000000    0.9094600000000000 O
