H4 O2
1.0
  22.2070000000000007    0.0000000000000000    0.0000000000000014
   0.0000000000000023   14.0079999999999991    0.0000000000000009
   0.0000000000000000    0.0000000000000000   16.1750000000000007
H O
4 2
direct
   0.7879096153829098    0.7182996634631454   -0.0003054807692170 H
   0.7121544147309399    0.7182889154981152    0.0003054482682989 H
   0.7121544379924709    0.2817510625758372    0.9996772793459440 H
   0.7879119961982221    0.2817357276530381    0.9999972724124013 H
   0.7500300000000000    0.7539900000000000    0.0000000000000000 O
   0.7500300000000000    0.2460500000000000    0.9999900000000000 O
