H8 C10 N2
1.0
  22.2070000000000007    0.0000000000000000    0.0000000000000014
   0.0000000000000023   14.0079999999999991    0.0000000000000009
   0.0000000000000000    0.0000000000000000   16.1750000000000007
H C N
8 10 2
direct
   0.8430500000000000    0.7478800000000000    0.9991700000000000 H
   0.8476500000000000    0.5710900000000000    0.9992500000000000 H
   0.6570000000000000    0.2522200000000000    0.9991400000000000 H
   0.6524400000000000    0.4290000000000000    0.9992300000000000 H
   0.6570000000000000    0.7478200000000000    0.0008400000000000 H
   0.6524400000000000    0.5710400000000000    0.0007500000000000 H
   0.8430500000000000    0.2521600000000000    0.0008400000000000 H
   0.8476500000000000    0.4289500000000000    0.0007500000000000 H
   0.7500500000000000    0.5530200000000000    0.0000000000000000 C
   0.7500500000000000    0.4470200000000000    0.9999900000000000 C
   0.8021100000000000    0.7049200000000000    0.9995800000000000 C
   0.8038700000000000    0.6058500000000000    0.9996000000000000 C
   0.6979500000000000    0.2951400000000000    0.9995600000000000 C
   0.6962200000000000    0.3942200000000000    0.9995000000000001 C
   0.6979500000000000    0.7049000000000000    0.0004200000000000 C
   0.6962200000000000    0.6058200000000000    0.0004000000000000 C
   0.8021200000000001    0.2951200000000000    0.0000000000000000 C
   0.8038700000000000    0.3941900000000000    0.0004000000000000 C
   0.7500300000000000    0.7539900000000000    0.0000000000000000 N
   0.7500300000000000    0.2460500000000000    0.9999900000000000 N
