H4 O4
1.0
  33.7699993776407155    0.0000000000000000   -0.0064833745325512
  -0.0030259646425655   34.6749998679673794    0.0000000000000021
   0.0000000000000000    0.0000000000000000   34.8299999999999983
H O
4 4
direct
   0.9996202998223067    0.8584606190756474    0.3413943368892020 H
   0.7996233004250330    0.6584638141863625    0.8586461918397454 H
   0.5996202998223067    0.0584606190756473    0.7413943368892021 H
   0.1996133004427976    0.1415510267195549    0.7413966485101516 H
   0.9998220000000001    0.8386840000000001    0.3614360000000000 O
   0.7998300000000000    0.6386940000000001    0.8385980000000001 O
   0.5998220000000001    0.0386840000000000    0.7614360000000001 O
   0.1998100000000000    0.1613260000000000    0.7614400000000001 O
