In12 H328 C230 O96
1.0
  25.4143969869037960    0.0000000000000000   -0.0123754618229127
   6.3344720344469820   11.0972571821188914   -0.0512940417573711
   0.0000000000000000    0.0000000000000000   36.8920000000000030
In H C O
12 328 230 96
direct
   0.8151150000000000    0.3692700000000000    0.4169250000000000 In
   0.4997000000000000    0.6304900000000000    0.7499350000000000 In
   0.6849400000000000    0.9999300000000000    0.0830250000000000 In
   0.3151150000000000    0.3692700000000000    0.4169250000000000 In
   0.9997000000000000    0.6304900000000000    0.7499350000000000 In
   0.1849400000000000    0.9999300000000000    0.0830250000000000 In
   0.3151150000000000    0.3692700000000000    0.9169250000000000 In
   0.9997000000000000    0.6304900000000000    0.2499350000000000 In
   0.1849400000000000    0.9999300000000000    0.5830250000000000 In
   0.4997000000000000    0.6304900000000000    0.2499350000000000 In
   0.8151150000000000    0.3692700000000000    0.9169250000000000 In
   0.6849400000000000    0.9999300000000000    0.5830250000000000 In
   0.8712640833337062    0.0956244711469722    0.4352408358387701 H
   0.7040362240070951    0.3177430973975705    0.4046790836243990 H
   0.7854512263064856    0.1987428378989745    0.4199975614792977 H
   0.6500850000000000    0.5787099999999999    0.3352900000000000 H
   0.6220750000000000    0.4846800000000000    0.3183800000000000 H
   0.6824700000000000    0.4277200000000000    0.3500300000000000 H
   0.6853700000000000    0.3106500000000000    0.2758800000000000 H
   0.7600800000000000    0.2763900000000000    0.2638550000000000 H
   0.7437900000000000    0.2566400000000000    0.3093100000000000 H
   0.6509050000000001    0.7034400000000000    0.2913400000000000 H
   0.6927900000000000    0.6929800000000000    0.2520700000000000 H
   0.7137050000000000    0.4054700000000000    0.2169550000000000 H
   0.7662000000000000    0.4534800000000000    0.2300950000000000 H
   0.7004450000000000    0.5511000000000000    0.2052300000000000 H
   0.7412449999999999    0.6329200000000000    0.3242700000000000 H
   0.7858250000000000    0.5908400000000000    0.2845600000000000 H
   0.8023700000000000    0.3952600000000000    0.2857800000000000 H
   0.7105800000000000    0.6976300000000000    0.5000000000000000 H
   0.7579500000000000    0.7536900000000000    0.5145600000000000 H
   0.7866100000000000    0.6320600000000000    0.4832350000000000 H
   0.8451800000000000    0.6293900000000000    0.5570200000000000 H
   0.8620850000000000    0.4815300000000000    0.5695450000000000 H
   0.8722700000000000    0.5115900000000000    0.5239050000000000 H
   0.6475400000000000    0.6986700000000000    0.5423750000000001 H
   0.6522650000000000    0.6176900000000000    0.5819850000000000 H
   0.7970100000000000    0.5761600000000000    0.6164400000000000 H
   0.7726150000000001    0.4716600000000000    0.6038500000000000 H
   0.7236350000000000    0.6037500000000000    0.6285050000000000 H
   0.6828300000000000    0.5172300000000000    0.5100850000000000 H
   0.7036650000000000    0.4307500000000000    0.5500750000000000 H
   0.8028500000000001    0.3971300000000000    0.5483850000000000 H
   0.4395300000000000    0.4210400000000000    0.8317850000000000 H
   0.3645850000000000    0.5148700000000000    0.8486000000000000 H
   0.3964750000000000    0.5718600000000000    0.8169150000000001 H
   0.3407550000000000    0.6894100000000000    0.8909650000000000 H
   0.3982050000000000    0.7243000000000001    0.9029550000000000 H
   0.3721200000000000    0.7434400000000000    0.8574900000000000 H
   0.5024950000000000    0.2971900000000000    0.8757500000000000 H
   0.5391100000000000    0.3079000000000000    0.9150400000000001 H
   0.4164650000000000    0.5955700000000000    0.9499750000000000 H
   0.4928050000000000    0.5479900000000000    0.9368099999999999 H
   0.4760050000000000    0.4502500000000000    0.9618050000000000 H
   0.5576150000000000    0.3678900000000000    0.8428650000000000 H
   0.5809650000000000    0.4105600000000000    0.8825799999999999 H
   0.5000000000000000    0.6053700000000000    0.8812150000000001 H
   0.5597799999999999    0.3002400000000000    0.6682650000000000 H
   0.6350550000000000    0.2450200000000000    0.6519250000000000 H
   0.6028800000000000    0.3660100000000000    0.6834850000000000 H
   0.6599850000000000    0.3707200000000000    0.6098150000000000 H
   0.6029700000000000    0.5187100000000000    0.5975750000000000 H
   0.6282850000000000    0.4876900000000000    0.6431850000000000 H
   0.4975100000000000    0.2994600000000000    0.6238650000000000 H
   0.4615450000000000    0.3814400000000000    0.5844450000000000 H
   0.5850250000000000    0.4253200000000000    0.5503550000000000 H
   0.5085100000000000    0.5289300000000000    0.5631100000000000 H
   0.5255850000000000    0.3973800000000000    0.5380900000000000 H
   0.4422250000000000    0.4798700000000000    0.6566350000000000 H
   0.4194950000000000    0.5674400000000001    0.6168600000000000 H
   0.5016650000000000    0.6018700000000000    0.6186300000000000 H
   0.8503600000000000    0.8795800000000000    0.1649300000000000 H
   0.8772100000000000    0.7303600000000000    0.1812100000000000 H
   0.8168750000000000    0.7947700000000000    0.1495500000000000 H
   0.8127500000000000    0.6833300000000000    0.2232650000000000 H
   0.7382950000000000    0.7980000000000000    0.2352300000000000 H
   0.7546700000000000    0.7462500000000000    0.1896750000000000 H
   0.8505800000000000    0.0041800000000000    0.2095550000000000 H
   0.8087000000000000    0.0767200000000000    0.2488800000000000 H
   0.7853300000000000    0.8327500000000000    0.2826300000000000 H
   0.7337650000000000    0.9849100000000000    0.2698900000000000 H
   0.7996449999999999    0.9506100000000000    0.2950450000000000 H
   0.7606550000000001    0.1141300000000000    0.1764650000000000 H
   0.7158650000000000    0.1611000000000000    0.2160850000000000 H
   0.6977350000000000    0.9986800000000000    0.2142300000000000 H
   0.7899000000000000    0.1197500000000000    0.0013900000000000 H
   0.7423649999999999    0.2689800000000000    0.9851099999999999 H
   0.7140850000000000    0.2044900000000000    0.0166550000000000 H
   0.6547300000000000    0.3159600000000000    0.9428500000000000 H
   0.6374600000000000    0.2013300000000000    0.9307500000000000 H
   0.6278450000000000    0.2530800000000000    0.9763200000000001 H
   0.8524550000000000    0.9947600000000000    0.9568000000000000 H
   0.8467000000000000    0.9226700000000000    0.9173650000000000 H
   0.7020450000000000    0.1672600000000000    0.8835100000000000 H
   0.7261550000000000    0.0150400000000000    0.8960800000000000 H
   0.7751350000000000    0.0493500000000000    0.8711800000000001 H
   0.8171349999999999    0.8848900000000000    0.9896650000000000 H
   0.7957850000000000    0.8382400000000000    0.9499500000000001 H
   0.6966850000000000    0.0007700000000000    0.9518300000000000 H
   0.1500850000000000    0.5787099999999999    0.3352900000000000 H
   0.1220750000000000    0.4846800000000000    0.3183800000000000 H
   0.1824700000000000    0.4277200000000000    0.3500300000000000 H
   0.1853700000000000    0.3106500000000000    0.2758800000000000 H
   0.2600800000000000    0.2763900000000000    0.2638550000000000 H
   0.2437900000000000    0.2566400000000000    0.3093100000000000 H
   0.1509050000000000    0.7034400000000000    0.2913400000000000 H
   0.1927900000000000    0.6929800000000000    0.2520700000000000 H
   0.2137050000000000    0.4054700000000000    0.2169550000000000 H
   0.2662000000000000    0.4534800000000000    0.2300950000000000 H
   0.2004450000000000    0.5511000000000000    0.2052300000000000 H
   0.2412450000000000    0.6329200000000000    0.3242700000000000 H
   0.2858250000000000    0.5908400000000000    0.2845600000000000 H
   0.3023700000000000    0.3952600000000000    0.2857800000000000 H
   0.2105800000000000    0.6976300000000000    0.5000000000000000 H
   0.2579500000000000    0.7536900000000000    0.5145600000000000 H
   0.2866100000000000    0.6320600000000000    0.4832350000000000 H
   0.3451800000000000    0.6293900000000000    0.5570200000000000 H
   0.3620850000000000    0.4815300000000000    0.5695450000000000 H
   0.3722700000000000    0.5115900000000000    0.5239050000000000 H
   0.1475400000000000    0.6986700000000000    0.5423750000000001 H
   0.1522650000000000    0.6176900000000000    0.5819850000000000 H
   0.2970100000000000    0.5761600000000000    0.6164400000000000 H
   0.2726150000000000    0.4716600000000000    0.6038500000000000 H
   0.2236350000000000    0.6037500000000000    0.6285050000000000 H
   0.1828300000000000    0.5172300000000000    0.5100850000000000 H
   0.2036650000000000    0.4307500000000000    0.5500750000000000 H
   0.3028500000000000    0.3971300000000000    0.5483850000000000 H
   0.9395300000000000    0.4210400000000000    0.8317850000000000 H
   0.8645849999999999    0.5148700000000000    0.8486000000000000 H
   0.8964750000000000    0.5718600000000000    0.8169150000000001 H
   0.8407549999999999    0.6894100000000000    0.8909650000000000 H
   0.8982049999999999    0.7243000000000001    0.9029550000000000 H
   0.8721200000000000    0.7434400000000000    0.8574900000000000 H
   0.0024950000000000    0.2971900000000000    0.8757500000000000 H
   0.0391100000000000    0.3079000000000000    0.9150400000000001 H
   0.9164650000000000    0.5955700000000000    0.9499750000000000 H
   0.9928049999999999    0.5479900000000000    0.9368099999999999 H
   0.9760050000000000    0.4502500000000000    0.9618050000000000 H
   0.0576150000000000    0.3678900000000000    0.8428650000000000 H
   0.0809650000000000    0.4105600000000000    0.8825799999999999 H
   0.0000000000000000    0.6053700000000000    0.8812150000000001 H
   0.0597800000000000    0.3002400000000000    0.6682650000000000 H
   0.1350550000000000    0.2450200000000000    0.6519250000000000 H
   0.1028800000000000    0.3660100000000000    0.6834850000000000 H
   0.1599850000000000    0.3707200000000000    0.6098150000000000 H
   0.1029700000000000    0.5187100000000000    0.5975750000000000 H
   0.1282850000000000    0.4876900000000000    0.6431850000000000 H
   0.9975100000000000    0.2994600000000000    0.6238650000000000 H
   0.9615450000000000    0.3814400000000000    0.5844450000000000 H
   0.0850250000000000    0.4253200000000000    0.5503550000000000 H
   0.0085100000000000    0.5289300000000000    0.5631100000000000 H
   0.0255850000000000    0.3973800000000000    0.5380900000000000 H
   0.9422250000000000    0.4798700000000000    0.6566350000000000 H
   0.9194950000000000    0.5674400000000001    0.6168600000000000 H
   0.0016650000000000    0.6018700000000000    0.6186300000000000 H
   0.3503600000000000    0.8795800000000000    0.1649300000000000 H
   0.3772100000000000    0.7303600000000000    0.1812100000000000 H
   0.3168750000000000    0.7947700000000000    0.1495500000000000 H
   0.3127500000000000    0.6833300000000000    0.2232650000000000 H
   0.2382950000000000    0.7980000000000000    0.2352300000000000 H
   0.2546700000000000    0.7462500000000000    0.1896750000000000 H
   0.3505800000000000    0.0041800000000000    0.2095550000000000 H
   0.3087000000000000    0.0767200000000000    0.2488800000000000 H
   0.2853300000000000    0.8327500000000000    0.2826300000000000 H
   0.2337650000000000    0.9849100000000000    0.2698900000000000 H
   0.2996450000000000    0.9506100000000000    0.2950450000000000 H
   0.2606550000000000    0.1141300000000000    0.1764650000000000 H
   0.2158650000000000    0.1611000000000000    0.2160850000000000 H
   0.1977350000000000    0.9986800000000000    0.2142300000000000 H
   0.2899000000000000    0.1197500000000000    0.0013900000000000 H
   0.2423650000000000    0.2689800000000000    0.9851099999999999 H
   0.2140850000000000    0.2044900000000000    0.0166550000000000 H
   0.1547300000000000    0.3159600000000000    0.9428500000000000 H
   0.1374600000000000    0.2013300000000000    0.9307500000000000 H
   0.1278450000000000    0.2530800000000000    0.9763200000000001 H
   0.3524550000000000    0.9947600000000000    0.9568000000000000 H
   0.3467000000000000    0.9226700000000000    0.9173650000000000 H
   0.2020450000000000    0.1672600000000000    0.8835100000000000 H
   0.2261550000000000    0.0150400000000000    0.8960800000000000 H
   0.2751350000000000    0.0493500000000000    0.8711800000000001 H
   0.3171350000000000    0.8848900000000000    0.9896650000000000 H
   0.2957850000000000    0.8382400000000000    0.9499500000000001 H
   0.1966850000000000    0.0007700000000000    0.9518300000000000 H
   0.1500850000000000    0.5787099999999999    0.8352900000000000 H
   0.1220750000000000    0.4846800000000000    0.8183800000000000 H
   0.1824700000000000    0.4277200000000000    0.8500300000000001 H
   0.1853700000000000    0.3106500000000000    0.7758800000000000 H
   0.2600800000000000    0.2763900000000000    0.7638550000000000 H
   0.2437900000000000    0.2566400000000000    0.8093100000000000 H
   0.1509050000000000    0.7034400000000000    0.7913399999999999 H
   0.1927900000000000    0.6929800000000000    0.7520700000000000 H
   0.2137050000000000    0.4054700000000000    0.7169550000000000 H
   0.2662000000000000    0.4534800000000000    0.7300949999999999 H
   0.2004450000000000    0.5511000000000000    0.7052300000000000 H
   0.2412450000000000    0.6329200000000000    0.8242700000000001 H
   0.2858250000000000    0.5908400000000000    0.7845599999999999 H
   0.3023700000000000    0.3952600000000000    0.7857799999999999 H
   0.2105800000000000    0.6976300000000000    0.0000000000000000 H
   0.2579500000000000    0.7536900000000000    0.0145600000000000 H
   0.2866100000000000    0.6320600000000000    0.9832350000000001 H
   0.3451800000000000    0.6293900000000000    0.0570200000000000 H
   0.3620850000000000    0.4815300000000000    0.0695450000000000 H
   0.3722700000000000    0.5115900000000000    0.0239050000000000 H
   0.1475400000000000    0.6986700000000000    0.0423750000000000 H
   0.1522650000000000    0.6176900000000000    0.0819850000000000 H
   0.2970100000000000    0.5761600000000000    0.1164400000000000 H
   0.2726150000000000    0.4716600000000000    0.1038500000000000 H
   0.2236350000000000    0.6037500000000000    0.1285050000000000 H
   0.1828300000000000    0.5172300000000000    0.0100850000000000 H
   0.2036650000000000    0.4307500000000000    0.0500750000000000 H
   0.3028500000000000    0.3971300000000000    0.0483850000000000 H
   0.9395300000000000    0.4210400000000000    0.3317850000000000 H
   0.8645849999999999    0.5148700000000000    0.3486000000000000 H
   0.8964750000000000    0.5718600000000000    0.3169150000000000 H
   0.8407549999999999    0.6894100000000000    0.3909650000000000 H
   0.8982049999999999    0.7243000000000001    0.4029550000000000 H
   0.8721200000000000    0.7434400000000000    0.3574900000000000 H
   0.0024950000000000    0.2971900000000000    0.3757500000000000 H
   0.0391100000000000    0.3079000000000000    0.4150400000000000 H
   0.9164650000000000    0.5955700000000000    0.4499750000000000 H
   0.9928049999999999    0.5479900000000000    0.4368100000000000 H
   0.9760050000000000    0.4502500000000000    0.4618050000000000 H
   0.0576150000000000    0.3678900000000000    0.3428650000000000 H
   0.0809650000000000    0.4105600000000000    0.3825800000000000 H
   0.0000000000000000    0.6053700000000000    0.3812150000000000 H
   0.0597800000000000    0.3002400000000000    0.1682650000000000 H
   0.1350550000000000    0.2450200000000000    0.1519250000000000 H
   0.1028800000000000    0.3660100000000000    0.1834850000000000 H
   0.1599850000000000    0.3707200000000000    0.1098150000000000 H
   0.1029700000000000    0.5187100000000000    0.0975750000000000 H
   0.1282850000000000    0.4876900000000000    0.1431850000000000 H
   0.9975100000000000    0.2994600000000000    0.1238650000000000 H
   0.9615450000000000    0.3814400000000000    0.0844450000000000 H
   0.0850250000000000    0.4253200000000000    0.0503550000000000 H
   0.0085100000000000    0.5289300000000000    0.0631100000000000 H
   0.0255850000000000    0.3973800000000000    0.0380900000000000 H
   0.9422250000000000    0.4798700000000000    0.1566350000000000 H
   0.9194950000000000    0.5674400000000001    0.1168600000000000 H
   0.0016650000000000    0.6018700000000000    0.1186300000000000 H
   0.3503600000000000    0.8795800000000000    0.6649300000000000 H
   0.3772100000000000    0.7303600000000000    0.6812100000000000 H
   0.3168750000000000    0.7947700000000000    0.6495500000000000 H
   0.3127500000000000    0.6833300000000000    0.7232650000000000 H
   0.2382950000000000    0.7980000000000000    0.7352300000000001 H
   0.2546700000000000    0.7462500000000000    0.6896750000000000 H
   0.3505800000000000    0.0041800000000000    0.7095549999999999 H
   0.3087000000000000    0.0767200000000000    0.7488800000000000 H
   0.2853300000000000    0.8327500000000000    0.7826299999999999 H
   0.2337650000000000    0.9849100000000000    0.7698900000000000 H
   0.2996450000000000    0.9506100000000000    0.7950450000000000 H
   0.2606550000000000    0.1141300000000000    0.6764650000000000 H
   0.2158650000000000    0.1611000000000000    0.7160850000000000 H
   0.1977350000000000    0.9986800000000000    0.7142300000000000 H
   0.2899000000000000    0.1197500000000000    0.5013900000000000 H
   0.2423650000000000    0.2689800000000000    0.4851100000000000 H
   0.2140850000000000    0.2044900000000000    0.5166550000000000 H
   0.1547300000000000    0.3159600000000000    0.4428500000000000 H
   0.1374600000000000    0.2013300000000000    0.4307500000000000 H
   0.1278450000000000    0.2530800000000000    0.4763200000000000 H
   0.3524550000000000    0.9947600000000000    0.4568000000000000 H
   0.3467000000000000    0.9226700000000000    0.4173650000000000 H
   0.2020450000000000    0.1672600000000000    0.3835100000000000 H
   0.2261550000000000    0.0150400000000000    0.3960800000000000 H
   0.2751350000000000    0.0493500000000000    0.3711800000000000 H
   0.3171350000000000    0.8848900000000000    0.4896650000000000 H
   0.2957850000000000    0.8382400000000000    0.4499500000000000 H
   0.1966850000000000    0.0007700000000000    0.4518300000000000 H
   0.4395300000000000    0.4210400000000000    0.3317850000000000 H
   0.3645850000000000    0.5148700000000000    0.3486000000000000 H
   0.3964750000000000    0.5718600000000000    0.3169150000000000 H
   0.3407550000000000    0.6894100000000000    0.3909650000000000 H
   0.3982050000000000    0.7243000000000001    0.4029550000000000 H
   0.3721200000000000    0.7434400000000000    0.3574900000000000 H
   0.5024950000000000    0.2971900000000000    0.3757500000000000 H
   0.5391100000000000    0.3079000000000000    0.4150400000000000 H
   0.4164650000000000    0.5955700000000000    0.4499750000000000 H
   0.4928050000000000    0.5479900000000000    0.4368100000000000 H
   0.4760050000000000    0.4502500000000000    0.4618050000000000 H
   0.5576150000000000    0.3678900000000000    0.3428650000000000 H
   0.5809650000000000    0.4105600000000000    0.3825800000000000 H
   0.5000000000000000    0.6053700000000000    0.3812150000000000 H
   0.5597799999999999    0.3002400000000000    0.1682650000000000 H
   0.6350550000000000    0.2450200000000000    0.1519250000000000 H
   0.6028800000000000    0.3660100000000000    0.1834850000000000 H
   0.6599850000000000    0.3707200000000000    0.1098150000000000 H
   0.6029700000000000    0.5187100000000000    0.0975750000000000 H
   0.6282850000000000    0.4876900000000000    0.1431850000000000 H
   0.4975100000000000    0.2994600000000000    0.1238650000000000 H
   0.4615450000000000    0.3814400000000000    0.0844450000000000 H
   0.5850250000000000    0.4253200000000000    0.0503550000000000 H
   0.5085100000000000    0.5289300000000000    0.0631100000000000 H
   0.5255850000000000    0.3973800000000000    0.0380900000000000 H
   0.4422250000000000    0.4798700000000000    0.1566350000000000 H
   0.4194950000000000    0.5674400000000001    0.1168600000000000 H
   0.5016650000000000    0.6018700000000000    0.1186300000000000 H
   0.6500850000000000    0.5787099999999999    0.8352900000000000 H
   0.6220750000000000    0.4846800000000000    0.8183800000000000 H
   0.6824700000000000    0.4277200000000000    0.8500300000000001 H
   0.6853700000000000    0.3106500000000000    0.7758800000000000 H
   0.7600800000000000    0.2763900000000000    0.7638550000000000 H
   0.7437900000000000    0.2566400000000000    0.8093100000000000 H
   0.6509050000000001    0.7034400000000000    0.7913399999999999 H
   0.6927900000000000    0.6929800000000000    0.7520700000000000 H
   0.7137050000000000    0.4054700000000000    0.7169550000000000 H
   0.7662000000000000    0.4534800000000000    0.7300949999999999 H
   0.7004450000000000    0.5511000000000000    0.7052300000000000 H
   0.7412449999999999    0.6329200000000000    0.8242700000000001 H
   0.7858250000000000    0.5908400000000000    0.7845599999999999 H
   0.8023700000000000    0.3952600000000000    0.7857799999999999 H
   0.7105800000000000    0.6976300000000000    0.0000000000000000 H
   0.7579500000000000    0.7536900000000000    0.0145600000000000 H
   0.7866100000000000    0.6320600000000000    0.9832350000000001 H
   0.8451800000000000    0.6293900000000000    0.0570200000000000 H
   0.8620850000000000    0.4815300000000000    0.0695450000000000 H
   0.8722700000000000    0.5115900000000000    0.0239050000000000 H
   0.6475400000000000    0.6986700000000000    0.0423750000000000 H
   0.6522650000000000    0.6176900000000000    0.0819850000000000 H
   0.7970100000000000    0.5761600000000000    0.1164400000000000 H
   0.7726150000000001    0.4716600000000000    0.1038500000000000 H
   0.7236350000000000    0.6037500000000000    0.1285050000000000 H
   0.6828300000000000    0.5172300000000000    0.0100850000000000 H
   0.7036650000000000    0.4307500000000000    0.0500750000000000 H
   0.8028500000000001    0.3971300000000000    0.0483850000000000 H
   0.8503600000000000    0.8795800000000000    0.6649300000000000 H
   0.8772100000000000    0.7303600000000000    0.6812100000000000 H
   0.8168750000000000    0.7947700000000000    0.6495500000000000 H
   0.8127500000000000    0.6833300000000000    0.7232650000000000 H
   0.7382950000000000    0.7980000000000000    0.7352300000000001 H
   0.7546700000000000    0.7462500000000000    0.6896750000000000 H
   0.8505800000000000    0.0041800000000000    0.7095549999999999 H
   0.8087000000000000    0.0767200000000000    0.7488800000000000 H
   0.7853300000000000    0.8327500000000000    0.7826299999999999 H
   0.7337650000000000    0.9849100000000000    0.7698900000000000 H
   0.7996449999999999    0.9506100000000000    0.7950450000000000 H
   0.7606550000000001    0.1141300000000000    0.6764650000000000 H
   0.7158650000000000    0.1611000000000000    0.7160850000000000 H
   0.6977350000000000    0.9986800000000000    0.7142300000000000 H
   0.7840905259947655    0.9440681913039687    0.5342085423016383 H
   0.6128077204095064    1.0813234417097801    0.4964086675478105 H
   0.6953279229147439    1.0159399745671616    0.5123931114551965 H
   0.6630950000000000    0.4868800000000000    0.3264600000000000 C
   0.7254950000000000    0.3140600000000000    0.2852600000000000 C
   0.7088250000000000    0.4433500000000000    0.2949100000000000 C
   0.6904350000000000    0.6413600000000000    0.2751350000000000 C
   0.7180050000000000    0.4821600000000000    0.2265650000000000 C
   0.6166100000000000    0.5696600000000001    0.2550650000000000 C
   0.6824749999999999    0.5352100000000000    0.2620600000000000 C
   0.7487800000000000    0.5858000000000000    0.2982400000000000 C
   0.7663550000000000    0.4530000000000000    0.3047550000000000 C
   0.7904550000000000    0.4044300000000000    0.3423450000000000 C
   0.7567349999999999    0.6718700000000000    0.5068049999999999 C
   0.8433250000000000    0.5493100000000000    0.5479849999999999 C
   0.7783000000000000    0.5824700000000000    0.5385950000000000 C
   0.6784850000000000    0.6208200000000000    0.5587650000000000 C
   0.7583750000000000    0.5675800000000000    0.6071000000000000 C
   0.7149000000000000    0.7677800000000000    0.5780550000000000 C
   0.7319700000000000    0.6366700000000000    0.5714900000000001 C
   0.7063850000000000    0.5035400000000000    0.5360350000000000 C
   0.7732450000000000    0.4678400000000000    0.5292900000000000 C
   0.7978850000000000    0.4181900000000000    0.4917850000000000 C
   0.4066400000000000    0.5128900000000000    0.8405350000000000 C
   0.3825150000000000    0.6862300000000000    0.8815850000000001 C
   0.4304750000000000    0.5569900000000000    0.8720600000000001 C
   0.5110000000000000    0.3593900000000000    0.8919600000000000 C
   0.4590450000000000    0.5189900000000000    0.9404150000000000 C
   0.4014950000000000    0.4306700000000000    0.9120150000000000 C
   0.4500550000000000    0.4654100000000000    0.9049900000000000 C
   0.5415200000000000    0.4151600000000000    0.8688600000000000 C
   0.4927200000000000    0.5477800000000000    0.8622650000000001 C
   0.4924750000000000    0.5963900000000000    0.8246800000000001 C
   0.5929800000000000    0.3265100000000000    0.6597649999999999 C
   0.6181650000000000    0.4504000000000000    0.6189850000000000 C
   0.5698400000000000    0.4166100000000000    0.6281600000000001 C
   0.4893800000000000    0.3779100000000000    0.6077049999999999 C
   0.5422500000000000    0.4332100000000000    0.5596400000000000 C
   0.5990850000000000    0.2321600000000000    0.5881300000000000 C
   0.5506050000000000    0.3629700000000000    0.5950400000000000 C
   0.4587000000000000    0.4945300000000000    0.6307400000000000 C
   0.5075499999999999    0.5307500000000001    0.6376250000000000 C
   0.5072449999999999    0.5803600000000000    0.6752000000000000 C
   0.8365899999999999    0.8143400000000000    0.1733400000000000 C
   0.7731000000000000    0.7666200000000000    0.2139500000000000 C
   0.7908250000000000    0.8616900000000000    0.2048700000000000 C
   0.8107500000000001    0.0211100000000000    0.2255500000000000 C
   0.7817750000000000    0.9174400000000000    0.2734200000000000 C
   0.8832050000000000    0.8027600000000000    0.2449750000000000 C
   0.8176350000000000    0.8998300000000000    0.2380800000000000 C
   0.7525800000000000    0.0823800000000000    0.2023250000000000 C
   0.7339350000000000    0.9859000000000000    0.1953300000000000 C
   0.7095250000000000    0.9860900000000000    0.1576850000000000 C
   0.7436300000000000    0.1849600000000000    0.9929250000000001 C
   0.6565350000000000    0.2326900000000000    0.9521050000000000 C
   0.7216000000000000    0.1376000000000000    0.9613050000000001 C
   0.8210350000000000    0.9781200000000000    0.9407099999999999 C
   0.7406250000000000    0.0824300000000000    0.8927250000000000 C
   0.7848150000000000    0.1966600000000000    0.9216700000000000 C
   0.7675700000000000    0.0995800000000000    0.9282150000000000 C
   0.7932900000000001    0.9168300000000000    0.9637850000000000 C
   0.7265650000000000    0.0134000000000000    0.9707450000000000 C
   0.7023500000000000    0.0133100000000000    0.0083950000000000 C
   0.1630950000000000    0.4868800000000000    0.3264600000000000 C
   0.2254950000000000    0.3140600000000000    0.2852600000000000 C
   0.2088250000000000    0.4433500000000000    0.2949100000000000 C
   0.1904350000000000    0.6413600000000000    0.2751350000000000 C
   0.2180050000000000    0.4821600000000000    0.2265650000000000 C
   0.1166100000000000    0.5696600000000001    0.2550650000000000 C
   0.1824750000000000    0.5352100000000000    0.2620600000000000 C
   0.2487800000000000    0.5858000000000000    0.2982400000000000 C
   0.2663550000000000    0.4530000000000000    0.3047550000000000 C
   0.2904550000000000    0.4044300000000000    0.3423450000000000 C
   0.2567350000000000    0.6718700000000000    0.5068049999999999 C
   0.3433250000000000    0.5493100000000000    0.5479849999999999 C
   0.2783000000000000    0.5824700000000000    0.5385950000000000 C
   0.1784850000000000    0.6208200000000000    0.5587650000000000 C
   0.2583750000000000    0.5675800000000000    0.6071000000000000 C
   0.2149000000000000    0.7677800000000000    0.5780550000000000 C
   0.2319700000000000    0.6366700000000000    0.5714900000000001 C
   0.2063850000000000    0.5035400000000000    0.5360350000000000 C
   0.2732450000000000    0.4678400000000000    0.5292900000000000 C
   0.2978850000000000    0.4181900000000000    0.4917850000000000 C
   0.9066400000000000    0.5128900000000000    0.8405350000000000 C
   0.8825149999999999    0.6862300000000000    0.8815850000000001 C
   0.9304749999999999    0.5569900000000000    0.8720600000000001 C
   0.0110000000000000    0.3593900000000000    0.8919600000000000 C
   0.9590449999999999    0.5189900000000000    0.9404150000000000 C
   0.9014949999999999    0.4306700000000000    0.9120150000000000 C
   0.9500550000000000    0.4654100000000000    0.9049900000000000 C
   0.0415200000000000    0.4151600000000000    0.8688600000000000 C
   0.9927200000000000    0.5477800000000000    0.8622650000000001 C
   0.9924750000000000    0.5963900000000000    0.8246800000000001 C
   0.0929800000000000    0.3265100000000000    0.6597649999999999 C
   0.1181650000000000    0.4504000000000000    0.6189850000000000 C
   0.0698400000000000    0.4166100000000000    0.6281600000000001 C
   0.9893799999999999    0.3779100000000000    0.6077049999999999 C
   0.0422500000000000    0.4332100000000000    0.5596400000000000 C
   0.0990850000000000    0.2321600000000000    0.5881300000000000 C
   0.0506050000000000    0.3629700000000000    0.5950400000000000 C