H9 O5
1.0
  15.7430000000000003    0.0000000000000000    0.0000000000000010
  -0.0043982297007268   31.4999996881479198   -0.0005497787143539
   0.0000000000000000    0.0000000000000000   20.0049999999999990
H O
9 5
direct
   0.2712855727091840    0.2610746192185580    0.0584160895881042 H
   0.0147252351356585    0.2219154264396395    0.4171366328456543 H
   1.0351276041874287    0.2388294171564332    0.4324426062590337 H
   0.9863198773487138    0.2107308599172856    0.3779295785463230 H
   0.0773330150263905    0.2539447386846007    0.3784002539746658 H
   0.9745218457331992    0.1122684209838871    0.0588151677289200 H
   0.8295059220181888    0.0999185345376563    0.0802773975411784 H
   0.8735725338687094    0.1455778220532096    0.0851563560833202 H
   0.8748033617355683    0.0843675178961203    0.0560840133888954 H
   0.2968400000000000    0.2858800000000000    0.0369000000000000 O
   0.9920500000000000    0.2214150000000000    0.4236400000000000 O
   0.0553300000000000    0.2514500000000000    0.4239800000000000 O
   0.9248700000000000    0.0995550000000000    0.0372400000000001 O
   0.8545800000000000    0.1227100000000000    0.0556100000000000 O
