Zn22 H144 C225 N90 O5
1.0
  15.7430000000000003    0.0000000000000000    0.0000000000000010
  -0.0043982297007268   31.4999996881479198   -0.0005497787143539
   0.0000000000000000    0.0000000000000000   20.0049999999999990
Zn H C N O
22 144 225 90 5
direct
   0.9147500000000000    0.7074850000000000    0.5000300000000000 Zn
   0.0822800000000000    0.7906250000000000    0.4999300000000000 Zn
   0.5823100000000000    0.5406350000000000    0.5000400000000000 Zn
   0.7486500000000000    0.6240400000000000    0.9999200000000000 Zn
   0.4147800000000000    0.4574750000000000    0.4999400000000000 Zn
   0.9147500000000000    0.2074850000000000    0.5000300000000000 Zn
   0.0822800000000000    0.2906250000000000    0.4999300000000000 Zn
   0.5823100000000000    0.0406350000000000    0.5000400000000000 Zn
   0.7486500000000000    0.1240400000000000    0.9999200000000000 Zn
   0.4147800000000000    0.9574750000000001    0.4999400000000000 Zn
   0.9149900000000000    0.0406250000000000    0.9999900000000000 Zn
   0.4150000000000000    0.2906200000000000    0.9999900000000000 Zn
   0.4150000000000000    0.7906200000000000    0.9999900000000000 Zn
   0.2486600000000000    0.3740250000000000    0.6000000000000000 Zn
   0.2484300000000000    0.3740550000000000    0.5000200000000000 Zn
   0.7484300000000000    0.1240600000000000    0.4999500000000000 Zn
   0.2486600000000000    0.8740250000000001    0.6000000000000000 Zn
   0.2484300000000000    0.8740550000000000    0.5000200000000000 Zn
   0.7484300000000000    0.6240600000000001    0.4999500000000000 Zn
   0.9149900000000000    0.5406250000000000    0.9999900000000000 Zn
   0.0834400000000000    0.4575800000000000    0.9999600000000000 Zn
   0.0834400000000000    0.9575800000000000    0.9999600000000000 Zn
   0.2712855727091840    0.2610746192185580    0.0584160895881042 H
   0.9417800000000000    0.8951450000000001    0.9388300000000001 H
   0.1617500000000000    0.8206150000000000    0.8844000000000000 H
   0.7100400000000000    0.7778499999999999    0.9404300000000000 H
   0.8568200000000000    0.6675100000000000    0.8842000000000000 H
   0.0368800000000000    0.8274000000000000    0.7626200000000000 H
   0.9038300000000000    0.7972850000000000    0.9439000000000000 H
   0.8449400000000000    0.7294450000000000    0.7635700000000000 H
   0.0604700000000000    0.8155700000000000    0.6502599999999999 H
   0.8615100000000000    0.7206650000000000    0.6497300000000000 H
   0.8360100000000000    0.6775949999999999    0.1153800000000000 H
   0.0561500000000000    0.6032850000000000    0.0606700000000000 H
   0.1412600000000000    0.8304050000000001    0.1156000000000000 H
   0.2889200000000000    0.7202500000000001    0.0600000000000000 H
   0.1532300000000000    0.7685500000000001    0.2365900000000000 H
   0.0947800000000000    0.7007850000000000    0.0560200000000000 H
   0.9603000000000000    0.6710800000000000    0.2369000000000000 H
   0.9366500000000000    0.6827449999999999    0.3493800000000000 H
   0.1361700000000000    0.7773399999999999    0.3504000000000000 H
   0.4417900000000000    0.6451200000000000    0.0611300000000000 H
   0.6617800000000000    0.5706350000000000    0.1155000000000000 H
   0.3568300000000000    0.4174800000000000    0.1158100000000000 H
   0.2101400000000000    0.5278550000000000    0.0595200000000000 H
   0.5604800000000000    0.5655900000000000    0.3497200000000000 H
   0.3616500000000000    0.4706200000000000    0.3502300000000000 H
   0.3450100000000000    0.4794200000000000    0.2364100000000000 H
   0.4038600000000000    0.5472800000000000    0.0559900000000000 H
   0.5369500000000000    0.5773800000000000    0.2373300000000000 H
   0.5561199999999999    0.3532850000000000    0.9392800000000000 H
   0.3360100000000000    0.4276000000000000    0.8846100000000000 H
   0.7889000000000000    0.4702450000000000    0.9399800000000000 H
   0.6412700000000000    0.5804200000000000    0.8842900000000000 H
   0.6361400000000000    0.5273750000000000    0.6495000000000000 H
   0.4367200000000000    0.4327200000000000    0.6505700000000000 H
   0.4603100000000000    0.4210800000000000    0.7630700000000000 H
   0.5947400000000000    0.4507900000000000    0.9439600000000000 H
   0.6532500000000000    0.5185550000000000    0.7633900000000000 H
   0.9417800000000000    0.3951450000000000    0.9388300000000001 H
   0.1617500000000000    0.3206150000000000    0.8844000000000000 H
   0.7100400000000000    0.2778500000000000    0.9404300000000000 H
   0.8568200000000000    0.1675100000000000    0.8842000000000000 H
   0.0368800000000000    0.3274000000000000    0.7626200000000000 H
   0.9038300000000000    0.2972850000000000    0.9439000000000000 H
   0.8449400000000000    0.2294450000000000    0.7635700000000000 H
   0.0604700000000000    0.3155700000000000    0.6502599999999999 H
   0.8615100000000000    0.2206650000000000    0.6497300000000000 H
   0.0147252351356585    0.2219154264396395    0.4171366328456543 H
   1.0351276041874287    0.2388294171564332    0.4324426062590337 H
   0.9863198773487138    0.2107308599172856    0.3779295785463230 H
   0.0773330150263905    0.2539447386846007    0.3784002539746658 H
   0.4417900000000000    0.1451200000000000    0.0611300000000000 H
   0.6617800000000000    0.0706350000000000    0.1155000000000000 H
   0.3568300000000000    0.9174800000000001    0.1158100000000000 H
   0.2101400000000000    0.0278550000000000    0.0595200000000000 H
   0.5604800000000000    0.0655900000000000    0.3497200000000000 H
   0.3616500000000000    0.9706200000000000    0.3502300000000000 H
   0.3450100000000000    0.9794200000000000    0.2364100000000000 H
   0.4038600000000000    0.0472800000000000    0.0559900000000000 H
   0.5369500000000000    0.0773800000000000    0.2373300000000000 H
   0.5561199999999999    0.8532850000000001    0.9392800000000000 H
   0.3360100000000000    0.9276000000000000    0.8846100000000000 H
   0.7889000000000000    0.9702450000000000    0.9399800000000000 H
   0.6412700000000000    0.0804200000000000    0.8842900000000000 H
   0.6361400000000000    0.0273750000000000    0.6495000000000000 H
   0.4367200000000000    0.9327200000000000    0.6505700000000000 H
   0.4603100000000000    0.9210800000000000    0.7630700000000000 H
   0.5947400000000000    0.9507900000000000    0.9439600000000000 H
   0.6532500000000000    0.0185550000000000    0.7633900000000000 H
   0.9745218457331992    0.1122684209838871    0.0588151677289200 H
   0.8295059220181888    0.0999185345376563    0.0802773975411784 H
   0.8735725338687094    0.1455778220532096    0.0851563560833202 H
   0.8748033617355683    0.0843675178961203    0.0560840133888954 H
   0.7889000000000000    0.2778250000000000    0.4401300000000000 H
   0.6407500000000000    0.1677850000000000    0.3845000000000000 H
   0.5558900000000000    0.3950050000000000    0.4389000000000000 H
   0.3360500000000000    0.3202350000000000    0.3849900000000000 H
   0.4377900000000000    0.3157550000000000    0.1503400000000000 H
   0.6365800000000000    0.2208250000000000    0.1496300000000000 H
   0.4607200000000000    0.3271650000000000    0.2629300000000000 H
   0.5942600000000000    0.2971950000000000    0.4441000000000000 H
   0.6539000000000000    0.2298450000000000    0.2634200000000000 H
   0.7889000000000000    0.7778250000000000    0.4401300000000000 H
   0.6407500000000000    0.6677850000000000    0.3845000000000000 H
   0.5558900000000000    0.8950050000000001    0.4389000000000000 H
   0.3360500000000000    0.8202350000000000    0.3849900000000000 H
   0.4377900000000000    0.8157550000000000    0.1503400000000000 H
   0.6365800000000000    0.7208250000000000    0.1496300000000000 H
   0.4607200000000000    0.8271649999999999    0.2629300000000000 H
   0.5942600000000000    0.7971950000000000    0.4441000000000000 H
   0.6539000000000000    0.7298450000000000    0.2634200000000000 H
   0.7091100000000000    0.4703400000000000    0.4398300000000000 H
   0.8563700000000000    0.5807250000000000    0.3844300000000000 H
   0.9412500000000000    0.3533750000000000    0.4391600000000000 H
   0.1616200000000000    0.4275900000000000    0.3845800000000000 H
   0.8452700000000000    0.5189900000000000    0.2634700000000000 H
   0.9029700000000001    0.4509500000000000    0.4439500000000000 H
   0.0375900000000000    0.4212350000000000    0.2631600000000000 H
   0.0616900000000000    0.4330200000000000    0.1507200000000000 H
   0.8622300000000001    0.5276300000000000    0.1496000000000000 H
   0.0559100000000000    0.6450350000000000    0.5611000000000000 H
   0.8360800000000000    0.5702300000000000    0.6149700000000000 H
   0.2889900000000000    0.5278350000000001    0.5598800000000000 H
   0.1407400000000000    0.4178000000000000    0.6153700000000000 H
   0.1539300000000000    0.4798450000000000    0.7365500000000000 H
   0.0943100000000000    0.5472200000000000    0.5558700000000000 H
   0.9607700000000000    0.5771950000000000    0.7370600000000000 H
   0.9377600000000000    0.5657449999999999    0.8496300000000000 H
   0.1366900000000000    0.4708600000000000    0.8503600000000000 H
   0.2090700000000000    0.2203500000000000    0.5601300000000000 H
   0.3563600000000000    0.3307050000000000    0.6155400000000000 H
   0.6615900000000000    0.1776200000000000    0.6153700000000000 H
   0.4412900000000000    0.1033750000000000    0.5608100000000000 H
   0.5615900000000000    0.1830000000000000    0.8492499999999999 H
   0.3622600000000000    0.2776550000000000    0.8503400000000000 H
   0.3452200000000000    0.2689700000000000    0.7364900000000000 H
   0.4029600000000000    0.2009600000000000    0.5560000000000000 H
   0.5375600000000000    0.1712500000000000    0.7367899999999999 H
   0.7091100000000000    0.9703400000000000    0.4398300000000000 H
   0.8563700000000000    0.0807250000000000    0.3844300000000000 H
   0.9412500000000000    0.8533750000000000    0.4391600000000000 H
   0.1616200000000000    0.9275900000000000    0.3845800000000000 H
   0.8452700000000000    0.0189900000000000    0.2634700000000000 H
   0.9029700000000001    0.9509500000000000    0.4439500000000000 H
   0.0375900000000000    0.9212350000000000    0.2631600000000000 H
   0.0616900000000000    0.9330200000000000    0.1507200000000000 H
   0.8622300000000001    0.0276300000000000    0.1496000000000000 H
   0.0559100000000000    0.1450350000000000    0.5611000000000000 H
   0.8360800000000000    0.0702300000000000    0.6149700000000000 H
   0.2889900000000000    0.0278350000000000    0.5598800000000000 H
   0.1407400000000000    0.9177999999999999    0.6153700000000000 H
   0.1539300000000000    0.9798450000000001    0.7365500000000000 H
   0.0943100000000000    0.0472200000000000    0.5558700000000000 H
   0.9607700000000000    0.0771950000000000    0.7370600000000000 H
   0.9377600000000000    0.0657450000000000    0.8496300000000000 H
   0.1366900000000000    0.9708600000000001    0.8503600000000000 H
   0.2090700000000000    0.7203500000000000    0.5601300000000000 H
   0.3563600000000000    0.8307050000000000    0.6155400000000000 H
   0.6615900000000000    0.6776200000000000    0.6153700000000000 H
   0.4412900000000000    0.6033750000000000    0.5608100000000000 H
   0.5615900000000000    0.6830000000000001    0.8492499999999999 H
   0.3622600000000000    0.7776550000000000    0.8503400000000000 H
   0.3452200000000000    0.7689699999999999    0.7364900000000000 H
   0.4029600000000000    0.7009600000000000    0.5560000000000000 H
   0.5375600000000000    0.6712500000000000    0.7367899999999999 H
   0.0044300000000000    0.8812550000000000    0.9325500000000000 C
   0.1170000000000000    0.8439700000000000    0.9032600000000000 C
   0.0288900000000000    0.8461000000000001    0.8941700000000000 C
   0.7371600000000000    0.7464450000000000    0.9336600000000000 C
   0.8105800000000000    0.6899900000000000    0.9034500000000000 C
   0.8070900000000000    0.7341000000000000    0.8949100000000000 C
   0.9890400000000000    0.8085500000000000    0.7885000000000000 C
   0.9753900000000000    0.8160149999999999    0.8567000000000000 C
   0.9129900000000000    0.7925750000000000    0.8904700000000000 C
   0.8817199999999999    0.7538850000000000    0.7890900000000000 C
   0.8668400000000001    0.7609049999999999    0.8572100000000000 C
   0.9419000000000000    0.7778849999999999    0.7534999999999999 C
   0.0130500000000000    0.7915650000000001    0.6391500000000000 C
   0.9118400000000000    0.7431900000000000    0.6388800000000000 C
   0.9548300000000000    0.7712550000000000    0.6817299999999999 C
   0.8808000000000000    0.6542800000000000    0.0964000000000000 C
   0.9934500000000001    0.6171150000000000    0.0670400000000000 C
   0.9689600000000000    0.6522350000000000    0.1054700000000000 C
   0.1876700000000000    0.8079750000000000    0.0965300000000000 C
   0.2615300000000000    0.7516050000000001    0.0666300000000000 C
   0.1914700000000000    0.7638900000000000    0.1052800000000000 C
   0.1163700000000000    0.7441850000000000    0.2109700000000000 C
   0.1315500000000000    0.7371200000000000    0.1428900000000000 C
   0.0853200000000000    0.7055350000000000    0.1094900000000000 C
   0.0084900000000000    0.6898000000000000    0.2111200000000000 C
   0.0224700000000000    0.6822650000000000    0.1430100000000000 C
   0.0557800000000000    0.7203250000000000    0.2463000000000000 C
   0.9841500000000000    0.7066850000000000    0.3606200000000000 C
   0.0856700000000000    0.7548900000000001    0.3611300000000000 C
   0.0426000000000000    0.7269350000000000    0.3181000000000000 C
   0.5044300000000000    0.6312400000000000    0.0674000000000000 C
   0.6170200000000000    0.5939800000000000    0.0967100000000000 C
   0.5289000000000000    0.5960950000000000    0.1058000000000000 C
   0.3106100000000000    0.4399650000000000    0.0965500000000000 C
   0.2372400000000000    0.4964350000000000    0.0663000000000000 C
   0.3071400000000000    0.4840800000000000    0.1050700000000000 C
   0.5130800000000000    0.5415750000000000    0.3608200000000000 C
   0.4119400000000000    0.4931600000000000    0.3610800000000000 C
   0.4549200000000000    0.5212450000000000    0.3182300000000000 C
   0.3818000000000000    0.5038750000000000    0.2108800000000000 C
   0.3669000000000000    0.5108950000000000    0.1427600000000000 C
   0.4130400000000000    0.5425700000000000    0.1095000000000000 C
   0.4891300000000000    0.5585350000000000    0.2113900000000000 C
   0.4754500000000000    0.5660050000000000    0.1432300000000000 C
   0.4419800000000000    0.5278700000000000    0.2464600000000000 C
   0.4934500000000000    0.3671150000000000    0.9329200000000000 C
   0.3808000000000000    0.4042800000000000    0.9035000000000000 C
   0.4689600000000000    0.4022400000000000    0.8945000000000000 C
   0.7615100000000000    0.5016200000000000    0.9333500000000000 C
   0.6876700000000000    0.5579900000000000    0.9034400000000000 C
   0.6914600000000000    0.5139050000000001    0.8947000000000001 C
   0.5856600000000000    0.5049100000000000    0.6388500000000000 C
   0.4842100000000000    0.4566700000000000    0.6393400000000000 C
   0.5426100000000000    0.4769300000000000    0.6818200000000000 C
   0.5084800000000000    0.4398000000000000    0.7888500000000001 C
   0.5224400000000000    0.4322700000000000    0.8569000000000000 C
   0.5852900000000000    0.4555400000000000    0.8904900000000000 C
   0.6163700000000000    0.4941800000000000    0.7890000000000000 C
   0.6315300000000000    0.4871200000000000    0.8570900000000000 C
   0.5557800000000001    0.4703200000000000    0.7536000000000000 C
   0.0044300000000000    0.3812550000000000    0.9325500000000000 C
   0.1170000000000000    0.3439700000000000    0.9032600000000000 C
   0.0288900000000000    0.3461000000000000    0.8941700000000000 C
   0.7371600000000000    0.2464450000000000    0.9336600000000000 C
   0.8105800000000000    0.1899900000000000    0.9034500000000000 C
   0.8070900000000000    0.2341000000000000    0.8949100000000000 C
   0.9890400000000000    0.3085500000000000    0.7885000000000000 C
   0.9753900000000000    0.3160150000000000    0.8567000000000000 C
   0.9129900000000000    0.2925750000000000    0.8904700000000000 C
   0.8817199999999999    0.2538850000000000    0.7890900000000000 C
   0.8668400000000001    0.2609050000000000    0.8572100000000000 C
   0.9419000000000000    0.2778850000000000    0.7534999999999999 C
   0.0130500000000000    0.2915650000000000    0.6391500000000000 C
   0.9118400000000000    0.2431900000000000    0.6388800000000000 C
   0.9548300000000000    0.2712550000000000    0.6817299999999999 C
   0.5044300000000000    0.1312400000000000    0.0674000000000000 C
   0.6170200000000000    0.0939800000000000    0.0967100000000000 C
   0.5289000000000000    0.0960950000000000    0.1058000000000000 C
   0.3106100000000000    0.9399649999999999    0.0965500000000000 C
   0.2372400000000000    0.9964350000000000    0.0663000000000000 C
   0.3071400000000000    0.9840800000000001    0.1050700000000000 C
   0.5130800000000000    0.0415750000000000    0.3608200000000000 C
   0.4119400000000000    0.9931600000000000    0.3610800000000000 C
   0.4549200000000000    0.0212450000000000    0.3182300000000000 C
   0.3818000000000000    0.0038750000000000    0.2108800000000000 C
   0.3669000000000000    0.0108950000000000    0.1427600000000000 C
   0.4130400000000000    0.0425700000000000    0.1095000000000000 C
   0.4891300000000000    0.0585350000000000    0.2113900000000000 C
   0.4754500000000000    0.0660050000000000    0.1432300000000000 C
   0.4419800000000000    0.0278700000000000    0.2464600000000000 C
   0.4934500000000000    0.8671150000000001    0.9329200000000000 C
   0.3808000000000000    0.9042800000000000    0.9035000000000000 C
   0.4689600000000000    0.9022399999999999    0.8945000000000000 C
   0.7615100000000000    0.0016200000000000    0.9333500000000000 C
   0.6876700000000000    0.0579900000000000    0.9034400000000000 C
   0.6914600000000000    0.0139050000000000    0.8947000000000001 C
   0.5856600000000000    0.0049100000000000    0.6388500000000000 C
   0.4842100000000000    0.9566700000000000    0.6393400000000000 C
   0.5426100000000000    0.9769300000000001    0.6818200000000000 C
   0.5084800000000000    0.9398000000000000    0.7888500000000001 C
   0.5224400000000000    0.9322699999999999    0.8569000000000000 C
   0.5852900000000000    0.9555400000000001    0.8904900000000000 C
   0.6163700000000000    0.9941800000000001    0.7890000000000000 C
   0.6315300000000000    0.9871200000000000    0.8570900000000000 C
   0.5557800000000001    0.9703200000000001    0.7536000000000000 C
   0.7613799999999999    0.2464900000000000    0.4335200000000000 C
   0.6872900000000000    0.1901700000000000    0.4036500000000000 C
   0.6913000000000000    0.2342500000000000    0.3948700000000000 C
   0.4932700000000000    0.3810750000000000    0.4327200000000000 C
   0.3807400000000000    0.3436650000000000    0.4037000000000000 C
   0.4688500000000000    0.3458500000000000    0.3944000000000000 C
   0.4850900000000000    0.2917150000000000    0.1391800000000000 C
   0.5862400000000000    0.2433500000000000    0.1388200000000000 C
   0.5433500000000000    0.2714150000000000    0.1817000000000000 C
   0.5088200000000001    0.3084450000000000    0.2887700000000000 C
   0.5224400000000000    0.3158700000000000    0.3569600000000000 C
   0.5851100000000000    0.2925500000000000    0.3905900000000000 C
   0.6168000000000000    0.2541250000000000    0.2890200000000000 C
   0.6315600000000000    0.2610600000000000    0.3571900000000000 C
   0.5563200000000000    0.2779950000000000    0.2535300000000000 C
   0.7613799999999999    0.7464900000000000    0.4335200000000000 C
   0.6872900000000000    0.6901700000000000    0.4036500000000000 C
   0.6913000000000000    0.7342500000000001    0.3948700000000000 C
   0.4932700000000000    0.8810750000000001    0.4327200000000000 C
   0.3807400000000000    0.8436650000000000    0.4037000000000000 C
   0.4688500000000000    0.8458500000000000    0.3944000000000000 C
   0.4850900000000000    0.7917149999999999    0.1391800000000000 C
   0.5862400000000000    0.7433500000000000    0.1388200000000000 C
   0.5433500000000000    0.7714150000000000    0.1817000000000000 C
   0.5088200000000001    0.8084450000000001    0.2887700000000000 C
   0.5224400000000000    0.8158700000000000    0.3569600000000000 C
   0.5851100000000000    0.7925500000000000    0.3905900000000000 C
   0.6168000000000000    0.7541249999999999    0.2890200000000000 C
   0.6315600000000000    0.7610600000000001    0.3571900000000000 C
   0.5563200000000000    0.7779950000000000    0.2535300000000000 C
   0.7363200000000000    0.5017650000000000    0.4332500000000000 C
   0.8099800000000000    0.5582350000000000    0.4034500000000000 C
   0.8064400000000000    0.5141450000000000    0.3947100000000000 C
   0.0039900000000000    0.3671650000000000    0.4328100000000000 C
   0.1167700000000000    0.4042800000000000    0.4034300000000000 C
   0.0286100000000000    0.4023100000000000    0.3944700000000000 C
   0.8819300000000000    0.4945400000000000    0.2890900000000000 C
   0.8665100000000000    0.4874150000000000    0.3571300000000000 C
   0.9125300000000000    0.4557450000000000    0.3905000000000000 C
   0.9894800000000000    0.4400100000000000    0.2889200000000000 C
   0.9753100000000000    0.4324350000000000    0.3569900000000000 C
   0.9424700000000000    0.4706400000000000    0.2536900000000000 C
   0.0141700000000000    0.4569450000000000    0.1394600000000000 C
   0.9126800000000000    0.5051600000000001    0.1388000000000000 C
   0.9557600000000001    0.4772350000000000    0.1819200000000000 C
   0.9932800000000001    0.6311000000000000    0.5672700000000001 C
   0.8807600000000000    0.5936750000000000    0.5962700000000000 C
   0.9688600000000001    0.5958750000000000    0.6055000000000000 C
   0.2614300000000000    0.4964900000000000    0.5664700000000000 C
   0.1872900000000000    0.4401800000000000    0.5962900000000000 C
   0.1913300000000000    0.4842550000000000    0.6051000000000000 C
   0.1168500000000000    0.5041500000000000    0.7109600000000000 C
   0.1316100000000000    0.5110850000000000    0.6427900000000000 C
   0.0563800000000000    0.5280200000000000    0.7464499999999999 C
   0.0851600000000000    0.5425800000000000    0.6090000000000000 C
   0.0088800000000000    0.5584700000000000    0.7112100000000000 C
   0.0225000000000000    0.5658950000000000    0.6430300000000000 C
   0.9851000000000000    0.5417149999999999    0.8608000000000000 C
   0.0863300000000000    0.4933700000000000    0.8611700000000000 C
   0.0434100000000000    0.5214400000000000    0.8182000000000000 C
   0.2362900000000000    0.2517550000000000    0.5667000000000000 C
   0.3099600000000000    0.3082200000000000    0.5965000000000000 C
   0.3064100000000000    0.2641300000000000    0.6052500000000000 C
   0.6167500000000000    0.1543000000000000    0.5965300000000000 C
   0.5039900000000000    0.1171700000000000    0.5671600000000000 C
   0.5286000000000000    0.1523200000000000    0.6054900000000000 C
   0.5140900000000000    0.2069400000000000    0.8605000000000000 C
   0.4126800000000000    0.2551650000000000    0.8610000000000000 C
   0.4557400000000000    0.2272450000000000    0.8179999999999999 C
   0.3819000000000000    0.2445400000000000    0.7108700000000000 C
   0.3664800000000000    0.2374150000000000    0.6428300000000000 C
   0.4125200000000000    0.2057500000000000    0.6094500000000000 C
   0.4894700000000000    0.1900250000000000    0.7110300000000001 C
   0.4753000000000000    0.1824450000000000    0.6429600000000000 C
   0.4424500000000000    0.2206450000000000    0.7462700000000000 C
   0.7363200000000000    0.0017650000000000    0.4332500000000000 C
   0.8099800000000000    0.0582350000000000    0.4034500000000000 C
   0.8064400000000000    0.0141450000000000    0.3947100000000000 C
   0.0039900000000000    0.8671650000000000    0.4328100000000000 C
   0.1167700000000000    0.9042800000000000    0.4034300000000000 C
   0.0286100000000000    0.9023099999999999    0.3944700000000000 C
   0.8819300000000000    0.9945400000000000    0.2890900000000000 C
   0.8665100000000000    0.9874149999999999    0.3571300000000000 C
   0.9125300000000000    0.9557450000000001    0.3905000000000000 C
   0.9894800000000000    0.9400100000000000    0.2889200000000000 C
   0.9753100000000000    0.9324350000000000    0.3569900000000000 C
   0.9424700000000000    0.9706399999999999    0.2536900000000000 C
   0.0141700000000000    0.9569449999999999    0.1394600000000000 C
   0.9126800000000000    0.0051600000000000    0.1388000000000000 C
   0.9557600000000001    0.9772350000000001    0.1819200000000000 C
   0.9932800000000001    0.1311000000000000    0.5672700000000001 C
   0.8807600000000000    0.0936750000000000    0.5962700000000000 C
   0.9688600000000001    0.0958750000000000    0.6055000000000000 C
   0.2614300000000000    0.9964900000000000    0.5664700000000000 C
   0.1872900000000000    0.9401800000000000    0.5962900000000000 C
   0.1913300000000000    0.9842550000000000    0.6051000000000000 C
   0.1168500000000000    0.0041500000000000    0.7109600000000000 C
   0.1316100000000000    0.0110850000000000    0.6427900000000000 C
   0.0563800000000000    0.0280200000000000    0.7464499999999999 C
   0.0851600000000000    0.0425800000000000    0.6090000000000000 C
   0.0088800000000000    0.0584700000000000    0.7112100000000000 C
   0.0225000000000000    0.0658950000000000    0.6430300000000000 C
   0.9851000000000000    0.0417150000000000    0.8608000000000000 C
   0.0863300000000000    0.9933700000000000    0.8611700000000000 C
   0.0434100000000000    0.0214400000000000    0.8182000000000000 C
   0.2362900000000000    0.7517550000000000    0.5667000000000000 C
   0.3099600000000000    0.8082199999999999    0.5965000000000000 C
   0.3064100000000000    0.7641300000000000    0.6052500000000000 C
   0.6167500000000000    0.6543000000000000    0.5965300000000000 C
   0.5039900000000000    0.6171700000000000    0.5671600000000000 C
   0.5286000000000000    0.6523200000000000    0.6054900000000000 C
   0.5140900000000000    0.7069400000000000    0.8605000000000000 C
   0.4126800000000000    0.7551650000000000    0.8610000000000000 C
   0.4557400000000000    0.7272450000000000    0.8179999999999999 C
   0.3819000000000000    0.7445400000000000    0.7108700000000000 C
   0.3664800000000000    0.7374149999999999    0.6428300000000000 C
   0.4125200000000000    0.7057500000000000    0.6094500000000000 C
   0.4894700000000000    0.6900250000000000    0.7110300000000001 C
   0.4753000000000000    0.6824450000000000    0.6429600000000000 C
   0.4424500000000000    0.7206450000000000    0.7462700000000000 C
   0.0730200000000000    0.8987450000000000    0.9624500000000000 N
   0.1432300000000000    0.8755150000000000    0.9441600000000000 N
   0.7016000000000000    0.7121850000000001    0.9631800000000000 N
   0.7473400000000000    0.6769600000000000    0.9443200000000000 N
   0.9420100000000000    0.7466300000000000    0.5759800000000000 N
   0.0000000000000000    0.7767700000000000    0.5761800000000000 N
   0.8545800000000000    0.6227100000000000    0.0556100000000000 N
   0.9248700000000000    0.5995550000000001    0.0372400000000000 N
   0.2508000000000000    0.8210550000000000    0.0556000000000000 N
   0.2968400000000000    0.7858800000000000    0.0369000000000000 N
   0.9920500000000000    0.7214150000000000    0.4236400000000000 N
   0.0553300000000000    0.7514500000000000    0.4239800000000000 N
   0.5730000000000000    0.6487400000000000    0.0375200000000000 N
   0.6432300000000000    0.6255250000000000    0.0558100000000000 N
   0.2473800000000000    0.4269450000000000    0.0556600000000000 N
   0.2016800000000000    0.4621750000000000    0.0367000000000000 N
   0.5051200000000000    0.5267800000000000    0.4237900000000000 N
   0.4421000000000000    0.4966200000000000    0.4239800000000000 N
   0.4248700000000000    0.3495550000000000    0.9627200000000000 N
   0.3545800000000000    0.3727100000000000    0.9443600000000000 N
   0.7968300000000000    0.5358950000000000    0.9630300000000001 N
   0.7508000000000000    0.5710700000000000    0.9443700000000000 N
   0.4920800000000000    0.4714000000000000    0.5763200000000001 N
   0.5553300000000000    0.5000000000000000    0.5759900000000000 N
   0.0730200000000000    0.3987450000000000    0.9624500000000000 N
   0.1432300000000000    0.3755150000000000    0.9441600000000000 N
   0.7016000000000000    0.2121850000000000    0.9631800000000000 N
   0.7473400000000000    0.1769600000000000    0.9443200000000000 N
   0.9420100000000000    0.2466300000000000    0.5759800000000000 N
   0.0000000000000000    0.2767700000000000    0.5761800000000000 N
   0.5730000000000000    0.1487400000000000    0.0375200000000000 N
   0.6432300000000000    0.1255250000000000    0.0558100000000000 N
   0.2473800000000000    0.9269450000000000    0.0556600000000000 N
   0.2016800000000000    0.9621750000000000    0.0367000000000000 N
   0.5051200000000000    0.0267800000000000    0.4237900000000000 N
   0.4421000000000000    0.9966200000000001    0.4239800000000000 N
   0.4248700000000000    0.8495550000000001    0.9627200000000000 N
   0.3545800000000000    0.8727100000000000    0.9443600000000000 N
   0.7968300000000000    0.0358950000000000    0.9630300000000001 N
   0.7508000000000000    0.0710700000000000    0.9443700000000000 N
   0.5553300000000000    0.0000000000000000    0.5759900000000000 N
   0.4920800000000000    0.9714000000000000    0.5763200000000001 N
   0.7965400000000000    0.2121900000000000    0.4632200000000000 N
   0.7503800000000000    0.1770550000000000    0.4445800000000000 N
   0.4246900000000000    0.3985700000000000    0.4626100000000000 N
   0.3544800000000000    0.3752600000000000    0.4444900000000000 N