H6 O4
1.0
   6.7644995878830967    0.0000000000000000   -0.0023612558970706
  -1.4265662371981052   13.4593868164228816   -0.0777193462941166
   0.0000000000000000    0.0000000000000000   27.8730000000000011
H O
6 4
direct
   0.3611837006077132    0.0432716138670108    0.7863167362026049 H
   1.1040451707045147    0.1109986303213573    0.6691211023121927 H
   1.2285057176630281    0.0944481134848376    0.7282631353022915 H
   1.2391297609263039    0.7974885807194904    0.6557322020874509 H
   1.1153701466181016    0.7720484195626011    0.6429129993283118 H
   0.4113297863395787    0.8282058360846426    0.7238746813180862 H
   0.3077900000000000    0.0170300000000000    0.7559800000000000 O
   1.1569900000000000    0.0593000000000000    0.6876300000000000 O
   1.1415600000000001    0.7745000000000000    0.6771400000000000 O
   0.3085300000000000    0.8039849999999999    0.7464300000000000 O
