H14 C13 N2
1.0
   6.7644995878830967    0.0000000000000000   -0.0023612558970706
  -1.4265662371981052   13.4593868164228816   -0.0777193462941166
   0.0000000000000000    0.0000000000000000   27.8730000000000011
H C N
14 13 2
direct
   0.4212100000000000    0.1665800000000000    0.3837100000000000 H
   0.4663200000000000    0.2945800000000000    0.3198400000000000 H
   0.0621900000000000    0.4636250000000000    0.3826400000000000 H
   0.0022100000000000    0.3440500000000000    0.4511000000000000 H
   0.0413700000000000    0.1766350000000000    0.4825300000000000 H
   0.1691300000000000    0.0950300000000000    0.4469200000000000 H
   0.3578400000000000    0.2488850000000000    0.5194000000000000 H
   0.3292800000000000    0.2092100000000000    0.6163100000000000 H
   0.5855500000000000    0.2313050000000000    0.6805800000000000 H
   0.9261100000000000    0.0316300000000000    0.6166100000000000 H
   0.6865700000000000    0.0021400000000000    0.5477400000000000 H
   0.3504000000000000    0.0212850000000000    0.5161900000000000 H
   0.1872400000000000    0.0851700000000000    0.5517700000000000 H
   0.4966600000000000    0.1795600000000000    0.4804400000000000 H
   0.3427400000000000    0.2327150000000000    0.3864700000000000 C
   0.3682200000000000    0.3029150000000000    0.3502500000000000 C
   0.1414700000000000    0.3977550000000000    0.3855200000000000 C
   0.1093700000000000    0.3307700000000000    0.4231400000000000 C
   0.2109200000000000    0.2456800000000000    0.4241300000000000 C
   0.1817800000000000    0.1696350000000000    0.4634200000000000 C
   0.4620100000000000    0.1703550000000000    0.6133999999999999 C
   0.6026700000000000    0.1828650000000000    0.6498400000000000 C
   0.7936800000000001    0.0708450000000000    0.6139200000000000 C
   0.6594700000000000    0.0550450000000000    0.5760800000000000 C
   0.4885700000000000    0.1053350000000000    0.5752800000000000 C
   0.3367000000000000    0.0913350000000000    0.5356200000000000 C
   0.3542800000000000    0.1778650000000000    0.4997500000000000 C
   0.2698000000000000    0.3845800000000000    0.3496100000000000 N
   0.7668700000000001    0.1342700000000000    0.6502599999999999 N
