H8 O5
1.0
  22.5959996558432401    0.0000000000000000    0.0039437459577853
   0.0164306720775313   24.0765200766293290   -3.8978213187215274
   0.0000000000000000    0.0000000000000000   22.7650000000000006
H O
8 5
direct
   0.2347701144543090   -0.0012771645944816    0.2593228929573361 H
   0.3954399865955414   -0.0135424558432117    0.2744635393519625 H
   0.3217101977782697   -0.0209699322094595    0.2750693524759562 H
   0.3175088632018194    0.7658811783041931    0.4044724711271842 H
   0.2710526369754606    0.7852820333739010    0.3834244980448712 H
   0.4014899819401352    0.8576463193904698    0.6373928234549845 H
   0.2328615184188799    0.8682252494804669    0.6843895990305543 H
   0.3063372863839744    0.8627510999060195    0.6581290027854939 H
   0.2670550000000000    0.0210700000000000    0.2480100000000000 O
   0.3656000000000000    0.0094100000000000    0.2596900000000000 O
   0.2974900000000000    0.7546700000000000    0.3675900000000000 O
   0.3720200000000000    0.8629599999999999    0.6687800000000000 O
   0.2752300000000000    0.8683600000000000    0.6912600000000000 O
