H8 C14 S1 O6
1.0
  22.5959996558432401    0.0000000000000000    0.0039437459577853
   0.0164306720775313   24.0765200766293290   -3.8978213187215274
   0.0000000000000000    0.0000000000000000   22.7650000000000006
H C S O
8 14 1 6
direct
   0.1911350000000000    0.8980800000000000    0.3802100000000000 H
   0.2148100000000000    0.8805400000000000    0.5987900000000000 H
   0.3650550000000000    0.7864800000000000    0.4568400000000000 H
   0.3615900000000000    0.8273800000000000    0.3260000000000000 H
   0.3830900000000000    0.9097200000000000    0.2763000000000000 H
   0.2118450000000000    0.9778000000000000    0.3272200000000000 H
   0.1915900000000000    0.8583200000000000    0.4905000000000000 H
   0.3877450000000000    0.8092400000000000    0.5656900000000000 H
   0.3115950000000000    0.9973300000000000    0.2665500000000000 C
   0.3179650000000000    0.8592000000000000    0.6538300000000000 C
   0.2767400000000000    0.8204399999999999    0.4678400000000000 C
   0.2755600000000000    0.8587500000000000    0.3566400000000000 C
   0.2333900000000000    0.9010600000000000    0.3580100000000000 C
   0.2476700000000000    0.8602600000000000    0.5675000000000000 C
   0.3029550000000000    0.8460500000000000    0.5887200000000000 C
   0.3324350000000000    0.8069300000000000    0.4880700000000000 C
   0.3297300000000000    0.8610900000000000    0.3274400000000000 C
   0.3413850000000000    0.9068700000000000    0.2995200000000000 C
   0.2452000000000000    0.9457700000000000    0.3287000000000000 C
   0.2345950000000000    0.8478200000000000    0.5070000000000000 C
   0.2993900000000000    0.9492000000000000    0.2994900000000000 C
   0.3451000000000000    0.8199800000000000    0.5485500000000000 C
   0.2577200000000000    0.8007200000000000    0.3914100000000000 S
   0.2974900000000000    0.7546700000000000    0.3675900000000000 O
   0.2752300000000000    0.8683600000000000    0.6912600000000000 O
   0.1937650000000000    0.7932000000000000    0.3880800000000000 O
   0.3656000000000000    0.0094100000000000    0.2596900000000000 O
   0.2670550000000000    0.0210700000000000    0.2480100000000000 O
   0.3720200000000000    0.8629599999999999    0.6687800000000000 O
