Cd48 H429 C473 N143 O188
1.0
  39.7438779401645519    0.0000000000000000    0.0985001385871959
   0.0007489421617914   14.5439990946454980    0.0050768136251026
   0.0000000000000000    0.0000000000000000   36.2479999999999976
Cd H C N O
48 429 473 143 188
direct
   0.2110733333333333    0.5509300000000000    0.3340200000000000 Cd
   0.2111000000000000    0.0506900000000000    0.4162300000000000 Cd
   0.2890333333333333    0.0508500000000000    0.0836900000000000 Cd
   0.1222233333333333    0.9493400000000000    0.0837700000000000 Cd
   0.0442900000000000    0.9491900000000000    0.4163100000000000 Cd
   0.0445133333333333    0.4491000000000000    0.3337500000000000 Cd
   0.1222533333333333    0.4491000000000000    0.1659800000000000 Cd
   0.2888100000000000    0.5509300000000000    0.1662500000000000 Cd
   0.5444066666666667    0.5509300000000000    0.3340200000000000 Cd
   0.5444333333333333    0.0506900000000000    0.4162300000000000 Cd
   0.6223666666666666    0.0508500000000000    0.0836900000000000 Cd
   0.4555566666666666    0.9493400000000000    0.0837700000000000 Cd
   0.3776233333333333    0.9491900000000000    0.4163100000000000 Cd
   0.3778466666666667    0.4491000000000000    0.3337500000000000 Cd
   0.4555866666666666    0.4491000000000000    0.1659800000000000 Cd
   0.6221433333333333    0.5509300000000000    0.1662500000000000 Cd
   0.8777400000000000    0.5509300000000000    0.3340200000000000 Cd
   0.8777666666666666    0.0506900000000000    0.4162300000000000 Cd
   0.9557000000000000    0.0508500000000000    0.0836900000000000 Cd
   0.7888900000000000    0.9493400000000000    0.0837700000000000 Cd
   0.7109566666666667    0.9491900000000000    0.4163100000000000 Cd
   0.7111799999999999    0.4491000000000000    0.3337500000000000 Cd
   0.7889200000000000    0.4491000000000000    0.1659800000000000 Cd
   0.9554766666666666    0.5509300000000000    0.1662500000000000 Cd
   0.2110733333333333    0.5509300000000000    0.8340200000000000 Cd
   0.2111000000000000    0.0506900000000000    0.9162300000000000 Cd
   0.2890333333333333    0.0508500000000000    0.5836900000000000 Cd
   0.1222233333333333    0.9493400000000000    0.5837700000000000 Cd
   0.0442900000000000    0.9491900000000000    0.9163100000000000 Cd
   0.0445133333333333    0.4491000000000000    0.8337500000000000 Cd
   0.1222533333333333    0.4491000000000000    0.6659800000000000 Cd
   0.2888100000000000    0.5509300000000000    0.6662500000000000 Cd
   0.5444066666666667    0.5509300000000000    0.8340200000000000 Cd
   0.5444333333333333    0.0506900000000000    0.9162300000000000 Cd
   0.6223666666666666    0.0508500000000000    0.5836900000000000 Cd
   0.4555566666666666    0.9493400000000000    0.5837700000000000 Cd
   0.3776233333333333    0.9491900000000000    0.9163100000000000 Cd
   0.3778466666666667    0.4491000000000000    0.8337500000000000 Cd
   0.4555866666666666    0.4491000000000000    0.6659800000000000 Cd
   0.6221433333333333    0.5509300000000000    0.6662500000000000 Cd
   0.8777400000000000    0.5509300000000000    0.8340200000000000 Cd
   0.8777666666666666    0.0506900000000000    0.9162300000000000 Cd
   0.9557000000000000    0.0508500000000000    0.5836900000000000 Cd
   0.7888900000000000    0.9493400000000000    0.5837700000000000 Cd
   0.7109566666666667    0.9491900000000000    0.9163100000000000 Cd
   0.7111799999999999    0.4491000000000000    0.8337500000000000 Cd
   0.7889200000000000    0.4491000000000000    0.6659800000000000 Cd
   0.9554766666666666    0.5509300000000000    0.6662500000000000 Cd
   0.0741066666666667    0.1583000000000000    0.1418650000000000 H
   0.0319866666666667    0.0505200000000000    0.1156600000000000 H
   0.2921866666666667    0.2547100000000000    0.1137450000000000 H
   0.1894833333333333    0.9603200000000000    0.0041400000000000 H
   0.1954900000000000    0.8740000000000000    0.4698000000000000 H
   0.2313033333333333    0.0792500000000000    0.0135600000000000 H
   0.2214833333333333    0.9610200000000000    0.0585000000000000 H
   0.2524333333333333    0.8738300000000000    0.0666700000000000 H
   0.2620800000000000    0.7566400000000000    0.0208450000000000 H
   0.0925800000000000    0.1581300000000000    0.3583150000000000 H
   0.1346766666666667    0.0503600000000000    0.3845350000000000 H
   0.2077366666666667    0.2548100000000000    0.3867650000000000 H
   0.3105400000000000    0.9605399999999999    0.0000000000000000 H
   0.3046000000000000    0.8742700000000000    0.0301900000000000 H
   0.2686633333333333    0.0793300000000000    0.4862950000000000 H
   0.2785600000000000    0.9608900000000000    0.4414200000000000 H
   0.2476266666666667    0.8735800000000000    0.4333350000000000 H
   0.2380533333333333    0.7565200000000000    0.4792550000000000 H
   0.0923233333333333    0.6588600000000000    0.3920500000000000 H
   0.1344033333333333    0.5508700000000000    0.3656350000000000 H
   0.2077233333333333    0.7546000000000000    0.3636050000000000 H
   0.3104333333333333    0.4607000000000000    0.2539300000000000 H
   0.3044766666666666    0.3743700000000000    0.2196100000000000 H
   0.2685633333333333    0.5795000000000000    0.2636200000000000 H
   0.2784966666666666    0.4611400000000000    0.3084900000000000 H
   0.2475700000000000    0.3738300000000000    0.3168150000000000 H
   0.2379733333333333    0.2567000000000000    0.2710150000000000 H
   0.0741333333333333    0.6584300000000000    0.1083250000000000 H
   0.0319166666666667    0.5507500000000000    0.1346900000000000 H
   0.2920500000000000    0.7547900000000000    0.1363150000000000 H
   0.1893733333333333    0.4604000000000000    0.2463300000000000 H
   0.1954133333333333    0.3741200000000000    0.2806650000000000 H
   0.2311933333333333    0.5794300000000000    0.2365750000000000 H
   0.2213166666666667    0.4610200000000000    0.1917600000000000 H
   0.2522833333333333    0.3738500000000000    0.1834400000000000 H
   0.2619766666666666    0.2567300000000000    0.2292900000000000 H
   0.2410000000000000    0.3411700000000000    0.1079500000000000 H
   0.1989200000000000    0.4491600000000000    0.1343600000000000 H
   0.1256000000000000    0.2454300000000000    0.1363950000000000 H
   0.0228900000000000    0.5393200000000000    0.2460700000000000 H
   0.0288433333333333    0.6256600000000000    0.2803900000000000 H
   0.0647633333333333    0.4205300000000000    0.2363850000000000 H
   0.0548266666666667    0.5388800000000000    0.1915100000000000 H
   0.0857500000000000    0.6261900000000000    0.1831850000000000 H
   0.0953433333333333    0.7433300000000000    0.2289850000000000 H
   0.2591900000000000    0.3416000000000000    0.3916750000000000 H
   0.3014066666666667    0.4492800000000000    0.3653100000000000 H
   0.0412733333333333    0.2452400000000000    0.3636850000000000 H
   0.1439466666666667    0.5396500000000000    0.2536700000000000 H
   0.1379066666666666    0.6259200000000000    0.2193300000000000 H
   0.1021300000000000    0.4206000000000000    0.2634250000000000 H
   0.1120066666666667    0.5390300000000000    0.3082400000000000 H
   0.0810366666666667    0.6261800000000000    0.3165600000000000 H
   0.0713400000000000    0.7433000000000000    0.2707100000000000 H
   0.2592166666666667    0.8417300000000000    0.3581400000000000 H
   0.3013366666666666    0.9495100000000000    0.3843400000000000 H
   0.0411366666666667    0.7453200000000000    0.3862550000000000 H
   0.1438400000000000    0.0397100000000000    0.0000000000000000 H
   0.1378300000000000    0.1260400000000000    0.0302050000000000 H
   0.1020200000000000    0.9207800000000000    0.4864400000000000 H
   0.1118400000000000    0.0390200000000000    0.4415000000000000 H
   0.0808900000000000    0.1262000000000000    0.4333350000000000 H
   0.0712433333333333    0.2433900000000000    0.4791600000000000 H
   0.2407433333333333    0.8419000000000000    0.1416850000000000 H
   0.1986466666666667    0.9496700000000000    0.1154700000000000 H
   0.1255866666666667    0.7452200000000000    0.1132350000000000 H
   0.0227833333333333    0.0394900000000000    0.0042300000000000 H
   0.0287233333333333    0.1257600000000000    0.4698100000000000 H
   0.0646600000000000    0.9207000000000000    0.0137100000000000 H
   0.0547600000000000    0.0391400000000000    0.0585850000000000 H
   0.0856966666666667    0.1264500000000000    0.0666650000000000 H
   0.0952700000000000    0.2435100000000000    0.0207450000000000 H
   0.4074400000000000    0.1583000000000000    0.1418650000000000 H
   0.3653200000000000    0.0505200000000000    0.1156600000000000 H
   0.6255200000000000    0.2547100000000000    0.1137450000000000 H
   0.5228166666666667    0.9603200000000000    0.0041400000000000 H
   0.5288233333333333    0.8740000000000000    0.4698000000000000 H
   0.5646366666666667    0.0792500000000000    0.0135600000000000 H
   0.5548166666666666    0.9610200000000000    0.0585000000000000 H
   0.5857666666666665    0.8738300000000000    0.0666700000000000 H
   0.5954133333333333    0.7566400000000000    0.0208450000000000 H
   0.4259133333333333    0.1581300000000000    0.3583150000000000 H
   0.4680100000000000    0.0503600000000000    0.3845350000000000 H
   0.5410699999999999    0.2548100000000000    0.3867650000000000 H
   0.6438733333333333    0.9605399999999999    0.0000000000000000 H
   0.6379333333333332    0.8742700000000000    0.0301900000000000 H
   0.6019966666666666    0.0793300000000000    0.4862950000000000 H
   0.6118933333333333    0.9608900000000000    0.4414200000000000 H
   0.5809599999999999    0.8735800000000000    0.4333350000000000 H
   0.5713866666666667    0.7565200000000000    0.4792550000000000 H
   0.4256566666666666    0.6588600000000000    0.3920500000000000 H
   0.4677366666666666    0.5508700000000000    0.3656350000000000 H
   0.5410566666666666    0.7546000000000000    0.3636050000000000 H
   0.6437666666666666    0.4607000000000000    0.2539300000000000 H
   0.6378100000000000    0.3743700000000000    0.2196100000000000 H
   0.6018966666666666    0.5795000000000000    0.2636200000000000 H
   0.6118299999999999    0.4611400000000000    0.3084900000000000 H
   0.5809033333333333    0.3738300000000000    0.3168150000000000 H
   0.5713066666666666    0.2567000000000000    0.2710150000000000 H
   0.4074666666666666    0.6584300000000000    0.1083250000000000 H
   0.3652500000000000    0.5507500000000000    0.1346900000000000 H
   0.6253833333333333    0.7547900000000000    0.1363150000000000 H
   0.5227066666666667    0.4604000000000000    0.2463300000000000 H
   0.5287466666666667    0.3741200000000000    0.2806650000000000 H
   0.5645266666666666    0.5794300000000000    0.2365750000000000 H
   0.5546500000000000    0.4610200000000000    0.1917600000000000 H
   0.5856166666666667    0.3738500000000000    0.1834400000000000 H
   0.5953100000000000    0.2567300000000000    0.2292900000000000 H
   0.5743333333333334    0.3411700000000000    0.1079500000000000 H
   0.5322533333333332    0.4491600000000000    0.1343600000000000 H
   0.4589333333333333    0.2454300000000000    0.1363950000000000 H
   0.3562233333333333    0.5393200000000000    0.2460700000000000 H
   0.3621766666666666    0.6256600000000000    0.2803900000000000 H
   0.3980966666666667    0.4205300000000000    0.2363850000000000 H
   0.3881599999999999    0.5388800000000000    0.1915100000000000 H
   0.4190833333333333    0.6261900000000000    0.1831850000000000 H
   0.4286766666666667    0.7433300000000000    0.2289850000000000 H
   0.5925233333333333    0.3416000000000000    0.3916750000000000 H
   0.6347400000000000    0.4492800000000000    0.3653100000000000 H
   0.3746066666666666    0.2452400000000000    0.3636850000000000 H
   0.4772800000000000    0.5396500000000000    0.2536700000000000 H
   0.4712400000000000    0.6259200000000000    0.2193300000000000 H
   0.4354633333333333    0.4206000000000000    0.2634250000000000 H
   0.4453400000000000    0.5390300000000000    0.3082400000000000 H
   0.4143700000000000    0.6261800000000000    0.3165600000000000 H
   0.4046733333333333    0.7433000000000000    0.2707100000000000 H
   0.5925499999999999    0.8417300000000000    0.3581400000000000 H
   0.6346700000000000    0.9495100000000000    0.3843400000000000 H
   0.3744700000000000    0.7453200000000000    0.3862550000000000 H
   0.4771733333333333    0.0397100000000000    0.0000000000000000 H
   0.4711633333333333    0.1260400000000000    0.0302050000000000 H
   0.4353533333333333    0.9207800000000000    0.4864400000000000 H
   0.4451733333333333    0.0390200000000000    0.4415000000000000 H
   0.4142233333333333    0.1262000000000000    0.4333350000000000 H
   0.4045766666666666    0.2433900000000000    0.4791600000000000 H
   0.5740766666666667    0.8419000000000000    0.1416850000000000 H
   0.5319800000000000    0.9496700000000000    0.1154700000000000 H
   0.4589200000000000    0.7452200000000000    0.1132350000000000 H
   0.3561166666666666    0.0394900000000000    0.0042300000000000 H
   0.3620566666666666    0.1257600000000000    0.4698100000000000 H
   0.3979933333333333    0.9207000000000000    0.0137100000000000 H
   0.3880933333333333    0.0391400000000000    0.0585850000000000 H
   0.4190300000000000    0.1264500000000000    0.0666650000000000 H
   0.4286033333333333    0.2435100000000000    0.0207450000000000 H
   0.7407733333333333    0.1583000000000000    0.1418650000000000 H
   0.6986533333333333    0.0505200000000000    0.1156600000000000 H
   0.9588533333333333    0.2547100000000000    0.1137450000000000 H
   0.8561500000000000    0.9603200000000000    0.0041400000000000 H
   0.8621566666666667    0.8740000000000000    0.4698000000000000 H
   0.8979699999999999    0.0792500000000000    0.0135600000000000 H
   0.8881500000000000    0.9610200000000000    0.0585000000000000 H
   0.9190999999999999    0.8738300000000000    0.0666700000000000 H
   0.9287466666666666    0.7566400000000000    0.0208450000000000 H
   0.7592466666666666    0.1581300000000000    0.3583150000000000 H
   0.8013433333333333    0.0503600000000000    0.3845350000000000 H
   0.8744033333333333    0.2548100000000000    0.3867650000000000 H
   0.9772066666666666    0.9605399999999999    0.0000000000000000 H
   0.9712666666666666    0.8742700000000000    0.0301900000000000 H
   0.9353300000000000    0.0793300000000000    0.4862950000000000 H
   0.9452266666666667    0.9608900000000000    0.4414200000000000 H
   0.9142933333333333    0.8735800000000000    0.4333350000000000 H
   0.9047200000000000    0.7565200000000000    0.4792550000000000 H
   0.7589899999999999    0.6588600000000000    0.3920500000000000 H
   0.8010699999999999    0.5508700000000000    0.3656350000000000 H
   0.8743900000000000    0.7546000000000000    0.3636050000000000 H
   0.9771000000000000    0.4607000000000000    0.2539300000000000 H
   0.9711433333333332    0.3743700000000000    0.2196100000000000 H
   0.9352300000000000    0.5795000000000000    0.2636200000000000 H
   0.9451633333333332    0.4611400000000000    0.3084900000000000 H
   0.9142366666666666    0.3738300000000000    0.3168150000000000 H
   0.9046399999999999    0.2567000000000000    0.2710150000000000 H
   0.7407999999999999    0.6584300000000000    0.1083250000000000 H
   0.6985833333333333    0.5507500000000000    0.1346900000000000 H
   0.9587166666666667    0.7547900000000000    0.1363150000000000 H
   0.8560399999999999    0.4604000000000000    0.2463300000000000 H
   0.8620800000000000    0.3741200000000000    0.2806650000000000 H
   0.8978599999999999    0.5794300000000000    0.2365750000000000 H
   0.8879833333333333    0.4610200000000000    0.1917600000000000 H
   0.9189499999999999    0.3738500000000000    0.1834400000000000 H
   0.9286433333333333    0.2567300000000000    0.2292900000000000 H
   0.9076666666666666    0.3411700000000000    0.1079500000000000 H
   0.8655866666666666    0.4491600000000000    0.1343600000000000 H
   0.7922666666666667    0.2454300000000000    0.1363950000000000 H
   0.6895566666666666    0.5393200000000000    0.2460700000000000 H
   0.6955100000000000    0.6256600000000000    0.2803900000000000 H
   0.7314299999999999    0.4205300000000000    0.2363850000000000 H
   0.7214933333333333    0.5388800000000000    0.1915100000000000 H
   0.7524166666666666    0.6261900000000000    0.1831850000000000 H
   0.7620100000000000    0.7433300000000000    0.2289850000000000 H
   0.9258566666666666    0.3416000000000000    0.3916750000000000 H
   0.9680733333333333    0.4492800000000000    0.3653100000000000 H
   0.7079400000000000    0.2452400000000000    0.3636850000000000 H
   0.8106133333333333    0.5396500000000000    0.2536700000000000 H
   0.8045733333333333    0.6259200000000000    0.2193300000000000 H
   0.7687966666666666    0.4206000000000000    0.2634250000000000 H
   0.7786733333333333    0.5390300000000000    0.3082400000000000 H
   0.7477033333333333    0.6261800000000000    0.3165600000000000 H
   0.7380066666666666    0.7433000000000000    0.2707100000000000 H
   0.9258833333333333    0.8417300000000000    0.3581400000000000 H
   0.9680033333333333    0.9495100000000000    0.3843400000000000 H
   0.7078033333333333    0.7453200000000000    0.3862550000000000 H
   0.8105066666666666    0.0397100000000000    0.0000000000000000 H
   0.8044966666666666    0.1260400000000000    0.0302050000000000 H
   0.7686866666666666    0.9207800000000000    0.4864400000000000 H
   0.7785066666666667    0.0390200000000000    0.4415000000000000 H
   0.7475566666666666    0.1262000000000000    0.4333350000000000 H
   0.7379100000000000    0.2433900000000000    0.4791600000000000 H
   0.6894500000000000    0.0394900000000000    0.0042300000000000 H
   0.6953900000000000    0.1257600000000000    0.4698100000000000 H
   0.7313266666666667    0.9207000000000000    0.0137100000000000 H
   0.7214266666666667    0.0391400000000000    0.0585850000000000 H
   0.7523633333333333    0.1264500000000000    0.0666650000000000 H
   0.7619366666666666    0.2435100000000000    0.0207450000000000 H
   0.0741066666666667    0.1583000000000000    0.6418650000000000 H
   0.0319866666666667    0.0505200000000000    0.6156600000000000 H
   0.2921866666666667    0.2547100000000000    0.6137450000000000 H
   0.1894833333333333    0.9603200000000000    0.5041400000000000 H
   0.1954900000000000    0.8740000000000000    0.9698000000000000 H
   0.2313033333333333    0.0792500000000000    0.5135600000000000 H
   0.2214833333333333    0.9610200000000000    0.5585000000000000 H
   0.2524333333333333    0.8738300000000000    0.5666700000000000 H
   0.2620800000000000    0.7566400000000000    0.5208450000000000 H
   0.0925800000000000    0.1581300000000000    0.8583149999999999 H
   0.1346766666666667    0.0503600000000000    0.8845350000000001 H
   0.2077366666666667    0.2548100000000000    0.8867650000000000 H
   0.3105400000000000    0.9605399999999999    0.5000000000000000 H
   0.3046000000000000    0.8742700000000000    0.5301900000000001 H
   0.2686633333333333    0.0793300000000000    0.9862949999999999 H
   0.2785600000000000    0.9608900000000000    0.9414199999999999 H
   0.2476266666666667    0.8735800000000000    0.9333350000000000 H
   0.2380533333333333    0.7565200000000000    0.9792550000000000 H
   0.0923233333333333    0.6588600000000000    0.8920500000000000 H
   0.1344033333333333    0.5508700000000000    0.8656349999999999 H
   0.2077233333333333    0.7546000000000000    0.8636050000000000 H
   0.3104333333333333    0.4607000000000000    0.7539300000000000 H
   0.3044766666666666    0.3743700000000000    0.7196100000000000 H
   0.2685633333333333    0.5795000000000000    0.7636200000000000 H
   0.2784966666666666    0.4611400000000000    0.8084899999999999 H
   0.2475700000000000    0.3738300000000000    0.8168150000000001 H
   0.2379733333333333    0.2567000000000000    0.7710150000000000 H
   0.0741333333333333    0.6584300000000000    0.6083250000000000 H
   0.0319166666666667    0.5507500000000000    0.6346900000000000 H
   0.2920500000000000    0.7547900000000000    0.6363150000000000 H
   0.1893733333333333    0.4604000000000000    0.7463299999999999 H
   0.1954133333333333    0.3741200000000000    0.7806649999999999 H
   0.2311933333333333    0.5794300000000000    0.7365750000000000 H
   0.2213166666666667    0.4610200000000000    0.6917600000000000 H
   0.2522833333333333    0.3738500000000000    0.6834400000000000 H
   0.2619766666666666    0.2567300000000000    0.7292900000000000 H
   0.2410000000000000    0.3411700000000000    0.6079500000000000 H
   0.1989200000000000    0.4491600000000000    0.6343600000000000 H
   0.1256000000000000    0.2454300000000000    0.6363950000000000 H
   0.0228900000000000    0.5393200000000000    0.7460700000000000 H
   0.0288433333333333    0.6256600000000000    0.7803899999999999 H
   0.0647633333333333    0.4205300000000000    0.7363850000000001 H
   0.0548266666666667    0.5388800000000000    0.6915100000000001 H
   0.0857500000000000    0.6261900000000000    0.6831849999999999 H
   0.0953433333333333    0.7433300000000000    0.7289850000000000 H
   0.2591900000000000    0.3416000000000000    0.8916750000000000 H
   0.3014066666666667    0.4492800000000000    0.8653100000000000 H
   0.0412733333333333    0.2452400000000000    0.8636850000000000 H
   0.1439466666666667    0.5396500000000000    0.7536700000000001 H
   0.1379066666666666    0.6259200000000000    0.7193300000000000 H
   0.1021300000000000    0.4206000000000000    0.7634250000000000 H
   0.1120066666666667    0.5390300000000000    0.8082400000000001 H
   0.0810366666666667    0.6261800000000000    0.8165600000000000 H
   0.0713400000000000    0.7433000000000000    0.7707100000000000 H
   0.2592166666666667    0.8417300000000000    0.8581400000000000 H
   0.3013366666666666    0.9495100000000000    0.8843400000000000 H
   0.0411366666666667    0.7453200000000000    0.8862550000000000 H
   0.1438400000000000    0.0397100000000000    0.5000000000000000 H
   0.1378300000000000    0.1260400000000000    0.5302050000000000 H
   0.1020200000000000    0.9207800000000000    0.9864400000000000 H
   0.1118400000000000    0.0390200000000000    0.9415000000000000 H
   0.0808900000000000    0.1262000000000000    0.9333350000000000 H
   0.0712433333333333    0.2433900000000000    0.9791600000000000 H
   0.2407433333333333    0.8419000000000000    0.6416850000000001 H
   0.1986466666666667    0.9496700000000000    0.6154700000000000 H
   0.1255866666666667    0.7452200000000000    0.6132350000000000 H
   0.0227833333333333    0.0394900000000000    0.5042300000000000 H
   0.0287233333333333    0.1257600000000000    0.9698100000000001 H
   0.0646600000000000    0.9207000000000000    0.5137100000000000 H
   0.0547600000000000    0.0391400000000000    0.5585850000000000 H
   0.0856966666666667    0.1264500000000000    0.5666650000000000 H
   0.0952700000000000    0.2435100000000000    0.5207450000000000 H
   0.4074400000000000    0.1583000000000000    0.6418650000000000 H
   0.3653200000000000    0.0505200000000000    0.6156600000000000 H
   0.6255200000000000    0.2547100000000000    0.6137450000000000 H
   0.5228166666666667    0.9603200000000000    0.5041400000000000 H
   0.5288233333333333    0.8740000000000000    0.9698000000000000 H
   0.5646366666666667    0.0792500000000000    0.5135600000000000 H
   0.5548166666666666    0.9610200000000000    0.5585000000000000 H
   0.5857666666666665    0.8738300000000000    0.5666700000000000 H
   0.5954133333333333    0.7566400000000000    0.5208450000000000 H
   0.4259133333333333    0.1581300000000000    0.8583149999999999 H
   0.4680100000000000    0.0503600000000000    0.8845350000000001 H
   0.5410699999999999    0.2548100000000000    0.8867650000000000 H
   0.6438733333333333    0.9605399999999999    0.5000000000000000 H
   0.6379333333333332    0.8742700000000000    0.5301900000000001 H
   0.6019966666666666    0.0793300000000000    0.9862949999999999 H
   0.6118933333333333    0.9608900000000000    0.9414199999999999 H
   0.5809599999999999    0.8735800000000000    0.9333350000000000 H
   0.5713866666666667    0.7565200000000000    0.9792550000000000 H
   0.4256566666666666    0.6588600000000000    0.8920500000000000 H
   0.4677366666666666    0.5508700000000000    0.8656349999999999 H
   0.5410566666666666    0.7546000000000000    0.8636050000000000 H
   0.6437666666666666    0.4607000000000000    0.7539300000000000 H
   0.6378100000000000    0.3743700000000000    0.7196100000000000 H
   0.6018966666666666    0.5795000000000000    0.7636200000000000 H
   0.6118299999999999    0.4611400000000000    0.8084899999999999 H
   0.5809033333333333    0.3738300000000000    0.8168150000000001 H
   0.5713066666666666    0.2567000000000000    0.7710150000000000 H
   0.4074666666666666    0.6584300000000000    0.6083250000000000 H
   0.3652500000000000    0.5507500000000000    0.6346900000000000 H
   0.6253833333333333    0.7547900000000000    0.6363150000000000 H
   0.5227066666666667    0.4604000000000000    0.7463299999999999 H
   0.5287466666666667    0.3741200000000000    0.7806649999999999 H
   0.5645266666666666    0.5794300000000000    0.7365750000000000 H
   0.5546500000000000    0.4610200000000000    0.6917600000000000 H
   0.5856166666666667    0.3738500000000000    0.6834400000000000 H
   0.5953100000000000    0.2567300000000000    0.7292900000000000 H
   0.5743333333333334    0.3411700000000000    0.6079500000000000 H
   0.5322533333333332    0.4491600000000000    0.6343600000000000 H
   0.4589333333333333    0.2454300000000000    0.6363950000000000 H
   0.3562233333333333    0.5393200000000000    0.7460700000000000 H
   0.3621766666666666    0.6256600000000000    0.7803899999999999 H
   0.3980966666666667    0.4205300000000000    0.7363850000000001 H
   0.3881599999999999    0.5388800000000000    0.6915100000000001 H
   0.4190833333333333    0.6261900000000000    0.6831849999999999 H
   0.4286766666666667    0.7433300000000000    0.7289850000000000 H
   0.5925233333333333    0.3416000000000000    0.8916750000000000 H
   0.6347400000000000    0.4492800000000000    0.8653100000000000 H
   0.3746066666666666    0.2452400000000000    0.8636850000000000 H
   0.4772800000000000    0.5396500000000000    0.7536700000000001 H
   0.4712400000000000    0.6259200000000000    0.7193300000000000 H
   0.4354633333333333    0.4206000000000000    0.7634250000000000 H
   0.4453400000000000    0.5390300000000000    0.8082400000000001 H
   0.4143700000000000    0.6261800000000000    0.8165600000000000 H
   0.4046733333333333    0.7433000000000000    0.7707100000000000 H
   0.5925499999999999    0.8417300000000000    0.8581400000000000 H
   0.6346700000000000    0.9495100000000000    0.8843400000000000 H
   0.3744700000000000    0.7453200000000000    0.8862550000000000 H
   0.4771733333333333    0.0397100000000000    0.5000000000000000 H
   0.4711633333333333    0.1260400000000000    0.5302050000000000 H
   0.4353533333333333    0.9207800000000000    0.9864400000000000 H
   0.4451733333333333    0.0390200000000000    0.9415000000000000 H
   0.4142233333333333    0.1262000000000000    0.9333350000000000 H
   0.4045766666666666    0.2433900000000000    0.9791600000000000 H
   0.5740766666666667    0.8419000000000000    0.6416850000000001 H
   0.5319800000000000    0.9496700000000000    0.6154700000000000 H
   0.4589200000000000    0.7452200000000000    0.6132350000000000 H
   0.3561166666666666    0.0394900000000000    0.5042300000000000 H
   0.3620566666666666    0.1257600000000000    0.9698100000000001 H
   0.3979933333333333    0.9207000000000000    0.5137100000000000 H
   0.3880933333333333    0.0391400000000000    0.5585850000000000 H
   0.4190300000000000    0.1264500000000000    0.5666650000000000 H
   0.4286033333333333    0.2435100000000000    0.5207450000000000 H
   0.7407733333333333    0.1583000000000000    0.6418650000000000 H
   0.6986533333333333    0.0505200000000000    0.6156600000000000 H
   0.9588533333333333    0.2547100000000000    0.6137450000000000 H
   0.8561500000000000    0.9603200000000000    0.5041400000000000 H
   0.8621566666666667    0.8740000000000000    0.9698000000000000 H
   0.8979699999999999    0.0792500000000000    0.5135600000000000 H
   0.8881500000000000    0.9610200000000000    0.5585000000000000 H
   0.9190999999999999    0.8738300000000000    0.5666700000000000 H
   0.9287466666666666    0.7566400000000000    0.5208450000000000 H
   0.7592466666666666    0.1581300000000000    0.8583149999999999 H
   0.8013433333333333    0.0503600000000000    0.8845350000000001 H
   0.8744033333333333    0.2548100000000000    0.8867650000000000 H
   0.9772066666666666    0.9605399999999999    0.5000000000000000 H
   0.9712666666666666    0.8742700000000000    0.5301900000000001 H
   0.9353300000000000    0.0793300000000000    0.9862949999999999 H
   0.9452266666666667    0.9608900000000000    0.9414199999999999 H
   0.9142933333333333    0.8735800000000000    0.9333350000000000 H
   0.9047200000000000    0.7565200000000000    0.9792550000000000 H
   0.7589899999999999    0.6588600000000000    0.8920500000000000 H
   0.8010699999999999    0.5508700000000000    0.8656349999999999 H
   0.8743900000000000    0.7546000000000000    0.8636050000000000 H
   0.9771000000000000    0.4607000000000000    0.7539300000000000 H
   0.9711433333333332    0.3743700000000000    0.7196100000000000 H
   0.9352300000000000    0.5795000000000000    0.7636200000000000 H
   0.9451633333333332    0.4611400000000000    0.8084899999999999 H
   0.9142366666666666    0.3738300000000000    0.8168150000000001 H
   0.9046399999999999    0.2567000000000000    0.7710150000000000 H
   0.7407999999999999    0.6584300000000000    0.6083250000000000 H
   0.6985833333333333    0.5507500000000000    0.6346900000000000 H
   0.9587166666666667    0.7547900000000000    0.6363150000000000 H
   0.8560399999999999    0.4604000000000000    0.7463299999999999 H