H12 O8
1.0
  31.0104061167973555    0.0000000000000000   -9.5513044382061931
  -3.1684325095257653   14.1671198265065605   -6.5831110619512545
   0.0000000000000000    0.0000000000000000   36.9939999999999998
H O
12 8
direct
   0.3616368027101570    0.4507203557909094    0.7713358403970036 H
   0.4591145170839560    0.4393303984107327    0.7293694973952259 H
   0.4160886008711411    0.4355508870000751    0.7501221946849804 H
   0.4148628241946231    0.7091522242656259    0.7305386734743251 H
   0.4559162977342823    0.7023570289211085    0.7213679462957561 H
   0.3514702353222033    0.6917179088064617    0.7440548821083935 H
   0.4031748195356378    0.5615697347850024    0.1102405932859697 H
   0.4203576870647415    0.3275558181804924    0.1208338020497405 H
   0.4125130180037534    0.4410454056831490    0.1119657722364059 H
   0.6072399209778108    0.2245508320442023    0.1236791505188012 H
   0.6683706117844215    0.4827595607736966    0.1555553689276864 H
   0.6383807343148487    0.3557675557542135    0.1365126525367728 H
   0.3769100000000000    0.4761000000000000    0.7578849999999999 O
   0.4340033333333333    0.4653200000000000    0.7343450000000000 O
   0.4327200000000000    0.6702600000000000    0.7257200000000000 O
   0.3712033333333333    0.6487400000000000    0.7387300000000000 O
   0.4044100000000000    0.5223100000000001    0.1246000000000000 O
   0.4141133333333333    0.3901800000000000    0.1305700000000000 O
   0.6222600000000000    0.2891700000000000    0.1440900000000000 O
   0.6565000000000000    0.4337200000000000    0.1611350000000000 O
