H8 C14 S1 O6
1.0
  11.3069997520097409    0.0000000000000000    0.0023681325249625
   0.0008246870991955   23.9484504314913522   -3.9375907926412044
   0.0000000000000000    0.0000000000000000   22.8520000000000003
H C S O
8 14 1 6
direct
   0.4305300000000000    0.8814900000000000    0.5995800000000000 H
   0.3849000000000000    0.8595400000000000    0.4915200000000000 H
   0.7315100000000000    0.7871899999999999    0.4582400000000000 H
   0.7760400000000000    0.8096400000000000    0.5668200000000000 H
   0.3843000000000000    0.8991100000000000    0.3811500000000000 H
   0.4251700000000000    0.9784100000000000    0.3272400000000000 H
   0.7669600000000000    0.9095700000000000    0.2764500000000000 H
   0.7246600000000000    0.8276400000000000    0.3271800000000000 H
   0.6359399999999999    0.8596200000000001    0.6546000000000000 C
   0.6065700000000001    0.8467200000000000    0.5896600000000000 C
   0.4963700000000000    0.8611900000000000    0.5684000000000000 C
   0.4707100000000000    0.8489400000000000    0.5080900000000000 C
   0.5551600000000000    0.8214900000000001    0.4690500000000000 C
   0.6662100000000000    0.8077600000000000    0.4893100000000000 C
   0.6910700000000000    0.8206400000000000    0.5496700000000000 C
   0.5528400000000000    0.8593600000000000    0.3577200000000000 C
   0.4685500000000000    0.9018200000000000    0.3587800000000000 C
   0.4918200000000000    0.9463000000000000    0.3289700000000000 C
   0.5997300000000000    0.9493700000000000    0.2990000000000000 C
   0.6838300000000000    0.9069900000000000    0.2998400000000000 C
   0.6608700000000000    0.8614200000000000    0.3283400000000000 C
   0.6232799999999999    0.9971400000000000    0.2656500000000000 C
   0.5170700000000000    0.8013900000000000    0.3920000000000000 S
   0.5502899999999999    0.8684300000000000    0.6918000000000000 O
   0.7438500000000000    0.8635100000000000    0.6697800000000000 O
   0.7309800000000000    0.0089900000000000    0.2576900000000000 O
   0.5960600000000000    0.7548400000000000    0.3692900000000000 O
   0.5337900000000000    0.0208400000000000    0.2475100000000000 O
   0.3892100000000000    0.7939700000000000    0.3898700000000000 O
