Ca16 H128 C210 S15 O95
1.0
  11.3069997520097409    0.0000000000000000    0.0023681325249625
   0.0008246870991955   23.9484504314913522   -3.9375907926412044
   0.0000000000000000    0.0000000000000000   22.8520000000000003
Ca H C S O
16 128 210 15 95
direct
   0.1174200000000000    0.6829100000000000    0.2773500000000000 Ca
   0.8826400000000000    0.3170600000000000    0.7226500000000000 Ca
   0.6173999999999999    0.6829100000000000    0.2773500000000000 Ca
   0.3826500000000000    0.3170600000000000    0.7226500000000000 Ca
   0.3673200000000000    0.5675200000000000    0.2225800000000000 Ca
   0.8673100000000000    0.5675200000000000    0.2225800000000000 Ca
   0.6329800000000000    0.9324100000000000    0.7774500000000000 Ca
   0.1329900000000000    0.9324100000000000    0.7774500000000000 Ca
   0.3824300000000000    0.8170300000000000    0.7227200000000000 Ca
   0.8824200000000000    0.8170300000000000    0.7227200000000000 Ca
   0.1177200000000000    0.1829900000000000    0.2772800000000000 Ca
   0.6177100000000000    0.1829900000000000    0.2772800000000000 Ca
   0.3670500000000000    0.0676000000000000    0.2225000000000000 Ca
   0.8670400000000000    0.0676000000000000    0.2225000000000000 Ca
   0.6327900000000000    0.4324700000000000    0.7774100000000000 Ca
   0.1328000000000000    0.4324700000000000    0.7774100000000000 Ca
   0.1346600000000000    0.8904500000000000    0.0087900000000000 H
   0.1808200000000000    0.8681400000000000    0.9008000000000000 H
   0.5260500000000000    0.9402500000000000    0.9336400000000000 H
   0.4809800000000000    0.9630500000000000    0.0421500000000000 H
   0.1338300000000000    0.8512400000000000    0.1193600000000000 H
   0.1752100000000000    0.7719300000000000    0.1731900000000000 H
   0.5167800000000000    0.8410900000000000    0.2238100000000000 H
   0.4739700000000000    0.9230100000000000    0.1731400000000000 H
   0.8654300000000000    0.1095300000000000    0.9911799999999999 H
   0.8192500000000000    0.1318400000000000    0.0991700000000000 H
   0.4740300000000000    0.0597200000000000    0.0663200000000000 H
   0.5191300000000000    0.0369200000000000    0.9578100000000001 H
   0.8662500000000000    0.1487400000000000    0.8806200000000000 H
   0.8248500000000000    0.2280500000000000    0.8267900000000000 H
   0.4832800000000000    0.1588800000000000    0.7761800000000000 H
   0.5261100000000000    0.0769700000000000    0.8268500000000000 H
   0.6346500000000000    0.8904400000000000    0.0087900000000000 H
   0.6808100000000000    0.8681400000000000    0.9008000000000000 H
   0.0260600000000000    0.9402500000000000    0.9336400000000000 H
   0.9809700000000000    0.9630500000000000    0.0421500000000000 H
   0.6338200000000001    0.8512400000000000    0.1193600000000000 H
   0.6752000000000000    0.7719300000000000    0.1731900000000000 H
   0.0167900000000000    0.8410900000000000    0.2238100000000000 H
   0.9739600000000000    0.9230100000000000    0.1731400000000000 H
   0.3654400000000000    0.1095300000000000    0.9911799999999999 H
   0.3192600000000000    0.1318400000000000    0.0991700000000000 H
   0.9740200000000000    0.0597200000000000    0.0663200000000000 H
   0.0191400000000000    0.0369200000000000    0.9578100000000001 H
   0.3662600000000000    0.1487400000000000    0.8806200000000000 H
   0.3248500000000000    0.2280500000000000    0.8267900000000000 H
   0.9832700000000000    0.1588800000000000    0.7761800000000000 H
   0.0261200000000000    0.0769700000000000    0.8268500000000000 H
   0.3852300000000000    0.3595400000000000    0.4914300000000000 H
   0.4308700000000000    0.3815500000000000    0.5995000000000000 H
   0.7763300000000000    0.3096400000000000    0.5667700000000000 H
   0.7318200000000000    0.2871600000000000    0.4581900000000000 H
   0.3846600000000000    0.3991100000000000    0.3811600000000000 H
   0.4256100000000000    0.4784400000000000    0.3272900000000000 H
   0.7673600000000000    0.4095500000000000    0.2764900000000000 H
   0.7250000000000000    0.3276100000000000    0.3270000000000000 H
   0.8852200000000000    0.3595400000000000    0.4914300000000000 H
   0.9308600000000000    0.3815500000000000    0.5995000000000000 H
   0.2763400000000000    0.3096400000000000    0.5667700000000000 H
   0.2318200000000000    0.2871500000000000    0.4581900000000000 H
   0.8846500000000000    0.3991200000000000    0.3811600000000000 H
   0.9256000000000000    0.4784400000000000    0.3272900000000000 H
   0.2673700000000000    0.4095500000000000    0.2764900000000000 H
   0.2250100000000000    0.3276100000000000    0.3271900000000000 H
   0.6152500000000000    0.1404500000000000    0.5084500000000000 H
   0.5696400000000000    0.1185000000000000    0.4003900000000000 H
   0.2241200000000000    0.1903500000000000    0.4331500000000000 H
   0.2686400000000000    0.2128000000000000    0.5417300000000000 H
   0.6157899999999999    0.1008700000000000    0.6188399999999999 H
   0.5748799999999999    0.0215700000000000    0.6727400000000000 H
   0.2331100000000000    0.0904400000000000    0.7235200000000001 H
   0.2754300000000000    0.1723500000000000    0.6727900000000000 H
   0.1152600000000000    0.1404500000000000    0.5084500000000000 H
   0.0696500000000000    0.1185000000000000    0.4003900000000000 H
   0.7241100000000000    0.1903600000000000    0.4331500000000000 H
   0.7686300000000000    0.2128000000000000    0.5417300000000000 H
   0.1158000000000000    0.1008700000000000    0.6188399999999999 H
   0.0748900000000000    0.0215700000000000    0.6727400000000000 H
   0.7331000000000000    0.0904400000000000    0.7235200000000001 H
   0.7754200000000000    0.1723500000000000    0.6727900000000000 H
   0.3651500000000000    0.6095800000000000    0.9912900000000000 H
   0.3192300000000000    0.6318900000000000    0.0993000000000000 H
   0.0187500000000000    0.5370000000000000    0.9581200000000000 H
   0.9739200000000000    0.5597900000000000    0.0666600000000000 H
   0.3658400000000000    0.6487000000000001    0.8807400000000000 H
   0.3245800000000000    0.7279700000000000    0.8268300000000000 H
   0.9829500000000000    0.6588500000000000    0.7762200000000000 H
   0.0256400000000000    0.5769800000000000    0.8269000000000000 H
   0.8651400000000000    0.6095800000000000    0.9912900000000000 H
   0.8192199999999999    0.6318800000000000    0.0993000000000000 H
   0.5187400000000000    0.5370000000000000    0.9581200000000000 H
   0.4739400000000000    0.5597900000000000    0.0666600000000000 H
   0.8658300000000000    0.6487000000000001    0.8807400000000000 H
   0.8245700000000000    0.7279700000000000    0.8268300000000000 H
   0.4829600000000000    0.6588500000000000    0.7762200000000000 H
   0.5256300000000000    0.5769800000000000    0.8269900000000000 H
   0.1350000000000000    0.3904400000000000    0.0087100000000000 H
   0.1809200000000000    0.3681200000000000    0.9006999999999999 H
   0.5262000000000000    0.4402300000000000    0.9333300000000000 H
   0.4814100000000000    0.4630200000000000    0.0418600000000000 H
   0.1343600000000000    0.3513100000000000    0.1192400000000000 H
   0.1756100000000000    0.2720500000000000    0.1731600000000000 H
   0.5172099999999999    0.3411800000000000    0.2237800000000000 H
   0.4745400000000000    0.4230500000000000    0.1730000000000000 H
   0.6350000000000000    0.3904400000000000    0.0087100000000000 H
   0.6809100000000000    0.3681200000000000    0.9006999999999999 H
   0.0262100000000000    0.4402300000000000    0.9333300000000000 H
   0.9814000000000001    0.4630200000000000    0.0418600000000000 H
   0.6343500000000000    0.3513100000000000    0.1192400000000000 H
   0.6756100000000000    0.2720500000000000    0.1731600000000000 H
   0.0172200000000000    0.3411800000000000    0.2237800000000000 H
   0.9745300000000000    0.4230500000000000    0.1730000000000000 H
   0.4695027814668283   -0.0015813877099052    0.2590734224935053 H
   0.7907541627879014   -0.0142743171894806    0.2719141900378832 H
   0.6430403453269099   -0.0216806237645533    0.2735078157979131 H
   0.4860616780683978    0.8915797832220269    0.6815378153594147 H
   0.8061414161539178    0.8793316072569305    0.6484822103129583 H
   0.6558276321280265    0.8952358597709538    0.6557160829547182 H
   0.8849000000000000    0.8595400000000000    0.4915200000000000 H
   0.9305300000000000    0.8814900000000000    0.5995800000000000 H
   0.2760400000000000    0.8096300000000000    0.5668200000000000 H
   0.2315200000000000    0.7871800000000000    0.4582400000000000 H
   0.8842800000000000    0.8991100000000000    0.3811500000000000 H
   0.9251600000000000    0.9784200000000000    0.3272000000000000 H
   0.2669700000000000    0.9095700000000000    0.2764500000000000 H
   0.2246700000000000    0.8276400000000000    0.3271800000000000 H
   0.6149100000000000    0.6404400000000000    0.5085499999999999 H
   0.5692400000000000    0.6184300000000000    0.4005000000000000 H
   0.2237700000000000    0.6903400000000000    0.4332500000000000 H
   0.2683300000000000    0.7128300000000000    0.5418300000000000 H
   0.6155000000000000    0.6008800000000000    0.6188500000000000 H
   0.5745300000000000    0.5215600000000000    0.6727200000000000 H
   0.2328000000000000    0.5904600000000000    0.7235200000000001 H
   0.2751800000000000    0.6723900000000000    0.6728200000000000 H
   0.5433805273082014    0.7858848088847098    0.3844355984913375 H
   0.6343442210755361    0.7723167679080627    0.4161640563164967 H
   0.1149200000000000    0.6404400000000000    0.5085000000000000 H
   0.0692500000000000    0.6184300000000000    0.4005000000000000 H
   0.7237700000000000    0.6903400000000000    0.4332500000000000 H
   0.7683300000000000    0.7128300000000000    0.5418300000000000 H
   0.1155100000000000    0.6008800000000000    0.6188500000000000 H
   0.0745400000000000    0.5215600000000000    0.6727200000000000 H
   0.7327900000000001    0.5904600000000000    0.7235200000000001 H
   0.7751700000000000    0.6724000000000000    0.6728200000000000 H
   0.3862400000000000    0.8899600000000000    0.8458200000000000 C
   0.2205100000000000    0.9010100000000000    0.9922600000000000 C
   0.2464700000000000    0.8885700000000000    0.9319200000000000 C
   0.4410100000000000    0.9292700000000000    0.9507500000000000 C
   0.4158800000000000    0.9423600000000000    0.0110500000000000 C
   0.3047600000000000    0.9286400000000000    0.0312700000000000 C
   0.3567300000000000    0.9030200000000000    0.9107700000000000 C
   0.3738400000000000    0.7533100000000000    0.2344600000000000 C
   0.2181400000000000    0.8485900000000000    0.1416000000000000 C
   0.2417000000000000    0.8041100000000000    0.1714000000000000 C
   0.4335900000000000    0.8436100000000000    0.2004000000000000 C
   0.4103600000000000    0.8891600000000000    0.1720100000000000 C
   0.3022700000000000    0.8911000000000000    0.1426800000000000 C
   0.3497400000000000    0.8011300000000000    0.2009000000000000 C
   0.6137700000000000    0.1100400000000000    0.1541300000000000 C
   0.7795800000000001    0.0989600000000000    0.0077100000000000 C
   0.7536100000000000    0.1114100000000000    0.0680500000000000 C
   0.5590700000000000    0.0707000000000000    0.0492100000000000 C
   0.5842200000000000    0.0576100000000000    0.9889100000000000 C
   0.6953300000000000    0.0713300000000000    0.9687000000000000 C
   0.6433400000000000    0.0969700000000000    0.0891900000000000 C
   0.6261900000000000    0.2466700000000000    0.7655000000000000 C
   0.7819400000000000    0.1514000000000000    0.8583000000000000 C
   0.7583600000000000    0.1958700000000000    0.8285400000000001 C
   0.5664700000000000    0.1563600000000000    0.7995100000000001 C
   0.5897200000000000    0.1108100000000000    0.8279800000000000 C
   0.6978200000000000    0.1088800000000000    0.8573000000000000 C
   0.6503100000000001    0.1988500000000000    0.7990900000000000 C
   0.8862300000000000    0.8899600000000000    0.8458200000000000 C
   0.7205000000000000    0.9010100000000000    0.9922600000000000 C
   0.7464600000000000    0.8885700000000000    0.9319200000000000 C
   0.9409999999999999    0.9292700000000000    0.9507500000000000 C
   0.9158700000000000    0.9423600000000000    0.0110500000000000 C
   0.8047500000000000    0.9286400000000000    0.0312700000000000 C
   0.8567200000000000    0.9030200000000000    0.9107700000000000 C
   0.8738300000000000    0.7533100000000000    0.2344600000000000 C
   0.7181300000000000    0.8485800000000000    0.1416700000000000 C
   0.7416900000000000    0.8041100000000000    0.1714400000000000 C
   0.9335800000000000    0.8436100000000000    0.2004800000000000 C
   0.9103500000000000    0.8891600000000000    0.1720100000000000 C
   0.8022600000000000    0.8911000000000000    0.1426800000000000 C
   0.8497400000000001    0.8011300000000000    0.2009000000000000 C
   0.1137800000000000    0.1100400000000000    0.1541000000000000 C
   0.2795900000000000    0.0989600000000000    0.0077100000000000 C
   0.2536100000000000    0.1114100000000000    0.0680500000000000 C
   0.0590800000000000    0.0707000000000000    0.0492100000000000 C
   0.0842300000000000    0.0576100000000000    0.9889100000000000 C
   0.1953400000000000    0.0713300000000000    0.9687000000000000 C
   0.1433500000000000    0.0969700000000000    0.0891900000000000 C
   0.1262000000000000    0.2466700000000000    0.7655000000000000 C
   0.2819500000000000    0.1514000000000000    0.8583100000000000 C
   0.2583800000000000    0.1958700000000000    0.8285400000000001 C
   0.0664800000000000    0.1563600000000000    0.7995100000000001 C
   0.0897300000000000    0.1108100000000000    0.8279800000000000 C
   0.1978300000000000    0.1088800000000000    0.8573000000000000 C
   0.1503200000000000    0.1988500000000000    0.7990900000000000 C
   0.6361700000000000    0.3596600000000000    0.6545500000000000 C
   0.4710300000000000    0.3489400000000000    0.5080000000000000 C
   0.4966800000000000    0.3612200000000000    0.5683900000000000 C
   0.6913700000000000    0.3206500000000000    0.5496200000000000 C
   0.6665200000000000    0.3077400000000000    0.4892600000000000 C
   0.5554700000000000    0.3214600000000000    0.4689900000000000 C
   0.6068700000000000    0.3467500000000000    0.5895800000000000 C
   0.6237100000000000    0.4971100000000000    0.2656000000000000 C
   0.4689100000000000    0.4018200000000000    0.3587900000000000 C
   0.4922200000000000    0.4463000000000000    0.3290000000000000 C
   0.6842100000000000    0.4069700000000000    0.2998600000000000 C
   0.6612200000000000    0.3614000000000000    0.3283500000000000 C
   0.5531700000000001    0.3593400000000000    0.3577000000000000 C
   0.6001300000000001    0.4493600000000000    0.2994200000000000 C
   0.1361800000000000    0.3596600000000000    0.6545500000000000 C
   0.9710100000000000    0.3489400000000000    0.5080000000000000 C
   0.9966699999999999    0.3612200000000000    0.5683900000000000 C
   0.1913800000000000    0.3206500000000000    0.5496200000000000 C
   0.1665300000000000    0.3077400000000000    0.4892600000000000 C
   0.0554800000000000    0.3214600000000000    0.4689900000000000 C
   0.1068800000000000    0.3467500000000000    0.5895800000000000 C
   0.1237200000000000    0.4971100000000000    0.2656700000000000 C
   0.9689000000000000    0.4018200000000000    0.3587900000000000 C
   0.9922100000000000    0.4463000000000000    0.3290000000000000 C
   0.1842200000000000    0.4069700000000000    0.2998600000000000 C
   0.1612300000000000    0.3614000000000000    0.3283500000000000 C
   0.0531800000000000    0.3593400000000000    0.3577100000000000 C
   0.1001400000000000    0.4493600000000000    0.2994200000000000 C
   0.3641900000000000    0.1403800000000000    0.3453400000000000 C
   0.5294400000000000    0.1510500000000000    0.4918800000000000 C
   0.5037900000000000    0.1388000000000000    0.4314900000000000 C
   0.3090900000000000    0.1793400000000000    0.4503000000000000 C
   0.3339400000000000    0.1922300000000000    0.5106500000000000 C
   0.4449900000000000    0.1785000000000000    0.5309199999999999 C
   0.3935900000000000    0.1532700000000000    0.4103100000000000 C
   0.3767500000000000    0.0028600000000000    0.7343300000000000 C
   0.5315299999999999    0.0981700000000000    0.6412000000000000 C
   0.5082400000000000    0.0536900000000000    0.6710100000000000 C
   0.3162400000000000    0.0930100000000000    0.7000999999999999 C
   0.3392100000000000    0.1385800000000000    0.6716299999999999 C
   0.4472500000000000    0.1406300000000000    0.6422600000000001 C
   0.4003200000000000    0.0506200000000000    0.7005000000000000 C
   0.8641799999999999    0.1403800000000000    0.3453400000000000 C
   0.0294500000000000    0.1510500000000000    0.4918800000000000 C
   0.0038000000000000    0.1388000000000000    0.4314900000000000 C
   0.8090800000000000    0.1793400000000000    0.4503000000000000 C
   0.8339299999999999    0.1922300000000000    0.5106500000000000 C
   0.9449800000000000    0.1785000000000000    0.5309199999999999 C
   0.8935800000000000    0.1532700000000000    0.4103100000000000 C
   0.8767400000000000    0.0028600000000000    0.7343300000000000 C
   0.0315400000000000    0.0981700000000000    0.6412000000000000 C
   0.0082500000000000    0.0536900000000000    0.6710100000000000 C
   0.8162300000000000    0.0930100000000000    0.7000999999999999 C
   0.8391999999999999    0.1385800000000000    0.6716299999999999 C
   0.9472400000000000    0.1406300000000000    0.6422600000000001 C
   0.9003100000000001    0.0506200000000000    0.7005800000000000 C
   0.1139300000000000    0.6100300000000000    0.1543800000000000 C
   0.2793400000000000    0.5990100000000000    0.0078600000000000 C
   0.2535200000000000    0.6114600000000000    0.0682200000000000 C
   0.0839300000000000    0.5576900000000000    0.9891000000000000 C
   0.0589300000000000    0.5707700000000000    0.0494900000000000 C
   0.1950100000000000    0.5713900000000000    0.9689000000000000 C
   0.1433100000000000    0.5970100000000000    0.0894200000000000 C
   0.1259900000000000    0.7466100000000000    0.7655600000000000 C
   0.2815400000000000    0.6513600000000001    0.8584100000000000 C
   0.2580600000000000    0.6958000000000000    0.8286000000000000 C
   0.0661400000000000    0.6563300000000000    0.7995700000000000 C
   0.0893000000000000    0.6108000000000000    0.8280900000000000 C
   0.1973700000000000    0.6088700000000000    0.8574400000000000 C
   0.1500400000000000    0.6987900000000000    0.7991300000000000 C
   0.6139200000000000    0.6100300000000000    0.1543800000000000 C
   0.7793300000000000    0.5990100000000000    0.0078600000000000 C
   0.7535100000000000    0.6114500000000000    0.0682200000000000 C
   0.5839200000000000    0.5576900000000000    0.9891000000000000 C
   0.5589200000000000    0.5707700000000000    0.0494900000000000 C
   0.6950000000000000    0.5713800000000000    0.9689000000000000 C
   0.6433000000000000    0.5970100000000000    0.0894200000000000 C
   0.6259800000000000    0.7466100000000000    0.7655600000000000 C
   0.7815299999999999    0.6513600000000001    0.8584100000000000 C
   0.7580500000000000    0.6958000000000000    0.8286000000000000 C
   0.5661300000000000    0.6563300000000000    0.7995700000000000 C
   0.5892900000000000    0.6108000000000000    0.8280900000000000 C
   0.6973600000000000    0.6088700000000000    0.8574400000000000 C
   0.6500200000000000    0.6987900000000000    0.7991300000000000 C
   0.3861900000000000    0.3899700000000000    0.8456100000000000 C
   0.2208100000000000    0.4010000000000000    0.9921300000000000 C
   0.2466200000000000    0.3885600000000000    0.9317800000000001 C
   0.4412100000000000    0.4292400000000000    0.9504899999999999 C
   0.4162200000000000    0.4423300000000000    0.0108100000000000 C
   0.3051400000000000    0.4286300000000000    0.0310900000000000 C
   0.3568300000000000    0.4030100000000000    0.9105700000000000 C
   0.3741600000000000    0.2534200000000000    0.2344500000000000 C
   0.2186400000000000    0.3486600000000000    0.1415700000000000 C
   0.2421300000000000    0.3042200000000000    0.1713900000000000 C
   0.4340400000000000    0.3437000000000000    0.2004200000000000 C
   0.4108800000000000    0.3892200000000000    0.1719000000000000 C
   0.3028100000000000    0.3911500000000000    0.1425500000000000 C
   0.3501400000000000    0.3012400000000000    0.2008800000000000 C
   0.8861800000000000    0.3899700000000000    0.8456100000000000 C
   0.7208000000000000    0.4010000000000000    0.9921300000000000 C
   0.7466200000000000    0.3885500000000000    0.9317800000000001 C
   0.9412000000000000    0.4292400000000000    0.9504899999999999 C
   0.9162100000000000    0.4423300000000000    0.0108100000000000 C
   0.8051300000000000    0.4286300000000000    0.0310900000000000 C
   0.8568200000000000    0.4030100000000000    0.9105700000000000 C
   0.8741500000000000    0.2534200000000000    0.2344500000000000 C
   0.7186399999999999    0.3486600000000000    0.1415700000000000 C
   0.7421200000000000    0.3042200000000000    0.1713900000000000 C
   0.9340200000000000    0.3437000000000000    0.2004200000000000 C
   0.9108700000000000    0.3892200000000000    0.1719000000000000 C
   0.8028000000000000    0.3911500000000000    0.1425500000000000 C
   0.8501300000000001    0.3012400000000000    0.2008800000000000 C
   0.1359500000000000    0.8596200000000001    0.6546000000000000 C
   0.9707000000000000    0.8489400000000000    0.5080900000000000 C
   0.9963600000000000    0.8611900000000000    0.5684000000000000 C
   0.1910800000000000    0.8206400000000000    0.5496700000000000 C
   0.1662200000000000    0.8077600000000000    0.4893100000000000 C
   0.0551700000000000    0.8214900000000001    0.4690500000000000 C
   0.1065900000000000    0.8467200000000000    0.5896600000000000 C
   0.1232900000000000    0.9971400000000000    0.2656500000000000 C
   0.9685400000000000    0.9018200000000000    0.3587800000000000 C
   0.9918100000000000    0.9463000000000000    0.3289700000000000 C
   0.1838300000000000    0.9069900000000000    0.2998400000000000 C
   0.1608800000000000    0.8614200000000000    0.3283400000000000 C
   0.0528500000000000    0.8593600000000000    0.3577200000000000 C
   0.0997400000000000    0.9493700000000000    0.2990000000000000 C
   0.3638900000000000    0.6403200000000000    0.3454000000000000 C
   0.5291100000000000    0.6510400000000000    0.4919800000000000 C
   0.5034200000000000    0.6387600000000000    0.4316000000000000 C
   0.3087400000000000    0.6793300000000000    0.4504000000000000 C
   0.3336200000000000    0.6922400000000000    0.5107500000000000 C
   0.4446800000000000    0.6785200000000000    0.5310100000000000 C
   0.3932300000000000    0.6532300000000000    0.4104200000000000 C
   0.3764000000000000    0.5028899999999999    0.7343300000000000 C
   0.5312400000000000    0.5981800000000000    0.6412200000000000 C
   0.5079200000000000    0.5536900000000000    0.6710100000000000 C
   0.3159400000000000    0.5930299999999999    0.7001500000000001 C
   0.3389400000000000    0.6386100000000000    0.6716600000000000 C
   0.4470000000000000    0.6406600000000000    0.6423000000000000 C
   0.4000100000000000    0.5506400000000000    0.7005000000000000 C
   0.8638800000000000    0.6403200000000000    0.3454600000000000 C
   0.0291200000000000    0.6510400000000000    0.4919800000000000 C
   0.0034400000000000    0.6387600000000000    0.4316000000000000 C
   0.8087299999999999    0.6793400000000001    0.4504000000000000 C
   0.8336100000000000    0.6922500000000000    0.5107500000000000 C
   0.9446700000000000    0.6785200000000000    0.5310100000000000 C
   0.8932099999999999    0.6532300000000000    0.4104200000000000 C
   0.8763900000000000    0.5028899999999999    0.7343300000000000 C
   0.0312600000000000    0.5981800000000000    0.6412200000000000 C
   0.0079400000000000    0.5536900000000000    0.6710100000000000 C
   0.8159300000000000    0.5930299999999999    0.7001500000000001 C
   0.8389300000000000    0.6386100000000000    0.6716000000000000 C
   0.9469900000000000    0.6406600000000000    0.6423000000000000 C
   0.9000000000000000    0.5506400000000000    0.7005000000000000 C
   0.2664000000000000    0.9489200000000000    0.1073400000000000 S
   0.7336900000000000    0.0510500000000000    0.8926300000000000 S
   0.7663900000000000    0.9489200000000000    0.1073400000000000 S
   0.2337000000000000    0.0510500000000000    0.8926300000000000 S
   0.5173600000000000    0.3013700000000000    0.3928500000000000 S
   0.0173700000000000    0.3013700000000000    0.3928500000000000 S
   0.4830400000000000    0.1986000000000000    0.6070800000000000 S
   0.9830300000000000    0.1986000000000000    0.6070800000000000 S
   0.2332800000000000    0.5510699999999999    0.8928100000000000 S
   0.7332700000000000    0.5510699999999999    0.8928100000000000 S
   0.2668700000000000    0.4489400000000000    0.1071800000000000 S
   0.7668600000000000    0.4489400000000000    0.1071800000000000 S
   0.0170800000000000    0.8013900000000000    0.3920000000000000 S
   0.4828000000000000    0.6986300000000000    0.6071500000000000 S
   0.9827900000000001    0.6986300000000000    0.6071500000000000 S
   0.4941300000000000    0.8863500000000000    0.8306300000000000 O
   0.3005500000000000    0.8807700000000001    0.8087000000000000 O
   0.1385000000000000    0.9562300000000000    0.1102600000000000 O
   0.3453000000000000    0.9955300000000000    0.1308000000000000 O
   0.2846800000000000    0.7292999999999999    0.2525200000000000 O
   0.4817200000000000    0.7417200000000000    0.2423200000000000 O
   0.5058600000000000    0.1136300000000000    0.1692900000000000 O
   0.6994200000000000    0.1192600000000000    0.1912700000000000 O
   0.8615800000000000    0.0437300000000000    0.8897100000000000 O
   0.6547500000000001    0.0044500000000000    0.8691300000000000 O
   0.7153300000000000    0.2706900000000000    0.7474800000000000 O
   0.5183000000000000    0.2582400000000000    0.7576700000000000 O
   0.9941200000000000    0.8863500000000000    0.8306300000000000 O
   0.8005400000000000    0.8807700000000001    0.8087000000000000 O
   0.6384900000000000    0.9562300000000000    0.1102600000000000 O
   0.8452900000000000    0.9955300000000000    0.1308400000000000 O
   0.7846700000000000    0.7292999999999999    0.2525200000000000 O
   0.9817100000000000    0.7417200000000000    0.2423200000000000 O
   0.0058700000000000    0.1136300000000000    0.1692900000000000 O
   0.1994300000000000    0.1192500000000000    0.1912700000000000 O
   0.3615900000000000    0.0437300000000000    0.8897100000000000 O
   0.1547600000000000    0.0044500000000000    0.8691300000000000 O
   0.2153400000000000    0.2706900000000000    0.7474800000000000 O
   0.0183100000000000    0.2582400000000000    0.7576700000000000 O
   0.7440500000000000    0.3635200000000000    0.6697400000000000 O
   0.5504500000000000    0.3685200000000000    0.6916900000000000 O
   0.3894800000000000    0.2939600000000000    0.3898500000000000 O
   0.5963400000000000    0.2548200000000000    0.3692300000000000 O
   0.5342600000000000    0.5208199999999999    0.2475100000000000 O
   0.7314300000000000    0.5089100000000000    0.2577100000000000 O
   0.2440600000000000    0.3635200000000000    0.6697400000000000 O
   0.0504600000000000    0.3685200000000000    0.6916900000000000 O
   0.8894700000000000    0.2939600000000000    0.3898500000000000 O
   0.0963500000000000    0.2548200000000000    0.3692300000000000 O
   0.0342700000000000    0.5208199999999999    0.2475100000000000 O
   0.2314400000000000    0.5089100000000000    0.2577100000000000 O
   0.2562600000000000    0.1364800000000000    0.3302100000000000 O
   0.4498000000000000    0.1315900000000000    0.3081500000000000 O
   0.6109000000000000    0.2060200000000000    0.6101200000000000 O
   0.4040400000000000    0.2451500000000000    0.6306700000000000 O
   0.4662200000000000    0.9791600000000000    0.7524800000000000 O
   0.2690400000000000    0.9910099999999999    0.7422900000000000 O
   0.7562500000000000    0.1364800000000000    0.3302100000000000 O
   0.9497900000000000    0.1315900000000000    0.3081500000000000 O
   0.1109100000000000    0.2060200000000000    0.6101200000000000 O
   0.9040300000000000    0.2451500000000000    0.6306700000000000 O
   0.9662100000000000    0.9791600000000000    0.7524800000000000 O
   0.7690300000000000    0.9910099999999999    0.7422900000000000 O
   0.0060400000000000    0.6137300000000000    0.1695900000000000 O
   0.1996200000000000    0.6191200000000000    0.1914900000000000 O
   0.3611700000000000    0.5437700000000000    0.8898400000000000 O
   0.1544100000000000    0.5044300000000000    0.8693500000000000 O
   0.2151500000000000    0.7706300000000000    0.7475200000000000 O
   0.0181100000000000    0.7581900000000000    0.7576000000000001 O
   0.5060300000000000    0.6137300000000000    0.1695900000000000 O
   0.6996100000000000    0.6191300000000000    0.1914900000000000 O
   0.8611600000000000    0.5437700000000000    0.8898400000000000 O
   0.6544100000000000    0.5044300000000000    0.8693500000000000 O
   0.7151400000000000    0.7706300000000000    0.7475200000000000 O
   0.5180900000000001    0.7581900000000000    0.7576000000000001 O
   0.4940700000000000    0.3862700000000000    0.8303900000000000 O
   0.3004700000000000    0.3808700000000000    0.8085100000000000 O
   0.1389600000000000    0.4562200000000000    0.1101400000000000 O
   0.3456800000000000    0.4955900000000000    0.1306500000000000 O
   0.2849700000000000    0.2293900000000000    0.2524700000000000 O
   0.4820400000000000    0.2418500000000000    0.2423000000000000 O
   0.9940600000000001    0.3862700000000000    0.8303900000000000 O
   0.8004599999999999    0.3808700000000000    0.8085100000000000 O