H8 C17 O4 F6
1.0
  31.6819997635532147    0.0000000000000000    0.0038706864856947
   0.0338544169035955   32.3279818747112344   -0.0050780703443790
   0.0000000000000000    0.0000000000000000   22.8380000000000010
H C O F
8 17 4 6
direct
   0.6355250000000000    0.6428199999999999    0.8826900000000000 H
   0.6671000000000000    0.5979350000000000    0.9579900000000000 H
   0.7776149999999999    0.6760250000000000    0.9602000000000001 H
   0.7454600000000000    0.7201050000000000    0.8839800000000000 H
   0.7175199999999999    0.6735300000000000    0.0663400000000000 H
   0.7516100000000000    0.7181400000000000    0.1400800000000000 H
   0.8639300000000000    0.6438699999999999    0.1304800000000000 H
   0.8301799999999999    0.5983100000000000    0.0578300000000000 H
   0.6689150000000000    0.7107000000000000    0.8312000000000000 C
   0.6881200000000001    0.6845150000000000    0.8786700000000000 C
   0.6666350000000000    0.6499200000000001    0.9001700000000000 C
   0.6847000000000000    0.6247250000000000    0.9429500000000000 C
   0.7248250000000001    0.6337349999999999    0.9653900000000000 C
   0.7463450000000000    0.6684750000000000    0.9436200000000000 C
   0.7282550000000000    0.6935650000000000    0.9009700000000000 C
   0.7481300000000000    0.6060600000000000    0.0101500000000000 C
   0.7785450000000000    0.5782150000000000    0.9731000000000000 C
   0.7180800000000001    0.5769250000000000    0.0455100000000000 C
   0.7713500000000000    0.6328350000000000    0.0558100000000000 C
   0.7496450000000000    0.6666300000000001    0.0802100000000000 C
   0.7688600000000000    0.6920950000000000    0.1214800000000000 C
   0.8103650000000000    0.6841500000000000    0.1394000000000000 C
   0.8317500000000000    0.6500100000000000    0.1161000000000000 C
   0.8125100000000001    0.6244950000000000    0.0749100000000000 C
   0.8322050000000000    0.7114549999999999    0.1829600000000000 C
   0.6366700000000001    0.6961600000000000    0.8051800000000000 O
   0.6869800000000000    0.7450650000000000    0.8199900000000000 O
   0.8663350000000001    0.6975800000000000    0.2048800000000000 O
   0.8150950000000000    0.7461750000000000    0.1951600000000000 O
   0.7576700000000001    0.5606500000000000    0.9275300000000000 F
   0.8109000000000000    0.6006950000000000    0.9500100000000000 F
   0.7962350000000000    0.5469500000000000    0.0047500000000000 F
   0.7387400000000000    0.5575650000000000    0.0898500000000000 F
   0.6999750000000000    0.5468600000000000    0.0123600000000000 F
   0.6858000000000000    0.5989400000000000    0.0700900000000000 F
