H10 C12 N4
1.0
  31.6819997635532147    0.0000000000000000    0.0038706864856947
   0.0338544169035955   32.3279818747112344   -0.0050780703443790
   0.0000000000000000    0.0000000000000000   22.8380000000000010
H C N
10 12 4
direct
   0.1155250000000000    0.3651450000000000    0.2305200000000000 H
   0.0808600000000000    0.4352300000000000    0.2279700000000000 H
   0.9607350000000000    0.3723750000000000    0.2365600000000000 H
   0.9999300000000000    0.3055650000000000    0.2401200000000000 H
   0.9616450000000001    0.4498850000000000    0.2360200000000000 H
   0.0468150000000000    0.5517700000000000    0.2194400000000000 H
   0.0471400000000000    0.6290200000000000    0.2135200000000000 H
   0.0094600000000000    0.6962150000000000    0.2247900000000000 H
   0.8975050000000000    0.6373850000000000    0.2684300000000000 H
   0.9309700000000001    0.5670450000000000    0.2591900000000000 H
   0.0813800000000000    0.3686650000000000    0.2318600000000000 C
   0.0622100000000000    0.4070300000000000    0.2303200000000000 C
   0.0178900000000000    0.4095100000000000    0.2323700000000000 C
   0.0167400000000000    0.3348700000000000    0.2367500000000000 C
   0.9951150000000000    0.3723850000000000    0.2351900000000000 C
   0.9962700000000000    0.4493600000000000    0.2334000000000000 C
   0.0129450000000000    0.5523900000000000    0.2297300000000000 C
   0.0139500000000000    0.6293100000000000    0.2260100000000000 C
   0.9918600000000000    0.5923200000000000    0.2354800000000000 C
   0.9931050000000000    0.6670050000000000    0.2320800000000000 C
   0.9305399999999999    0.6336500000000000    0.2564700000000000 C
   0.9490300000000000    0.5951050000000000    0.2512600000000000 C
   0.0592150000000000    0.3329150000000000    0.2352300000000000 N
   0.0177400000000000    0.4835050000000000    0.2324600000000000 N
   0.9920300000000000    0.5183000000000000    0.2370500000000000 N
   0.9519949999999999    0.6692549999999999    0.2469700000000000 N
