Zn32 H406 C724 N60 O128 F192
1.0
  31.6819997635532147    0.0000000000000000    0.0038706864856947
   0.0338544169035955   32.3279818747112344   -0.0050780703443790
   0.0000000000000000    0.0000000000000000   22.8380000000000010
Zn H C N O F
32 406 724 60 128 192
direct
   0.4165600000000000    0.2227150000000000    0.2526100000000000 Zn
   0.0949600000000000    0.2204500000000000    0.7404600000000000 Zn
   0.1666666666666667    0.2773250000000000    0.7475400000000000 Zn
   0.3449700000000000    0.2204600000000000    0.7594800000000000 Zn
   0.4166700000000000    0.2773150000000000    0.7524000000000000 Zn
   0.0949000000000000    0.2795350000000000    0.2403800000000000 Zn
   0.1666850000000000    0.2227050000000000    0.2474000000000000 Zn
   0.3448500000000000    0.2795800000000000    0.2598000000000000 Zn
   0.9165600000000000    0.2227150000000000    0.2526100000000000 Zn
   0.5949600000000000    0.2204500000000000    0.7404600000000000 Zn
   0.6666666666666666    0.2773250000000000    0.7475400000000000 Zn
   0.8449700000000000    0.2204600000000000    0.7594800000000000 Zn
   0.9166700000000000    0.2773150000000000    0.7524000000000000 Zn
   0.5949000000000000    0.2795350000000000    0.2403800000000000 Zn
   0.6666850000000000    0.2227050000000000    0.2474000000000000 Zn
   0.8448500000000000    0.2795800000000000    0.2598000000000000 Zn
   0.4165600000000000    0.7227150000000000    0.2526100000000000 Zn
   0.0949600000000000    0.7204500000000000    0.7404600000000000 Zn
   0.1666666666666667    0.7773250000000000    0.7475400000000000 Zn
   0.3449700000000000    0.7204600000000000    0.7594800000000000 Zn
   0.4166700000000000    0.7773150000000000    0.7524000000000000 Zn
   0.0949000000000000    0.7795350000000000    0.2403800000000000 Zn
   0.1666850000000000    0.7227049999999999    0.2474000000000000 Zn
   0.3448500000000000    0.7795799999999999    0.2598000000000000 Zn
   0.9165600000000000    0.7227150000000000    0.2526100000000000 Zn
   0.5949600000000000    0.7204500000000000    0.7404600000000000 Zn
   0.6666666666666666    0.7773250000000000    0.7475400000000000 Zn
   0.8449700000000000    0.7204600000000000    0.7594800000000000 Zn
   0.9166700000000000    0.7773150000000000    0.7524000000000000 Zn
   0.5949000000000000    0.7795350000000000    0.2403800000000000 Zn
   0.6666850000000000    0.7227049999999999    0.2474000000000000 Zn
   0.8448500000000000    0.7795799999999999    0.2598000000000000 Zn
   0.3854550000000000    0.3583650000000000    0.1185700000000000 H
   0.4173300000000000    0.4029500000000000    0.0431800000000000 H
   0.0272800000000000    0.3238800000000000    0.0409200000000000 H
   0.4947650000000000    0.2800200000000000    0.1170800000000000 H
   0.4676450000000000    0.3262150000000000    0.9347000000000000 H
   0.0017050000000000    0.2817400000000000    0.8607000000000000 H
   0.1139500000000000    0.3558700000000000    0.8703700000000000 H
   0.0802250000000000    0.4013100000000000    0.9431700000000000 H
   0.3822650000000000    0.1427500000000000    0.3907300000000000 H
   0.3519150000000000    0.0934100000000000    0.4613700000000000 H
   0.2367850000000000    0.1650550000000000    0.4634900000000000 H
   0.2671500000000000    0.2125950000000000    0.3903300000000000 H
   0.2984500000000000    0.1634300000000000    0.5726300000000000 H
   0.2608150000000000    0.2092800000000000    0.6410900000000000 H
   0.1480050000000000    0.1372100000000000    0.6187400000000000 H
   0.1858850000000000    0.0892200000000000    0.5537600000000000 H
   0.3654450000000000    0.3650850000000000    0.2706300000000000 H
   0.3308050000000000    0.4351800000000000    0.2730000000000000 H
   0.2106750000000000    0.3723750000000000    0.2637000000000000 H
   0.2498700000000000    0.3055300000000000    0.2604800000000000 H
   0.2116250000000000    0.4498800000000000    0.2640700000000000 H
   0.2968250000000000    0.0517350000000000    0.2806800000000000 H
   0.2971600000000000    0.1289800000000000    0.2864700000000000 H
   0.2594650000000000    0.1961750000000000    0.2751000000000000 H
   0.1476250000000000    0.1373250000000000    0.2310100000000000 H
   0.1810750000000000    0.0669850000000000    0.2403800000000000 H
   0.1355250000000000    0.1428200000000000    0.8826900000000000 H
   0.1671000000000000    0.0979350000000000    0.9579900000000000 H
   0.2776150000000000    0.1760250000000000    0.9602000000000001 H
   0.2454600000000000    0.2201050000000000    0.8839800000000000 H
   0.2175200000000000    0.1735300000000000    0.0663400000000000 H
   0.2516100000000000    0.2181400000000000    0.1400800000000000 H
   0.3639300000000000    0.1438700000000000    0.1304800000000000 H
   0.3301800000000000    0.0983100000000000    0.0578300000000000 H
   0.1322500000000000    0.3569500000000000    0.6092100000000000 H
   0.1019550000000000    0.4063200000000000    0.5384800000000000 H
   0.4867650000000000    0.3350150000000000    0.5365300000000000 H
   0.0170650000000000    0.2874500000000000    0.6097600000000000 H
   0.0484950000000000    0.3365800000000000    0.4270000000000000 H
   0.0107450000000000    0.2905900000000000    0.3590000000000000 H
   0.3977650000000000    0.3625000000000000    0.3822500000000000 H
   0.4357550000000000    0.4106700000000000    0.4466700000000000 H
   0.1157550000000000    0.1346800000000000    0.7325900000000000 H
   0.0811400000000000    0.0646450000000000    0.7299500000000000 H
   0.4609100000000000    0.1277700000000000    0.7345000000000000 H
   0.0000500000000000    0.1945300000000000    0.7383200000000000 H
   0.4617950000000000    0.0503050000000000    0.7349700000000000 H
   0.0468700000000000    0.4481050000000000    0.7201500000000000 H
   0.0472050000000000    0.3709200000000000    0.7142800000000000 H
   0.0095000000000000    0.3037900000000000    0.7253100000000000 H
   0.3973850000000000    0.3628150000000000    0.7681900000000000 H
   0.4308250000000000    0.4331050000000000    0.7590000000000000 H
   0.3855500000000000    0.1428350000000000    0.6172400000000000 H
   0.4171400000000000    0.0979350000000000    0.5419500000000000 H
   0.0276400000000000    0.1760350000000000    0.5397100000000000 H
   0.4954800000000000    0.2201300000000000    0.6159500000000000 H
   0.4675900000000000    0.1734450000000000    0.4335600000000000 H
   0.0016850000000000    0.2179800000000000    0.3597500000000000 H
   0.1140150000000000    0.1437400000000000    0.3694500000000000 H
   0.0802400000000000    0.0982250000000000    0.4421400000000000 H
   0.3822450000000000    0.3569300000000000    0.8907800000000000 H
   0.3519500000000000    0.4063150000000000    0.9615200000000000 H
   0.2367400000000000    0.3350200000000000    0.9634700000000000 H
   0.2670550000000000    0.2874450000000000    0.8902000000000000 H
   0.2984900000000000    0.3365950000000000    0.0728500000000000 H
   0.2608300000000000    0.2907200000000000    0.1411000000000000 H
   0.1478850000000000    0.3627600000000000    0.1183600000000000 H
   0.1857800000000000    0.4107650000000000    0.0535700000000000 H
   0.3657450000000000    0.1346800000000000    0.7668900000000000 H
   0.3311200000000000    0.0646550000000000    0.7695600000000000 H
   0.2108850000000000    0.1278000000000000    0.7656300000000000 H
   0.2500400000000000    0.1945600000000000    0.7617400000000000 H
   0.2117550000000000    0.0503350000000000    0.7651200000000000 H
   0.2968500000000000    0.4481300000000000    0.7796600000000000 H
   0.2971950000000000    0.3709450000000000    0.7855000000000000 H
   0.2594850000000000    0.3038150000000000    0.7745000000000000 H
   0.1472750000000000    0.3628350000000000    0.7321500000000000 H
   0.1807200000000000    0.4331250000000000    0.7412400000000000 H
   0.1355350000000000    0.3574900000000000    0.3820100000000000 H
   0.1672550000000000    0.4024400000000000    0.4571500000000000 H
   0.2777450000000000    0.3240850000000000    0.4592300000000000 H
   0.2454500000000000    0.2799550000000000    0.3831000000000000 H
   0.2177100000000000    0.3263200000000000    0.5654500000000000 H
   0.2517750000000000    0.2818500000000000    0.6394300000000001 H
   0.3640400000000000    0.3559550000000000    0.6297000000000000 H
   0.3303100000000000    0.4013950000000000    0.5569100000000000 H
   0.1322300000000000    0.1428000000000000    0.1092600000000000 H
   0.1018700000000000    0.0934250000000000    0.0386700000000000 H
   0.4868050000000000    0.1651450000000000    0.0364100000000000 H
   0.0171800000000000    0.2127500000000000    0.1094000000000000 H
   0.0484300000000000    0.1634100000000000    0.9272000000000000 H
   0.0107900000000000    0.2092300000000000    0.8588200000000000 H
   0.3979850000000000    0.1371750000000000    0.8812500000000000 H
   0.4358650000000000    0.0892200000000000    0.9462500000000000 H
   0.4607350000000000    0.3723750000000000    0.2365600000000000 H
   0.4999300000000000    0.3055650000000000    0.2401200000000000 H
   0.4616450000000000    0.4498850000000000    0.2360200000000000 H
   0.0468150000000000    0.0517700000000000    0.2194400000000000 H
   0.0471400000000000    0.1290200000000000    0.2135200000000000 H
   0.0094600000000000    0.1962150000000000    0.2247900000000000 H
   0.3975050000000000    0.1373850000000000    0.2684300000000000 H
   0.4309700000000000    0.0670450000000000    0.2591900000000000 H
   0.8854550000000000    0.3583650000000000    0.1185700000000000 H
   0.9173300000000000    0.4029500000000000    0.0431800000000000 H
   0.5272800000000000    0.3238800000000000    0.0409200000000000 H
   0.9947650000000000    0.2800200000000000    0.1170800000000000 H
   0.9676450000000000    0.3262150000000000    0.9347000000000000 H
   0.5017050000000000    0.2817400000000000    0.8607000000000000 H
   0.6139500000000000    0.3558700000000000    0.8703700000000000 H
   0.5802250000000000    0.4013100000000000    0.9431700000000000 H
   0.8822650000000001    0.1427500000000000    0.3907300000000000 H
   0.8519150000000000    0.0934100000000000    0.4613700000000000 H
   0.7367850000000000    0.1650550000000000    0.4634900000000000 H
   0.7671500000000000    0.2125950000000000    0.3903300000000000 H
   0.7984500000000000    0.1634300000000000    0.5726300000000000 H
   0.7608150000000000    0.2092800000000000    0.6410900000000000 H
   0.6480049999999999    0.1372100000000000    0.6187400000000000 H
   0.6858850000000000    0.0892200000000000    0.5537600000000000 H
   0.8654450000000000    0.3650850000000000    0.2706300000000000 H
   0.8308050000000000    0.4351800000000000    0.2730000000000000 H
   0.7106749999999999    0.3723750000000000    0.2637000000000000 H
   0.7498700000000000    0.3055300000000000    0.2604800000000000 H
   0.7116250000000000    0.4498800000000000    0.2640700000000000 H
   0.7968250000000000    0.0517350000000000    0.2806800000000000 H
   0.7971600000000000    0.1289800000000000    0.2864700000000000 H
   0.7594650000000001    0.1961750000000000    0.2751000000000000 H
   0.6476250000000000    0.1373250000000000    0.2310100000000000 H
   0.6810750000000000    0.0669850000000000    0.2403800000000000 H
   0.6355250000000000    0.1428200000000000    0.8826900000000000 H
   0.6671000000000000    0.0979350000000000    0.9579900000000000 H
   0.7776149999999999    0.1760250000000000    0.9602000000000001 H
   0.7454600000000000    0.2201050000000000    0.8839800000000000 H
   0.7175199999999999    0.1735300000000000    0.0663400000000000 H
   0.7516100000000000    0.2181400000000000    0.1400800000000000 H
   0.8639300000000000    0.1438700000000000    0.1304800000000000 H
   0.8301799999999999    0.0983100000000000    0.0578300000000000 H
   0.6322500000000000    0.3569500000000000    0.6092100000000000 H
   0.6019550000000000    0.4063200000000000    0.5384800000000000 H
   0.9867650000000000    0.3350150000000000    0.5365300000000000 H
   0.5170650000000000    0.2874500000000000    0.6097600000000000 H
   0.5484950000000000    0.3365800000000000    0.4270000000000000 H
   0.5107450000000000    0.2905900000000000    0.3590000000000000 H
   0.8977649999999999    0.3625000000000000    0.3822500000000000 H
   0.9357550000000000    0.4106700000000000    0.4466700000000000 H
   0.6157550000000001    0.1346800000000000    0.7325900000000000 H
   0.5811400000000000    0.0646450000000000    0.7299500000000000 H
   0.9609099999999999    0.1277700000000000    0.7345000000000000 H
   0.5000500000000000    0.1945300000000000    0.7383200000000000 H
   0.9617950000000000    0.0503050000000000    0.7349700000000000 H
   0.5468700000000000    0.4481050000000000    0.7201500000000000 H
   0.5472049999999999    0.3709200000000000    0.7142800000000000 H
   0.5095000000000000    0.3037900000000000    0.7253100000000000 H
   0.8973850000000000    0.3628150000000000    0.7681900000000000 H
   0.9308250000000000    0.4331050000000000    0.7590000000000000 H
   0.8855500000000001    0.1428350000000000    0.6172400000000000 H
   0.9171400000000001    0.0979350000000000    0.5419500000000000 H
   0.5276400000000000    0.1760350000000000    0.5397100000000000 H
   0.9954799999999999    0.2201300000000000    0.6159500000000000 H
   0.9675900000000000    0.1734450000000000    0.4335600000000000 H
   0.5016850000000000    0.2179800000000000    0.3597500000000000 H
   0.6140150000000000    0.1437400000000000    0.3694500000000000 H
   0.5802400000000000    0.0982250000000000    0.4421400000000000 H
   0.8822449999999999    0.3569300000000000    0.8907800000000000 H
   0.8519500000000000    0.4063150000000000    0.9615200000000000 H
   0.7367400000000000    0.3350200000000000    0.9634700000000000 H
   0.7670550000000000    0.2874450000000000    0.8902000000000000 H
   0.7984899999999999    0.3365950000000000    0.0728500000000000 H
   0.7608300000000000    0.2907200000000000    0.1411000000000000 H
   0.6478850000000000    0.3627600000000000    0.1183600000000000 H
   0.6857800000000001    0.4107650000000000    0.0535700000000000 H
   0.8657450000000000    0.1346800000000000    0.7668900000000000 H
   0.8311200000000001    0.0646550000000000    0.7695600000000000 H
   0.7108850000000000    0.1278000000000000    0.7656300000000000 H
   0.7500400000000000    0.1945600000000000    0.7617400000000000 H
   0.7117550000000000    0.0503350000000000    0.7651200000000000 H
   0.7968500000000001    0.4481300000000000    0.7796600000000000 H
   0.7971950000000000    0.3709450000000000    0.7855000000000000 H
   0.7594850000000000    0.3038150000000000    0.7745000000000000 H
   0.6472750000000000    0.3628350000000000    0.7321500000000000 H
   0.6807200000000000    0.4331250000000000    0.7412400000000000 H
   0.6355350000000000    0.3574900000000000    0.3820100000000000 H
   0.6672549999999999    0.4024400000000000    0.4571500000000000 H
   0.7777450000000000    0.3240850000000000    0.4592300000000000 H
   0.7454499999999999    0.2799550000000000    0.3831000000000000 H
   0.7177100000000000    0.3263200000000000    0.5654500000000000 H
   0.7517750000000001    0.2818500000000000    0.6394300000000001 H
   0.8640399999999999    0.3559550000000000    0.6297000000000000 H
   0.8303100000000000    0.4013950000000000    0.5569100000000000 H
   0.6322300000000000    0.1428000000000000    0.1092600000000000 H
   0.6018700000000000    0.0934250000000000    0.0386700000000000 H
   0.9868049999999999    0.1651450000000000    0.0364100000000000 H
   0.5171800000000000    0.2127500000000000    0.1094000000000000 H
   0.5484300000000000    0.1634100000000000    0.9272000000000000 H
   0.5107900000000000    0.2092300000000000    0.8588200000000000 H
   0.8979850000000000    0.1371750000000000    0.8812500000000000 H
   0.9358649999999999    0.0892200000000000    0.9462500000000000 H
   0.6155250000000000    0.3651450000000000    0.2305200000000000 H
   0.5808600000000000    0.4352300000000000    0.2279700000000000 H
   0.5468150000000001    0.0517700000000000    0.2194400000000000 H
   0.5471400000000000    0.1290200000000000    0.2135200000000000 H
   0.5094600000000000    0.1962150000000000    0.2247900000000000 H
   0.8975050000000000    0.1373850000000000    0.2684300000000000 H
   0.9309700000000001    0.0670450000000000    0.2591900000000000 H
   0.3854550000000000    0.8583650000000000    0.1185700000000000 H
   0.4173300000000000    0.9029499999999999    0.0431800000000000 H
   0.0272800000000000    0.8238799999999999    0.0409200000000000 H
   0.4947650000000000    0.7800199999999999    0.1170800000000000 H
   0.4676450000000000    0.8262149999999999    0.9347000000000000 H
   0.0017050000000000    0.7817400000000000    0.8607000000000000 H
   0.1139500000000000    0.8558700000000000    0.8703700000000000 H
   0.0802250000000000    0.9013100000000001    0.9431700000000000 H
   0.3822650000000000    0.6427499999999999    0.3907300000000000 H
   0.3519150000000000    0.5934100000000000    0.4613700000000000 H
   0.2367850000000000    0.6650550000000000    0.4634900000000000 H
   0.2671500000000000    0.7125950000000000    0.3903300000000000 H
   0.2984500000000000    0.6634300000000000    0.5726300000000000 H
   0.2608150000000000    0.7092800000000000    0.6410900000000000 H
   0.1480050000000000    0.6372100000000001    0.6187400000000000 H
   0.1858850000000000    0.5892200000000000    0.5537600000000000 H
   0.3654450000000000    0.8650850000000000    0.2706300000000000 H
   0.3308050000000000    0.9351800000000000    0.2730000000000000 H
   0.2106750000000000    0.8723750000000000    0.2637000000000000 H
   0.2498700000000000    0.8055300000000001    0.2604800000000000 H
   0.2116250000000000    0.9498800000000001    0.2640700000000000 H
   0.2968250000000000    0.5517350000000000    0.2806800000000000 H
   0.2971600000000000    0.6289800000000000    0.2864700000000000 H
   0.2594650000000000    0.6961750000000000    0.2751000000000000 H
   0.1476250000000000    0.6373250000000000    0.2310100000000000 H
   0.1810750000000000    0.5669850000000000    0.2403800000000000 H
   0.1355250000000000    0.6428199999999999    0.8826900000000000 H
   0.1671000000000000    0.5979350000000000    0.9579900000000000 H
   0.2776150000000000    0.6760250000000000    0.9602000000000001 H
   0.2454600000000000    0.7201050000000000    0.8839800000000000 H
   0.2175200000000000    0.6735300000000000    0.0663400000000000 H
   0.2516100000000000    0.7181400000000000    0.1400800000000000 H
   0.3639300000000000    0.6438699999999999    0.1304800000000000 H
   0.3301800000000000    0.5983100000000000    0.0578300000000000 H
   0.1322500000000000    0.8569500000000000    0.6092100000000000 H
   0.1019550000000000    0.9063200000000000    0.5384800000000000 H
   0.4867650000000000    0.8350150000000001    0.5365300000000000 H
   0.0170650000000000    0.7874500000000000    0.6097600000000000 H
   0.0484950000000000    0.8365800000000000    0.4270000000000000 H
   0.0107450000000000    0.7905900000000000    0.3590000000000000 H
   0.3977650000000000    0.8625000000000000    0.3822500000000000 H
   0.4357550000000000    0.9106700000000000    0.4466700000000000 H
   0.1157550000000000    0.6346800000000000    0.7325900000000000 H
   0.0811400000000000    0.5646450000000000    0.7299500000000000 H
   0.4609100000000000    0.6277699999999999    0.7345000000000000 H
   0.0000500000000000    0.6945300000000000    0.7383200000000000 H
   0.4617950000000000    0.5503050000000000    0.7349700000000000 H
   0.0468700000000000    0.9481050000000000    0.7201500000000000 H
   0.0472050000000000    0.8709200000000000    0.7142800000000000 H
   0.0095000000000000    0.8037900000000000    0.7253100000000000 H
   0.3973850000000000    0.8628150000000000    0.7681900000000000 H
   0.4308250000000000    0.9331050000000001    0.7590000000000000 H
   0.3855500000000000    0.6428350000000000    0.6172400000000000 H
   0.4171400000000000    0.5979350000000000    0.5419500000000000 H
   0.0276400000000000    0.6760349999999999    0.5397100000000000 H
   0.4954800000000000    0.7201299999999999    0.6159500000000000 H
   0.4675900000000000    0.6734450000000000    0.4335600000000000 H
   0.0016850000000000    0.7179800000000001    0.3597500000000000 H
   0.1140150000000000    0.6437400000000000    0.3694500000000000 H
   0.0802400000000000    0.5982250000000000    0.4421400000000000 H
   0.3822450000000000    0.8569300000000000    0.8907800000000000 H
   0.3519500000000000    0.9063150000000000    0.9615200000000000 H
   0.2367400000000000    0.8350200000000000    0.9634700000000000 H
   0.2670550000000000    0.7874450000000000    0.8902000000000000 H
   0.2984900000000000    0.8365950000000000    0.0728500000000000 H
   0.2608300000000000    0.7907200000000000    0.1411000000000000 H
   0.1478850000000000    0.8627600000000000    0.1183600000000000 H
   0.1857800000000000    0.9107650000000000    0.0535700000000000 H
   0.3657450000000000    0.6346800000000000    0.7668900000000000 H
   0.3311200000000000    0.5646550000000000    0.7695600000000000 H
   0.2108850000000000    0.6278000000000000    0.7656300000000000 H
   0.2500400000000000    0.6945600000000001    0.7617400000000000 H
   0.2117550000000000    0.5503350000000000    0.7651200000000000 H
   0.2968500000000000    0.9481299999999999    0.7796600000000000 H
   0.2971950000000000    0.8709450000000001    0.7855000000000000 H
   0.2594850000000000    0.8038149999999999    0.7745000000000000 H
   0.1472750000000000    0.8628350000000000    0.7321500000000000 H
   0.1807200000000000    0.9331250000000000    0.7412400000000000 H
   0.1355350000000000    0.8574900000000000    0.3820100000000000 H
   0.1672550000000000    0.9024400000000000    0.4571500000000000 H
   0.2777450000000000    0.8240850000000000    0.4592300000000000 H
   0.2454500000000000    0.7799550000000000    0.3831000000000000 H
   0.2177100000000000    0.8263199999999999    0.5654500000000000 H
   0.2517750000000000    0.7818499999999999    0.6394300000000001 H
   0.3640400000000000    0.8559550000000000    0.6297000000000000 H
   0.3303100000000000    0.9013949999999999    0.5569100000000000 H
   0.1322300000000000    0.6428000000000000    0.1092600000000000 H
   0.1018700000000000    0.5934250000000000    0.0386700000000000 H
   0.4868050000000000    0.6651450000000000    0.0364100000000000 H
   0.0171800000000000    0.7127500000000000    0.1094000000000000 H
   0.0484300000000000    0.6634100000000001    0.9272000000000000 H
   0.0107900000000000    0.7092300000000000    0.8588200000000000 H
   0.3979850000000000    0.6371750000000000    0.8812500000000000 H
   0.4358650000000000    0.5892200000000000    0.9462500000000000 H
   0.1155250000000000    0.8651450000000001    0.2305200000000000 H
   0.0808600000000000    0.9352300000000000    0.2279700000000000 H
   0.4607350000000000    0.8723750000000000    0.2365600000000000 H
   0.4999300000000000    0.8055650000000000    0.2401200000000000 H
   0.4616450000000000    0.9498850000000000    0.2360200000000000 H
   0.3975050000000000    0.6373850000000000    0.2684300000000000 H
   0.4309700000000000    0.5670450000000000    0.2591900000000000 H
   0.8854550000000000    0.8583650000000000    0.1185700000000000 H
   0.9173300000000000    0.9029499999999999    0.0431800000000000 H
   0.5272800000000000    0.8238799999999999    0.0409200000000000 H
   0.9947650000000000    0.7800199999999999    0.1170800000000000 H
   0.9676450000000000    0.8262149999999999    0.9347000000000000 H
   0.5017050000000000    0.7817400000000000    0.8607000000000000 H
   0.6139500000000000    0.8558700000000000    0.8703700000000000 H
   0.5802250000000000    0.9013100000000001    0.9431700000000000 H
   0.8822650000000001    0.6427499999999999    0.3907300000000000 H
   0.8519150000000000    0.5934100000000000    0.4613700000000000 H
   0.7367850000000000    0.6650550000000000    0.4634900000000000 H
   0.7671500000000000    0.7125950000000000    0.3903300000000000 H
   0.7984500000000000    0.6634300000000000    0.5726300000000000 H
   0.7608150000000000    0.7092800000000000    0.6410900000000000 H
   0.6480049999999999    0.6372100000000001    0.6187400000000000 H
   0.6858850000000000    0.5892200000000000    0.5537600000000000 H
   0.8654450000000000    0.8650850000000000    0.2706300000000000 H
   0.8308050000000000    0.9351800000000000    0.2730000000000000 H
   0.7106749999999999    0.8723750000000000    0.2637000000000000 H
   0.7498700000000000    0.8055300000000001    0.2604800000000000 H
   0.7116250000000000    0.9498800000000001    0.2640700000000000 H
   0.7968250000000000    0.5517350000000000    0.2806800000000000 H
   0.7971600000000000    0.6289800000000000    0.2864700000000000 H
   0.7594650000000001    0.6961750000000000    0.2751000000000000 H
   0.6476250000000000    0.6373250000000000    0.2310100000000000 H
   0.6810750000000000    0.5669850000000000    0.2403800000000000 H
   0.6355250000000000    0.6428199999999999    0.8826900000000000 H
   0.6671000000000000    0.5979350000000000    0.9579900000000000 H
   0.7776149999999999    0.6760250000000000    0.9602000000000001 H
   0.7454600000000000    0.7201050000000000    0.8839800000000000 H
   0.7175199999999999    0.6735300000000000    0.0663400000000000 H
   0.7516100000000000    0.7181400000000000    0.1400800000000000 H
   0.8639300000000000    0.6438699999999999    0.1304800000000000 H
   0.8301799999999999    0.5983100000000000    0.0578300000000000 H
   0.6322500000000000    0.8569500000000000    0.6092100000000000 H
   0.6019550000000000    0.9063200000000000    0.5384800000000000 H
   0.9867650000000000    0.8350150000000001    0.5365300000000000 H
   0.5170650000000000    0.7874500000000000    0.6097600000000000 H
   0.5484950000000000    0.8365800000000000    0.4270000000000000 H
   0.5107450000000000    0.7905900000000000    0.3590000000000000 H
   0.8977649999999999    0.8625000000000000    0.3822500000000000 H
   0.9357550000000000    0.9106700000000000    0.4466700000000000 H
   0.6157550000000001    0.6346800000000000    0.7325900000000000 H
   0.5811400000000000    0.5646450000000000    0.7299500000000000 H
   0.9609099999999999    0.6277699999999999    0.7345000000000000 H
   0.5000500000000000    0.6945300000000000    0.7383200000000000 H
   0.9617950000000000    0.5503050000000000    0.7349700000000000 H
   0.5468700000000000    0.9481050000000000    0.7201500000000000 H
   0.5472049999999999    0.8709200000000000    0.7142800000000000 H
   0.5095000000000000    0.8037900000000000    0.7253100000000000 H
   0.8973850000000000    0.8628150000000000    0.7681900000000000 H
   0.9308250000000000    0.9331050000000001    0.7590000000000000 H
   0.8855500000000001    0.6428350000000000    0.6172400000000000 H
   0.9171400000000001    0.5979350000000000    0.5419500000000000 H
   0.5276400000000000    0.6760349999999999    0.5397100000000000 H
   0.9954799999999999    0.7201299999999999    0.6159500000000000 H
   0.9675900000000000    0.6734450000000000    0.4335600000000000 H
   0.5016850000000000    0.7179800000000001    0.3597500000000000 H
   0.6140150000000000    0.6437400000000000    0.3694500000000000 H
   0.5802400000000000    0.5982250000000000    0.4421400000000000 H
   0.8822449999999999    0.8569300000000000    0.8907800000000000 H
   0.8519500000000000    0.9063150000000000    0.9615200000000000 H
   0.7367400000000000    0.8350200000000000    0.9634700000000000 H
   0.7670550000000000    0.7874450000000000    0.8902000000000000 H
   0.7984899999999999    0.8365950000000000    0.0728500000000000 H
   0.7608300000000000    0.7907200000000000    0.1411000000000000 H
   0.6478850000000000    0.8627600000000000    0.1183600000000000 H
   0.6857800000000001    0.9107650000000000    0.0535700000000000 H
   0.8657450000000000    0.6346800000000000    0.7668900000000000 H
   0.8311200000000001    0.5646550000000000    0.7695600000000000 H
   0.7108850000000000    0.6278000000000000    0.7656300000000000 H
   0.7500400000000000    0.6945600000000001    0.7617400000000000 H
   0.7117550000000000    0.5503350000000000    0.7651200000000000 H
   0.7968500000000001    0.9481299999999999    0.7796600000000000 H
   0.7971950000000000    0.8709450000000001    0.7855000000000000 H
   0.7594850000000000    0.8038149999999999    0.7745000000000000 H
   0.6472750000000000    0.8628350000000000    0.7321500000000000 H
   0.6807200000000000    0.9331250000000000    0.7412400000000000 H
   0.6355350000000000    0.8574900000000000    0.3820100000000000 H
   0.6672549999999999    0.9024400000000000    0.4571500000000000 H
   0.7777450000000000    0.8240850000000000    0.4592300000000000 H
   0.7454499999999999    0.7799550000000000    0.3831000000000000 H
   0.7177100000000000    0.8263199999999999    0.5654500000000000 H
   0.7517750000000001    0.7818499999999999    0.6394300000000001 H
   0.8640399999999999    0.8559550000000000    0.6297000000000000 H
   0.8303100000000000    0.9013949999999999    0.5569100000000000 H
   0.6322300000000000    0.6428000000000000    0.1092600000000000 H
   0.6018700000000000    0.5934250000000000    0.0386700000000000 H
   0.9868049999999999    0.6651450000000000    0.0364100000000000 H
   0.5171800000000000    0.7127500000000000    0.1094000000000000 H
   0.5484300000000000    0.6634100000000001    0.9272000000000000 H
   0.5107900000000000    0.7092300000000000    0.8588200000000000 H
   0.8979850000000000    0.6371750000000000    0.8812500000000000 H
   0.9358649999999999    0.5892200000000000    0.9462500000000000 H
   0.6155250000000000    0.8651450000000001    0.2305200000000000 H
   0.5808600000000000    0.9352300000000000    0.2279700000000000 H
   0.9607350000000000    0.8723750000000000    0.2365600000000000 H
   0.9999300000000000    0.8055650000000000    0.2401200000000000 H
   0.9616450000000001    0.9498850000000000    0.2360200000000000 H
   0.5468150000000001    0.5517700000000000    0.2194400000000000 H