H5 O3
1.0
  38.3159954246854397    0.0000000000000000   -0.0187247292281292
   0.0018345098579820   15.0999851694505978   -0.0210835705135033
   0.0000000000000000    0.0000000000000000   38.8900000000000006
H O
5 3
direct
   0.4745751099155690    0.2288484582821165    0.0178641101623406 H
   0.4858454214608369    0.3331100191256509    0.0283725265707152 H
   0.5334863488992851    0.1674225472178685    0.9278759157063865 H
   0.5711260792463186    0.4004421362524013    0.9647276276684070 H
   0.5510425591376054    0.2888145318735426    0.9478473510720855 H
   0.4720566666666666    0.2799900000000000    0.0331450000000000 O
   0.5500400000000000    0.2148500000000000    0.9320250000000000 O
   0.5703633333333333    0.3441700000000000    0.9526900000000000 O
