Cd48 H384 C570 N95 O192
1.0
  38.3159954246854397    0.0000000000000000   -0.0187247292281292
   0.0018345098579820   15.0999851694505978   -0.0210835705135033
   0.0000000000000000    0.0000000000000000   38.8900000000000006
Cd H C N O
48 384 570 95 192
direct
   0.8931966666666666    0.7679800000000000    0.6647750000000000 Cd
   0.7735000000000000    0.2677600000000000    0.5852400000000000 Cd
   0.9400366666666666    0.2322700000000000    0.4144850000000000 Cd
   0.7266633333333333    0.7320000000000000    0.8355200000000000 Cd
   0.2265300000000000    0.7679800000000000    0.1647750000000000 Cd
   0.1068333333333333    0.2677600000000000    0.0852400000000000 Cd
   0.2733700000000000    0.2322700000000000    0.9144850000000000 Cd
   0.0599966666666667    0.7320000000000000    0.3355200000000000 Cd
   0.5598633333333334    0.7679800000000000    0.1647750000000000 Cd
   0.4401666666666667    0.2677600000000000    0.0852400000000000 Cd
   0.6067033333333334    0.2322700000000000    0.9144850000000000 Cd
   0.3933300000000000    0.7320000000000000    0.3355200000000000 Cd
   0.2265300000000000    0.7679800000000000    0.6647750000000000 Cd
   0.1068333333333333    0.2677600000000000    0.5852400000000000 Cd
   0.2733700000000000    0.2322700000000000    0.4144850000000000 Cd
   0.0599966666666667    0.7320000000000000    0.8355200000000000 Cd
   0.5598633333333334    0.7679800000000000    0.6647750000000000 Cd
   0.4401666666666667    0.2677600000000000    0.5852400000000000 Cd
   0.6067033333333334    0.2322700000000000    0.4144850000000000 Cd
   0.3933300000000000    0.7320000000000000    0.8355200000000000 Cd
   0.8931966666666666    0.7679800000000000    0.1647750000000000 Cd
   0.7735000000000000    0.2677600000000000    0.0852400000000000 Cd
   0.9400366666666666    0.2322700000000000    0.9144850000000000 Cd
   0.7266633333333333    0.7320000000000000    0.3355200000000000 Cd
   0.4401233333333333    0.2320600000000000    0.3352200000000000 Cd
   0.5598200000000000    0.7322900000000000    0.4147550000000000 Cd
   0.6066566666666666    0.2680400000000000    0.1644700000000000 Cd
   0.3932866666666667    0.7677700000000000    0.5855000000000000 Cd
   0.1067900000000000    0.2320600000000000    0.3352200000000000 Cd
   0.2264866666666666    0.7322900000000000    0.4147550000000000 Cd
   0.2733233333333333    0.2680400000000000    0.1644700000000000 Cd
   0.0599533333333333    0.7677700000000000    0.5855000000000000 Cd
   0.7734566666666667    0.2320600000000000    0.8352200000000001 Cd
   0.8931533333333332    0.7322900000000000    0.9147550000000000 Cd
   0.9399899999999999    0.2680400000000000    0.6644700000000000 Cd
   0.7266199999999999    0.7677700000000000    0.0855000000000000 Cd
   0.4401233333333333    0.2320600000000000    0.8352200000000001 Cd
   0.5598200000000000    0.7322900000000000    0.9147550000000000 Cd
   0.6066566666666666    0.2680400000000000    0.6644700000000000 Cd
   0.3932866666666667    0.7677700000000000    0.0855000000000000 Cd
   0.1067900000000000    0.2320600000000000    0.8352200000000001 Cd
   0.2264866666666666    0.7322900000000000    0.9147550000000000 Cd
   0.2733233333333333    0.2680400000000000    0.6644700000000000 Cd
   0.0599533333333333    0.7677700000000000    0.0855000000000000 Cd
   0.7734566666666667    0.2320600000000000    0.3352200000000000 Cd
   0.8931533333333332    0.7322900000000000    0.4147550000000000 Cd
   0.9399899999999999    0.2680400000000000    0.1644700000000000 Cd
   0.7266199999999999    0.7677700000000000    0.5855000000000000 Cd
   0.6776235109406806    0.8515402665849074    0.8699861848502487 H
   0.7035356955941424    0.9189373224802830    0.8468321840886995 H
   0.9987966666666666    0.8492100000000000    0.7185950000000000 H
   0.9689099999999999    0.5839600000000000    0.7458000000000000 H
   0.0000000000000000    0.5901200000000000    0.7937750000000000 H
   0.0412033333333333    0.8467000000000000    0.7683900000000000 H
   0.6666666666666666    0.3493100000000000    0.5316100000000000 H
   0.6976833333333333    0.0839800000000000    0.5040850000000000 H
   0.6530700000000000    0.0903300000000000    0.4561150000000000 H
   0.6255266666666666    0.3470100000000000    0.4817750000000000 H
   0.8344600000000000    0.1506800000000000    0.4680100000000000 H
   0.8644166666666666    0.4157900000000000    0.4957100000000000 H
   0.8198666666666666    0.4093400000000000    0.5435000000000000 H
   0.7922899999999999    0.1527500000000000    0.5179549999999999 H
   0.8075200000000000    0.9190600000000000    0.5927150000000000 H
   0.8732066666666666    0.0916900000000000    0.6529600000000000 H
   0.8352233333333332    0.2191300000000000    0.6344700000000000 H
   0.7713766666666666    0.0518500000000000    0.5774500000000000 H
   0.8591299999999999    0.4192600000000000    0.6572800000000000 H
   0.7934666666666667    0.5916100000000000    0.5970550000000000 H
   0.8314966666666666    0.7191000000000000    0.6155100000000000 H
   0.8953366666666667    0.5521000000000000    0.6725000000000000 H
   0.8322499999999999    0.6506700000000000    0.7818250000000000 H
   0.8021766666666666    0.9157500000000000    0.7544600000000000 H
   0.8467199999999999    0.9094300000000000    0.7064350000000000 H
   0.8744166666666666    0.6528900000000000    0.7318700000000000 H
   0.9600466666666666    0.9089600000000000    0.4027000000000000 H
   0.9981266666666666    0.7812700000000000    0.3845200000000000 H
   0.0621700000000000    0.9477500000000000    0.3276150000000000 H
   0.0259900000000000    0.0807700000000000    0.3426000000000000 H
   0.9739866666666666    0.5810300000000000    0.4073700000000000 H
   0.0399233333333333    0.4088100000000000    0.3472400000000000 H
   0.0000000000000000    0.2812200000000000    0.3654500000000000 H
   0.9378599999999999    0.4480700000000000    0.4224200000000000 H
   0.3321300000000000    0.8492100000000000    0.2185950000000000 H
   0.3022433333333333    0.5839600000000000    0.2458000000000000 H
   0.3333333333333333    0.5901200000000000    0.2937750000000000 H
   0.3745366666666666    0.8467000000000000    0.2683900000000000 H
   0.0000000000000000    0.3493100000000000    0.0316100000000000 H
   0.0310166666666667    0.0839800000000000    0.0040850000000000 H
   0.9864033333333333    0.0903300000000000    0.9561150000000000 H
   0.9588599999999999    0.3470100000000000    0.9817750000000001 H
   0.1677933333333333    0.1506800000000000    0.9680100000000000 H
   0.1977500000000000    0.4157900000000000    0.9957100000000000 H
   0.1532000000000000    0.4093400000000000    0.0435000000000000 H
   0.1256233333333333    0.1527500000000000    0.0179550000000000 H
   0.1408533333333333    0.9190600000000000    0.0927150000000000 H
   0.2065400000000000    0.0916900000000000    0.1529600000000000 H
   0.1685566666666666    0.2191300000000000    0.1344700000000000 H
   0.1047100000000000    0.0518500000000000    0.0774500000000000 H
   0.1924633333333333    0.4192600000000000    0.1572800000000000 H
   0.1268000000000000    0.5916100000000000    0.0970550000000000 H
   0.1648300000000000    0.7191000000000000    0.1155100000000000 H
   0.2286700000000000    0.5521000000000000    0.1725000000000000 H
   0.1655833333333333    0.6506700000000000    0.2818250000000000 H
   0.1355100000000000    0.9157500000000000    0.2544600000000000 H
   0.1800533333333333    0.9094300000000000    0.2064350000000000 H
   0.2077500000000000    0.6528900000000000    0.2318700000000000 H
   0.6360701493211932    0.0993129479967509    0.8820463849233653 H
   0.6406533333333333    0.5810300000000000    0.9073700000000000 H
   0.7065899999999999    0.4088100000000000    0.8472400000000000 H
   0.6666666666666666    0.2812200000000000    0.8654500000000001 H
   0.6045266666666667    0.4480700000000000    0.9224200000000000 H
   0.2933800000000000    0.9089600000000000    0.4027000000000000 H
   0.3314600000000000    0.7812700000000000    0.3845200000000000 H
   0.3955033333333333    0.9477500000000000    0.3276150000000000 H
   0.3593233333333333    0.0807700000000000    0.3426000000000000 H
   0.3073200000000000    0.5810300000000000    0.4073700000000000 H
   0.3732566666666666    0.4088100000000000    0.3472400000000000 H
   0.3333333333333333    0.2812200000000000    0.3654500000000000 H
   0.2711933333333333    0.4480700000000000    0.4224200000000000 H
   0.6654633333333333    0.8492100000000000    0.2185950000000000 H
   0.6355766666666667    0.5839600000000000    0.2458000000000000 H
   0.6666666666666666    0.5901200000000000    0.2937750000000000 H
   0.7078700000000000    0.8467000000000000    0.2683900000000000 H
   0.3333333333333333    0.3493100000000000    0.0316100000000000 H
   0.3643500000000000    0.0839800000000000    0.0040850000000000 H
   0.3197366666666667    0.0903300000000000    0.9561150000000000 H
   0.2921933333333333    0.3470100000000000    0.9817750000000001 H
   0.5011266666666667    0.1506800000000000    0.9680100000000000 H
   0.5310833333333334    0.4157900000000000    0.9957100000000000 H
   0.4865333333333333    0.4093400000000000    0.0435000000000000 H
   0.4589566666666666    0.1527500000000000    0.0179550000000000 H
   0.4741866666666666    0.9190600000000000    0.0927150000000000 H
   0.5398733333333333    0.0916900000000000    0.1529600000000000 H
   0.5018899999999999    0.2191300000000000    0.1344700000000000 H
   0.4380433333333333    0.0518500000000000    0.0774500000000000 H
   0.5257966666666667    0.4192600000000000    0.1572800000000000 H
   0.4601333333333333    0.5916100000000000    0.0970550000000000 H
   0.4981633333333333    0.7191000000000000    0.1155100000000000 H
   0.5620033333333333    0.5521000000000000    0.1725000000000000 H
   0.4989166666666667    0.6506700000000000    0.2818250000000000 H
   0.4688433333333333    0.9157500000000000    0.2544600000000000 H
   0.5133866666666667    0.9094300000000000    0.2064350000000000 H
   0.5410833333333334    0.6528900000000000    0.2318700000000000 H
   0.9600466666666666    0.9089600000000000    0.9027000000000001 H
   0.9981266666666666    0.7812700000000000    0.8845200000000000 H
   0.0621700000000000    0.9477500000000000    0.8276150000000000 H
   0.0259900000000000    0.0807700000000000    0.8426000000000000 H
   0.9739866666666666    0.5810300000000000    0.9073700000000000 H
   0.0399233333333333    0.4088100000000000    0.8472400000000000 H
   0.0000000000000000    0.2812200000000000    0.8654500000000001 H
   0.9378599999999999    0.4480700000000000    0.9224200000000000 H
   0.3321300000000000    0.8492100000000000    0.7185950000000000 H
   0.3022433333333333    0.5839600000000000    0.7458000000000000 H
   0.3333333333333333    0.5901200000000000    0.7937750000000000 H
   0.3745366666666666    0.8467000000000000    0.7683900000000000 H
   0.0000000000000000    0.3493100000000000    0.5316100000000000 H
   0.0310166666666667    0.0839800000000000    0.5040850000000000 H
   0.9864033333333333    0.0903300000000000    0.4561150000000000 H
   0.9588599999999999    0.3470100000000000    0.4817750000000000 H
   0.1677933333333333    0.1506800000000000    0.4680100000000000 H
   0.1977500000000000    0.4157900000000000    0.4957100000000000 H
   0.1532000000000000    0.4093400000000000    0.5435000000000000 H
   0.1256233333333333    0.1527500000000000    0.5179549999999999 H
   0.1408533333333333    0.9190600000000000    0.5927150000000000 H
   0.2065400000000000    0.0916900000000000    0.6529600000000000 H
   0.1685566666666666    0.2191300000000000    0.6344700000000000 H
   0.1047100000000000    0.0518500000000000    0.5774500000000000 H
   0.1924633333333333    0.4192600000000000    0.6572800000000000 H
   0.1268000000000000    0.5916100000000000    0.5970550000000000 H
   0.1648300000000000    0.7191000000000000    0.6155100000000000 H
   0.2286700000000000    0.5521000000000000    0.6725000000000000 H
   0.1655833333333333    0.6506700000000000    0.7818250000000000 H
   0.1355100000000000    0.9157500000000000    0.7544600000000000 H
   0.1800533333333333    0.9094300000000000    0.7064350000000000 H
   0.2077500000000000    0.6528900000000000    0.7318700000000000 H
   0.2933800000000000    0.9089600000000000    0.9027000000000001 H
   0.3314600000000000    0.7812700000000000    0.8845200000000000 H
   0.3955033333333333    0.9477500000000000    0.8276150000000000 H
   0.3593233333333333    0.0807700000000000    0.8426000000000000 H
   0.3073200000000000    0.5810300000000000    0.9073700000000000 H
   0.3732566666666666    0.4088100000000000    0.8472400000000000 H
   0.3333333333333333    0.2812200000000000    0.8654500000000001 H
   0.2711933333333333    0.4480700000000000    0.9224200000000000 H
   0.6654633333333333    0.8492100000000000    0.7185950000000000 H
   0.6355766666666667    0.5839600000000000    0.7458000000000000 H
   0.6666666666666666    0.5901200000000000    0.7937750000000000 H
   0.7078700000000000    0.8467000000000000    0.7683900000000000 H
   0.3333333333333333    0.3493100000000000    0.5316100000000000 H
   0.3643500000000000    0.0839800000000000    0.5040850000000000 H
   0.3197366666666667    0.0903300000000000    0.4561150000000000 H
   0.2921933333333333    0.3470100000000000    0.4817750000000000 H
   0.5011266666666667    0.1506800000000000    0.4680100000000000 H
   0.5310833333333334    0.4157900000000000    0.4957100000000000 H
   0.4865333333333333    0.4093400000000000    0.5435000000000000 H
   0.4589566666666666    0.1527500000000000    0.5179549999999999 H
   0.4741866666666666    0.9190600000000000    0.5927150000000000 H
   0.5398733333333333    0.0916900000000000    0.6529600000000000 H
   0.5018899999999999    0.2191300000000000    0.6344700000000000 H
   0.4380433333333333    0.0518500000000000    0.5774500000000000 H
   0.5257966666666667    0.4192600000000000    0.6572800000000000 H
   0.4601333333333333    0.5916100000000000    0.5970550000000000 H
   0.4981633333333333    0.7191000000000000    0.6155100000000000 H
   0.5620033333333333    0.5521000000000000    0.6725000000000000 H
   0.4989166666666667    0.6506700000000000    0.7818250000000000 H
   0.4688433333333333    0.9157500000000000    0.7544600000000000 H
   0.5133866666666667    0.9094300000000000    0.7064350000000000 H
   0.5410833333333334    0.6528900000000000    0.7318700000000000 H
   0.6267133333333332    0.9089600000000000    0.4027000000000000 H
   0.6647933333333333    0.7812700000000000    0.3845200000000000 H
   0.7288366666666666    0.9477500000000000    0.3276150000000000 H
   0.6926566666666666    0.0807700000000000    0.3426000000000000 H
   0.6406533333333333    0.5810300000000000    0.4073700000000000 H
   0.7065899999999999    0.4088100000000000    0.3472400000000000 H
   0.6666666666666666    0.2812200000000000    0.3654500000000000 H
   0.6045266666666667    0.4480700000000000    0.4224200000000000 H
   0.9987966666666666    0.8492100000000000    0.2185950000000000 H
   0.9689099999999999    0.5839600000000000    0.2458000000000000 H
   0.0000000000000000    0.5901200000000000    0.2937750000000000 H
   0.0412033333333333    0.8467000000000000    0.2683900000000000 H
   0.6666666666666666    0.3493100000000000    0.0316100000000000 H
   0.6976833333333333    0.0839800000000000    0.0040850000000000 H
   0.6530700000000000    0.0903300000000000    0.9561150000000000 H
   0.6255266666666666    0.3470100000000000    0.9817750000000001 H
   0.8344600000000000    0.1506800000000000    0.9680100000000000 H
   0.8644166666666666    0.4157900000000000    0.9957100000000000 H
   0.8198666666666666    0.4093400000000000    0.0435000000000000 H
   0.7922899999999999    0.1527500000000000    0.0179550000000000 H
   0.8075200000000000    0.9190600000000000    0.0927150000000000 H
   0.8732066666666666    0.0916900000000000    0.1529600000000000 H
   0.8352233333333332    0.2191300000000000    0.1344700000000000 H
   0.7713766666666666    0.0518500000000000    0.0774500000000000 H
   0.8591299999999999    0.4192600000000000    0.1572800000000000 H
   0.7934666666666667    0.5916100000000000    0.0970550000000000 H
   0.8314966666666666    0.7191000000000000    0.1155100000000000 H
   0.8953366666666667    0.5521000000000000    0.1725000000000000 H
   0.8322499999999999    0.6506700000000000    0.2818250000000000 H
   0.8021766666666666    0.9157500000000000    0.2544600000000000 H
   0.8467199999999999    0.9094300000000000    0.2064350000000000 H
   0.8744166666666666    0.6528900000000000    0.2318700000000000 H
   0.6926700000000000    0.4190100000000000    0.0926200000000000 H
   0.6267300000000000    0.5912300000000000    0.1527450000000000 H
   0.6647500000000000    0.7188200000000000    0.1345150000000000 H
   0.7287966666666666    0.5519700000000000    0.0775700000000000 H
   0.6406666666666667    0.9192700000000000    0.1573850000000000 H
   0.7066100000000000    0.0910800000000000    0.0972950000000000 H
   0.6666666666666666    0.2187600000000000    0.1154700000000000 H
   0.6044866666666666    0.0522900000000000    0.1723800000000000 H
   0.3333333333333333    0.1508200000000000    0.2813800000000000 H
   0.3644066666666667    0.4161000000000000    0.2541800000000000 H
   0.3197433333333333    0.4099400000000000    0.2062200000000000 H
   0.2921233333333333    0.1533300000000000    0.2315900000000000 H
   0.6654633333333333    0.6507600000000000    0.4683700000000000 H
   0.6356200000000000    0.9160500000000000    0.4959000000000000 H
   0.6666666666666666    0.9097000000000000    0.5438900000000000 H
   0.7078099999999999    0.6530600000000000    0.5182050000000000 H
   0.5010700000000000    0.3493600000000000    0.2181600000000000 H
   0.5311566666666667    0.0843100000000000    0.2455450000000000 H
   0.4866100000000000    0.0906300000000000    0.2935650000000000 H
   0.4589000000000000    0.3471500000000000    0.2681150000000000 H
   0.4741966666666667    0.5807800000000000    0.3427150000000000 H
   0.5398566666666667    0.4084200000000000    0.4029350000000000 H
   0.5018233333333333    0.2809300000000000    0.3844800000000000 H
   0.4379866666666666    0.4479500000000000    0.3274950000000000 H
   0.4601166666666666    0.9083599999999999    0.3470350000000000 H
   0.4981000000000000    0.7809100000000000    0.3655200000000000 H
   0.5619466666666666    0.9481900000000000    0.4225400000000000 H
   0.5258066666666666    0.0809800000000000    0.4072800000000000 H
   0.4988533333333333    0.8493800000000000    0.5319750000000000 H
   0.4689200000000000    0.5842400000000000    0.5042950000000000 H
   0.5134633333333334    0.5907000000000000    0.4563050000000000 H
   0.5410199999999999    0.8473100000000000    0.4820300000000000 H
   0.3593366666666666    0.4190100000000000    0.0926200000000000 H
   0.2933966666666666    0.5912300000000000    0.1527450000000000 H
   0.3314166666666666    0.7188200000000000    0.1345150000000000 H
   0.3954633333333333    0.5519700000000000    0.0775700000000000 H
   0.3073333333333333    0.9192700000000000    0.1573850000000000 H
   0.3732766666666666    0.0910800000000000    0.0972950000000000 H
   0.3333333333333333    0.2187600000000000    0.1154700000000000 H
   0.2711533333333333    0.0522900000000000    0.1723800000000000 H
   0.0000000000000000    0.1508200000000000    0.2813800000000000 H
   0.0310733333333333    0.4161000000000000    0.2541800000000000 H
   0.9864100000000000    0.4099400000000000    0.2062200000000000 H
   0.9587899999999999    0.1533300000000000    0.2315900000000000 H
   0.3321300000000000    0.6507600000000000    0.4683700000000000 H
   0.3022866666666666    0.9160500000000000    0.4959000000000000 H
   0.3333333333333333    0.9097000000000000    0.5438900000000000 H
   0.3744766666666666    0.6530600000000000    0.5182050000000000 H
   0.1677366666666667    0.3493600000000000    0.2181600000000000 H
   0.1978233333333334    0.0843100000000000    0.2455450000000000 H
   0.1532766666666667    0.0906300000000000    0.2935650000000000 H
   0.1255666666666667    0.3471500000000000    0.2681150000000000 H
   0.1408633333333333    0.5807800000000000    0.3427150000000000 H
   0.2065233333333333    0.4084200000000000    0.4029350000000000 H
   0.1684900000000000    0.2809300000000000    0.3844800000000000 H
   0.1046533333333333    0.4479500000000000    0.3274950000000000 H
   0.1267833333333333    0.9083599999999999    0.3470350000000000 H
   0.1647666666666667    0.7809100000000000    0.3655200000000000 H
   0.2286133333333333    0.9481900000000000    0.4225400000000000 H
   0.1924733333333333    0.0809800000000000    0.4072800000000000 H
   0.1655200000000000    0.8493800000000000    0.5319750000000000 H
   0.1355866666666667    0.5842400000000000    0.5042950000000000 H
   0.1801300000000000    0.5907000000000000    0.4563050000000000 H
   0.2076866666666666    0.8473100000000000    0.4820300000000000 H
   0.0260033333333333    0.4190100000000000    0.5926200000000000 H
   0.9600633333333333    0.5912300000000000    0.6527450000000000 H
   0.9980833333333332    0.7188200000000000    0.6345149999999999 H
   0.0621300000000000    0.5519700000000000    0.5775700000000000 H
   0.9740000000000000    0.9192700000000000    0.6573850000000000 H
   0.0399433333333333    0.0910800000000000    0.5972950000000000 H
   0.0000000000000000    0.2187600000000000    0.6154700000000000 H
   0.9378199999999999    0.0522900000000000    0.6723800000000000 H
   0.6666666666666666    0.1508200000000000    0.7813800000000000 H
   0.6977399999999999    0.4161000000000000    0.7541800000000001 H
   0.6530766666666666    0.4099400000000000    0.7062200000000000 H
   0.6254566666666665    0.1533300000000000    0.7315900000000000 H
   0.9987966666666666    0.6507600000000000    0.9683700000000000 H
   0.9689533333333333    0.9160500000000000    0.9959000000000000 H
   0.0000000000000000    0.9097000000000000    0.0438900000000000 H
   0.0411433333333333    0.6530600000000000    0.0182050000000000 H
   0.8344033333333333    0.3493600000000000    0.7181600000000000 H
   0.8644900000000000    0.0843100000000000    0.7455450000000000 H
   0.8199433333333332    0.0906300000000000    0.7935650000000001 H
   0.7922333333333333    0.3471500000000000    0.7681150000000000 H
   0.8075300000000000    0.5807800000000000    0.8427150000000000 H
   0.8731899999999999    0.4084200000000000    0.9029350000000000 H
   0.8351566666666665    0.2809300000000000    0.8844799999999999 H
   0.7713200000000000    0.4479500000000000    0.8274950000000000 H
   0.7934500000000000    0.9083599999999999    0.8470350000000000 H
   0.8314333333333332    0.7809100000000000    0.8655200000000001 H
   0.8952800000000000    0.9481900000000000    0.9225400000000000 H
   0.8591400000000000    0.0809800000000000    0.9072800000000000 H
   0.8321866666666666    0.8493800000000000    0.0319750000000000 H
   0.8022533333333333    0.5842400000000000    0.0042950000000000 H
   0.8467966666666666    0.5907000000000000    0.9563050000000000 H
   0.8743533333333333    0.8473100000000000    0.9820300000000000 H
   0.6926700000000000    0.4190100000000000    0.5926200000000000 H
   0.6267300000000000    0.5912300000000000    0.6527450000000000 H
   0.6647500000000000    0.7188200000000000    0.6345149999999999 H
   0.7287966666666666    0.5519700000000000    0.5775700000000000 H
   0.6406666666666667    0.9192700000000000    0.6573850000000000 H
   0.7066100000000000    0.0910800000000000    0.5972950000000000 H
   0.6666666666666666    0.2187600000000000    0.6154700000000000 H
   0.6044866666666666    0.0522900000000000    0.6723800000000000 H
   0.3333333333333333    0.1508200000000000    0.7813800000000000 H
   0.3644066666666667    0.4161000000000000    0.7541800000000001 H
   0.3197433333333333    0.4099400000000000    0.7062200000000000 H
   0.2921233333333333    0.1533300000000000    0.7315900000000000 H
   0.6654633333333333    0.6507600000000000    0.9683700000000000 H
   0.6356200000000000    0.9160500000000000    0.9959000000000000 H
   0.6666666666666666    0.9097000000000000    0.0438900000000000 H
   0.7078099999999999    0.6530600000000000    0.0182050000000000 H
   0.5010700000000000    0.3493600000000000    0.7181600000000000 H
   0.5311566666666667    0.0843100000000000    0.7455450000000000 H
   0.4866100000000000    0.0906300000000000    0.7935650000000001 H
   0.4589000000000000    0.3471500000000000    0.7681150000000000 H
   0.4741966666666667    0.5807800000000000    0.8427150000000000 H
   0.5398566666666667    0.4084200000000000    0.9029350000000000 H
   0.5018233333333333    0.2809300000000000    0.8844799999999999 H
   0.4379866666666666    0.4479500000000000    0.8274950000000000 H
   0.4601166666666666    0.9083599999999999    0.8470350000000000 H
   0.4981000000000000    0.7809100000000000    0.8655200000000001 H
   0.5619466666666666    0.9481900000000000    0.9225400000000000 H
   0.5258066666666666    0.0809800000000000    0.9072800000000000 H
   0.4988533333333333    0.8493800000000000    0.0319750000000000 H
   0.4689200000000000    0.5842400000000000    0.0042950000000000 H
   0.5134633333333334    0.5907000000000000    0.9563050000000000 H
   0.5410199999999999    0.8473100000000000    0.9820300000000000 H
   0.3593366666666666    0.4190100000000000    0.5926200000000000 H
   0.2933966666666666    0.5912300000000000    0.6527450000000000 H
   0.3314166666666666    0.7188200000000000    0.6345149999999999 H
   0.3954633333333333    0.5519700000000000    0.5775700000000000 H
   0.3073333333333333    0.9192700000000000    0.6573850000000000 H
   0.3732766666666666    0.0910800000000000    0.5972950000000000 H
   0.3333333333333333    0.2187600000000000    0.6154700000000000 H
   0.2711533333333333    0.0522900000000000    0.6723800000000000 H
   0.0000000000000000    0.1508200000000000    0.7813800000000000 H
   0.0310733333333333    0.4161000000000000    0.7541800000000001 H
   0.9864100000000000    0.4099400000000000    0.7062200000000000 H
   0.9587899999999999    0.1533300000000000    0.7315900000000000 H
   0.3321300000000000    0.6507600000000000    0.9683700000000000 H
   0.3022866666666666    0.9160500000000000    0.9959000000000000 H
   0.3333333333333333    0.9097000000000000    0.0438900000000000 H
   0.3744766666666666    0.6530600000000000    0.0182050000000000 H
   0.1677366666666667    0.3493600000000000    0.7181600000000000 H
   0.1978233333333334    0.0843100000000000    0.7455450000000000 H
   0.1532766666666667    0.0906300000000000    0.7935650000000001 H
   0.1255666666666667    0.3471500000000000    0.7681150000000000 H
   0.1408633333333333    0.5807800000000000    0.8427150000000000 H
   0.2065233333333333    0.4084200000000000    0.9029350000000000 H
   0.1684900000000000    0.2809300000000000    0.8844799999999999 H
   0.1046533333333333    0.4479500000000000    0.8274950000000000 H
   0.1267833333333333    0.9083599999999999    0.8470350000000000 H
   0.1647666666666667    0.7809100000000000    0.8655200000000001 H
   0.2286133333333333    0.9481900000000000    0.9225400000000000 H
   0.1924733333333333    0.0809800000000000    0.9072800000000000 H
   0.1655200000000000    0.8493800000000000    0.0319750000000000 H
   0.1355866666666667    0.5842400000000000    0.0042950000000000 H
   0.1801300000000000    0.5907000000000000    0.9563050000000000 H
   0.2076866666666666    0.8473100000000000    0.9820300000000000 H
   0.0260033333333333    0.4190100000000000    0.0926200000000000 H
   0.9600633333333333    0.5912300000000000    0.1527450000000000 H
   0.9980833333333332    0.7188200000000000    0.1345150000000000 H
   0.0621300000000000    0.5519700000000000    0.0775700000000000 H
   0.9740000000000000    0.9192700000000000    0.1573850000000000 H
   0.0399433333333333    0.0910800000000000    0.0972950000000000 H
   0.0000000000000000    0.2187600000000000    0.1154700000000000 H
   0.9378199999999999    0.0522900000000000    0.1723800000000000 H
   0.6666666666666666    0.1508200000000000    0.2813800000000000 H
   0.6977399999999999    0.4161000000000000    0.2541800000000000 H
   0.6530766666666666    0.4099400000000000    0.2062200000000000 H
   0.6254566666666665    0.1533300000000000    0.2315900000000000 H
   0.9987966666666666    0.6507600000000000    0.4683700000000000 H
   0.9689533333333333    0.9160500000000000    0.4959000000000000 H
   0.0000000000000000    0.9097000000000000    0.5438900000000000 H
   0.0411433333333333    0.6530600000000000    0.5182050000000000 H
   0.8344033333333333    0.3493600000000000    0.2181600000000000 H
   0.8644900000000000    0.0843100000000000    0.2455450000000000 H
   0.8199433333333332    0.0906300000000000    0.2935650000000000 H
   0.7922333333333333    0.3471500000000000    0.2681150000000000 H
   0.8075300000000000    0.5807800000000000    0.3427150000000000 H
   0.8731899999999999    0.4084200000000000    0.4029350000000000 H
   0.8351566666666665    0.2809300000000000    0.3844800000000000 H
   0.7713200000000000    0.4479500000000000    0.3274950000000000 H
   0.7934500000000000    0.9083599999999999    0.3470350000000000 H
   0.8314333333333332    0.7809100000000000    0.3655200000000000 H
   0.8952800000000000    0.9481900000000000    0.4225400000000000 H
   0.8591400000000000    0.0809800000000000    0.4072800000000000 H
   0.8321866666666666    0.8493800000000000    0.5319750000000000 H
   0.8022533333333333    0.5842400000000000    0.5042950000000000 H
   0.8467966666666666    0.5907000000000000    0.4563050000000000 H
   0.8743533333333333    0.8473100000000000    0.4820300000000000 H
   0.6926566666666666    0.0807700000000000    0.8426000000000000 H
   0.9514233333333333    0.7181900000000000    0.7027850000000000 C
   0.0012900000000000    0.7911700000000000    0.7349850000000000 C
   0.9848500000000000    0.6426500000000001    0.7500950000000000 C
   0.0090133333333333    0.6461800000000000    0.7767200000000001 C