H6 O4
1.0
  11.8744633416415777    0.0000000000000000   -2.6196794361162494
  -3.4675564673962360   11.3575430345761070   -2.6261211630787904
   0.0000000000000000    0.0000000000000000   38.1330000000000027
H O
6 4
direct
   0.1373229036162979    0.9081487643567497    0.4803256074829714 H
   0.4601596225352084    1.0271523383202090    0.5537525992459476 H
   0.3067042784552719    0.9775809649457172    0.5211691014411906 H
   0.1944922861044056    0.3767682468061551    0.6096382772872300 H
   0.3004379655912995    0.4569652440363510    0.6327967072302398 H
   0.9996348749391147    0.2596269269787481    0.5764853574880273 H
   0.2187200000000000    0.9096700000000000    0.4893966666666666 O
   0.3981500000000000    0.9792900000000000    0.5313600000000001 O
   0.2151800000000000    0.4330100000000000    0.6267799999999999 O
   1.0252300000000001    0.3292100000000000    0.5976933333333333 O
