H1 O1
1.0
  30.0296043260376102    0.0000000000000000   -5.8284615484382396
  -1.2654105606784818   18.6376140379089108   -6.4997630792871215
   0.0000000000000000    0.0000000000000000   30.0399999999999991
H O
1 1
direct
   0.0259738120233872    0.8911657493303410    0.7262600126197288 H
   0.0174150000000000    0.8607500000000000    0.7435550000000000 O
