Cd32 H248 C436 S95 N188
1.0
  30.0296043260376102    0.0000000000000000   -5.8284615484382396
  -1.2654105606784818   18.6376140379089108   -6.4997630792871215
   0.0000000000000000    0.0000000000000000   30.0399999999999991
Cd H C S N
32 248 436 95 188
direct
   0.0000100000000000    0.7500000000000000    0.2500100000000000 Cd
   0.2500050000000000    0.2500100000000000    0.2500100000000000 Cd
   0.2500050000000000    0.7500000000000000    0.2500100000000000 Cd
   0.1250100000000000    0.0000200000000000    0.2500100000000000 Cd
   0.1250100000000000    0.5000100000000000    0.2500100000000000 Cd
   0.3750050000000000    0.0000200000000000    0.2500100000000000 Cd
   0.3750050000000000    0.5000100000000000    0.2500100000000000 Cd
   0.0000100000000000    0.2500100000000000    0.2500100000000000 Cd
   0.5000100000000000    0.7500000000000000    0.2500100000000000 Cd
   0.7500050000000000    0.2500100000000000    0.2500100000000000 Cd
   0.7500050000000000    0.7500000000000000    0.2500100000000000 Cd
   0.6250100000000001    0.0000200000000000    0.2500100000000000 Cd
   0.6250100000000001    0.5000100000000000    0.2500100000000000 Cd
   0.8750050000000000    0.0000200000000000    0.2500100000000000 Cd
   0.8750050000000000    0.5000100000000000    0.2500100000000000 Cd
   0.5000100000000000    0.2500100000000000    0.2500100000000000 Cd
   0.0000100000000000    0.7500000000000000    0.7500100000000001 Cd
   0.2500050000000000    0.2500100000000000    0.7500100000000001 Cd
   0.2500050000000000    0.7500000000000000    0.7500100000000001 Cd
   0.1250100000000000    0.0000200000000000    0.7500100000000001 Cd
   0.1250100000000000    0.5000100000000000    0.7500100000000001 Cd
   0.3750050000000000    0.0000200000000000    0.7500100000000001 Cd
   0.3750050000000000    0.5000100000000000    0.7500100000000001 Cd
   0.0000100000000000    0.2500100000000000    0.7500100000000001 Cd
   0.5000100000000000    0.7500000000000000    0.7500100000000001 Cd
   0.7500050000000000    0.2500100000000000    0.7500100000000001 Cd
   0.7500050000000000    0.7500000000000000    0.7500100000000001 Cd
   0.6250100000000001    0.0000200000000000    0.7500100000000001 Cd
   0.6250100000000001    0.5000100000000000    0.7500100000000001 Cd
   0.8750050000000000    0.0000200000000000    0.7500100000000001 Cd
   0.8750050000000000    0.5000100000000000    0.7500100000000001 Cd
   0.5000100000000000    0.2500100000000000    0.7500100000000001 Cd
   0.2069500000000000    0.2221300000000000    0.3335000000000000 H
   0.2069500000000000    0.7221100000000000    0.3336950000000000 H
   0.4569450000000000    0.2221200000000000    0.3336950000000000 H
   0.4569450000000000    0.7221100000000000    0.3336950000000000 H
   0.1876600000000000    0.2836000000000000    0.4129200000000000 H
   0.1876550000000000    0.7835900000000000    0.4129200000000000 H
   0.4376550000000000    0.2836000000000000    0.4129200000000000 H
   0.4376500000000000    0.7835800000000001    0.4129000000000000 H
   0.2200750000000000    0.4858400000000000    0.3963150000000000 H
   0.2200750000000000    0.9858200000000000    0.3963000000000000 H
   0.4700700000000000    0.4858300000000000    0.3963150000000000 H
   0.4700700000000000    0.9858200000000000    0.3963150000000000 H
   0.2383200000000000    0.4148200000000000    0.3167700000000000 H
   0.2383200000000000    0.9147999999999999    0.3167500000000000 H
   0.4883150000000000    0.4148200000000000    0.3167700000000000 H
   0.4883150000000000    0.9147999999999999    0.3167700000000000 H
   0.1679500000000000    0.3883500000000000    0.1662950000000000 H
   0.1679500000000000    0.8883400000000000    0.1662950000000000 H
   0.4179450000000000    0.3883500000000000    0.1662950000000000 H
   0.4179450000000000    0.8883400000000000    0.1662950000000000 H
   0.1872000000000000    0.3705700000000000    0.0870350000000000 H
   0.1872000000000000    0.8705600000000000    0.0870350000000000 H
   0.4372000000000000    0.3705700000000000    0.0870350000000000 H
   0.4372000000000000    0.8705600000000000    0.0870350000000000 H
   0.1550400000000000    0.0894500000000000    0.1035800000000000 H
   0.1550400000000000    0.5894400000000000    0.1035500000000000 H
   0.4050400000000000    0.0894500000000000    0.1035800000000000 H
   0.4050350000000000    0.5894400000000000    0.1035500000000000 H
   0.1368400000000000    0.0980200000000000    0.1831750000000000 H
   0.1368350000000000    0.5980100000000000    0.1831750000000000 H
   0.3868350000000000    0.0980200000000000    0.1831750000000000 H
   0.3868350000000000    0.5980100000000000    0.1831750000000000 H
   0.0430650000000000    0.2779000000000000    0.1663200000000000 H
   0.0430650000000000    0.7778900000000000    0.1663200000000000 H
   0.2930650000000000    0.2779000000000000    0.1663200000000000 H
   0.2930600000000000    0.7778900000000000    0.1663200000000000 H
   0.0623650000000000    0.2164300000000000    0.0871000000000000 H
   0.0623650000000000    0.7164199999999999    0.0871000000000000 H
   0.3123600000000000    0.2164300000000000    0.0871000000000000 H
   0.3123550000000000    0.7164199999999999    0.0871000000000000 H
   0.0299500000000000    0.0141900000000000    0.1037050000000000 H
   0.0299450000000000    0.5141800000000000    0.1037050000000000 H
   0.2799450000000000    0.0141900000000000    0.1037050000000000 H
   0.2799450000000000    0.5141800000000000    0.1037050000000000 H
   0.0117000000000000    0.0852100000000000    0.1830000000000000 H
   0.0117000000000000    0.5852000000000001    0.1832450000000000 H
   0.2616950000000000    0.0852100000000000    0.1830000000000000 H
   0.2616950000000000    0.5852000000000001    0.1830000000000000 H
   0.0820700000000000    0.1116700000000000    0.3337000000000000 H
   0.0820700000000000    0.6116600000000000    0.3337000000000000 H
   0.3320650000000000    0.1116700000000000    0.3337250000000000 H
   0.3320650000000000    0.6116600000000000    0.3337000000000000 H
   0.0628200000000000    0.1294500000000000    0.4129850000000000 H
   0.0628150000000000    0.6294400000000000    0.4129850000000000 H
   0.3128150000000000    0.1294500000000000    0.4129850000000000 H
   0.3128150000000000    0.6294400000000000    0.4129850000000000 H
   0.0949800000000000    0.4105700000000000    0.3964000000000000 H
   0.0949800000000000    0.9105600000000000    0.3964000000000000 H
   0.3449800000000000    0.4105700000000000    0.3964400000000000 H
   0.3449750000000000    0.9105600000000000    0.3964400000000000 H
   0.1131850000000000    0.4020000000000000    0.3168450000000000 H
   0.1131800000000000    0.9019900000000000    0.3168450000000000 H
   0.3631800000000000    0.4020000000000000    0.3168450000000000 H
   0.3631750000000000    0.9019900000000000    0.3168450000000000 H
   0.7069500000000000    0.2221300000000000    0.3335000000000000 H
   0.7069500000000000    0.7221100000000000    0.3336950000000000 H
   0.9569449999999999    0.7221100000000000    0.3336950000000000 H
   0.6876599999999999    0.2836000000000000    0.4129200000000000 H
   0.6876550000000000    0.7835900000000000    0.4129200000000000 H
   0.9376500000000000    0.7835800000000001    0.4129000000000000 H
   0.7200750000000000    0.4858400000000000    0.3963150000000000 H
   0.7200750000000000    0.9858200000000000    0.3963000000000000 H
   0.9700700000000000    0.9858200000000000    0.3963150000000000 H
   0.7383200000000000    0.4148200000000000    0.3167700000000000 H
   0.7383200000000000    0.9147999999999999    0.3167500000000000 H
   0.9883150000000001    0.9147999999999999    0.3167700000000000 H
   0.6679500000000000    0.3883500000000000    0.1662950000000000 H
   0.6679500000000000    0.8883400000000000    0.1662950000000000 H
   0.9179450000000000    0.3883500000000000    0.1662950000000000 H
   0.9179450000000000    0.8883400000000000    0.1662950000000000 H
   0.6872000000000000    0.3705700000000000    0.0870350000000000 H
   0.6872000000000000    0.8705600000000000    0.0870350000000000 H
   0.9372000000000000    0.3705700000000000    0.0870350000000000 H
   0.9372000000000000    0.8705600000000000    0.0870350000000000 H
   0.6550400000000001    0.0894500000000000    0.1035800000000000 H
   0.6550400000000001    0.5894400000000000    0.1035500000000000 H
   0.9050400000000001    0.0894500000000000    0.1035800000000000 H
   0.9050350000000000    0.5894400000000000    0.1035500000000000 H
   0.6368400000000000    0.0980200000000000    0.1831750000000000 H
   0.6368350000000000    0.5980100000000000    0.1831750000000000 H
   0.8868350000000000    0.0980200000000000    0.1831750000000000 H
   0.8868350000000000    0.5980100000000000    0.1831750000000000 H
   0.5430650000000000    0.2779000000000000    0.1663200000000000 H
   0.5430650000000000    0.7778900000000000    0.1663200000000000 H
   0.7930650000000000    0.2779000000000000    0.1663200000000000 H
   0.7930600000000000    0.7778900000000000    0.1663200000000000 H
   0.5623650000000000    0.2164300000000000    0.0871000000000000 H
   0.5623650000000000    0.7164199999999999    0.0871000000000000 H
   0.8123600000000000    0.2164300000000000    0.0871000000000000 H
   0.8123549999999999    0.7164199999999999    0.0871000000000000 H
   0.5299500000000000    0.0141900000000000    0.1037050000000000 H
   0.5299450000000000    0.5141800000000000    0.1037050000000000 H
   0.7799450000000000    0.0141900000000000    0.1037050000000000 H
   0.7799450000000000    0.5141800000000000    0.1037050000000000 H
   0.5117000000000000    0.0852100000000000    0.1830000000000000 H
   0.5117000000000000    0.5852000000000001    0.1832450000000000 H
   0.7616950000000000    0.0852100000000000    0.1830000000000000 H
   0.7616950000000000    0.5852000000000001    0.1830000000000000 H
   0.5820700000000000    0.1116700000000000    0.3337000000000000 H
   0.5820700000000000    0.6116600000000000    0.3337000000000000 H
   0.8320650000000001    0.1116700000000000    0.3337250000000000 H
   0.8320650000000001    0.6116600000000000    0.3337000000000000 H
   0.5628200000000000    0.1294500000000000    0.4129850000000000 H
   0.5628150000000000    0.6294400000000000    0.4129850000000000 H
   0.8128150000000001    0.1294500000000000    0.4129850000000000 H
   0.8128150000000001    0.6294400000000000    0.4129850000000000 H
   0.5949800000000000    0.4105700000000000    0.3964000000000000 H
   0.5949800000000000    0.9105600000000000    0.3964000000000000 H
   0.8449800000000001    0.4105700000000000    0.3964400000000000 H
   0.8449750000000000    0.9105600000000000    0.3964400000000000 H
   0.6131850000000000    0.4020000000000000    0.3168450000000000 H
   0.6131800000000001    0.9019900000000000    0.3168450000000000 H
   0.8631800000000001    0.4020000000000000    0.3168450000000000 H
   0.8631750000000000    0.9019900000000000    0.3168450000000000 H
   0.2069500000000000    0.2221300000000000    0.8335000000000000 H
   0.2069500000000000    0.7221100000000000    0.8336950000000001 H
   0.4569450000000000    0.2221200000000000    0.8336950000000001 H
   0.4569450000000000    0.7221100000000000    0.8336950000000001 H
   0.1876600000000000    0.2836000000000000    0.9129200000000000 H
   0.1876550000000000    0.7835900000000000    0.9129200000000000 H
   0.4376550000000000    0.2836000000000000    0.9129200000000000 H
   0.4376500000000000    0.7835800000000001    0.9129000000000000 H
   0.2200750000000000    0.4858400000000000    0.8963150000000000 H
   0.2200750000000000    0.9858200000000000    0.8963000000000000 H
   0.4700700000000000    0.4858300000000000    0.8963150000000000 H
   0.4700700000000000    0.9858200000000000    0.8963150000000000 H
   0.2383200000000000    0.4148200000000000    0.8167700000000000 H
   0.2383200000000000    0.9147999999999999    0.8167500000000000 H
   0.4883150000000000    0.4148200000000000    0.8167700000000000 H
   0.4883150000000000    0.9147999999999999    0.8167700000000000 H
   0.1679500000000000    0.3883500000000000    0.6662950000000000 H
   0.1679500000000000    0.8883400000000000    0.6662950000000000 H
   0.4179450000000000    0.3883500000000000    0.6662950000000000 H
   0.4179450000000000    0.8883400000000000    0.6662950000000000 H
   0.1872000000000000    0.3705700000000000    0.5870350000000000 H
   0.1872000000000000    0.8705600000000000    0.5870350000000000 H
   0.4372000000000000    0.3705700000000000    0.5870350000000000 H
   0.4372000000000000    0.8705600000000000    0.5870350000000000 H
   0.1550400000000000    0.0894500000000000    0.6035800000000000 H
   0.1550400000000000    0.5894400000000000    0.6035500000000000 H
   0.4050400000000000    0.0894500000000000    0.6035800000000000 H
   0.4050350000000000    0.5894400000000000    0.6035500000000000 H
   0.1368400000000000    0.0980200000000000    0.6831750000000000 H
   0.1368350000000000    0.5980100000000000    0.6831750000000000 H
   0.3868350000000000    0.0980200000000000    0.6831750000000000 H
   0.3868350000000000    0.5980100000000000    0.6831750000000000 H
   0.0430650000000000    0.2779000000000000    0.6663200000000000 H
   0.0430650000000000    0.7778900000000000    0.6663200000000000 H
   0.2930650000000000    0.2779000000000000    0.6663200000000000 H
   0.2930600000000000    0.7778900000000000    0.6663200000000000 H
   0.0623650000000000    0.2164300000000000    0.5871000000000000 H
   0.0623650000000000    0.7164199999999999    0.5871000000000000 H
   0.3123600000000000    0.2164300000000000    0.5871000000000000 H
   0.3123550000000000    0.7164199999999999    0.5871000000000000 H
   0.0299500000000000    0.0141900000000000    0.6037050000000000 H
   0.0299450000000000    0.5141800000000000    0.6037050000000000 H
   0.2799450000000000    0.0141900000000000    0.6037050000000000 H
   0.2799450000000000    0.5141800000000000    0.6037050000000000 H
   0.0117000000000000    0.0852100000000000    0.6830000000000001 H
   0.0117000000000000    0.5852000000000001    0.6832450000000000 H
   0.2616950000000000    0.0852100000000000    0.6830000000000001 H
   0.2616950000000000    0.5852000000000001    0.6830000000000001 H
   0.0820700000000000    0.1116700000000000    0.8337000000000000 H
   0.0820700000000000    0.6116600000000000    0.8337000000000000 H
   0.3320650000000000    0.1116700000000000    0.8337250000000000 H
   0.3320650000000000    0.6116600000000000    0.8337000000000000 H
   0.0628200000000000    0.1294500000000000    0.9129849999999999 H
   0.0628150000000000    0.6294400000000000    0.9129849999999999 H
   0.3128150000000000    0.1294500000000000    0.9129849999999999 H
   0.3128150000000000    0.6294400000000000    0.9129849999999999 H
   0.0949800000000000    0.4105700000000000    0.8964000000000000 H
   0.0949800000000000    0.9105600000000000    0.8964000000000000 H
   0.3449800000000000    0.4105700000000000    0.8964400000000000 H
   0.3449750000000000    0.9105600000000000    0.8964400000000000 H
   0.1131850000000000    0.4020000000000000    0.8168450000000000 H
   0.1131800000000000    0.9019900000000000    0.8168450000000000 H
   0.3631800000000000    0.4020000000000000    0.8168450000000000 H
   0.3631750000000000    0.9019900000000000    0.8168450000000000 H
   0.7069500000000000    0.2221300000000000    0.8335000000000000 H
   0.7069500000000000    0.7221100000000000    0.8336950000000001 H
   0.9569449999999999    0.2221200000000000    0.8336950000000001 H
   0.9569449999999999    0.7221100000000000    0.8336950000000001 H
   0.6876599999999999    0.2836000000000000    0.9129200000000000 H
   0.6876550000000000    0.7835900000000000    0.9129200000000000 H
   0.9376550000000000    0.2836000000000000    0.9129200000000000 H
   0.9376500000000000    0.7835800000000001    0.9129000000000000 H
   0.7200750000000000    0.4858400000000000    0.8963150000000000 H
   0.7200750000000000    0.9858200000000000    0.8963000000000000 H
   0.9700700000000000    0.4858300000000000    0.8963150000000000 H
   0.9700700000000000    0.9858200000000000    0.8963150000000000 H
   0.7383200000000000    0.4148200000000000    0.8167700000000000 H
   0.7383200000000000    0.9147999999999999    0.8167500000000000 H
   0.9883150000000001    0.4148200000000000    0.8167700000000000 H
   0.9883150000000001    0.9147999999999999    0.8167700000000000 H
   0.6679500000000000    0.3883500000000000    0.6662950000000000 H
   0.6679500000000000    0.8883400000000000    0.6662950000000000 H
   0.9179450000000000    0.8883400000000000    0.6662950000000000 H
   0.6872000000000000    0.3705700000000000    0.5870350000000000 H
   0.6872000000000000    0.8705600000000000    0.5870350000000000 H
   0.9372000000000000    0.8705600000000000    0.5870350000000000 H
   0.6550400000000001    0.0894500000000000    0.6035800000000000 H
   0.6550400000000001    0.5894400000000000    0.6035500000000000 H
   0.9050400000000001    0.0894500000000000    0.6035800000000000 H
   0.6368400000000000    0.0980200000000000    0.6831750000000000 H
   0.6368350000000000    0.5980100000000000    0.6831750000000000 H
   0.8868350000000000    0.0980200000000000    0.6831750000000000 H
   0.5430650000000000    0.2779000000000000    0.6663200000000000 H
   0.5430650000000000    0.7778900000000000    0.6663200000000000 H
   0.7930650000000000    0.2779000000000000    0.6663200000000000 H
   0.7930600000000000    0.7778900000000000    0.6663200000000000 H
   0.5623650000000000    0.2164300000000000    0.5871000000000000 H
   0.5623650000000000    0.7164199999999999    0.5871000000000000 H
   0.8123600000000000    0.2164300000000000    0.5871000000000000 H
   0.8123549999999999    0.7164199999999999    0.5871000000000000 H
   0.5299500000000000    0.0141900000000000    0.6037050000000000 H
   0.5299450000000000    0.5141800000000000    0.6037050000000000 H
   0.7799450000000000    0.0141900000000000    0.6037050000000000 H
   0.7799450000000000    0.5141800000000000    0.6037050000000000 H
   0.5117000000000000    0.0852100000000000    0.6830000000000001 H
   0.5117000000000000    0.5852000000000001    0.6832450000000000 H
   0.7616950000000000    0.0852100000000000    0.6830000000000001 H
   0.7616950000000000    0.5852000000000001    0.6830000000000001 H
   0.5820700000000000    0.1116700000000000    0.8337000000000000 H
   0.5820700000000000    0.6116600000000000    0.8337000000000000 H
   0.8320650000000001    0.1116700000000000    0.8337250000000000 H
   0.8320650000000001    0.6116600000000000    0.8337000000000000 H
   0.5628200000000000    0.1294500000000000    0.9129849999999999 H
   0.5628150000000000    0.6294400000000000    0.9129849999999999 H
   0.8128150000000001    0.1294500000000000    0.9129849999999999 H
   0.8128150000000001    0.6294400000000000    0.9129849999999999 H
   0.5949800000000000    0.4105700000000000    0.8964000000000000 H
   0.5949800000000000    0.9105600000000000    0.8964000000000000 H
   0.8449800000000001    0.4105700000000000    0.8964400000000000 H
   0.8449750000000000    0.9105600000000000    0.8964400000000000 H
   0.6131850000000000    0.4020000000000000    0.8168450000000000 H
   0.6131800000000001    0.9019900000000000    0.8168450000000000 H
   0.8631800000000001    0.4020000000000000    0.8168450000000000 H
   0.8631750000000000    0.9019900000000000    0.8168450000000000 H
   0.2099250000000000    0.2804600000000000    0.3489500000000000 C
   0.2099250000000000    0.7804500000000000    0.3489750000000000 C
   0.4599200000000000    0.2804600000000000    0.3489750000000000 C
   0.4599200000000000    0.7804500000000000    0.3489750000000000 C
   0.1993300000000000    0.3154400000000000    0.3934500000000000 C
   0.1993250000000000    0.8154300000000000    0.3934500000000000 C
   0.4493200000000000    0.3154400000000000    0.3934500000000000 C
   0.4493200000000000    0.8154300000000000    0.3934500000000000 C
   0.2035400000000000    0.3907000000000000    0.4122000000000000 C
   0.2035400000000000    0.8906800000000000    0.4122000000000000 C
   0.4535350000000000    0.3907000000000000    0.4122100000000000 C
   0.4535350000000000    0.8906800000000000    0.4122000000000000 C
   0.2170550000000000    0.4274600000000000    0.3837500000000000 C
   0.2170550000000000    0.9274400000000000    0.3837500000000000 C
   0.4670500000000000    0.4274500000000000    0.3837550000000000 C
   0.4670500000000000    0.9274400000000000    0.3837550000000000 C
   0.2272150000000000    0.3882900000000000    0.3396550000000000 C
   0.2272150000000000    0.8882700000000000    0.3396550000000000 C
   0.4772100000000000    0.3882800000000000    0.3396550000000000 C
   0.4772100000000000    0.8882700000000000    0.3396550000000000 C
   0.1946250000000000    0.4293500000000000    0.4598800000000000 C
   0.1946250000000000    0.9293400000000001    0.4598800000000000 C
   0.4446200000000000    0.4293500000000000    0.4598800000000000 C
   0.4446200000000000    0.9293400000000001    0.4598800000000000 C
   0.1527450000000000    0.3250400000000000    0.2226850000000000 C
   0.1527450000000000    0.8250200000000000    0.2226850000000000 C
   0.4027400000000000    0.3250400000000000    0.2226500000000000 C
   0.4027400000000000    0.8250200000000000    0.2226850000000000 C
   0.1650300000000000    0.4314100000000000    0.1510000000000000 C
   0.1650250000000000    0.9314000000000000    0.1510000000000000 C
   0.4150200000000000    0.4314100000000000    0.1510000000000000 C
   0.4150250000000000    0.9314000000000000    0.1510000000000000 C
   0.1756000000000000    0.4219000000000000    0.1065000000000000 C
   0.1756000000000000    0.9218900000000000    0.1065000000000000 C
   0.4255950000000000    0.4219000000000000    0.1065000000000000 C
   0.4255950000000000    0.9218900000000000    0.1065000000000000 C
   0.1714550000000000    0.4784000000000000    0.0877200000000000 C
   0.1714550000000000    0.9783800000000000    0.0877000000000000 C
   0.4214500000000000    0.4784000000000000    0.0877150000000000 C
   0.4214500000000000    0.9783800000000000    0.0877200000000000 C
   0.1580150000000000    0.0436400000000000    0.1161650000000000 C
   0.1580100000000000    0.5436200000000000    0.1161650000000000 C
   0.4080100000000000    0.0436400000000000    0.1161500000000000 C
   0.4080100000000000    0.5436299999999999    0.1161650000000000 C
   0.1478850000000000    0.0485900000000000    0.1602950000000000 C
   0.1478850000000000    0.5485800000000000    0.1602950000000000 C
   0.3978800000000000    0.0485900000000000    0.1602950000000000 C
   0.3978750000000000    0.5485800000000000    0.1602950000000000 C
   0.1803750000000000    0.4694100000000000    0.0400450000000000 C
   0.1803750000000000    0.9694000000000000    0.0400450000000000 C
   0.4303700000000000    0.4694100000000000    0.0400450000000000 C
   0.4303700000000000    0.9694000000000000    0.0400450000000000 C
   0.2222250000000000    0.1023900000000000    0.2774250000000000 C
   0.2222250000000000    0.6023700000000000    0.2774250000000000 C
   0.4722250000000000    0.1023900000000000    0.2774250000000000 C
   0.4722200000000000    0.6023700000000000    0.2774250000000000 C
   0.0400950000000000    0.2195600000000000    0.1510400000000000 C
   0.0400950000000000    0.7195500000000000    0.1510400000000000 C
   0.2900900000000000    0.2195600000000000    0.1510400000000000 C
   0.2900900000000000    0.7195500000000000    0.1510400000000000 C
   0.0506950000000000    0.1845800000000000    0.1065500000000000 C
   0.0506950000000000    0.6845700000000000    0.1065700000000000 C
   0.3006900000000000    0.1845800000000000    0.1065650000000000 C
   0.3006850000000000    0.6845700000000000    0.1065650000000000 C
   0.0464850000000000    0.1093300000000000    0.0878100000000000 C
   0.0464800000000000    0.6093200000000000    0.0878000000000000 C
   0.2964800000000000    0.1093300000000000    0.0878100000000000 C
   0.2964800000000000    0.6093200000000000    0.0878100000000000 C
   0.0329650000000000    0.0725700000000000    0.1162500000000000 C
   0.0329650000000000    0.5725600000000000    0.1162500000000000 C
   0.2829650000000000    0.0725700000000000    0.1162500000000000 C
   0.2829600000000000    0.5725600000000000    0.1162600000000000 C
   0.0228100000000000    0.1117400000000000    0.1603650000000000 C
   0.0228050000000000    0.6117300000000000    0.1603650000000000 C
   0.2728050000000000    0.1117400000000000    0.1603650000000000 C
   0.2728050000000000    0.6117300000000000    0.1603650000000000 C
   0.0553950000000000    0.0706700000000000    0.0401400000000000 C
   0.0553950000000000    0.5706599999999999    0.0401400000000000 C
   0.3053950000000000    0.0706700000000000    0.0401400000000000 C
   0.3053900000000000    0.5706599999999999    0.0401400000000000 C
   0.0972750000000000    0.1749900000000000    0.2773300000000000 C
   0.0972750000000000    0.6749700000000000    0.2773300000000000 C
   0.3472700000000000    0.1749900000000000    0.2773300000000000 C
   0.3472700000000000    0.6749700000000000    0.2773300000000000 C
   0.0849950000000000    0.0686100000000000    0.3490200000000000 C
   0.0849900000000000    0.5686000000000000    0.3490200000000000 C
   0.3349950000000000    0.0686100000000000    0.3490200000000000 C
   0.3349900000000000    0.5686000000000000    0.3490200000000000 C
   0.0744200000000000    0.0781200000000000    0.3935150000000000 C
   0.0744200000000000    0.5781100000000000    0.3935150000000000 C
   0.3244150000000000    0.0781200000000000    0.3935150000000000 C
   0.3244150000000000    0.5781100000000000    0.3935150000000000 C
   0.0785750000000000    0.0216300000000000    0.4123050000000000 C
   0.0785700000000000    0.5216200000000000    0.4123050000000000 C
   0.3285700000000000    0.0216300000000000    0.4123050000000000 C
   0.3285650000000000    0.5216200000000000    0.4123050000000000 C
   0.0920050000000000    0.4563900000000000    0.3838550000000000 C
   0.0920050000000000    0.9563700000000001    0.3838550000000000 C
   0.3420000000000000    0.4563900000000000    0.3838550000000000 C
   0.3420000000000000    0.9563700000000001    0.3838550000000000 C
   0.1021400000000000    0.4514300000000000    0.3397250000000000 C
   0.1021400000000000    0.9514200000000000    0.3397250000000000 C
   0.3521350000000000    0.4514300000000000    0.3397250000000000 C
   0.3521350000000000    0.9514200000000000    0.3397250000000000 C
   0.0696500000000000    0.0306200000000000    0.4599750000000000 C
   0.0696450000000000    0.5306000000000000    0.4599750000000000 C
   0.3196450000000000    0.0306200000000000    0.4599750000000000 C
   0.3196450000000000    0.5306000000000000    0.4599750000000000 C
   0.0277900000000000    0.3976400000000000    0.2225900000000000 C
   0.0277900000000000    0.8976200000000000    0.2225900000000000 C
   0.2777900000000000    0.3976400000000000    0.2225900000000000 C
   0.2777900000000000    0.8976200000000000    0.2225900000000000 C
   0.7099250000000000    0.2804600000000000    0.3489500000000000 C
   0.7099250000000000    0.7804500000000000    0.3489750000000000 C
   0.9599200000000000    0.7804500000000000    0.3489750000000000 C
   0.6993300000000000    0.3154400000000000    0.3934500000000000 C
   0.6993250000000000    0.8154300000000000    0.3934500000000000 C
   0.9493199999999999    0.8154300000000000    0.3934500000000000 C
   0.7035400000000001    0.3907000000000000    0.4122000000000000 C
   0.7035400000000001    0.8906800000000000    0.4122000000000000 C
   0.9535350000000000    0.8906800000000000    0.4122000000000000 C
   0.7170550000000000    0.4274600000000000    0.3837500000000000 C
   0.7170550000000000    0.9274400000000000    0.3837500000000000 C
   0.9670500000000000    0.9274400000000000    0.3837550000000000 C
   0.7272149999999999    0.3882900000000000    0.3396550000000000 C
   0.7272149999999999    0.8882700000000000    0.3396550000000000 C
   0.9772100000000000    0.8882700000000000    0.3396550000000000 C
   0.6946250000000000    0.4293500000000000    0.4598800000000000 C
   0.6946250000000000    0.9293400000000001    0.4598800000000000 C
   0.9446200000000000    0.9293400000000001    0.4598800000000000 C
   0.6527450000000000    0.3250400000000000    0.2226850000000000 C
   0.6527450000000000    0.8250200000000000    0.2226850000000000 C
   0.9027400000000000    0.3250400000000000    0.2226500000000000 C
   0.9027400000000000    0.8250200000000000    0.2226850000000000 C
   0.6650300000000000    0.4314100000000000    0.1510000000000000 C
   0.6650250000000000    0.9314000000000000    0.1510000000000000 C
   0.9150199999999999    0.4314100000000000    0.1510000000000000 C
   0.9150250000000000    0.9314000000000000    0.1510000000000000 C
   0.6756000000000000    0.4219000000000000    0.1065000000000000 C
   0.6756000000000000    0.9218900000000000    0.1065000000000000 C
   0.9255949999999999    0.4219000000000000    0.1065000000000000 C
   0.9255949999999999    0.9218900000000000    0.1065000000000000 C
   0.6714550000000000    0.4784000000000000    0.0877200000000000 C
   0.6714550000000000    0.9783800000000000    0.0877000000000000 C
   0.9214500000000000    0.4784000000000000    0.0877150000000000 C
   0.9214500000000000    0.9783800000000000    0.0877200000000000 C
   0.6580150000000000    0.0436400000000000    0.1161650000000000 C
   0.6580100000000000    0.5436200000000000    0.1161650000000000 C
   0.9080100000000000    0.0436400000000000    0.1161500000000000 C
   0.9080100000000000    0.5436299999999999    0.1161650000000000 C
   0.6478850000000000    0.0485900000000000    0.1602950000000000 C
   0.6478850000000000    0.5485800000000000    0.1602950000000000 C
   0.8978800000000000    0.0485900000000000    0.1602950000000000 C
   0.8978750000000000    0.5485800000000000    0.1602950000000000 C
   0.6803750000000000    0.4694100000000000    0.0400450000000000 C
   0.6803750000000000    0.9694000000000000    0.0400450000000000 C