H6 O4
1.0
  13.7279996989112689    0.0000000000000000    0.0028751855755449
  -0.0203244343708409   14.0299852251646477    0.0012243484687208
   0.0000000000000000    0.0000000000000000   32.2680000000000007
H O
6 4
direct
   0.7778199003448047    0.8814275193021279    0.4447990893600509 H
   0.4954459208211287    0.8530758494031780    0.4444261701631226 H
   0.6329295280404511    0.8772903562389589    0.4398523689745114 H
   0.4720729405260126    0.1240610603376114    0.3057550538684244 H
   0.7544222662099840    0.1526465646539801    0.3060214339149414 H
   0.6170074227952156    0.1288245704955219    0.3108388315660810 H
   0.7220500000000000    0.8492300000000000    0.4568750000000000 O
   0.5572700000000000    0.8336100000000000    0.4562350000000000 O
   0.5279100000000000    0.1550600000000000    0.2931550000000000 O
   0.6926700000000000    0.1708300000000000    0.2937650000000000 O
