H4 C6 N5
1.0
  22.8919966493284832    0.0000000000000000    0.0123857633390716
   0.4506610103132906   10.5543815573691742    0.0055312972126813
   0.0000000000000000    0.0000000000000000   32.5300000000000011
H C N
4 6 5
direct
   0.9362050000000000    0.7853500000000000    0.6755350000000000 H
   0.9770375000000000    0.9164500000000000    0.6195150000000000 H
   0.8050975000000000    0.6697300000000000    0.5896250000000000 H
   0.8522225000000000    0.8026799999999999    0.5365900000000000 H
   0.8367125000000000    0.6478699999999999    0.6693200000000000 C
   0.8666425000000000    0.7168700000000000    0.6373100000000000 C
   0.9162075000000001    0.7865900000000000    0.6452200000000000 C
   0.9392475000000000    0.8593000000000000    0.6140350000000000 C
   0.8436075000000000    0.7220200000000000    0.5972250000000000 C
   0.8695575000000000    0.7960400000000000    0.5677800000000000 C
   0.8592225000000000    0.6083100000000000    0.7060400000000000 N
   0.8135650000000000    0.5600300000000000    0.7264150000000000 N
   0.7658825000000000    0.5697300000000000    0.7021700000000000 N
   0.7796175000000000    0.6229800000000000    0.6662200000000000 N
   0.9165025000000000    0.8661100000000000    0.5756800000000000 N
