H3 O2
1.0
  30.6320000000000014    0.0000000000000000    0.0000000000000019
  -0.0462683182208140   38.4199645562473791    0.0241399963618349
   0.0000000000000000    0.0000000000000000   38.9699999999999989
H O
3 2
direct
   0.3375761976582434    0.1920381187456552    0.2506482162213613 H
   0.1268954998458103    0.0496300340332531    0.2263778948611312 H
   0.1831902754561341    0.0531736457041198    0.2425698110417339 H
   0.3284550000000000    0.2163450000000000    0.2527450000000000 O
   0.1556200000000000    0.0434850000000000    0.2342000000000000 O
