H6 C12 N6
1.0
  18.0769999008817592    0.0000000000000000   -0.0018930190098362
  -9.0626257388158873   15.6665926982682961    0.0221120943914451
   0.0000000000000000    0.0000000000000000   19.1290000000000013
H C N
6 12 6
direct
   0.7929300000000000    0.1354000000000000    0.4329800000000000 H
   0.9250699999999999    0.2042500000000000    0.5054000000000000 H
   0.9815300000000000    0.4562400000000000    0.4395000000000000 H
   0.2071300000000000    0.3430500000000000    0.5671000000000000 H
   0.0748400000000000    0.2794400000000000    0.4947900000000000 H
   0.0174800000000000    0.4741000000000000    0.5609000000000000 H
   0.8659300000000000    0.3479400000000000    0.3989300000000000 C
   0.8129000000000000    0.2582000000000000    0.3965300000000000 C
   0.8338700000000000    0.2045300000000000    0.4344700000000000 C
   0.9077100000000000    0.2436500000000000    0.4741200000000000 C
   0.9612900000000000    0.3343600000000000    0.4776300000000000 C
   0.9407100000000000    0.3870600000000000    0.4392500000000000 C
   0.1334600000000000    0.4819200000000000    0.6012400000000000 C
   0.1866700000000000    0.4454200000000000    0.6036000000000000 C
   0.1659300000000000    0.3709500000000000    0.5657000000000000 C
   0.0920200000000000    0.3360600000000000    0.5261300000000000 C
   0.0381500000000000    0.3728600000000000    0.5227000000000001 C
   0.0585500000000000    0.4460300000000000    0.5610700000000000 C
   0.7458300000000000    0.2414200000000000    0.3536600000000000 N
   0.7571300000000000    0.3166000000000000    0.3310000000000000 N
   0.8290700000000000    0.3818000000000000    0.3571100000000000 N
   0.2537000000000000    0.4957300000000000    0.6464700000000000 N
   0.2423400000000000    0.5595500000000000    0.6689400000000000 N
   0.1703500000000000    0.5527000000000000    0.6428600000000000 N
