Zn6 H132 C165 N11 O22
1.0
  15.5559945411001905    0.0000000000000000    0.0130321625607205
  -0.0076569481633004   18.9475705300504025  -10.8957772269769801
   0.0000000000000000    0.0000000000000000   21.8419999999999987
Zn H C N O
6 132 165 11 22
direct
   0.5000100000000000    0.4999900000000000    0.5000000000000000 Zn
   0.0000000000000000    0.0000000000000000    0.5000000000000000 Zn
   0.5000000000000000    0.0000100000000000    0.5000000000000000 Zn
   0.0000100000000000    0.5000000000000000    0.0000000000000000 Zn
   0.5000100000000000    0.4999900000000000    0.9999900000000000 Zn
   0.0000000000000000    0.5000000000000000    0.4999900000000000 Zn
   0.2360900000000000    0.3514300000000000    0.4170200000000000 H
   0.7361000000000000    0.3514200000000000    0.4170300000000000 H
   0.1917700000000000    0.3299300000000000    0.3340900000000000 H
   0.6917800000000000    0.3299200000000000    0.3341000000000000 H
   0.1803500000000000    0.2702900000000000    0.3675300000000000 H
   0.6803500000000000    0.2702900000000000    0.3675300000000000 H
   0.0615300000000000    0.2773600000000000    0.4297000000000000 H
   0.5615200000000000    0.2773500000000000    0.4297100000000000 H
   0.4668200000000000    0.2080000000000000    0.4099400000000000 H
   0.9668300000000000    0.2080000000000000    0.4099400000000000 H
   0.3617300000000000    0.1311200000000000    0.4213500000000000 H
   0.8617300000000000    0.1311300000000000    0.4213500000000000 H
   0.2195400000000000    0.3139800000000000    0.5733000000000000 H
   0.7195500000000000    0.3139900000000000    0.5733000000000000 H
   0.3268200000000000    0.3909800000000000    0.5614000000000000 H
   0.8268300000000000    0.3909900000000000    0.5614600000000000 H
   0.3015100000000000    0.0796600000000000    0.4712700000000000 H
   0.8015200000000000    0.0796600000000000    0.4712700000000000 H
   0.1843500000000000    0.0012700000000000    0.4676000000000000 H
   0.6843600000000000    0.0012800000000000    0.4675900000000000 H
   0.0005100000000000    0.1565500000000000    0.5240899999999999 H
   0.5005200000000000    0.1565600000000000    0.5240899999999999 H
   0.1078400000000000    0.2418600000000000    0.5258300000000000 H
   0.6078600000000000    0.2418700000000000    0.5258400000000000 H
   0.2358900000000000    0.0659600000000000    0.6489300000000000 H
   0.7359000000000000    0.0659800000000000    0.6489000000000000 H
   0.1915400000000000    0.0000000000000000    0.6707000000000000 H
   0.6915500000000000    0.0000000000000000    0.6706000000000000 H
   0.1801100000000000    0.0975800000000000    0.7301400000000000 H
   0.6801300000000000    0.0975900000000000    0.7301299999999999 H
   0.0611900000000000    0.1523000000000000    0.7228800000000000 H
   0.5611900000000000    0.1523000000000000    0.7228800000000000 H
   0.4666400000000000    0.2019700000000000    0.7921500000000000 H
   0.9666400000000001    0.2019600000000000    0.7921400000000000 H
   0.3616900000000000    0.2901300000000000    0.8688000000000000 H
   0.8616900000000000    0.2901300000000000    0.8688700000000000 H
   0.2194500000000000    0.2588300000000000    0.6856800000000000 H
   0.7194700000000001    0.2588400000000000    0.6856700000000000 H
   0.3266000000000000    0.1701300000000000    0.6088200000000000 H
   0.8266100000000000    0.1701300000000000    0.6088100000000000 H
   0.3015800000000000    0.3913900000000000    0.9200700000000001 H
   0.8015800000000000    0.3913800000000000    0.9200700000000001 H
   0.1846200000000000    0.4662000000000000    0.9983200000000000 H
   0.6846200000000000    0.4661900000000000    0.9983100000000000 H
   0.0006400000000000    0.3673600000000000    0.8430900000000000 H
   0.5006500000000000    0.3673600000000000    0.8430700000000000 H
   0.1077900000000000    0.2837500000000000    0.7579600000000000 H
   0.6078000000000000    0.2837600000000000    0.7579399999999999 H
   0.2361100000000000    0.5829900000000000    0.9340000000000001 H
   0.7361200000000000    0.5829600000000000    0.9339800000000000 H
   0.1917800000000000    0.6658300000000000    0.9952000000000000 H
   0.6918000000000000    0.6658100000000000    0.9952000000000000 H
   0.1804400000000000    0.6325400000000000    0.9022700000000000 H
   0.6804600000000000    0.6325100000000000    0.9022500000000000 H
   0.0614600000000000    0.5705100000000000    0.8474400000000000 H
   0.5614600000000000    0.5705100000000000    0.8474300000000000 H
   0.4667100000000000    0.5900700000000000    0.7976000000000000 H
   0.9667100000000000    0.5900800000000000    0.7976900000000000 H
   0.3616400000000000    0.5785600000000000    0.7094500000000000 H
   0.8616500000000000    0.5785500000000000    0.7094500000000000 H
   0.2195400000000000    0.4267500000000000    0.7412100000000000 H
   0.7195700000000000    0.4267300000000000    0.7410000000000000 H
   0.3268200000000000    0.4386600000000000    0.8299500000000000 H
   0.8268400000000000    0.4386500000000000    0.8299500000000000 H
   0.3015100000000000    0.5284900000000000    0.6082000000000000 H
   0.8015200000000000    0.5285000000000000    0.6082100000000000 H
   0.1844400000000000    0.5320300000000000    0.5334200000000000 H
   0.6844400000000000    0.5320400000000000    0.5334400000000000 H
   0.0005000000000000    0.4756800000000000    0.6327100000000000 H
   0.5005100000000000    0.4756600000000000    0.6327000000000000 H
   0.1077400000000000    0.4740800000000000    0.7163300000000000 H
   0.6077500000000000    0.4740600000000000    0.7163300000000000 H
   0.2639200000000000    0.6485400000000000    0.5829600000000000 H
   0.7639400000000000    0.6485800000000000    0.5830000000000000 H
   0.3082400000000000    0.6700600000000000    0.6658900000000000 H
   0.8082700000000000    0.6700700000000001    0.6659200000000000 H
   0.3196600000000000    0.7296800000000000    0.6324400000000000 H
   0.8197000000000000    0.7297100000000000    0.6320000000000000 H
   0.4384900000000000    0.7226200000000000    0.5702700000000001 H
   0.9385100000000000    0.7226399999999999    0.5703000000000000 H
   0.0332000000000000    0.7919900000000000    0.5900600000000000 H
   0.5332000000000000    0.7919800000000000    0.5900000000000000 H
   0.1382900000000000    0.8688600000000000    0.5786000000000000 H
   0.6383000000000000    0.8688500000000000    0.5786400000000000 H
   0.2804700000000000    0.6860100000000000    0.4267000000000000 H
   0.7804800000000000    0.6859900000000000    0.4267000000000000 H
   0.1731900000000000    0.6090100000000001    0.4385400000000000 H
   0.6732000000000000    0.6089900000000000    0.4385300000000000 H
   0.1985100000000000    0.9203300000000000    0.5287400000000000 H
   0.6985100000000000    0.9203200000000000    0.5287200000000000 H
   0.3156600000000000    0.9987200000000001    0.5324100000000000 H
   0.8156600000000001    0.9987100000000000    0.5323900000000000 H
   0.4995000000000000    0.8434400000000000    0.4759000000000000 H
   0.9995100000000000    0.8434300000000000    0.4759000000000000 H
   0.3921700000000000    0.7581300000000000    0.4741700000000000 H
   0.8921800000000000    0.7581200000000000    0.4741600000000000 H
   0.7641300000000000    0.9340200000000000    0.3510700000000000 H
   0.8084900000000000    0.9953300000000000    0.3293100000000000 H
   0.8199100000000000    0.9024000000000000    0.2698000000000000 H
   0.9388400000000000    0.8476900000000001    0.2771100000000000 H
   0.0333800000000000    0.7980200000000000    0.2078500000000000 H
   0.1383300000000000    0.7098600000000000    0.1311200000000000 H
   0.2805600000000000    0.7411500000000000    0.3143100000000000 H
   0.1734200000000000    0.8298500000000000    0.3911800000000000 H
   0.1984400000000000    0.6086000000000000    0.0799200000000000 H
   0.3154000000000000    0.5337900000000000    0.0016700000000000 H
   0.4993700000000000    0.6326200000000000    0.1569100000000000 H
   0.3922300000000000    0.7162300000000000    0.2420400000000000 H
   0.2639000000000000    0.4170200000000000    0.0660000000000000 H
   0.7639200000000000    0.4170000000000000    0.0660000000000000 H
   0.3082200000000000    0.3341700000000000    0.0000000000000000 H
   0.8082400000000000    0.3341600000000000    0.0000000000000000 H
   0.3195600000000000    0.3674700000000000    0.0977300000000000 H
   0.8195900000000000    0.3674400000000000    0.0977200000000000 H
   0.4385600000000000    0.4294800000000000    0.1525000000000000 H
   0.9385800000000000    0.4294600000000000    0.1525500000000000 H
   0.0333200000000000    0.4099000000000000    0.2023100000000000 H
   0.5333100000000000    0.4099100000000000    0.2023000000000000 H
   0.1383900000000000    0.4214200000000000    0.2905400000000000 H
   0.6383799999999999    0.4214300000000000    0.2905400000000000 H
   0.2804700000000000    0.5732400000000000    0.2587900000000000 H
   0.7804600000000000    0.5732500000000000    0.2587900000000000 H
   0.1731900000000000    0.5613300000000000    0.1700000000000000 H
   0.6732000000000000    0.5613400000000000    0.1700000000000000 H
   0.1985100000000000    0.4714900000000000    0.3917900000000000 H
   0.6985100000000000    0.4714900000000000    0.3917900000000000 H
   0.3155800000000000    0.4679500000000000    0.4665600000000000 H
   0.8155800000000000    0.4679500000000000    0.4665600000000000 H
   0.4995200000000000    0.5243200000000000    0.3672900000000000 H
   0.9995100000000000    0.5243200000000000    0.3672900000000000 H
   0.3922800000000000    0.5259200000000001    0.2836600000000000 H
   0.8922800000000000    0.5259200000000001    0.2836600000000000 H
   0.8337800000000000    0.1970800000000000    0.6659300000000000 C
   0.2153100000000000    0.3297100000000000    0.8308300000000000 C
   0.7153200000000000    0.3297000000000000    0.8308200000000000 C
   0.2359000000000000    0.3827000000000000    0.8998900000000000 C
   0.2264700000000000    0.7097200000000000    0.4628400000000000 C
   0.7264699999999999    0.7097100000000000    0.4628300000000000 C
   0.1660700000000000    0.6660800000000000    0.4687000000000000 C
   0.6660800000000000    0.6660700000000001    0.4686900000000000 C
   0.2847200000000000    0.8310500000000000    0.5011100000000001 C
   0.1810000000000000    0.3259900000000000    0.3817100000000000 C
   0.6810100000000000    0.3259800000000000    0.3817100000000000 C
   0.0992900000000000    0.3645000000000000    0.4184300000000000 C
   0.5992900000000000    0.3645000000000000    0.4184400000000000 C
   0.0425500000000000    0.3302100000000000    0.4422100000000000 C
   0.5425500000000000    0.3302100000000000    0.4422100000000000 C
   0.4627700000000000    0.3552700000000000    0.4762500000000000 C
   0.9627800000000000    0.3552700000000000    0.4762300000000000 C
   0.4045300000000000    0.3056800000000000    0.4853900000000000 C
   0.9045400000000000    0.3056900000000000    0.4853900000000000 C
   0.4137600000000000    0.2319500000000000    0.4469200000000000 C
   0.9137800000000000    0.2319600000000000    0.4469200000000000 C
   0.3537000000000000    0.1881500000000000    0.4529500000000000 C
   0.8537100000000000    0.1881600000000000    0.4529500000000000 C
   0.2815000000000000    0.2163900000000000    0.4972300000000000 C
   0.7815100000000000    0.2164000000000000    0.4972300000000000 C
   0.2735500000000000    0.2902700000000000    0.5371700000000000 C
   0.7735600000000000    0.2902800000000000    0.5371600000000000 C
   0.3339400000000000    0.3339100000000000    0.5313000000000000 C
   0.8339600000000000    0.3339100000000000    0.5313000000000000 C
   0.2152900000000000    0.1689400000000000    0.4980000000000000 C
   0.7153000000000000    0.1689400000000000    0.4988900000000000 C
   0.2358200000000000    0.0998200000000000    0.4827000000000000 C
   0.7358300000000000    0.0998300000000000    0.4827000000000000 C
   0.1710100000000000    0.0554800000000000    0.4811000000000000 C
   0.6710199999999999    0.0554900000000000    0.4811300000000000 C
   0.0680100000000000    0.1419200000000000    0.5123900000000000 C
   0.5680200000000000    0.1419300000000000    0.5123900000000000 C
   0.1286900000000000    0.1895600000000000    0.5142400000000000 C
   0.6287000000000000    0.1895600000000000    0.5142500000000000 C
   0.1807900000000000    0.0560900000000000    0.6744500000000000 C
   0.6808000000000000    0.0561100000000000    0.6744000000000000 C
   0.0991100000000000    0.0541700000000000    0.6358000000000000 C
   0.5991100000000000    0.0541800000000000    0.6358000000000000 C
   0.0423000000000000    0.1120300000000000    0.6699000000000001 C
   0.5423000000000000    0.1120400000000000    0.6699000000000001 C
   0.4626100000000000    0.1209500000000000    0.6447000000000001 C
   0.9626200000000000    0.1209400000000000    0.6447600000000000 C
   0.4043600000000000    0.1795300000000000    0.6942800000000000 C
   0.9043600000000001    0.1795300000000000    0.6942700000000001 C
   0.4136000000000000    0.2148600000000000    0.7680600000000000 C
   0.9136100000000000    0.2148600000000000    0.7680600000000000 C
   0.3536100000000000    0.2646400000000000    0.8118000000000000 C
   0.8536100000000000    0.2646300000000000    0.8118000000000000 C
   0.2814300000000000    0.2805700000000000    0.7834500000000000 C
   0.7814400000000000    0.2805700000000000    0.7834400000000000 C
   0.2734300000000000    0.2465200000000000    0.7095000000000000 C
   0.7734400000000000    0.2465100000000000    0.7095000000000000 C
   0.3337700000000000    0.1970800000000000    0.6659400000000000 C
   0.7359000000000000    0.3826900000000000    0.8998800000000000 C
   0.1711700000000000    0.4255100000000000    0.9441500000000000 C
   0.6711800000000000    0.4255000000000000    0.9441000000000001 C
   0.0681200000000000    0.3703200000000000    0.8577700000000000 C
   0.5681300000000000    0.3703200000000000    0.8577500000000000 C
   0.1287100000000000    0.3244800000000000    0.8102100000000000 C
   0.6287199999999999    0.3244800000000000    0.8101900000000000 C
   0.1810300000000000    0.6182900000000000    0.9438200000000000 C
   0.6810500000000000    0.6182700000000000    0.9438000000000000 C
   0.0993000000000000    0.5815500000000000    0.9457400000000000 C
   0.5993100000000000    0.5815399999999999    0.9457300000000000 C
   0.0425000000000000    0.5579300000000000    0.8878300000000000 C
   0.5425100000000000    0.5579200000000000    0.8878200000000001 C
   0.4627500000000000    0.5238600000000000    0.8790100000000000 C
   0.9627700000000000    0.5238500000000000    0.8790100000000000 C
   0.4044900000000000    0.5146900000000000    0.8203300000000000 C
   0.9045000000000000    0.5146900000000000    0.8203400000000000 C
   0.4136700000000000    0.5531000000000000    0.7848700000000000 C
   0.9136800000000000    0.5531100000000000    0.7848700000000000 C
   0.3536100000000000    0.5470200000000000    0.7350600000000000 C
   0.8536200000000000    0.5470200000000000    0.7350700000000000 C
   0.2814400000000000    0.5027500000000000    0.7192600000000000 C
   0.7814600000000000    0.5027300000000000    0.7192600000000000 C
   0.2735200000000000    0.4628800000000000    0.7534300000000000 C
   0.7735400000000000    0.4628700000000000    0.7534300000000000 C
   0.3339300000000000    0.4687800000000000    0.8028800000000000 C
   0.8339500000000000    0.4687700000000000    0.8028800000000000 C
   0.2152500000000000    0.5009600000000000    0.6701100000000000 C
   0.7152600000000000    0.5009600000000000    0.6701000000000000 C
   0.2358100000000000    0.5170100000000000    0.6169700000000000 C
   0.7358200000000000    0.5170100000000000    0.6169800000000000 C
   0.1710500000000000    0.5185400000000000    0.5742100000000000 C
   0.6710600000000000    0.5185400000000000    0.5742200000000000 C
   0.0680000000000000    0.4873700000000000    0.6296600000000000 C
   0.5680100000000000    0.4873500000000000    0.6296600000000000 C
   0.1286300000000000    0.4856000000000000    0.6754900000000000 C
   0.6286400000000000    0.4855800000000000    0.6754900000000000 C
   0.3190100000000000    0.6739900000000000    0.6182700000000000 C
   0.8190300000000000    0.6740100000000000    0.6183100000000000 C
   0.4007300000000000    0.6354800000000000    0.5815600000000000 C
   0.9007400000000000    0.6354800000000000    0.5815600000000000 C
   0.4574700000000000    0.6697700000000000    0.5577700000000000 C
   0.9574900000000000    0.6697900000000000    0.5578000000000000 C
   0.0372400000000000    0.6447200000000000    0.5237000000000001 C
   0.5372500000000000    0.6447100000000000    0.5237600000000000 C
   0.0954900000000000    0.6943100000000000    0.5146100000000000 C
   0.5954900000000000    0.6942900000000000    0.5140000000000000 C
   0.0862500000000000    0.7680300000000000    0.5530800000000000 C
   0.5862600000000000    0.7680200000000000    0.5530700000000000 C
   0.1463200000000000    0.8118400000000000    0.5470500000000000 C
   0.6463200000000000    0.8118300000000001    0.5470400000000000 C
   0.2185100000000000    0.7836000000000000    0.5027700000000001 C
   0.7185200000000000    0.7835800000000001    0.5027700000000001 C
   0.7847200000000000    0.8310400000000000    0.5011000000000000 C
   0.2642000000000000    0.9001700000000000    0.5172600000000001 C
   0.7642000000000000    0.9001600000000000    0.5172400000000000 C
   0.3290000000000000    0.9445000000000000    0.5188700000000001 C
   0.8290100000000000    0.9445000000000000    0.5188600000000000 C
   0.4320100000000000    0.8580700000000000    0.4876100000000000 C
   0.9320100000000000    0.8580600000000000    0.4876100000000000 C
   0.3713300000000000    0.8104300000000000    0.4857600000000000 C
   0.8713300000000000    0.8104200000000000    0.4857000000000000 C
   0.8192400000000000    0.9438900000000000    0.3255400000000000 C
   0.9009200000000001    0.9458100000000000    0.3641900000000000 C
   0.9577300000000000    0.8879500000000000    0.3300100000000000 C
   0.0374100000000000    0.8790400000000000    0.3552300000000000 C
   0.0956600000000000    0.8204600000000000    0.3057200000000000 C
   0.0864200000000000    0.7851300000000000    0.2319300000000000 C
   0.1464100000000000    0.7353499999999999    0.1880000000000000 C
   0.2185800000000000    0.7194199999999999    0.2165500000000000 C
   0.2265900000000000    0.7534700000000000    0.2904900000000000 C
   0.1662500000000000    0.8028999999999999    0.3340600000000000 C
   0.2847000000000000    0.6702800000000000    0.1691700000000000 C
   0.2641200000000000    0.6172900000000000    0.1001100000000000 C
   0.3288400000000000    0.5744899999999999    0.0558400000000000 C
   0.4318900000000000    0.6296700000000000    0.1422300000000000 C
   0.3713100000000000    0.6755000000000000    0.1897900000000000 C
   0.3189700000000000    0.3817100000000000    0.0561800000000000 C
   0.8189900000000000    0.3816900000000000    0.0561800000000000 C
   0.4007100000000000    0.4184500000000000    0.0542600000000000 C
   0.9007200000000000    0.4184400000000000    0.0542600000000000 C
   0.4575100000000000    0.4420700000000000    0.1121700000000000 C
   0.9575300000000000    0.4420500000000000    0.1121600000000000 C
   0.0372600000000000    0.4761200000000000    0.1209800000000000 C
   0.5372600000000000    0.4761300000000000    0.1209800000000000 C
   0.0955300000000000    0.4852900000000000    0.1796600000000000 C
   0.5955300000000000    0.4853000000000000    0.1796600000000000 C
   0.0863500000000000    0.4468700000000000    0.2151200000000000 C
   0.5863500000000000    0.4468800000000000    0.2151200000000000 C
   0.1464100000000000    0.4529600000000000    0.2649300000000000 C
   0.6464100000000000    0.4529600000000000    0.2649000000000000 C
   0.2185800000000000    0.4972400000000000    0.2807000000000000 C
   0.7185800000000000    0.4972400000000000    0.2807300000000000 C
   0.2264900000000000    0.5371100000000000    0.2465000000000000 C
   0.7264900000000000    0.5371100000000000    0.2465600000000000 C
   0.1660900000000000    0.5312100000000000    0.1971100000000000 C
   0.6660900000000000    0.5312100000000000    0.1971100000000000 C
   0.2847700000000000    0.4990200000000000    0.3298800000000000 C
   0.7847700000000000    0.4990200000000000    0.3298800000000000 C
   0.2642100000000000    0.4829800000000000    0.3830000000000000 C
   0.7642099999999999    0.4829700000000000    0.3830100000000000 C
   0.3289700000000000    0.4814400000000000    0.4257800000000000 C
   0.8289700000000000    0.4814400000000000    0.4257000000000000 C
   0.4320200000000000    0.5126200000000000    0.3703300000000000 C
   0.9320200000000000    0.5126300000000000    0.3703300000000000 C
   0.3713900000000000    0.5143900000000000    0.3245000000000000 C
   0.8713800000000000    0.5144000000000000    0.3245000000000000 C
   0.0881400000000000    0.0754500000000000    0.4955700000000000 N
   0.5881400000000000    0.0754500000000000    0.4955600000000000 N
   0.0882900000000000    0.4200200000000000    0.9240000000000000 N
   0.5883000000000000    0.4200100000000000    0.9241900000000000 N
   0.0881600000000000    0.5041099999999999    0.5798000000000000 N
   0.5881700000000000    0.5041099999999999    0.5798500000000000 N
   0.4118800000000000    0.9245400000000000    0.5044000000000000 N
   0.9118800000000000    0.9245300000000000    0.5044200000000000 N
   0.4117200000000000    0.5799700000000000    0.0758000000000000 N
   0.4118600000000000    0.4958700000000000    0.4201400000000000 N
   0.9118600000000000    0.4958800000000000    0.4201400000000000 N
   0.4330900000000000    0.4178100000000000    0.5001900000000000 O
   0.9331000000000000    0.4178100000000000    0.5001800000000000 O
   0.0882700000000000    0.4254200000000000    0.4248700000000000 O
   0.5882800000000000    0.4254100000000000    0.4248800000000000 O
   0.4330700000000000    0.0824300000000000    0.5821400000000000 O
   0.9330800000000000    0.0824100000000000    0.5821400000000000 O
   0.0882400000000000    0.9997600000000000    0.5748900000000000 O
   0.5882500000000001    0.9997700000000000    0.5748799999999999 O
   0.4331200000000000    0.4998700000000000    0.9177000000000000 O
   0.9331199999999999    0.4998800000000000    0.9177300000000000 O
   0.0883300000000000    0.5749700000000000    0.0002000000000000 O
   0.5883300000000000    0.5749600000000000    0.0001900000000000 O
   0.0669300000000000    0.5821800000000000    0.4998000000000000 O
   0.5669300000000000    0.5821700000000000    0.4998000000000000 O
   0.4117500000000000    0.5745700000000000    0.5751200000000000 O
   0.9117499999999999    0.5745700000000000    0.5750999999999999 O
   0.0669400000000000    0.9175600000000000    0.4178500000000000 O
   0.9117900000000000    0.0002200000000000    0.4251100000000000 O
   0.0669000000000000    0.5001200000000000    0.0822800000000000 O
   0.5669000000000000    0.5001200000000000    0.0822700000000000 O
   0.4116900000000000    0.4250300000000000    0.9997900000000000 O
   0.9117000000000000    0.4250300000000000    0.9990000000000000 O
