H6 O3
1.0
  23.0199985975414130    0.0000000000000000    0.0080354957129993
  -0.0041824752446088   14.9799992700967639   -0.0020916025687908
   0.0000000000000000    0.0000000000000000   29.9639999999999986
H O
6 3
direct
   0.2388018889428243    0.3402462193386036    0.7817402350045767 H
   0.2864571900599803    0.4244198829131075    0.7820569864839706 H
   0.1475785573018748    0.2988606918816469    0.9370195519159279 H
   0.0827932995592675    0.2954706796753902    0.9482491473355895 H
   0.2364931687951621    0.1914044672760849    0.9433564637487855 H
   0.2593120025865610    0.1010505202614718    0.9640187425946181 H
   0.2617500000000000    0.3837700000000000    0.7649300000000000 O
   0.1174700000000000    0.2542300000000000    0.9428500000000000 O
   0.2148600000000000    0.1372600000000000    0.9509650000000001 O
