H10 C10 S1 N1 O2
1.0
  23.0199985975414130    0.0000000000000000    0.0080354957129993
  -0.0041824752446088   14.9799992700967639   -0.0020916025687908
   0.0000000000000000    0.0000000000000000   29.9639999999999986
H C S N O
10 10 1 1 2
direct
   0.0889000000000000    0.4093400000000000    0.9366350000000000 H
   0.1591300000000000    0.4547900000000000    0.9494600000000000 H
   0.1416700000000000    0.4281500000000000    0.8938100000000000 H
   0.3228700000000000    0.2024200000000000    0.9037500000000001 H
   0.3312200000000000    0.2498900000000000    0.9572650000000000 H
   0.3202200000000000    0.1319800000000000    0.9517500000000000 H
   0.2033700000000000    0.2684000000000000    0.8509450000000001 H
   0.2036500000000000    0.2785500000000000    0.7683000000000000 H
   0.3218700000000000    0.4868100000000000    0.7692099999999999 H
   0.3270900000000000    0.4870200000000000    0.8517000000000000 H
   0.1353100000000000    0.4069200000000000    0.9286099999999999 C
   0.1565100000000000    0.3121000000000000    0.9352900000000000 C
   0.2174300000000000    0.2931600000000000    0.9327150000000000 C
   0.2429800000000000    0.2076400000000000    0.9410750000000000 C
   0.3082700000000000    0.1975800000000000    0.9386450000000000 C
   0.2641100000000000    0.3786100000000000    0.8589050000000000 C
   0.2299200000000000    0.3185500000000000    0.8342800000000000 C
   0.2301200000000000    0.3237800000000000    0.7881000000000000 C
   0.2958600000000000    0.4398900000000000    0.7885750000000000 C
   0.2985300000000000    0.4397400000000000    0.8348350000000000 C
   0.2646800000000000    0.3815900000000000    0.9176250000000000 S
   0.2617500000000000    0.3837700000000000    0.7649300000000000 N
   0.1174700000000000    0.2542300000000000    0.9428500000000000 O
   0.2148600000000000    0.1372600000000000    0.9509650000000001 O
