H12 O6
1.0
  18.0769999008817592    0.0000000000000000   -0.0018930190098362
  -9.0626257388158873   15.6665926982682961    0.0221120943914451
   0.0000000000000000    0.0000000000000000   38.2580000000000027
H O
12 6
direct
   0.5125656898461116    0.2507841988731493    0.1737529646425244 H
   0.5543578528622038    0.1901457549773789    0.1750558304630525 H
   0.5370141870118789    0.2083604429175770    0.1713540441410250 H
   0.5455068496198585    0.2292145449879196    0.1730264321898941 H
   0.5018181254919475    0.1442865686244888    0.1935346326465565 H
   0.4592451057621028    0.2057977529189129    0.1921831520751236 H
   0.2621063649287488    0.7488545883997108    0.3261438096484816 H
   0.2917798363784380    0.7556991518163036    0.3320767268111054 H
   0.3646059162095326    0.8101340274076171    0.3250763458790795 H
   0.3774027199932181    0.7930516853369896    0.3336034996748354 H
   0.3578584636094239    0.8558877040961408    0.3065878193009239 H
   0.2536726377017636    0.7937371167986983    0.3077208835968373 H
   0.4952600000000000    0.2538200000000000    0.1768050000000000 O
   0.5525600000000001    0.1707500000000000    0.1785800000000000 O
   0.5592200000000001    0.2426000000000000    0.1655250000000000 O
   0.2417300000000000    0.7456800000000000    0.3230450000000000 O
   0.3170200000000000    0.7574100000000000    0.3344950000000000 O
   0.3822200000000000    0.8296500000000000    0.3215900000000000 O
