Zn20 H78 C132 N66 O6
1.0
  18.0769999008817592    0.0000000000000000   -0.0018930190098362
  -9.0626257388158873   15.6665926982682961    0.0221120943914451
   0.0000000000000000    0.0000000000000000   38.2580000000000027
Zn H C N O
20 78 132 66 6
direct
   0.1245900000000000    0.6359399999999999    0.3349350000000000 Zn
   0.3332800000000000    0.6666666666666666    0.4652900000000000 Zn
   0.8748800000000000    0.5109100000000000    0.1651650000000000 Zn
   0.5116300000000000    0.8756000000000000    0.3348450000000000 Zn
   0.8748800000000000    0.5109100000000000    0.6651650000000000 Zn
   0.5116300000000000    0.8756000000000000    0.8348450000000001 Zn
   0.1245900000000000    0.6359399999999999    0.8349350000000000 Zn
   0.4884900000000000    0.3640900000000000    0.6650950000000000 Zn
   0.6358000000000000    0.1246600000000000    0.1650400000000000 Zn
   0.3641600000000000    0.4894000000000000    0.3348750000000000 Zn
   0.6660100000000000    0.3331100000000000    0.0347000000000000 Zn
   0.4884900000000000    0.3640900000000000    0.1650950000000000 Zn
   0.6358000000000000    0.1246600000000000    0.6650400000000000 Zn
   0.3641600000000000    0.4894000000000000    0.8348750000000000 Zn
   0.6660100000000000    0.3331100000000000    0.5347000000000000 Zn
   0.3332800000000000    0.6666666666666666    0.9652900000000000 Zn
   0.3335400000000000    0.6669400000000000    0.3679050000000000 Zn
   0.3335400000000000    0.6669400000000000    0.8679049999999999 Zn
   0.6662800000000000    0.3331800000000000    0.1320500000000000 Zn
   0.6662800000000000    0.3331800000000000    0.6320500000000000 Zn
   0.9753300000000000    0.5940500000000000    0.3957850000000000 H
   0.9093100000000000    0.5649000000000000    0.4549450000000000 H
   0.1435700000000000    0.6050900000000000    0.5000000000000000 H
   0.0238300000000000    0.6195100000000000    0.6040400000000000 H
   0.0898800000000000    0.6559900000000000    0.5448750000000000 H
   0.8560300000000000    0.4606900000000000    0.4969750000000000 H
   0.2621063649287488    0.7488545883997108    0.3261438096484816 H
   0.2917798363784380    0.7556991518163036    0.3320767268111054 H
   0.3646059162095326    0.8101340274076171    0.3250763458790795 H
   0.3774027199932181    0.7930516853369896    0.3336034996748354 H
   0.2536726377017636    0.7937371167986983    0.3077208835968373 H
   0.3578584636094239    0.8558877040961408    0.3065878193009239 H
   0.8643900000000000    0.6566500000000000    0.2167750000000000 H
   0.7957300000000000    0.7203400000000000    0.2527700000000000 H
   0.5433700000000000    0.5259800000000000    0.2193900000000000 H
   0.6586200000000000    0.8648100000000000    0.2834200000000000 H
   0.7215700000000000    0.7958100000000000    0.2472300000000000 H
   0.5248400000000000    0.5439200000000000    0.2800100000000000 H
   0.8643900000000000    0.6566500000000000    0.7167749999999999 H
   0.7957300000000000    0.7203400000000000    0.7527699999999999 H
   0.5433700000000000    0.5259800000000000    0.7193900000000000 H
   0.6586200000000000    0.8648100000000000    0.7834200000000000 H
   0.7215700000000000    0.7958100000000000    0.7472300000000001 H
   0.5248400000000000    0.5439200000000000    0.7800100000000000 H
   0.4047600000000000    0.3810600000000000    0.3959000000000000 H
   0.4340100000000000    0.3444200000000000    0.4550850000000000 H
   0.3956600000000000    0.5395100000000000    0.5000000000000000 H
   0.3442200000000000    0.4350000000000000    0.5449750000000000 H
   0.3806300000000000    0.4054300000000000    0.6041350000000000 H
   0.5386800000000000    0.3953900000000000    0.4969500000000000 H
   0.9753300000000000    0.5940500000000000    0.8957850000000001 H
   0.9093100000000000    0.5649000000000000    0.9549449999999999 H
   0.1435700000000000    0.6050900000000000    0.0000000000000000 H
   0.0238300000000000    0.6195100000000000    0.1040400000000000 H
   0.0898800000000000    0.6559900000000000    0.0448750000000000 H
   0.8560300000000000    0.4606900000000000    0.9969749999999999 H
   0.1353500000000000    0.7918500000000001    0.7831950000000000 H
   0.2039500000000000    0.9243600000000000    0.7471300000000000 H
   0.4563600000000000    0.9825199999999999    0.7805750000000000 H
   0.3422200000000000    0.2068000000000000    0.7165800000000000 H
   0.2787400000000000    0.0745300000000000    0.7527600000000000 H
   0.4742500000000000    0.0181100000000000    0.7196700000000000 H
   0.5947100000000000    0.9757800000000000    0.1040900000000000 H
   0.5651200000000000    0.9099600000000000    0.0449450000000000 H
   0.6033400000000000    0.1435000000000000    0.9969399999999999 H
   0.6199800000000000    0.0245300000000000    0.8959900000000001 H
   0.6555800000000001    0.0904300000000000    0.9551000000000001 H
   0.4599700000000000    0.8565100000000000    0.0000000000000000 H
   0.2071300000000000    0.3430500000000000    0.2835500000000000 H
   0.0748400000000000    0.2794400000000000    0.2473950000000000 H
   0.0174800000000000    0.4741000000000000    0.2804500000000000 H
   0.7929300000000000    0.1354000000000000    0.2164900000000000 H
   0.9250699999999999    0.2042500000000000    0.2527000000000000 H
   0.9815300000000000    0.4562400000000000    0.2197500000000000 H
   0.4047600000000000    0.3810600000000000    0.8958999999999999 H
   0.4340100000000000    0.3444200000000000    0.9550850000000000 H
   0.3956600000000000    0.5395100000000000    0.0000000000000000 H
   0.3442200000000000    0.4350000000000000    0.0449750000000000 H
   0.3806300000000000    0.4054300000000000    0.1041350000000000 H
   0.5386800000000000    0.3953900000000000    0.9969500000000000 H
   0.5125656898461116    0.2507841988731493    0.1737529646425244 H
   0.5543578528622038    0.1901457549773789    0.1750558304630525 H
   0.5370141870118789    0.2083604429175770    0.1713540441410250 H
   0.5455068496198585    0.2292145449879196    0.1730264321898941 H
   0.5018181254919475    0.1442865686244888    0.1935346326465565 H
   0.4592451057621028    0.2057977529189129    0.1921831520751236 H
   0.5947100000000000    0.9757800000000000    0.6040900000000000 H
   0.5651200000000000    0.9099600000000000    0.5449450000000000 H
   0.6033400000000000    0.1435000000000000    0.4969400000000000 H
   0.6199800000000000    0.0245300000000000    0.3959900000000000 H
   0.6555800000000001    0.0904300000000000    0.4551000000000000 H
   0.4599700000000000    0.8565100000000000    0.5000000000000000 H
   0.2071300000000000    0.3430500000000000    0.7835500000000000 H
   0.0748400000000000    0.2794400000000000    0.7473950000000000 H
   0.0174800000000000    0.4741000000000000    0.7804500000000000 H
   0.7929300000000000    0.1354000000000000    0.7164900000000000 H
   0.9250699999999999    0.2042500000000000    0.7526999999999999 H
   0.9815300000000000    0.4562400000000000    0.7197500000000000 H
   0.0111800000000000    0.5961300000000000    0.4190050000000000 C
   0.9752700000000000    0.5795600000000000    0.4519500000000000 C
   0.0969800000000000    0.6163500000000000    0.4166000000000000 C
   0.1439600000000000    0.6205600000000000    0.4468400000000000 C
   0.1069400000000000    0.6038400000000000    0.4802600000000000 C
   0.0215500000000000    0.5824400000000000    0.4827950000000000 C
   0.9880500000000000    0.5853699999999999    0.5808750000000000 C
   0.0239900000000000    0.6045300000000000    0.5478850000000000 C
   0.9023600000000001    0.5195300000000000    0.5833550000000000 C
   0.8555400000000000    0.4762900000000000    0.5531700000000001 C
   0.8925600000000000    0.4963900000000000    0.5197550000000000 C
   0.9778400000000000    0.5606700000000000    0.5171450000000000 C
   0.7952200000000000    0.6288400000000000    0.2173600000000000 C
   0.7562200000000000    0.6637800000000000    0.2370600000000000 C
   0.7413900000000000    0.5544300000000000    0.1983350000000000 C
   0.6515800000000000    0.5180000000000000    0.1994150000000000 C
   0.6125800000000000    0.5539600000000000    0.2194100000000000 C
   0.6654500000000000    0.6271200000000000    0.2386100000000000 C
   0.6300900000000000    0.7956600000000000    0.2826650000000000 C
   0.6646100000000000    0.7564500000000000    0.2628400000000000 C
   0.5552100000000000    0.7420800000000000    0.3016050000000000 C
   0.5180300000000000    0.6523200000000000    0.3003000000000000 C
   0.5535099999999999    0.6131100000000000    0.2801500000000000 C
   0.6271099999999999    0.6657300000000000    0.2610500000000000 C
   0.7952200000000000    0.6288400000000000    0.7173600000000000 C
   0.7562200000000000    0.6637800000000000    0.7370600000000000 C
   0.7413900000000000    0.5544300000000000    0.6983350000000000 C
   0.6515800000000000    0.5180000000000000    0.6994150000000000 C
   0.6125800000000000    0.5539600000000000    0.7194100000000000 C
   0.6654500000000000    0.6271200000000000    0.7386100000000000 C
   0.6300900000000000    0.7956600000000000    0.7826649999999999 C
   0.6646100000000000    0.7564500000000000    0.7628400000000000 C
   0.5552100000000000    0.7420800000000000    0.8016050000000000 C
   0.5180300000000000    0.6523200000000000    0.8003000000000000 C
   0.5535099999999999    0.6131100000000000    0.7801500000000000 C
   0.6271099999999999    0.6657300000000000    0.7610500000000000 C
   0.4030900000000000    0.4151300000000000    0.4190800000000000 C
   0.4197200000000000    0.3958800000000000    0.4520750000000000 C
   0.3833600000000000    0.4809200000000000    0.4166000000000000 C
   0.3797000000000000    0.5240400000000000    0.4467850000000000 C
   0.3965000000000000    0.5038800000000000    0.4802150000000000 C
   0.4173900000000000    0.4396400000000000    0.4828200000000000 C
   0.3954900000000000    0.4203600000000000    0.5479550000000000 C
   0.4146100000000000    0.4035400000000000    0.5809000000000000 C
   0.4801900000000000    0.3834000000000000    0.5833900000000000 C
   0.5232500000000000    0.3795900000000000    0.5531500000000000 C
   0.5031600000000001    0.3964700000000000    0.5197550000000000 C
   0.4391400000000000    0.4177500000000000    0.5171800000000000 C
   0.0111800000000000    0.5961300000000000    0.9190050000000001 C
   0.9752700000000000    0.5795600000000000    0.9519500000000001 C
   0.0969800000000000    0.6163500000000000    0.9166000000000001 C
   0.1439600000000000    0.6205600000000000    0.9468400000000000 C
   0.1069400000000000    0.6038400000000000    0.9802600000000000 C
   0.0215500000000000    0.5824400000000000    0.9827950000000000 C
   0.9880500000000000    0.5853699999999999    0.0808750000000000 C
   0.0239900000000000    0.6045300000000000    0.0478850000000000 C
   0.9023600000000001    0.5195300000000000    0.0833550000000000 C
   0.8555400000000000    0.4762900000000000    0.0531700000000000 C
   0.8925600000000000    0.4963900000000000    0.0197550000000000 C
   0.9778400000000000    0.5606700000000000    0.0171450000000000 C
   0.2045100000000000    0.8332800000000000    0.7825900000000000 C
   0.2434800000000000    0.9072800000000000    0.7628600000000000 C
   0.2584000000000000    0.8127600000000000    0.8016550000000000 C
   0.3482000000000000    0.8662900000000000    0.8006400000000000 C
   0.3871600000000000    0.9412400000000000    0.7805750000000000 C
   0.3342400000000000    0.9614000000000000    0.7613000000000000 C
   0.3703300000000000    0.1658100000000000    0.7172750000000000 C
   0.3355300000000000    0.0919300000000000    0.7370800000000000 C
   0.4449900000000000    0.1867900000000000    0.6982699999999999 C
   0.4817300000000000    0.1338100000000000    0.6994549999999999 C
   0.4459800000000000    0.0589800000000000    0.7195850000000000 C
   0.3726300000000000    0.0383500000000000    0.7387800000000000 C
   0.5962300000000000    0.0115500000000000    0.0809100000000000 C
   0.5794300000000000    0.9757000000000000    0.0479350000000000 C
   0.6160400000000000    0.0971000000000000    0.0833500000000000 C
   0.6196600000000000    0.1439500000000000    0.0531450000000000 C
   0.6026200000000000    0.1070200000000000    0.0197400000000000 C
   0.5816700000000000    0.0218800000000000    0.0171500000000000 C
   0.5855399999999999    0.9886600000000000    0.9191400000000001 C
   0.6042300000000000    0.0245700000000000    0.9521100000000000 C
   0.5198400000000000    0.9030000000000000    0.9166600000000000 C
   0.4762500000000000    0.8561500000000000    0.9468300000000001 C
   0.4959000000000000    0.8930800000000000    0.9802350000000000 C
   0.5600700000000000    0.9783200000000000    0.9828350000000000 C
   0.1659300000000000    0.3709500000000000    0.2828500000000000 C
   0.0920200000000000    0.3360600000000000    0.2630650000000000 C
   0.1334600000000000    0.4819200000000000    0.3006200000000000 C
   0.1866700000000000    0.4454200000000000    0.3018000000000000 C
   0.0585500000000000    0.4460300000000000    0.2805350000000000 C
   0.0381500000000000    0.3728600000000000    0.2613500000000000 C
   0.8338700000000000    0.2045300000000000    0.2172350000000000 C
   0.9077100000000000    0.2436500000000000    0.2370600000000000 C
   0.8129000000000000    0.2582000000000000    0.1982650000000000 C
   0.8659300000000000    0.3479400000000000    0.1994650000000000 C
   0.9407100000000000    0.3870600000000000    0.2196250000000000 C
   0.9612900000000000    0.3343600000000000    0.2388150000000000 C
   0.4030900000000000    0.4151300000000000    0.9190800000000000 C
   0.4197200000000000    0.3958800000000000    0.9520750000000000 C
   0.3833600000000000    0.4809200000000000    0.9166000000000001 C
   0.3797000000000000    0.5240400000000000    0.9467850000000000 C
   0.3965000000000000    0.5038800000000000    0.9802150000000001 C
   0.4173900000000000    0.4396400000000000    0.9828200000000000 C
   0.3954900000000000    0.4203600000000000    0.0479550000000000 C
   0.4146100000000000    0.4035400000000000    0.0809000000000000 C
   0.4801900000000000    0.3834000000000000    0.0833900000000000 C
   0.5232500000000000    0.3795900000000000    0.0531500000000000 C
   0.5031600000000001    0.3964700000000000    0.0197550000000000 C
   0.4391400000000000    0.4177500000000000    0.0171800000000000 C
   0.5962300000000000    0.0115500000000000    0.5809100000000000 C
   0.5794300000000000    0.9757000000000000    0.5479349999999999 C
   0.6160400000000000    0.0971000000000000    0.5833500000000000 C
   0.6196600000000000    0.1439500000000000    0.5531450000000000 C
   0.6026200000000000    0.1070200000000000    0.5197400000000000 C
   0.5816700000000000    0.0218800000000000    0.5171500000000000 C
   0.5855399999999999    0.9886600000000000    0.4191400000000000 C
   0.6042300000000000    0.0245700000000000    0.4521100000000000 C
   0.5198400000000000    0.9030000000000000    0.4166600000000000 C
   0.4762500000000000    0.8561500000000000    0.4468300000000000 C
   0.4959000000000000    0.8930800000000000    0.4802350000000000 C
   0.5600700000000000    0.9783200000000000    0.4828350000000000 C
   0.1659300000000000    0.3709500000000000    0.7828500000000000 C
   0.0920200000000000    0.3360600000000000    0.7630650000000000 C
   0.1334600000000000    0.4819200000000000    0.8006200000000000 C
   0.1866700000000000    0.4454200000000000    0.8018000000000001 C
   0.0585500000000000    0.4460300000000000    0.7805350000000000 C
   0.0381500000000000    0.3728600000000000    0.7613500000000000 C
   0.8338700000000000    0.2045300000000000    0.7172350000000001 C
   0.9077100000000000    0.2436500000000000    0.7370600000000000 C
   0.8129000000000000    0.2582000000000000    0.6982650000000000 C
   0.8659300000000000    0.3479400000000000    0.6994650000000000 C
   0.9407100000000000    0.3870600000000000    0.7196250000000000 C
   0.9612900000000000    0.3343600000000000    0.7388150000000000 C
   0.2257000000000000    0.6481900000000000    0.4010050000000000 N
   0.2239400000000000    0.6406100000000000    0.4359150000000000 N
   0.1502800000000000    0.6341000000000000    0.3886450000000000 N
   0.7738699999999999    0.4223200000000000    0.5990250000000000 N
   0.7756800000000000    0.4161200000000000    0.5641450000000000 N
   0.8490900000000000    0.4840700000000000    0.6113300000000000 N
   0.6827700000000000    0.4403700000000000    0.1656150000000000 N
   0.6175700000000000    0.4472400000000000    0.1785800000000000 N
   0.7580700000000000    0.5041400000000000    0.1769400000000000 N
   0.4408200000000000    0.6837100000000000    0.3343100000000000 N
   0.4471400000000000    0.6184700000000000    0.3211600000000000 N
   0.5050900000000000    0.7589200000000000    0.3230950000000000 N
   0.6827700000000000    0.4403700000000000    0.6656150000000001 N
   0.6175700000000000    0.4472400000000000    0.6785800000000000 N
   0.7580700000000000    0.5041400000000000    0.6769400000000000 N
   0.4408200000000000    0.6837100000000000    0.8343100000000000 N
   0.4471400000000000    0.6184700000000000    0.8211600000000000 N
   0.5050900000000000    0.7589200000000000    0.8230950000000000 N
   0.3656100000000000    0.5163700000000000    0.3886200000000000 N
   0.3521000000000000    0.5780000000000000    0.4009000000000000 N
   0.3600500000000000    0.5841300000000000    0.4358000000000000 N
   0.5155400000000000    0.3654900000000000    0.6113500000000001 N
   0.5770999999999999    0.3517600000000000    0.5990250000000000 N
   0.5832300000000000    0.3597000000000000    0.5641000000000000 N
   0.2257000000000000    0.6481900000000000    0.9010050000000001 N
   0.2239400000000000    0.6406100000000000    0.9359150000000001 N
   0.1502800000000000    0.6341000000000000    0.8886450000000000 N
   0.7738699999999999    0.4223200000000000    0.0990250000000000 N
   0.7756800000000000    0.4161200000000000    0.0641450000000000 N
   0.8490900000000000    0.4840700000000000    0.1113300000000000 N
   0.3170200000000000    0.7574100000000000    0.8344950000000000 N
   0.3822200000000000    0.8296500000000000    0.8215900000000000 N
   0.2417300000000000    0.7456800000000000    0.8230450000000000 N
   0.5592200000000001    0.2426000000000000    0.6655250000000000 N
   0.5525600000000001    0.1707500000000000    0.6785800000000000 N
   0.4952600000000000    0.2538200000000000    0.6768050000000000 N
   0.6476300000000000    0.2255100000000000    0.0989700000000000 N
   0.6396100000000000    0.2237600000000000    0.0640850000000000 N
   0.6339399999999999    0.1502700000000000    0.1113050000000000 N
   0.4229000000000000    0.7745700000000000    0.9010000000000000 N
   0.4163000000000000    0.7763500000000000    0.9358649999999999 N
   0.4847400000000000    0.8497800000000000    0.8887000000000000 N
   0.2423400000000000    0.5595500000000000    0.3344700000000000 N
   0.1703500000000000    0.5527000000000000    0.3214300000000000 N
   0.2537000000000000    0.4957300000000000    0.3232350000000000 N
   0.7571300000000000    0.3166000000000000    0.1655000000000000 N
   0.8290700000000000    0.3818000000000000    0.1785550000000000 N
   0.7458300000000000    0.2414200000000000    0.1768300000000000 N
   0.3656100000000000    0.5163700000000000    0.8886200000000000 N
   0.3521000000000000    0.5780000000000000    0.9009000000000000 N
   0.3600500000000000    0.5841300000000000    0.9358000000000000 N
   0.5155400000000000    0.3654900000000000    0.1113500000000000 N
   0.5770999999999999    0.3517600000000000    0.0990250000000000 N
   0.5832300000000000    0.3597000000000000    0.0641000000000000 N
   0.6476300000000000    0.2255100000000000    0.5989700000000000 N
   0.6396100000000000    0.2237600000000000    0.5640849999999999 N
   0.6339399999999999    0.1502700000000000    0.6113050000000000 N
   0.4229000000000000    0.7745700000000000    0.4010000000000000 N
   0.4163000000000000    0.7763500000000000    0.4358650000000000 N
   0.4847400000000000    0.8497800000000000    0.3887000000000000 N
   0.2423400000000000    0.5595500000000000    0.8344700000000000 N
   0.1703500000000000    0.5527000000000000    0.8214300000000000 N
   0.2537000000000000    0.4957300000000000    0.8232349999999999 N
   0.7571300000000000    0.3166000000000000    0.6655000000000000 N
   0.8290700000000000    0.3818000000000000    0.6785550000000000 N
   0.7458300000000000    0.2414200000000000    0.6768300000000000 N
   0.2417300000000000    0.7456800000000000    0.3230450000000000 O
   0.3170200000000000    0.7574100000000000    0.3344950000000000 O
   0.3822200000000000    0.8296500000000000    0.3215900000000000 O
   0.4952600000000000    0.2538200000000000    0.1768050000000000 O
   0.5525600000000001    0.1707500000000000    0.1785800000000000 O
   0.5592200000000001    0.2426000000000000    0.1655250000000000 O
