H6 C12 N2 O4
1.0
   7.6954970697709939    0.0000000000000000   -0.0067155897769912
  -0.5233878437265779   14.6576576557515565   -0.0051197487238280
   0.0000000000000000    0.0000000000000000   15.8130000000000006
H C N O
6 12 2 4
direct
   0.8956700000000000    0.6127400000000000    0.8074100000000000 H
   0.8766100000000000    0.7828600000000000    0.8253500000000000 H
   0.6380400000000001    0.7317800000000000    0.0674300000000000 H
   0.5683900000000000    0.6361500000000000    0.1567400000000000 H
   0.5833600000000000    0.3547000000000000    0.2254600000000000 H
   0.7254400000000000    0.3242300000000000    0.0845900000000000 H
   0.8437900000000000    0.6423700000000000    0.8648000000000000 C
   0.8284300000000000    0.7360100000000001    0.8743000000000000 C
   0.7545900000000000    0.7696300000000000    0.9484500000000000 C
   0.6986400000000000    0.7072100000000000    0.0100900000000000 C
   0.7252900000000000    0.6145400000000000    0.9993000000000000 C
   0.6820100000000000    0.5464599999999999    0.0643000000000000 C
   0.6036200000000000    0.5671200000000000    0.1408700000000000 C
   0.5658400000000000    0.4984500000000000    0.1995600000000000 C
   0.6115300000000000    0.4095000000000000    0.1804900000000000 C
   0.6891699999999999    0.3922100000000000    0.1033000000000000 C
   0.7398400000000001    0.8703200000000000    0.9667200000000000 C
   0.4688100000000000    0.5208100000000000    0.2797000000000000 C
   0.7969900000000000    0.5823400000000000    0.9263600000000000 N
   0.7221100000000000    0.4586500000000000    0.0455200000000000 N
   0.8788100000000000    0.9190400000000000    0.9669400000000000 O
   0.5902800000000000    0.8988000000000000    0.9853400000000000 O
   0.4523100000000000    0.6049800000000000    0.2961100000000000 O
   0.4072900000000000    0.4541900000000000    0.3224700000000000 O
