Ba4 H18 Pt4 C36 N6 O12
1.0
   7.6954970697709939    0.0000000000000000   -0.0067155897769912
  -0.5233878437265779   14.6576576557515565   -0.0051197487238280
   0.0000000000000000    0.0000000000000000   15.8130000000000006
Ba H Pt C N O
4 18 4 36 6 12
direct
   0.7449800000000000    0.4326700000000000    0.5609200000000000 Ba
   0.2456700000000000    0.9325500000000000    0.9389200000000000 Ba
   0.2550100000000000    0.5673300000000000    0.4390600000000000 Ba
   0.7543100000000000    0.0674500000000000    0.0610600000000000 Ba
   0.6041100000000000    0.8871700000000000    0.3071300000000000 H
   0.6237300000000000    0.7171300000000000    0.3251700000000000 H
   0.8638400000000001    0.7687600000000000    0.5670300000000000 H
   0.9323900000000001    0.8643999999999999    0.6564900000000000 H
   0.9174200000000000    0.1459300000000000    0.7251100000000000 H
   0.7744500000000000    0.1761200000000000    0.5843400000000000 H
   0.1043200000000000    0.3872700000000000    0.1925700000000000 H
   0.1233800000000000    0.2171500000000000    0.1746200000000000 H
   0.3619500000000000    0.2682200000000000    0.9325500000000000 H
   0.4316000000000000    0.3638500000000000    0.8432500000000001 H
   0.4166300000000000    0.6452900000000000    0.7745200000000000 H
   0.2745600000000000    0.6757700000000000    0.9153900000000000 H
   0.3958800000000000    0.1128300000000000    0.6928500000000000 H
   0.3762700000000000    0.2828700000000000    0.6748200000000000 H
   0.1361500000000000    0.2312400000000000    0.4329600000000000 H
   0.0676000000000000    0.1356100000000000    0.3434900000000000 H
   0.0825600000000000    0.8540700000000000    0.2748700000000000 H
   0.2255200000000000    0.8238799999999999    0.4156500000000000 H
   0.8228200000000000    0.4403200000000000    0.9241200000000001 Pt
   0.6766300000000000    0.0598300000000000    0.4238800000000000 Pt
   0.1771700000000000    0.5596800000000000    0.0758600000000000 Pt
   0.3233600000000000    0.9401700000000000    0.5760999999999999 Pt
   0.6564100000000000    0.8576800000000000    0.3645100000000000 C
   0.6721900000000000    0.7640700000000000    0.3740500000000000 C
   0.7466500000000000    0.7306200000000000    0.4481600000000000 C
   0.8027000000000000    0.7931700000000000    0.5097300000000000 C
   0.7754500000000000    0.8857800000000000    0.4989600000000000 C
   0.8185700000000000    0.9539500000000000    0.5639900000000000 C
   0.8971500000000000    0.9334000000000000    0.6405800000000000 C
   0.9349100000000000    0.0000000000000000    0.6993100000000000 C
   0.8891600000000000    0.0910500000000000    0.6801900000000000 C
   0.8110600000000000    0.1082000000000000    0.6030100000000000 C
   0.7615800000000000    0.6299500000000000    0.4665500000000000 C
   0.0317700000000000    0.9796000000000000    0.7795100000000000 C
   0.1562200000000000    0.3576300000000000    0.1351900000000000 C
   0.1715700000000000    0.2639900000000000    0.1256800000000000 C
   0.2453900000000000    0.2303800000000000    0.0515200000000000 C
   0.3013600000000000    0.2927900000000000    0.9898900000000000 C
   0.2747100000000000    0.3854600000000000    0.0000000000000000 C
   0.3179700000000000    0.4535500000000000    0.9356800000000000 C
   0.3963700000000000    0.4328800000000000    0.8591100000000000 C
   0.4341700000000000    0.5015500000000001    0.8004200000000000 C
   0.3884600000000000    0.5905000000000000    0.8194900000000001 C
   0.3108300000000000    0.6077900000000001    0.8966800000000000 C
   0.2601400000000000    0.1296800000000000    0.0332600000000000 C
   0.5312000000000000    0.4791900000000000    0.7202900000000000 C
   0.3435800000000000    0.1423200000000000    0.6354700000000000 C
   0.3278100000000000    0.2359300000000000    0.6259300000000000 C
   0.2533400000000000    0.2693800000000000    0.5518200000000000 C
   0.1972900000000000    0.2068300000000000    0.4902600000000000 C
   0.2245400000000000    0.1142200000000000    0.5010300000000000 C
   0.1814100000000000    0.0460500000000000    0.4360000000000000 C
   0.1028300000000000    0.0666000000000000    0.3594000000000000 C
   0.0650700000000000    0.9978700000000000    0.3006800000000000 C
   0.1108200000000000    0.9089600000000000    0.3197900000000000 C
   0.1889200000000000    0.8918000000000000    0.3969700000000000 C
   0.2384100000000000    0.3700500000000000    0.5334300000000000 C
   0.9682200000000000    0.0204000000000000    0.2204600000000000 C
   0.7032400000000000    0.9178300000000000    0.4260500000000000 N
   0.7779800000000000    0.0416900000000000    0.5452399999999999 N
   0.2030000000000000    0.4176600000000000    0.0736200000000000 N
   0.2779000000000000    0.5413500000000000    0.9544700000000000 N
   0.2967400000000000    0.0821700000000000    0.5739300000000001 N
   0.2220000000000000    0.9583100000000000    0.4547400000000000 N
   0.6224800000000000    0.5813199999999999    0.4668300000000000 O
   0.9111399999999999    0.6014500000000000    0.4852400000000000 O
   0.0461400000000000    0.8953600000000000    0.7961600000000000 O
   0.0952600000000000    0.0460000000000000    0.8220600000000000 O
   0.1211800000000000    0.0809500000000000    0.0330500000000000 O
   0.4097100000000000    0.1012000000000000    0.0000000000000000 O
   0.5476900000000000    0.3950200000000000    0.7038700000000000 O
   0.5927100000000000    0.5458200000000000    0.6775099999999999 O
   0.3775200000000000    0.4186800000000000    0.5331500000000000 O
   0.0888600000000000    0.3985600000000000    0.5147400000000000 O
   0.9538200000000000    0.1046500000000000    0.2038200000000000 O
   0.9047100000000000    0.9539900000000000    0.1779200000000000 O
