H2 C10 O8
1.0
   5.9327452360418018    0.0000000000000000    0.3815219052994345
   0.0561195399474486    7.4737376590140032    0.0277849144677412
   0.0000000000000000    0.0000000000000000   31.1722000000000001
H C O
2 10 8
direct
   0.9332300000000000    0.1856700000000000    0.2393900000000000 H
   0.0667100000000000    0.8299500000000000    0.2606300000000000 H
   0.9614100000000000    0.3276700000000000    0.2442150000000000 C
   0.0068000000000000    0.4357800000000000    0.2079550000000000 C
   0.0452900000000000    0.6195300000000000    0.2140850000000000 C
   0.0846300000000000    0.7532300000000000    0.1784050000000000 C
   0.0285500000000000    0.3453700000000000    0.1646600000000000 C
   0.0385300000000000    0.6879400000000000    0.2558000000000000 C
   0.9931500000000000    0.5798300000000000    0.2920650000000000 C
   0.9546500000000000    0.3960900000000000    0.2859350000000000 C
   0.9153200000000000    0.2623900000000000    0.3216100000000000 C
   0.9713900000000000    0.6702399999999999    0.3353550000000000 C
   0.0913500000000000    0.1828100000000000    0.1659800000000000 O
   0.9893600000000000    0.4287900000000000    0.1300950000000000 O
   0.2740100000000000   -0.1706700000000000    0.1737400000000000 O
   0.9190400000000000    0.7969900000000000    0.1558800000000000 O
   0.9085900000000000   -0.1672000000000000    0.3340400000000000 O
   0.0106000000000000    0.5868300000000000    0.3699200000000000 O
   0.7259400000000000    0.1862800000000000    0.3262800000000000 O
   1.0809100000000000    0.2186300000000000    0.3441350000000000 O
