H12 O8
1.0
   5.9327452360418018    0.0000000000000000    0.3815219052994345
   0.0561195399474486    7.4737376590140032    0.0277849144677412
   0.0000000000000000    0.0000000000000000   31.1722000000000001
H O
12 8
direct
   0.0055389443740370    0.2684621867498914    0.1838320521124329 H
   0.8835904777494886    0.3353097943345056    0.1388177310494536 H
   0.6365998377930501    0.7808970690817831    0.2034828956851266 H
   0.6816161156685276    0.8105105781117866    0.2000420034233110 H
   0.1534158723283687   -0.1638025261247487    0.1961710974191228 H
   1.0705172498192008    0.7899962033879490    0.1656545224866507 H
   0.5984732896629625    0.2154218569992924    0.3095523947996060 H
   1.2332370426128625    0.2644792222195345    0.3437061658670515 H
   0.9402548208079753    0.2507870479648035    0.3256766566357309 H
   0.3633062279664830    0.2347079384425353    0.2965360904882565 H
   0.9943911384199963   -0.2528590310826536    0.3161882512114418 H
   0.1163653786898089    0.6803123582125342    0.3611967239260477 H
   0.0913500000000000    0.1828100000000000    0.1659800000000000 O
   0.9893600000000000    0.4287900000000000    0.1300950000000000 O
   0.2740100000000000   -0.1706700000000000    0.1737400000000000 O
   0.9190400000000000    0.7969900000000000    0.1558800000000000 O
   0.7259400000000000    0.1862800000000000    0.3262800000000000 O
   1.0809100000000000    0.2186300000000000    0.3441350000000000 O
   0.9085900000000000   -0.1672000000000000    0.3340400000000000 O
   0.0106000000000000    0.5868300000000000    0.3699200000000000 O
