Zn8 H18 C30 O32
1.0
   5.9327452360418018    0.0000000000000000    0.3815219052994345
   0.0561195399474486    7.4737376590140032    0.0277849144677412
   0.0000000000000000    0.0000000000000000   31.1722000000000001
Zn H C O
8 18 30 32
direct
   0.2506900000000000    0.0154900000000000    0.1249100000000000 Zn
   0.7492500000000000    0.0001300000000000    0.3751050000000000 Zn
   0.2500100000000000    0.3988000000000000    0.3749600000000000 Zn
   0.7499800000000000    0.6168200000000000    0.6250550000000000 Zn
   0.2500100000000000    0.3988000000000000    0.8749600000000000 Zn
   0.7499800000000000    0.6168200000000000    0.1250550000000000 Zn
   0.7492500000000000    0.0001300000000000    0.8751050000000000 Zn
   0.2506900000000000    0.0154900000000000    0.6249100000000000 Zn
   0.0055389443740370    0.2684621867498914    0.1838320521124329 H
   0.8835904777494886    0.3353097943345056    0.1388177310494536 H
   0.9943911384199963   -0.2528590310826536    0.3161882512114418 H
   0.1163653786898089    0.6803123582125342    0.3611967239260477 H
   0.9332300000000000    0.1856700000000000    0.7393900000000000 H
   0.0667100000000000    0.8299500000000000    0.7606299999999999 H
   0.5984732896629625    0.2154218569992924    0.3095523947996060 H
   1.2332370426128625    0.2644792222195345    0.3437061658670515 H
   0.9402548208079753    0.2507870479648035    0.3256766566357309 H
   0.3633062279664830    0.2347079384425353    0.2965360904882565 H
   0.4306400000000000    0.8299900000000000    0.4883500000000000 H
   0.5693100000000000    0.1856200000000000    0.5116650000000000 H
   0.6365998377930501    0.7808970690817831    0.2034828956851266 H
   0.6816161156685276    0.8105105781117866    0.2000420034233110 H
   0.1534158723283687   -0.1638025261247487    0.1961710974191228 H
   1.0705172498192008    0.7899962033879490    0.1656545224866507 H
   0.4306400000000000    0.8299900000000000    0.9883500000000001 H
   0.5693100000000000    0.1856200000000000    0.0116650000000000 H
   0.0285500000000000    0.3453700000000000    0.6646600000000000 C
   0.9713900000000000    0.6702399999999999    0.8353550000000001 C
   0.0846300000000000    0.7532300000000000    0.6784050000000000 C
   0.9153200000000000    0.2623900000000000    0.8216100000000000 C
   0.9614100000000000    0.3276700000000000    0.7442150000000000 C
   0.9546500000000000    0.3960900000000000    0.7859350000000001 C
   0.0068000000000000    0.4357800000000000    0.7079550000000000 C
   0.0385300000000000    0.6879400000000000    0.7558000000000000 C
   0.0452900000000000    0.6195300000000000    0.7140850000000000 C
   0.9931500000000000    0.5798300000000000    0.7920650000000000 C
   0.5259300000000000    0.6685000000000000    0.4141450000000000 C
   0.4740200000000000    0.3471200000000000    0.5858750000000000 C
   0.5842300000000000    0.2595300000000000    0.4291600000000000 C
   0.4157200000000000    0.7560800000000000    0.5708600000000000 C
   0.4599300000000000    0.6879300000000000    0.4936350000000000 C
   0.4549700000000000    0.6209900000000000    0.5356150000000000 C
   0.5050600000000000    0.5785300000000000    0.4576800000000000 C
   0.5400100000000000    0.3276800000000000    0.5063850000000000 C
   0.5449700000000000    0.3946200000000000    0.4644050000000000 C
   0.4948800000000000    0.4370900000000000    0.5423400000000000 C
   0.5259300000000000    0.6685000000000000    0.9141450000000000 C
   0.4740200000000000    0.3471200000000000    0.0858750000000000 C
   0.5842300000000000    0.2595300000000000    0.9291600000000000 C
   0.4157200000000000    0.7560800000000000    0.0708600000000000 C
   0.4599300000000000    0.6879300000000000    0.9936350000000000 C
   0.4549700000000000    0.6209900000000000    0.0356150000000000 C
   0.5050600000000000    0.5785300000000000    0.9576800000000000 C
   0.5400100000000000    0.3276800000000000    0.0063850000000000 C
   0.5449700000000000    0.3946200000000000    0.9644050000000000 C
   0.4948800000000000    0.4370900000000000    0.0423400000000000 C
   0.0913500000000000    0.1828100000000000    0.1659800000000000 O
   0.9893600000000000    0.4287900000000000    0.1300950000000000 O
   0.9085900000000000   -0.1672000000000000    0.3340400000000000 O
   0.0106000000000000    0.5868300000000000    0.3699200000000000 O
   0.0913500000000000    0.1828100000000000    0.6659800000000000 O
   0.9893600000000000    0.4287900000000000    0.6300950000000000 O
   0.9085900000000000    0.8328000000000000    0.8340400000000000 O
   0.0106000000000000    0.5868300000000000    0.8699200000000000 O
   0.2740100000000000    0.8293300000000000    0.6737400000000000 O
   0.9190400000000000    0.7969900000000000    0.6558800000000000 O
   0.7259400000000000    0.1862800000000000    0.8262800000000000 O
   0.0809100000000000    0.2186300000000000    0.8441350000000001 O
   0.7259400000000000    0.1862800000000000    0.3262800000000000 O
   1.0809100000000000    0.2186300000000000    0.3441350000000000 O
   0.5881400000000000    0.8303400000000000    0.4151650000000000 O
   0.4866400000000000    0.5857700000000000    0.3797050000000000 O
   0.4118100000000000    0.1852800000000000    0.5848500000000000 O
   0.5133200000000000    0.4298500000000000    0.6203149999999999 O
   0.7729100000000000    0.1799400000000000    0.4249000000000000 O
   0.4194600000000000    0.2183800000000000    0.4064150000000000 O
   0.2270300000000000    0.8356800000000000    0.5751200000000000 O
   0.5804900000000000    0.7972399999999999    0.5936000000000000 O
   0.2740100000000000   -0.1706700000000000    0.1737400000000000 O
   0.9190400000000000    0.7969900000000000    0.1558800000000000 O
   0.5881400000000000    0.8303400000000000    0.9151650000000000 O
   0.4866400000000000    0.5857700000000000    0.8797050000000000 O
   0.4118100000000000    0.1852800000000000    0.0848500000000000 O
   0.5133200000000000    0.4298500000000000    0.1203150000000000 O
   0.7729100000000000    0.1799400000000000    0.9249000000000001 O
   0.4194600000000000    0.2183800000000000    0.9064150000000000 O
   0.2270300000000000    0.8356800000000000    0.0751200000000000 O
   0.5804900000000000    0.7972399999999999    0.0936000000000000 O
