H4 C8 O4
1.0
  18.6620715538748847    0.0000000000000000    4.9757091271550316
   4.7094039596726036   17.3575622867480845   11.5972645829212873
   0.0000000000000000    0.0000000000000000   26.0040000000000013
H C O
4 8 4
direct
   0.8583800000000000    0.8063200000000000    0.4523500000000000 H
   0.6425600000000000    0.8036799999999999    0.4389400000000000 H
   0.6417000000000000    0.6937300000000000    0.5475500000000000 H
   0.8575199999999999    0.6963800000000000    0.5609600000000000 H
   0.7511400000000000    0.8768200000000000    0.3746000000000000 C
   0.7505300000000000    0.8113800000000000    0.4393800000000000 C
   0.8112700000000000    0.7812100000000000    0.4737000000000000 C
   0.6893100000000000    0.7797100000000000    0.4660800000000000 C
   0.7489300000000000    0.6232400000000000    0.6252799999999999 C
   0.7495500000000000    0.6886700000000000    0.5605300000000000 C
   0.6888100000000000    0.7188400000000000    0.5262100000000000 C
   0.8107799999999999    0.7203400000000000    0.5338200000000000 C
   0.6919999999999999    0.5966600000000000    0.6478200000000000 O
   0.6943400000000000   -0.0979999999999999    0.3454400000000000 O
   0.8080600000000000    0.9034300000000000    0.3520900000000000 O
   0.8057500000000000    0.5980300000000000    0.6544600000000000 O
