Cd8 H86 C63 N14 Cl8 O26
1.0
   5.9959997945203209    0.0000000000000000   -0.0015697491113118
  -0.0041749149326150   15.9469994535048922    0.0000000000000010
   0.0000000000000000    0.0000000000000000   33.3239999999999981
Cd H C N Cl O
8 86 63 14 8 26
direct
   0.1281400000000000    0.4576400000000000    0.8005150000000000 Cd
   0.6284999999999999    0.5428900000000000    0.9494950000000000 Cd
   0.3718600000000000    0.9575399999999999    0.1994700000000000 Cd
   0.8715300000000000    0.0428000000000000    0.0504850000000000 Cd
   0.1281400000000000    0.4576400000000000    0.3005150000000000 Cd
   0.6284999999999999    0.5428900000000000    0.4494950000000000 Cd
   0.3718600000000000    0.9575399999999999    0.6994700000000000 Cd
   0.8715300000000000    0.0428000000000000    0.5504850000000000 Cd
   0.7921920331639092    0.3217768924905562    0.7943757079760815 H
   1.0067238201425073    0.2944606922501205    0.7647143405674222 H
   0.7983300000000000    0.4287700000000000    0.8957900000000000 H
   0.6283200000000000    0.2972200000000000    0.9462600000000000 H
   0.6003400000000000    0.3077200000000000    0.8934599999999999 H
   0.5431600000000000    0.2667800000000000    0.0515500000000000 H
   0.8055300000000000    0.2032600000000000    0.9955250000000000 H
   0.3351600000000000    0.1369400000000000    0.0687100000000000 H
   0.9870700000000000    0.3394100000000000    0.9765650000000000 H
   0.2447600000000000    0.3320900000000000    0.9274300000000000 H
   0.2086000000000000    0.4659100000000000    0.9657050000000000 H
   0.5879000000000000    0.3832500000000000    0.0051250000000000 H
   0.3670000000000000    0.4412000000000000    0.0256100000000000 H
   0.2981000000000000    0.5717500000000000    0.8542400000000000 H
   0.1283700000000000    0.7031800000000000    0.8036650000000001 H
   0.1004300000000000    0.6928400000000000    0.8564750000000000 H
   0.4866400000000000    0.6609200000000000    0.7733600000000000 H
   0.0428500000000000    0.7334100000000000    0.6983950000000000 H
   0.3054300000000000    0.7970900000000000    0.7543800000000001 H
   0.8352200000000000    0.8633000000000000    0.6812199999999999 H
   0.7446700000000001    0.6684700000000000    0.8225050000000000 H
   0.7081499999999999    0.5344700000000000    0.7843450000000001 H
   0.0873300000000000    0.6169600000000000    0.7448049999999999 H
   0.8660700000000000    0.5590000000000001    0.7244050000000000 H
   0.2019900000000000    0.0716900000000000    0.1457550000000000 H
   0.3720400000000000    0.2031400000000000    0.1962900000000000 H
   0.3999500000000000    0.1927300000000000    0.1434900000000000 H
   0.0134300000000000    0.1610100000000000    0.2266050000000000 H
   0.4571700000000000    0.2333600000000000    0.3015650000000000 H
   0.1945800000000000    0.2972400000000000    0.2455850000000000 H
   0.6647600000000000    0.3633100000000000    0.3187450000000000 H
   0.7556500000000000    0.1683600000000000    0.1774600000000000 H
   0.7919500000000000    0.0344300000000000    0.2156600000000000 H
   0.4127300000000000    0.1169200000000000    0.2551550000000000 H
   0.6339300000000000    0.0590200000000000    0.2755850000000000 H
   0.7015500000000000    0.9286700000000000    0.1042000000000000 H
   0.8713500000000000    0.7971000000000000    0.0537450000000000 H
   0.8993600000000000    0.8076400000000000    0.1065450000000000 H
   0.5125999999999999    0.8393900000000000    0.0234500000000000 H
   0.9568000000000000    0.7666800000000000    0.9483850000000000 H
   0.6942900000000000    0.7033199999999999    0.0044750000000000 H
   0.1649400000000000    0.6369300000000000    0.9312150000000000 H
   0.2549800000000000    0.8319800000000001    0.0725550000000000 H
   0.2912700000000000    0.9658000000000000    0.0342750000000000 H
   0.9118100000000000    0.8830500000000000    0.9949000000000000 H
   0.1324800000000000    0.9410900000000000    0.9743750000000000 H
   0.7983300000000000    0.4287700000000000    0.3957900000000000 H
   0.6283200000000000    0.2972200000000000    0.4462600000000000 H
   0.6003400000000000    0.3077200000000000    0.3934600000000000 H
   0.5431600000000000    0.2667800000000000    0.5515500000000000 H
   0.8055300000000000    0.2032600000000000    0.4955250000000000 H
   0.3351600000000000    0.1369400000000000    0.5687100000000000 H
   0.9870700000000000    0.3394100000000000    0.4765650000000000 H
   0.2447600000000000    0.3320900000000000    0.4274300000000000 H
   0.2086000000000000    0.4659100000000000    0.4657050000000000 H
   0.5879000000000000    0.3832500000000000    0.5051250000000000 H
   0.3670000000000000    0.4412000000000000    0.5256100000000000 H
   0.2981000000000000    0.5717500000000000    0.3542400000000000 H
   0.1283700000000000    0.7031800000000000    0.3036650000000000 H
   0.1004300000000000    0.6928400000000000    0.3564750000000000 H
   0.4866400000000000    0.6609200000000000    0.2733600000000000 H
   0.0428500000000000    0.7334100000000000    0.1983950000000000 H
   0.3054300000000000    0.7970900000000000    0.2543800000000000 H
   0.8352200000000000    0.8633000000000000    0.1812200000000000 H
   0.7446700000000001    0.6684700000000000    0.3225050000000000 H
   0.7081499999999999    0.5344700000000000    0.2843450000000000 H
   0.0873300000000000    0.6169600000000000    0.2448050000000000 H
   0.8660700000000000    0.5590000000000001    0.2244050000000000 H
   0.7873949008733141    0.1575179691788438    0.6021914219583613 H
   0.8646233091277923    0.1379684693863809    0.6281507520296228 H
   0.6090384947334762    0.0922023146451701    0.7394027022905203 H
   0.7837098664762083    0.0360949752291134    0.7155518988350429 H
   0.2027977304744701    0.0726533482723038    0.6467763344279251 H
   0.3447804067686549    0.1388368676034140    0.6723857772076071 H
   0.7891648150764548    1.0112522482212916    0.6602110882674845 H
   0.7015500000000000    0.9286700000000000    0.6042000000000000 H
   0.8713500000000000    0.7971000000000000    0.5537450000000000 H
   0.8993600000000000    0.8076400000000000    0.6065450000000000 H
   0.5125999999999999    0.8393900000000000    0.5234500000000000 H
   0.9568000000000000    0.7666800000000000    0.4483850000000000 H
   0.6942900000000000    0.7033199999999999    0.5044750000000000 H
   0.1649400000000000    0.6369300000000000    0.4312150000000000 H
   0.2549800000000000    0.8319800000000001    0.5725550000000000 H
   0.2912700000000000    0.9658000000000000    0.5342750000000001 H
   0.9118100000000000    0.8830500000000000    0.4949000000000000 H
   0.1324800000000000    0.9410900000000000    0.4743750000000000 H
   0.3175300000000000    0.4372400000000000    0.8899450000000000 C
   0.5998000000000000    0.3426000000000000    0.9219400000000000 C
   0.3783100000000000    0.2562200000000000    0.0386600000000000 C
   0.9678800000000000    0.2212100000000000    0.0076200000000000 C
   0.2634300000000000    0.1833800000000000    0.0485300000000000 C
   0.0709500000000000    0.2960300000000000    0.0000000000000000 C
   0.2829100000000000    0.3144100000000000    0.0123100000000000 C
   0.3687100000000000    0.3830800000000000    0.9270950000000000 C
   0.4074600000000000    0.3942800000000000    0.0024600000000000 C
   0.8173000000000000    0.5634100000000000    0.8600650000000001 C
   0.0997100000000000    0.6578800000000000    0.8280149999999999 C
   0.5706300000000000    0.7042700000000000    0.7530550000000000 C
   0.8780600000000000    0.7440099999999999    0.7112750000000000 C
   0.4677300000000000    0.7791100000000000    0.7422850000000000 C
   0.7633799999999999    0.8168700000000000    0.7013950000000000 C
   0.7825299999999999    0.6858500000000000    0.7376300000000000 C
   0.8684900000000000    0.6174600000000000    0.8228800000000001 C
   0.9068900000000000    0.6059900000000000    0.7475100000000000 C
   0.6827500000000000    0.0632900000000000    0.1399200000000000 C
   0.4005700000000000    0.1578100000000000    0.1719550000000000 C
   0.9294200000000000    0.2043400000000000    0.2469100000000000 C
   0.6219700000000000    0.2440100000000000    0.2886900000000000 C
   0.0322800000000000    0.2792100000000000    0.2576800000000000 C
   0.7366300000000000    0.3169000000000000    0.2985700000000000 C
   0.7175300000000000    0.1858700000000000    0.2623350000000000 C
   0.6317199999999999    0.1173600000000000    0.1771000000000000 C
   0.5931900000000000    0.1059700000000000    0.2524650000000000 C
   0.1823900000000000    0.9371300000000000    0.1100450000000000 C
   0.8999500000000000    0.8425000000000000    0.0780550000000000 C
   0.4287900000000000    0.7960100000000000    0.0031300000000000 C
   0.1216000000000000    0.7561600000000001    0.9612900000000000 C
   0.5319700000000001    0.7212400000000000    0.9923649999999999 C
   0.2365700000000000    0.6833700000000000    0.9514150000000000 C
   0.2168700000000000    0.8143500000000000    0.9876700000000000 C
   0.1311000000000000    0.8829700000000000    0.0728900000000000 C
   0.0922400000000000    0.8941600000000000    0.9975350000000001 C
   0.3175300000000000    0.4372400000000000    0.3899450000000000 C
   0.5998000000000000    0.3426000000000000    0.4219400000000000 C
   0.3783100000000000    0.2562200000000000    0.5386600000000000 C
   0.9678800000000000    0.2212100000000000    0.5076200000000000 C
   0.2634300000000000    0.1833800000000000    0.5485300000000000 C
   0.0709500000000000    0.2960300000000000    0.5000000000000000 C
   0.2829100000000000    0.3144100000000000    0.5123100000000000 C
   0.3687100000000000    0.3830800000000000    0.4270950000000000 C
   0.4074600000000000    0.3942800000000000    0.5024600000000000 C
   0.8173000000000000    0.5634100000000000    0.3600650000000000 C
   0.0997100000000000    0.6578800000000000    0.3280150000000000 C
   0.5706300000000000    0.7042700000000000    0.2530550000000000 C
   0.8780600000000000    0.7440099999999999    0.2112750000000000 C
   0.4677300000000000    0.7791100000000000    0.2422850000000000 C
   0.7633799999999999    0.8168700000000000    0.2013950000000000 C
   0.7825299999999999    0.6858500000000000    0.2376300000000000 C
   0.8684900000000000    0.6174600000000000    0.3228800000000000 C
   0.9068900000000000    0.6059900000000000    0.2475100000000000 C
   0.1823900000000000    0.9371300000000000    0.6100449999999999 C
   0.8999500000000000    0.8425000000000000    0.5780550000000000 C
   0.4287900000000000    0.7960100000000000    0.5031300000000000 C
   0.1216000000000000    0.7561600000000001    0.4612900000000000 C
   0.5319700000000001    0.7212400000000000    0.4923650000000000 C
   0.2365700000000000    0.6833700000000000    0.4514150000000000 C
   0.2168700000000000    0.8143500000000000    0.4876700000000000 C
   0.1311000000000000    0.8829700000000000    0.5728900000000000 C
   0.0922400000000000    0.8941600000000000    0.4975350000000000 C
   0.0606800000000000    0.1656800000000000    0.0332150000000000 N
   0.3603000000000000    0.4352800000000000    0.9636950000000000 N
   0.5606900000000000    0.8346100000000000    0.7166950000000000 N
   0.8598600000000000    0.5651400000000000    0.7863150000000000 N
   0.9393100000000000    0.3346900000000000    0.2832700000000000 N
   0.6402600000000001    0.0650800000000000    0.2136700000000000 N
   0.4392700000000000    0.6657000000000000    0.9667450000000000 N
   0.1395300000000000    0.9351699999999999    0.0362900000000000 N
   0.0606800000000000    0.1656800000000000    0.5332150000000000 N
   0.3603000000000000    0.4352800000000000    0.4636950000000000 N
   0.5606900000000000    0.8346100000000000    0.2166950000000000 N
   0.8598600000000000    0.5651400000000000    0.2863150000000000 N
   0.4392700000000000    0.6657000000000000    0.4667450000000000 N
   0.1395300000000000    0.9351699999999999    0.5362900000000000 N
   0.4219900000000000    0.4620600000000000    0.2475900000000000 Cl
   0.4219900000000000    0.4620600000000000    0.7475900000000000 Cl
   0.0780800000000000    0.9620000000000000    0.2524000000000000 Cl
   0.5775200000000000    0.0382600000000000    0.4975800000000000 Cl
   0.5775200000000000    0.0382600000000000    0.9975800000000000 Cl
   0.9223900000000000    0.5383300000000000    0.0024150000000000 Cl
   0.9223900000000000    0.5383300000000000    0.5024149999999999 Cl
   0.0780800000000000    0.9620000000000000    0.7524000000000000 Cl
   0.9393100000000000    0.3346900000000000    0.7832700000000000 O
   0.2794000000000000    0.3972700000000000    0.8578150000000000 O
   0.3244600000000000    0.5166400000000000    0.8941900000000000 O
   0.7766900000000000    0.4026700000000000    0.9233350000000000 O
   0.7791100000000000    0.6034600000000000    0.8921700000000000 O
   0.8244100000000000    0.4840100000000000    0.8558550000000000 O
   0.2763400000000000    0.5977300000000000    0.8266700000000000 O
   0.7209100000000001    0.1033200000000000    0.1078150000000000 O
   0.6755900000000000    0.9838700000000000    0.1441400000000000 O
   0.2237900000000000    0.0976900000000000    0.1733200000000000 O
   0.2205200000000000    0.8971400000000000    0.1421700000000000 O
   0.1755200000000000    0.0165400000000000    0.1058050000000000 O
   0.7231900000000000    0.9025800000000000    0.0766500000000000 O
   0.2794000000000000    0.3972700000000000    0.3578150000000000 O
   0.3244600000000000    0.5166400000000000    0.3941900000000000 O
   0.7766900000000000    0.4026700000000000    0.4233350000000000 O
   0.7791100000000000    0.6034600000000000    0.3921700000000000 O
   0.8244100000000000    0.4840100000000000    0.3558550000000000 O
   0.2763400000000000    0.5977300000000000    0.3266700000000000 O
   0.7209100000000001    0.1033200000000000    0.6078150000000000 O
   0.6402600000000001    0.0650800000000000    0.7136700000000000 O
   0.2237900000000000    0.0976899999999999    0.6733200000000000 O
   0.6755900000000000    0.9838700000000000    0.6441399999999999 O
   0.2205200000000000    0.8971400000000000    0.6421700000000000 O
   0.1755200000000000    0.0165400000000000    0.6058050000000000 O
   0.7231900000000000    0.9025800000000000    0.5766500000000000 O
