H11 C9 N2 O3
1.0
   5.9959997945203209    0.0000000000000000   -0.0015697491113118
  -0.0041749149326150   15.9469994535048922    0.0000000000000010
   0.0000000000000000    0.0000000000000000   33.3239999999999981
H C N O
11 9 2 3
direct
   0.4571700000000000    0.2333600000000000    0.8015650000000001 H
   0.6647600000000000    0.3633100000000000    0.8187450000000001 H
   0.1945800000000000    0.2972400000000000    0.7455849999999999 H
   0.0134300000000000    0.1610100000000000    0.7266049999999999 H
   0.7919500000000000    0.0344300000000000    0.7156600000000000 H
   0.4127300000000000    0.1169200000000000    0.7551550000000000 H
   0.6339300000000000    0.0590200000000000    0.7755850000000000 H
   0.7556500000000000    0.1683600000000000    0.6774600000000000 H
   0.3999500000000000    0.1927300000000000    0.6434900000000000 H
   0.3720400000000000    0.2031400000000000    0.6962900000000000 H
   0.2019900000000000    0.0716900000000000    0.6457550000000000 H
   0.6219700000000000    0.2440100000000000    0.7886900000000000 C
   0.7175300000000000    0.1858700000000000    0.7623350000000000 C
   0.7366300000000000    0.3169000000000000    0.7985700000000000 C
   0.0322800000000000    0.2792100000000000    0.7576800000000000 C
   0.9294200000000000    0.2043400000000000    0.7469100000000000 C
   0.5931900000000000    0.1059700000000000    0.7524649999999999 C
   0.6317199999999999    0.1173600000000000    0.6771000000000000 C
   0.4005700000000000    0.1578100000000000    0.6719550000000000 C
   0.6827500000000000    0.0632900000000000    0.6399200000000000 C
   0.9393100000000000    0.3346900000000000    0.7832700000000000 N
   0.6402600000000001    0.0650800000000000    0.7136700000000000 N
   0.6755900000000000    0.9838700000000000    0.6441399999999999 O
   0.2237900000000000    0.0976900000000000    0.6733200000000000 O
   0.7209100000000001    0.1033200000000000    0.6078150000000000 O
