H9 O5
1.0
   5.9959997945203209    0.0000000000000000   -0.0015697491113118
  -0.0041749149326150   15.9469994535048922    0.0000000000000010
   0.0000000000000000    0.0000000000000000   33.3239999999999981
H O
9 5
direct
   0.7921920331639092    0.3217768924905562    0.7943757079760815 H
   1.0067238201425073    0.2944606922501205    0.7647143405674222 H
   0.2027977304744701    0.0726533482723038    0.6467763344279251 H
   0.3447804067686549    0.1388368676034140    0.6723857772076071 H
   0.7873949008733141    0.1575179691788438    0.6021914219583613 H
   0.8646233091277923    0.1379684693863809    0.6281507520296228 H
   0.7891648150764548    1.0112522482212916    0.6602110882674845 H
   0.6090384947334762    0.0922023146451701    0.7394027022905203 H
   0.7837098664762083    0.0360949752291134    0.7155518988350429 H
   0.9393100000000000    0.3346900000000000    0.7832700000000000 O
   0.2237900000000000    0.0976899999999999    0.6733200000000000 O
   0.7209100000000001    0.1033200000000000    0.6078150000000000 O
   0.6755900000000000    0.9838700000000000    0.6441399999999999 O
   0.6402600000000001    0.0650800000000000    0.7136700000000000 O
