H8 C14 N2 O5
1.0
  27.6079951390908178    0.0000000000000000    0.0163829160347749
  -0.0696019491316539   26.2110888584278925   -8.8969869295326198
   0.0000000000000000    0.0000000000000000   27.8440000000000012
H C N O
8 14 2 5
direct
   0.1355000000000000    0.4966400000000000    0.6163450000000000 H
   0.1929500000000000    0.7078900000000000    0.6720100000000000 H
   0.2105950000000000    0.6360399999999999    0.6929100000000000 H
   0.0927650000000000    0.6360700000000000    0.5908100000000001 H
   0.2575700000000000    0.8534250000000000    0.6727550000000000 H
   0.2281900000000000    0.7638000000000000    0.6401749999999999 H
   0.0845600000000000    0.8200250000000000    0.6904100000000000 H
   0.1211100000000000    0.9083049999999999    0.7234450000000000 H
   0.1527900000000000    0.6423350000000000    0.6422050000000000 C
   0.1823850000000000    0.6162650000000000    0.6663950000000000 C
   0.1758250000000000    0.5640950000000000    0.6577500000000001 C
   0.1403500000000000    0.5373750000000000    0.6235050000000000 C
   0.1107400000000000    0.5635100000000000    0.5994850000000000 C
   0.1163650000000000    0.6160750000000000    0.6091400000000000 C
   0.1314950000000000    0.7319700000000000    0.6463950000000001 C
   0.2197700000000000    0.8440250000000000    0.6767450000000000 C
   0.2027550000000000    0.7940849999999999    0.6588950000000000 C
   0.1535000000000000    0.7845800000000001    0.6642000000000000 C
   0.1231450000000000    0.8261900000000000    0.6866000000000000 C
   0.1429750000000000    0.8748899999999999    0.7043850000000000 C
   0.2059750000000000    0.5383800000000000    0.6874250000000000 C
   0.0717650000000000    0.5362500000000000    0.5631550000000000 C
   0.1618400000000000    0.6949900000000000    0.6523450000000000 N
   0.1905700000000000    0.8836999999999999    0.6996500000000000 N
   0.1936150000000000    0.4933700000000000    0.6852350000000000 O
   0.0793050000000000    0.4900400000000000    0.5366200000000000 O
   0.0900000000000000    0.7245900000000001    0.6250000000000000 O
   0.2407250000000000    0.5643350000000000    0.7132000000000001 O
   0.0342900000000000    0.5624500000000000    0.5617400000000000 O
