Cd90 H422 C885 O360
1.0
  38.4385174055875609    0.0000000000000000    3.5813970263491246
   6.1220653748559677   27.6424163945149317   11.3539045010182065
   0.0000000000000000    0.0000000000000000   26.9259999999999984
Cd H C O
90 422 885 360
direct
   0.9999960000000001    0.8333233333333333    0.5000200000000000 Cd
   0.0709140000000000    0.0530800000000000    0.0234100000000000 Cd
   0.9290840000000000    0.6135466666666667    0.9766300000000000 Cd
   0.7999960000000002    0.4999900000000000    0.5000200000000000 Cd
   0.8709140000000001    0.7197466666666666    0.0234100000000000 Cd
   0.7290840000000001    0.2802133333333333    0.9766300000000000 Cd
   0.5999960000000000    0.8333233333333333    0.5000200000000000 Cd
   0.6709140000000001    0.0530800000000000    0.0234100000000000 Cd
   0.5290840000000000    0.6135466666666667    0.9766300000000000 Cd
   0.7999960000000002    0.1666566666666667    0.5000200000000000 Cd
   0.7290840000000001    0.9468799999999999    0.9766300000000000 Cd
   0.1999960000000000    0.1666566666666667    0.5000200000000000 Cd
   0.2709140000000000    0.3864133333333333    0.0234100000000000 Cd
   0.1290840000000000    0.9468799999999999    0.9766300000000000 Cd
   0.3999960000000000    0.4999900000000000    0.5000200000000000 Cd
   0.4709140000000001    0.7197466666666666    0.0234100000000000 Cd
   0.3290840000000000    0.2802133333333333    0.9766300000000000 Cd
   0.3999960000000000    0.1666566666666667    0.5000200000000000 Cd
   0.4709140000000001    0.3864133333333333    0.0234100000000000 Cd
   0.3290840000000000    0.9468799999999999    0.9766300000000000 Cd
   0.1999960000000000    0.8333233333333333    0.5000200000000000 Cd
   0.2709140000000000    0.0530800000000000    0.0234100000000000 Cd
   0.1290840000000000    0.6135466666666667    0.9766300000000000 Cd
   0.1999960000000000    0.1666566666666667    0.0000200000000000 Cd
   0.2709140000000000    0.3864133333333333    0.5234100000000000 Cd
   0.1290840000000000    0.9468799999999999    0.4766300000000000 Cd
   0.3999960000000000    0.4999900000000000    0.0000200000000000 Cd
   0.4709140000000001    0.7197466666666666    0.5234100000000000 Cd
   0.3290840000000000    0.2802133333333333    0.4766300000000000 Cd
   0.9999960000000001    0.8333233333333333    0.0000200000000000 Cd
   0.0709140000000000    0.0530800000000000    0.5234100000000000 Cd
   0.9290840000000000    0.6135466666666667    0.4766300000000000 Cd
   0.7999960000000002    0.4999900000000000    0.0000200000000000 Cd
   0.8709140000000001    0.7197466666666666    0.5234100000000000 Cd
   0.7290840000000001    0.2802133333333333    0.4766300000000000 Cd
   0.3999960000000000    0.8333233333333333    0.0000200000000000 Cd
   0.4709140000000001    0.0530800000000000    0.5234100000000000 Cd
   0.3290840000000000    0.6135466666666667    0.4766300000000000 Cd
   0.5999960000000000    0.1666566666666667    0.0000200000000000 Cd
   0.6709140000000001    0.3864133333333333    0.5234100000000000 Cd
   0.5290840000000000    0.9468799999999999    0.4766300000000000 Cd
   0.3999960000000000    0.1666566666666667    0.0000200000000000 Cd
   0.4709140000000001    0.3864133333333333    0.5234100000000000 Cd
   0.3290840000000000    0.9468799999999999    0.4766300000000000 Cd
   0.1999960000000000    0.4999900000000000    0.0000200000000000 Cd
   0.2709140000000000    0.7197466666666666    0.5234100000000000 Cd
   0.1290840000000000    0.2802133333333333    0.4766300000000000 Cd
   0.5999960000000000    0.4999900000000000    0.0000200000000000 Cd
   0.6709140000000001    0.7197466666666666    0.5234100000000000 Cd
   0.5290840000000000    0.2802133333333333    0.4766300000000000 Cd
   0.7999960000000002    0.8333233333333333    0.0000200000000000 Cd
   0.8709140000000001    0.0530800000000000    0.5234100000000000 Cd
   0.7290840000000001    0.6135466666666667    0.4766300000000000 Cd
   0.9999960000000001    0.4999900000000000    0.5000200000000000 Cd
   0.0709140000000000    0.7197466666666666    0.0234100000000000 Cd
   0.9290840000000000    0.2802133333333333    0.9766300000000000 Cd
   0.9999960000000001    0.1666566666666667    0.0000200000000000 Cd
   0.0709140000000000    0.3864133333333333    0.5234100000000000 Cd
   0.8709140000000001    0.3864133333333333    0.0234100000000000 Cd
   0.9290840000000000    0.9468799999999999    0.4766300000000000 Cd
   0.1999960000000000    0.8333233333333333    0.0000200000000000 Cd
   0.2709140000000000    0.0530800000000000    0.5234100000000000 Cd
   0.1290840000000000    0.6135466666666667    0.4766300000000000 Cd
   0.5999960000000000    0.8333233333333333    0.0000200000000000 Cd
   0.6709140000000001    0.0530800000000000    0.5234100000000000 Cd
   0.5290840000000000    0.6135466666666667    0.4766300000000000 Cd
   0.9999960000000001    0.4999900000000000    0.0000200000000000 Cd
   0.0709140000000000    0.7197466666666666    0.5234100000000000 Cd
   0.9290840000000000    0.2802133333333333    0.4766300000000000 Cd
   0.7999960000000002    0.1666566666666667    0.0000200000000000 Cd
   0.8709140000000001    0.3864133333333333    0.5234100000000000 Cd
   0.7290840000000001    0.9468799999999999    0.4766300000000000 Cd
   0.3999960000000000    0.8333233333333333    0.5000200000000000 Cd
   0.4709140000000001    0.0530800000000000    0.0234100000000000 Cd
   0.3290840000000000    0.6135466666666667    0.9766300000000000 Cd
   0.5999960000000000    0.1666566666666667    0.5000200000000000 Cd
   0.6709140000000001    0.3864133333333333    0.0234100000000000 Cd
   0.5290840000000000    0.9468799999999999    0.9766300000000000 Cd
   0.1999960000000000    0.4999900000000000    0.5000200000000000 Cd
   0.2709140000000000    0.7197466666666666    0.0234100000000000 Cd
   0.1290840000000000    0.2802133333333333    0.9766300000000000 Cd
   0.9999960000000001    0.1666566666666667    0.5000200000000000 Cd
   0.0709140000000000    0.3864133333333333    0.0234100000000000 Cd
   0.9290840000000000    0.9468799999999999    0.9766300000000000 Cd
   0.5999960000000000    0.4999900000000000    0.5000200000000000 Cd
   0.6709140000000001    0.7197466666666666    0.0234100000000000 Cd
   0.5290840000000000    0.2802133333333333    0.9766300000000000 Cd
   0.7999960000000002    0.8333233333333333    0.5000200000000000 Cd
   0.8709140000000001    0.0530800000000000    0.0234100000000000 Cd
   0.7290840000000001    0.6135466666666667    0.9766300000000000 Cd
   0.8539599979816054    0.0836854705173533    0.4092855151235980 H
   0.0626460000000000    0.7699033333333333    0.1823100000000000 H
   0.0559060000000000    0.9187299999999999    0.1634550000000000 H
   0.0691020000000000    0.8774633333333333    0.0260200000000000 H
   0.0134640000000000    0.8841566666666666    0.3281950000000000 H
   0.0224200000000000    0.9026099999999999    0.2310550000000000 H
   0.0685620000000000    0.7368933333333333    0.3600400000000000 H
   0.0801860000000000    0.7555700000000000    0.2631650000000000 H
   0.9373480000000001    0.8967299999999999    0.8177200000000000 H
   0.9440760000000000    0.7479033333333333    0.8365800000000000 H
   0.9308780000000001    0.7891800000000000    0.9740100000000000 H
   0.9865280000000001    0.7824733333333334    0.6718350000000000 H
   0.9775660000000000    0.7640166666666666    0.7689750000000000 H
   0.9314320000000000    0.9297366666666667    0.6399900000000001 H
   0.9198040000000001    0.9110600000000000    0.7368650000000000 H
   0.8626460000000000    0.4365700000000000    0.1823100000000000 H
   0.8559060000000001    0.5853966666666666    0.1634550000000000 H
   0.8691020000000000    0.5441300000000000    0.0260200000000000 H
   0.8134640000000001    0.5508233333333333    0.3281950000000000 H
   0.8224200000000000    0.5692766666666667    0.2310550000000000 H
   0.8685620000000001    0.4035600000000000    0.3600400000000000 H
   0.8801860000000000    0.4222366666666666    0.2631650000000000 H
   0.7373480000000001    0.5633966666666667    0.8177200000000000 H
   0.7440760000000001    0.4145700000000000    0.8365800000000000 H
   0.7308780000000001    0.4558466666666666    0.9740100000000000 H
   0.7865280000000001    0.4491400000000000    0.6718350000000000 H
   0.7775660000000001    0.4306833333333333    0.7689750000000000 H
   0.7314320000000001    0.5964033333333333    0.6399900000000001 H
   0.7198040000000001    0.5777266666666667    0.7368650000000000 H
   0.6626460000000001    0.7699033333333333    0.1823100000000000 H
   0.6559060000000001    0.9187299999999999    0.1634550000000000 H
   0.6691020000000001    0.8774633333333333    0.0260200000000000 H
   0.6134640000000001    0.8841566666666666    0.3281950000000000 H
   0.6224200000000001    0.9026099999999999    0.2310550000000000 H
   0.6685620000000001    0.7368933333333333    0.3600400000000000 H
   0.6801860000000001    0.7555700000000000    0.2631650000000000 H
   0.5373480000000000    0.8967299999999999    0.8177200000000000 H
   0.5440760000000000    0.7479033333333333    0.8365800000000000 H
   0.5308780000000001    0.7891800000000000    0.9740100000000000 H
   0.5865280000000000    0.7824733333333334    0.6718350000000000 H
   0.5775660000000000    0.7640166666666666    0.7689750000000000 H
   0.5314320000000000    0.9297366666666667    0.6399900000000001 H
   0.5198040000000000    0.9110600000000000    0.7368650000000000 H
   0.8249336539501674    0.1715594961932043    0.3848549532259939 H
   0.7373480000000001    0.2300633333333333    0.8177200000000000 H
   0.7440760000000001    0.0812366666666667    0.8365800000000000 H
   0.7308780000000001    0.1225133333333333    0.9740100000000000 H
   0.7865280000000001    0.1158066666666667    0.6718350000000000 H
   0.7775660000000001    0.0973500000000000    0.7689750000000000 H
   0.7314320000000001    0.2630700000000000    0.6399900000000001 H
   0.7198040000000001    0.2443933333333334    0.7368650000000000 H
   0.2626460000000000    0.1032366666666667    0.1823100000000000 H
   0.2559060000000000    0.2520633333333333    0.1634550000000000 H
   0.2691020000000000    0.2107966666666667    0.0260200000000000 H
   0.2134640000000000    0.2174900000000000    0.3281950000000000 H
   0.2224200000000000    0.2359433333333333    0.2310550000000000 H
   0.2685620000000000    0.0702266666666667    0.3600400000000000 H
   0.2801860000000000    0.0889033333333333    0.2631650000000000 H
   0.1373480000000000    0.2300633333333333    0.8177200000000000 H
   0.1440760000000000    0.0812366666666667    0.8365800000000000 H
   0.1308780000000000    0.1225133333333333    0.9740100000000000 H
   0.1865280000000000    0.1158066666666667    0.6718350000000000 H
   0.1775660000000000    0.0973500000000000    0.7689750000000000 H
   0.1314320000000000    0.2630700000000000    0.6399900000000001 H
   0.1198040000000000    0.2443933333333334    0.7368650000000000 H
   0.4626460000000000    0.4365700000000000    0.1823100000000000 H
   0.4559060000000000    0.5853966666666666    0.1634550000000000 H
   0.4691020000000000    0.5441300000000000    0.0260200000000000 H
   0.4134640000000000    0.5508233333333333    0.3281950000000000 H
   0.4224200000000000    0.5692766666666667    0.2310550000000000 H
   0.4685620000000000    0.4035600000000000    0.3600400000000000 H
   0.4801860000000000    0.4222366666666666    0.2631650000000000 H
   0.3373480000000000    0.5633966666666667    0.8177200000000000 H
   0.3440760000000000    0.4145700000000000    0.8365800000000000 H
   0.3308780000000000    0.4558466666666666    0.9740100000000000 H
   0.3865280000000000    0.4491400000000000    0.6718350000000000 H
   0.3775660000000000    0.4306833333333333    0.7689750000000000 H
   0.3314320000000000    0.5964033333333333    0.6399900000000001 H
   0.3198040000000000    0.5777266666666667    0.7368650000000000 H
   0.4626460000000000    0.1032366666666667    0.1823100000000000 H
   0.4559060000000000    0.2520633333333333    0.1634550000000000 H
   0.4691020000000000    0.2107966666666667    0.0260200000000000 H
   0.4134640000000000    0.2174900000000000    0.3281950000000000 H
   0.4224200000000000    0.2359433333333333    0.2310550000000000 H
   0.4685620000000000    0.0702266666666667    0.3600400000000000 H
   0.4801860000000000    0.0889033333333333    0.2631650000000000 H
   0.3373480000000000    0.2300633333333333    0.8177200000000000 H
   0.3440760000000000    0.0812366666666667    0.8365800000000000 H
   0.3308780000000000    0.1225133333333333    0.9740100000000000 H
   0.3865280000000000    0.1158066666666667    0.6718350000000000 H
   0.3775660000000000    0.0973500000000000    0.7689750000000000 H
   0.3314320000000000    0.2630700000000000    0.6399900000000001 H
   0.3198040000000000    0.2443933333333334    0.7368650000000000 H
   0.2626460000000000    0.7699033333333333    0.1823100000000000 H
   0.2559060000000000    0.9187299999999999    0.1634550000000000 H
   0.2691020000000000    0.8774633333333333    0.0260200000000000 H
   0.2134640000000000    0.8841566666666666    0.3281950000000000 H
   0.2224200000000000    0.9026099999999999    0.2310550000000000 H
   0.2685620000000000    0.7368933333333333    0.3600400000000000 H
   0.2801860000000000    0.7555700000000000    0.2631650000000000 H
   0.1373480000000000    0.8967299999999999    0.8177200000000000 H
   0.1440760000000000    0.7479033333333333    0.8365800000000000 H
   0.1308780000000000    0.7891800000000000    0.9740100000000000 H
   0.1865280000000000    0.7824733333333334    0.6718350000000000 H
   0.1775660000000000    0.7640166666666666    0.7689750000000000 H
   0.1314320000000000    0.9297366666666667    0.6399900000000001 H
   0.1198040000000000    0.9110600000000000    0.7368650000000000 H
   0.2626460000000000    0.1032366666666667    0.6823100000000000 H
   0.2559060000000000    0.2520633333333333    0.6634550000000000 H
   0.2691020000000000    0.2107966666666667    0.5260200000000000 H
   0.2134640000000000    0.2174900000000000    0.8281950000000000 H
   0.2224200000000000    0.2359433333333333    0.7310550000000000 H
   0.2685620000000000    0.0702266666666667    0.8600400000000000 H
   0.2801860000000000    0.0889033333333333    0.7631650000000000 H
   0.1373480000000000    0.2300633333333333    0.3177200000000000 H
   0.1440760000000000    0.0812366666666667    0.3365800000000000 H
   0.1308780000000000    0.1225133333333333    0.4740100000000000 H
   0.1865280000000000    0.1158066666666667    0.1718350000000000 H
   0.1775660000000000    0.0973500000000000    0.2689750000000000 H
   0.1314320000000000    0.2630700000000000    0.1399900000000000 H
   0.1198040000000000    0.2443933333333334    0.2368650000000000 H
   0.4626460000000000    0.4365700000000000    0.6823100000000000 H
   0.4559060000000000    0.5853966666666666    0.6634550000000000 H
   0.4691020000000000    0.5441300000000000    0.5260200000000000 H
   0.4134640000000000    0.5508233333333333    0.8281950000000000 H
   0.4224200000000000    0.5692766666666667    0.7310550000000000 H
   0.4685620000000000    0.4035600000000000    0.8600400000000000 H
   0.4801860000000000    0.4222366666666666    0.7631650000000000 H
   0.3373480000000000    0.5633966666666667    0.3177200000000000 H
   0.3440760000000000    0.4145700000000000    0.3365800000000000 H
   0.3308780000000000    0.4558466666666666    0.4740100000000000 H
   0.3865280000000000    0.4491400000000000    0.1718350000000000 H
   0.3775660000000000    0.4306833333333333    0.2689750000000000 H
   0.3314320000000000    0.5964033333333333    0.1399900000000000 H
   0.3198040000000000    0.5777266666666667    0.2368650000000000 H
   0.0626460000000000    0.7699033333333333    0.6823100000000000 H
   0.0559060000000000    0.9187299999999999    0.6634550000000000 H
   0.0691020000000000    0.8774633333333333    0.5260200000000000 H
   0.0134640000000000    0.8841566666666666    0.8281950000000000 H
   0.0224200000000000    0.9026099999999999    0.7310550000000000 H
   0.0685620000000000    0.7368933333333333    0.8600400000000000 H
   0.0801860000000000    0.7555700000000000    0.7631650000000000 H
   0.9373480000000001    0.8967299999999999    0.3177200000000000 H
   0.9440760000000000    0.7479033333333333    0.3365800000000000 H
   0.9308780000000001    0.7891800000000000    0.4740100000000000 H
   0.9865280000000001    0.7824733333333334    0.1718350000000000 H
   0.9775660000000000    0.7640166666666666    0.2689750000000000 H
   0.9314320000000000    0.9297366666666667    0.1399900000000000 H
   0.9198040000000001    0.9110600000000000    0.2368650000000000 H
   0.8626460000000000    0.4365700000000000    0.6823100000000000 H
   0.8559060000000001    0.5853966666666666    0.6634550000000000 H
   0.8691020000000000    0.5441300000000000    0.5260200000000000 H
   0.8134640000000001    0.5508233333333333    0.8281950000000000 H
   0.8224200000000000    0.5692766666666667    0.7310550000000000 H
   0.8685620000000001    0.4035600000000000    0.8600400000000000 H
   0.8801860000000000    0.4222366666666666    0.7631650000000000 H
   0.7373480000000001    0.5633966666666667    0.3177200000000000 H
   0.7440760000000001    0.4145700000000000    0.3365800000000000 H
   0.7308780000000001    0.4558466666666666    0.4740100000000000 H
   0.7865280000000001    0.4491400000000000    0.1718350000000000 H
   0.7775660000000001    0.4306833333333333    0.2689750000000000 H
   0.7314320000000001    0.5964033333333333    0.1399900000000000 H
   0.7198040000000001    0.5777266666666667    0.2368650000000000 H
   0.4626460000000000    0.7699033333333333    0.6823100000000000 H
   0.4559060000000000    0.9187299999999999    0.6634550000000000 H
   0.4691020000000000    0.8774633333333333    0.5260200000000000 H
   0.4134640000000000    0.8841566666666666    0.8281950000000000 H
   0.4224200000000000    0.9026099999999999    0.7310550000000000 H
   0.4685620000000000    0.7368933333333333    0.8600400000000000 H
   0.4801860000000000    0.7555700000000000    0.7631650000000000 H
   0.3373480000000000    0.8967299999999999    0.3177200000000000 H
   0.3440760000000000    0.7479033333333333    0.3365800000000000 H
   0.3308780000000000    0.7891800000000000    0.4740100000000000 H
   0.3865280000000000    0.7824733333333334    0.1718350000000000 H
   0.3775660000000000    0.7640166666666666    0.2689750000000000 H
   0.3314320000000000    0.9297366666666667    0.1399900000000000 H
   0.3198040000000000    0.9110600000000000    0.2368650000000000 H
   0.6626460000000001    0.1032366666666667    0.6823100000000000 H
   0.6559060000000001    0.2520633333333333    0.6634550000000000 H
   0.6691020000000001    0.2107966666666667    0.5260200000000000 H
   0.6134640000000001    0.2174900000000000    0.8281950000000000 H
   0.6224200000000001    0.2359433333333333    0.7310550000000000 H
   0.6685620000000001    0.0702266666666667    0.8600400000000000 H
   0.6801860000000001    0.0889033333333333    0.7631650000000000 H
   0.5373480000000000    0.2300633333333333    0.3177200000000000 H
   0.5440760000000000    0.0812366666666667    0.3365800000000000 H
   0.5308780000000001    0.1225133333333333    0.4740100000000000 H
   0.5865280000000000    0.1158066666666667    0.1718350000000000 H
   0.5775660000000000    0.0973500000000000    0.2689750000000000 H
   0.5314320000000000    0.2630700000000000    0.1399900000000000 H
   0.5198040000000000    0.2443933333333334    0.2368650000000000 H
   0.4626460000000000    0.1032366666666667    0.6823100000000000 H
   0.4559060000000000    0.2520633333333333    0.6634550000000000 H
   0.4691020000000000    0.2107966666666667    0.5260200000000000 H
   0.4134640000000000    0.2174900000000000    0.8281950000000000 H
   0.4224200000000000    0.2359433333333333    0.7310550000000000 H
   0.4685620000000000    0.0702266666666667    0.8600400000000000 H
   0.4801860000000000    0.0889033333333333    0.7631650000000000 H
   0.3373480000000000    0.2300633333333333    0.3177200000000000 H
   0.3440760000000000    0.0812366666666667    0.3365800000000000 H
   0.3308780000000000    0.1225133333333333    0.4740100000000000 H
   0.3865280000000000    0.1158066666666667    0.1718350000000000 H
   0.3775660000000000    0.0973500000000000    0.2689750000000000 H
   0.3314320000000000    0.2630700000000000    0.1399900000000000 H
   0.3198040000000000    0.2443933333333334    0.2368650000000000 H
   0.2626460000000000    0.4365700000000000    0.6823100000000000 H
   0.2559060000000000    0.5853966666666666    0.6634550000000000 H
   0.2691020000000000    0.5441300000000000    0.5260200000000000 H
   0.2134640000000000    0.5508233333333333    0.8281950000000000 H
   0.2224200000000000    0.5692766666666667    0.7310550000000000 H
   0.2685620000000000    0.4035600000000000    0.8600400000000000 H
   0.2801860000000000    0.4222366666666666    0.7631650000000000 H
   0.1373480000000000    0.5633966666666667    0.3177200000000000 H
   0.1440760000000000    0.4145700000000000    0.3365800000000000 H
   0.1308780000000000    0.4558466666666666    0.4740100000000000 H
   0.1865280000000000    0.4491400000000000    0.1718350000000000 H
   0.1775660000000000    0.4306833333333333    0.2689750000000000 H
   0.1314320000000000    0.5964033333333333    0.1399900000000000 H
   0.1198040000000000    0.5777266666666667    0.2368650000000000 H
   0.6626460000000001    0.4365700000000000    0.6823100000000000 H
   0.6559060000000001    0.5853966666666666    0.6634550000000000 H
   0.6691020000000001    0.5441300000000000    0.5260200000000000 H
   0.6134640000000001    0.5508233333333333    0.8281950000000000 H
   0.6224200000000001    0.5692766666666667    0.7310550000000000 H
   0.6685620000000001    0.4035600000000000    0.8600400000000000 H
   0.6801860000000001    0.4222366666666666    0.7631650000000000 H
   0.5373480000000000    0.5633966666666667    0.3177200000000000 H
   0.5440760000000000    0.4145700000000000    0.3365800000000000 H
   0.5308780000000001    0.4558466666666666    0.4740100000000000 H
   0.5865280000000000    0.4491400000000000    0.1718350000000000 H
   0.5775660000000000    0.4306833333333333    0.2689750000000000 H
   0.5314320000000000    0.5964033333333333    0.1399900000000000 H
   0.5198040000000000    0.5777266666666667    0.2368650000000000 H
   0.8626460000000000    0.7699033333333333    0.6823100000000000 H
   0.8559060000000001    0.9187299999999999    0.6634550000000000 H
   0.8691020000000000    0.8774633333333333    0.5260200000000000 H
   0.8134640000000001    0.8841566666666666    0.8281950000000000 H
   0.8224200000000000    0.9026099999999999    0.7310550000000000 H
   0.8685620000000001    0.7368933333333333    0.8600400000000000 H
   0.8801860000000000    0.7555700000000000    0.7631650000000000 H
   0.7373480000000001    0.8967299999999999    0.3177200000000000 H
   0.7440760000000001    0.7479033333333333    0.3365800000000000 H
   0.7308780000000001    0.7891800000000000    0.4740100000000000 H
   0.7865280000000001    0.7824733333333334    0.1718350000000000 H
   0.7775660000000001    0.7640166666666666    0.2689750000000000 H
   0.7314320000000001    0.9297366666666667    0.1399900000000000 H
   0.7198040000000001    0.9110600000000000    0.2368650000000000 H
   0.0626460000000000    0.4365700000000000    0.1823100000000000 H
   0.0559060000000000    0.5853966666666666    0.1634550000000000 H
   0.0691020000000000    0.5441300000000000    0.0260200000000000 H
   0.0134640000000000    0.5508233333333333    0.3281950000000000 H
   0.0224200000000000    0.5692766666666667    0.2310550000000000 H
   0.0685620000000000    0.4035600000000000    0.3600400000000000 H
   0.0801860000000000    0.4222366666666666    0.2631650000000000 H
   0.9373480000000001    0.5633966666666667    0.8177200000000000 H
   0.9440760000000000    0.4145700000000000    0.8365800000000000 H
   0.9308780000000001    0.4558466666666666    0.9740100000000000 H
   0.9865280000000001    0.4491400000000000    0.6718350000000000 H
   0.9775660000000000    0.4306833333333333    0.7689750000000000 H
   0.9314320000000000    0.5964033333333333    0.6399900000000001 H
   0.9198040000000001    0.5777266666666667    0.7368650000000000 H
   0.8837996428282751    0.2669099127613614    0.0354889579540963 H
   0.8586570088083020    0.3017940468126987    0.1181741805831636 H
   0.8836666718708889    0.2327582582603333    0.1541379983289691 H
   0.0626460000000000    0.1032366666666667    0.6823100000000000 H
   0.0559060000000000    0.2520633333333333    0.6634550000000000 H
   0.0691020000000000    0.2107966666666667    0.5260200000000000 H
   0.0134640000000000    0.2174900000000000    0.8281950000000000 H
   0.0224200000000000    0.2359433333333333    0.7310550000000000 H
   0.0685620000000000    0.0702266666666667    0.8600400000000000 H
   0.0801860000000000    0.0889033333333333    0.7631650000000000 H
   0.9373480000000001    0.2300633333333333    0.3177200000000000 H
   0.9440760000000000    0.0812366666666667    0.3365800000000000 H
   0.9308780000000001    0.1225133333333333    0.4740100000000000 H
   0.9865280000000001    0.1158066666666667    0.1718350000000000 H
   0.9775660000000000    0.0973500000000000    0.2689750000000000 H
   0.9314320000000000    0.2630700000000000    0.1399900000000000 H
   0.9198040000000001    0.2443933333333334    0.2368650000000000 H
   0.2626460000000000    0.7699033333333333    0.6823100000000000 H
   0.2559060000000000    0.9187299999999999    0.6634550000000000 H
   0.2691020000000000    0.8774633333333333    0.5260200000000000 H
   0.2134640000000000    0.8841566666666666    0.8281950000000000 H
   0.2224200000000000    0.9026099999999999    0.7310550000000000 H
   0.2685620000000000    0.7368933333333333    0.8600400000000000 H
   0.2801860000000000    0.7555700000000000    0.7631650000000000 H
   0.1373480000000000    0.8967299999999999    0.3177200000000000 H
   0.1440760000000000    0.7479033333333333    0.3365800000000000 H
   0.1308780000000000    0.7891800000000000    0.4740100000000000 H
   0.1865280000000000    0.7824733333333334    0.1718350000000000 H
   0.1775660000000000    0.7640166666666666    0.2689750000000000 H
   0.1314320000000000    0.9297366666666667    0.1399900000000000 H
   0.1198040000000000    0.9110600000000000    0.2368650000000000 H
   0.6626460000000001    0.7699033333333333    0.6823100000000000 H
   0.6559060000000001    0.9187299999999999    0.6634550000000000 H
   0.6691020000000001    0.8774633333333333    0.5260200000000000 H
   0.6134640000000001    0.8841566666666666    0.8281950000000000 H
   0.6224200000000001    0.9026099999999999    0.7310550000000000 H
   0.6685620000000001    0.7368933333333333    0.8600400000000000 H
   0.6801860000000001    0.7555700000000000    0.7631650000000000 H
   0.5373480000000000    0.8967299999999999    0.3177200000000000 H
   0.5440760000000000    0.7479033333333333    0.3365800000000000 H
   0.5308780000000001    0.7891800000000000    0.4740100000000000 H
   0.5865280000000000    0.7824733333333334    0.1718350000000000 H
   0.5775660000000000    0.7640166666666666    0.2689750000000000 H
   0.5314320000000000    0.9297366666666667    0.1399900000000000 H
   0.5198040000000000    0.9110600000000000    0.2368650000000000 H
   0.0626460000000000    0.4365700000000000    0.6823100000000000 H
   0.0559060000000000    0.5853966666666666    0.6634550000000000 H
   0.0691020000000000    0.5441300000000000    0.5260200000000000 H
   0.0134640000000000    0.5508233333333333    0.8281950000000000 H
   0.0224200000000000    0.5692766666666667    0.7310550000000000 H
   0.0685620000000000    0.4035600000000000    0.8600400000000000 H
   0.0801860000000000    0.4222366666666666    0.7631650000000000 H
   0.9373480000000001    0.5633966666666667    0.3177200000000000 H
   0.9440760000000000    0.4145700000000000    0.3365800000000000 H
   0.9308780000000001    0.4558466666666666    0.4740100000000000 H
   0.9865280000000001    0.4491400000000000    0.1718350000000000 H
   0.9775660000000000    0.4306833333333333    0.2689750000000000 H
   0.9314320000000000    0.5964033333333333    0.1399900000000000 H
   0.9198040000000001    0.5777266666666667    0.2368650000000000 H
   0.8626460000000000    0.1032366666666667    0.6823100000000000 H
   0.8559060000000001    0.2520633333333333    0.6634550000000000 H
   0.8691020000000000    0.2107966666666667    0.5260200000000000 H
   0.8134640000000001    0.2174900000000000    0.8281950000000000 H
   0.8224200000000000    0.2359433333333333    0.7310550000000000 H
   0.8685620000000001    0.0702266666666667    0.8600400000000000 H
   0.8801860000000000    0.0889033333333333    0.7631650000000000 H
   0.7373480000000001    0.2300633333333333    0.3177200000000000 H
   0.7440760000000001    0.0812366666666667    0.3365800000000000 H
   0.7308780000000001    0.1225133333333333    0.4740100000000000 H
   0.7865280000000001    0.1158066666666667    0.1718350000000000 H
   0.7775660000000001    0.0973500000000000    0.2689750000000000 H
   0.7314320000000001    0.2630700000000000    0.1399900000000000 H
   0.7198040000000001    0.2443933333333334    0.2368650000000000 H
   0.8476255561568996    0.1624057708725929    0.0059729296256647 H
   0.8906635450057639    0.0573173306107847    0.1404859887854327 H
   0.8694424975436953    0.1110589833707921    0.0761916237017246 H
   0.9121262157903899    0.1141556922392539    0.1053970665917066 H
   0.4626460000000000    0.7699033333333333    0.1823100000000000 H
   0.4559060000000000    0.9187299999999999    0.1634550000000000 H
   0.4691020000000000    0.8774633333333333    0.0260200000000000 H
   0.4134640000000000    0.8841566666666666    0.3281950000000000 H
   0.4224200000000000    0.9026099999999999    0.2310550000000000 H
   0.4685620000000000    0.7368933333333333    0.3600400000000000 H
   0.4801860000000000    0.7555700000000000    0.2631650000000000 H
   0.3373480000000000    0.8967299999999999    0.8177200000000000 H