H7 C15 O6
1.0
  38.4385174055875609    0.0000000000000000    3.5813970263491246
   6.1220653748559677   27.6424163945149317   11.3539045010182065
   0.0000000000000000    0.0000000000000000   26.9259999999999984
H C O
7 15 6
direct
   0.8559060000000001    0.2520633333333333    0.1634550000000000 H
   0.8691020000000000    0.2107966666666667    0.0260200000000000 H
   0.8801860000000000    0.0889033333333333    0.2631650000000000 H
   0.8626460000000000    0.1032366666666667    0.1823100000000000 H
   0.8134640000000001    0.2174900000000000    0.3281950000000000 H
   0.8224200000000000    0.2359433333333333    0.2310550000000000 H
   0.8685620000000001    0.0702266666666667    0.3600400000000000 H
   0.8643860000000001    0.2872933333333333    0.0578800000000000 C
   0.8626660000000000    0.2363700000000000    0.0918550000000000 C
   0.8583740000000001    0.2237100000000000    0.1472450000000000 C
   0.8661120000000000    0.1532733333333333    0.1022900000000000 C
   0.8689420000000001    0.1153800000000000    0.0787900000000000 C
   0.8660880000000001    0.2011466666666666    0.0691250000000000 C
   0.8648980000000001    0.1172233333333333    0.2768550000000000 C
   0.8627740000000000    0.1407800000000000    0.1578450000000000 C
   0.8279300000000001    0.1895333333333333    0.3134700000000000 C
   0.8403980000000001    0.1427533333333333    0.3504100000000000 C
   0.8581080000000001    0.1759733333333333    0.1812000000000000 C
   0.8335280000000000    0.1998066666666666    0.2590100000000000 C
   0.8523680000000000    0.1640133333333333    0.2394800000000000 C
   0.8587980000000001    0.1065766666666667    0.3314700000000000 C
   0.8340180000000000    0.1321933333333333    0.4089400000000000 C
   0.8560680000000001    0.3189866666666666    0.0798650000000000 O
   0.8738360000000001    0.2980400000000000    0.0086750000000000 O
   0.8577740000000000    0.1296533333333333    0.0292800000000000 O
   0.8816380000000000    0.0717000000000000    0.1042000000000000 O
   0.8176140000000001    0.1688733333333333    0.4211350000000000 O
   0.8443140000000000    0.0892700000000000    0.4415100000000000 O
