H4 C6 N1 O2
1.0
  23.8180746712289420    0.0000000000000000    1.8000874855857094
   0.1944007913705825   14.3300659610874206    0.1328227510563092
   0.0000000000000000    0.0000000000000000   29.1419999999999995
H C N O
4 6 1 2
direct
   0.0675300000000000    0.3954200000000000    0.3901550000000000 H
   0.0304500000000000    0.2819700000000000    0.4511450000000000 H
   0.0000000000000000    0.1189500000000000    0.3439600000000000 H
   0.0055433333333333    0.2400500000000000    0.2868800000000000 H
   0.0452233333333333    0.3329900000000000    0.3812900000000000 C
   0.0245533333333333    0.2703800000000000    0.4149800000000000 C
   0.0000000000000000    0.1915600000000000    0.4019450000000000 C
   0.0000000000000000    0.1792200000000000    0.3550500000000000 C
   0.0112600000000000    0.2455700000000000    0.3235350000000000 C
   0.9696000000000000    0.1243300000000000    0.4371900000000000 C
   0.0387433333333333    0.3217300000000000    0.3360700000000000 N
   0.9480200000000000    1.0519600000000000    0.4216700000000000 O
   0.9699566666666666    0.1481700000000000    0.4792200000000000 O
