Zn48 H98 C95 O192
1.0
  20.1719889394643452    0.0000000000000000   -0.0211240651418843
  -0.0028675965892439   11.5948037764075398   -0.2256682598312030
   0.0000000000000000    0.0000000000000000   29.5859999999999985
Zn H C O
48 98 95 192
direct
   0.0000000000000000    0.0000000000000000    0.0000000000000000 Zn
   0.5375750000000000    0.7549300000000000    0.5646550000000000 Zn
   0.6936000000000000    0.7595499999999999    0.5953550000000000 Zn
   0.7499950000000000    0.0000000000000000    0.7499950000000000 Zn
   0.9624150000000000    0.2450700000000000    0.9353300000000000 Zn
   0.8063850000000000    0.2404500000000000    0.9046300000000000 Zn
   0.5000000000000000    0.0000000000000000    0.5000000000000000 Zn
   0.0375750000000000    0.7549300000000000    0.0646550000000000 Zn
   0.1936000000000000    0.7595499999999999    0.0953550000000000 Zn
   0.2499950000000000    0.0000000000000000    0.2499950000000000 Zn
   0.4624150000000000    0.2450700000000000    0.4353300000000000 Zn
   0.3063850000000000    0.2404500000000000    0.4046300000000000 Zn
   0.0000000000000000    0.0000000000000000    0.5000000000000000 Zn
   0.2499900000000000    0.5000000000000000    0.7499950000000000 Zn
   0.7117800000000000    0.2549200000000000    0.3146300000000000 Zn
   0.5561500000000000    0.2595700000000000    0.3452450000000000 Zn
   0.4999950000000000    0.5000000000000000    0.4999950000000000 Zn
   0.2882050000000000    0.7450900000000000    0.6853549999999999 Zn
   0.4438300000000000    0.7404400000000000    0.6547400000000000 Zn
   0.7499899999999999    0.5000000000000000    0.7499950000000000 Zn
   0.2117800000000000    0.2549200000000000    0.3146300000000000 Zn
   0.0561500000000000    0.2595700000000000    0.3452450000000000 Zn
   0.9999950000000000    0.5000000000000000    0.4999950000000000 Zn
   0.7882050000000000    0.7450900000000000    0.6853549999999999 Zn
   0.9438299999999999    0.7404400000000000    0.6547400000000000 Zn
   0.7499899999999999    0.5000000000000000    0.2499950000000000 Zn
   0.2499900000000000    0.5000000000000000    0.2499950000000000 Zn
   0.2117800000000000    0.2549200000000000    0.8146300000000000 Zn
   0.0561500000000000    0.2595700000000000    0.8452450000000000 Zn
   0.7117800000000000    0.2549200000000000    0.8146300000000000 Zn
   0.5561500000000000    0.2595700000000000    0.8452450000000000 Zn
   0.9999950000000000    0.5000000000000000    0.9999950000000000 Zn
   0.2882050000000000    0.7450900000000000    0.1853550000000000 Zn
   0.4438300000000000    0.7404400000000000    0.1547400000000000 Zn
   0.5375750000000000    0.7549300000000000    0.0646550000000000 Zn
   0.7882050000000000    0.7450900000000000    0.1853550000000000 Zn
   0.9438299999999999    0.7404400000000000    0.1547400000000000 Zn
   0.6936000000000000    0.7595499999999999    0.0953550000000000 Zn
   0.4999950000000000    0.5000000000000000    0.9999950000000000 Zn
   0.7499950000000000    0.0000000000000000    0.2499950000000000 Zn
   0.9624150000000000    0.2450700000000000    0.4353300000000000 Zn
   0.8063850000000000    0.2404500000000000    0.4046300000000000 Zn
   0.5000000000000000    0.0000000000000000    0.0000000000000000 Zn
   0.0375750000000000    0.7549300000000000    0.5646550000000000 Zn
   0.1936000000000000    0.7595499999999999    0.5953550000000000 Zn
   0.2499950000000000    0.0000000000000000    0.7499950000000000 Zn
   0.4624150000000000    0.2450700000000000    0.9353300000000000 Zn
   0.3063850000000000    0.2404500000000000    0.9046300000000000 Zn
   0.1011700000000000    0.0198300000000000    0.8824250000000000 H
   0.8988100000000000    0.9801800000000001    0.1175550000000000 H
   0.7266550000000001    0.0245700000000000    0.6141100000000000 H
   0.4181850000000000    0.6908600000000000    0.4601550000000000 H
   0.6465950000000000    0.0037800000000000    0.5061050000000000 H
   0.8736200000000001    0.6434600000000000    0.5638500000000000 H
   0.5536100000000000    0.0613900000000000    0.7712200000000000 H
   0.9463750000000000    0.9386200000000000    0.7287600000000000 H
   0.7733200000000000    0.9754200000000000    0.8858699999999999 H
   0.0818000000000000    0.3091400000000000    0.0398200000000000 H
   0.8533900000000000    0.9962200000000000    0.9938800000000000 H
   0.6263650000000001    0.3565500000000000    0.9361300000000000 H
   0.6011700000000000    0.0198300000000000    0.3824250000000000 H
   0.3988100000000000    0.9801800000000001    0.6175550000000000 H
   0.2266550000000000    0.0245700000000000    0.1141100000000000 H
   0.9181850000000000    0.6908600000000000    0.9601550000000000 H
   0.1465950000000000    0.0037800000000000    0.0061050000000000 H
   0.3736200000000000    0.6434600000000000    0.0638500000000000 H
   0.0536100000000000    0.0613900000000000    0.2712200000000000 H
   0.4463750000000000    0.9386200000000000    0.2287600000000000 H
   0.2733200000000000    0.9754200000000000    0.3858700000000000 H
   0.5818000000000000    0.3091400000000000    0.5398200000000000 H
   0.3533900000000000    0.9962200000000000    0.4938800000000000 H
   0.1263650000000000    0.3565500000000000    0.4361300000000000 H
   0.1011700000000000    0.0198300000000000    0.3824250000000000 H
   0.8988100000000000    0.9801800000000001    0.6175550000000000 H
   0.1487100000000000    0.5200300000000000    0.6324149999999999 H
   0.3512800000000000    0.4799700000000000    0.8675649999999999 H
   0.5232450000000000    0.5245200000000000    0.3639900000000000 H
   0.8318099999999999    0.1906900000000000    0.2105550000000000 H
   0.6030900000000000    0.5041000000000000    0.2561050000000000 H
   0.3761150000000000    0.1432800000000000    0.3138350000000000 H
   0.3039650000000000    0.4380800000000000    0.4786200000000000 H
   0.6960150000000001    0.5619200000000000    0.5213600000000000 H
   0.4767400000000000    0.4754700000000000    0.6359900000000001 H
   0.1681750000000000    0.8093200000000000    0.7894250000000000 H
   0.3968950000000000    0.4959000000000000    0.7438750000000001 H
   0.6238700000000000    0.8567200000000000    0.6861500000000000 H
   0.6487100000000000    0.5200300000000000    0.6324149999999999 H
   0.8512800000000000    0.4799700000000000    0.8675649999999999 H
   0.0232450000000000    0.5245200000000000    0.3639900000000000 H
   0.3318100000000000    0.1906900000000000    0.2105550000000000 H
   0.1030900000000000    0.5041000000000000    0.2561050000000000 H
   0.8761150000000000    0.1432800000000000    0.3138350000000000 H
   0.8039650000000000    0.4380800000000000    0.4786200000000000 H
   0.1960150000000000    0.5619200000000000    0.5213600000000000 H
   0.9767399999999999    0.4754700000000000    0.6359900000000001 H
   0.6681750000000000    0.8093200000000000    0.7894250000000000 H
   0.8968950000000000    0.4959000000000000    0.7438750000000001 H
   0.1238700000000000    0.8567200000000000    0.6861500000000000 H
   0.6487100000000000    0.5200300000000000    0.1324150000000000 H
   0.8512800000000000    0.4799700000000000    0.3675650000000000 H
   0.1487100000000000    0.5200300000000000    0.1324150000000000 H
   0.3512800000000000    0.4799700000000000    0.3675650000000000 H
   0.0232450000000000    0.5245200000000000    0.8639900000000000 H
   0.3318100000000000    0.1906900000000000    0.7105550000000000 H
   0.1030900000000000    0.5041000000000000    0.7561050000000000 H
   0.8761150000000000    0.1432800000000000    0.8138350000000000 H
   0.5232450000000000    0.5245200000000000    0.8639900000000000 H
   0.8318099999999999    0.1906900000000000    0.7105550000000000 H
   0.6030900000000000    0.5041000000000000    0.7561050000000000 H
   0.3761150000000000    0.1432800000000000    0.8138350000000000 H
   0.8039650000000000    0.4380800000000000    0.9786200000000000 H
   0.1960150000000000    0.5619200000000000    0.0213600000000000 H
   0.4767400000000000    0.4754700000000000    0.1359900000000000 H
   0.1681750000000000    0.8093200000000000    0.2894250000000000 H
   0.3968950000000000    0.4959000000000000    0.2438750000000000 H
   0.6238700000000000    0.8567200000000000    0.1861500000000000 H
   0.7266550000000001    0.0245700000000000    0.1141100000000000 H
   0.9767399999999999    0.4754700000000000    0.1359900000000000 H
   0.3039650000000000    0.4380800000000000    0.9786200000000000 H
   0.4181850000000000    0.6908600000000000    0.9601550000000000 H
   0.6681750000000000    0.8093200000000000    0.2894250000000000 H
   0.8968950000000000    0.4959000000000000    0.2438750000000000 H
   0.6465950000000000    0.0037800000000000    0.0061050000000000 H
   0.1238700000000000    0.8567200000000000    0.1861500000000000 H
   0.6960150000000001    0.5619200000000000    0.0213600000000000 H
   0.7662788504136276    0.6673176090599098    0.0354910279267856 H
   0.8327166620216054    0.6750759738268286    0.0840173569046682 H
   0.8906504596542866    0.6916835341072831    0.1401391246355769 H
   0.5536100000000000    0.0613900000000000    0.2712200000000000 H
   0.9463750000000000    0.9386200000000000    0.2287600000000000 H
   0.7733200000000000    0.9754200000000000    0.3858700000000000 H
   0.0818000000000000    0.3091400000000000    0.5398200000000000 H
   0.8533900000000000    0.9962200000000000    0.4938800000000000 H
   0.6263650000000001    0.3565500000000000    0.4361300000000000 H
   0.6011700000000000    0.0198300000000000    0.8824250000000000 H
   0.3988100000000000    0.9801800000000001    0.1175550000000000 H
   0.2266550000000000    0.0245700000000000    0.6141100000000000 H
   0.9181850000000000    0.6908600000000000    0.4601550000000000 H
   0.1465950000000000    0.0037800000000000    0.5061050000000000 H
   0.3736200000000000    0.6434600000000000    0.5638500000000000 H
   0.0536100000000000    0.0613900000000000    0.7712200000000000 H
   0.4463750000000000    0.9386200000000000    0.7287600000000000 H
   0.2733200000000000    0.9754200000000000    0.8858699999999999 H
   0.5818000000000000    0.3091400000000000    0.0398200000000000 H
   0.3533900000000000    0.9962200000000000    0.9938800000000000 H
   0.1263650000000000    0.3565500000000000    0.9361300000000000 H
   0.0654800000000000    0.0483000000000000    0.9087700000000001 C
   0.9345000000000000    0.9517099999999999    0.0912150000000000 C
   0.7394650000000000    0.9802100000000000    0.6456850000000001 C
   0.4489800000000000    0.7436199999999999    0.4834150000000000 C
   0.6376850000000001    0.9306500000000000    0.5285550000000000 C
   0.8327599999999999    0.6760300000000000    0.5853050000000000 C
   0.6074650000000000    0.0769400000000000    0.7748349999999999 C
   0.8925149999999999    0.9230600000000000    0.7251500000000000 C
   0.7605150000000001    0.0198000000000000    0.8542950000000000 C
   0.0510050000000000    0.2563900000000000    0.0165650000000000 C
   0.8623000000000001    0.0693500000000000    0.9714300000000000 C
   0.6672250000000000    0.3239700000000000    0.9146750000000000 C
   0.5654800000000000    0.0483000000000000    0.4087700000000000 C
   0.4345000000000000    0.9517099999999999    0.5912150000000000 C
   0.2394650000000000    0.9802100000000000    0.1456850000000000 C
   0.9489799999999999    0.7436199999999999    0.9834149999999999 C
   0.1376850000000000    0.9306500000000000    0.0285550000000000 C
   0.3327600000000000    0.6760300000000000    0.0853050000000000 C
   0.1074650000000000    0.0769400000000000    0.2748350000000000 C
   0.3925150000000000    0.9230600000000000    0.2251500000000000 C
   0.2605150000000000    0.0198000000000000    0.3542950000000000 C
   0.5510050000000000    0.2563900000000000    0.5165650000000001 C
   0.3623000000000000    0.0693500000000000    0.4714300000000000 C
   0.1672250000000000    0.3239700000000000    0.4146750000000000 C
   0.0654800000000000    0.0483000000000000    0.4087700000000000 C
   0.9345000000000000    0.9517099999999999    0.5912150000000000 C
   0.1844850000000000    0.5484100000000000    0.6587800000000000 C
   0.3155050000000000    0.4515900000000000    0.8412050000000000 C
   0.5105000000000000    0.4802300000000000    0.3955800000000000 C
   0.8008600000000000    0.2435400000000000    0.2336250000000000 C
   0.6120450000000000    0.4308800000000000    0.2785200000000000 C
   0.4170600000000000    0.1759500000000000    0.3352550000000000 C
   0.3578400000000000    0.4227900000000000    0.4750650000000000 C
   0.6421450000000000    0.5772200000000000    0.5249150000000000 C
   0.4894850000000000    0.5197700000000000    0.6044050000000000 C
   0.1991200000000000    0.7564600000000000    0.7663550000000000 C
   0.3879400000000000    0.5691200000000000    0.7214650000000000 C
   0.5829250000000000    0.8240600000000000    0.6647300000000000 C
   0.6844850000000000    0.5484100000000000    0.6587800000000000 C
   0.8155049999999999    0.4515900000000000    0.8412050000000000 C
   0.0105000000000000    0.4802300000000000    0.3955800000000000 C
   0.3008600000000000    0.2435400000000000    0.2336250000000000 C
   0.1120450000000000    0.4308800000000000    0.2785200000000000 C
   0.9170600000000000    0.1759500000000000    0.3352550000000000 C
   0.8578399999999999    0.4227900000000000    0.4750650000000000 C
   0.1421450000000000    0.5772200000000000    0.5249150000000000 C
   0.9894849999999999    0.5197700000000000    0.6044050000000000 C
   0.6991200000000000    0.7564600000000000    0.7663550000000000 C
   0.8879400000000000    0.5691200000000000    0.7214650000000000 C
   0.0829250000000000    0.8240600000000000    0.6647300000000000 C
   0.6844850000000000    0.5484100000000000    0.1587800000000000 C
   0.8155049999999999    0.4515900000000000    0.3412050000000000 C
   0.1844850000000000    0.5484100000000000    0.1587800000000000 C
   0.3155050000000000    0.4515900000000000    0.3412050000000000 C
   0.0105000000000000    0.4802300000000000    0.8955800000000000 C
   0.3008600000000000    0.2435400000000000    0.7336250000000000 C
   0.1120450000000000    0.4308800000000000    0.7785200000000000 C
   0.9170600000000000    0.1759500000000000    0.8352550000000001 C
   0.5105000000000000    0.4802300000000000    0.8955800000000000 C
   0.8008600000000000    0.2435400000000000    0.7336250000000000 C
   0.6120450000000000    0.4308800000000000    0.7785200000000000 C
   0.4170600000000000    0.1759500000000000    0.8352550000000001 C
   0.8578399999999999    0.4227900000000000    0.9750650000000001 C
   0.1421450000000000    0.5772200000000000    0.0249150000000000 C
   0.4894850000000000    0.5197700000000000    0.1044050000000000 C
   0.1991200000000000    0.7564600000000000    0.2663550000000000 C
   0.3879400000000000    0.5691200000000000    0.2214650000000000 C
   0.5829250000000000    0.8240600000000000    0.1647300000000000 C
   0.7394650000000000    0.9802100000000000    0.1456850000000000 C
   0.9894849999999999    0.5197700000000000    0.1044050000000000 C
   0.3578400000000000    0.4227900000000000    0.9750650000000001 C
   0.4489800000000000    0.7436199999999999    0.9834149999999999 C
   0.6991200000000000    0.7564600000000000    0.2663550000000000 C
   0.8879400000000000    0.5691200000000000    0.2214650000000000 C
   0.6376850000000001    0.9306500000000000    0.0285550000000000 C
   0.0829250000000000    0.8240600000000000    0.1647300000000000 C
   0.6421450000000000    0.5772200000000000    0.0249150000000000 C
   0.6074650000000000    0.0769400000000000    0.2748350000000000 C
   0.8925149999999999    0.9230600000000000    0.2251500000000000 C
   0.7605150000000001    0.0198000000000000    0.3542950000000000 C
   0.0510050000000000    0.2563900000000000    0.5165650000000001 C
   0.8623000000000001    0.0693500000000000    0.4714300000000000 C
   0.6672250000000000    0.3239700000000000    0.4146750000000000 C
   0.5654800000000000    0.0483000000000000    0.9087700000000001 C
   0.4345000000000000    0.9517099999999999    0.0912150000000000 C
   0.2394650000000000    0.9802100000000000    0.6456850000000001 C
   0.9489799999999999    0.7436199999999999    0.4834150000000000 C
   0.1376850000000000    0.9306500000000000    0.5285550000000000 C
   0.3327600000000000    0.6760300000000000    0.5853050000000000 C
   0.1074650000000000    0.0769400000000000    0.7748349999999999 C
   0.3925150000000000    0.9230600000000000    0.7251500000000000 C
   0.2605150000000000    0.0198000000000000    0.8542950000000000 C
   0.5510050000000000    0.2563900000000000    0.0165650000000000 C
   0.3623000000000000    0.0693500000000000    0.9714300000000000 C
   0.1672250000000000    0.3239700000000000    0.9146750000000000 C
   0.0529600000000000    0.9795000000000000    0.9396850000000000 O
   0.0417000000000000    0.1501400000000000    0.9040300000000000 O
   0.9470250000000000    0.0205000000000000    0.0602950000000000 O
   0.9582800000000000    0.8498599999999999    0.0959550000000000 O
   0.7502150000000001    0.0402900000000000    0.6805000000000000 O
   0.7420400000000000    0.8694600000000000    0.6427550000000000 O
   0.4441350000000000    0.8507500000000000    0.4820600000000000 O
   0.4864850000000000    0.6854900000000000    0.5102100000000001 O
   0.6867600000000000    0.8895400000000000    0.5487200000000000 O
   0.5769250000000000    0.8970300000000000    0.5313000000000000 O
   0.7767800000000000    0.6854200000000000    0.5668350000000000 O
   0.8470299999999999    0.6997500000000000    0.6267400000000000 O
   0.6459850000000000    0.0194400000000000    0.7500400000000000 O
   0.6238100000000000    0.1535700000000000    0.8049950000000000 O
   0.8540000000000000    0.9805600000000000    0.7499400000000001 O
   0.8761700000000000    0.8464300000000000    0.6949900000000000 O
   0.7497700000000000    0.9597200000000000    0.8194800000000000 O
   0.7579450000000000    0.1305400000000000    0.8572350000000000 O
   0.0558450000000000    0.1492500000000000    0.0179200000000000 O
   0.0134950000000000    0.3145100000000000    0.9897700000000000 O
   0.8132250000000000    0.1104600000000000    0.9512650000000000 O
   0.9230600000000000    0.1029700000000000    0.9686850000000000 O
   0.7232050000000000    0.3145800000000000    0.9331450000000000 O
   0.6529550000000000    0.3002500000000000    0.8732450000000000 O
   0.5529600000000000    0.9795000000000000    0.4396850000000000 O
   0.5417000000000000    0.1501400000000000    0.4040300000000000 O
   0.4470250000000000    0.0205000000000000    0.5602950000000000 O
   0.4582800000000000    0.8498599999999999    0.5959550000000000 O
   0.2502150000000000    0.0402900000000000    0.1805000000000000 O
   0.2420400000000000    0.8694600000000000    0.1427550000000000 O
   0.9441349999999999    0.8507500000000000    0.9820599999999999 O
   0.9864850000000001    0.6854900000000000    0.0102100000000000 O
   0.1867600000000000    0.8895400000000000    0.0487200000000000 O
   0.0769250000000000    0.8970300000000000    0.0313000000000000 O
   0.2767800000000000    0.6854200000000000    0.0668350000000000 O
   0.3470300000000000    0.6997500000000000    0.1267400000000000 O
   0.1459850000000000    0.0194400000000000    0.2500400000000000 O
   0.1238100000000000    0.1535700000000000    0.3049950000000000 O
   0.3540000000000000    0.9805600000000000    0.2499400000000000 O
   0.3761700000000000    0.8464300000000000    0.1949900000000000 O
   0.2497700000000000    0.9597200000000000    0.3194800000000000 O
   0.2579450000000000    0.1305400000000000    0.3572350000000000 O
   0.5558450000000000    0.1492500000000000    0.5179200000000000 O
   0.5134950000000000    0.3145100000000000    0.4897700000000000 O
   0.3132250000000000    0.1104600000000000    0.4512650000000000 O
   0.4230600000000000    0.1029700000000000    0.4686850000000000 O
   0.2232050000000000    0.3145800000000000    0.4331450000000000 O
   0.1529550000000000    0.3002500000000000    0.3732450000000000 O
   0.0529600000000000    0.9795000000000000    0.4396850000000000 O
   0.0417000000000000    0.1501400000000000    0.4040300000000000 O
   0.9470250000000000    0.0205000000000000    0.5602950000000000 O
   0.9582800000000000    0.8498599999999999    0.5959550000000000 O
   0.1970000000000000    0.4795100000000000    0.6896800000000000 O
   0.2083700000000000    0.6501900000000000    0.6540750000000000 O
   0.3029850000000000    0.5204900000000000    0.8103050000000001 O
   0.2916150000000000    0.3498100000000000    0.8459099999999999 O
   0.4996900000000000    0.5403100000000000    0.4303550000000000 O
   0.5081000000000000    0.3694400000000000    0.3927000000000000 O
   0.8057150000000000    0.3506600000000000    0.2321700000000000 O
   0.7632250000000000    0.1855300000000000    0.2603250000000000 O
   0.5629999999999999    0.3896300000000000    0.2986300000000000 O
   0.6728050000000000    0.3973200000000000    0.2812950000000000 O
   0.4729500000000000    0.1853800000000000    0.3167300000000000 O
   0.4030200000000000    0.1997100000000000    0.3766950000000000 O
   0.3962750000000000    0.4804700000000000    0.4999400000000000 O
   0.3743000000000000    0.3463100000000000    0.4449250000000000 O
   0.6037100000000000    0.5195300000000000    0.5000450000000000 O
   0.6256850000000000    0.6536900000000000    0.5550550000000000 O
   0.5002900000000000    0.4597000000000000    0.5696300000000000 O
   0.4918850000000000    0.6305600000000000    0.6072850000000000 O
   0.1942700000000000    0.6493400000000000    0.7678150000000000 O
   0.2367550000000000    0.8144800000000000    0.7396550000000000 O
   0.4369850000000000    0.6103700000000000    0.7013500000000000 O
   0.3271800000000000    0.6026800000000000    0.7186900000000001 O
   0.5270350000000000    0.8146200000000000    0.6832500000000000 O
   0.5969650000000000    0.8002899999999999    0.6232900000000000 O
   0.6970000000000001    0.4795100000000000    0.6896800000000000 O
   0.7083699999999999    0.6501900000000000    0.6540750000000000 O
   0.8029850000000001    0.5204900000000000    0.8103050000000001 O
   0.7916150000000000    0.3498100000000000    0.8459099999999999 O
   0.9996900000000000    0.5403100000000000    0.4303550000000000 O
   0.0081000000000000    0.3694400000000000    0.3927000000000000 O
   0.3057150000000000    0.3506600000000000    0.2321700000000000 O
   0.2632250000000000    0.1855300000000000    0.2603250000000000 O
   0.0630000000000000    0.3896300000000000    0.2986300000000000 O
   0.1728050000000000    0.3973200000000000    0.2812950000000000 O
   0.9729500000000000    0.1853800000000000    0.3167300000000000 O
   0.9030199999999999    0.1997100000000000    0.3766950000000000 O
   0.8962749999999999    0.4804700000000000    0.4999400000000000 O
   0.8743000000000001    0.3463100000000000    0.4449250000000000 O
   0.1037100000000000    0.5195300000000000    0.5000450000000000 O
   0.1256850000000000    0.6536900000000000    0.5550550000000000 O
   0.0002900000000000    0.4597000000000000    0.5696300000000000 O
   0.9918850000000000    0.6305600000000000    0.6072850000000000 O
   0.6942699999999999    0.6493400000000000    0.7678150000000000 O
   0.7367550000000000    0.8144800000000000    0.7396550000000000 O
   0.9369850000000000    0.6103700000000000    0.7013500000000000 O
   0.8271800000000000    0.6026800000000000    0.7186900000000001 O
   0.0270350000000000    0.8146200000000000    0.6832500000000000 O
   0.0969650000000000    0.8002899999999999    0.6232900000000000 O
   0.6970000000000001    0.4795100000000000    0.1896800000000000 O
   0.7083699999999999    0.6501900000000000    0.1540750000000000 O
   0.8029850000000001    0.5204900000000000    0.3103050000000000 O
   0.7916150000000000    0.3498100000000000    0.3459100000000000 O
   0.1970000000000000    0.4795100000000000    0.1896800000000000 O
   0.2083700000000000    0.6501900000000000    0.1540750000000000 O
   0.3029850000000000    0.5204900000000000    0.3103050000000000 O
   0.2916150000000000    0.3498100000000000    0.3459100000000000 O
   0.9996900000000000    0.5403100000000000    0.9303550000000000 O
   0.0081000000000000    0.3694400000000000    0.8927000000000000 O
   0.3057150000000000    0.3506600000000000    0.7321700000000000 O
   0.2632250000000000    0.1855300000000000    0.7603249999999999 O
   0.0630000000000000    0.3896300000000000    0.7986300000000000 O
   0.1728050000000000    0.3973200000000000    0.7812950000000001 O
   0.9729500000000000    0.1853800000000000    0.8167300000000000 O
   0.9030199999999999    0.1997100000000000    0.8766950000000000 O
   0.4996900000000000    0.5403100000000000    0.9303550000000000 O
   0.5081000000000000    0.3694400000000000    0.8927000000000000 O
   0.8057150000000000    0.3506600000000000    0.7321700000000000 O
   0.7632250000000000    0.1855300000000000    0.7603249999999999 O
   0.5629999999999999    0.3896300000000000    0.7986300000000000 O
   0.6728050000000000    0.3973200000000000    0.7812950000000001 O
   0.4729500000000000    0.1853800000000000    0.8167300000000000 O
   0.4030200000000000    0.1997100000000000    0.8766950000000000 O
   0.8962749999999999    0.4804700000000000    0.9999400000000001 O
   0.8743000000000001    0.3463100000000000    0.9449250000000000 O
   0.1037100000000000    0.5195300000000000    0.0000450000000000 O
   0.1256850000000000    0.6536900000000000    0.0550550000000000 O
   0.5002900000000000    0.4597000000000000    0.0696300000000000 O
   0.4918850000000000    0.6305600000000000    0.1072850000000000 O
   0.1942700000000000    0.6493400000000000    0.2678150000000000 O
   0.2367550000000000    0.8144800000000000    0.2396550000000000 O
   0.4369850000000000    0.6103700000000000    0.2013500000000000 O
   0.3271800000000000    0.6026800000000000    0.2186900000000000 O
   0.5270350000000000    0.8146200000000000    0.1832500000000000 O
   0.5969650000000000    0.8002899999999999    0.1232900000000000 O
   0.7502150000000001    0.0402900000000000    0.1805000000000000 O
   0.7420400000000000    0.8694600000000000    0.1427550000000000 O
   0.0002900000000000    0.4597000000000000    0.0696300000000000 O
   0.9918850000000000    0.6305600000000000    0.1072850000000000 O
   0.3962750000000000    0.4804700000000000    0.9999400000000001 O
   0.3743000000000000    0.3463100000000000    0.9449250000000000 O
   0.4441350000000000    0.8507500000000000    0.9820599999999999 O
   0.4864850000000000    0.6854900000000000    0.0102100000000000 O
   0.6942699999999999    0.6493400000000000    0.2678150000000000 O
   0.7367550000000000    0.8144800000000000    0.2396550000000000 O
   0.9369850000000000    0.6103700000000000    0.2013500000000000 O
   0.8271800000000000    0.6026800000000000    0.2186900000000000 O
   0.6867600000000000    0.8895400000000000    0.0487200000000000 O
   0.5769250000000000    0.8970300000000000    0.0313000000000000 O
   0.0270350000000000    0.8146200000000000    0.1832500000000000 O
   0.0969650000000000    0.8002899999999999    0.1232900000000000 O
   0.6037100000000000    0.5195300000000000    0.0000450000000000 O
   0.6256850000000000    0.6536900000000000    0.0550550000000000 O
   0.7767800000000000    0.6854200000000000    0.0668350000000000 O
   0.8470299999999999    0.6997500000000000    0.1267400000000000 O
   0.6459850000000000    0.0194400000000000    0.2500400000000000 O
   0.6238100000000000    0.1535700000000000    0.3049950000000000 O
   0.8540000000000000    0.9805600000000000    0.2499400000000000 O
   0.8761700000000000    0.8464300000000000    0.1949900000000000 O
   0.7497700000000000    0.9597200000000000    0.3194800000000000 O
   0.7579450000000000    0.1305400000000000    0.3572350000000000 O
   0.0558450000000000    0.1492500000000000    0.5179200000000000 O
   0.0134950000000000    0.3145100000000000    0.4897700000000000 O
   0.8132250000000000    0.1104600000000000    0.4512650000000000 O
   0.9230600000000000    0.1029700000000000    0.4686850000000000 O
   0.7232050000000000    0.3145800000000000    0.4331450000000000 O
   0.6529550000000000    0.3002500000000000    0.3732450000000000 O
   0.5529600000000000    0.9795000000000000    0.9396850000000000 O
   0.5417000000000000    0.1501400000000000    0.9040300000000000 O
   0.4470250000000000    0.0205000000000000    0.0602950000000000 O
   0.4582800000000000    0.8498599999999999    0.0959550000000000 O
   0.2502150000000000    0.0402900000000000    0.6805000000000000 O
   0.2420400000000000    0.8694600000000000    0.6427550000000000 O
   0.9441349999999999    0.8507500000000000    0.4820600000000000 O
   0.9864850000000001    0.6854900000000000    0.5102100000000001 O
   0.1867600000000000    0.8895400000000000    0.5487200000000000 O
   0.0769250000000000    0.8970300000000000    0.5313000000000000 O
   0.2767800000000000    0.6854200000000000    0.5668350000000000 O
   0.3470300000000000    0.6997500000000000    0.6267400000000000 O
   0.1459850000000000    0.0194400000000000    0.7500400000000000 O
   0.1238100000000000    0.1535700000000000    0.8049950000000000 O
   0.3540000000000000    0.9805600000000000    0.7499400000000001 O
   0.3761700000000000    0.8464300000000000    0.6949900000000000 O
   0.2497700000000000    0.9597200000000000    0.8194800000000000 O
   0.2579450000000000    0.1305400000000000    0.8572350000000000 O
   0.5558450000000000    0.1492500000000000    0.0179200000000000 O
   0.5134950000000000    0.3145100000000000    0.9897700000000000 O
   0.3132250000000000    0.1104600000000000    0.9512650000000000 O
   0.4230600000000000    0.1029700000000000    0.9686850000000000 O
   0.2232050000000000    0.3145800000000000    0.9331450000000000 O
   0.1529550000000000    0.3002500000000000    0.8732450000000000 O
