H1 C1 O2
1.0
  20.1719889394643452    0.0000000000000000   -0.0211240651418843
  -0.0028675965892439   11.5948037764075398   -0.2256682598312030
   0.0000000000000000    0.0000000000000000   29.5859999999999985
H C O
1 1 2
direct
   0.8736200000000001    0.6434600000000000    0.0638500000000000 H
   0.8327599999999999    0.6760300000000000    0.0853050000000000 C
   0.8470299999999999    0.6997500000000000    0.1267400000000000 O
   0.7767800000000000    0.6854200000000000    0.0668350000000000 O
