Zn64 H252 C504 N252 O126
1.0
  27.6557060842042404    0.0000000000000000   -3.3344650221750367
  -5.8066960260881411   17.8793496289755147   -4.0644098102264898
   0.0000000000000000    0.0000000000000000   35.8680000000000021
Zn H C N O
64 252 504 252 126
direct
   0.0184650000000000    0.7715400000000000    0.1249550000000000 Zn
   0.2684600000000000    0.2715400000000000    0.1249550000000000 Zn
   0.2684600000000000    0.7715400000000000    0.1249550000000000 Zn
   0.0443650000000000    0.1014000000000000    0.1250850000000000 Zn
   0.0443650000000000    0.6014000000000000    0.1250850000000000 Zn
   0.2943550000000000    0.1014000000000000    0.1250850000000000 Zn
   0.2943550000000000    0.6014000000000000    0.1250850000000000 Zn
   0.2315200000000000    0.2284600000000000    0.3750000000000000 Zn
   0.2315250000000000    0.7284600000000000    0.3750000000000000 Zn
   0.4815150000000000    0.2284600000000000    0.3750000000000000 Zn
   0.4815150000000000    0.7284700000000000    0.3750000000000000 Zn
   0.2056250000000000    0.3986000000000000    0.3745000000000000 Zn
   0.2056300000000000    0.8986000000000000    0.3749000000000000 Zn
   0.4556150000000000    0.3986000000000000    0.3745000000000000 Zn
   0.4556200000000000    0.8986000000000000    0.3745000000000000 Zn
   0.0184650000000000    0.2715400000000000    0.1249550000000000 Zn
   0.5184650000000000    0.7715400000000000    0.1249550000000000 Zn
   0.7684599999999999    0.2715400000000000    0.1249550000000000 Zn
   0.7684599999999999    0.7715400000000000    0.1249550000000000 Zn
   0.5443650000000000    0.1014000000000000    0.1250850000000000 Zn
   0.5443650000000000    0.6014000000000000    0.1250850000000000 Zn
   0.7943549999999999    0.1014000000000000    0.1250850000000000 Zn
   0.7943549999999999    0.6014000000000000    0.1250850000000000 Zn
   0.7315199999999999    0.2284600000000000    0.3750000000000000 Zn
   0.7315250000000000    0.7284600000000000    0.3750000000000000 Zn
   0.9815150000000000    0.2284600000000000    0.3750000000000000 Zn
   0.9815150000000000    0.7284700000000000    0.3750000000000000 Zn
   0.7056249999999999    0.3986000000000000    0.3745000000000000 Zn
   0.7056300000000000    0.8986000000000000    0.3749000000000000 Zn
   0.9556150000000000    0.3986000000000000    0.3745000000000000 Zn
   0.9556200000000000    0.8986000000000000    0.3745000000000000 Zn
   0.5184650000000000    0.2715400000000000    0.1249550000000000 Zn
   0.0184650000000000    0.7715400000000000    0.6249550000000000 Zn
   0.2684600000000000    0.2715400000000000    0.6249550000000000 Zn
   0.2684600000000000    0.7715400000000000    0.6249550000000000 Zn
   0.0443650000000000    0.1014000000000000    0.6250850000000000 Zn
   0.0443650000000000    0.6014000000000000    0.6250850000000000 Zn
   0.2943550000000000    0.1014000000000000    0.6250850000000000 Zn
   0.2943550000000000    0.6014000000000000    0.6250850000000000 Zn
   0.2315200000000000    0.2284600000000000    0.8750000000000000 Zn
   0.2315250000000000    0.7284600000000000    0.8750000000000000 Zn
   0.4815150000000000    0.2284600000000000    0.8750000000000000 Zn
   0.4815150000000000    0.7284700000000000    0.8750000000000000 Zn
   0.2056250000000000    0.3986000000000000    0.8745000000000001 Zn
   0.2056300000000000    0.8986000000000000    0.8749000000000000 Zn
   0.4556150000000000    0.3986000000000000    0.8745000000000001 Zn
   0.4556200000000000    0.8986000000000000    0.8745000000000001 Zn
   0.0184650000000000    0.2715400000000000    0.6249550000000000 Zn
   0.5184650000000000    0.7715400000000000    0.6249550000000000 Zn
   0.7684599999999999    0.2715400000000000    0.6249550000000000 Zn
   0.7684599999999999    0.7715400000000000    0.6249550000000000 Zn
   0.5443650000000000    0.1014000000000000    0.6250850000000000 Zn
   0.5443650000000000    0.6014000000000000    0.6250850000000000 Zn
   0.7943549999999999    0.1014000000000000    0.6250850000000000 Zn
   0.7943549999999999    0.6014000000000000    0.6250850000000000 Zn
   0.7315199999999999    0.2284600000000000    0.8750000000000000 Zn
   0.7315250000000000    0.7284600000000000    0.8750000000000000 Zn
   0.9815150000000000    0.2284600000000000    0.8750000000000000 Zn
   0.9815150000000000    0.7284700000000000    0.8750000000000000 Zn
   0.7056249999999999    0.3986000000000000    0.8745000000000001 Zn
   0.7056300000000000    0.8986000000000000    0.8749000000000000 Zn
   0.9556150000000000    0.3986000000000000    0.8745000000000001 Zn
   0.9556200000000000    0.8986000000000000    0.8745000000000001 Zn
   0.5184650000000000    0.2715400000000000    0.6249550000000000 Zn
   0.2001000000000000    0.0254500000000000    0.0117200000000000 H
   0.2001000000000000    0.5254500000000000    0.0117200000000000 H
   0.4500900000000000    0.0254500000000000    0.0117200000000000 H
   0.4500900000000000    0.5254500000000000    0.0117200000000000 H
   0.0559150000000000    0.2356400000000000    0.0116000000000000 H
   0.0559150000000000    0.7356400000000000    0.0116000000000000 H
   0.3059050000000000    0.2356400000000000    0.0116000000000000 H
   0.3059050000000000    0.7356400000000000    0.0116000000000000 H
   0.0395900000000000    0.2002400000000000    0.4399450000000000 H
   0.0395950000000000    0.7002400000000000    0.4399450000000000 H
   0.2895850000000000    0.2002400000000000    0.4399450000000000 H
   0.2895850000000000    0.7002400000000000    0.4399450000000000 H
   0.1800500000000000    0.9907500000000000    0.4400850000000000 H
   0.1800500000000000    0.4907500000000000    0.4400850000000000 H
   0.4300400000000000    0.9907600000000000    0.4400850000000000 H
   0.4300400000000000    0.4907600000000000    0.4400850000000000 H
   0.0934850000000000    0.3577900000000000    0.2380650000000000 H
   0.0934900000000000    0.8577900000000001    0.2380650000000000 H
   0.3434750000000000    0.3577900000000000    0.2380650000000000 H
   0.3434750000000000    0.8577900000000001    0.2380650000000000 H
   0.0255950000000000    0.1291500000000000    0.2394700000000000 H
   0.0256000000000000    0.6291600000000001    0.2394700000000000 H
   0.2755850000000000    0.1291500000000000    0.2394700000000000 H
   0.2755850000000000    0.6291500000000000    0.2394700000000000 H
   0.1132500000000000    0.3953100000000000    0.3102800000000000 H
   0.1132550000000000    0.8953100000000001    0.3102800000000000 H
   0.3632400000000000    0.3953100000000000    0.3102800000000000 H
   0.3632450000000000    0.8953100000000001    0.3102800000000000 H
   0.0419750000000000    0.1659200000000000    0.3116750000000000 H
   0.0419750000000000    0.6659200000000000    0.3116750000000000 H
   0.2919600000000000    0.1659200000000000    0.3116750000000000 H
   0.2919650000000000    0.6659200000000000    0.3116750000000000 H
   0.0498900000000000    0.4745500000000000    0.4882600000000000 H
   0.0498900000000000    0.9745500000000000    0.4882600000000000 H
   0.2998800000000000    0.4745500000000000    0.4882600000000000 H
   0.2998850000000000    0.9745600000000000    0.4882500000000000 H
   0.1940750000000000    0.2643600000000000    0.4883800000000000 H
   0.1940800000000000    0.7643600000000000    0.4883800000000000 H
   0.4440650000000000    0.2643600000000000    0.4883800000000000 H
   0.4440700000000000    0.7643600000000000    0.4883800000000000 H
   0.2104000000000000    0.2997600000000000    0.0600400000000000 H
   0.2104000000000000    0.7997600000000000    0.0600400000000000 H
   0.4603900000000000    0.2997600000000000    0.0600400000000000 H
   0.4603900000000000    0.7997700000000000    0.0600400000000000 H
   0.0699400000000000    0.5092400000000000    0.0598950000000000 H
   0.0699450000000000    0.0000000000000000    0.0595000000000000 H
   0.3199300000000000    0.5092500000000000    0.0595000000000000 H
   0.3199350000000000    0.0000000000000000    0.0599000000000000 H
   0.1565050000000000    0.1422100000000000    0.2619200000000000 H
   0.1565100000000000    0.6422099999999999    0.2619200000000000 H
   0.4064950000000000    0.1422100000000000    0.2619200000000000 H
   0.4065000000000000    0.6422099999999999    0.2619200000000000 H
   0.2243950000000000    0.3708500000000000    0.2605100000000000 H
   0.2243950000000000    0.8708500000000000    0.2605100000000000 H
   0.4743850000000000    0.3708500000000000    0.2605100000000000 H
   0.4743850000000000    0.8708500000000000    0.2605100000000000 H
   0.1367400000000000    0.1046900000000000    0.1897000000000000 H
   0.1367400000000000    0.6046899999999999    0.1897000000000000 H
   0.3867300000000000    0.1046900000000000    0.1897000000000000 H
   0.3867300000000000    0.6046899999999999    0.1897000000000000 H
   0.2080200000000000    0.3340800000000000    0.1883050000000000 H
   0.2080200000000000    0.8340800000000000    0.1883050000000000 H
   0.4580100000000000    0.3340800000000000    0.1883050000000000 H
   0.4580050000000000    0.8340800000000000    0.1883050000000000 H
   0.7000999999999999    0.0254500000000000    0.0117200000000000 H
   0.7000999999999999    0.5254500000000000    0.0117200000000000 H
   0.9500900000000000    0.0254500000000000    0.0117200000000000 H
   0.9500900000000000    0.5254500000000000    0.0117200000000000 H
   0.5559150000000000    0.2356400000000000    0.0116000000000000 H
   0.5559150000000000    0.7356400000000000    0.0116000000000000 H
   0.8059050000000000    0.2356400000000000    0.0116000000000000 H
   0.8059050000000000    0.7356400000000000    0.0116000000000000 H
   0.5395900000000000    0.2002400000000000    0.4399450000000000 H
   0.5395950000000000    0.7002400000000000    0.4399450000000000 H
   0.7895850000000000    0.2002400000000000    0.4399450000000000 H
   0.7895850000000000    0.7002400000000000    0.4399450000000000 H
   0.6800500000000000    0.9907500000000000    0.4400850000000000 H
   0.6800500000000000    0.4907500000000000    0.4400850000000000 H
   0.9300400000000000    0.9907600000000000    0.4400850000000000 H
   0.9300400000000000    0.4907600000000000    0.4400850000000000 H
   0.5934850000000000    0.3577900000000000    0.2380650000000000 H
   0.5934900000000000    0.8577900000000001    0.2380650000000000 H
   0.8434750000000000    0.3577900000000000    0.2380650000000000 H
   0.8434750000000000    0.8577900000000001    0.2380650000000000 H
   0.5255950000000000    0.1291500000000000    0.2394700000000000 H
   0.5256000000000000    0.6291600000000001    0.2394700000000000 H
   0.7755850000000000    0.1291500000000000    0.2394700000000000 H
   0.7755850000000000    0.6291500000000000    0.2394700000000000 H
   0.6132500000000000    0.3953100000000000    0.3102800000000000 H
   0.6132550000000000    0.8953100000000001    0.3102800000000000 H
   0.8632400000000000    0.3953100000000000    0.3102800000000000 H
   0.8632450000000000    0.8953100000000001    0.3102800000000000 H
   0.5419750000000000    0.1659200000000000    0.3116750000000000 H
   0.5419750000000000    0.6659200000000000    0.3116750000000000 H
   0.7919600000000000    0.1659200000000000    0.3116750000000000 H
   0.7919650000000000    0.6659200000000000    0.3116750000000000 H
   0.5498900000000000    0.4745500000000000    0.4882600000000000 H
   0.5498900000000000    0.9745500000000000    0.4882600000000000 H
   0.7998799999999999    0.4745500000000000    0.4882600000000000 H
   0.7998850000000000    0.9745600000000000    0.4882500000000000 H
   0.6940750000000000    0.2643600000000000    0.4883800000000000 H
   0.6940800000000000    0.7643600000000000    0.4883800000000000 H
   0.9440649999999999    0.2643600000000000    0.4883800000000000 H
   0.9440700000000000    0.7643600000000000    0.4883800000000000 H
   0.7104000000000000    0.2997600000000000    0.0600400000000000 H
   0.7104000000000000    0.7997600000000000    0.0600400000000000 H
   0.9603900000000001    0.2997600000000000    0.0600400000000000 H
   0.9603900000000001    0.7997700000000000    0.0600400000000000 H
   0.5699400000000000    0.5092400000000000    0.0598950000000000 H
   0.5699450000000000    0.0000000000000000    0.0595000000000000 H
   0.8199300000000000    0.5092500000000000    0.0595000000000000 H
   0.8199350000000001    0.0000000000000000    0.0599000000000000 H
   0.6565050000000000    0.1422100000000000    0.2619200000000000 H
   0.6565100000000000    0.6422099999999999    0.2619200000000000 H
   0.9065000000000000    0.6422099999999999    0.2619200000000000 H
   0.7243950000000000    0.3708500000000000    0.2605100000000000 H
   0.7243950000000000    0.8708500000000000    0.2605100000000000 H
   0.9743850000000001    0.8708500000000000    0.2605100000000000 H
   0.6367400000000000    0.1046900000000000    0.1897000000000000 H
   0.6367400000000000    0.6046899999999999    0.1897000000000000 H
   0.8867300000000000    0.6046899999999999    0.1897000000000000 H
   0.7080200000000000    0.3340800000000000    0.1883050000000000 H
   0.7080200000000000    0.8340800000000000    0.1883050000000000 H
   0.9580050000000000    0.8340800000000000    0.1883050000000000 H
   0.2001000000000000    0.0254500000000000    0.5117200000000000 H
   0.2001000000000000    0.5254500000000000    0.5117200000000000 H
   0.4500900000000000    0.0254500000000000    0.5117200000000000 H
   0.4500900000000000    0.5254500000000000    0.5117200000000000 H
   0.0559150000000000    0.2356400000000000    0.5116000000000001 H
   0.0559150000000000    0.7356400000000000    0.5116000000000001 H
   0.3059050000000000    0.2356400000000000    0.5116000000000001 H
   0.3059050000000000    0.7356400000000000    0.5116000000000001 H
   0.0395900000000000    0.2002400000000000    0.9399450000000000 H
   0.0395950000000000    0.7002400000000000    0.9399450000000000 H
   0.2895850000000000    0.2002400000000000    0.9399450000000000 H
   0.2895850000000000    0.7002400000000000    0.9399450000000000 H
   0.1800500000000000    0.9907500000000000    0.9400850000000001 H
   0.1800500000000000    0.4907500000000000    0.9400850000000001 H
   0.4300400000000000    0.9907600000000000    0.9400850000000001 H
   0.4300400000000000    0.4907600000000000    0.9400850000000001 H
   0.0934850000000000    0.3577900000000000    0.7380650000000000 H
   0.0934900000000000    0.8577900000000001    0.7380650000000000 H
   0.3434750000000000    0.3577900000000000    0.7380650000000000 H
   0.3434750000000000    0.8577900000000001    0.7380650000000000 H
   0.0255950000000000    0.1291500000000000    0.7394700000000000 H
   0.0256000000000000    0.6291600000000001    0.7394700000000000 H
   0.2755850000000000    0.1291500000000000    0.7394700000000000 H
   0.2755850000000000    0.6291500000000000    0.7394700000000000 H
   0.1132500000000000    0.3953100000000000    0.8102800000000000 H
   0.1132550000000000    0.8953100000000001    0.8102800000000000 H
   0.3632400000000000    0.3953100000000000    0.8102800000000000 H
   0.3632450000000000    0.8953100000000001    0.8102800000000000 H
   0.0419750000000000    0.1659200000000000    0.8116749999999999 H
   0.0419750000000000    0.6659200000000000    0.8116749999999999 H
   0.2919600000000000    0.1659200000000000    0.8116749999999999 H
   0.2919650000000000    0.6659200000000000    0.8116749999999999 H
   0.0498900000000000    0.4745500000000000    0.9882600000000000 H
   0.0498900000000000    0.9745500000000000    0.9882600000000000 H
   0.2998800000000000    0.4745500000000000    0.9882600000000000 H
   0.2998850000000000    0.9745600000000000    0.9882500000000001 H
   0.1940750000000000    0.2643600000000000    0.9883800000000000 H
   0.1940800000000000    0.7643600000000000    0.9883800000000000 H
   0.4440650000000000    0.2643600000000000    0.9883800000000000 H
   0.4440700000000000    0.7643600000000000    0.9883800000000000 H
   0.2104000000000000    0.2997600000000000    0.5600400000000000 H
   0.2104000000000000    0.7997600000000000    0.5600400000000000 H
   0.4603900000000000    0.2997600000000000    0.5600400000000000 H
   0.4603900000000000    0.7997700000000000    0.5600400000000000 H
   0.0699400000000000    0.5092400000000000    0.5598950000000000 H
   0.0699450000000000    0.0000000000000000    0.5595000000000000 H
   0.3199300000000000    0.5092500000000000    0.5595000000000000 H
   0.3199350000000000    0.0000000000000000    0.5599000000000000 H
   0.1565050000000000    0.1422100000000000    0.7619199999999999 H
   0.1565100000000000    0.6422099999999999    0.7619199999999999 H
   0.4064950000000000    0.1422100000000000    0.7619199999999999 H
   0.4065000000000000    0.6422099999999999    0.7619199999999999 H
   0.2243950000000000    0.3708500000000000    0.7605100000000000 H
   0.2243950000000000    0.8708500000000000    0.7605100000000000 H
   0.4743850000000000    0.3708500000000000    0.7605100000000000 H
   0.4743850000000000    0.8708500000000000    0.7605100000000000 H
   0.1367400000000000    0.1046900000000000    0.6897000000000000 H
   0.1367400000000000    0.6046899999999999    0.6897000000000000 H
   0.3867300000000000    0.1046900000000000    0.6897000000000000 H
   0.3867300000000000    0.6046899999999999    0.6897000000000000 H
   0.2080200000000000    0.3340800000000000    0.6883049999999999 H
   0.2080200000000000    0.8340800000000000    0.6883049999999999 H
   0.4580100000000000    0.3340800000000000    0.6883049999999999 H
   0.4580050000000000    0.8340800000000000    0.6883049999999999 H
   0.7000999999999999    0.0254500000000000    0.5117200000000000 H
   0.7000999999999999    0.5254500000000000    0.5117200000000000 H
   0.9500900000000000    0.0254500000000000    0.5117200000000000 H
   0.9500900000000000    0.5254500000000000    0.5117200000000000 H
   0.5559150000000000    0.2356400000000000    0.5116000000000001 H
   0.5559150000000000    0.7356400000000000    0.5116000000000001 H
   0.8059050000000000    0.2356400000000000    0.5116000000000001 H
   0.8059050000000000    0.7356400000000000    0.5116000000000001 H
   0.5395900000000000    0.2002400000000000    0.9399450000000000 H
   0.5395950000000000    0.7002400000000000    0.9399450000000000 H
   0.7895850000000000    0.2002400000000000    0.9399450000000000 H
   0.7895850000000000    0.7002400000000000    0.9399450000000000 H
   0.6800500000000000    0.9907500000000000    0.9400850000000001 H
   0.6800500000000000    0.4907500000000000    0.9400850000000001 H
   0.9300400000000000    0.9907600000000000    0.9400850000000001 H
   0.9300400000000000    0.4907600000000000    0.9400850000000001 H
   0.5934850000000000    0.3577900000000000    0.7380650000000000 H
   0.5934900000000000    0.8577900000000001    0.7380650000000000 H
   0.8434750000000000    0.3577900000000000    0.7380650000000000 H
   0.8434750000000000    0.8577900000000001    0.7380650000000000 H
   0.5255950000000000    0.1291500000000000    0.7394700000000000 H
   0.5256000000000000    0.6291600000000001    0.7394700000000000 H
   0.7755850000000000    0.1291500000000000    0.7394700000000000 H
   0.7755850000000000    0.6291500000000000    0.7394700000000000 H
   0.6132500000000000    0.3953100000000000    0.8102800000000000 H
   0.6132550000000000    0.8953100000000001    0.8102800000000000 H
   0.8632400000000000    0.3953100000000000    0.8102800000000000 H
   0.8632450000000000    0.8953100000000001    0.8102800000000000 H
   0.5419750000000000    0.1659200000000000    0.8116749999999999 H
   0.5419750000000000    0.6659200000000000    0.8116749999999999 H
   0.7919600000000000    0.1659200000000000    0.8116749999999999 H
   0.7919650000000000    0.6659200000000000    0.8116749999999999 H
   0.5498900000000000    0.4745500000000000    0.9882600000000000 H
   0.5498900000000000    0.9745500000000000    0.9882600000000000 H
   0.7998799999999999    0.4745500000000000    0.9882600000000000 H
   0.7998850000000000    0.9745600000000000    0.9882500000000001 H
   0.6940750000000000    0.2643600000000000    0.9883800000000000 H
   0.6940800000000000    0.7643600000000000    0.9883800000000000 H
   0.9440649999999999    0.2643600000000000    0.9883800000000000 H
   0.9440700000000000    0.7643600000000000    0.9883800000000000 H
   0.7104000000000000    0.2997600000000000    0.5600400000000000 H
   0.7104000000000000    0.7997600000000000    0.5600400000000000 H
   0.9603900000000001    0.2997600000000000    0.5600400000000000 H
   0.9603900000000001    0.7997700000000000    0.5600400000000000 H
   0.5699400000000000    0.5092400000000000    0.5598950000000000 H
   0.5699450000000000    0.0000000000000000    0.5595000000000000 H
   0.8199300000000000    0.5092500000000000    0.5595000000000000 H
   0.8199350000000001    0.0000000000000000    0.5599000000000000 H
   0.6565050000000000    0.1422100000000000    0.7619199999999999 H
   0.6565100000000000    0.6422099999999999    0.7619199999999999 H
   0.9064950000000001    0.1422100000000000    0.7619199999999999 H
   0.9065000000000000    0.6422099999999999    0.7619199999999999 H
   0.7243950000000000    0.3708500000000000    0.7605100000000000 H
   0.7243950000000000    0.8708500000000000    0.7605100000000000 H
   0.9743850000000001    0.3708500000000000    0.7605100000000000 H
   0.9743850000000001    0.8708500000000000    0.7605100000000000 H
   0.6367400000000000    0.1046900000000000    0.6897000000000000 H
   0.6367400000000000    0.6046899999999999    0.6897000000000000 H
   0.8867300000000000    0.1046900000000000    0.6897000000000000 H
   0.8867300000000000    0.6046899999999999    0.6897000000000000 H
   0.7080200000000000    0.3340800000000000    0.6883049999999999 H
   0.7080200000000000    0.8340800000000000    0.6883049999999999 H
   0.9580100000000000    0.3340800000000000    0.6883049999999999 H
   0.9580050000000000    0.8340800000000000    0.6883049999999999 H
   0.2334850000000000    0.0928500000000000    0.4346500000000000 C
   0.2334850000000000    0.5928500000000000    0.4346500000000000 C
   0.4834750000000000    0.0928500000000000    0.4346500000000000 C
   0.4834750000000000    0.5928500000000000    0.4346500000000000 C
   0.0150700000000000    0.1539200000000000    0.0593350000000000 C
   0.0150700000000000    0.6539199999999999    0.0593350000000000 C
   0.2650600000000000    0.1539200000000000    0.0593350000000000 C
   0.2650600000000000    0.6539199999999999    0.0593350000000000 C
   0.0041650000000000    0.1326900000000000    0.0161100000000000 C
   0.0041650000000000    0.6327000000000000    0.0161100000000000 C
   0.2541550000000000    0.1326900000000000    0.0161100000000000 C
   0.2541550000000000    0.6327000000000000    0.0161100000000000 C
   0.2191150000000000    0.0634600000000000    0.4956650000000000 C
   0.2191150000000000    0.5634700000000000    0.4956650000000000 C
   0.4691050000000000    0.0634600000000000    0.4956500000000000 C
   0.4691100000000000    0.5634700000000000    0.4956650000000000 C
   0.0287950000000000    0.1819200000000000    0.4956000000000000 C
   0.0288000000000000    0.6819200000000000    0.4956000000000000 C
   0.2787850000000000    0.1819200000000000    0.4956000000000000 C
   0.2787900000000000    0.6819200000000000    0.4956000000000000 C
   0.4414400000000000    0.7586800000000000    0.2653850000000000 C
   0.1963700000000000    0.2919000000000000    0.2042450000000000 C
   0.1963750000000000    0.7919000000000000    0.2042450000000000 C
   0.4463600000000000    0.2919000000000000    0.2042450000000000 C
   0.0190500000000000    0.1619000000000000    0.4552150000000000 C
   0.0190550000000000    0.6619000000000000    0.4552150000000000 C
   0.2690450000000000    0.1619000000000000    0.4552150000000000 C
   0.2690450000000000    0.6619000000000000    0.4552150000000000 C
   0.2083650000000000    0.0439800000000000    0.4552900000000000 C
   0.2083650000000000    0.5439800000000000    0.4552900000000000 C
   0.4583550000000000    0.0439800000000000    0.4552900000000000 C
   0.4583550000000000    0.5439800000000000    0.4552900000000000 C
   0.2226300000000000    0.0719600000000000    0.3921300000000000 C
   0.2226300000000000    0.5719600000000000    0.3921300000000000 C
   0.4726200000000000    0.0719600000000000    0.3921300000000000 C
   0.4726200000000000    0.5719600000000000    0.3921300000000000 C
   0.0479550000000000    0.2191600000000000    0.1913800000000000 C
   0.0479550000000000    0.7191600000000000    0.1913800000000000 C
   0.2979400000000000    0.2191600000000000    0.1913800000000000 C
   0.2979400000000000    0.7191600000000000    0.1913800000000000 C
   0.0894200000000000    0.3048700000000000    0.3583400000000000 C
   0.0894200000000000    0.8048700000000000    0.3583400000000000 C
   0.3394100000000000    0.3048700000000000    0.3583400000000000 C
   0.3394100000000000    0.8048700000000000    0.3583400000000000 C
   0.0830700000000000    0.3163200000000000    0.2545800000000000 C
   0.0830700000000000    0.8163200000000000    0.2545800000000000 C
   0.3330600000000000    0.3163200000000000    0.2545800000000000 C
   0.3330600000000000    0.8163200000000000    0.2545800000000000 C
   0.0441200000000000    0.1872900000000000    0.2553600000000000 C
   0.0441200000000000    0.6872900000000000    0.2553500000000000 C
   0.2941100000000000    0.1872900000000000    0.2553500000000000 C
   0.2941100000000000    0.6872900000000000    0.2553500000000000 C
   0.0937600000000000    0.3370600000000000    0.2949600000000000 C
   0.0937600000000000    0.8370600000000000    0.2949600000000000 C
   0.3437450000000000    0.3370600000000000    0.2949600000000000 C
   0.3437500000000000    0.8370600000000000    0.2949600000000000 C
   0.0585400000000000    0.2413200000000000    0.2345950000000000 C
   0.0585450000000000    0.7413300000000000    0.2345000000000000 C
   0.3085300000000000    0.2413200000000000    0.2345000000000000 C
   0.3085300000000000    0.7413300000000000    0.2345000000000000 C
   0.0536200000000000    0.2081000000000000    0.2957350000000000 C
   0.0536200000000000    0.7081000000000000    0.2957350000000000 C
   0.3036100000000000    0.2081000000000000    0.2957350000000000 C
   0.3036100000000000    0.7081000000000000    0.2957000000000000 C
   0.0788200000000000    0.2831000000000000    0.3158250000000000 C
   0.0788250000000000    0.7831000000000000    0.3158250000000000 C
   0.3288100000000000    0.2831000000000000    0.3158250000000000 C
   0.3288150000000000    0.7831000000000000    0.3158250000000000 C
   0.0165050000000000    0.4071500000000000    0.0653300000000000 C
   0.0165100000000000    0.9071600000000000    0.0653300000000000 C
   0.2664950000000000    0.4071500000000000    0.0653300000000000 C
   0.2665000000000000    0.9071600000000000    0.0653300000000000 C
   0.2349200000000000    0.3460800000000000    0.4406450000000000 C
   0.2349250000000000    0.8460800000000001    0.4406450000000000 C
   0.4849100000000000    0.3460800000000000    0.4406450000000000 C
   0.4849150000000000    0.8460900000000000    0.4406450000000000 C
   0.2458250000000000    0.3673000000000000    0.4838750000000000 C
   0.2458300000000000    0.8673100000000000    0.4838750000000000 C
   0.4958200000000000    0.3673100000000000    0.4838750000000000 C
   0.4958200000000000    0.8673100000000000    0.4838750000000000 C
   0.0308750000000000    0.4365400000000000    0.0043150000000000 C
   0.0308750000000000    0.9365400000000000    0.0043150000000000 C
   0.2808650000000000    0.4365400000000000    0.0043150000000000 C
   0.2808700000000000    0.9365400000000000    0.0043150000000000 C
   0.2211950000000000    0.3180800000000000    0.0043850000000000 C
   0.2212000000000000    0.8180800000000000    0.0043850000000000 C
   0.4711850000000000    0.3180800000000000    0.0043850000000000 C
   0.4711850000000000    0.8180800000000000    0.0043850000000000 C
   0.2309400000000000    0.3381000000000000    0.0447650000000000 C
   0.2309400000000000    0.8381100000000000    0.0447650000000000 C
   0.4809300000000000    0.3381100000000000    0.0447650000000000 C
   0.4809300000000000    0.8381100000000000    0.0447650000000000 C
   0.0416250000000000    0.4560200000000000    0.0446900000000000 C
   0.0416300000000000    0.9560200000000000    0.0446900000000000 C
   0.2916150000000000    0.4560200000000000    0.0446900000000000 C
   0.2916200000000000    0.9560300000000000    0.0446900000000000 C
   0.0273600000000000    0.4280400000000000    0.1078500000000000 C
   0.0273600000000000    0.9280400000000000    0.1078550000000000 C
   0.2773500000000000    0.4280400000000000    0.1078500000000000 C
   0.2773550000000000    0.9280400000000000    0.1078550000000000 C
   0.2020400000000000    0.2808400000000000    0.3086050000000000 C
   0.2020400000000000    0.7808500000000000    0.3086050000000000 C
   0.4520300000000000    0.2808400000000000    0.3086050000000000 C
   0.4520300000000000    0.7808500000000000    0.3086050000000000 C
   0.1605700000000000    0.1951300000000000    0.1416450000000000 C
   0.1605750000000000    0.6951300000000000    0.1416450000000000 C
   0.4105600000000000    0.1951300000000000    0.1416450000000000 C
   0.4105600000000000    0.6951300000000000    0.1416450000000000 C
   0.1669250000000000    0.1836800000000000    0.2454000000000000 C
   0.1669250000000000    0.6836800000000000    0.2454000000000000 C
   0.4169100000000000    0.1836800000000000    0.2454000000000000 C
   0.4169150000000000    0.6836800000000000    0.2454000000000000 C
   0.2058750000000000    0.3127100000000000    0.2446200000000000 C
   0.2058750000000000    0.8127100000000000    0.2446200000000000 C
   0.4558600000000000    0.3127100000000000    0.2446200000000000 C
   0.4558650000000000    0.8127100000000000    0.2446200000000000 C
   0.1562350000000000    0.1629400000000000    0.2050200000000000 C
   0.1562350000000000    0.6629400000000000    0.2050200000000000 C
   0.4062200000000000    0.1629400000000000    0.2050200000000000 C
   0.4062250000000000    0.6629400000000000    0.2050000000000000 C