H11 C9 N2 O3
1.0
   5.9959997945203209    0.0000000000000000   -0.0015697491113118
  -0.0041749149326150   15.9469994535048922    0.0000000000000010
   0.0000000000000000    0.0000000000000000   16.6619999999999990
H C N O
11 9 2 3
direct
   0.9568000000000000    0.7666800000000000    0.8967700000000000 H
   0.1649400000000000    0.6369300000000000    0.8624300000000000 H
   0.6942900000000000    0.7033199999999999    0.0089500000000000 H
   0.5125999999999999    0.8393900000000000    0.0469000000000000 H
   0.2912700000000000    0.9658000000000000    0.0685500000000000 H
   0.9118100000000000    0.8830500000000000    0.9898000000000000 H
   0.1324800000000000    0.9410900000000000    0.9487500000000000 H
   0.2549800000000000    0.8319800000000001    0.1451100000000000 H
   0.8993600000000000    0.8076400000000000    0.2130900000000000 H
   0.8713500000000000    0.7971000000000000    0.1074900000000000 H
   0.7015500000000000    0.9286700000000000    0.2084000000000000 H
   0.1216000000000000    0.7561600000000001    0.9225800000000000 C
   0.2168700000000000    0.8143500000000000    0.9753400000000000 C
   0.2365700000000000    0.6833700000000000    0.9028300000000000 C
   0.5319700000000001    0.7212400000000000    0.9847300000000000 C
   0.4287900000000000    0.7960100000000000    0.0062600000000000 C
   0.0922400000000000    0.8941600000000000    0.9950700000000000 C
   0.1311000000000000    0.8829700000000000    0.1457800000000000 C
   0.8999500000000000    0.8425000000000000    0.1561100000000000 C
   0.1823900000000000    0.9371300000000000    0.2200900000000000 C
   0.4392700000000000    0.6657000000000000    0.9334900000000000 N
   0.1395300000000000    0.9351699999999999    0.0725800000000000 N
   1.1755200000000001    0.0165400000000000    0.2116100000000000 O
   0.7231900000000000    0.9025800000000000    0.1533000000000000 O
   0.2205200000000000    0.8971400000000000    0.2843400000000000 O
