H9 O5
1.0
   5.9959997945203209    0.0000000000000000   -0.0015697491113118
  -0.0041749149326150   15.9469994535048922    0.0000000000000010
   0.0000000000000000    0.0000000000000000   16.6619999999999990
H O
9 5
direct
   0.2921350912768816    0.6785262152794154    0.9112346655083828 H
   0.5064772584024214    0.7059663552499512    0.9706388664567429 H
   0.1081569804382645    0.9079632431332887    0.0211584997625265 H
   0.2830309659119573    0.9641368814148099    0.0687688171040913 H
   1.0258265553914772    0.0019235669619731    0.1945082677014806 H
   0.1241611217728688    0.8493870084878954    0.2942666766957817 H
   0.8441768191896145    0.8614570757133286    0.1552233591419032 H
   0.7023538817823173    0.9277008098105056    0.2063531475875378 H
   0.8644268294400534    0.8623701943054372    0.2436581245032255 H
   0.4392700000000000    0.6657000000000000    0.9334900000000000 O
   0.1395300000000000    0.9351699999999999    0.0725800000000000 O
   1.1755200000000001    0.0165400000000000    0.2116100000000000 O
   0.2205200000000000    0.8971400000000000    0.2843400000000000 O
   0.7231900000000000    0.9025800000000000    0.1533000000000000 O
