Cd4 H33 C27 N6 Cl4 O9
1.0
   5.9959997945203209    0.0000000000000000   -0.0015697491113118
  -0.0041749149326150   15.9469994535048922    0.0000000000000010
   0.0000000000000000    0.0000000000000000   16.6619999999999990
Cd H C N Cl O
4 33 27 6 4 9
direct
   0.1281400000000000    0.4576400000000000    0.6010300000000000 Cd
   0.6284999999999999    0.5428900000000000    0.8989900000000000 Cd
   0.8715300000000000    0.0428000000000000    0.1009700000000000 Cd
   0.3718600000000000    0.9575399999999999    0.3989400000000000 Cd
   0.4571700000000000    0.2333600000000000    0.6031300000000001 H
   0.6647600000000000    0.3633100000000000    0.6374900000000000 H
   0.1945800000000000    0.2972400000000000    0.4911700000000000 H
   0.0134300000000000    0.1610100000000000    0.4532100000000000 H
   0.7919500000000000    0.0344300000000000    0.4313200000000000 H
   0.4127300000000000    0.1169200000000000    0.5103100000000000 H
   0.6339300000000000    0.0590200000000000    0.5511700000000000 H
   0.7556500000000000    0.1683600000000000    0.3549200000000000 H
   0.3999500000000000    0.1927300000000000    0.2869800000000000 H
   0.3720400000000000    0.2031400000000000    0.3925800000000000 H
   0.2019900000000000    0.0716900000000000    0.2915100000000000 H
   0.0428500000000000    0.7334100000000000    0.3967900000000000 H
   0.8352200000000000    0.8633000000000000    0.3624400000000000 H
   0.3054300000000000    0.7970900000000000    0.5087600000000000 H
   0.4866400000000000    0.6609200000000000    0.5467200000000000 H
   0.7081499999999999    0.5344700000000000    0.5686900000000000 H
   0.0873300000000000    0.6169600000000000    0.4896100000000000 H
   0.8660700000000000    0.5590000000000001    0.4488100000000000 H
   0.7446700000000001    0.6684700000000000    0.6450100000000000 H
   0.1004300000000000    0.6928400000000000    0.7129500000000000 H
   0.1283700000000000    0.7031800000000000    0.6073300000000000 H
   0.2981000000000000    0.5717500000000000    0.7084800000000000 H
   0.5431600000000000    0.2667800000000000    0.1031000000000000 H
   0.3351600000000000    0.1369400000000000    0.1374200000000000 H
   0.8055300000000000    0.2032600000000000    0.9910500000000000 H
   0.9870700000000000    0.3394100000000000    0.9531300000000000 H
   0.2086000000000000    0.4659100000000000    0.9314100000000000 H
   0.5879000000000000    0.3832500000000000    0.0102500000000000 H
   0.3670000000000000    0.4412000000000000    0.0512200000000000 H
   0.2447600000000000    0.3320900000000000    0.8548600000000000 H
   0.6003400000000000    0.3077200000000000    0.7869200000000000 H
   0.6283200000000000    0.2972200000000000    0.8925200000000000 H
   0.7983300000000000    0.4287700000000000    0.7915800000000000 H
   0.6219700000000000    0.2440100000000000    0.5773800000000000 C
   0.7175300000000000    0.1858700000000000    0.5246700000000000 C
   0.7366300000000000    0.3169000000000000    0.5971400000000000 C
   0.0322800000000000    0.2792100000000000    0.5153600000000000 C
   0.9294200000000000    0.2043400000000000    0.4938200000000000 C
   0.5931900000000000    0.1059700000000000    0.5049300000000000 C
   0.6317199999999999    0.1173600000000000    0.3542000000000000 C
   0.4005700000000000    0.1578100000000000    0.3439100000000000 C
   0.6827500000000000    0.0632900000000000    0.2798400000000000 C
   0.8780600000000000    0.7440099999999999    0.4225500000000000 C
   0.7825299999999999    0.6858500000000000    0.4752600000000000 C
   0.7633799999999999    0.8168700000000000    0.4027900000000000 C
   0.4677300000000000    0.7791100000000000    0.4845700000000000 C
   0.5706300000000000    0.7042700000000000    0.5061099999999999 C
   0.9068900000000000    0.6059900000000000    0.4950200000000000 C
   0.8684900000000000    0.6174600000000000    0.6457600000000000 C
   0.0997100000000000    0.6578800000000000    0.6560300000000000 C
   0.8173000000000000    0.5634100000000000    0.7201300000000000 C
   0.3783100000000000    0.2562200000000000    0.0773200000000000 C
   0.2829100000000000    0.3144100000000000    0.0246200000000000 C
   0.2634300000000000    0.1833800000000000    0.0970600000000000 C
   0.9678800000000000    0.2212100000000000    0.0152400000000000 C
   0.0709500000000000    0.2960300000000000    0.0000000000000000 C
   0.4074600000000000    0.3942800000000000    0.0049200000000000 C
   0.3687100000000000    0.3830800000000000    0.8541900000000000 C
   0.5998000000000000    0.3426000000000000    0.8438800000000000 C
   0.3175300000000000    0.4372400000000000    0.7798900000000000 C
   0.9393100000000000    0.3346900000000000    0.5665400000000000 N
   0.6402600000000001    0.0650800000000000    0.4273400000000000 N
   0.5606900000000000    0.8346100000000000    0.4333900000000000 N
   0.8598600000000000    0.5651400000000000    0.5726300000000000 N
   0.0606800000000000    0.1656800000000000    0.0664300000000000 N
   0.3603000000000000    0.4352800000000000    0.9273900000000000 N
   0.0780800000000000    0.9620000000000000    0.5048000000000000 Cl
   0.4219900000000000    0.4620600000000000    0.4951800000000000 Cl
   0.9223900000000000    0.5383300000000000    0.0048300000000000 Cl
   0.5775200000000000    0.0382600000000000    0.9951600000000000 Cl
   0.6755900000000000    0.9838700000000000    0.2882800000000000 O
   0.2237900000000000    0.0976900000000000    0.3466400000000000 O
   0.7209100000000001    0.1033200000000000    0.2156300000000000 O
   0.8244100000000000    0.4840100000000000    0.7117100000000000 O
   0.2763400000000000    0.5977300000000000    0.6533400000000000 O
   0.7791100000000000    0.6034600000000000    0.7843400000000000 O
   0.3244600000000000    0.5166400000000000    0.7883800000000000 O
   0.7766900000000000    0.4026700000000000    0.8466700000000000 O
   0.2794000000000000    0.3972700000000000    0.7156300000000000 O
