H4 O2
1.0
  15.3291304144834140    0.0000000000000000    0.6977003194492352
   2.3295180764780508   15.1169624984992019    1.5226395996199429
   0.0000000000000000    0.0000000000000000   22.3829999999999991
H O
4 2
direct
   0.7220832652208270    0.8286190154193521    0.9231886062290074 H
   0.6507492913930494    0.9239245320553714    0.9155270706130829 H
   0.7363428595406247    0.8556481761365561    0.5656765715614458 H
   0.6591612996260869    0.9468347194999530    0.5639282001305717 H
   0.6872200000000001    0.8749000000000000    0.8972300000000000 O
   0.6988300000000000    0.9008800000000000    0.5869600000000000 O
