H12 C24 N4 O4
1.0
  15.3291304144834140    0.0000000000000000    0.6977003194492352
   2.3295180764780508   15.1169624984992019    1.5226395996199429
   0.0000000000000000    0.0000000000000000   22.3829999999999991
H C N O
12 24 4 4
direct
   0.7748300000000000    0.7581599999999999    0.9104100000000001 H
   0.7748800000000000    0.7604800000000000    0.0223700000000000 H
   0.5923900000000000    0.0051900000000000    0.0022900000000000 H
   0.5991600000000000    0.9925400000000000    0.8920800000000000 H
   0.4666000000000000    0.8884600000000000    0.1963800000000000 H
   0.4693600000000000    0.8927300000000000    0.3078500000000000 H
   0.9072600000000000    0.9032600000000000    0.2875600000000000 H
   0.9051200000000000    0.8963700000000000    0.1757200000000000 H
   0.7920199999999999    0.7858800000000000    0.4736100000000000 H
   0.7927800000000000    0.7886400000000000    0.5855500000000000 H
   0.6031500000000000    0.0128800000000000    0.5807300000000000 H
   0.5943500000000000    0.0194500000000000    0.4690000000000000 H
   0.7352200000000000    0.8111800000000000    0.9329700000000000 C
   0.7349300000000000    0.8127600000000000    0.9949100000000000 C
   0.6835000000000000    0.8832500000000000    0.0207400000000000 C
   0.6334000000000000    0.9491600000000000    0.9840200000000000 C
   0.6369899999999999    0.9424200000000000    0.9224300000000000 C
   0.7669500000000000    0.8892300000000000    0.1100800000000000 C
   0.7663400000000000    0.8921400000000000    0.1758300000000000 C
   0.6867300000000000    0.8918000000000000    0.2102400000000000 C
   0.6055199999999999    0.8900600000000000    0.1830300000000000 C
   0.6016200000000000    0.8903500000000000    0.1171900000000000 C
   0.5283900000000000    0.8895500000000000    0.2180500000000000 C
   0.5299400000000000    0.8913400000000000    0.2805400000000000 C
   0.6084400000000000    0.8947700000000000    0.3081200000000000 C
   0.6880800000000000    0.8949300000000000    0.2735800000000000 C
   0.7687200000000000    0.8992800000000000    0.3004700000000000 C
   0.8462600000000000    0.8993300000000000    0.2656800000000000 C
   0.8450000000000000    0.8957100000000000    0.2034500000000000 C
   0.7713900000000000    0.9050200000000000    0.3657600000000000 C
   0.6075900000000000    0.8983100000000001    0.3738800000000000 C
   0.6928700000000000    0.9027500000000001    0.4630300000000000 C
   0.7494000000000000    0.8371499999999999    0.4957900000000000 C
   0.7504900000000000    0.8385899999999999    0.5576500000000000 C
   0.6441800000000000    0.9641900000000000    0.5552300000000000 C
   0.6394000000000000    0.9675100000000000    0.4930900000000000 C
   0.6872200000000001    0.8749000000000000    0.8972300000000000 N
   0.6836700000000000    0.8875000000000000    0.0846500000000000 N
   0.6902600000000000    0.9023400000000000    0.3989500000000000 N
   0.6988300000000000    0.9008800000000000    0.5869600000000000 N
   0.8337500000000000    0.8889600000000000    0.0779800000000000 O
   0.5327700000000000    0.8923300000000000    0.0908900000000000 O
   0.8386900000000000    0.9120000000000000    0.3912100000000000 O
   0.5410199999999999    0.8966800000000000    0.4062100000000000 O
