H8 C14 O4
1.0
  15.3291304144834140    0.0000000000000000    0.6977003194492352
   2.3295180764780508   15.1169624984992019    1.5226395996199429
   0.0000000000000000    0.0000000000000000   22.3829999999999991
H C O
8 14 4
direct
   0.2717600000000000    0.8579900000000000    0.1677300000000000 H
   0.2658900000000000    0.6974700000000000    0.1663700000000000 H
   0.3344600000000000    0.6552800000000000    0.3527700000000000 H
   0.3358600000000000    0.8164600000000000    0.3539200000000000 H
   0.3477300000000000    0.5620000000000001    0.1671900000000000 H
   0.3426600000000000    0.4011800000000000    0.1664000000000000 H
   0.2464000000000000    0.3892100000000000    0.3492800000000000 H
   0.2467200000000000    0.5507800000000000    0.3502400000000000 H
   0.3073500000000000    0.9441900000000000    0.2611500000000000 C
   0.3044400000000000    0.8472600000000000    0.2607700000000000 C
   0.2854500000000000    0.8127300000000000    0.2079600000000000 C
   0.2829600000000000    0.7227800000000000    0.2074200000000000 C
   0.2999300000000000    0.6641700000000000    0.2594800000000000 C
   0.3192400000000000    0.6994800000000000    0.3121900000000000 C
   0.3211000000000000    0.7895400000000000    0.3129400000000000 C
   0.2974900000000000    0.5685500000000000    0.2587900000000000 C
   0.3236500000000000    0.5249700000000000    0.2069900000000000 C
   0.3216500000000000    0.4349200000000000    0.2063600000000000 C
   0.2940500000000000    0.3852800000000000    0.2577100000000000 C
   0.2679600000000000    0.4280200000000000    0.3095400000000000 C
   0.2692500000000000    0.5182200000000000    0.3099800000000000 C
   0.2941500000000000    0.2877800000000000    0.2574300000000000 C
   0.3219900000000000   -0.0280900000000000    0.3110600000000000 O
   0.2965300000000000    0.0000000000000000    0.2112000000000000 O
   0.2775200000000000    0.2447600000000000    0.3071800000000000 O
   0.3119100000000000    0.2550900000000000    0.2072600000000000 O
