Zn4 H44 C80 N4 O20
1.0
  15.3291304144834140    0.0000000000000000    0.6977003194492352
   2.3295180764780508   15.1169624984992019    1.5226395996199429
   0.0000000000000000    0.0000000000000000   22.3829999999999991
Zn H C N O
4 44 80 4 20
direct
   0.3050300000000000    0.1256500000000000    0.1950600000000000 Zn
   0.6999800000000000    0.8928600000000000    0.6794300000000000 Zn
   0.6950400000000000    0.8743600000000000    0.8049400000000000 Zn
   0.3000400000000000    0.1071600000000000    0.3205700000000000 Zn
   0.2252000000000000    0.2418300000000000    0.0896000000000000 H
   0.2251200000000000    0.2395300000000000    0.9776300000000000 H
   0.4076000000000000    0.0000000000000000    0.0000000000000000 H
   0.4008500000000000    0.0074500000000000    0.1079100000000000 H
   0.5333900000000000    0.1115700000000000    0.8036200000000000 H
   0.5306300000000000    0.1073200000000000    0.6921400000000000 H
   0.0927400000000000    0.0967400000000000    0.7124400000000000 H
   0.0948700000000000    0.1036500000000000    0.8242800000000000 H
   0.2079900000000000    0.2141300000000000    0.5264000000000000 H
   0.2072300000000000    0.2113900000000000    0.4144500000000000 H
   0.3968500000000000    0.9871500000000000    0.4192700000000000 H
   0.4056400000000000    0.9805600000000000    0.5310000000000000 H
   0.2717600000000000    0.8579900000000000    0.1677300000000000 H
   0.2658900000000000    0.6974700000000000    0.1663700000000000 H
   0.3344600000000000    0.6552800000000000    0.3527700000000000 H
   0.3358600000000000    0.8164600000000000    0.3539200000000000 H
   0.3477300000000000    0.5620000000000001    0.1671900000000000 H
   0.3426600000000000    0.4011800000000000    0.1664000000000000 H
   0.2464000000000000    0.3892100000000000    0.3492800000000000 H
   0.2467200000000000    0.5507800000000000    0.3502400000000000 H
   0.0198400000000000    0.1874100000000000    0.1650600000000000 H
   0.8580500000000000    0.1874600000000000    0.1649500000000000 H
   0.8670500000000000    0.0649300000000000    0.3471800000000000 H
   0.0272500000000000    0.0703900000000000    0.3470800000000000 H
   0.7507800000000000    0.1114000000000000    0.1605000000000000 H
   0.5897300000000000    0.1051500000000000    0.1609400000000000 H
   0.5716900000000000    0.1256000000000000    0.3505700000000000 H
   0.7320300000000000    0.1351100000000000    0.3511400000000000 H
   0.7282500000000000    0.1420400000000000    0.8322800000000000 H
   0.7341100000000000    0.3025700000000000    0.8336300000000000 H
   0.6655300000000000    0.3447400000000000    0.6472400000000000 H
   0.6641400000000000    0.1835600000000000    0.6460900000000001 H
   0.6522700000000000    0.4380300000000000    0.8328100000000001 H
   0.6573500000000000    0.5988500000000000    0.8336000000000000 H
   0.7536200000000000    0.6108100000000000    0.6507200000000000 H
   0.7532799999999999    0.4492400000000000    0.6497600000000000 H
   0.0000000000000000    0.8126300000000000    0.8349299999999999 H
   0.1419600000000000    0.8125900000000000    0.8350600000000000 H
   0.1329700000000000    0.9351200000000000    0.6528300000000000 H
   0.9727900000000000    0.9296300000000000    0.6529199999999999 H
   0.2492500000000000    0.8886200000000000    0.8395100000000000 H
   0.4103100000000000    0.8948700000000001    0.8390700000000000 H
   0.4283200000000000    0.8744700000000000    0.6494300000000000 H
   0.2679800000000000    0.8649600000000000    0.6488600000000000 H
   0.2648100000000000    0.1888200000000000    0.0670400000000000 C
   0.2650800000000000    0.1872400000000000    0.0050900000000000 C
   0.3165000000000000    0.1167500000000000    0.9792600000000000 C
   0.3666100000000000    0.0508300000000000    0.0159800000000000 C
   0.3630200000000000    0.0575800000000000    0.0775700000000000 C
   0.2330500000000000    0.1108000000000000    0.8899100000000000 C
   0.2336500000000000    0.1078500000000000    0.8241700000000000 C
   0.3132600000000000    0.1082100000000000    0.7897600000000000 C
   0.3944800000000000    0.1099100000000000    0.8169700000000000 C
   0.3983700000000000    0.1096400000000000    0.8828100000000000 C
   0.4716000000000000    0.1104800000000000    0.7819400000000000 C
   0.4700600000000000    0.1086900000000000    0.7194600000000000 C
   0.3915500000000000    0.1052300000000000    0.6918800000000001 C
   0.3119100000000000    0.1050800000000000    0.7264200000000000 C
   0.2312800000000000    0.1006900000000000    0.6995300000000000 C
   0.1537300000000000    0.1006800000000000    0.7343100000000000 C
   0.1549900000000000    0.1043000000000000    0.7965400000000000 C
   0.2286000000000000    0.0949900000000000    0.6342400000000000 C
   0.3924100000000000    0.1016900000000000    0.6261200000000000 C
   0.3071300000000000    0.0972600000000000    0.5369699999999999 C
   0.2506000000000000    0.1628700000000000    0.5042100000000000 C
   0.2495200000000000    0.1614400000000000    0.4423500000000000 C
   0.3558200000000000    0.0358400000000000    0.4447700000000000 C
   0.3606000000000000    0.0325000000000000    0.5069100000000000 C
   0.3073500000000000    0.9441900000000000    0.2611500000000000 C
   0.3044400000000000    0.8472600000000000    0.2607700000000000 C
   0.2854500000000000    0.8127300000000000    0.2079600000000000 C
   0.2829600000000000    0.7227800000000000    0.2074200000000000 C
   0.2999300000000000    0.6641700000000000    0.2594800000000000 C
   0.3192400000000000    0.6994800000000000    0.3121900000000000 C
   0.3211000000000000    0.7895400000000000    0.3129400000000000 C
   0.2974900000000000    0.5685500000000000    0.2587900000000000 C
   0.3236500000000000    0.5249700000000000    0.2069900000000000 C
   0.3216500000000000    0.4349200000000000    0.2063600000000000 C
   0.2940500000000000    0.3852800000000000    0.2577100000000000 C
   0.2679600000000000    0.4280200000000000    0.3095400000000000 C
   0.2692500000000000    0.5182200000000000    0.3099800000000000 C
   0.2941500000000000    0.2877800000000000    0.2574300000000000 C
   0.1312900000000000    0.1294100000000000    0.2560500000000000 C
   0.0335300000000000    0.1294800000000000    0.2561600000000000 C
   0.9851700000000000    0.1614200000000000    0.2047900000000000 C
   0.8947300000000000    0.1602500000000000    0.2048600000000000 C
   0.8496899999999999    0.1262600000000000    0.2560500000000000 C
   0.8990200000000000    0.0941200000000000    0.3073400000000000 C
   0.9893200000000000    0.0959800000000000    0.3074500000000000 C
   0.7539800000000000    0.1231900000000000    0.2558700000000000 C
   0.7119200000000000    0.1155900000000000    0.2024000000000000 C
   0.6220800000000000    0.1110800000000000    0.2023600000000000 C
   0.5712000000000000    0.1134500000000000    0.2559000000000000 C
   0.6121300000000000    0.1219500000000000    0.3093400000000000 C
   0.7018400000000000    0.1267300000000000    0.3093400000000000 C
   0.4746700000000000    0.1072000000000000    0.2563300000000000 C
   0.6926600000000001    0.0558300000000000    0.7388700000000000 C
   0.6955700000000000    0.1527600000000000    0.7392500000000000 C
   0.7145600000000000    0.1873000000000000    0.7920500000000000 C
   0.7170400000000000    0.2772500000000000    0.7925900000000000 C
   0.7000600000000000    0.3358600000000000    0.7405300000000000 C
   0.6807500000000000    0.3005400000000000    0.6878200000000000 C
   0.6788999999999999    0.2104800000000000    0.6870700000000000 C
   0.7025100000000000    0.4314800000000000    0.7412100000000000 C
   0.6763500000000000    0.4750600000000000    0.7930199999999999 C
   0.6783500000000000    0.5651100000000000    0.7936400000000000 C
   0.7059500000000000    0.6147500000000000    0.7422800000000001 C
   0.7320500000000000    0.5720000000000000    0.6904600000000000 C
   0.7307600000000000    0.4818000000000000    0.6900200000000000 C
   0.7058900000000000    0.7122400000000000    0.7425700000000000 C
   0.8687500000000000    0.8705700000000000    0.7439400000000000 C
   0.9664900000000000    0.8705700000000000    0.7438399999999999 C
   0.0148500000000000    0.8386200000000000    0.7952100000000000 C
   0.1052900000000000    0.8398000000000000    0.7951400000000000 C
   0.1503400000000000    0.8737700000000000    0.7439600000000000 C
   0.1010200000000000    0.9059199999999999    0.6926600000000001 C
   0.0107100000000000    0.9040600000000000    0.6925400000000000 C
   0.2460400000000000    0.8768700000000000    0.7441400000000000 C
   0.2881200000000000    0.8844400000000000    0.7976200000000000 C
   0.3779500000000000    0.8889400000000000    0.7976500000000000 C
   0.4288300000000000    0.8865800000000000    0.7441000000000000 C
   0.3878900000000000    0.8781000000000000    0.6906600000000001 C
   0.2981800000000000    0.8733300000000001    0.6906600000000001 C
   0.5253500000000000    0.8928700000000001    0.7436700000000001 C
   0.3128100000000000    0.1251000000000000    0.1027700000000000 N
   0.3163300000000000    0.1124800000000000    0.9153600000000000 N
   0.3097500000000000    0.0976500000000000    0.6010500000000000 N
   0.3011700000000000    0.0991500000000000    0.4130400000000000 N
   0.1662500000000000    0.1110400000000000    0.9220200000000000 O
   0.4672300000000000    0.1076500000000000    0.9091000000000000 O
   0.1613100000000000    0.0879800000000000    0.6087800000000000 O
   0.4589800000000000    0.1033200000000000    0.5937900000000000 O
   0.4333300000000000    0.1114500000000000    0.3068800000000000 O
   0.4414400000000000    0.0977900000000000    0.2066500000000000 O
   0.1692100000000000    0.1515200000000000    0.2062500000000000 O
   0.1689700000000000    0.1062200000000000    0.3059800000000000 O
   0.3219900000000000    0.9719100000000001    0.3110600000000000 O
   0.2965300000000000    0.0000000000000000    0.2112000000000000 O
   0.2775200000000000    0.2447600000000000    0.3071800000000000 O
   0.3119100000000000    0.2550900000000000    0.2072600000000000 O
   0.5666900000000000    0.8885400000000000    0.6931200000000000 O
   0.5586000000000000    0.9023000000000000    0.7933400000000000 O
   0.8308300000000000    0.8484800000000000    0.7937500000000000 O
   0.8310500000000000    0.8938300000000000    0.6940200000000000 O
   0.6780200000000000    0.0281000000000000    0.6889600000000000 O
   0.7035300000000000    0.0085000000000000    0.7888100000000000 O
   0.7225100000000000    0.7552600000000000    0.6928100000000000 O
   0.6880900000000000    0.7449400000000000    0.7927300000000000 O
