H6 O4
1.0
   6.7644995878830967    0.0000000000000000   -0.0023612558970706
  -2.1398493557971578   20.1890802246343242   -0.1165790194411749
   0.0000000000000000    0.0000000000000000   27.8730000000000011
H O
6 4
direct
   0.3611837006077132    0.0288477425780072    0.7863167362026049 H
   1.1040451707045147    0.0739990868809049    0.6691211023121927 H
   1.2285057176630281    0.0629654089898917    0.7282631353022915 H
   1.2391297609263039    0.8649923871463269    0.6557322020874509 H
   1.1153701466181016    0.8480322797084006    0.6429129993283118 H
   0.4113297863395787    0.8854705573897617    0.7238746813180862 H
   0.3077900000000000    0.0113533333333333    0.7559800000000000 O
   1.1569900000000000    0.0395333333333333    0.6876300000000000 O
   1.1415600000000001    0.8496666666666666    0.6771400000000000 O
   0.3085300000000000    0.8693233333333332    0.7464300000000000 O
