H2 C3 O4
1.0
   6.7644995878830967    0.0000000000000000   -0.0023612558970706
  -2.1398493557971578   20.1890802246343242   -0.1165790194411749
   0.0000000000000000    0.0000000000000000   27.8730000000000011
H C O
2 3 4
direct
   0.3268100000000000    0.9536899999999999    0.6454200000000000 H
   0.5196100000000000    0.9551299999999999    0.6902199999999999 H
   0.2686800000000000    0.0051800000000000    0.7115800000000000 C
   0.2644900000000000    0.8846866666666666    0.7038800000000000 C
   0.3582100000000000    0.9502333333333333    0.6837500000000000 C
   0.3077900000000000    0.0113533333333333    0.7559800000000000 O
   1.1569900000000000    0.0395333333333333    0.6876300000000000 O
   0.3085300000000000    0.8693233333333332    0.7464300000000000 O
   1.1415600000000001    0.8496666666666666    0.6771400000000000 O
