Zn12 H106 C111 N12 O44
1.0
   6.7644995878830967    0.0000000000000000   -0.0023612558970706
  -2.1398493557971578   20.1890802246343242   -0.1165790194411749
   0.0000000000000000    0.0000000000000000   27.8730000000000011
Zn H C N O
12 106 111 12 44
direct
   0.9654600000000000    0.1057166666666667    0.7083900000000000 Zn
   0.4654400000000000    0.2724500000000000    0.7915500000000000 Zn
   0.8172600000000000    0.1548100000000000    0.2084700000000000 Zn
   0.3173000000000000    0.3219733333333333    0.2915700000000000 Zn
   0.9654600000000000    0.4390499999999999    0.7083900000000000 Zn
   0.4654400000000000    0.6057833333333333    0.7915500000000000 Zn
   0.8172600000000000    0.4881433333333333    0.2084700000000000 Zn
   0.3173000000000000    0.6553066666666667    0.2915700000000000 Zn
   0.9654600000000000    0.7723833333333333    0.7083900000000000 Zn
   0.4654400000000000    0.9391166666666666    0.7915500000000000 Zn
   0.8172600000000000    0.8214766666666666    0.2084700000000000 Zn
   0.3173000000000000    0.9886400000000000    0.2915700000000000 Zn
   0.3618500000000000    0.2747433333333333    0.1454500000000000 H
   0.3661000000000000    0.0059800000000000    0.1902300000000000 H
   0.4212100000000000    0.1110533333333333    0.3837100000000000 H
   0.4663200000000000    0.1963866666666667    0.3198400000000000 H
   0.0621900000000000    0.3090833333333333    0.3826400000000000 H
   0.0022100000000000    0.2293666666666667    0.4511000000000000 H
   0.0413700000000000    0.1177566666666666    0.4825300000000000 H
   0.1691300000000000    0.0633533333333333    0.4469200000000000 H
   0.3578400000000000    0.1659233333333333    0.5194000000000000 H
   0.8268900000000000    0.1210033333333333    0.8545000000000000 H
   0.0196500000000000    0.1220566666666667    0.8097800000000001 H
   0.3292800000000000    0.1394733333333333    0.6163100000000000 H
   0.5855500000000000    0.1542033333333333    0.6805800000000000 H
   0.9261100000000000    0.0210866666666667    0.6166100000000000 H
   0.6865700000000000    0.0014266666666667    0.5477400000000000 H
   0.3504000000000000    0.0141900000000000    0.5161900000000000 H
   0.1872400000000000    0.0567800000000000    0.5517700000000000 H
   0.4966600000000000    0.1197066666666667    0.4804400000000000 H
   0.3268100000000000    0.2870233333333333    0.6454200000000000 H
   0.5196100000000000    0.2884633333333333    0.6902199999999999 H
   0.8297500000000000    0.3069400000000000    0.8838900000000000 H
   0.0882300000000000    0.3226233333333333    0.8203200000000000 H
   0.4234500000000000    0.1869800000000000    0.8819800000000000 H
   0.1816800000000000    0.1662633333333333    0.9500900000000000 H
   0.8457900000000000    0.1790600000000000    0.9814500000000000 H
   0.6839499999999999    0.2224600000000000    0.9464000000000000 H
   0.9925400000000000    0.2841700000000000    0.0190300000000000 H
   0.8624600000000000    0.1096266666666667    0.3546300000000000 H
   0.8656900000000000    0.1735433333333333    0.3099000000000000 H
   0.9170000000000000    0.2752700000000000    0.1162100000000000 H
   0.9639600000000000    0.0281033333333333    0.1801800000000000 H
   0.5608700000000000    0.1406066666666667    0.1176200000000000 H
   0.4988600000000000    0.0599700000000000    0.0491000000000000 H
   0.5368500000000000    0.2811366666666666    0.0173800000000000 H
   0.6672800000000000    0.2271866666666667    0.0523400000000000 H
   0.8524700000000000    0.3308233333333333    0.9810100000000000 H
   0.3618500000000000    0.6080766666666666    0.1454500000000000 H
   0.3661000000000000    0.3393133333333333    0.1902300000000000 H
   0.4212100000000000    0.4443866666666667    0.3837100000000000 H
   0.4663200000000000    0.5297200000000000    0.3198400000000000 H
   0.0621900000000000    0.6424166666666666    0.3826400000000000 H
   0.0022100000000000    0.5627000000000000    0.4511000000000000 H
   0.0413700000000000    0.4510900000000000    0.4825300000000000 H
   0.1691300000000000    0.3966866666666666    0.4469200000000000 H
   0.3578400000000000    0.4992566666666666    0.5194000000000000 H
   0.8268900000000000    0.4543366666666666    0.8545000000000000 H
   0.0196500000000000    0.4553900000000000    0.8097800000000001 H
   0.3292800000000000    0.4728066666666667    0.6163100000000000 H
   0.5855500000000000    0.4875366666666666    0.6805800000000000 H
   0.9261100000000000    0.3544200000000000    0.6166100000000000 H
   0.6865700000000000    0.3347600000000000    0.5477400000000000 H
   0.3504000000000000    0.3475233333333333    0.5161900000000000 H
   0.1872400000000000    0.3901133333333333    0.5517700000000000 H
   0.4966600000000000    0.4530400000000000    0.4804400000000000 H
   0.3268100000000000    0.6203566666666667    0.6454200000000000 H
   0.5196100000000000    0.6217966666666666    0.6902199999999999 H
   0.8297500000000000    0.6402733333333332    0.8838900000000000 H
   0.0882300000000000    0.6559566666666666    0.8203200000000000 H
   0.4234500000000000    0.5203133333333333    0.8819800000000000 H
   0.1816800000000000    0.4995966666666666    0.9500900000000000 H
   0.8457900000000000    0.5123933333333333    0.9814500000000000 H
   0.6839499999999999    0.5557933333333334    0.9464000000000000 H
   0.9925400000000000    0.6175033333333333    0.0190300000000000 H
   0.8624600000000000    0.4429600000000000    0.3546300000000000 H
   0.8656900000000000    0.5068766666666666    0.3099000000000000 H
   0.9170000000000000    0.6086033333333334    0.1162100000000000 H
   0.9639600000000000    0.3614366666666666    0.1801800000000000 H
   0.5608700000000000    0.4739400000000000    0.1176200000000000 H
   0.4988600000000000    0.3933033333333333    0.0491000000000000 H
   0.5368500000000000    0.6144700000000000    0.0173800000000000 H
   0.6672800000000000    0.5605200000000000    0.0523400000000000 H
   0.8524700000000000    0.6641566666666666    0.9810100000000000 H
   0.3618500000000000    0.9414100000000000    0.1454500000000000 H
   0.3661000000000000    0.6726466666666666    0.1902300000000000 H
   0.4212100000000000    0.7777200000000000    0.3837100000000000 H
   0.4663200000000000    0.8630533333333332    0.3198400000000000 H
   0.0621900000000000    0.9757499999999999    0.3826400000000000 H
   0.0022100000000000    0.8960333333333332    0.4511000000000000 H
   0.0413700000000000    0.7844233333333333    0.4825300000000000 H
   0.1691300000000000    0.7300200000000000    0.4469200000000000 H
   0.3578400000000000    0.8325899999999999    0.5194000000000000 H
   0.8268900000000000    0.7876700000000000    0.8545000000000000 H
   0.0196500000000000    0.7887233333333333    0.8097800000000001 H
   0.3292800000000000    0.8061400000000000    0.6163100000000000 H
   0.5855500000000000    0.8208700000000000    0.6805800000000000 H
   0.9261100000000000    0.6877533333333333    0.6166100000000000 H
   0.6865700000000000    0.6680933333333333    0.5477400000000000 H
   0.3504000000000000    0.6808566666666667    0.5161900000000000 H
   0.1872400000000000    0.7234466666666666    0.5517700000000000 H
   0.4966600000000000    0.7863733333333333    0.4804400000000000 H
   0.8297500000000000    0.9736066666666666    0.8838900000000000 H
   0.0882300000000000    0.9892900000000000    0.8203200000000000 H
   0.4234500000000000    0.8536466666666667    0.8819800000000000 H
   0.1816800000000000    0.8329299999999999    0.9500900000000000 H
   0.8457900000000000    0.8457266666666666    0.9814500000000000 H
   0.6839499999999999    0.8891266666666666    0.9464000000000000 H
   0.9925400000000000    0.9508366666666666    0.0190300000000000 H
   0.8624600000000000    0.7762933333333333    0.3546300000000000 H
   0.8656900000000000    0.8402099999999999    0.3099000000000000 H
   0.9170000000000000    0.9419366666666666    0.1162100000000000 H
   0.9639600000000000    0.6947700000000000    0.1801800000000000 H
   0.5608700000000000    0.8072733333333333    0.1176200000000000 H
   0.4988600000000000    0.7266366666666666    0.0491000000000000 H
   0.5368500000000000    0.9478033333333333    0.0173800000000000 H
   0.6672800000000000    0.8938533333333333    0.0523400000000000 H
   0.8524700000000000    0.9974900000000000    0.9810100000000000 H
   0.1540400000000000    0.2545433333333333    0.2040000000000000 C
   0.3511600000000000    0.2854900000000000    0.1837800000000000 C
   0.5154400000000000    0.2557199999999999    0.2115300000000000 C
   0.3427400000000000    0.1551433333333333    0.3864700000000000 C
   0.3682200000000000    0.2019433333333333    0.3502500000000000 C
   0.1414700000000000    0.2651700000000000    0.3855200000000000 C
   0.1093700000000000    0.2205133333333333    0.4231400000000000 C
   0.2109200000000000    0.1637866666666667    0.4241300000000000 C
   0.1817800000000000    0.1130900000000000    0.4634200000000000 C
   0.7646200000000000    0.0514533333333333    0.7957800000000000 C
   0.8582500000000000    0.1172200000000000    0.8161700000000000 C
   0.7686100000000000    0.1718900000000000    0.7885300000000000 C
   0.4620100000000000    0.1135700000000000    0.6133999999999999 C
   0.6026700000000000    0.1219100000000000    0.6498400000000000 C
   0.7936800000000001    0.0472300000000000    0.6139200000000000 C
   0.6594700000000000    0.0366966666666667    0.5760800000000000 C
   0.4885700000000000    0.0702233333333333    0.5752800000000000 C
   0.3367000000000000    0.0608900000000000    0.5356200000000000 C
   0.2644900000000000    0.2180200000000000    0.7038800000000000 C
   0.3582100000000000    0.2835666666666666    0.6837500000000000 C
   0.9618400000000000    0.2806966666666666    0.8864800000000000 C
   0.1037000000000000    0.2895566666666667    0.8504300000000000 C
   0.2917400000000000    0.2134533333333333    0.8850600000000000 C
   0.1563100000000000    0.2023633333333333    0.9224900000000000 C
   0.9861799999999999    0.2362666666666667    0.9237100000000000 C
   0.8328400000000000    0.2261733333333333    0.9628900000000000 C
   0.6542500000000000    0.0883900000000000    0.2960300000000000 C
   0.8513100000000000    0.1198166666666667    0.3163100000000000 C
   0.0156700000000000    0.0897966666666667    0.2885300000000000 C
   0.8390100000000000    0.3194333333333333    0.1135300000000000 C
   0.8656000000000000    0.0334033333333333    0.1498000000000000 C
   0.6394400000000000    0.0965100000000000    0.1146700000000000 C
   0.6062300000000000    0.0513400000000000    0.0770100000000000 C
   0.7071200000000000    0.3277900000000000    0.0758900000000000 C
   0.6780100000000000    0.2769100000000000    0.0362700000000000 C
   0.3542800000000000    0.1185766666666667    0.4997500000000000 C
   0.8498200000000000    0.2831566666666666    0.9998200000000000 C
   0.1540400000000000    0.5878766666666666    0.2040000000000000 C
   0.3511600000000000    0.6188233333333333    0.1837800000000000 C
   0.5154400000000000    0.5890533333333332    0.2115300000000000 C
   0.3427400000000000    0.4884766666666667    0.3864700000000000 C
   0.3682200000000000    0.5352766666666666    0.3502500000000000 C
   0.1414700000000000    0.5985033333333334    0.3855200000000000 C
   0.1093700000000000    0.5538466666666666    0.4231400000000000 C
   0.2109200000000000    0.4971200000000000    0.4241300000000000 C
   0.1817800000000000    0.4464233333333333    0.4634200000000000 C
   0.7646200000000000    0.3847866666666667    0.7957800000000000 C
   0.8582500000000000    0.4505533333333333    0.8161700000000000 C
   0.7686100000000000    0.5052233333333334    0.7885300000000000 C
   0.4620100000000000    0.4469033333333333    0.6133999999999999 C
   0.6026700000000000    0.4552433333333333    0.6498400000000000 C
   0.7936800000000001    0.3805633333333333    0.6139200000000000 C
   0.6594700000000000    0.3700300000000000    0.5760800000000000 C
   0.4885700000000000    0.4035566666666667    0.5752800000000000 C
   0.3367000000000000    0.3942233333333333    0.5356200000000000 C
   0.2644900000000000    0.5513533333333334    0.7038800000000000 C
   0.3582100000000000    0.6169000000000000    0.6837500000000000 C
   0.2686800000000000    0.3385133333333333    0.7115800000000000 C
   0.9618400000000000    0.6140300000000000    0.8864800000000000 C
   0.1037000000000000    0.6228899999999999    0.8504300000000000 C
   0.2917400000000000    0.5467866666666666    0.8850600000000000 C
   0.1563100000000000    0.5356966666666667    0.9224900000000000 C
   0.9861799999999999    0.5696000000000000    0.9237100000000000 C
   0.8328400000000000    0.5595066666666666    0.9628900000000000 C
   0.6542500000000000    0.4217233333333333    0.2960300000000000 C
   0.8513100000000000    0.4531499999999999    0.3163100000000000 C
   0.0156700000000000    0.4231300000000000    0.2885300000000000 C
   0.8390100000000000    0.6527666666666667    0.1135300000000000 C
   0.8656000000000000    0.3667366666666667    0.1498000000000000 C
   0.6394400000000000    0.4298433333333333    0.1146700000000000 C
   0.6062300000000000    0.3846733333333333    0.0770100000000000 C
   0.7071200000000000    0.6611233333333333    0.0758900000000000 C
   0.6780100000000000    0.6102433333333332    0.0362700000000000 C
   0.3542800000000000    0.4519100000000000    0.4997500000000000 C
   0.8498200000000000    0.6164900000000000    0.9998200000000000 C
   0.1540400000000000    0.9212100000000000    0.2040000000000000 C
   0.3511600000000000    0.9521566666666665    0.1837800000000000 C
   0.5154400000000000    0.9223866666666666    0.2115300000000000 C
   0.3427400000000000    0.8218099999999999    0.3864700000000000 C
   0.3682200000000000    0.8686099999999999    0.3502500000000000 C
   0.1414700000000000    0.9318366666666666    0.3855200000000000 C
   0.1093700000000000    0.8871800000000000    0.4231400000000000 C
   0.2109200000000000    0.8304533333333333    0.4241300000000000 C
   0.1817800000000000    0.7797566666666667    0.4634200000000000 C
   0.7646200000000000    0.7181200000000000    0.7957800000000000 C
   0.8582500000000000    0.7838866666666666    0.8161700000000000 C
   0.7686100000000000    0.8385566666666666    0.7885300000000000 C
   0.4620100000000000    0.7802366666666667    0.6133999999999999 C
   0.6026700000000000    0.7885766666666666    0.6498400000000000 C
   0.7936800000000001    0.7138966666666666    0.6139200000000000 C
   0.6594700000000000    0.7033633333333333    0.5760800000000000 C
   0.4885700000000000    0.7368899999999999    0.5752800000000000 C
   0.3367000000000000    0.7275566666666666    0.5356200000000000 C
   0.2686800000000000    0.6718466666666666    0.7115800000000000 C
   0.9618400000000000    0.9473633333333333    0.8864800000000000 C
   0.1037000000000000    0.9562233333333333    0.8504300000000000 C
   0.2917400000000000    0.8801200000000000    0.8850600000000000 C
   0.1563100000000000    0.8690300000000000    0.9224900000000000 C
   0.9861799999999999    0.9029333333333333    0.9237100000000000 C
   0.8328400000000000    0.8928400000000000    0.9628900000000000 C
   0.6542500000000000    0.7550566666666666    0.2960300000000000 C
   0.8513100000000000    0.7864833333333333    0.3163100000000000 C
   0.0156700000000000    0.7564633333333333    0.2885300000000000 C
   0.8390100000000000    0.9861000000000000    0.1135300000000000 C
   0.8656000000000000    0.7000700000000000    0.1498000000000000 C
   0.6394400000000000    0.7631766666666666    0.1146700000000000 C
   0.6062300000000000    0.7180066666666667    0.0770100000000000 C
   0.7071200000000000    0.9944566666666665    0.0758900000000000 C
   0.6780100000000000    0.9435766666666666    0.0362700000000000 C
   0.3542800000000000    0.7852433333333333    0.4997500000000000 C
   0.8498200000000000    0.9498233333333332    0.9998200000000000 C
   0.2698000000000000    0.2563866666666667    0.3496100000000000 N
   0.7668700000000001    0.0895133333333333    0.6502599999999999 N
   0.2669400000000000    0.2566800000000000    0.8495400000000000 N
   0.7681800000000000    0.0880733333333333    0.1505100000000000 N
   0.2698000000000000    0.5897200000000000    0.3496100000000000 N
   0.7668700000000001    0.4228466666666666    0.6502599999999999 N
   0.2669400000000000    0.5900133333333333    0.8495400000000000 N
   0.7681800000000000    0.4214066666666667    0.1505100000000000 N
   0.2698000000000000    0.9230533333333333    0.3496100000000000 N
   0.7668700000000001    0.7561800000000000    0.6502599999999999 N
   0.2669400000000000    0.9233466666666665    0.8495400000000000 N
   0.7681800000000000    0.7547400000000000    0.1505100000000000 N
   0.1078100000000000    0.2693800000000000    0.2466200000000000 O
   0.0488200000000000    0.2136233333333333    0.1772200000000000 O
   0.5340800000000000    0.2692700000000000    0.2558700000000000 O
   0.6179300000000000    0.2179866666666667    0.1876100000000000 O
   0.8076500000000000    0.0359300000000000    0.7531000000000000 O
   0.6427500000000000    0.0165400000000000    0.8225800000000000 O
   0.8083399999999999    0.1779200000000000    0.7442100000000000 O
   0.6560500000000000    0.2062100000000000    0.8124900000000000 O
   0.3085300000000000    0.2026566666666667    0.7464300000000000 O
   0.1415600000000000    0.1830000000000000    0.6771400000000000 O
   0.6077100000000000    0.1026766666666667    0.2534500000000000 O
   0.5496000000000000    0.0476766666666667    0.3227400000000000 O
   0.0339500000000000    0.1027033333333333    0.2441800000000000 O
   0.1186100000000000    0.0525033333333333    0.3124200000000000 O
   0.1078100000000000    0.6027133333333332    0.2466200000000000 O
   0.0488200000000000    0.5469566666666666    0.1772200000000000 O
   0.5340800000000000    0.6026033333333334    0.2558700000000000 O
   0.6179300000000000    0.5513200000000000    0.1876100000000000 O
   0.8076500000000000    0.3692633333333333    0.7531000000000000 O
   0.6427500000000000    0.3498733333333333    0.8225800000000000 O
   0.8083399999999999    0.5112533333333333    0.7442100000000000 O
   0.6560500000000000    0.5395433333333333    0.8124900000000000 O
   0.3085300000000000    0.5359900000000000    0.7464300000000000 O
   0.1415600000000000    0.5163333333333333    0.6771400000000000 O
   0.3077900000000000    0.3446866666666666    0.7559800000000000 O
   0.1569900000000000    0.3728666666666666    0.6876300000000000 O
   0.6077100000000000    0.4360100000000000    0.2534500000000000 O
   0.5496000000000000    0.3810100000000000    0.3227400000000000 O
   0.0339500000000000    0.4360366666666666    0.2441800000000000 O
   0.1186100000000000    0.3858366666666667    0.3124200000000000 O
   0.1078100000000000    0.9360466666666666    0.2466200000000000 O
   0.0488200000000000    0.8802900000000000    0.1772200000000000 O
   0.5340800000000000    0.9359366666666666    0.2558700000000000 O
   0.6179300000000000    0.8846533333333333    0.1876100000000000 O
   0.8076500000000000    0.7025966666666666    0.7531000000000000 O
   0.6427500000000000    0.6832066666666666    0.8225800000000000 O
   0.8083399999999999    0.8445866666666666    0.7442100000000000 O
   0.6560500000000000    0.8728766666666666    0.8124900000000000 O
   0.3077900000000000    0.6780200000000000    0.7559800000000000 O
   0.1569900000000000    0.7061999999999999    0.6876300000000000 O
   0.6077100000000000    0.7693433333333333    0.2534500000000000 O
   0.5496000000000000    0.7143433333333333    0.3227400000000000 O
   0.0339500000000000    0.7693700000000000    0.2441800000000000 O
   0.1186100000000000    0.7191700000000000    0.3124200000000000 O
