H8 O4
1.0
  12.5630000000000006    0.0000000000000000    0.0000000000000008
   0.0035076929060912   25.1219997551168390    0.0000000000000015
   0.0000000000000000    0.0000000000000000   25.8279999999999994
H O
8 4
direct
   0.5741024966939623    0.8950195547529370    0.4985169829654426 H
   0.5969313460383189    0.8296515639530556    0.4949617346902688 H
   0.9259049869607001    0.8550024907015497    0.4985105643829963 H
   0.9030773844983742    0.9203692690450183    0.4949630842365415 H
   0.2834185386293834    0.6998687591367027    0.1828601198882819 H
   0.1675826900658230    0.7190693779868891    0.1571324559941821 H
   0.2166741838466560    0.0501466981704741    0.1828363866527069 H
   0.3324184083375155    0.0309430632768678    0.1571132042975502 H
   0.6124600000000000    0.8638399999999999    0.5114700000000000 O
   0.8875500000000000    0.8861800000000000    0.5114700000000000 O
   0.2286300000000000    0.6948850000000000    0.1563700000000000 O
   0.2713700000000000    0.0551250000000000    0.1563000000000000 O
