Zn32 H252 C434 N62 O158
1.0
  27.4019684103056917    0.0000000000000000   -0.0416081795929564
   0.0022944880948913   26.1911579484226067   -8.9927806631822040
   0.0000000000000000    0.0000000000000000   28.1140000000000008
Zn H C N O
32 252 434 62 158
direct
   0.2209450000000000    0.7957050000000000    0.0186650000000000 Zn
   0.2209450000000000    0.2957050000000000    0.0186650000000000 Zn
   0.0291150000000000    0.2956950000000000    0.7687400000000000 Zn
   0.0291150000000000    0.7956950000000000    0.7687400000000000 Zn
   0.7791000000000000    0.2060200000000000    0.9814750000000000 Zn
   0.7791000000000000    0.7060200000000000    0.9814750000000000 Zn
   0.9709700000000000    0.2061000000000000    0.7313499999999999 Zn
   0.9709700000000000    0.7060999999999999    0.7313499999999999 Zn
   0.2209450000000000    0.2957050000000000    0.5186650000000000 Zn
   0.2209450000000000    0.7957050000000000    0.5186650000000000 Zn
   0.0291150000000000    0.2956950000000000    0.2687400000000000 Zn
   0.0291150000000000    0.7956950000000000    0.2687400000000000 Zn
   0.7791000000000000    0.2060200000000000    0.4814750000000000 Zn
   0.7791000000000000    0.7060200000000000    0.4814750000000000 Zn
   0.9709700000000000    0.2061000000000000    0.2313500000000000 Zn
   0.9709700000000000    0.7060999999999999    0.2313500000000000 Zn
   0.7209449999999999    0.2957050000000000    0.0186650000000000 Zn
   0.7209449999999999    0.7957050000000000    0.0186650000000000 Zn
   0.5291150000000000    0.2956950000000000    0.7687400000000000 Zn
   0.5291150000000000    0.7956950000000000    0.7687400000000000 Zn
   0.2791000000000000    0.7060200000000000    0.9814750000000000 Zn
   0.2791000000000000    0.2060200000000000    0.9814750000000000 Zn
   0.4709700000000000    0.2061000000000000    0.7313499999999999 Zn
   0.4709700000000000    0.7060999999999999    0.7313499999999999 Zn
   0.7209449999999999    0.7957050000000000    0.5186650000000000 Zn
   0.7209449999999999    0.2957050000000000    0.5186650000000000 Zn
   0.5291150000000000    0.2956950000000000    0.2687400000000000 Zn
   0.5291150000000000    0.7956950000000000    0.2687400000000000 Zn
   0.2791000000000000    0.7060200000000000    0.4814750000000000 Zn
   0.2791000000000000    0.2060200000000000    0.4814750000000000 Zn
   0.4709700000000000    0.2061000000000000    0.2313500000000000 Zn
   0.4709700000000000    0.7060999999999999    0.2313500000000000 Zn
   0.7135904321102118    0.2063602304612800    0.5558929525064693 H
   0.2285250000000000    0.4871300000000000    0.1123200000000000 H
   0.0843650000000000    0.4316850000000000    0.0585050000000000 H
   0.1208900000000000    0.3433650000000000    0.0252100000000000 H
   0.2577750000000000    0.3974050000000000    0.0794600000000000 H
   0.1941050000000000    0.5434550000000000    0.0793750000000000 H
   0.1362250000000000    0.7548100000000000    0.1339500000000000 H
   0.2106550000000000    0.6149249999999999    0.0569850000000000 H
   0.0945300000000000    0.6160099999999999    0.1611800000000000 H
   0.2285250000000000    0.9871300000000001    0.1123200000000000 H
   0.0843650000000000    0.9316850000000000    0.0585050000000000 H
   0.1208900000000000    0.8433649999999999    0.0252100000000000 H
   0.2577750000000000    0.8974050000000000    0.0794600000000000 H
   0.1941050000000000    0.0434550000000000    0.0793750000000000 H
   0.1362250000000000    0.2548100000000000    0.1339500000000000 H
   0.2106550000000000    0.1149250000000000    0.0569850000000000 H
   0.0945300000000000    0.1160100000000000    0.1611800000000000 H
   0.0223100000000000    0.9868749999999999    0.8630750000000000 H
   0.1660300000000000    0.9312350000000000    0.8082050000000001 H
   0.1293950000000000    0.8429300000000000    0.7753399999999999 H
   0.9929200000000000    0.8971300000000000    0.8305500000000000 H
   0.0561500000000000    0.0429100000000000    0.8292600000000000 H
   0.1135400000000000    0.2544050000000000    0.8838600000000000 H
   0.0394750000000000    0.1143300000000000    0.8066150000000001 H
   0.1556550000000000    0.1157000000000000    0.9111500000000000 H
   0.0223100000000000    0.4868750000000000    0.8630750000000000 H
   0.1660300000000000    0.4312350000000000    0.8082050000000001 H
   0.1293950000000000    0.3429300000000000    0.7753399999999999 H
   0.9929200000000000    0.3971300000000000    0.8305500000000000 H
   0.0561500000000000    0.5429100000000000    0.8292600000000000 H
   0.1135400000000000    0.7544050000000000    0.8838600000000000 H
   0.0394750000000000    0.6143300000000000    0.8066150000000001 H
   0.1556550000000000    0.6157000000000000    0.9111500000000000 H
   0.7712049999999999    0.5144350000000000    0.8885700000000001 H
   0.9154350000000000    0.5698650000000000    0.9421500000000000 H
   0.8790100000000001    0.6582749999999999    0.9750600000000000 H
   0.7420500000000000    0.6042050000000000    0.9211100000000000 H
   0.8056200000000000    0.4579150000000000    0.9209900000000000 H
   0.8643750000000000    0.2467650000000000    0.8661500000000000 H
   0.7892900000000000    0.3861950000000000    0.9432000000000000 H
   0.9054100000000000    0.3858950000000000    0.8391999999999999 H
   0.7712049999999999    0.0144350000000000    0.8885700000000001 H
   0.9154350000000000    0.0698650000000000    0.9421500000000000 H
   0.8790100000000001    0.1582750000000000    0.9750600000000000 H
   0.7420500000000000    0.1042050000000000    0.9211100000000000 H
   0.8056200000000000    0.9579150000000001    0.9209900000000000 H
   0.8643750000000000    0.7467650000000000    0.8661500000000000 H
   0.7892900000000000    0.8861950000000001    0.9432000000000000 H
   0.9054100000000000    0.8858950000000000    0.8391999999999999 H
   0.9779650000000000    0.5147600000000000    0.6376650000000000 H
   0.8341950000000000    0.5705000000000000    0.6922500000000000 H
   0.8708199999999999    0.6588250000000000    0.7249500000000000 H
   0.0073400000000000    0.6045150000000000    0.6699750000000000 H
   0.9438450000000000    0.4587250000000000    0.6713050000000000 H
   0.8862850000000000    0.2472550000000000    0.6162650000000000 H
   0.9606500000000000    0.3871200000000000    0.6935550000000000 H
   0.8442499999999999    0.3861800000000000    0.5893650000000000 H
   0.9779650000000000    0.0147600000000000    0.6376650000000000 H
   0.8341950000000000    0.0705000000000000    0.6922500000000000 H
   0.8708199999999999    0.1588250000000000    0.7249500000000000 H
   0.0073400000000000    0.1045150000000000    0.6699750000000000 H
   0.9438450000000000    0.9587250000000000    0.6713050000000000 H
   0.8862850000000000    0.7472550000000000    0.6162650000000000 H
   0.9606500000000000    0.8871200000000000    0.6935550000000000 H
   0.8442499999999999    0.8861800000000000    0.5893650000000000 H
   0.2285250000000000    0.9871300000000001    0.6123200000000000 H
   0.0843650000000000    0.9316850000000000    0.5585050000000000 H
   0.1208900000000000    0.8433649999999999    0.5252100000000000 H
   0.2577750000000000    0.8974050000000000    0.5794600000000000 H
   0.1941050000000000    0.0434550000000000    0.5793750000000000 H
   0.1362250000000000    0.2548100000000000    0.6339500000000000 H
   0.2106550000000000    0.1149250000000000    0.5569850000000000 H
   0.0945300000000000    0.1160100000000000    0.6611800000000000 H
   0.2285250000000000    0.4871300000000000    0.6123200000000000 H
   0.0843650000000000    0.4316850000000000    0.5585050000000000 H
   0.1208900000000000    0.3433650000000000    0.5252100000000000 H
   0.2577750000000000    0.3974050000000000    0.5794600000000000 H
   0.1941050000000000    0.5434550000000000    0.5793750000000000 H
   0.1362250000000000    0.7548100000000000    0.6339500000000000 H
   0.2106550000000000    0.6149249999999999    0.5569850000000000 H
   0.0945300000000000    0.6160099999999999    0.6611800000000000 H
   0.0223100000000000    0.9868749999999999    0.3630750000000000 H
   0.1660300000000000    0.9312350000000000    0.3082050000000000 H
   0.1293950000000000    0.8429300000000000    0.2753400000000000 H
   0.9929200000000000    0.8971300000000000    0.3305500000000000 H
   0.0561500000000000    0.0429100000000000    0.3292600000000000 H
   0.1135400000000000    0.2544050000000000    0.3838600000000000 H
   0.0394750000000000    0.1143300000000000    0.3066150000000000 H
   0.1556550000000000    0.1157000000000000    0.4111500000000000 H
   0.0223100000000000    0.4868750000000000    0.3630750000000000 H
   0.1660300000000000    0.4312350000000000    0.3082050000000000 H
   0.1293950000000000    0.3429300000000000    0.2753400000000000 H
   0.9929200000000000    0.3971300000000000    0.3305500000000000 H
   0.0561500000000000    0.5429100000000000    0.3292600000000000 H
   0.1135400000000000    0.7544050000000000    0.3838600000000000 H
   0.0394750000000000    0.6143300000000000    0.3066150000000000 H
   0.1556550000000000    0.6157000000000000    0.4111500000000000 H
   0.7712049999999999    0.5144350000000000    0.3885700000000000 H
   0.9154350000000000    0.5698650000000000    0.4421500000000000 H
   0.8790100000000001    0.6582749999999999    0.4750600000000000 H
   0.7420500000000000    0.6042050000000000    0.4211100000000000 H
   0.8056200000000000    0.4579150000000000    0.4209900000000000 H
   0.8643750000000000    0.2467650000000000    0.3661500000000000 H
   0.7892900000000000    0.3861950000000000    0.4432000000000000 H
   0.9054100000000000    0.3858950000000000    0.3392000000000000 H
   0.7712049999999999    0.0144350000000000    0.3885700000000000 H
   0.9154350000000000    0.0698650000000000    0.4421500000000000 H
   0.8790100000000001    0.1582750000000000    0.4750600000000000 H
   0.7420500000000000    0.1042050000000000    0.4211100000000000 H
   0.8056200000000000    0.9579150000000001    0.4209900000000000 H
   0.8643750000000000    0.7467650000000000    0.3661500000000000 H
   0.7892900000000000    0.8861950000000001    0.4432000000000000 H
   0.9054100000000000    0.8858950000000000    0.3392000000000000 H
   0.9779650000000000    0.5147600000000000    0.1376650000000000 H
   0.8341950000000000    0.5705000000000000    0.1922500000000000 H
   0.8708199999999999    0.6588250000000000    0.2249500000000000 H
   0.0073400000000000    0.6045150000000000    0.1699750000000000 H
   0.9438450000000000    0.4587250000000000    0.1713050000000000 H
   0.8862850000000000    0.2472550000000000    0.1162650000000000 H
   0.9606500000000000    0.3871200000000000    0.1935550000000000 H
   0.8442499999999999    0.3861800000000000    0.0893650000000000 H
   0.9779650000000000    0.0147600000000000    0.1376650000000000 H
   0.8341950000000000    0.0705000000000000    0.1922500000000000 H
   0.8708199999999999    0.1588250000000000    0.2249500000000000 H
   0.0073400000000000    0.1045150000000000    0.1699750000000000 H
   0.9438450000000000    0.9587250000000000    0.1713050000000000 H
   0.8862850000000000    0.7472550000000000    0.1162650000000000 H
   0.9606500000000000    0.8871200000000000    0.1935550000000000 H
   0.8442499999999999    0.8861800000000000    0.0893650000000000 H
   0.5750486438759111    0.2263063914441718    0.6942672864191958 H
   0.7285250000000000    0.9871300000000001    0.1123200000000000 H
   0.5843650000000000    0.9316850000000000    0.0585050000000000 H
   0.6208899999999999    0.8433649999999999    0.0252100000000000 H
   0.7577750000000000    0.8974050000000000    0.0794600000000000 H
   0.6941050000000000    0.0434550000000000    0.0793750000000000 H
   0.6362250000000000    0.2548100000000000    0.1339500000000000 H
   0.7106550000000000    0.1149250000000000    0.0569850000000000 H
   0.5945300000000000    0.1160100000000000    0.1611800000000000 H
   0.7285250000000000    0.4871300000000000    0.1123200000000000 H
   0.5843650000000000    0.4316850000000000    0.0585050000000000 H
   0.6208899999999999    0.3433650000000000    0.0252100000000000 H
   0.7577750000000000    0.3974050000000000    0.0794600000000000 H
   0.6941050000000000    0.5434550000000000    0.0793750000000000 H
   0.6362250000000000    0.7548100000000000    0.1339500000000000 H
   0.7106550000000000    0.6149249999999999    0.0569850000000000 H
   0.5945300000000000    0.6160099999999999    0.1611800000000000 H
   0.5223100000000001    0.9868749999999999    0.8630750000000000 H
   0.6660300000000000    0.9312350000000000    0.8082050000000001 H
   0.6293950000000000    0.8429300000000000    0.7753399999999999 H
   0.4929200000000000    0.8971300000000000    0.8305500000000000 H
   0.5561500000000000    0.0429100000000000    0.8292600000000000 H
   0.6135400000000000    0.2544050000000000    0.8838600000000000 H
   0.5394750000000000    0.1143300000000000    0.8066150000000001 H
   0.6556550000000000    0.1157000000000000    0.9111500000000000 H
   0.5223100000000001    0.4868750000000000    0.8630750000000000 H
   0.6660300000000000    0.4312350000000000    0.8082050000000001 H
   0.6293950000000000    0.3429300000000000    0.7753399999999999 H
   0.4929200000000000    0.3971300000000000    0.8305500000000000 H
   0.5561500000000000    0.5429100000000000    0.8292600000000000 H
   0.6135400000000000    0.7544050000000000    0.8838600000000000 H
   0.5394750000000000    0.6143300000000000    0.8066150000000001 H
   0.6556550000000000    0.6157000000000000    0.9111500000000000 H
   0.2712050000000000    0.0144350000000000    0.8885700000000001 H
   0.4154350000000000    0.0698650000000000    0.9421500000000000 H
   0.3790100000000000    0.1582750000000000    0.9750600000000000 H
   0.2420500000000000    0.1042050000000000    0.9211100000000000 H
   0.3056200000000000    0.9579150000000001    0.9209900000000000 H
   0.3643750000000000    0.7467650000000000    0.8661500000000000 H
   0.2892900000000000    0.8861950000000001    0.9432000000000000 H
   0.4054100000000000    0.8858950000000000    0.8391999999999999 H
   0.2712050000000000    0.5144350000000000    0.8885700000000001 H
   0.4154350000000000    0.5698650000000000    0.9421500000000000 H
   0.3790100000000000    0.6582749999999999    0.9750600000000000 H
   0.2420500000000000    0.6042050000000000    0.9211100000000000 H
   0.3056200000000000    0.4579150000000000    0.9209900000000000 H
   0.3643750000000000    0.2467650000000000    0.8661500000000000 H
   0.2892900000000000    0.3861950000000000    0.9432000000000000 H
   0.4054100000000000    0.3858950000000000    0.8391999999999999 H
   0.4779650000000000    0.5147600000000000    0.6376650000000000 H
   0.3341950000000000    0.5705000000000000    0.6922500000000000 H
   0.3708200000000000    0.6588250000000000    0.7249500000000000 H
   0.5073400000000000    0.6045150000000000    0.6699750000000000 H
   0.4438450000000000    0.4587250000000000    0.6713050000000000 H
   0.3862850000000000    0.2472550000000000    0.6162650000000000 H
   0.4606500000000000    0.3871200000000000    0.6935550000000000 H
   0.3442500000000000    0.3861800000000000    0.5893650000000000 H
   0.4779650000000000    0.0147600000000000    0.6376650000000000 H
   0.3341950000000000    0.0705000000000000    0.6922500000000000 H
   0.3708200000000000    0.1588250000000000    0.7249500000000000 H
   0.5073400000000000    0.1045150000000000    0.6699750000000000 H
   0.4438450000000000    0.9587250000000000    0.6713050000000000 H
   0.3862850000000000    0.7472550000000000    0.6162650000000000 H
   0.4606500000000000    0.8871200000000000    0.6935550000000000 H
   0.3442500000000000    0.8861800000000000    0.5893650000000000 H
   0.6560085647370956    0.8741048007559205    0.5466630630175073 H
   0.7118786095627199    0.8961674598766711    0.5681658176632942 H
   0.7285250000000000    0.4871300000000000    0.6123200000000000 H
   0.5843650000000000    0.4316850000000000    0.5585050000000000 H
   0.6208899999999999    0.3433650000000000    0.5252100000000000 H
   0.7577750000000000    0.3974050000000000    0.5794600000000000 H
   0.6941050000000000    0.5434550000000000    0.5793750000000000 H
   0.6362250000000000    0.7548100000000000    0.6339500000000000 H
   0.7106550000000000    0.6149249999999999    0.5569850000000000 H
   0.5945300000000000    0.6160099999999999    0.6611800000000000 H
   0.5223100000000001    0.9868749999999999    0.3630750000000000 H
   0.6660300000000000    0.9312350000000000    0.3082050000000000 H
   0.6293950000000000    0.8429300000000000    0.2753400000000000 H
   0.4929200000000000    0.8971300000000000    0.3305500000000000 H
   0.5561500000000000    0.0429100000000000    0.3292600000000000 H
   0.6135400000000000    0.2544050000000000    0.3838600000000000 H
   0.5394750000000000    0.1143300000000000    0.3066150000000000 H
   0.6556550000000000    0.1157000000000000    0.4111500000000000 H
   0.5223100000000001    0.4868750000000000    0.3630750000000000 H
   0.6660300000000000    0.4312350000000000    0.3082050000000000 H
   0.6293950000000000    0.3429300000000000    0.2753400000000000 H
   0.4929200000000000    0.3971300000000000    0.3305500000000000 H
   0.5561500000000000    0.5429100000000000    0.3292600000000000 H
   0.6135400000000000    0.7544050000000000    0.3838600000000000 H
   0.5394750000000000    0.6143300000000000    0.3066150000000000 H
   0.6556550000000000    0.6157000000000000    0.4111500000000000 H
   0.2712050000000000    0.0144350000000000    0.3885700000000000 H
   0.4154350000000000    0.0698650000000000    0.4421500000000000 H
   0.3790100000000000    0.1582750000000000    0.4750600000000000 H
   0.2420500000000000    0.1042050000000000    0.4211100000000000 H
   0.3056200000000000    0.9579150000000001    0.4209900000000000 H
   0.3643750000000000    0.7467650000000000    0.3661500000000000 H
   0.2892900000000000    0.8861950000000001    0.4432000000000000 H
   0.4054100000000000    0.8858950000000000    0.3392000000000000 H
   0.2712050000000000    0.5144350000000000    0.3885700000000000 H
   0.4154350000000000    0.5698650000000000    0.4421500000000000 H
   0.3790100000000000    0.6582749999999999    0.4750600000000000 H
   0.2420500000000000    0.6042050000000000    0.4211100000000000 H
   0.3056200000000000    0.4579150000000000    0.4209900000000000 H
   0.3643750000000000    0.2467650000000000    0.3661500000000000 H
   0.2892900000000000    0.3861950000000000    0.4432000000000000 H
   0.4054100000000000    0.3858950000000000    0.3392000000000000 H
   0.4779650000000000    0.5147600000000000    0.1376650000000000 H
   0.3341950000000000    0.5705000000000000    0.1922500000000000 H
   0.3708200000000000    0.6588250000000000    0.2249500000000000 H
   0.5073400000000000    0.6045150000000000    0.1699750000000000 H
   0.4438450000000000    0.4587250000000000    0.1713050000000000 H
   0.3862850000000000    0.2472550000000000    0.1162650000000000 H
   0.4606500000000000    0.3871200000000000    0.1935550000000000 H
   0.3442500000000000    0.3861800000000000    0.0893650000000000 H
   0.4779650000000000    0.0147600000000000    0.1376650000000000 H
   0.3341950000000000    0.0705000000000000    0.1922500000000000 H
   0.3708200000000000    0.1588250000000000    0.2249500000000000 H
   0.5073400000000000    0.1045150000000000    0.1699750000000000 H
   0.4438450000000000    0.9587250000000000    0.1713050000000000 H
   0.3862850000000000    0.7472550000000000    0.1162650000000000 H
   0.4606500000000000    0.8871200000000000    0.1935550000000000 H
   0.3442500000000000    0.8861800000000000    0.0893650000000000 H
   0.2029800000000000    0.4570050000000000    0.0927900000000000 C
   0.1230650000000000    0.4253650000000000    0.0630700000000000 C
   0.1428800000000000    0.3766100000000000    0.0451250000000000 C
   0.2199150000000000    0.4069900000000000    0.0747550000000000 C
   0.1536300000000000    0.4668000000000000    0.0865300000000000 C
   0.2057100000000000    0.7124550000000001    0.0620200000000000 C
   0.0732250000000000    0.7156450000000000    0.1881500000000000 C
   0.1318250000000000    0.5196000000000000    0.1043300000000000 C
   0.1411450000000000    0.7141000000000000    0.1269900000000000 C
   0.1120200000000000    0.6882550000000001    0.1516350000000000 C
   0.1828250000000000    0.6349350000000000    0.0838850000000000 C
   0.1761600000000000    0.6870800000000000    0.0922950000000000 C
   0.1177600000000000    0.6357300000000000    0.1422750000000000 C
   0.1537600000000000    0.6091800000000001    0.1087550000000000 C
   0.2029800000000000    0.9570050000000000    0.0927900000000000 C
   0.1230650000000000    0.9253650000000000    0.0630700000000000 C
   0.1428800000000000    0.8766100000000000    0.0451250000000000 C
   0.2199150000000000    0.9069900000000000    0.0747550000000000 C
   0.1536300000000000    0.9668000000000000    0.0865300000000000 C
   0.2057100000000000    0.2124550000000000    0.0620200000000000 C
   0.0732250000000000    0.2156450000000000    0.1881500000000000 C
   0.1318250000000000    0.0196000000000000    0.1043300000000000 C
   0.1411450000000000    0.2141000000000000    0.1269900000000000 C
   0.1120200000000000    0.1882550000000000    0.1516350000000000 C
   0.1828250000000000    0.1349350000000000    0.0838850000000000 C
   0.1761600000000000    0.1870800000000000    0.0922950000000000 C
   0.1177600000000000    0.1357300000000000    0.1422750000000000 C
   0.1537600000000000    0.1091800000000000    0.1087550000000000 C
   0.0477050000000000    0.9566900000000000    0.8430000000000000 C
   0.1274000000000000    0.9249650000000000    0.8130950000000000 C
   0.1075400000000000    0.8762099999999999    0.7954000000000000 C
   0.0307250000000000    0.9066900000000000    0.8255850000000000 C
   0.0969450000000000    0.9664300000000000    0.8367000000000000 C
   0.0441800000000000    0.2119800000000000    0.8118000000000001 C
   0.1768000000000000    0.2154800000000000    0.9381349999999999 C
   0.1186500000000000    0.0192600000000000    0.8542000000000001 C
   0.1087400000000000    0.2136850000000000    0.8768950000000000 C
   0.1379850000000000    0.1879300000000000    0.9016100000000000 C
   0.0672550000000000    0.1344200000000000    0.8336200000000000 C
   0.0737700000000000    0.1865900000000000    0.8421050000000000 C
   0.1323650000000000    0.1353900000000000    0.8922250000000000 C
   0.0964100000000000    0.1087500000000000    0.8585499999999999 C
   0.0477050000000000    0.4566900000000000    0.8430000000000000 C
   0.1274000000000000    0.4249650000000000    0.8130950000000000 C
   0.1075400000000000    0.3762100000000000    0.7954000000000000 C
   0.0307250000000000    0.4066900000000000    0.8255850000000000 C
   0.0969450000000000    0.4664300000000000    0.8367000000000000 C
   0.0441800000000000    0.7119800000000001    0.8118000000000001 C
   0.1768000000000000    0.7154800000000000    0.9381349999999999 C
   0.1186500000000000    0.5192600000000001    0.8542000000000001 C
   0.1087400000000000    0.7136850000000000    0.8768950000000000 C
   0.1379850000000000    0.6879300000000000    0.9016100000000000 C
   0.0672550000000000    0.6344200000000000    0.8336200000000000 C
   0.0737700000000000    0.6865900000000000    0.8421050000000000 C
   0.1323650000000000    0.6353900000000000    0.8922250000000000 C
   0.0964100000000000    0.6087500000000000    0.8585499999999999 C
   0.7967850000000001    0.5445700000000000    0.9079800000000000 C
   0.8767450000000000    0.5762100000000000    0.9375500000000000 C
   0.8569950000000000    0.6250050000000000    0.9552900000000000 C
   0.7799100000000000    0.5946150000000000    0.9258000000000000 C
   0.8461400000000000    0.5347850000000000    0.9142150000000000 C
   0.7948200000000001    0.2886250000000000    0.9380100000000000 C
   0.9269400000000000    0.2862550000000000    0.8119499999999999 C
   0.8679749999999999    0.4820200000000000    0.8963800000000000 C
   0.8592550000000000    0.2874550000000000    0.8731599999999999 C
   0.8882050000000000    0.3134950000000000    0.8485750000000001 C
   0.8172300000000000    0.3663800000000000    0.9163399999999999 C
   0.8241550000000000    0.3142600000000000    0.9078450000000000 C
   0.8822700000000000    0.3660100000000000    0.8580500000000000 C
   0.8461950000000000    0.3923400000000000    0.8915950000000000 C
   0.7967850000000001    0.0445700000000000    0.9079800000000000 C
   0.8767450000000000    0.0762100000000000    0.9375500000000000 C
   0.8569950000000000    0.1250050000000000    0.9552900000000000 C
   0.7799100000000000    0.0946150000000000    0.9258000000000000 C
   0.8461400000000000    0.0347850000000000    0.9142150000000000 C
   0.7948200000000001    0.7886250000000000    0.9380100000000000 C
   0.9269400000000000    0.7862549999999999    0.8119499999999999 C
   0.8679749999999999    0.9820200000000000    0.8963800000000000 C
   0.8592550000000000    0.7874550000000000    0.8731599999999999 C
   0.8882050000000000    0.8134950000000001    0.8485750000000001 C
   0.8172300000000000    0.8663799999999999    0.9163399999999999 C
   0.8241550000000000    0.8142600000000000    0.9078450000000000 C
   0.8822700000000000    0.8660099999999999    0.8580500000000000 C
   0.8461950000000000    0.8923400000000000    0.8915950000000000 C
   0.9525550000000000    0.5449750000000000    0.6572300000000000 C
   0.8728300000000000    0.5767650000000000    0.6873850000000000 C
   0.8926799999999999    0.6255200000000000    0.7049750000000000 C
   0.9695250000000000    0.5949850000000000    0.6749250000000000 C
   0.9032850000000000    0.5352850000000000    0.6638450000000000 C
   0.9558599999999999    0.2894550000000000    0.6881500000000000 C
   0.8230950000000000    0.2863950000000000    0.5621450000000000 C
   0.8814900000000000    0.4825050000000000    0.6462000000000000 C
   0.8911500000000000    0.2879750000000000    0.6232950000000000 C
   0.8619150000000000    0.3138500000000000    0.5986950000000000 C
   0.9327850000000000    0.3671400000000000    0.6666050000000000 C
   0.9262049999999999    0.3149700000000000    0.6580300000000000 C
   0.8675550000000001    0.3664050000000000    0.6082100000000000 C
   0.9035800000000000    0.3929400000000000    0.6418100000000000 C
   0.9525550000000000    0.0449750000000000    0.6572300000000000 C
   0.8728300000000000    0.0767650000000000    0.6873850000000000 C
   0.8926799999999999    0.1255200000000000    0.7049750000000000 C
   0.9695250000000000    0.0949850000000000    0.6749250000000000 C
   0.9032850000000000    0.0352850000000000    0.6638450000000000 C
   0.9558599999999999    0.7894550000000000    0.6881500000000000 C
   0.8230950000000000    0.7863950000000000    0.5621450000000000 C
   0.8814900000000000    0.9825050000000000    0.6462000000000000 C
   0.8911500000000000    0.7879750000000000    0.6232950000000000 C
   0.8619150000000000    0.8138500000000000    0.5986950000000000 C
   0.9327850000000000    0.8671400000000000    0.6666050000000000 C
   0.9262049999999999    0.8149700000000000    0.6580300000000000 C
   0.8675550000000001    0.8664050000000000    0.6082100000000000 C
   0.9035800000000000    0.8929400000000001    0.6418100000000000 C
   0.2029800000000000    0.9570050000000000    0.5927900000000000 C
   0.1230650000000000    0.9253650000000000    0.5630700000000000 C
   0.1428800000000000    0.8766100000000000    0.5451250000000000 C
   0.2199150000000000    0.9069900000000000    0.5747550000000000 C
   0.1536300000000000    0.9668000000000000    0.5865300000000000 C
   0.2057100000000000    0.2124550000000000    0.5620200000000000 C
   0.0732250000000000    0.2156450000000000    0.6881500000000000 C
   0.1318250000000000    0.0196000000000000    0.6043300000000000 C
   0.1411450000000000    0.2141000000000000    0.6269899999999999 C
   0.1120200000000000    0.1882550000000000    0.6516350000000000 C
   0.1828250000000000    0.1349350000000000    0.5838850000000000 C
   0.1761600000000000    0.1870800000000000    0.5922950000000000 C
   0.1177600000000000    0.1357300000000000    0.6422750000000000 C
   0.1537600000000000    0.1091800000000000    0.6087550000000000 C
   0.2029800000000000    0.4570050000000000    0.5927900000000000 C
   0.1230650000000000    0.4253650000000000    0.5630700000000000 C
   0.1428800000000000    0.3766100000000000    0.5451250000000000 C
   0.2199150000000000    0.4069900000000000    0.5747550000000000 C
   0.1536300000000000    0.4668000000000000    0.5865300000000000 C
   0.2057100000000000    0.7124550000000001    0.5620200000000000 C
   0.0732250000000000    0.7156450000000000    0.6881500000000000 C
   0.1318250000000000    0.5196000000000000    0.6043300000000000 C
   0.1411450000000000    0.7141000000000000    0.6269899999999999 C
   0.1120200000000000    0.6882550000000001    0.6516350000000000 C
   0.1828250000000000    0.6349350000000000    0.5838850000000000 C
   0.1761600000000000    0.6870800000000000    0.5922950000000000 C
   0.1177600000000000    0.6357300000000000    0.6422750000000000 C
   0.1537600000000000    0.6091800000000001    0.6087550000000000 C
   0.0477050000000000    0.9566900000000000    0.3430000000000000 C
   0.1274000000000000    0.9249650000000000    0.3130950000000000 C
   0.1075400000000000    0.8762099999999999    0.2954000000000000 C
   0.0307250000000000    0.9066900000000000    0.3255850000000000 C
   0.0969450000000000    0.9664300000000000    0.3367000000000000 C
   0.0441800000000000    0.2119800000000000    0.3118000000000000 C
   0.1768000000000000    0.2154800000000000    0.4381350000000000 C
   0.1186500000000000    0.0192600000000000    0.3542000000000000 C
   0.1087400000000000    0.2136850000000000    0.3768950000000000 C
   0.1379850000000000    0.1879300000000000    0.4016100000000000 C
   0.0672550000000000    0.1344200000000000    0.3336200000000000 C
   0.0737700000000000    0.1865900000000000    0.3421050000000000 C