H8 C14 N2 O5
1.0
  27.4019684103056917    0.0000000000000000   -0.0416081795929564
   0.0022944880948913   26.1911579484226067   -8.9927806631822040
   0.0000000000000000    0.0000000000000000   28.1140000000000008
H C N O
8 14 2 5
direct
   0.7106550000000000    0.1149250000000000    0.5569850000000000 H
   0.6362250000000000    0.2548100000000000    0.6339500000000000 H
   0.5945300000000000    0.1160100000000000    0.6611800000000000 H
   0.6941050000000000    0.0434550000000000    0.5793750000000000 H
   0.6208899999999999    0.8433649999999999    0.5252100000000000 H
   0.5843650000000000    0.9316850000000000    0.5585050000000000 H
   0.7285250000000000    0.9871300000000001    0.6123200000000000 H
   0.7577750000000000    0.8974050000000000    0.5794600000000000 H
   0.6318250000000000    0.0196000000000000    0.6043300000000000 C
   0.6537600000000000    0.1091800000000000    0.6087550000000000 C
   0.6828250000000000    0.1349350000000000    0.5838850000000000 C
   0.6761600000000000    0.1870800000000000    0.5922950000000000 C
   0.6411450000000000    0.2141000000000000    0.6269899999999999 C
   0.6120200000000000    0.1882550000000000    0.6516350000000000 C
   0.6177600000000000    0.1357300000000000    0.6422750000000000 C
   0.7057100000000001    0.2124550000000000    0.5620200000000000 C
   0.5732250000000000    0.2156450000000000    0.6881500000000000 C
   0.6428800000000000    0.8766100000000000    0.5451250000000000 C
   0.6230650000000000    0.9253650000000000    0.5630700000000000 C
   0.6536299999999999    0.9668000000000000    0.5865300000000000 C
   0.7029799999999999    0.9570050000000000    0.5927900000000000 C
   0.7199150000000000    0.9069900000000000    0.5747550000000000 C
   0.6628050000000000    0.0565050000000000    0.5988400000000000 N
   0.6905950000000000    0.8675050000000000    0.5507150000000000 N
   0.5899700000000000    0.0272100000000000    0.6213050000000000 O
   0.7398899999999999    0.1860200000000000    0.5354449999999999 O
   0.6934899999999999    0.2576100000000000    0.5645700000000000 O
   0.5811250000000000    0.2618300000000000    0.7146500000000000 O
   0.5353600000000001    0.1895550000000000    0.6896150000000000 O
