H10 O7
1.0
  34.0396206367242939    0.0000000000000000   13.3667171327851904
  -0.0023572543632022   36.9839241274528590    0.0748770870319780
   0.0000000000000000    0.0000000000000000   28.2340000000000018
H O
10 7
direct
   0.0635188710287410    0.3046731681065868    0.6748186829401516 H
   0.1068496455729901    0.2644301389745237    0.8024522161240564 H
   0.0501036002624553    0.2849218956357819    0.7373163374434175 H
   0.0660154294922855    0.2716956588231177    0.7837580162008553 H
   0.8515183898038101    0.2736065593048864    0.8379284567535010 H
   0.8133886010413918    0.2230639311410063    0.8915005398731590 H
   0.8322257188213293    0.1812138311407452    0.8704708637626108 H
   0.8823678801429569    0.2490657246392718    0.8796162925238707 H
   0.9014634668708913    0.2224443032312685    0.9127602403765661 H
   0.8934522600725745    0.1896813403528143    0.9627139058051235 H
   0.0911933333333333    0.3117933333333333    0.6606650000000001 O
   0.1329566666666667    0.2652533333333333    0.7756200000000000 O
   0.0717633333333333    0.2807766666666667    0.7492050000000000 O
   0.8455133333333333    0.2991466666666667    0.8436399999999999 O
   0.8163033333333333    0.2489333333333333    0.8856150000000000 O
   0.8784900000000000    0.2303266666666667    0.9055200000000000 O
   0.8688000000000000    0.1762433333333333    0.9715750000000001 O
