H5 C14 N2 O8
1.0
  34.0396206367242939    0.0000000000000000   13.3667171327851904
  -0.0023572543632022   36.9839241274528590    0.0748770870319780
   0.0000000000000000    0.0000000000000000   28.2340000000000018
H C N O
5 14 2 8
direct
   0.1174233333333333    0.2569566666666667    0.8671350000000000 H
   0.0220600000000000    0.2500366666666667    0.8674350000000000 H
   0.9229499999999999    0.2896200000000000    0.8111050000000000 H
   0.9722033333333333    0.2194633333333333    0.8966400000000000 H
   0.9803733333333333    0.2836166666666666    0.7478050000000001 H
   0.0544633333333333    0.3023433333333333    0.6794500000000000 C
   0.0996566666666667    0.2642033333333333    0.8098449999999999 C
   0.0420666666666667    0.2864600000000000    0.7329050000000000 C
   0.0031166666666667    0.2788700000000000    0.7635700000000001 C
   0.0000000000000000    0.2653066666666666    0.8130250000000000 C
   0.0260866666666667    0.2603900000000000    0.8297700000000000 C
   0.0638766666666667    0.2683166666666666    0.7966150000000001 C
   0.8463966666666666    0.2696000000000000    0.8652599999999999 C
   0.9015033333333333    0.1940700000000000    0.9598200000000000 C
   0.8838366666666666    0.2561633333333333    0.8698049999999999 C
   0.9208133333333333    0.2692033333333334    0.8397399999999999 C
   0.9542533333333333    0.2552333333333333    0.8467750000000001 C
   0.9481700000000000    0.2309033333333333    0.8872350000000000 C
   0.9100933333333333    0.2194833333333333    0.9154800000000001 C
   0.0717633333333333    0.2807766666666667    0.7492050000000000 N
   0.8784900000000000    0.2303266666666667    0.9055200000000000 N
   0.0911933333333333    0.3117933333333333    0.6606650000000001 O
   0.0298533333333333    0.3052266666666666    0.6589200000000000 O
   0.1329566666666667    0.2652533333333333    0.7756200000000000 O
   0.0922133333333333    0.2606300000000000    0.8584050000000000 O
   0.8163033333333333    0.2489333333333333    0.8856150000000000 O
   0.8455133333333333    0.2991466666666667    0.8436399999999999 O
   0.8688000000000000    0.1762433333333333    0.9715750000000001 O
   0.9241933333333333    0.1914800000000000    0.9835149999999999 O
