H2 C6 S1 O4
1.0
   6.0446133959251478    0.0000000000000000   -0.0683658818581812
  -0.0008239264726853   14.0409977859338397   -0.0078419733610293
   0.0000000000000000    0.0000000000000000   15.6334999999999997
H C S O
2 6 1 4
direct
   0.8474800000000000    0.3008200000000000    0.6790200000000000 H
   0.8231100000000000    0.1833400000000000    0.8089300000000000 H
   0.2285000000000000    0.1325000000000000    0.8970600000000000 C
   0.1802400000000000    0.1966200000000000    0.8246700000000000 C
   0.9761700000000000    0.2147800000000000    0.7865700000000000 C
   0.9896400000000000    0.2786400000000000    0.7173700000000000 C
   0.2040600000000000    0.3101400000000000    0.7037500000000000 C
   0.2876400000000000    0.3773300000000000    0.6383600000000000 C
   0.3882300000000000    0.2601500000000000    0.7760600000000000 S
   0.4288700000000000    1.1160399999999999    0.9185600000000000 O
   0.0642100000000000    0.0959100000000000   -0.0631199999999999 O
   0.4943500000000000    0.3947200000000000    0.6395700000000000 O
   1.1473599999999999    0.4129000000000000    0.5852400000000000 O
