H6 O4
1.0
   6.0446133959251478    0.0000000000000000   -0.0683658818581812
  -0.0008239264726853   14.0409977859338397   -0.0078419733610293
   0.0000000000000000    0.0000000000000000   15.6334999999999997
H O
6 4
direct
   0.5777089249533589    1.1350007479078599    0.9034690980086583 H
  -0.0961360435234622    0.0959280633047928   -0.0613492690985571 H
   0.2224099449917131    0.1160632581410753   -0.0791600235734954 H
   1.2979576716898964    0.3894527339293706    0.5898414836050152 H
   0.3727499741575768    0.3626415819820087    0.6674708484160022 H
   0.8616604801525818    0.3375316885073596    0.6507931028103323 H
   0.4288700000000000    1.1160399999999999    0.9185600000000000 O
   0.0642100000000000    0.0959100000000000   -0.0631199999999999 O
   1.1473599999999999    0.4129000000000000    0.5852400000000000 O
   0.4943500000000000    0.3947200000000000    0.6395700000000000 O
