Sr4 H12 C18 S3 O16
1.0
   6.0446133959251478    0.0000000000000000   -0.0683658818581812
  -0.0008239264726853   14.0409977859338397   -0.0078419733610293
   0.0000000000000000    0.0000000000000000   15.6334999999999997
Sr H C S O
4 12 18 3 16
direct
   0.2667100000000000    0.0084500000000000    0.0612600000000000 Sr
   0.2334000000000000    0.5081700000000000    0.4385700000000000 Sr
   0.7333800000000000    0.9915300000000000    0.9387400000000000 Sr
   0.7666700000000000    0.4918200000000000    0.5614300000000000 Sr
   0.3232200000000000    0.3174600000000000    0.3083600000000000 H
   0.3478900000000000    0.2007600000000000    0.1777700000000000 H
   0.1769800000000000    0.8166400000000000    0.1910700000000000 H
   0.1526100000000000    0.6991600000000000    0.3209800000000000 H
   0.6768500000000000    0.6825200000000000    0.6916400000000000 H
   0.6521800000000000    0.7992300000000000    0.8222400000000000 H
   0.5777089249533589    1.1350007479078599    0.9034690980086583 H
  -0.0961360435234622    0.0959280633047928   -0.0613492690985571 H
   0.2224099449917131    0.1160632581410753   -0.0791600235734954 H
   1.2979576716898964    0.3894527339293706    0.5898414836050152 H
   0.3727499741575768    0.3626415819820087    0.6674708484160022 H
   0.8616604801525818    0.3375316885073596    0.6507931028103323 H
   0.7880100000000000    0.1243200000000000    0.1370200000000000 C
   0.7284700000000000    0.3676100000000000    0.3970600000000000 C
   0.4763400000000000    0.2861900000000000    0.2858700000000000 C
   0.6802800000000000    0.3041200000000000    0.3241500000000000 C
   0.4899200000000000    0.2227300000000000    0.2163100000000000 C
   0.7044100000000000    0.1913800000000000    0.2025600000000000 C
   0.7124400000000000    0.6226600000000000    0.3616500000000000 C
   0.7715800000000000    0.8674900000000000    0.1029400000000000 C
   0.0239200000000000    0.7852100000000000    0.2134300000000000 C
   0.8198400000000000    0.8033600000000000    0.1753300000000000 C
   0.0104300000000000    0.7213500000000000    0.2826300000000000 C
   0.7960100000000000    0.6898400000000000    0.2962500000000000 C
   0.2120600000000000    0.8756699999999999    0.8629800000000000 C
   0.2716000000000000    0.6323800000000001    0.6029400000000000 C
   0.5237200000000000    0.7137900000000000    0.7141300000000000 C
   0.3197800000000000    0.6958600000000000    0.6758500000000000 C
   0.5101500000000000    0.7772600000000000    0.7836900000000000 C
   0.2956600000000000    0.8086100000000001    0.7974400000000000 C
   0.8884800000000000    0.2410800000000000    0.2751300000000000 S
   0.6118400000000001    0.7398400000000001    0.2239400000000000 S
   0.1115900000000000    0.7589100000000000    0.7248800000000000 S
   0.9953300000000000    0.1083300000000000    0.1371100000000000 O
   0.6471100000000000    0.0872600000000000    0.0849700000000000 O
   0.9288700000000000    0.3839300000000000    0.4186300000000000 O
   0.5642400000000000    0.4037600000000000    0.4372600000000000 O
   0.5057199999999999    0.6052700000000000    0.3604300000000000 O
   0.8527100000000000    0.5870900000000000    0.4147600000000000 O
   0.5712100000000000    0.8839500000000000    0.0814400000000000 O
   0.9358500000000000    0.9040800000000000    0.0631200000000000 O
   0.0047600000000000    0.8916600000000000    0.8628800000000000 O
   0.3529700000000000    0.9127300000000000    0.9150300000000000 O
   0.0712000000000000    0.6160600000000001    0.5813700000000001 O
   0.4358200000000000    0.5962300000000000    0.5627400000000000 O
   0.4288700000000000    1.1160399999999999    0.9185600000000000 O
   0.0642100000000000    0.0959100000000000   -0.0631199999999999 O
   1.1473599999999999    0.4129000000000000    0.5852400000000000 O
   0.4943500000000000    0.3947200000000000    0.6395700000000000 O
