H4 C8 O4
1.0
  31.9607089076229016    0.0000000000000000   18.3381621249838993
   5.3105635573748904   15.0787266278136975    9.1763504176085124
   0.0000000000000000    0.0000000000000000   36.8659999999999997
H C O
4 8 4
direct
   0.5241000000000000    0.5680500000000001    0.0243000000000000 H
   0.5240200000000000    0.3356800000000000    0.0237600000000000 H
   0.4759200000000000    0.4319400000000000    0.9756700000000000 H
   0.4759950000000000    0.6643100000000000    0.9762000000000000 H
   0.5133500000000000    0.5390000000000000    0.0134700000000000 C
   0.5133050000000000    0.4076600000000000    0.0131600000000000 C
   0.5554850000000000    0.3889600000000000    0.0554800000000000 C
   0.5268300000000000    0.4463100000000000    0.0268050000000000 C
   0.4866650000000000    0.4609900000000000    0.9865150000000000 C
   0.4867150000000000    0.5923200000000000    0.9868250000000001 C
   0.4445300000000000    0.6110300000000000    0.9445049999999999 C
   0.4731900000000000    0.5536700000000000    0.9731750000000000 C
   0.5666000000000000    0.4285800000000000    0.0665850000000000 O
   0.5664750000000001    0.3051600000000000    0.0664750000000000 O
   0.4334150000000000    0.5714000000000000    0.9334000000000000 O
   0.4335450000000000    0.6948200000000000    0.9335000000000000 O
