Zn32 H98 C184 O104
1.0
  31.9607089076229016    0.0000000000000000   18.3381621249838993
   5.3105635573748904   15.0787266278136975    9.1763504176085124
   0.0000000000000000    0.0000000000000000   36.8659999999999997
Zn H C O
32 98 184 104
direct
   0.1033050000000000    0.2067300000000000    0.6902349999999999 Zn
   0.1902400000000000    0.2066400000000000    0.6033200000000000 Zn
   0.1033050000000000    0.3804700000000000    0.6033600000000000 Zn
   0.1031900000000000    0.2063600000000000    0.6031700000000000 Zn
   0.3967100000000000    0.7932500000000000    0.3097500000000000 Zn
   0.3097750000000000    0.7933400000000000    0.3966650000000000 Zn
   0.3967150000000000    0.6195100000000000    0.3966250000000000 Zn
   0.3968300000000000    0.7936200000000000    0.3968150000000000 Zn
   0.1033050000000000    0.2067300000000000    0.1902350000000000 Zn
   0.1902400000000000    0.2066400000000000    0.1033200000000000 Zn
   0.1033050000000000    0.3804700000000000    0.1033600000000000 Zn
   0.1031900000000000    0.2063600000000000    0.1031700000000000 Zn
   0.3967100000000000    0.7932500000000000    0.8097500000000000 Zn
   0.3097750000000000    0.7933400000000000    0.8966650000000000 Zn
   0.3967150000000000    0.6195100000000000    0.8966250000000000 Zn
   0.3968300000000000    0.7936200000000000    0.8968149999999999 Zn
   0.6033050000000000    0.2067300000000000    0.1902350000000000 Zn
   0.6902400000000000    0.2066400000000000    0.1033200000000000 Zn
   0.6033050000000000    0.3804700000000000    0.1033600000000000 Zn
   0.6031900000000000    0.2063600000000000    0.1031700000000000 Zn
   0.8967100000000000    0.7932500000000000    0.8097500000000000 Zn
   0.8097750000000000    0.7933400000000000    0.8966650000000000 Zn
   0.8967149999999999    0.6195100000000000    0.8966250000000000 Zn
   0.8968300000000000    0.7936200000000000    0.8968149999999999 Zn
   0.6033050000000000    0.2067300000000000    0.6902349999999999 Zn
   0.6902400000000000    0.2066400000000000    0.6033200000000000 Zn
   0.6033050000000000    0.3804700000000000    0.6033600000000000 Zn
   0.6031900000000000    0.2063600000000000    0.6031700000000000 Zn
   0.8967100000000000    0.7932500000000000    0.3097500000000000 Zn
   0.8097750000000000    0.7933400000000000    0.3966650000000000 Zn
   0.8967149999999999    0.6195100000000000    0.3966250000000000 Zn
   0.8968300000000000    0.7936200000000000    0.3968150000000000 Zn
   0.3322000000000000    0.9521900000000000    0.9761000000000000 H
   0.2840800000000000    0.0483700000000000    0.0241800000000000 H
   0.1678150000000000    0.0477900000000000    0.0238850000000000 H
   0.2159400000000000    0.9516200000000000    0.9758050000000000 H
   0.3322000000000000    0.9521900000000000    0.4761000000000000 H
   0.2840800000000000    0.0483700000000000    0.5241800000000000 H
   0.1678150000000000    0.0477900000000000    0.5238850000000000 H
   0.2159400000000000    0.9516200000000000    0.4758050000000000 H
   0.8322000000000001    0.9521900000000000    0.4761000000000000 H
   0.7840800000000000    0.0483700000000000    0.5241800000000000 H
   0.6678150000000000    0.0477900000000000    0.5238850000000000 H
   0.7159400000000000    0.9516200000000000    0.4758050000000000 H
   0.8322000000000001    0.9521900000000000    0.9761000000000000 H
   0.7840800000000000    0.0483700000000000    0.0241800000000000 H
   0.6678150000000000    0.0477900000000000    0.0238850000000000 H
   0.7159400000000000    0.9516200000000000    0.9758050000000000 H
   0.5564821385061081    0.2806798494891155    0.0564807582878951 H
   0.5567040622925706    0.4928251994863905    0.0566769018168221 H
   0.5527067202607231    0.3945447460024132    0.0526898013151093 H
   0.5241050000000000    0.0486200000000000    0.2840200000000000 H
   0.4759900000000000    0.9524500000000000    0.3321550000000000 H
   0.4759150000000000    0.9513700000000000    0.2159650000000000 H
   0.5240250000000000    0.0475300000000000    0.1678300000000000 H
   0.5241050000000000    0.0486200000000000    0.7840199999999999 H
   0.4759900000000000    0.9524500000000000    0.8321550000000000 H
   0.4759150000000000    0.9513700000000000    0.7159650000000000 H
   0.5240250000000000    0.0475300000000000    0.6678300000000000 H
   0.0241050000000000    0.0486200000000000    0.2840200000000000 H
   0.9759900000000000    0.9524500000000000    0.3321550000000000 H
   0.9759150000000000    0.9513700000000000    0.2159650000000000 H
   0.0240250000000000    0.0475300000000000    0.1678300000000000 H
   0.0241050000000000    0.0486200000000000    0.7840199999999999 H
   0.9759900000000000    0.9524500000000000    0.8321550000000000 H
   0.9759150000000000    0.9513700000000000    0.7159650000000000 H
   0.0240250000000000    0.0475300000000000    0.6678300000000000 H
   0.0240200000000000    0.3356800000000000    0.0237600000000000 H
   0.9759200000000000    0.4319400000000000    0.9756700000000000 H
   0.0241000000000000    0.5680500000000001    0.0243000000000000 H
   0.9759949999999999    0.6643100000000000    0.9762000000000000 H
   0.0240200000000000    0.3356800000000000    0.5237600000000000 H
   0.9759200000000000    0.4319400000000000    0.4756700000000000 H
   0.0241000000000000    0.5680500000000001    0.5243000000000000 H
   0.9759949999999999    0.6643100000000000    0.4762000000000000 H
   0.5240200000000000    0.3356800000000000    0.5237600000000000 H
   0.4759200000000000    0.4319400000000000    0.4756700000000000 H
   0.5241000000000000    0.5680500000000001    0.5243000000000000 H
   0.4759950000000000    0.6643100000000000    0.4762000000000000 H
   0.4435427856023199    0.7192929835749573    0.9434930961382558 H
   0.4433111049670398    0.5071542752119377    0.9433129795359820 H
   0.4473149870550013    0.6054249499659438    0.9472934672622815 H
   0.4759400000000000    0.4318400000000000    0.8321600000000000 H
   0.5240800000000000    0.3356600000000000    0.7840700000000000 H
   0.5240800000000000    0.5681500000000000    0.6678250000000000 H
   0.4759350000000000    0.6643200000000000    0.7159150000000000 H
   0.4759400000000000    0.4318400000000000    0.3321600000000000 H
   0.5240800000000000    0.3356600000000000    0.2840700000000000 H
   0.5240800000000000    0.5681500000000000    0.1678250000000000 H
   0.4759350000000000    0.6643200000000000    0.2159150000000000 H
   0.1678150000000000    0.0483600000000000    0.7840500000000000 H
   0.2159500000000000    0.9520600000000000    0.8321600000000000 H
   0.3322050000000000    0.9516300000000000    0.7159000000000000 H
   0.2840650000000000    0.0479200000000000    0.6678250000000000 H
   0.3322050000000000    0.4318200000000000    0.4758100000000000 H
   0.2840600000000000    0.3356600000000000    0.5239600000000000 H
   0.2159550000000000    0.6643200000000000    0.4760250000000000 H
   0.1678100000000000    0.5681700000000000    0.5241749999999999 H
   0.1678150000000000    0.0483600000000000    0.2840500000000000 H
   0.2159500000000000    0.9520600000000000    0.3321600000000000 H
   0.3322050000000000    0.9516300000000000    0.2159000000000000 H
   0.2840650000000000    0.0479200000000000    0.1678250000000000 H
   0.3322050000000000    0.4318200000000000    0.9758100000000001 H
   0.2840600000000000    0.3356600000000000    0.0239600000000000 H
   0.2159550000000000    0.6643200000000000    0.9760249999999999 H
   0.1678100000000000    0.5681700000000000    0.0241750000000000 H
   0.9759400000000000    0.4318400000000000    0.8321600000000000 H
   0.0240800000000000    0.3356600000000000    0.7840700000000000 H
   0.0240800000000000    0.5681500000000000    0.6678250000000000 H
   0.9759350000000000    0.6643200000000000    0.7159150000000000 H
   0.9759400000000000    0.4318400000000000    0.3321600000000000 H
   0.0240800000000000    0.3356600000000000    0.2840700000000000 H
   0.0240800000000000    0.5681500000000000    0.1678250000000000 H
   0.9759350000000000    0.6643200000000000    0.2159150000000000 H
   0.6678150000000000    0.0483600000000000    0.2840500000000000 H
   0.7159500000000000    0.9520600000000000    0.3321600000000000 H
   0.8322050000000000    0.9516300000000000    0.2159000000000000 H
   0.7840650000000000    0.0479200000000000    0.1678250000000000 H
   0.8322050000000000    0.4318200000000000    0.9758100000000001 H
   0.7840600000000000    0.3356600000000000    0.0239600000000000 H
   0.7159550000000000    0.6643200000000000    0.9760249999999999 H
   0.6678100000000000    0.5681700000000000    0.0241750000000000 H
   0.6678150000000000    0.0483600000000000    0.7840500000000000 H
   0.7159500000000000    0.9520600000000000    0.8321600000000000 H
   0.8322050000000000    0.9516300000000000    0.7159000000000000 H
   0.7840650000000000    0.0479200000000000    0.6678250000000000 H
   0.8322050000000000    0.4318200000000000    0.4758100000000000 H
   0.7840600000000000    0.3356600000000000    0.5239600000000000 H
   0.7159550000000000    0.6643200000000000    0.4760250000000000 H
   0.6678100000000000    0.5681700000000000    0.5241749999999999 H
   0.3055300000000000    0.8890200000000000    0.9445000000000000 C
   0.1944850000000000    0.1109600000000000    0.0554750000000000 C
   0.2961950000000000    0.9735100000000000    0.9867500000000000 C
   0.2695250000000000    0.0268000000000000    0.0134000000000000 C
   0.2768550000000000    0.9463400000000000    0.9731750000000000 C
   0.2038200000000000    0.0264700000000000    0.0132300000000000 C
   0.2304900000000000    0.9731900000000000    0.9865850000000000 C
   0.2231600000000000    0.0536400000000000    0.0268100000000000 C
   0.3055300000000000    0.8890200000000000    0.4445000000000000 C
   0.1944850000000000    0.1109600000000000    0.5554749999999999 C
   0.2961950000000000    0.9735100000000000    0.4867500000000000 C
   0.2695250000000000    0.0268000000000000    0.5134000000000000 C
   0.2768550000000000    0.9463400000000000    0.4731750000000000 C
   0.2038200000000000    0.0264700000000000    0.5132300000000000 C
   0.2304900000000000    0.9731900000000000    0.4865850000000000 C
   0.2231600000000000    0.0536400000000000    0.5268100000000000 C
   0.8055300000000001    0.8890200000000000    0.4445000000000000 C
   0.6944850000000000    0.1109600000000000    0.5554749999999999 C
   0.7961950000000000    0.9735100000000000    0.4867500000000000 C
   0.7695250000000000    0.0268000000000000    0.5134000000000000 C
   0.7768550000000001    0.9463400000000000    0.4731750000000000 C
   0.7038200000000000    0.0264700000000000    0.5132300000000000 C
   0.7304900000000000    0.9731900000000000    0.4865850000000000 C
   0.7231600000000000    0.0536400000000000    0.5268100000000000 C
   0.8055300000000001    0.8890200000000000    0.9445000000000000 C
   0.6944850000000000    0.1109600000000000    0.0554750000000000 C
   0.7961950000000000    0.9735100000000000    0.9867500000000000 C
   0.7695250000000000    0.0268000000000000    0.0134000000000000 C
   0.7768550000000001    0.9463400000000000    0.9731750000000000 C
   0.7038200000000000    0.0264700000000000    0.0132300000000000 C
   0.7304900000000000    0.9731900000000000    0.9865850000000000 C
   0.7231600000000000    0.0536400000000000    0.0268100000000000 C
   0.4445200000000000    0.8890300000000000    0.3055100000000000 C
   0.5554950000000000    0.1109500000000000    0.1944750000000000 C
   0.5133550000000000    0.0269400000000000    0.2694950000000000 C
   0.4867100000000000    0.9736500000000000    0.2961600000000000 C
   0.4866650000000000    0.9730500000000000    0.2304900000000000 C
   0.5133050000000000    0.0263300000000000    0.2038250000000000 C
   0.4731850000000000    0.9463600000000000    0.2768000000000000 C
   0.5268300000000000    0.0536200000000000    0.2231500000000000 C
   0.4445200000000000    0.8890300000000000    0.8055099999999999 C
   0.5554950000000000    0.1109500000000000    0.6944750000000000 C
   0.5133550000000000    0.0269400000000000    0.7694950000000000 C
   0.4867100000000000    0.9736500000000000    0.7961600000000000 C
   0.4866650000000000    0.9730500000000000    0.7304900000000000 C
   0.5133050000000000    0.0263300000000000    0.7038250000000000 C
   0.4731850000000000    0.9463600000000000    0.7767999999999999 C
   0.5268300000000000    0.0536200000000000    0.7231500000000000 C
   0.9445200000000000    0.8890300000000000    0.3055100000000000 C
   0.0554950000000000    0.1109500000000000    0.1944750000000000 C
   0.0133550000000000    0.0269400000000000    0.2694950000000000 C
   0.9867100000000000    0.9736500000000000    0.2961600000000000 C
   0.9866650000000000    0.9730500000000000    0.2304900000000000 C
   0.0133050000000000    0.0263300000000000    0.2038250000000000 C
   0.9731850000000000    0.9463600000000000    0.2768000000000000 C
   0.0268300000000000    0.0536200000000000    0.2231500000000000 C
   0.9445200000000000    0.8890300000000000    0.8055099999999999 C
   0.0554950000000000    0.1109500000000000    0.6944750000000000 C
   0.0133550000000000    0.0269400000000000    0.7694950000000000 C
   0.9867100000000000    0.9736500000000000    0.7961600000000000 C
   0.9866650000000000    0.9730500000000000    0.7304900000000000 C
   0.0133050000000000    0.0263300000000000    0.7038250000000000 C
   0.9731850000000000    0.9463600000000000    0.7767999999999999 C
   0.0268300000000000    0.0536200000000000    0.7231500000000000 C
   0.9445300000000000    0.6110300000000000    0.9445049999999999 C
   0.0554850000000000    0.3889600000000000    0.0554800000000000 C
   0.0133050000000000    0.4076600000000000    0.0131600000000000 C
   0.9866650000000000    0.4609900000000000    0.9865150000000000 C
   0.0268300000000000    0.4463100000000000    0.0268050000000000 C
   0.0133500000000000    0.5390000000000000    0.0134700000000000 C
   0.9867150000000000    0.5923200000000000    0.9868250000000001 C
   0.9731900000000000    0.5536700000000000    0.9731750000000000 C
   0.9445300000000000    0.6110300000000000    0.4445050000000000 C
   0.0554850000000000    0.3889600000000000    0.5554800000000000 C
   0.0133050000000000    0.4076600000000000    0.5131599999999999 C
   0.9866650000000000    0.4609900000000000    0.4865150000000000 C
   0.0268300000000000    0.4463100000000000    0.5268050000000000 C
   0.0133500000000000    0.5390000000000000    0.5134700000000000 C
   0.9867150000000000    0.5923200000000000    0.4868250000000000 C
   0.9731900000000000    0.5536700000000000    0.4731750000000000 C
   0.4445300000000000    0.6110300000000000    0.4445050000000000 C
   0.5554850000000000    0.3889600000000000    0.5554800000000000 C
   0.5133050000000000    0.4076600000000000    0.5131599999999999 C
   0.4866650000000000    0.4609900000000000    0.4865150000000000 C
   0.5268300000000000    0.4463100000000000    0.5268050000000000 C
   0.5133500000000000    0.5390000000000000    0.5134700000000000 C
   0.4867150000000000    0.5923200000000000    0.4868250000000000 C
   0.4731900000000000    0.5536700000000000    0.4731750000000000 C
   0.4444550000000000    0.6108800000000000    0.8054399999999999 C
   0.5555600000000001    0.3891000000000000    0.6945450000000000 C
   0.4866800000000000    0.4609100000000000    0.7961650000000000 C
   0.5133400000000000    0.4076500000000000    0.7695000000000001 C
   0.5133400000000000    0.5390700000000000    0.7038200000000000 C
   0.4866750000000000    0.5923300000000000    0.7304500000000000 C
   0.4731650000000000    0.5535900000000000    0.7767500000000001 C
   0.5268550000000000    0.4463900000000000    0.7231500000000000 C
   0.4444550000000000    0.6108800000000000    0.3054400000000000 C
   0.5555600000000001    0.3891000000000000    0.1945450000000000 C
   0.4866800000000000    0.4609100000000000    0.2961650000000000 C
   0.5133400000000000    0.4076500000000000    0.2695000000000000 C
   0.5133400000000000    0.5390700000000000    0.2038200000000000 C
   0.4866750000000000    0.5923300000000000    0.2304500000000000 C
   0.4731650000000000    0.5535900000000000    0.2767500000000000 C
   0.5268550000000000    0.4463900000000000    0.2231500000000000 C
   0.3055000000000000    0.8888500000000000    0.8054300000000000 C
   0.1945200000000000    0.1111200000000000    0.6945550000000000 C
   0.2038200000000000    0.0267900000000000    0.7695400000000000 C
   0.2304800000000000    0.9734400000000000    0.7961650000000000 C
   0.2962000000000000    0.9732000000000000    0.7304450000000000 C
   0.2695350000000000    0.0265400000000000    0.7038200000000000 C
   0.2231850000000000    0.0536900000000000    0.7232000000000001 C
   0.2768350000000000    0.9463000000000000    0.7767850000000001 C
   0.1945150000000000    0.3891100000000000    0.5555700000000000 C
   0.3055000000000000    0.6108700000000000    0.4444000000000000 C
   0.2962000000000000    0.4609000000000000    0.4865500000000000 C
   0.2695350000000000    0.4076500000000000    0.5132750000000000 C
   0.2304800000000000    0.5923300000000000    0.4867100000000000 C
   0.2038200000000000    0.5390800000000000    0.5133500000000000 C
   0.2231800000000000    0.4464100000000000    0.5268400000000000 C
   0.2768350000000000    0.5535800000000000    0.4731450000000000 C
   0.3055000000000000    0.8888500000000000    0.3054300000000000 C
   0.1945200000000000    0.1111200000000000    0.1945550000000000 C
   0.2038200000000000    0.0267900000000000    0.2695400000000000 C
   0.2304800000000000    0.9734400000000000    0.2961650000000000 C
   0.2962000000000000    0.9732000000000000    0.2304450000000000 C
   0.2695350000000000    0.0265400000000000    0.2038200000000000 C
   0.2231850000000000    0.0536900000000000    0.2232000000000000 C
   0.2768350000000000    0.9463000000000000    0.2767850000000000 C
   0.1945150000000000    0.3891100000000000    0.0555700000000000 C
   0.3055000000000000    0.6108700000000000    0.9444000000000000 C
   0.2962000000000000    0.4609000000000000    0.9865500000000000 C
   0.2695350000000000    0.4076500000000000    0.0132750000000000 C
   0.2304800000000000    0.5923300000000000    0.9867100000000000 C
   0.2038200000000000    0.5390800000000000    0.0133500000000000 C
   0.2231800000000000    0.4464100000000000    0.0268400000000000 C
   0.2768350000000000    0.5535800000000000    0.9731449999999999 C
   0.9444550000000000    0.6108800000000000    0.8054399999999999 C
   0.0555600000000000    0.3891000000000000    0.6945450000000000 C
   0.9866800000000000    0.4609100000000000    0.7961650000000000 C
   0.0133400000000000    0.4076500000000000    0.7695000000000001 C
   0.0133400000000000    0.5390700000000000    0.7038200000000000 C
   0.9866750000000000    0.5923300000000000    0.7304500000000000 C
   0.9731650000000001    0.5535900000000000    0.7767500000000001 C
   0.0268550000000000    0.4463900000000000    0.7231500000000000 C
   0.9444550000000000    0.6108800000000000    0.3054400000000000 C
   0.0555600000000000    0.3891000000000000    0.1945450000000000 C
   0.9866800000000000    0.4609100000000000    0.2961650000000000 C
   0.0133400000000000    0.4076500000000000    0.2695000000000000 C
   0.0133400000000000    0.5390700000000000    0.2038200000000000 C
   0.9866750000000000    0.5923300000000000    0.2304500000000000 C
   0.9731650000000001    0.5535900000000000    0.2767500000000000 C
   0.0268550000000000    0.4463900000000000    0.2231500000000000 C
   0.8055000000000000    0.8888500000000000    0.3054300000000000 C
   0.6945200000000000    0.1111200000000000    0.1945550000000000 C
   0.7038200000000000    0.0267900000000000    0.2695400000000000 C
   0.7304800000000000    0.9734400000000000    0.2961650000000000 C
   0.7962000000000000    0.9732000000000000    0.2304450000000000 C
   0.7695350000000001    0.0265400000000000    0.2038200000000000 C
   0.7231850000000000    0.0536900000000000    0.2232000000000000 C
   0.7768349999999999    0.9463000000000000    0.2767850000000000 C
   0.6945150000000000    0.3891100000000000    0.0555700000000000 C
   0.8055000000000000    0.6108700000000000    0.9444000000000000 C
   0.7962000000000000    0.4609000000000000    0.9865500000000000 C
   0.7695350000000001    0.4076500000000000    0.0132750000000000 C
   0.7304800000000000    0.5923300000000000    0.9867100000000000 C
   0.7038200000000000    0.5390800000000000    0.0133500000000000 C
   0.7231799999999999    0.4464100000000000    0.0268400000000000 C
   0.7768349999999999    0.5535800000000000    0.9731449999999999 C
   0.8055000000000000    0.8888500000000000    0.8054300000000000 C
   0.6945200000000000    0.1111200000000000    0.6945550000000000 C
   0.7038200000000000    0.0267900000000000    0.7695400000000000 C
   0.7304800000000000    0.9734400000000000    0.7961650000000000 C
   0.7962000000000000    0.9732000000000000    0.7304450000000000 C
   0.7695350000000001    0.0265400000000000    0.7038200000000000 C
   0.7231850000000000    0.0536900000000000    0.7232000000000001 C
   0.7768349999999999    0.9463000000000000    0.7767850000000001 C
   0.6945150000000000    0.3891100000000000    0.5555700000000000 C
   0.8055000000000000    0.6108700000000000    0.4444000000000000 C
   0.7962000000000000    0.4609000000000000    0.4865500000000000 C
   0.7695350000000001    0.4076500000000000    0.5132750000000000 C
   0.7304800000000000    0.5923300000000000    0.4867100000000000 C
   0.7038200000000000    0.5390800000000000    0.5133500000000000 C
   0.7231799999999999    0.4464100000000000    0.5268400000000000 C
   0.7768349999999999    0.5535800000000000    0.4731450000000000 C
   0.2857050000000000    0.8668100000000000    0.9334050000000000 O
   0.3474500000000000    0.8670400000000000    0.9335200000000000 O
   0.2143150000000000    0.1331700000000000    0.0665500000000000 O
   0.1525700000000000    0.1329500000000000    0.0664650000000000 O
   0.2857050000000000    0.8668100000000000    0.4334050000000000 O
   0.3474500000000000    0.8670400000000000    0.4335200000000000 O
   0.2143150000000000    0.1331700000000000    0.5665500000000000 O
   0.1525700000000000    0.1329500000000000    0.5664650000000000 O
   0.7857050000000000    0.8668100000000000    0.4334050000000000 O
   0.8474500000000000    0.8670400000000000    0.4335200000000000 O
   0.7143150000000000    0.1331700000000000    0.5665500000000000 O
   0.6525700000000000    0.1329500000000000    0.5664650000000000 O
   0.7857050000000000    0.8668100000000000    0.9334050000000000 O
   0.8474500000000000    0.8670400000000000    0.9335200000000000 O
   0.7143150000000000    0.1331700000000000    0.0665500000000000 O
   0.6525700000000000    0.1329500000000000    0.0664650000000000 O
   0.5664750000000001    0.3051600000000000    0.0664750000000000 O
   0.5666000000000000    0.4285800000000000    0.0665850000000000 O
   0.4334150000000000    0.8668100000000000    0.2857000000000000 O
   0.4335500000000000    0.8670099999999999    0.3474100000000000 O
   0.5666000000000000    0.1331800000000000    0.2142850000000000 O
   0.5664700000000000    0.1329800000000000    0.1525750000000000 O
   0.4334150000000000    0.8668100000000000    0.7857000000000001 O
   0.4335500000000000    0.8670099999999999    0.8474100000000000 O
   0.5666000000000000    0.1331800000000000    0.7142850000000001 O
   0.5664700000000000    0.1329800000000000    0.6525750000000000 O
   0.9334150000000000    0.8668100000000000    0.2857000000000000 O
   0.9335500000000000    0.8670099999999999    0.3474100000000000 O
   0.0666000000000000    0.1331800000000000    0.2142850000000000 O
   0.0664700000000000    0.1329800000000000    0.1525750000000000 O
   0.9334150000000000    0.8668100000000000    0.7857000000000001 O
   0.9335500000000000    0.8670099999999999    0.8474100000000000 O
   0.0666000000000000    0.1331800000000000    0.7142850000000001 O
   0.0664700000000000    0.1329800000000000    0.6525750000000000 O
   0.9335450000000001    0.6948200000000000    0.9335000000000000 O
   0.9334150000000000    0.5714000000000000    0.9334000000000000 O
   0.0666000000000000    0.4285800000000000    0.0665850000000000 O
   0.0664750000000000    0.3051600000000000    0.0664750000000000 O
   0.9335450000000001    0.6948200000000000    0.4335000000000000 O
   0.9334150000000000    0.5714000000000000    0.4334000000000000 O
   0.0666000000000000    0.4285800000000000    0.5665850000000000 O
   0.0664750000000000    0.3051600000000000    0.5664750000000001 O
   0.4335450000000000    0.6948200000000000    0.4335000000000000 O
   0.4334150000000000    0.5714000000000000    0.4334000000000000 O
   0.5666000000000000    0.4285800000000000    0.5665850000000000 O
   0.5664750000000001    0.3051600000000000    0.5664750000000001 O
   0.4335450000000000    0.6948200000000000    0.9335000000000000 O
   0.4334150000000000    0.5714000000000000    0.9334000000000000 O
   0.4333700000000000    0.5712900000000000    0.8473300000000000 O
   0.4333700000000000    0.6946600000000001    0.7856400000000000 O
   0.5666450000000000    0.4286900000000000    0.6526550000000000 O
   0.5666450000000000    0.3053200000000000    0.7143450000000000 O
   0.4333700000000000    0.5712900000000000    0.3473300000000000 O
   0.4333700000000000    0.6946600000000001    0.2856400000000000 O
   0.5666450000000000    0.4286900000000000    0.1526550000000000 O
   0.5666450000000000    0.3053200000000000    0.2143450000000000 O
   0.3474000000000000    0.8667300000000000    0.7856250000000000 O
   0.2857050000000000    0.8666199999999999    0.8473200000000001 O
   0.2143100000000000    0.1333700000000000    0.6526650000000001 O
   0.1526150000000000    0.1332600000000000    0.7143500000000000 O
   0.1249850000000000    0.2500100000000000    0.6250050000000000 O
   0.2143100000000000    0.3053400000000000    0.5666750000000000 O
   0.1526150000000000    0.4287200000000000    0.5666200000000000 O
   0.2857100000000000    0.6946500000000000    0.4333100000000000 O
   0.3474050000000000    0.5712600000000000    0.4333500000000000 O
   0.3750300000000000    0.7499700000000000    0.3749800000000000 O
   0.3474000000000000    0.8667300000000000    0.2856250000000000 O
   0.2857050000000000    0.8666199999999999    0.3473200000000000 O
   0.2143100000000000    0.1333700000000000    0.1526650000000000 O
   0.1526150000000000    0.1332600000000000    0.2143500000000000 O
   0.1249850000000000    0.2500100000000000    0.1250050000000000 O
   0.2143100000000000    0.3053400000000000    0.0666750000000000 O
   0.1526150000000000    0.4287200000000000    0.0666200000000000 O
   0.2857100000000000    0.6946500000000000    0.9333100000000000 O
   0.3474050000000000    0.5712600000000000    0.9333500000000000 O
   0.3750300000000000    0.7499700000000000    0.8749800000000000 O
   0.9333700000000000    0.5712900000000000    0.8473300000000000 O
   0.9333700000000000    0.6946600000000001    0.7856400000000000 O
   0.0666450000000000    0.4286900000000000    0.6526550000000000 O
   0.0666450000000000    0.3053200000000000    0.7143450000000000 O
   0.9333700000000000    0.5712900000000000    0.3473300000000000 O
   0.9333700000000000    0.6946600000000001    0.2856400000000000 O
   0.0666450000000000    0.4286900000000000    0.1526550000000000 O
   0.0666450000000000    0.3053200000000000    0.2143450000000000 O
   0.8473999999999999    0.8667300000000000    0.2856250000000000 O
   0.7857050000000000    0.8666199999999999    0.3473200000000000 O
   0.7143100000000000    0.1333700000000000    0.1526650000000000 O
   0.6526149999999999    0.1332600000000000    0.2143500000000000 O
   0.6249850000000000    0.2500100000000000    0.1250050000000000 O
   0.7143100000000000    0.3053400000000000    0.0666750000000000 O
   0.6526149999999999    0.4287200000000000    0.0666200000000000 O
   0.7857100000000000    0.6946500000000000    0.9333100000000000 O
   0.8474050000000000    0.5712600000000000    0.9333500000000000 O
   0.8750300000000000    0.7499700000000000    0.8749800000000000 O
   0.8473999999999999    0.8667300000000000    0.7856250000000000 O
   0.7857050000000000    0.8666199999999999    0.8473200000000001 O
   0.7143100000000000    0.1333700000000000    0.6526650000000001 O
   0.6526149999999999    0.1332600000000000    0.7143500000000000 O
   0.6249850000000000    0.2500100000000000    0.6250050000000000 O
   0.7143100000000000    0.3053400000000000    0.5666750000000000 O
   0.6526149999999999    0.4287200000000000    0.5666200000000000 O
   0.7857100000000000    0.6946500000000000    0.4333100000000000 O
   0.8474050000000000    0.5712600000000000    0.4333500000000000 O
   0.8750300000000000    0.7499700000000000    0.3749800000000000 O
