H4 O2
1.0
  36.7058569953696718    0.0000000000000000   -9.9019385089724370
  -3.3693085421426936   11.6717853880320455   -4.7829197989895134
   0.0000000000000000    0.0000000000000000   25.7639999999999993
H O
4 2
direct
   0.4245784133774431    0.2703804679093234    0.2023729299464911 H
   0.4485374066903279    0.1873860140016199    0.1793207476230869 H
   0.3382938052082983    0.5158751588115825    0.8594200596291091 H
   0.3157742513070206    0.5928478283149816    0.8920165859434195 H
   0.4504000000000000    0.2628100000000000    0.2089750000000000 O
   0.3127600000000000    0.5216200000000000    0.8582400000000000 O
