H10 C14 O6
1.0
  36.7058569953696718    0.0000000000000000   -9.9019385089724370
  -3.3693085421426936   11.6717853880320455   -4.7829197989895134
   0.0000000000000000    0.0000000000000000   25.7639999999999993
H C O
10 14 6
direct
   0.3238350000000000    0.3341500000000000    0.1797450000000000 H
   0.2804300000000000    0.2619100000000000    0.1796500000000000 H
   0.2939500000000000    0.1126900000000000    0.1597100000000000 H
   0.2758000000000000    0.9016100000000000    0.1145650000000000 H
   0.2448450000000000    0.7887700000000000    0.0055150000000000 H
   0.1761700000000000    0.6658200000000000    0.8202600000000000 H
   0.2195700000000000    0.7380700000000000    0.8203549999999999 H
   0.2060550000000000    0.8872900000000000    0.8402900000000000 H
   0.2242050000000000    0.0983700000000000    0.8854400000000000 H
   0.2551600000000000    0.2112100000000000    0.9944900000000000 H
   0.2792300000000000    0.4167600000000000    0.1689600000000000 C
   0.2927350000000000    0.3090700000000000    0.1582100000000000 C
   0.2732250000000000    0.1235800000000000    0.0756950000000000 C
   0.2805250000000000    0.0663800000000000    0.1116250000000000 C
   0.2699450000000000    0.9451500000000000    0.0856800000000000 C
   0.2527700000000000    0.8819800000000000    0.0251100000000000 C
   0.2550350000000000    0.0613700000000000    0.0124500000000000 C
   0.2207750000000000    0.5832200000000000    0.8310450000000000 C
   0.2072650000000000    0.6909100000000000    0.8417950000000001 C
   0.2267800000000000    0.8764000000000000    0.9243100000000000 C
   0.2194800000000000    0.9336000000000000    0.8883799999999999 C
   0.2300600000000000    0.0548300000000000    0.9143250000000001 C
   0.2472350000000000    0.1180000000000000    0.9748500000000000 C
   0.2449700000000000    0.9386100000000001    0.9875200000000000 C
   0.2771900000000000    0.4653600000000000    0.2214200000000000 O
   0.2711250000000000    0.4533100000000000    0.1302050000000000 O
   0.2823450000000000    0.2403300000000000    0.0955850000000000 O
   0.2228150000000000    0.5346100000000000    0.7785850000000001 O
   0.2288850000000000    0.5466800000000001    0.8698049999999999 O
   0.2176600000000000    0.7596500000000000    0.9044200000000000 O
