Cd16 H312 C402 N64 O92
1.0
  36.7058569953696718    0.0000000000000000   -9.9019385089724370
  -3.3693085421426936   11.6717853880320455   -4.7829197989895134
   0.0000000000000000    0.0000000000000000   25.7639999999999993
Cd H C N O
16 312 402 64 92
direct
   0.7452550000000000    0.6043100000000000    0.2124600000000000 Cd
   0.4952600000000000    0.6043100000000000    0.7124600000000000 Cd
   0.2452550000000000    0.6043100000000000    0.2124600000000000 Cd
   0.9952600000000000    0.6043100000000000    0.7124600000000000 Cd
   0.7547500000000000    0.3956600000000000    0.7875449999999999 Cd
   0.0047450000000000    0.3956600000000000    0.2875000000000000 Cd
   0.2547500000000000    0.3956600000000000    0.7875449999999999 Cd
   0.5047450000000000    0.3956600000000000    0.2875000000000000 Cd
   0.2452550000000000    0.6043100000000000    0.7124600000000000 Cd
   0.9952600000000000    0.6043100000000000    0.2124600000000000 Cd
   0.7452550000000000    0.6043100000000000    0.7124600000000000 Cd
   0.4952600000000000    0.6043100000000000    0.2124600000000000 Cd
   0.7547500000000000    0.3956600000000000    0.2875450000000000 Cd
   0.0047450000000000    0.3956600000000000    0.7875000000000000 Cd
   0.2547500000000000    0.3956600000000000    0.2875450000000000 Cd
   0.5047450000000000    0.3956600000000000    0.7875000000000000 Cd
   0.2212733931063006    0.5713440740699652    0.8182284792369960 H
   0.2787316250637871    0.4286330499509551    0.1817760535067305 H
   0.7061999999999999    0.3504700000000000    0.0847700000000000 H
   0.5941200000000000    0.3688500000000000    0.0761700000000000 H
   0.6466650000000000    0.5593600000000000    0.1726450000000000 H
   0.6415600000000000    0.8495800000000000    0.8677100000000000 H
   0.5915950000000000    0.6491000000000000    0.7733749999999999 H
   0.5287950000000000    0.8766500000000000    0.8350800000000000 H
   0.5556900000000000    0.9806600000000000    0.9464800000000000 H
   0.5801499999999999    0.1694300000000000    0.0322600000000000 H
   0.6530250000000000    0.0556000000000000    0.8961850000000000 H
   0.6778000000000000    0.2436500000000000    0.9800000000000000 H
   0.3966650000000000    0.5593600000000000    0.6725000000000000 H
   0.3441200000000000    0.3688500000000000    0.5761700000000000 H
   0.4562000000000000    0.3504700000000000    0.5847500000000000 H
   0.3915650000000000    0.8495800000000000    0.3677100000000000 H
   0.3416000000000000    0.6491000000000000    0.2733750000000000 H
   0.2788000000000000    0.8766500000000000    0.3350800000000000 H
   0.3056950000000000    0.9806600000000000    0.4464500000000000 H
   0.3301550000000000    0.1694200000000000    0.5322600000000000 H
   0.4030300000000000    0.0556100000000000    0.3961850000000000 H
   0.4278050000000000    0.2436600000000000    0.4825000000000000 H
   0.2062000000000000    0.3504700000000000    0.0847700000000000 H
   0.0941200000000000    0.3688500000000000    0.0761700000000000 H
   0.1466650000000000    0.5593600000000000    0.1726450000000000 H
   0.1415600000000000    0.8495800000000000    0.8677100000000000 H
   0.0915950000000000    0.6491000000000000    0.7733749999999999 H
   0.0287950000000000    0.8766500000000000    0.8350800000000000 H
   0.0556900000000000    0.9806600000000000    0.9464800000000000 H
   0.0801500000000000    0.1694300000000000    0.0322600000000000 H
   0.1530250000000000    0.0556000000000000    0.8961850000000000 H
   0.1778000000000000    0.2436500000000000    0.9800000000000000 H
   0.8966650000000000    0.5593600000000000    0.6725000000000000 H
   0.8441200000000000    0.3688500000000000    0.5761700000000000 H
   0.9561999999999999    0.3504700000000000    0.5847500000000000 H
   0.8915649999999999    0.8495800000000000    0.3677100000000000 H
   0.8416000000000000    0.6491000000000000    0.2733750000000000 H
   0.7787999999999999    0.8766500000000000    0.3350800000000000 H
   0.8056950000000001    0.9806600000000000    0.4464500000000000 H
   0.8301550000000000    0.1694200000000000    0.5322600000000000 H
   0.9030300000000000    0.0556100000000000    0.3961850000000000 H
   0.9278050000000000    0.2436600000000000    0.4825000000000000 H
   0.5125950000000000    0.0558100000000000    0.3103000000000000 H
   0.5581900000000000    0.1478100000000000    0.3600000000000000 H
   0.6982300000000000    0.1487900000000000    0.2972600000000000 H
   0.6720100000000000    0.2936400000000000    0.3545550000000000 H
   0.6042200000000000    0.2473500000000000    0.3450200000000000 H
   0.7374050000000000    0.9441600000000000    0.1896900000000000 H
   0.6918100000000000    0.8521600000000000    0.1400100000000000 H
   0.5517750000000000    0.8511900000000000    0.2027500000000000 H
   0.5779900000000000    0.7063300000000000    0.1454500000000000 H
   0.6457800000000000    0.7526200000000000    0.1549850000000000 H
   0.7804300000000000    0.2619100000000000    0.6796500000000000 H
   0.8238350000000000    0.3341500000000000    0.6797450000000000 H
   0.7195700000000000    0.7380700000000000    0.3203550000000000 H
   0.6761699999999999    0.6658200000000000    0.3202600000000000 H
   0.7448450000000000    0.7887700000000000    0.5055150000000000 H
   0.7758000000000000    0.9016100000000000    0.6145650000000000 H
   0.7939499999999999    0.1126900000000000    0.6597100000000000 H
   0.7551600000000001    0.2112100000000000    0.4944900000000000 H
   0.7242050000000000    0.0983700000000000    0.3854400000000000 H
   0.7060550000000000    0.8872900000000000    0.3402900000000000 H
   0.0304300000000000    0.2619100000000000    0.1796500000000000 H
   0.0738300000000000    0.3341600000000000    0.1797450000000000 H
   0.9695750000000001    0.7380700000000000    0.8203549999999999 H
   0.9261699999999999    0.6658200000000000    0.8202650000000000 H
   0.9948500000000000    0.7887700000000000    0.0055150000000000 H
   0.0257950000000000    0.9016100000000000    0.1145650000000000 H
   0.0439450000000000    0.1126900000000000    0.1597150000000000 H
   0.0051550000000000    0.2112100000000000    0.9944900000000000 H
   0.9742100000000000    0.0983700000000000    0.8854400000000000 H
   0.9560600000000000    0.8872900000000000    0.8402950000000000 H
   0.9874100000000000    0.9441700000000000    0.6896900000000000 H
   0.9418150000000001    0.8521600000000000    0.6400100000000000 H
   0.8017750000000000    0.8511900000000000    0.7027450000000000 H
   0.8279950000000000    0.7063400000000000    0.6454500000000000 H
   0.8957850000000001    0.7526300000000000    0.6549850000000000 H
   0.7625999999999999    0.0558100000000000    0.8103150000000000 H
   0.8081900000000000    0.1478100000000000    0.8600000000000000 H
   0.9482349999999999    0.1487900000000000    0.7972600000000001 H
   0.9220150000000000    0.2936400000000000    0.8545499999999999 H
   0.8542250000000000    0.2473500000000000    0.8450200000000000 H
   0.0125950000000000    0.0558100000000000    0.3103000000000000 H
   0.0581900000000000    0.1478100000000000    0.3600000000000000 H
   0.1982300000000000    0.1487900000000000    0.2972600000000000 H
   0.1720100000000000    0.2936400000000000    0.3545550000000000 H
   0.1042200000000000    0.2473500000000000    0.3450200000000000 H
   0.2374050000000000    0.9441600000000000    0.1896900000000000 H
   0.1918100000000000    0.8521600000000000    0.1400100000000000 H
   0.0517750000000000    0.8511900000000000    0.2027500000000000 H
   0.0779900000000000    0.7063300000000000    0.1454500000000000 H
   0.1457800000000000    0.7526200000000000    0.1549850000000000 H
   0.2804300000000000    0.2619100000000000    0.6796500000000000 H
   0.3238350000000000    0.3341500000000000    0.6797450000000000 H
   0.2195700000000000    0.7380700000000000    0.3203550000000000 H
   0.1761700000000000    0.6658200000000000    0.3202600000000000 H
   0.2448450000000000    0.7887700000000000    0.5055150000000000 H
   0.2758000000000000    0.9016100000000000    0.6145650000000000 H
   0.2939500000000000    0.1126900000000000    0.6597100000000000 H
   0.2551600000000000    0.2112100000000000    0.4944900000000000 H
   0.2242050000000000    0.0983700000000000    0.3854400000000000 H
   0.2060550000000000    0.8872900000000000    0.3402900000000000 H
   0.5304300000000000    0.2619100000000000    0.1796500000000000 H
   0.5738300000000001    0.3341600000000000    0.1797450000000000 H
   0.4695750000000000    0.7380700000000000    0.8203549999999999 H
   0.4261700000000000    0.6658200000000000    0.8202650000000000 H
   0.4948500000000000    0.7887700000000000    0.0055150000000000 H
   0.5257950000000000    0.9016100000000000    0.1145650000000000 H
   0.5439450000000000    0.1126900000000000    0.1597150000000000 H
   0.5051550000000000    0.2112100000000000    0.9944900000000000 H
   0.4742100000000000    0.0983700000000000    0.8854400000000000 H
   0.4560600000000000    0.8872900000000000    0.8402950000000000 H
   0.4874100000000000    0.9441700000000000    0.6896900000000000 H
   0.4418150000000000    0.8521600000000000    0.6400100000000000 H
   0.3017750000000000    0.8511900000000000    0.7027450000000000 H
   0.3279950000000000    0.7063400000000000    0.6454500000000000 H
   0.3957850000000000    0.7526300000000000    0.6549850000000000 H
   0.2626000000000000    0.0558100000000000    0.8103150000000000 H
   0.3081900000000000    0.1478100000000000    0.8600000000000000 H
   0.4482350000000000    0.1487900000000000    0.7972600000000001 H
   0.4220150000000000    0.2936400000000000    0.8545499999999999 H
   0.3542250000000000    0.2473500000000000    0.8450200000000000 H
   0.7938050000000000    0.6495100000000000    0.9152000000000000 H
   0.9058850000000001    0.6311200000000000    0.9238350000000000 H
   0.8533400000000000    0.4406100000000000    0.8273500000000000 H
   0.8584400000000000    0.1503900000000000    0.1322950000000000 H
   0.9084050000000000    0.3508700000000000    0.2266300000000000 H
   0.9712100000000000    0.1233200000000000    0.1649250000000000 H
   0.8469800000000001    0.9443600000000000    0.1038200000000000 H
   0.8222050000000001    0.7563200000000000    0.0175050000000000 H
   0.9198550000000000    0.8305399999999999    0.9677450000000001 H
   0.9443150000000000    0.0193100000000000    0.0535300000000000 H
   0.1558800000000000    0.6311099999999999    0.4238350000000000 H
   0.1033350000000000    0.4406100000000000    0.3273550000000000 H
   0.0438050000000000    0.6495000000000000    0.4152350000000000 H
   0.1084400000000000    0.1503900000000000    0.6322950000000001 H
   0.1584050000000000    0.3508700000000000    0.7266300000000000 H
   0.2212050000000000    0.1233200000000000    0.6649250000000000 H
   0.0969750000000000    0.9443600000000000    0.6038200000000000 H
   0.0722000000000000    0.7563100000000000    0.5175050000000000 H
   0.1698500000000000    0.8305399999999999    0.4677450000000000 H
   0.1943100000000000    0.0193100000000000    0.5535300000000000 H
   0.2938050000000000    0.6495100000000000    0.9152000000000000 H
   0.4058850000000000    0.6311200000000000    0.9238350000000000 H
   0.3533400000000000    0.4406100000000000    0.8273500000000000 H
   0.3584400000000000    0.1503900000000000    0.1322950000000000 H
   0.4084050000000000    0.3508700000000000    0.2266300000000000 H
   0.4712100000000000    0.1233200000000000    0.1649250000000000 H
   0.3469800000000000    0.9443600000000000    0.1038200000000000 H
   0.3222050000000000    0.7563200000000000    0.0175050000000000 H
   0.4198550000000000    0.8305399999999999    0.9677450000000001 H
   0.4443150000000000    0.0193100000000000    0.0535300000000000 H
   0.6558800000000000    0.6311099999999999    0.4238350000000000 H
   0.6033350000000000    0.4406100000000000    0.3273550000000000 H
   0.5438050000000000    0.6495000000000000    0.4152350000000000 H
   0.6084400000000000    0.1503900000000000    0.6322950000000001 H
   0.6584050000000000    0.3508700000000000    0.7266300000000000 H
   0.7212050000000000    0.1233200000000000    0.6649250000000000 H
   0.5969750000000000    0.9443600000000000    0.6038200000000000 H
   0.5722000000000000    0.7563100000000000    0.5175050000000000 H
   0.6698500000000001    0.8305399999999999    0.4677450000000000 H
   0.6943100000000000    0.0193100000000000    0.5535300000000000 H
   0.2062000000000000    0.3504700000000000    0.5847700000000000 H
   0.0941200000000000    0.3688500000000000    0.5761700000000000 H
   0.1466650000000000    0.5593600000000000    0.6726449999999999 H
   0.1415600000000000    0.8495800000000000    0.3677100000000000 H
   0.0915950000000000    0.6491000000000000    0.2733750000000000 H
   0.0287950000000000    0.8766500000000000    0.3350800000000000 H
   0.0556900000000000    0.9806600000000000    0.4464800000000000 H
   0.0801500000000000    0.1694300000000000    0.5322600000000000 H
   0.1530250000000000    0.0556000000000000    0.3961850000000000 H
   0.1778000000000000    0.2436500000000000    0.4800000000000000 H
   0.8966650000000000    0.5593600000000000    0.1725000000000000 H
   0.8441200000000000    0.3688500000000000    0.0761700000000000 H
   0.9561999999999999    0.3504700000000000    0.0847500000000000 H
   0.8915649999999999    0.8495800000000000    0.8677100000000000 H
   0.8416000000000000    0.6491000000000000    0.7733749999999999 H
   0.7787999999999999    0.8766500000000000    0.8350800000000000 H
   0.8056950000000001    0.9806600000000000    0.9464500000000000 H
   0.8301550000000000    0.1694200000000000    0.0322600000000000 H
   0.9030300000000000    0.0556100000000000    0.8961850000000000 H
   0.9278050000000000    0.2436600000000000    0.9824999999999999 H
   0.7061999999999999    0.3504700000000000    0.5847700000000000 H
   0.5941200000000000    0.3688500000000000    0.5761700000000000 H
   0.6466650000000000    0.5593600000000000    0.6726449999999999 H
   0.6415600000000000    0.8495800000000000    0.3677100000000000 H
   0.5915950000000000    0.6491000000000000    0.2733750000000000 H
   0.5287950000000000    0.8766500000000000    0.3350800000000000 H
   0.5556900000000000    0.9806600000000000    0.4464800000000000 H
   0.5801499999999999    0.1694300000000000    0.5322600000000000 H
   0.6530250000000000    0.0556000000000000    0.3961850000000000 H
   0.6778000000000000    0.2436500000000000    0.4800000000000000 H
   0.3966650000000000    0.5593600000000000    0.1725000000000000 H
   0.3441200000000000    0.3688500000000000    0.0761700000000000 H
   0.4562000000000000    0.3504700000000000    0.0847500000000000 H
   0.3915650000000000    0.8495800000000000    0.8677100000000000 H
   0.3416000000000000    0.6491000000000000    0.7733749999999999 H
   0.2788000000000000    0.8766500000000000    0.8350800000000000 H
   0.3056950000000000    0.9806600000000000    0.9464500000000000 H
   0.3301550000000000    0.1694200000000000    0.0322600000000000 H
   0.4030300000000000    0.0556100000000000    0.8961850000000000 H
   0.4278050000000000    0.2436600000000000    0.9824999999999999 H
   0.5304300000000000    0.2619100000000000    0.6796500000000000 H
   0.5738300000000001    0.3341600000000000    0.6797450000000000 H
   0.4695750000000000    0.7380700000000000    0.3203550000000000 H
   0.4261700000000000    0.6658200000000000    0.3202650000000000 H
   0.4948500000000000    0.7887700000000000    0.5055150000000000 H
   0.5257950000000000    0.9016100000000000    0.6145650000000000 H
   0.5439450000000000    0.1126900000000000    0.6597150000000001 H
   0.5051550000000000    0.2112100000000000    0.4944900000000000 H
   0.4742100000000000    0.0983700000000000    0.3854400000000000 H
   0.4560600000000000    0.8872900000000000    0.3402950000000000 H
   0.4874100000000000    0.9441700000000000    0.1896900000000000 H
   0.4418150000000000    0.8521600000000000    0.1400100000000000 H
   0.3017750000000000    0.8511900000000000    0.2027450000000000 H
   0.3279950000000000    0.7063400000000000    0.1454500000000000 H
   0.3957850000000000    0.7526300000000000    0.1549850000000000 H
   0.2626000000000000    0.0558100000000000    0.3103150000000000 H
   0.3081900000000000    0.1478100000000000    0.3600000000000000 H
   0.4482350000000000    0.1487900000000000    0.2972600000000000 H
   0.4220150000000000    0.2936400000000000    0.3545500000000000 H
   0.3542250000000000    0.2473500000000000    0.3450200000000000 H
   0.0125950000000000    0.0558100000000000    0.8103000000000000 H
   0.0581900000000000    0.1478100000000000    0.8600000000000000 H
   0.1982300000000000    0.1487900000000000    0.7972600000000001 H
   0.1720100000000000    0.2936400000000000    0.8545550000000000 H
   0.1042200000000000    0.2473500000000000    0.8450200000000000 H
   0.2374050000000000    0.9441600000000000    0.6896900000000000 H
   0.1918100000000000    0.8521600000000000    0.6400100000000000 H
   0.0517750000000000    0.8511900000000000    0.7027500000000000 H
   0.0779900000000000    0.7063300000000000    0.6454500000000000 H
   0.1457800000000000    0.7526200000000000    0.6549850000000000 H
   0.5125950000000000    0.0558100000000000    0.8103000000000000 H
   0.5581900000000000    0.1478100000000000    0.8600000000000000 H
   0.6982300000000000    0.1487900000000000    0.7972600000000001 H
   0.6720100000000000    0.2936400000000000    0.8545550000000000 H
   0.6042200000000000    0.2473500000000000    0.8450200000000000 H
   0.7374050000000000    0.9441600000000000    0.6896900000000000 H
   0.6918100000000000    0.8521600000000000    0.6400100000000000 H
   0.5517750000000000    0.8511900000000000    0.7027500000000000 H
   0.5779900000000000    0.7063300000000000    0.6454500000000000 H
   0.6457800000000000    0.7526200000000000    0.6549850000000000 H
   0.7804300000000000    0.2619100000000000    0.1796500000000000 H
   0.8238350000000000    0.3341500000000000    0.1797450000000000 H
   0.7195700000000000    0.7380700000000000    0.8203549999999999 H
   0.6761699999999999    0.6658200000000000    0.8202600000000000 H
   0.7448450000000000    0.7887700000000000    0.0055150000000000 H
   0.7758000000000000    0.9016100000000000    0.1145650000000000 H
   0.7939499999999999    0.1126900000000000    0.1597100000000000 H
   0.7551600000000001    0.2112100000000000    0.9944900000000000 H
   0.7242050000000000    0.0983700000000000    0.8854400000000000 H
   0.7060550000000000    0.8872900000000000    0.8402900000000000 H
   0.0304300000000000    0.2619100000000000    0.6796500000000000 H
   0.0738300000000000    0.3341600000000000    0.6797450000000000 H
   0.9695750000000001    0.7380700000000000    0.3203550000000000 H
   0.9261699999999999    0.6658200000000000    0.3202650000000000 H
   0.9948500000000000    0.7887700000000000    0.5055150000000000 H
   0.0257950000000000    0.9016100000000000    0.6145650000000000 H
   0.0439450000000000    0.1126900000000000    0.6597150000000001 H
   0.0051550000000000    0.2112100000000000    0.4944900000000000 H
   0.9742100000000000    0.0983700000000000    0.3854400000000000 H
   0.9560600000000000    0.8872900000000000    0.3402950000000000 H
   0.9874100000000000    0.9441700000000000    0.1896900000000000 H
   0.9418150000000001    0.8521600000000000    0.1400100000000000 H
   0.8017750000000000    0.8511900000000000    0.2027450000000000 H
   0.8279950000000000    0.7063400000000000    0.1454500000000000 H
   0.8957850000000001    0.7526300000000000    0.1549850000000000 H
   0.7625999999999999    0.0558100000000000    0.3103150000000000 H
   0.8081900000000000    0.1478100000000000    0.3600000000000000 H
   0.9482349999999999    0.1487900000000000    0.2972600000000000 H
   0.9220150000000000    0.2936400000000000    0.3545500000000000 H
   0.8542250000000000    0.2473500000000000    0.3450200000000000 H
   0.7938050000000000    0.6495100000000000    0.4152000000000000 H
   0.9058850000000001    0.6311200000000000    0.4238350000000000 H
   0.8533400000000000    0.4406100000000000    0.3273500000000000 H
   0.8584400000000000    0.1503900000000000    0.6322950000000001 H
   0.9084050000000000    0.3508700000000000    0.7266300000000000 H
   0.9712100000000000    0.1233200000000000    0.6649250000000000 H
   0.8469800000000001    0.9443600000000000    0.6038200000000000 H
   0.8222050000000001    0.7563200000000000    0.5175050000000000 H
   0.9198550000000000    0.8305399999999999    0.4677450000000000 H
   0.9443150000000000    0.0193100000000000    0.5535300000000000 H
   0.1558800000000000    0.6311099999999999    0.9238350000000000 H
   0.1033350000000000    0.4406100000000000    0.8273550000000001 H
   0.0438050000000000    0.6495000000000000    0.9152350000000000 H
   0.1084400000000000    0.1503900000000000    0.1322950000000000 H
   0.1584050000000000    0.3508700000000000    0.2266300000000000 H
   0.2212050000000000    0.1233200000000000    0.1649250000000000 H
   0.0969750000000000    0.9443600000000000    0.1038200000000000 H
   0.0722000000000000    0.7563100000000000    0.0175050000000000 H
   0.1698500000000000    0.8305399999999999    0.9677450000000001 H
   0.1943100000000000    0.0193100000000000    0.0535300000000000 H
   0.2938050000000000    0.6495100000000000    0.4152000000000000 H
   0.4058850000000000    0.6311200000000000    0.4238350000000000 H
   0.3533400000000000    0.4406100000000000    0.3273500000000000 H
   0.3584400000000000    0.1503900000000000    0.6322950000000001 H
   0.4084050000000000    0.3508700000000000    0.7266300000000000 H
   0.4712100000000000    0.1233200000000000    0.6649250000000000 H
   0.3469800000000000    0.9443600000000000    0.6038200000000000 H
   0.3222050000000000    0.7563200000000000    0.5175050000000000 H
   0.4198550000000000    0.8305399999999999    0.4677450000000000 H
   0.4443150000000000    0.0193100000000000    0.5535300000000000 H
   0.6558800000000000    0.6311099999999999    0.9238350000000000 H
   0.6033350000000000    0.4406100000000000    0.8273550000000001 H
   0.5438050000000000    0.6495000000000000    0.9152350000000000 H
   0.6084400000000000    0.1503900000000000    0.1322950000000000 H
   0.6584050000000000    0.3508700000000000    0.2266300000000000 H
   0.7212050000000000    0.1233200000000000    0.1649250000000000 H
   0.5969750000000000    0.9443600000000000    0.1038200000000000 H
   0.5722000000000000    0.7563100000000000    0.0175050000000000 H
   0.6698500000000001    0.8305399999999999    0.9677450000000001 H
   0.6943100000000000    0.0193100000000000    0.0535300000000000 H
   0.6831600000000000    0.3818200000000000    0.0959900000000000 C
   0.6248300000000000    0.3928300000000000    0.0926750000000000 C
   0.6511100000000000    0.4864800000000000    0.1400950000000000 C
   0.6110500000000000    0.8240499999999999    0.8467950000000000 C
   0.5861350000000000    0.7264500000000000    0.8003700000000000 C
   0.5521350000000000    0.8396100000000000    0.8313100000000000 C
   0.6029750000000000    0.0000000000000000    0.9160250000000000 C
   0.5822450000000000    0.0384700000000000    0.9538599999999999 C
   0.5961350000000000    0.1450600000000000    0.0000000000000000 C
   0.6308350000000000    0.2186200000000000    0.0136900000000000 C
   0.6374250000000000    0.0793900000000000    0.9266300000000001 C
   0.6513550000000000    0.1857200000000000    0.9753950000000000 C
   0.4011100000000000    0.4864700000000000    0.6400950000000000 C
   0.3748350000000000    0.3928300000000000    0.5926750000000000 C
   0.4331650000000000    0.3818200000000000    0.5959900000000000 C
   0.3610550000000000    0.8240499999999999    0.3467950000000000 C
   0.3361400000000000    0.7264500000000000    0.3003700000000000 C
   0.3021400000000000    0.8396100000000000    0.3313100000000000 C
   0.3529750000000000    0.0000000000000000    0.4160250000000000 C
   0.3322500000000000    0.0384700000000000    0.4538600000000000 C
   0.3461400000000000    0.1450600000000000    0.5000000000000000 C
   0.3808400000000000    0.2186200000000000    0.5136900000000000 C
   0.3874300000000000    0.0793900000000000    0.4266300000000000 C
   0.4013600000000000    0.1857200000000000    0.4753950000000000 C
   0.1831600000000000    0.3818200000000000    0.0959900000000000 C
   0.1248300000000000    0.3928300000000000    0.0926750000000000 C
   0.1511100000000000    0.4864800000000000    0.1400950000000000 C
   0.1110500000000000    0.8240499999999999    0.8467950000000000 C
   0.0861350000000000    0.7264500000000000    0.8003700000000000 C
   0.0521350000000000    0.8396100000000000    0.8313100000000000 C
   0.1029750000000000    0.0000000000000000    0.9160250000000000 C
   0.0822450000000000    0.0384700000000000    0.9538599999999999 C
   0.0961350000000000    0.1450600000000000    0.0000000000000000 C
   0.1308350000000000    0.2186200000000000    0.0136900000000000 C
   0.1374250000000000    0.0793900000000000    0.9266300000000001 C
   0.1513550000000000    0.1857200000000000    0.9753950000000000 C
   0.9011100000000001    0.4864700000000000    0.6400950000000000 C
   0.8748350000000000    0.3928300000000000    0.5926750000000000 C
   0.9331650000000000    0.3818200000000000    0.5959900000000000 C
   0.8610550000000000    0.8240499999999999    0.3467950000000000 C
   0.8361400000000000    0.7264500000000000    0.3003700000000000 C
   0.8021400000000001    0.8396100000000000    0.3313100000000000 C
   0.8529750000000000    0.0000000000000000    0.4160250000000000 C
   0.8322499999999999    0.0384700000000000    0.4538600000000000 C
   0.8461400000000000    0.1450600000000000    0.5000000000000000 C
   0.8808400000000001    0.2186200000000000    0.5136900000000000 C
   0.8874299999999999    0.0793900000000000    0.4266300000000000 C
   0.9013599999999999    0.1857200000000000    0.4753950000000000 C
   0.5279050000000000    0.2085400000000000    0.2990950000000000 C
   0.7220949999999999    0.7914300000000000    0.2009100000000000 C
   0.5386750000000000    0.1114700000000000    0.3137100000000000 C
   0.6684900000000000    0.1263200000000000    0.2927800000000000 C
   0.6536550000000000    0.2073300000000000    0.3247900000000000 C
   0.6150500000000000    0.1812100000000000    0.3194300000000000 C
   0.5913100000000000    0.0724400000000000    0.2814400000000000 C
   0.6447050000000000    0.0143800000000000    0.2532400000000000 C
   0.7113250000000000    0.8885000000000000    0.1862950000000000 C
   0.5815100000000000    0.8736600000000000    0.2072250000000000 C
   0.5963450000000000    0.7926400000000000    0.1752150000000000 C
   0.6349500000000000    0.8187600000000000    0.1805750000000000 C
   0.6586900000000000    0.9275300000000000    0.2185650000000000 C
   0.6052999999999999    0.9855900000000000    0.2467700000000000 C
   0.7207749999999999    0.5832200000000000    0.3310450000000000 C
   0.7792300000000000    0.4167600000000000    0.6689600000000000 C
   0.7927350000000000    0.3090700000000000    0.6582100000000000 C
   0.7072650000000000    0.6909100000000000    0.3417950000000000 C
   0.7527699999999999    0.8819800000000000    0.5251100000000000 C
   0.7699450000000000    0.9451500000000000    0.5856800000000000 C
   0.7805250000000000    0.0663800000000000    0.6116250000000000 C
   0.7732250000000001    0.1235800000000000    0.5756950000000000 C
   0.7449700000000000    0.9386100000000001    0.4875200000000000 C
   0.7472350000000000    0.1180000000000000    0.4748500000000000 C
   0.7300599999999999    0.0548300000000000    0.4143250000000000 C
   0.7194800000000000    0.9336000000000000    0.3883800000000000 C
   0.7267800000000000    0.8764000000000000    0.4243100000000000 C
   0.7550350000000000    0.0613700000000000    0.5124500000000000 C
   0.9707800000000000    0.5832200000000000    0.8310450000000000 C
   0.0292250000000000    0.4167600000000000    0.1689600000000000 C
   0.0427300000000000    0.3090700000000000    0.1582100000000000 C
   0.9572700000000001    0.6909100000000000    0.8417950000000001 C
   0.0027650000000000    0.8819800000000000    0.0251150000000000 C
   0.0199400000000000    0.9451500000000000    0.0856800000000000 C
   0.0305200000000000    0.0663800000000000    0.1116250000000000 C
   0.0232200000000000    0.1235800000000000    0.0756950000000000 C
   0.9949749999999999    0.9386100000000001    0.9875250000000000 C
   0.9972400000000000    0.1180000000000000    0.9748950000000001 C
   0.9800650000000000    0.0548300000000000    0.9143250000000001 C
   0.9694849999999999    0.9336000000000000    0.8883799999999999 C
   0.9767850000000000    0.8764000000000000    0.9243100000000000 C
   0.0050350000000000    0.0613700000000000    0.0124850000000000 C
   0.9721000000000000    0.7914300000000000    0.7009150000000000 C
   0.7779100000000000    0.2085400000000000    0.7990950000000000 C
   0.9613300000000000    0.8885100000000000    0.6863000000000000 C
   0.8315150000000000    0.8736600000000000    0.7072000000000001 C
   0.8463499999999999    0.7926400000000000    0.6752150000000000 C
   0.8849549999999999    0.8187600000000000    0.6805750000000000 C
   0.9086950000000000    0.9275300000000000    0.7185699999999999 C
   0.8553050000000000    0.9855900000000000    0.7467699999999999 C
   0.7886800000000000    0.1114700000000000    0.8137099999999999 C
   0.9184950000000001    0.1263200000000000    0.7927850000000001 C
   0.9036600000000000    0.2073400000000000    0.8247900000000000 C
   0.8650500000000000    0.1812100000000000    0.8194350000000000 C
   0.8413150000000000    0.0724400000000000    0.7814400000000000 C
   0.8947050000000000    0.0143800000000000    0.7532350000000000 C
   0.0279050000000000    0.2085400000000000    0.2990950000000000 C
   0.2220950000000000    0.7914300000000000    0.2009100000000000 C
   0.0386750000000000    0.1114700000000000    0.3137100000000000 C
   0.1684900000000000    0.1263200000000000    0.2927800000000000 C
   0.1536550000000000    0.2073300000000000    0.3247900000000000 C