H4 C8 O4
1.0
  15.9826619768817864    0.0000000000000000    9.1670682954114202
   5.3101737797895838   15.0772936982767849    9.1729040747376374
   0.0000000000000000    0.0000000000000000   18.4310000000000009
H C O
4 8 4
direct
   0.9318400000000000    0.4521100000000000    0.1643300000000000 H
   0.1643600000000000    0.4515100000000000    0.9318600000000000 H
   0.0681300000000000    0.5478700000000000    0.8356600000000000 H
   0.8356000000000000    0.5484800000000000    0.0681300000000000 H
   0.9609000000000000    0.4734800000000000    0.0923400000000000 C
   0.0923600000000000    0.4731400000000000    0.9609200000000000 C
   0.0390700000000000    0.5265100000000000    0.9076500000000000 C
   0.9076100000000000    0.5268500000000000    0.0390700000000000 C
   0.1109400000000000    0.3888200000000000    0.1109000000000000 C
   0.0536200000000000    0.4462800000000000    0.0536000000000000 C
   0.8890300000000000    0.6111700000000000    0.8890900000000000 C
   0.9463500000000000    0.5537000000000000    0.9463900000000000 C
   0.0713500000000000    0.3665600000000000    0.1946700000000000 O
   0.1947300000000000    0.3667600000000000    0.0713000000000000 O
   0.9286200000000000    0.6334300000000000    0.8053100000000000 O
   0.8052400000000000    0.6332300000000000    0.9286900000000000 O
