Zn16 H204 C342 N28 O66
1.0
  23.2629749994850314    0.0000000000000000    0.0341053270693241
  -0.0016505836528618   15.8159994417239407   -0.0038645778044796
   0.0000000000000000    0.0000000000000000   31.9860000000000007
Zn H C N O
16 204 342 28 66
direct
   0.5673000000000000    0.9998400000000000    0.2899700000000000 Zn
   0.5673000000000000    0.9998400000000000    0.7899700000000001 Zn
   0.0674400000000000    0.9997300000000000    0.2898900000000000 Zn
   0.5748100000000000    0.0003100000000000    0.3786200000000000 Zn
   0.0741500000000000    0.9997700000000000    0.3784850000000000 Zn
   0.0674400000000000    0.9997300000000000    0.7898900000000000 Zn
   0.5748100000000000    0.0003100000000000    0.8786200000000000 Zn
   0.0741500000000000    0.9997700000000000    0.8784850000000000 Zn
   0.3250700000000000    0.9999300000000000    0.1217500000000000 Zn
   0.8250400000000000    0.9998400000000000    0.1213950000000000 Zn
   0.8175300000000000    0.0000100000000000    0.2100000000000000 Zn
   0.3175000000000000    0.0000700000000000    0.2103450000000000 Zn
   0.3250700000000000    0.9999300000000000    0.6217500000000000 Zn
   0.8250400000000000    0.9998400000000000    0.6213950000000000 Zn
   0.8175300000000000    0.0000100000000000    0.7100000000000000 Zn
   0.3175000000000000    0.0000700000000000    0.7103450000000000 Zn
   0.4641900000000000    0.0349100000000000    0.0171750000000000 H
   0.6474299999999999    0.0066400000000000    0.0310900000000000 H
   0.6543800000000000    0.9976600000000000    0.9522900000000001 H
   0.4783200000000000    0.0236800000000000    0.9388500000000000 H
   0.6699600000000000    0.9963100000000000    0.1480800000000000 H
   0.4847300000000000    0.0059600000000000    0.1403350000000000 H
   0.4820700000000000    0.0047200000000000    0.2186300000000000 H
   0.6604900000000000    0.9962800000000001    0.2261900000000000 H
   0.4641900000000000    0.0349100000000000    0.5171750000000001 H
   0.6474299999999999    0.0066400000000000    0.5310900000000000 H
   0.6543800000000000    0.9976600000000000    0.4522900000000000 H
   0.4783200000000000    0.0236800000000000    0.4388500000000000 H
   0.6699600000000000    0.9963100000000000    0.6480800000000000 H
   0.4847300000000000    0.0059600000000000    0.6403350000000000 H
   0.4820700000000000    0.0047200000000000    0.7186300000000000 H
   0.6604900000000000    0.9962800000000001    0.7261900000000000 H
   0.9646800000000000    0.9550600000000000    0.0170800000000000 H
   0.1439700000000000    0.0172200000000000    0.0311000000000000 H
   0.1508300000000000    0.0235000000000000    0.9521700000000000 H
   0.9787900000000000    0.9630300000000001    0.9385700000000000 H
   0.1696200000000000    0.0035800000000000    0.1477400000000000 H
   0.9842700000000000    0.9964200000000000    0.1405350000000000 H
   0.9820900000000000    0.9965100000000000    0.2188750000000000 H
   0.1606200000000000    0.0027100000000000    0.2259150000000000 H
   0.9145700000000000    0.1715500000000000    0.2777300000000000 H
   0.8497300000000000    0.2963700000000000    0.2814200000000000 H
   0.9923200000000000    0.2438900000000000    0.3939850000000000 H
   0.9314300000000000    0.3739300000000000    0.3958650000000000 H
   0.9105500000000000    0.8323400000000000    0.2792300000000000 H
   0.8466600000000000    0.7065200000000000    0.2828800000000000 H
   0.9926199999999999    0.7566000000000001    0.3933900000000000 H
   0.9323300000000000    0.6260400000000000    0.3952750000000000 H
   0.7315600000000000    0.1646800000000000    0.3903350000000000 H
   0.7950199999999999    0.2913600000000000    0.3886300000000000 H
   0.6484600000000000    0.2479000000000000    0.2781000000000000 H
   0.7092300000000000    0.3771400000000000    0.2771350000000000 H
   0.7953600000000000    0.7089100000000000    0.3890500000000000 H
   0.7323900000000000    0.8360400000000000    0.3911100000000000 H
   0.6464200000000000    0.7515600000000000    0.2801800000000000 H
   0.7072200000000000    0.6223700000000000    0.2786400000000000 H
   0.7154800000000000    0.4995500000000000    0.3288400000000000 H
   0.9264500000000000    0.5009000000000000    0.3441250000000000 H
   0.4140000000000000    0.8290000000000000    0.2791650000000000 H
   0.3492100000000000    0.7041200000000000    0.2827200000000000 H
   0.4913900000000000    0.7568600000000000    0.3955450000000000 H
   0.4304700000000000    0.6268800000000000    0.3973700000000000 H
   0.2959900000000000    0.2903100000000000    0.3897000000000000 H
   0.2334600000000000    0.1627500000000000    0.3916300000000000 H
   0.1477200000000000    0.2465300000000000    0.2804800000000000 H
   0.2080600000000000    0.3761300000000000    0.2791200000000000 H
   0.4937900000000000    0.2438000000000000    0.3934100000000000 H
   0.4333300000000000    0.3741300000000000    0.3957050000000000 H
   0.4113000000000000    0.1686200000000000    0.2793000000000000 H
   0.3473000000000000    0.2942200000000000    0.2833350000000000 H
   0.2295100000000000    0.8348200000000000    0.3906400000000000 H
   0.2935900000000000    0.7088100000000001    0.3894550000000000 H
   0.1474200000000000    0.7493500000000000    0.2784000000000000 H
   0.2087700000000000    0.6207800000000000    0.2779650000000000 H
   0.4263700000000000    0.5000300000000000    0.3452250000000000 H
   0.2154700000000000    0.4990900000000000    0.3296350000000000 H
   0.9646800000000000    0.9550600000000000    0.5170800000000000 H
   0.1439700000000000    0.0172200000000000    0.5311000000000000 H
   0.1508300000000000    0.0235000000000000    0.4521700000000000 H
   0.9787900000000000    0.9630300000000001    0.4385700000000000 H
   0.1696200000000000    0.0035800000000000    0.6477400000000000 H
   0.9842700000000000    0.9964200000000000    0.6405350000000000 H
   0.9820900000000000    0.9965100000000000    0.7188749999999999 H
   0.1606200000000000    0.0027100000000000    0.7259150000000000 H
   0.9145700000000000    0.1715500000000000    0.7777300000000000 H
   0.8497300000000000    0.2963700000000000    0.7814200000000000 H
   0.9923200000000000    0.2438900000000000    0.8939850000000000 H
   0.9314300000000000    0.3739300000000000    0.8958650000000000 H
   0.9105500000000000    0.8323400000000000    0.7792300000000000 H
   0.8466600000000000    0.7065200000000000    0.7828800000000000 H
   0.9926199999999999    0.7566000000000001    0.8933900000000000 H
   0.9323300000000000    0.6260400000000000    0.8952750000000000 H
   0.7315600000000000    0.1646800000000000    0.8903350000000000 H
   0.7950199999999999    0.2913600000000000    0.8886300000000000 H
   0.6484600000000000    0.2479000000000000    0.7781000000000000 H
   0.7092300000000000    0.3771400000000000    0.7771350000000000 H
   0.7953600000000000    0.7089100000000000    0.8890500000000000 H
   0.7323900000000000    0.8360400000000000    0.8911100000000001 H
   0.6464200000000000    0.7515600000000000    0.7801800000000000 H
   0.7072200000000000    0.6223700000000000    0.7786400000000000 H
   0.7154800000000000    0.4995500000000000    0.8288400000000000 H
   0.9264500000000000    0.5009000000000000    0.8441250000000000 H
   0.4140000000000000    0.8290000000000000    0.7791650000000000 H
   0.3492100000000000    0.7041200000000000    0.7827200000000001 H
   0.4913900000000000    0.7568600000000000    0.8955450000000000 H
   0.4304700000000000    0.6268800000000000    0.8973700000000000 H
   0.2959900000000000    0.2903100000000000    0.8896999999999999 H
   0.2334600000000000    0.1627500000000000    0.8916299999999999 H
   0.1477200000000000    0.2465300000000000    0.7804800000000001 H
   0.2080600000000000    0.3761300000000000    0.7791200000000000 H
   0.4937900000000000    0.2438000000000000    0.8934100000000000 H
   0.4333300000000000    0.3741300000000000    0.8957050000000000 H
   0.4113000000000000    0.1686200000000000    0.7793000000000000 H
   0.3473000000000000    0.2942200000000000    0.7833350000000000 H
   0.2295100000000000    0.8348200000000000    0.8906400000000000 H
   0.2935900000000000    0.7088100000000001    0.8894550000000000 H
   0.1474200000000000    0.7493500000000000    0.7784000000000000 H
   0.2087700000000000    0.6207800000000000    0.7779650000000000 H
   0.4263700000000000    0.5000300000000000    0.8452250000000000 H
   0.2154700000000000    0.4990900000000000    0.8296350000000000 H
   0.3388775890036307   -0.0330955218378057    0.0390053425835698 H
   0.2887668499034548    0.0432083014424591    0.0444883302152598 H
   0.2348100000000000    0.9986100000000000    0.3601400000000000 H
   0.2323400000000000    0.9984700000000000    0.2819050000000000 H
   0.4109100000000000    0.9982600000000000    0.2740950000000000 H
   0.4202500000000000    0.9965200000000000    0.3521500000000000 H
   0.2393300000000000    0.1065100000000000    0.4832050000000000 H
   0.3683100000000000    0.9125900000000000    0.4691900000000000 H
   0.3767500000000000    0.9098100000000000    0.5481500000000000 H
   0.2544400000000000    0.0973900000000000    0.5616750000000000 H
   0.6629600000000000    0.1679300000000000    0.2205500000000000 H
   0.5984200000000000    0.2929900000000000    0.2172850000000000 H
   0.7427500000000000    0.2430600000000000    0.1053300000000000 H
   0.6818500000000000    0.3729600000000000    0.1037400000000000 H
   0.4833700000000000    0.8346100000000000    0.1084400000000000 H
   0.5464000000000000    0.7077700000000000    0.1108350000000000 H
   0.4586800000000000    0.6233700000000000    0.2200000000000000 H
   0.3979800000000000    0.7525800000000000    0.2202050000000000 H
   0.4811600000000000    0.1632900000000000    0.1103800000000000 H
   0.5445800000000000    0.2898600000000000    0.1114250000000000 H
   0.3976500000000000    0.2493700000000000    0.2222500000000000 H
   0.4588100000000000    0.3781400000000000    0.2226900000000000 H
   0.7448600000000000    0.7536400000000000    0.1071900000000000 H
   0.6838300000000000    0.6240500000000000    0.1049000000000000 H
   0.6627100000000000    0.8293000000000000    0.2215000000000000 H
   0.5982700000000000    0.7041300000000000    0.2176150000000000 H
   0.6768800000000000    0.4985500000000000    0.1555000000000000 H
   0.4659600000000000    0.4997500000000000    0.1713500000000000 H
   0.1619600000000000    0.8321600000000000    0.2213000000000000 H
   0.0975700000000000    0.7070800000000000    0.2174950000000000 H
   0.2438600000000000    0.7565100000000000    0.1068650000000000 H
   0.1831100000000000    0.6264800000000000    0.1048700000000000 H
   0.9835400000000000    0.1655200000000000    0.1076450000000000 H
   0.0466000000000000    0.2924000000000000    0.1103550000000000 H
   0.8971300000000000    0.2476600000000000    0.2189750000000000 H
   0.9578600000000000    0.3768700000000000    0.2211050000000000 H
   0.1628500000000000    0.1709300000000000    0.2217250000000000 H
   0.0983800000000000    0.2961700000000000    0.2178100000000000 H
   0.2442200000000000    0.2456100000000000    0.1069650000000000 H
   0.1831400000000000    0.3751300000000000    0.1046150000000000 H
   0.0451900000000000    0.7106400000000000    0.1116650000000000 H
   0.9817800000000000    0.8372700000000000    0.1105900000000000 H
   0.8974500000000000    0.7505600000000000    0.2219900000000000 H
   0.9584800000000000    0.6216699999999999    0.2223950000000000 H
   0.9658099999999999    0.5004500000000000    0.1707400000000000 H
   0.1769000000000000    0.5011200000000000    0.1560200000000000 H
   0.7371300000000000    0.8943400000000000    0.4829700000000000 H
   0.8699100000000000    0.0824900000000000    0.4684000000000000 H
   0.8786100000000000    0.0856300000000000    0.5473700000000000 H
   0.7526900000000000    0.9033600000000001    0.5613750000000000 H
   0.9197100000000000    0.0051300000000000    0.3518500000000000 H
   0.7343300000000000    0.9971900000000000    0.3594750000000000 H
   0.7321200000000000    0.9988500000000000    0.2812300000000000 H
   0.9106500000000000    0.0048600000000000    0.2737200000000000 H
   0.3603666058508899    0.9983406045714409    0.7863239430297424 H
   0.2864386008801946    0.9986333468008112    0.7920647618536161 H
   0.6629600000000000    0.1679300000000000    0.7205500000000000 H
   0.5984200000000000    0.2929900000000000    0.7172850000000000 H
   0.7427500000000000    0.2430600000000000    0.6053300000000000 H
   0.6818500000000000    0.3729600000000000    0.6037399999999999 H
   0.4833700000000000    0.8346100000000000    0.6084400000000000 H
   0.5464000000000000    0.7077700000000000    0.6108350000000000 H
   0.4586800000000000    0.6233700000000000    0.7200000000000000 H
   0.3979800000000000    0.7525800000000000    0.7202050000000000 H
   0.4811600000000000    0.1632900000000000    0.6103800000000000 H
   0.5445800000000000    0.2898600000000000    0.6114250000000000 H
   0.3976500000000000    0.2493700000000000    0.7222500000000001 H
   0.4588100000000000    0.3781400000000000    0.7226900000000001 H
   0.7448600000000000    0.7536400000000000    0.6071900000000000 H
   0.6838300000000000    0.6240500000000000    0.6049000000000000 H
   0.6627100000000000    0.8293000000000000    0.7215000000000000 H
   0.5982700000000000    0.7041300000000000    0.7176150000000000 H
   0.6768800000000000    0.4985500000000000    0.6555000000000000 H
   0.4659600000000000    0.4997500000000000    0.6713500000000000 H
   0.1619600000000000    0.8321600000000000    0.7213000000000001 H
   0.0975700000000000    0.7070800000000000    0.7174950000000000 H
   0.2438600000000000    0.7565100000000000    0.6068650000000000 H
   0.1831100000000000    0.6264800000000000    0.6048700000000000 H
   0.9835400000000000    0.1655200000000000    0.6076450000000000 H
   0.0466000000000000    0.2924000000000000    0.6103550000000000 H
   0.8971300000000000    0.2476600000000000    0.7189750000000000 H
   0.9578600000000000    0.3768700000000000    0.7211050000000000 H
   0.1628500000000000    0.1709300000000000    0.7217249999999999 H
   0.0983800000000000    0.2961700000000000    0.7178100000000001 H
   0.2442200000000000    0.2456100000000000    0.6069650000000000 H
   0.1831400000000000    0.3751300000000000    0.6046150000000000 H
   0.0451900000000000    0.7106400000000000    0.6116650000000000 H
   0.9817800000000000    0.8372700000000000    0.6105900000000000 H
   0.8974500000000000    0.7505600000000000    0.7219900000000000 H
   0.9584800000000000    0.6216699999999999    0.7223950000000000 H
   0.9658099999999999    0.5004500000000000    0.6707400000000000 H
   0.1769000000000000    0.5011200000000000    0.6560200000000000 H
   0.7371300000000000    0.8943400000000000    0.9829700000000000 H
   0.8699100000000000    0.0824900000000000    0.9683999999999999 H
   0.8786100000000000    0.0856300000000000    0.0473700000000000 H
   0.7526900000000000    0.9033600000000001    0.0613750000000000 H
   0.9197100000000000    0.0051300000000000    0.8518500000000000 H
   0.7343300000000000    0.9971900000000000    0.8594750000000000 H
   0.7321200000000000    0.9988500000000000    0.7812300000000000 H
   0.9106500000000000    0.0048600000000000    0.7737200000000000 H
   0.5066800000000000    0.0257400000000000    0.0035600000000000 C
   0.6093600000000000    0.0097900000000000    0.0114250000000000 C
   0.6132200000000000    0.0048600000000000    0.9681999999999999 C
   0.5143100000000000    0.0194800000000000    0.9605300000000000 C
   0.5547500000000000    0.0192300000000000    0.0296000000000000 C
   0.6280100000000000    0.9986600000000000    0.1630800000000000 C
   0.5242800000000000    0.0045800000000000    0.1584800000000000 C
   0.5227800000000000    0.0034100000000000    0.2018400000000000 C
   0.6226400000000000    0.9986400000000000    0.2063150000000000 C
   0.5782100000000000    0.0025300000000000    0.1387500000000000 C
   0.5066800000000000    0.0257400000000000    0.5035600000000000 C
   0.6093600000000000    0.0097900000000000    0.5114250000000000 C
   0.6132200000000000    0.0048600000000000    0.4682000000000000 C
   0.5143100000000000    0.0194800000000000    0.4605300000000000 C
   0.5547500000000000    0.0192300000000000    0.5296000000000000 C
   0.6280100000000000    0.9986600000000000    0.6630800000000000 C
   0.5242800000000000    0.0045800000000000    0.6584800000000000 C
   0.5227800000000000    0.0034100000000000    0.7018400000000000 C
   0.6226400000000000    0.9986400000000000    0.7063150000000000 C
   0.5782100000000000    0.0025300000000000    0.6387500000000000 C
   0.0062800000000000    0.9707800000000000    0.0034350000000000 C
   0.1067500000000000    0.0057400000000000    0.0113000000000000 C
   0.1106000000000000    0.0089500000000000    0.9681500000000001 C
   0.0138400000000000    0.9753500000000001    0.9603300000000000 C
   0.0532900000000000    0.9867100000000000    0.0295200000000000 C
   0.1277400000000000    0.0016900000000000    0.1628850000000000 C
   0.0239200000000000    0.9972600000000000    0.1585900000000000 C
   0.0227000000000000    0.9977000000000000    0.2019450000000000 C
   0.1226400000000000    0.0011900000000000    0.2061400000000000 C
   0.0777600000000000    0.9991300000000000    0.1387050000000000 C
   0.9955200000000000    0.1238000000000000    0.3338550000000000 C
   0.6483600000000000    0.1217400000000000    0.3349400000000000 C
   0.6476700000000000    0.8781300000000000    0.3366300000000000 C
   0.9935400000000000    0.8783700000000000    0.3342900000000000 C
   0.9171500000000000    0.2151400000000000    0.3040050000000000 C
   0.8814500000000000    0.2855400000000000    0.3059050000000000 C
   0.9613600000000000    0.2566200000000000    0.3692450000000000 C
   0.9272200000000000    0.3289500000000000    0.3701800000000000 C
   0.9571200000000000    0.1996300000000000    0.3358400000000000 C
   0.8864600000000000    0.3442800000000000    0.3386500000000000 C
   0.9142400000000001    0.7878700000000000    0.3050500000000000 C
   0.8790700000000000    0.7169000000000000    0.3069000000000000 C
   0.9608400000000000    0.7444700000000000    0.3691300000000000 C
   0.9270900000000000    0.6717700000000000    0.3700350000000000 C
   0.9552300000000000    0.8025600000000001    0.3363050000000000 C
   0.8854700000000000    0.6570400000000000    0.3390500000000000 C
   0.7278000000000000    0.2108300000000000    0.3652050000000000 C
   0.7628400000000000    0.2819900000000000    0.3643350000000000 C
   0.6806500000000000    0.2580300000000000    0.3021750000000000 C
   0.7145899999999999    0.3305000000000000    0.3019450000000000 C
   0.6866500000000000    0.1977200000000000    0.3338500000000000 C
   0.7564500000000000    0.3434700000000000    0.3328900000000000 C
   0.7625300000000000    0.7179500000000000    0.3651950000000000 C
   0.7275800000000000    0.7891899999999999    0.3663700000000000 C
   0.6790600000000000    0.7414900000000000    0.3039300000000000 C
   0.7129900000000000    0.6690400000000000    0.3034000000000000 C
   0.6857799999999999    0.8020200000000000    0.3354500000000000 C
   0.7555200000000000    0.6562900000000000    0.3338850000000000 C
   0.7622700000000000    0.4999000000000000    0.3310400000000000 C
   0.7904800000000000    0.5779400000000000    0.3339950000000000 C
   0.7910100000000000    0.4222100000000000    0.3335000000000000 C
   0.8796500000000000    0.5006100000000000    0.3419100000000000 C
   0.8514000000000000    0.4225900000000000    0.3389050000000000 C
   0.8509100000000001    0.5782800000000000    0.3391850000000000 C
   0.4950600000000000    0.8767000000000000    0.3351900000000000 C
   0.1466900000000000    0.8765900000000000    0.3347050000000000 C
   0.1487100000000000    0.1202800000000000    0.3371050000000000 C
   0.4943200000000000    0.1220900000000000    0.3341600000000000 C
   0.4165000000000000    0.7854400000000000    0.3054500000000000 C
   0.3808100000000000    0.7150000000000000    0.3072850000000000 C
   0.4604900000000000    0.7441300000000000    0.3707600000000000 C
   0.4263300000000000    0.6717800000000000    0.3716550000000000 C
   0.4564700000000000    0.8010000000000000    0.3373000000000000 C
   0.3857300000000000    0.6562400000000000    0.3400650000000000 C
   0.2632900000000000    0.2810500000000000    0.3658000000000000 C
   0.2285600000000000    0.2095300000000000    0.3668750000000000 C
   0.1802100000000000    0.2568000000000000    0.3043200000000000 C
   0.2139000000000000    0.3295400000000000    0.3038950000000000 C
   0.1868900000000000    0.1963800000000000    0.3358850000000000 C
   0.2562100000000000    0.3427100000000000    0.3345050000000000 C
   0.4619100000000000    0.2560100000000000    0.3692350000000000 C
   0.4280400000000000    0.3285900000000000    0.3703750000000000 C
   0.4150700000000000    0.2129500000000000    0.3052050000000000 C
   0.3798100000000000    0.2837900000000000    0.3073000000000000 C
   0.4561800000000000    0.1980800000000000    0.3363000000000000 C
   0.3861900000000000    0.3433800000000000    0.3395900000000000 C
   0.2261000000000000    0.7883200000000000    0.3656300000000000 C
   0.2614900000000000    0.7175200000000000    0.3650500000000000 C
   0.1795000000000000    0.7398600000000000    0.3026150000000000 C
   0.2137800000000000    0.6677600000000000    0.3026700000000000 C
   0.1850900000000000    0.8006900000000000    0.3341100000000000 C
   0.2555900000000000    0.6556100000000000    0.3337400000000000 C
   0.3795700000000000    0.4998100000000000    0.3429500000000000 C
   0.3509600000000000    0.5775800000000000    0.3400850000000000 C
   0.3512600000000000    0.4218000000000000    0.3399900000000000 C
   0.2622500000000000    0.4992400000000000    0.3319200000000000 C
   0.2908200000000000    0.4214700000000000    0.3347800000000000 C
   0.2905800000000000    0.5772900000000000    0.3345500000000000 C
   0.0062800000000000    0.9707800000000000    0.5034350000000000 C
   0.1067500000000000    0.0057400000000000    0.5113000000000000 C
   0.1106000000000000    0.0089500000000000    0.4681500000000000 C
   0.0138400000000000    0.9753500000000001    0.4603300000000000 C
   0.0532900000000000    0.9867100000000000    0.5295200000000000 C
   0.1277400000000000    0.0016900000000000    0.6628849999999999 C
   0.0239200000000000    0.9972600000000000    0.6585900000000000 C
   0.0227000000000000    0.9977000000000000    0.7019450000000000 C
   0.1226400000000000    0.0011900000000000    0.7061400000000000 C
   0.0777600000000000    0.9991300000000000    0.6387050000000000 C
   0.9955200000000000    0.1238000000000000    0.8338550000000000 C
   0.6483600000000000    0.1217400000000000    0.8349400000000000 C
   0.6476700000000000    0.8781300000000000    0.8366300000000000 C
   0.9935400000000000    0.8783700000000000    0.8342900000000000 C
   0.9171500000000000    0.2151400000000000    0.8040050000000001 C
   0.8814500000000000    0.2855400000000000    0.8059050000000000 C
   0.9613600000000000    0.2566200000000000    0.8692450000000000 C
   0.9272200000000000    0.3289500000000000    0.8701800000000000 C
   0.9571200000000000    0.1996300000000000    0.8358400000000000 C
   0.8864600000000000    0.3442800000000000    0.8386500000000000 C
   0.9142400000000001    0.7878700000000000    0.8050500000000000 C
   0.8790700000000000    0.7169000000000000    0.8069000000000000 C
   0.9608400000000000    0.7444700000000000    0.8691300000000000 C
   0.9270900000000000    0.6717700000000000    0.8700350000000000 C
   0.9552300000000000    0.8025600000000001    0.8363050000000001 C
   0.8854700000000000    0.6570400000000000    0.8390500000000001 C
   0.7278000000000000    0.2108300000000000    0.8652050000000000 C
   0.7628400000000000    0.2819900000000000    0.8643350000000001 C
   0.6806500000000000    0.2580300000000000    0.8021750000000001 C
   0.7145899999999999    0.3305000000000000    0.8019450000000000 C
   0.6866500000000000    0.1977200000000000    0.8338500000000000 C
   0.7564500000000000    0.3434700000000000    0.8328900000000000 C
   0.7625300000000000    0.7179500000000000    0.8651949999999999 C
   0.7275800000000000    0.7891899999999999    0.8663700000000000 C
   0.6790600000000000    0.7414900000000000    0.8039300000000000 C
   0.7129900000000000    0.6690400000000000    0.8034000000000000 C
   0.6857799999999999    0.8020200000000000    0.8354500000000000 C
   0.7555200000000000    0.6562900000000000    0.8338850000000000 C
   0.7622700000000000    0.4999000000000000    0.8310400000000000 C
   0.7904800000000000    0.5779400000000000    0.8339950000000000 C
   0.7910100000000000    0.4222100000000000    0.8335000000000000 C
   0.8796500000000000    0.5006100000000000    0.8419099999999999 C
   0.8514000000000000    0.4225900000000000    0.8389050000000000 C
   0.8509100000000001    0.5782800000000000    0.8391850000000001 C
   0.4950600000000000    0.8767000000000000    0.8351900000000000 C
   0.1466900000000000    0.8765900000000000    0.8347050000000000 C
   0.1487100000000000    0.1202800000000000    0.8371050000000000 C
   0.4943200000000000    0.1220900000000000    0.8341600000000000 C
   0.4165000000000000    0.7854400000000000    0.8054500000000000 C
   0.3808100000000000    0.7150000000000000    0.8072850000000000 C
   0.4604900000000000    0.7441300000000000    0.8707600000000000 C
   0.4263300000000000    0.6717800000000000    0.8716550000000001 C
   0.4564700000000000    0.8010000000000000    0.8372999999999999 C
   0.3857300000000000    0.6562400000000000    0.8400650000000001 C
   0.2632900000000000    0.2810500000000000    0.8658000000000000 C
   0.2285600000000000    0.2095300000000000    0.8668750000000001 C
   0.1802100000000000    0.2568000000000000    0.8043199999999999 C
   0.2139000000000000    0.3295400000000000    0.8038950000000000 C
   0.1868900000000000    0.1963800000000000    0.8358850000000000 C
   0.2562100000000000    0.3427100000000000    0.8345050000000001 C
   0.4619100000000000    0.2560100000000000    0.8692350000000000 C
   0.4280400000000000    0.3285900000000000    0.8703750000000000 C
   0.4150700000000000    0.2129500000000000    0.8052049999999999 C
   0.3798100000000000    0.2837900000000000    0.8073000000000000 C
   0.4561800000000000    0.1980800000000000    0.8363000000000000 C
   0.3861900000000000    0.3433800000000000    0.8395900000000001 C
   0.2261000000000000    0.7883200000000000    0.8656300000000000 C
   0.2614900000000000    0.7175200000000000    0.8650500000000000 C
   0.1795000000000000    0.7398600000000000    0.8026150000000001 C
   0.2137800000000000    0.6677600000000000    0.8026700000000000 C
   0.1850900000000000    0.8006900000000000    0.8341100000000000 C
   0.2555900000000000    0.6556100000000000    0.8337399999999999 C
   0.3795700000000000    0.4998100000000000    0.8429500000000000 C
   0.3509600000000000    0.5775800000000000    0.8400850000000000 C
   0.3512600000000000    0.4218000000000000    0.8399900000000000 C
   0.2622500000000000    0.4992400000000000    0.8319200000000000 C
   0.2908200000000000    0.4214700000000000    0.8347800000000001 C
   0.2905800000000000    0.5772900000000000    0.8345500000000000 C
   0.2744500000000000    0.9990100000000000    0.3420000000000000 C
   0.2730300000000000    0.9986500000000000    0.2986400000000000 C
   0.3729800000000000    0.9982600000000000    0.2900000000000000 C
   0.3782800000000000    0.9974800000000000    0.3372450000000000 C
   0.3283900000000000    0.9985900000000000    0.3616150000000000 C
   0.2702300000000000    0.0626100000000000    0.4967350000000000 C
   0.3427300000000000    0.9544100000000000    0.4888450000000000 C
   0.3474900000000000    0.9527500000000000    0.5320950000000000 C
   0.2783400000000000    0.0580500000000000    0.5396900000000000 C
   0.3035000000000000    0.0109300000000000    0.4706500000000000 C
   0.3986600000000000    0.8779800000000000    0.1629150000000000 C
   0.7454600000000000    0.1220900000000000    0.1650350000000000 C
   0.3975800000000000    0.1220400000000000    0.1660500000000000 C
   0.7452299999999999    0.8759900000000000    0.1664350000000000 C
   0.6660800000000000    0.2121900000000000    0.1946150000000000 C
   0.6304999999999999    0.2827400000000000    0.1929000000000000 C
   0.7114400000000000    0.2552300000000000    0.1299650000000000 C
   0.6772800000000000    0.3275500000000000    0.1292050000000000 C
   0.7067300000000000    0.1975200000000000    0.1630400000000000 C
   0.6361200000000000    0.3423600000000000    0.1605700000000000 C
   0.4787700000000000    0.7885000000000000    0.1335250000000000 C
   0.5137300000000000    0.7172700000000000    0.1348350000000000 C
   0.4644100000000000    0.6695900000000000    0.1970200000000000 C
   0.4304900000000000    0.7420800000000000    0.1963250000000000 C
   0.4369700000000000    0.8020000000000000    0.1644750000000000 C
   0.5067700000000001    0.6560800000000000    0.1663500000000000 C
   0.4770500000000000    0.2102100000000000    0.1351600000000000 C
   0.5122500000000000    0.2812300000000000    0.1357450000000000 C
   0.4298700000000000    0.2588800000000000    0.1980950000000000 C
   0.4640100000000000    0.3311200000000000    0.1980000000000000 C
   0.4358400000000000    0.1979900000000000    0.1666666666666667 C
   0.5060000000000000    0.3432200000000000    0.1669850000000000 C
   0.7127900000000000    0.7419500000000000    0.1313750000000000 C
   0.6787000000000000    0.6696100000000000    0.1302600000000000 C
   0.6662400000000001    0.7850500000000000    0.1955850000000000 C
   0.6307400000000000    0.7145000000000000    0.1935450000000000 C
   0.7072800000000000    0.7998400000000000    0.1643150000000000 C
   0.6368500000000000    0.6550500000000000    0.1611550000000000 C
   0.6300800000000000    0.4987900000000000    0.1578300000000000 C
   0.6018000000000000    0.5768000000000000    0.1608350000000000 C
   0.6014100000000000    0.4210600000000000    0.1606950000000000 C