H12 O8
1.0
  23.2629749994850314    0.0000000000000000    0.0341053270693241
  -0.0016505836528618   15.8159994417239407   -0.0038645778044796
   0.0000000000000000    0.0000000000000000   31.9860000000000007
H O
12 8
direct
   0.8876949262052084   -0.1187502017752068    0.7280986919507161 H
   0.9047084438985595    0.8930786737338750    0.6039935117732107 H
   0.9005888188828781    0.8806984341091614    0.6656104450679039 H
   0.8865209180060301    0.1188659326286127    0.7237918288817117 H
   0.9067462430671910    1.1057221631545824    0.5994903579721795 H
   0.9009061054734376    1.1181730926147302    0.6600093666936798 H
   0.2556632133773291    1.1178666493084226    0.6043154769348132 H
   0.2382364149731356    0.1105966893175032    0.7287784905285986 H
   0.2428071933478434    1.1203773535655874    0.6673794188186386 H
   0.2585985448847409    0.8794671111064105    0.6047206802208014 H
   0.2351309321197781   -0.1059387708347328    0.7279975321151052 H
   0.2423488494927539    0.8802439506193329    0.6672376222298699 H
   0.8778100000000000   -0.0957000000000000    0.7009450000000000 O
   0.8877400000000000    0.9106600000000000    0.6303150000000000 O
   0.8775800000000000    0.0957600000000000    0.6964700000000000 O
   0.8897800000000000    1.0894200000000001    0.6260100000000000 O
   0.2650100000000000    1.0959600000000000    0.6318000000000000 O
   0.2547100000000000    0.0924800000000000    0.7023800000000000 O
   0.2671800000000000    0.9036300000000000    0.6318800000000000 O
   0.2533500000000000   -0.0887800000000000    0.7020550000000000 O
