H18 C34 O8
1.0
  23.2629749994850314    0.0000000000000000    0.0341053270693241
  -0.0016505836528618   15.8159994417239407   -0.0038645778044796
   0.0000000000000000    0.0000000000000000   31.9860000000000007
H C O
18 34 8
direct
   0.8971300000000000    0.2476600000000000    0.7189750000000000 H
   0.0466000000000000    0.2924000000000000    0.6103550000000000 H
   0.9835400000000000    0.1655200000000000    0.6076450000000000 H
   0.1831400000000000    0.3751300000000000    0.6046150000000000 H
   0.2442200000000000    0.2456100000000000    0.6069650000000000 H
   0.9578600000000000    0.3768700000000000    0.7211050000000000 H
   0.1628500000000000    0.1709300000000000    0.7217249999999999 H
   0.0983800000000000    0.2961700000000000    0.7178100000000001 H
   0.8974500000000000    0.7505600000000000    0.7219900000000000 H
   0.0451900000000000    0.7106400000000000    0.6116650000000000 H
   0.9817800000000000    0.8372700000000000    0.6105900000000000 H
   0.1831100000000000    0.6264800000000000    0.6048700000000000 H
   0.2438600000000000    0.7565100000000000    0.6068650000000000 H
   0.9584800000000000    0.6216699999999999    0.7223950000000000 H
   0.1619600000000000    0.8321600000000000    0.7213000000000001 H
   0.0975700000000000    0.7070800000000000    0.7174950000000000 H
   0.1769000000000000    0.5011200000000000    0.6560200000000000 H
   0.9658099999999999    0.5004500000000000    0.6707400000000000 H
   0.2070500000000000    0.1999500000000000    0.6643000000000000 C
   0.2451800000000000    0.1239800000000000    0.6664950000000001 C
   0.2121200000000000    0.7444200000000000    0.6312100000000000 C
   0.9639000000000000    0.6688700000000000    0.6978350000000000 C
   0.1656000000000000    0.7878300000000000    0.6953800000000000 C
   0.9367100000000000    0.1981900000000000    0.6634949999999999 C
   0.8985700000000000    0.1220600000000000    0.6619400000000000 C
   0.0065100000000000    0.3440500000000000    0.6657500000000001 C
   0.1366000000000000    0.3447100000000000    0.6611100000000000 C
   0.1016600000000000    0.4230800000000000    0.6607850000000000 C
   0.0411900000000000    0.4227400000000000    0.6657950000000000 C
   0.9298999999999999    0.2581600000000000    0.6952900000000000 C
   0.0137200000000000    0.2828900000000000    0.6342050000000000 C
   0.9787400000000001    0.2116500000000000    0.6327199999999999 C
   0.1782100000000000    0.3298200000000000    0.6300850000000000 C
   0.2123200000000000    0.2575100000000000    0.6312400000000000 C
   0.9638200000000000    0.3306300000000000    0.6961600000000000 C
   0.1661900000000000    0.2150100000000000    0.6956950000000000 C
   0.1306800000000000    0.2855600000000000    0.6936400000000000 C
   0.2067600000000000    0.8023800000000000    0.6641400000000000 C
   0.2453000000000000    0.8779900000000000    0.6662500000000000 C
   0.9360400000000000    0.8022500000000000    0.6666250000000000 C
   0.8976499999999999    0.8780500000000000    0.6660050000000000 C
   0.0061200000000000    0.6568900000000000    0.6669400000000000 C
   0.1362900000000000    0.6574200000000000    0.6611950000000000 C
   0.1015000000000000    0.5788200000000000    0.6609900000000000 C
   0.0410400000000000    0.5785300000000000    0.6661500000000000 C
   0.9298200000000000    0.7411600000000000    0.6979250000000000 C
   0.0126600000000000    0.7191100000000000    0.6358550000000001 C
   0.9774800000000000    0.7901800000000000    0.6352650000000000 C
   0.1780500000000000    0.6720400000000000    0.6302250000000000 C
   0.1300900000000000    0.7172100000000000    0.6934300000000000 C
   0.1300800000000000    0.5010200000000000    0.6580900000000001 C
   0.0126400000000000    0.5005300000000000    0.6686500000000000 C
   0.8775800000000000    0.0957600000000000    0.6964700000000000 O
   0.2547100000000000    0.0924800000000000    0.7023800000000000 O
   0.8897800000000000    1.0894200000000001    0.6260100000000000 O
   0.2650100000000000    1.0959600000000000    0.6318000000000000 O
   0.8778100000000000   -0.0957000000000000    0.7009450000000000 O
   0.2533500000000000   -0.0887800000000000    0.7020550000000000 O
   0.8877400000000000    0.9106600000000000    0.6303150000000000 O
   0.2671800000000000    0.9036300000000000    0.6318800000000000 O
