H7 C17 O6
1.0
  22.6719941952667448    0.0000000000000000   -0.0162237415839016
   0.2617626580861241   22.1874247966383571   -0.0371780089462904
   0.0000000000000000    0.0000000000000000   29.0539999999999985
H C O
7 17 6
direct
   0.3582900000000000    0.2945600000000000    0.8832600000000000 H
   0.3622900000000000    0.2433900000000000    0.9595800000000000 H
   0.5398800000000000    0.3063400000000000    0.9788500000000000 H
   0.5355600000000000    0.3564600000000000    0.9018900000000000 H
   0.3498600000000000    0.1882300000000000    0.1025400000000000 H
   0.4400500000000000    0.1288300000000000    0.2249000000000000 H
   0.5395900000000000    0.2020100000000000    0.1126200000000000 H
   0.5003500000000000    0.3036000000000000    0.9576400000000000 C
   0.4979200000000000    0.3317000000000000    0.9149700000000000 C
   0.4514500000000000    0.2446600000000000    0.0183900000000000 C
   0.4424800000000000    0.3585700000000000    0.8425100000000000 C
   0.4464400000000000    0.3290100000000000    0.8882000000000000 C
   0.3977200000000000    0.2967900000000000    0.9045299999999999 C
   0.3999800000000000    0.2683800000000000    0.9468700000000000 C
   0.4512000000000000    0.2718100000000000    0.9744600000000000 C
   0.4478800000000000    0.2220600000000000    0.0565200000000000 C
   0.4452000000000000    0.1971700000000000    0.1013100000000000 C
   0.3909600000000000    0.1813000000000000    0.1212800000000000 C
   0.3891300000000000    0.1572300000000000    0.1657100000000000 C
   0.4414600000000000    0.1480100000000000    0.1905100000000000 C
   0.4954300000000000    0.1646000000000000    0.1712000000000000 C
   0.4973000000000000    0.1891800000000000    0.1270300000000000 C
   0.3305100000000000    0.1441600000000000    0.1871000000000000 C
   0.5522700000000000    0.1561900000000000    0.1967000000000000 C
   0.3926400000000000    0.3541600000000000    0.8219200000000000 O
   0.4876700000000000    0.3856400000000000    0.8264300000000000 O
   0.2846700000000000    0.1612200000000000    0.1658300000000000 O
   0.3317300000000000    0.1170900000000000    0.2265000000000000 O
   0.5979800000000000    0.1791600000000000    0.1799500000000000 O
   0.5498200000000000    0.1248500000000000    0.2341500000000000 O
