H9 O6
1.0
  22.6719941952667448    0.0000000000000000   -0.0162237415839016
   0.2617626580861241   22.1874247966383571   -0.0371780089462904
   0.0000000000000000    0.0000000000000000   29.0539999999999985
H O
9 6
direct
   0.3602866160271868    0.3383094405896028    0.8398674925776141 H
   0.5207958418359078    0.3916025163755023    0.8470213148499907 H
   0.4412876642736405    0.3629163810845434    0.8521598162962104 H
   0.2871163162023450    0.1777089169153989    0.1350005353110730 H
   0.3659894035461938    0.1006377569064463    0.2423087491380557 H
   0.3347118560817726    0.1371886189515865    0.1889214454810268 H
   0.5947548145422772    0.2059949954257515    0.1537242130858423 H
   0.5145117579640569    0.1103165004271859    0.2491144448555404 H
   0.5458705932631335    0.1577108426112266    0.2020351647831959 H
   0.3926400000000000    0.3541600000000000    0.8219200000000000 O
   0.4876700000000000    0.3856400000000000    0.8264300000000000 O
   0.2846700000000000    0.1612200000000000    0.1658300000000000 O
   0.3317300000000000    0.1170900000000000    0.2265000000000000 O
   0.5979800000000000    0.1791600000000000    0.1799500000000000 O
   0.5498200000000000    0.1248500000000000    0.2341500000000000 O
