H8 C10 N2
1.0
  26.7961176409323087    0.0000000000000000   -7.8347178234647563
  -9.6353732241183643   26.6520168305741763   -3.5681476559601273
   0.0000000000000000    0.0000000000000000   28.5880000000000010
H C N
8 10 2
direct
   0.4914250000000000    0.2085250000000000    0.2619750000000000 H
   0.6745600000000000    0.2467200000000000    0.2949350000000000 H
   0.7594250000000000    0.2375450000000000    0.2910000000000000 H
   0.6395000000000000    0.1046750000000000    0.3393850000000000 H
   0.7252600000000000    0.1005450000000000    0.3311050000000000 H
   0.5763000000000000    0.2043150000000000    0.2529500000000000 H
   0.6100550000000000    0.1611800000000000    0.3952450000000000 H
   0.5243250000000000    0.1696300000000000    0.3991800000000000 H
   0.6500450000000000    0.1766450000000000    0.3185100000000000 C
   0.6838800000000000    0.2136350000000000    0.3034000000000000 C
   0.7310850000000000    0.2087350000000000    0.3006950000000000 C
   0.6650199999999999    0.1351350000000000    0.3287450000000000 C
   0.7124150000000000    0.1323650000000000    0.3241250000000000 C
   0.6001650000000001    0.1814050000000000    0.3231800000000000 C
   0.5667000000000000    0.1962150000000000    0.2860600000000000 C
   0.5194750000000000    0.1990300000000000    0.2908550000000000 C
   0.5848350000000000    0.1715900000000000    0.3647050000000000 C
   0.5374500000000000    0.1762950000000000    0.3673600000000000 C
   0.7454100000000000    0.1689150000000000    0.3108900000000000 N
   0.5048250000000000    0.1892650000000000    0.3307150000000000 N
