Zn32 H258 C470 S62 N32 O128
1.0
  26.7961176409323087    0.0000000000000000   -7.8347178234647563
  -9.6353732241183643   26.6520168305741763   -3.5681476559601273
   0.0000000000000000    0.0000000000000000   28.5880000000000010
Zn H C S N O
32 258 470 62 32 128
direct
   0.8197800000000000    0.1688050000000000    0.3128500000000000 Zn
   0.4305700000000000    0.1874350000000000    0.3310800000000000 Zn
   0.3197800000000000    0.1688050000000000    0.3128500000000000 Zn
   0.9305700000000000    0.1874350000000000    0.3310800000000000 Zn
   0.8197800000000000    0.6688050000000000    0.3128500000000000 Zn
   0.4305700000000000    0.6874350000000000    0.3310800000000000 Zn
   0.3197800000000000    0.6688050000000000    0.3128500000000000 Zn
   0.9305700000000000    0.6874350000000000    0.3310800000000000 Zn
   0.1802250000000000    0.3311900000000000    0.1871400000000000 Zn
   0.5694350000000000    0.3125650000000000    0.1689150000000000 Zn
   0.6802250000000000    0.3311900000000000    0.1871400000000000 Zn
   0.0694350000000000    0.3125650000000000    0.1689150000000000 Zn
   0.1802250000000000    0.8311900000000000    0.1871400000000000 Zn
   0.5694350000000000    0.8125650000000000    0.1689150000000000 Zn
   0.6802250000000000    0.8311900000000000    0.1871400000000000 Zn
   0.0694350000000000    0.8125650000000000    0.1689150000000000 Zn
   0.8197800000000000    0.6688050000000000    0.8128500000000001 Zn
   0.4305700000000000    0.6874350000000000    0.8310800000000000 Zn
   0.3197800000000000    0.6688050000000000    0.8128500000000001 Zn
   0.9305700000000000    0.6874350000000000    0.8310800000000000 Zn
   0.1802250000000000    0.3311900000000000    0.6871400000000000 Zn
   0.5694350000000000    0.3125650000000000    0.6689150000000000 Zn
   0.6802250000000000    0.3311900000000000    0.6871400000000000 Zn
   0.0694350000000000    0.3125650000000000    0.6689150000000000 Zn
   0.6802250000000000    0.8311900000000000    0.6871400000000000 Zn
   0.0694350000000000    0.8125650000000000    0.6689150000000000 Zn
   0.3197800000000000    0.1688050000000000    0.8128500000000001 Zn
   0.9305700000000000    0.1874350000000000    0.8310800000000000 Zn
   0.1802250000000000    0.8311900000000000    0.6871400000000000 Zn
   0.4305700000000000    0.1874350000000000    0.8310800000000000 Zn
   0.5694350000000000    0.8125650000000000    0.6689150000000000 Zn
   0.8197800000000000    0.1688050000000000    0.8128500000000001 Zn
   0.9861650000000000    0.8636400000000000    0.3396950000000000 H
   0.9674550000000000    0.9481100000000000    0.3312600000000000 H
   0.7591650000000000    0.9914300000000000    0.2917650000000000 H
   0.7753650000000001    0.9059900000000001    0.2967550000000000 H
   0.6100550000000000    0.1611800000000000    0.3952450000000000 H
   0.5763000000000000    0.2043150000000000    0.2529500000000000 H
   0.5243250000000000    0.1696300000000000    0.3991800000000000 H
   0.4914250000000000    0.2085250000000000    0.2619750000000000 H
   0.6395000000000000    0.1046750000000000    0.3393850000000000 H
   0.6745600000000000    0.2467200000000000    0.2949350000000000 H
   0.7252600000000000    0.1005450000000000    0.3311050000000000 H
   0.7594250000000000    0.2375450000000000    0.2910000000000000 H
   0.2645350000000000    0.1604050000000000    0.6376700000000000 H
   0.2827550000000000    0.1681150000000000    0.5528300000000000 H
   0.4905500000000000    0.2077450000000000    0.5072500000000000 H
   0.4746350000000000    0.2029700000000000    0.5929150000000000 H
   0.4861650000000000    0.8636400000000000    0.3396950000000000 H
   0.4674550000000000    0.9481100000000000    0.3312600000000000 H
   0.2591650000000000    0.9914300000000000    0.2917650000000000 H
   0.2753650000000000    0.9059900000000001    0.2967550000000000 H
   0.1100550000000000    0.1611800000000000    0.3952450000000000 H
   0.0763000000000000    0.2043150000000000    0.2529500000000000 H
   0.0243250000000000    0.1696300000000000    0.3991800000000000 H
   0.9914250000000000    0.2085250000000000    0.2619750000000000 H
   0.1395000000000000    0.1046750000000000    0.3393850000000000 H
   0.1745600000000000    0.2467200000000000    0.2949350000000000 H
   0.2252600000000000    0.1005450000000000    0.3311050000000000 H
   0.2594250000000000    0.2375450000000000    0.2910000000000000 H
   0.7645350000000000    0.1604050000000000    0.6376700000000000 H
   0.7827550000000000    0.1681150000000000    0.5528300000000000 H
   0.9905500000000000    0.2077450000000000    0.5072500000000000 H
   0.9746349999999999    0.2029700000000000    0.5929150000000000 H
   0.9861650000000000    0.3636400000000000    0.3396950000000000 H
   0.9674550000000000    0.4481100000000000    0.3312600000000000 H
   0.7591650000000000    0.4914300000000000    0.2917650000000000 H
   0.7753650000000001    0.4059900000000000    0.2967550000000000 H
   0.6100550000000000    0.6611800000000000    0.3952450000000000 H
   0.5763000000000000    0.7043150000000000    0.2529500000000000 H
   0.5243250000000000    0.6696299999999999    0.3991800000000000 H
   0.4914250000000000    0.7085250000000000    0.2619750000000000 H
   0.6395000000000000    0.6046750000000000    0.3393850000000000 H
   0.6745600000000000    0.7467200000000001    0.2949350000000000 H
   0.7252600000000000    0.6005450000000000    0.3311050000000000 H
   0.7594250000000000    0.7375450000000000    0.2910000000000000 H
   0.2645350000000000    0.6604050000000000    0.6376700000000000 H
   0.2827550000000000    0.6681150000000000    0.5528300000000000 H
   0.4905500000000000    0.7077450000000001    0.5072500000000000 H
   0.4746350000000000    0.7029700000000000    0.5929150000000000 H
   0.4861650000000000    0.3636400000000000    0.3396950000000000 H
   0.4674550000000000    0.4481100000000000    0.3312600000000000 H
   0.2591650000000000    0.4914300000000000    0.2917650000000000 H
   0.2753650000000000    0.4059900000000000    0.2967550000000000 H
   0.1100550000000000    0.6611800000000000    0.3952450000000000 H
   0.0763000000000000    0.7043150000000000    0.2529500000000000 H
   0.0243250000000000    0.6696299999999999    0.3991800000000000 H
   0.9914250000000000    0.7085250000000000    0.2619750000000000 H
   0.1395000000000000    0.6046750000000000    0.3393850000000000 H
   0.1745600000000000    0.7467200000000001    0.2949350000000000 H
   0.2252600000000000    0.6005450000000000    0.3311050000000000 H
   0.2594250000000000    0.7375450000000000    0.2910000000000000 H
   0.7645350000000000    0.6604050000000000    0.6376700000000000 H
   0.7827550000000000    0.6681150000000000    0.5528300000000000 H
   0.9905500000000000    0.7077450000000001    0.5072500000000000 H
   0.9746349999999999    0.7029700000000000    0.5929150000000000 H
   0.0138400000000000    0.6363600000000000    0.1603000000000000 H
   0.0325500000000000    0.5518900000000000    0.1687350000000000 H
   0.2408400000000000    0.5085700000000000    0.2082300000000000 H
   0.2246350000000000    0.5940050000000000    0.2032350000000000 H
   0.3899500000000000    0.3388200000000000    0.1047500000000000 H
   0.4237000000000000    0.2956800000000000    0.2470400000000000 H
   0.4756800000000000    0.3303750000000000    0.1008150000000000 H
   0.5085750000000000    0.2914750000000000    0.2380150000000000 H
   0.3605100000000000    0.3953300000000000    0.1606150000000000 H
   0.3254450000000000    0.2532750000000000    0.2050550000000000 H
   0.2747450000000000    0.3994600000000000    0.1688950000000000 H
   0.2405750000000000    0.2624550000000000    0.2089850000000000 H
   0.7354700000000001    0.3395900000000000    0.8623200000000000 H
   0.7172499999999999    0.3318750000000000    0.9471600000000000 H
   0.5094550000000000    0.2922550000000000    0.9927450000000000 H
   0.5253700000000000    0.2970300000000000    0.9070800000000000 H
   0.5138400000000000    0.6363600000000000    0.1603000000000000 H
   0.5325500000000000    0.5518900000000000    0.1687350000000000 H
   0.7408399999999999    0.5085700000000000    0.2082300000000000 H
   0.7246350000000000    0.5940050000000000    0.2032350000000000 H
   0.8899500000000000    0.3388200000000000    0.1047500000000000 H
   0.9237000000000000    0.2956800000000000    0.2470400000000000 H
   0.9756800000000000    0.3303750000000000    0.1008150000000000 H
   0.0085750000000000    0.2914750000000000    0.2380150000000000 H
   0.8605100000000000    0.3953300000000000    0.1606150000000000 H
   0.8254450000000000    0.2532750000000000    0.2050550000000000 H
   0.7747450000000000    0.3994600000000000    0.1688950000000000 H
   0.7405750000000000    0.2624550000000000    0.2089850000000000 H
   0.2354700000000000    0.3395900000000000    0.8623200000000000 H
   0.2172500000000000    0.3318750000000000    0.9471600000000000 H
   0.0094550000000000    0.2922550000000000    0.9927450000000000 H
   0.0253700000000000    0.2970300000000000    0.9070800000000000 H
   0.0138400000000000    0.1363600000000000    0.1603000000000000 H
   0.0325500000000000    0.0518900000000000    0.1687350000000000 H
   0.2408400000000000    0.0085700000000000    0.2082300000000000 H
   0.2246350000000000    0.0940050000000000    0.2032350000000000 H
   0.3899500000000000    0.8388200000000000    0.1047500000000000 H
   0.4237000000000000    0.7956799999999999    0.2470400000000000 H
   0.4756800000000000    0.8303750000000000    0.1008150000000000 H
   0.5085750000000000    0.7914749999999999    0.2380150000000000 H
   0.3605100000000000    0.8953300000000000    0.1606150000000000 H
   0.3254450000000000    0.7532749999999999    0.2050550000000000 H
   0.2747450000000000    0.8994599999999999    0.1688950000000000 H
   0.2405750000000000    0.7624550000000000    0.2089850000000000 H
   0.6804677226733926    0.8323147037295745    0.0994488412668966 H
   0.5239991421200177    0.7929238348643232    0.0724287872220271 H
   0.5993960343850365    0.8116961614657907    0.0802905262157019 H
   0.5138400000000000    0.1363600000000000    0.1603000000000000 H
   0.5325500000000000    0.0518900000000000    0.1687350000000000 H
   0.7408399999999999    0.0085700000000000    0.2082300000000000 H
   0.7246350000000000    0.0940050000000000    0.2032350000000000 H
   0.8899500000000000    0.8388200000000000    0.1047500000000000 H
   0.9237000000000000    0.7956799999999999    0.2470400000000000 H
   0.9756800000000000    0.8303750000000000    0.1008150000000000 H
   0.0085750000000000    0.7914749999999999    0.2380150000000000 H
   0.8605100000000000    0.8953300000000000    0.1606150000000000 H
   0.8254450000000000    0.7532749999999999    0.2050550000000000 H
   0.7747450000000000    0.8994599999999999    0.1688950000000000 H
   0.7405750000000000    0.7624550000000000    0.2089850000000000 H
   0.2354700000000000    0.8395900000000001    0.8623200000000000 H
   0.2172500000000000    0.8318749999999999    0.9471600000000000 H
   0.0094550000000000    0.7922549999999999    0.9927450000000000 H
   0.0253700000000000    0.7970300000000000    0.9070800000000000 H
   0.9861650000000000    0.3636400000000000    0.8396950000000001 H
   0.9674550000000000    0.4481100000000000    0.8312600000000000 H
   0.7591650000000000    0.4914300000000000    0.7917650000000001 H
   0.7753650000000001    0.4059900000000000    0.7967550000000000 H
   0.6100550000000000    0.6611800000000000    0.8952450000000001 H
   0.5763000000000000    0.7043150000000000    0.7529500000000000 H
   0.5243250000000000    0.6696299999999999    0.8991800000000000 H
   0.4914250000000000    0.7085250000000000    0.7619750000000001 H
   0.6395000000000000    0.6046750000000000    0.8393850000000000 H
   0.6745600000000000    0.7467200000000001    0.7949349999999999 H
   0.7252600000000000    0.6005450000000000    0.8311050000000000 H
   0.7594250000000000    0.7375450000000000    0.7909999999999999 H
   0.2645350000000000    0.6604050000000000    0.1376700000000000 H
   0.2827550000000000    0.6681150000000000    0.0528300000000000 H
   0.4905500000000000    0.7077450000000001    0.0072500000000000 H
   0.4746350000000000    0.7029700000000000    0.0929150000000000 H
   0.4861650000000000    0.3636400000000000    0.8396950000000001 H
   0.4674550000000000    0.4481100000000000    0.8312600000000000 H
   0.2591650000000000    0.4914300000000000    0.7917650000000001 H
   0.2753650000000000    0.4059900000000000    0.7967550000000000 H
   0.1100550000000000    0.6611800000000000    0.8952450000000001 H
   0.0763000000000000    0.7043150000000000    0.7529500000000000 H
   0.0243250000000000    0.6696299999999999    0.8991800000000000 H
   0.9914250000000000    0.7085250000000000    0.7619750000000001 H
   0.1395000000000000    0.6046750000000000    0.8393850000000000 H
   0.1745600000000000    0.7467200000000001    0.7949349999999999 H
   0.2252600000000000    0.6005450000000000    0.8311050000000000 H
   0.2594250000000000    0.7375450000000000    0.7909999999999999 H
   0.7645350000000000    0.6604050000000000    0.1376700000000000 H
   0.7827550000000000    0.6681150000000000    0.0528300000000000 H
   0.9905500000000000    0.7077450000000001    0.0072500000000000 H
   0.9746349999999999    0.7029700000000000    0.0929150000000000 H
   0.0138400000000000    0.6363600000000000    0.6603000000000000 H
   0.0325500000000000    0.5518900000000000    0.6687350000000000 H
   0.2408400000000000    0.5085700000000000    0.7082300000000000 H
   0.2246350000000000    0.5940050000000000    0.7032350000000001 H
   0.3899500000000000    0.3388200000000000    0.6047500000000000 H
   0.4237000000000000    0.2956800000000000    0.7470400000000000 H
   0.4756800000000000    0.3303750000000000    0.6008150000000000 H
   0.5085750000000000    0.2914750000000000    0.7380150000000000 H
   0.3605100000000000    0.3953300000000000    0.6606150000000000 H
   0.3254450000000000    0.2532750000000000    0.7050550000000000 H
   0.2747450000000000    0.3994600000000000    0.6688950000000000 H
   0.2405750000000000    0.2624550000000000    0.7089850000000000 H
   0.7354700000000001    0.3395900000000000    0.3623200000000000 H
   0.7172499999999999    0.3318750000000000    0.4471600000000000 H
   0.5094550000000000    0.2922550000000000    0.4927450000000000 H
   0.5253700000000000    0.2970300000000000    0.4070800000000000 H
   0.5138400000000000    0.6363600000000000    0.6603000000000000 H
   0.5325500000000000    0.5518900000000000    0.6687350000000000 H
   0.7408399999999999    0.5085700000000000    0.7082300000000000 H
   0.7246350000000000    0.5940050000000000    0.7032350000000001 H
   0.8899500000000000    0.3388200000000000    0.6047500000000000 H
   0.9237000000000000    0.2956800000000000    0.7470400000000000 H
   0.9756800000000000    0.3303750000000000    0.6008150000000000 H
   0.0085750000000000    0.2914750000000000    0.7380150000000000 H
   0.8605100000000000    0.3953300000000000    0.6606150000000000 H
   0.8254450000000000    0.2532750000000000    0.7050550000000000 H
   0.7747450000000000    0.3994600000000000    0.6688950000000000 H
   0.7405750000000000    0.2624550000000000    0.7089850000000000 H
   0.2354700000000000    0.3395900000000000    0.3623200000000000 H
   0.2172500000000000    0.3318750000000000    0.4471600000000000 H
   0.0094550000000000    0.2922550000000000    0.4927450000000000 H
   0.0253700000000000    0.2970300000000000    0.4070800000000000 H
   0.5138400000000000    0.1363600000000000    0.6603000000000000 H
   0.5325500000000000    0.0518900000000000    0.6687350000000000 H
   0.7408399999999999    0.0085700000000000    0.7082300000000000 H
   0.7246350000000000    0.0940050000000000    0.7032350000000001 H
   0.8899500000000000    0.8388200000000000    0.6047500000000000 H
   0.9237000000000000    0.7956799999999999    0.7470400000000000 H
   0.9756800000000000    0.8303750000000000    0.6008150000000000 H
   0.0085750000000000    0.7914749999999999    0.7380150000000000 H
   0.8605100000000000    0.8953300000000000    0.6606150000000000 H
   0.8254450000000000    0.7532749999999999    0.7050550000000000 H
   0.7747450000000000    0.8994599999999999    0.6688950000000000 H
   0.7405750000000000    0.7624550000000000    0.7089850000000000 H
   0.2354700000000000    0.8395900000000001    0.3623200000000000 H
   0.2172500000000000    0.8318749999999999    0.4471600000000000 H
   0.0094550000000000    0.7922549999999999    0.4927450000000000 H
   0.0253700000000000    0.7970300000000000    0.4070800000000000 H
   0.4861650000000000    0.8636400000000000    0.8396950000000001 H
   0.4674550000000000    0.9481100000000000    0.8312600000000000 H
   0.2591650000000000    0.9914300000000000    0.7917650000000001 H
   0.2753650000000000    0.9059900000000001    0.7967550000000000 H
   0.1100550000000000    0.1611800000000000    0.8952450000000001 H
   0.0763000000000000    0.2043150000000000    0.7529500000000000 H
   0.0243250000000000    0.1696300000000000    0.8991800000000000 H
   0.9914250000000000    0.2085250000000000    0.7619750000000001 H
   0.1395000000000000    0.1046750000000000    0.8393850000000000 H
   0.1745600000000000    0.2467200000000000    0.7949349999999999 H
   0.2252600000000000    0.1005450000000000    0.8311050000000000 H
   0.2594250000000000    0.2375450000000000    0.7909999999999999 H
   0.7645350000000000    0.1604050000000000    0.1376700000000000 H
   0.7827550000000000    0.1681150000000000    0.0528300000000000 H
   0.9905500000000000    0.2077450000000000    0.0072500000000000 H
   0.9746349999999999    0.2029700000000000    0.0929150000000000 H
   0.0138400000000000    0.1363600000000000    0.6603000000000000 H
   0.0325500000000000    0.0518900000000000    0.6687350000000000 H
   0.2408400000000000    0.0085700000000000    0.7082300000000000 H
   0.2246350000000000    0.0940050000000000    0.7032350000000001 H
   0.6100550000000000    0.1611800000000000    0.8952450000000001 H
   0.5763000000000000    0.2043150000000000    0.7529500000000000 H
   0.5243250000000000    0.1696300000000000    0.8991800000000000 H
   0.4914250000000000    0.2085250000000000    0.7619750000000001 H
   0.6395000000000000    0.1046750000000000    0.8393850000000000 H
   0.6745600000000000    0.2467200000000000    0.7949349999999999 H
   0.7252600000000000    0.1005450000000000    0.8311050000000000 H
   0.7594250000000000    0.2375450000000000    0.7909999999999999 H
   0.2645350000000000    0.1604050000000000    0.1376700000000000 H
   0.2827550000000000    0.1681150000000000    0.0528300000000000 H
   0.4905500000000000    0.2077450000000000    0.0072500000000000 H
   0.4746350000000000    0.2029700000000000    0.0929150000000000 H
   0.7354700000000001    0.8395900000000001    0.3623200000000000 H
   0.7172499999999999    0.8318749999999999    0.4471600000000000 H
   0.5094550000000000    0.7922549999999999    0.4927450000000000 H
   0.5253700000000000    0.7970300000000000    0.4070800000000000 H
   0.5689948694076972    0.8212218918966850    0.7571388271112254 H
   0.7228727157725108    0.8389138612394388    0.7834554003505462 H
   0.6484474763584375    0.8306667321949226    0.7754930103152681 H
   0.3899500000000000    0.8388200000000000    0.6047500000000000 H
   0.4237000000000000    0.7956799999999999    0.7470400000000000 H
   0.4756800000000000    0.8303750000000000    0.6008150000000000 H
   0.5085750000000000    0.7914749999999999    0.7380150000000000 H
   0.3605100000000000    0.8953300000000000    0.6606150000000000 H
   0.3254450000000000    0.7532749999999999    0.7050550000000000 H
   0.2747450000000000    0.8994599999999999    0.6688950000000000 H
   0.2405750000000000    0.7624550000000000    0.7089850000000000 H
   0.9861650000000000    0.8636400000000000    0.8396950000000001 H
   0.9674550000000000    0.9481100000000000    0.8312600000000000 H
   0.7591650000000000    0.9914300000000000    0.7917650000000001 H
   0.7753650000000001    0.9059900000000001    0.7967550000000000 H
   0.8518399999999999    0.0812600000000000    0.3131000000000000 C
   0.8971400000000000    0.7760100000000000    0.3310800000000000 C
   0.9479250000000000    0.8683350000000001    0.3351250000000000 C
   0.9033850000000000    0.8291750000000000    0.3321550000000000 C
   0.9377350000000000    0.9133350000000000    0.3305850000000000 C
   0.8851100000000001    0.9090000000000000    0.3242000000000000 C
   0.7981400000000001    0.9875499999999999    0.3016250000000000 C
   0.8443800000000000    0.0278050000000000    0.3120950000000000 C
   0.8071450000000000    0.9417500000000000    0.3046200000000000 C
   0.8607350000000000    0.9470100000000000    0.3177100000000000 C
   0.5848350000000000    0.1715900000000000    0.3647050000000000 C
   0.5667000000000000    0.1962150000000000    0.2860600000000000 C
   0.5374500000000000    0.1762950000000000    0.3673600000000000 C
   0.5194750000000000    0.1990300000000000    0.2908550000000000 C
   0.6001650000000001    0.1814050000000000    0.3231800000000000 C
   0.6650199999999999    0.1351350000000000    0.3287450000000000 C
   0.6838800000000000    0.2136350000000000    0.3034000000000000 C
   0.7124150000000000    0.1323650000000000    0.3241250000000000 C
   0.7310850000000000    0.2087350000000000    0.3006950000000000 C
   0.6500450000000000    0.1766450000000000    0.3185100000000000 C
   0.3979750000000000    0.1864100000000000    0.4184650000000000 C
   0.3536950000000000    0.1698850000000000    0.7244600000000000 C
   0.3026700000000000    0.1650150000000000    0.6325600000000000 C
   0.3473050000000000    0.1683850000000000    0.6713100000000000 C
   0.3125850000000000    0.1691350000000000    0.5873400000000000 C
   0.3651100000000000    0.1756050000000000    0.5910950000000000 C
   0.4516550000000000    0.1978750000000000    0.5115700000000000 C
   0.4053800000000000    0.1873650000000000    0.4718000000000000 C
   0.4428050000000000    0.1950050000000000    0.5574749999999999 C
   0.3892750000000000    0.1818950000000000    0.5527700000000000 C
   0.3518400000000000    0.0812600000000000    0.3131000000000000 C
   0.3971400000000000    0.7760100000000000    0.3310800000000000 C
   0.4479250000000000    0.8683350000000001    0.3351250000000000 C
   0.4033850000000000    0.8291750000000000    0.3321550000000000 C
   0.4377350000000000    0.9133350000000000    0.3305850000000000 C
   0.3851100000000000    0.9090000000000000    0.3242000000000000 C
   0.2981400000000000    0.9875499999999999    0.3016250000000000 C
   0.3443800000000000    0.0278050000000000    0.3120950000000000 C
   0.3071450000000000    0.9417500000000000    0.3046200000000000 C
   0.3607350000000000    0.9470100000000000    0.3177100000000000 C
   0.0848350000000000    0.1715900000000000    0.3647050000000000 C
   0.0667000000000000    0.1962150000000000    0.2860600000000000 C
   0.0374500000000000    0.1762950000000000    0.3673600000000000 C
   0.0194750000000000    0.1990300000000000    0.2908550000000000 C
   0.1001650000000000    0.1814050000000000    0.3231800000000000 C
   0.1650200000000000    0.1351350000000000    0.3287450000000000 C
   0.1838800000000000    0.2136350000000000    0.3034000000000000 C
   0.2124150000000000    0.1323650000000000    0.3241250000000000 C
   0.2310850000000000    0.2087350000000000    0.3006950000000000 C
   0.1500450000000000    0.1766450000000000    0.3185100000000000 C
   0.8979750000000000    0.1864100000000000    0.4184650000000000 C
   0.8536950000000000    0.1698850000000000    0.7244600000000000 C
   0.8026700000000000    0.1650150000000000    0.6325600000000000 C
   0.8473050000000000    0.1683850000000000    0.6713100000000000 C
   0.8125850000000000    0.1691350000000000    0.5873400000000000 C
   0.8651100000000000    0.1756050000000000    0.5910950000000000 C
   0.9516549999999999    0.1978750000000000    0.5115700000000000 C
   0.9053800000000001    0.1873650000000000    0.4718000000000000 C
   0.9428050000000000    0.1950050000000000    0.5574749999999999 C
   0.8892750000000000    0.1818950000000000    0.5527700000000000 C
   0.8518399999999999    0.5812600000000000    0.3131000000000000 C
   0.8971400000000000    0.2760100000000000    0.3310800000000000 C
   0.9479250000000000    0.3683350000000000    0.3351250000000000 C
   0.9033850000000000    0.3291750000000000    0.3321550000000000 C
   0.9377350000000000    0.4133350000000000    0.3305850000000000 C
   0.8851100000000001    0.4090000000000000    0.3242000000000000 C
   0.7981400000000001    0.4875500000000000    0.3016250000000000 C
   0.8443800000000000    0.5278050000000000    0.3120950000000000 C
   0.8071450000000000    0.4417500000000000    0.3046200000000000 C
   0.8607350000000000    0.4470100000000000    0.3177100000000000 C
   0.5848350000000000    0.6715900000000000    0.3647050000000000 C
   0.5667000000000000    0.6962150000000000    0.2860600000000000 C
   0.5374500000000000    0.6762950000000000    0.3673600000000000 C
   0.5194750000000000    0.6990300000000000    0.2908550000000000 C
   0.6001650000000001    0.6814050000000000    0.3231800000000000 C
   0.6650199999999999    0.6351350000000000    0.3287450000000000 C
   0.6838800000000000    0.7136350000000000    0.3034000000000000 C
   0.7124150000000000    0.6323650000000001    0.3241250000000000 C
   0.7310850000000000    0.7087350000000000    0.3006950000000000 C
   0.6500450000000000    0.6766449999999999    0.3185100000000000 C
   0.3979750000000000    0.6864100000000000    0.4184650000000000 C
   0.3536950000000000    0.6698850000000001    0.7244600000000000 C
   0.3026700000000000    0.6650150000000000    0.6325600000000000 C
   0.3473050000000000    0.6683850000000000    0.6713100000000000 C
   0.3125850000000000    0.6691350000000000    0.5873400000000000 C
   0.3651100000000000    0.6756050000000000    0.5910950000000000 C
   0.4516550000000000    0.6978750000000000    0.5115700000000000 C
   0.4053800000000000    0.6873650000000000    0.4718000000000000 C
   0.4428050000000000    0.6950050000000000    0.5574749999999999 C
   0.3892750000000000    0.6818950000000000    0.5527700000000000 C
   0.3518400000000000    0.5812600000000000    0.3131000000000000 C
   0.3971400000000000    0.2760100000000000    0.3310800000000000 C
   0.4479250000000000    0.3683350000000000    0.3351250000000000 C
   0.4033850000000000    0.3291750000000000    0.3321550000000000 C
   0.4377350000000000    0.4133350000000000    0.3305850000000000 C
   0.3851100000000000    0.4090000000000000    0.3242000000000000 C
   0.2981400000000000    0.4875500000000000    0.3016250000000000 C
   0.3443800000000000    0.5278050000000000    0.3120950000000000 C
   0.3071450000000000    0.4417500000000000    0.3046200000000000 C
   0.3607350000000000    0.4470100000000000    0.3177100000000000 C
   0.0848350000000000    0.6715900000000000    0.3647050000000000 C
   0.0667000000000000    0.6962150000000000    0.2860600000000000 C
   0.0374500000000000    0.6762950000000000    0.3673600000000000 C
   0.0194750000000000    0.6990300000000000    0.2908550000000000 C
   0.1001650000000000    0.6814050000000000    0.3231800000000000 C
   0.1650200000000000    0.6351350000000000    0.3287450000000000 C
   0.1838800000000000    0.7136350000000000    0.3034000000000000 C
   0.2124150000000000    0.6323650000000001    0.3241250000000000 C
   0.2310850000000000    0.7087350000000000    0.3006950000000000 C
   0.1500450000000000    0.6766449999999999    0.3185100000000000 C
   0.8979750000000000    0.6864100000000000    0.4184650000000000 C
   0.8536950000000000    0.6698850000000001    0.7244600000000000 C
   0.8026700000000000    0.6650150000000000    0.6325600000000000 C
   0.8473050000000000    0.6683850000000000    0.6713100000000000 C
   0.8125850000000000    0.6691350000000000    0.5873400000000000 C
   0.8651100000000000    0.6756050000000000    0.5910950000000000 C
   0.9516549999999999    0.6978750000000000    0.5115700000000000 C
   0.9053800000000001    0.6873650000000000    0.4718000000000000 C
   0.9428050000000000    0.6950050000000000    0.5574749999999999 C
   0.8892750000000000    0.6818950000000000    0.5527700000000000 C
   0.1481650000000000    0.4187400000000000    0.1868900000000000 C
   0.1028650000000000    0.7239850000000000    0.1689050000000000 C
   0.0520800000000000    0.6316600000000000    0.1648650000000000 C
   0.0966200000000000    0.6708250000000000    0.1678400000000000 C
   0.0622700000000000    0.5866600000000000    0.1694100000000000 C
   0.1148950000000000    0.5910000000000000    0.1757900000000000 C
   0.2018650000000000    0.5124500000000000    0.1983700000000000 C
   0.1556250000000000    0.4721950000000000    0.1878950000000000 C
   0.1928600000000000    0.5582500000000000    0.1953700000000000 C
   0.1392700000000000    0.5529900000000000    0.1822850000000000 C
   0.4151750000000000    0.3284250000000000    0.1352950000000000 C
   0.4333100000000000    0.3037950000000000    0.2139350000000000 C
   0.4625500000000000    0.3237000000000000    0.1326300000000000 C
   0.4805250000000000    0.3009650000000000    0.2091350000000000 C
   0.3998300000000000    0.3185800000000000    0.1768050000000000 C
   0.3349800000000000    0.3648600000000000    0.1712400000000000 C
   0.3161150000000000    0.2863550000000000    0.1965750000000000 C
   0.2875950000000000    0.3676400000000000    0.1758800000000000 C
   0.2689200000000000    0.2912650000000000    0.1992950000000000 C
   0.3499700000000000    0.3233650000000000    0.1815000000000000 C
   0.6020300000000000    0.3135900000000000    0.0815250000000000 C
   0.6463099999999999    0.3301200000000000    0.7755350000000000 C
   0.6973350000000000    0.3349800000000000    0.8674350000000000 C
   0.6526950000000000    0.3316100000000000    0.8286800000000001 C
   0.6874150000000000    0.3308600000000000    0.9126500000000000 C
   0.6348950000000000    0.3243900000000000    0.9088950000000000 C