H6 O4
1.0
   9.8979987321491230    0.0000000000000000    0.0050098277776024
  -0.4600206363705521   16.5516054419755925    0.0101147059850220
   0.0000000000000000    0.0000000000000000   36.5609999999999999
H O
6 4
direct
   1.0295616636625444    0.3431301028626312    0.1063787361022692 H
   0.9149421544517233    0.4417297009493880    0.2063544133318807 H
   0.9948996997784003    0.3820867872549728    0.1615825653155900 H
  -0.0295987471253460    0.1568305134196735    0.2269519476114418 H
   0.0850463341885214    0.0582612106271102    0.1269414407116297 H
   0.0050819883236611    0.1178840625290352    0.1717243272437927 H
   0.9690400000000000    0.3801800000000000    0.1181500000000000 O
   0.8993500000000000    0.4405800000000000    0.1801666666666666 O
   0.0309200000000000    0.1197900000000000    0.2151733333333333 O
   0.1006200000000000    0.0594100000000000    0.1531300000000000 O
