P2 H4 C2 O6
1.0
   9.8979987321491230    0.0000000000000000    0.0050098277776024
  -0.4600206363705521   16.5516054419755925    0.0101147059850220
   0.0000000000000000    0.0000000000000000   36.5609999999999999
P H C O
2 4 2 6
direct
   0.9951000000000000    0.3837700000000000    0.1605766666666666 P
   0.0048600000000000    0.1162100000000000    0.1727433333333333 P
   0.8513800000000000    0.2715700000000000    0.1747266666666666 H
   0.9860500000000000    0.2822200000000000    0.2061933333333333 H
   0.1485800000000000    0.2284200000000000    0.1585966666666667 H
   0.0139100000000000    0.2177600000000000    0.1271300000000000 H
   0.9611200000000000    0.2823800000000000    0.1768833333333333 C
   0.0388400000000000    0.2176000000000000    0.1564400000000000 C
   0.8993500000000000    0.4405800000000000    0.1801666666666666 O
   0.1446200000000000    0.4036800000000000    0.1679433333333333 O
   0.9690400000000000    0.3801800000000000    0.1181500000000000 O
   0.1006200000000000    0.0594100000000000    0.1531300000000000 O
   0.8553400000000000    0.0963000000000000    0.1653800000000000 O
   0.0309200000000000    0.1197900000000000    0.2151733333333333 O
