H9 O6
1.0
  28.9664965411094784    0.0000000000000000    0.0141557017743694
   0.0096027659064468   14.8709968633257752    0.0010381916514145
   0.0000000000000000    0.0000000000000000   30.8299999999999983
H O
9 6
direct
   0.4495871327254049    0.4052787774467323    0.8342275800218006 H
   0.4785021198948879    0.3613692642971515    0.8290300572575650 H
   0.5348789788010027    0.5620648658048655    0.8804154587501876 H
   0.5479294684556142    0.5769882382468399    0.8582864710792028 H
   0.3848714563678354    0.4611577272221987    0.8655903898050741 H
   0.4424504852797973    0.5384024676286618    0.8770935142774816 H
   0.5072503585319319    0.5850456209434033    0.9449686534871321 H
   0.4375062886370485    0.5223952773248381    0.9661450680138762 H
   0.4756257252530500    0.5076630708912000    0.9267852856120290 H
   0.4536266666666666    0.3635200000000000    0.8500799999999999 O
   0.5402100000000000    0.6091700000000000    0.8846800000000000 O
   0.3897766666666667    0.4104500000000000    0.8848400000000001 O
   0.4201400000000000    0.5864600000000000    0.8827000000000000 O
   0.5143400000000000    0.6476900000000000    0.9506399999999999 O
   0.4567599999999999    0.4987000000000000    0.9527650000000000 O
