Cd72 H150 C188 O288
1.0
  28.9664965411094784    0.0000000000000000    0.0141557017743694
   0.0096027659064468   14.8709968633257752    0.0010381916514145
   0.0000000000000000    0.0000000000000000   30.8299999999999983
Cd H C O
72 150 188 288
direct
   0.7476333333333333    0.2315500000000000    0.8589400000000000 Cd
   0.8750399999999999    0.1222800000000000    0.7494250000000000 Cd
   0.6254100000000000    0.0067600000000000    0.8079400000000000 Cd
   0.7476333333333333    0.2315500000000000    0.3589400000000000 Cd
   0.8750399999999999    0.1222800000000000    0.2494250000000000 Cd
   0.6254100000000000    0.0067600000000000    0.3079400000000000 Cd
   0.2521700000000000    0.2685600000000000    0.1089350000000000 Cd
   0.1248633333333333    0.3777700000000000    0.9994200000000000 Cd
   0.3743933333333333    0.4932400000000000    0.0580300000000000 Cd
   0.2521700000000000    0.2685600000000000    0.6089350000000000 Cd
   0.1248633333333333    0.3777700000000000    0.4994200000000000 Cd
   0.3743933333333333    0.4932400000000000    0.5580300000000000 Cd
   0.0810566666666667    0.7686900000000000    0.6397250000000000 Cd
   0.2085433333333333    0.8782400000000000    0.7495300000000000 Cd
   0.9587366666666666    0.9934600000000000    0.6909950000000000 Cd
   0.9188799999999999    0.7312700000000000    0.3897850000000000 Cd
   0.7913200000000000    0.6217400000000000    0.4994950000000000 Cd
   0.0411233333333333    0.5065700000000000    0.4411050000000000 Cd
   0.0810566666666667    0.7686900000000000    0.1397250000000000 Cd
   0.2085433333333333    0.8782400000000000    0.2495300000000000 Cd
   0.9587366666666666    0.9934600000000000    0.1909950000000000 Cd
   0.9188799999999999    0.7312700000000000    0.8897850000000000 Cd
   0.7913200000000000    0.6217400000000000    0.9994950000000000 Cd
   0.0411233333333333    0.5065700000000000    0.9411050000000001 Cd
   0.4143000000000000    0.2315500000000000    0.8589400000000000 Cd
   0.5417066666666667    0.1222800000000000    0.7494250000000000 Cd
   0.2920766666666667    0.0067600000000000    0.8079400000000000 Cd
   0.4143000000000000    0.2315500000000000    0.3589400000000000 Cd
   0.5417066666666667    0.1222800000000000    0.2494250000000000 Cd
   0.2920766666666667    0.0067600000000000    0.3079400000000000 Cd
   0.0809666666666667    0.2315500000000000    0.3589400000000000 Cd
   0.2083733333333333    0.1222800000000000    0.2494250000000000 Cd
   0.9587433333333333    0.0067600000000000    0.3079400000000000 Cd
   0.0809666666666667    0.2315500000000000    0.8589400000000000 Cd
   0.2083733333333333    0.1222800000000000    0.7494250000000000 Cd
   0.9587433333333333    0.0067600000000000    0.8079400000000000 Cd
   0.9188366666666666    0.2685600000000000    0.6089350000000000 Cd
   0.7915300000000000    0.3777700000000000    0.4994200000000000 Cd
   0.0410600000000000    0.4932400000000000    0.5580300000000000 Cd
   0.9188366666666666    0.2685600000000000    0.1089350000000000 Cd
   0.7915300000000000    0.3777700000000000    0.9994200000000000 Cd
   0.0410600000000000    0.4932400000000000    0.0580300000000000 Cd
   0.5855033333333333    0.2685600000000000    0.6089350000000000 Cd
   0.4581966666666666    0.3777700000000000    0.4994200000000000 Cd
   0.7077266666666666    0.4932400000000000    0.5580300000000000 Cd
   0.5855033333333333    0.2685600000000000    0.1089350000000000 Cd
   0.4581966666666666    0.3777700000000000    0.9994200000000000 Cd
   0.7077266666666666    0.4932400000000000    0.0580300000000000 Cd
   0.7477233333333333    0.7686900000000000    0.6397250000000000 Cd
   0.8752099999999999    0.8782400000000000    0.7495300000000000 Cd
   0.6254033333333333    0.9934600000000000    0.6909950000000000 Cd
   0.5855466666666667    0.7312700000000000    0.3897850000000000 Cd
   0.4579866666666667    0.6217400000000000    0.4994950000000000 Cd
   0.7077899999999999    0.5065700000000000    0.4411050000000000 Cd
   0.4143900000000000    0.7686900000000000    0.6397250000000000 Cd
   0.5418766666666667    0.8782400000000000    0.7495300000000000 Cd
   0.2920700000000000    0.9934600000000000    0.6909950000000000 Cd
   0.2522133333333333    0.7312700000000000    0.3897850000000000 Cd
   0.1246533333333333    0.6217400000000000    0.4994950000000000 Cd
   0.3744566666666667    0.5065700000000000    0.4411050000000000 Cd
   0.4143900000000000    0.7686900000000000    0.1397250000000000 Cd
   0.5418766666666667    0.8782400000000000    0.2495300000000000 Cd
   0.2920700000000000    0.9934600000000000    0.1909950000000000 Cd
   0.7477233333333333    0.7686900000000000    0.1397250000000000 Cd
   0.8752099999999999    0.8782400000000000    0.2495300000000000 Cd
   0.6254033333333333    0.9934600000000000    0.1909950000000000 Cd
   0.7077899999999999    0.5065700000000000    0.9411050000000001 Cd
   0.2522133333333333    0.7312700000000000    0.8897850000000000 Cd
   0.1246533333333333    0.6217400000000000    0.9994950000000000 Cd
   0.4579866666666667    0.6217400000000000    0.9994950000000000 Cd
   0.3744566666666667    0.5065700000000000    0.9411050000000001 Cd
   0.5855466666666667    0.7312700000000000    0.8897850000000000 Cd
   0.9326933333333333    0.0939200000000000    0.8921550000000000 H
   0.8585633333333333    0.0305200000000000    0.9029849999999999 H
   0.8253100000000000    0.9552500000000000    0.8387050000000000 H
   0.5673433333333333    0.3035800000000000    0.7844450000000001 H
   0.6414466666666667    0.3209700000000000    0.7535000000000001 H
   0.6761633333333333    0.1828100000000000    0.7236800000000000 H
   0.9326933333333333    0.0939200000000000    0.3921550000000000 H
   0.8585633333333333    0.0305200000000000    0.4029850000000000 H
   0.8253100000000000    0.9552500000000000    0.3387050000000000 H
   0.5673433333333333    0.3035800000000000    0.2844450000000000 H
   0.6414466666666667    0.3209700000000000    0.2535000000000000 H
   0.6761633333333333    0.1828100000000000    0.2236800000000000 H
   0.0671533333333333    0.4060300000000000    0.1422050000000000 H
   0.1412833333333333    0.4694400000000000    0.1529400000000000 H
   0.1744966666666667    0.5447600000000000    0.0886200000000000 H
   0.4325700000000000    0.1965100000000000    0.0344850000000000 H
   0.3584733333333333    0.1790800000000000    0.0035850000000000 H
   0.3238200000000000    0.3172200000000000    0.9736950000000000 H
   0.0671533333333333    0.4060300000000000    0.6422050000000000 H
   0.1412833333333333    0.4694400000000000    0.6529400000000000 H
   0.1744966666666667    0.5447600000000000    0.5886200000000000 H
   0.4325700000000000    0.1965100000000000    0.5344850000000000 H
   0.3584733333333333    0.1790800000000000    0.5035849999999999 H
   0.3238200000000000    0.3172200000000000    0.4736950000000000 H
   0.2659866666666666    0.9054700000000000    0.6072000000000000 H
   0.1919433333333333    0.9691100000000000    0.5961200000000000 H
   0.1585100000000000    0.0450800000000000    0.6602749999999999 H
   0.9006433333333332    0.6967000000000000    0.7145900000000001 H
   0.9749599999999999    0.6791100000000000    0.7451700000000000 H
   0.0097100000000000    0.8171800000000000    0.7748600000000000 H
   0.7339133333333333    0.5946900000000001    0.3572700000000000 H
   0.8078966666666666    0.5310000000000000    0.3461000000000000 H
   0.8413599999999999    0.4549700000000000    0.4102200000000000 H
   0.0992233333333333    0.8031700000000001    0.4644700000000000 H
   0.0249633333333333    0.8209400000000000    0.4951900000000000 H
   0.9901399999999999    0.6830500000000000    0.5249950000000000 H
   0.2659866666666666    0.9054700000000000    0.1072000000000000 H
   0.1919433333333333    0.9691100000000000    0.0961200000000000 H
   0.1585100000000000    0.0450800000000000    0.1602750000000000 H
   0.9006433333333332    0.6967000000000000    0.2145900000000000 H
   0.9749599999999999    0.6791100000000000    0.2451700000000000 H
   0.0097100000000000    0.8171800000000000    0.2748600000000000 H
   0.7339133333333333    0.5946900000000001    0.8572700000000000 H
   0.8078966666666666    0.5310000000000000    0.8461000000000001 H
   0.8413599999999999    0.4549700000000000    0.9102200000000000 H
   0.0992233333333333    0.8031700000000001    0.9644699999999999 H
   0.0249633333333333    0.8209400000000000    0.9951900000000000 H
   0.9901399999999999    0.6830500000000000    0.0249950000000000 H
   0.5993599999999999    0.0939200000000000    0.8921550000000000 H
   0.5252300000000000    0.0305200000000000    0.9029849999999999 H
   0.4919766666666666    0.9552500000000000    0.8387050000000000 H
   0.2340100000000000    0.3035800000000000    0.7844450000000001 H
   0.3081133333333334    0.3209700000000000    0.7535000000000001 H
   0.3428300000000000    0.1828100000000000    0.7236800000000000 H
   0.5993599999999999    0.0939200000000000    0.3921550000000000 H
   0.5252300000000000    0.0305200000000000    0.4029850000000000 H
   0.4919766666666666    0.9552500000000000    0.3387050000000000 H
   0.2340100000000000    0.3035800000000000    0.2844450000000000 H
   0.3081133333333334    0.3209700000000000    0.2535000000000000 H
   0.3428300000000000    0.1828100000000000    0.2236800000000000 H
   0.2660266666666666    0.0939200000000000    0.3921550000000000 H
   0.1918966666666667    0.0305200000000000    0.4029850000000000 H
   0.1586433333333333    0.9552500000000000    0.3387050000000000 H
   0.9006766666666666    0.3035800000000000    0.2844450000000000 H
   0.9747800000000000    0.3209700000000000    0.2535000000000000 H
   0.0094966666666667    0.1828100000000000    0.2236800000000000 H
   0.2660266666666666    0.0939200000000000    0.8921550000000000 H
   0.1918966666666667    0.0305200000000000    0.9029849999999999 H
   0.1586433333333333    0.9552500000000000    0.8387050000000000 H
   0.9006766666666666    0.3035800000000000    0.7844450000000001 H
   0.9747800000000000    0.3209700000000000    0.7535000000000001 H
   0.0094966666666667    0.1828100000000000    0.7236800000000000 H
   0.7338199999999999    0.4060300000000000    0.6422050000000000 H
   0.8079499999999999    0.4694400000000000    0.6529400000000000 H
   0.8411633333333333    0.5447600000000000    0.5886200000000000 H
   0.0992366666666667    0.1965100000000000    0.5344850000000000 H
   0.0251400000000000    0.1790800000000000    0.5035849999999999 H
   0.9904866666666666    0.3172200000000000    0.4736950000000000 H
   0.7338199999999999    0.4060300000000000    0.1422050000000000 H
   0.8079499999999999    0.4694400000000000    0.1529400000000000 H
   0.8411633333333333    0.5447600000000000    0.0886200000000000 H
   0.0992366666666667    0.1965100000000000    0.0344850000000000 H
   0.0251400000000000    0.1790800000000000    0.0035850000000000 H
   0.9904866666666666    0.3172200000000000    0.9736950000000000 H
   0.4004866666666667    0.4060300000000000    0.6422050000000000 H
   0.4746166666666666    0.4694400000000000    0.6529400000000000 H
   0.5078300000000000    0.5447600000000000    0.5886200000000000 H
   0.7659033333333333    0.1965100000000000    0.5344850000000000 H
   0.6918066666666667    0.1790800000000000    0.5035849999999999 H
   0.6571533333333333    0.3172200000000000    0.4736950000000000 H
   0.4004866666666667    0.4060300000000000    0.1422050000000000 H
   0.4746166666666666    0.4694400000000000    0.1529400000000000 H
   0.5078300000000000    0.5447600000000000    0.0886200000000000 H
   0.7659033333333333    0.1965100000000000    0.0344850000000000 H
   0.6918066666666667    0.1790800000000000    0.0035850000000000 H
   0.6571533333333333    0.3172200000000000    0.9736950000000000 H
   0.9326533333333333    0.9054700000000000    0.6072000000000000 H
   0.8586099999999999    0.9691100000000000    0.5961200000000000 H
   0.8251766666666667    0.0450800000000000    0.6602749999999999 H
   0.5673100000000000    0.6967000000000000    0.7145900000000001 H
   0.6416266666666666    0.6791100000000000    0.7451700000000000 H
   0.6763766666666666    0.8171800000000000    0.7748600000000000 H
   0.4005800000000000    0.5946900000000001    0.3572700000000000 H
   0.4745633333333333    0.5310000000000000    0.3461000000000000 H
   0.5080266666666666    0.4549700000000000    0.4102200000000000 H
   0.7658900000000000    0.8031700000000001    0.4644700000000000 H
   0.6916300000000000    0.8209400000000000    0.4951900000000000 H
   0.6568066666666665    0.6830500000000000    0.5249950000000000 H
   0.5993200000000000    0.9054700000000000    0.6072000000000000 H
   0.5252766666666666    0.9691100000000000    0.5961200000000000 H
   0.4918433333333333    0.0450800000000000    0.6602749999999999 H
   0.2339766666666667    0.6967000000000000    0.7145900000000001 H
   0.3082933333333333    0.6791100000000000    0.7451700000000000 H
   0.3430433333333333    0.8171800000000000    0.7748600000000000 H
   0.0672466666666667    0.5946900000000001    0.3572700000000000 H
   0.1412300000000000    0.5310000000000000    0.3461000000000000 H
   0.1746933333333333    0.4549700000000000    0.4102200000000000 H
   0.4325566666666666    0.8031700000000001    0.4644700000000000 H
   0.3582966666666667    0.8209400000000000    0.4951900000000000 H
   0.3234733333333333    0.6830500000000000    0.5249950000000000 H
   0.5993200000000000    0.9054700000000000    0.1072000000000000 H
   0.5252766666666666    0.9691100000000000    0.0961200000000000 H
   0.4918433333333333    0.0450800000000000    0.1602750000000000 H
   0.2339766666666667    0.6967000000000000    0.2145900000000000 H
   0.3082933333333333    0.6791100000000000    0.2451700000000000 H
   0.3430433333333333    0.8171800000000000    0.2748600000000000 H
   0.9326533333333333    0.9054700000000000    0.1072000000000000 H
   0.8586099999999999    0.9691100000000000    0.0961200000000000 H
   0.8251766666666667    0.0450800000000000    0.1602750000000000 H
   0.5673100000000000    0.6967000000000000    0.2145900000000000 H
   0.6416266666666666    0.6791100000000000    0.2451700000000000 H
   0.6763766666666666    0.8171800000000000    0.2748600000000000 H
   0.7658900000000000    0.8031700000000001    0.9644699999999999 H
   0.6916300000000000    0.8209400000000000    0.9951900000000000 H
   0.6568066666666665    0.6830500000000000    0.0249950000000000 H
   0.0672466666666667    0.5946900000000001    0.8572700000000000 H
   0.1412300000000000    0.5310000000000000    0.8461000000000001 H
   0.1746933333333333    0.4549700000000000    0.9102200000000000 H
   0.4325566666666666    0.8031700000000001    0.9644699999999999 H
   0.3582966666666667    0.8209400000000000    0.9951900000000000 H
   0.3234733333333333    0.6830500000000000    0.0249950000000000 H
   0.4495871327254049    0.4052787774467323    0.8342275800218006 H
   0.4785021198948879    0.3613692642971515    0.8290300572575650 H
   0.5348789788010027    0.5620648658048655    0.8804154587501876 H
   0.5479294684556142    0.5769882382468399    0.8582864710792028 H
   0.3848714563678354    0.4611577272221987    0.8655903898050741 H
   0.4424504852797973    0.5384024676286618    0.8770935142774816 H
   0.5072503585319319    0.5850456209434033    0.9449686534871321 H
   0.4375062886370485    0.5223952773248381    0.9661450680138762 H
   0.4756257252530500    0.5076630708912000    0.9267852856120290 H
   0.9032866666666666    0.9234500000000000    0.8799850000000000 C
   0.8802366666666666    0.0156100000000000    0.8746450000000000 C
   0.8186399999999999    0.0969600000000000    0.8316200000000000 C
   0.8493866666666666    0.0119200000000000    0.8336850000000000 C
   0.5976433333333333    0.2637600000000000    0.7034150000000000 C
   0.6200633333333333    0.2609300000000000    0.7484649999999999 C
   0.6802833333333334    0.1784100000000000    0.7925249999999999 C
   0.6511166666666666    0.1763300000000000    0.7505450000000000 C
   0.9032866666666666    0.9234500000000000    0.3799850000000000 C
   0.8802366666666666    0.0156100000000000    0.3746450000000000 C
   0.8186399999999999    0.0969600000000000    0.3316200000000000 C
   0.8493866666666666    0.0119200000000000    0.3336850000000000 C
   0.5976433333333333    0.2637600000000000    0.2034150000000000 C
   0.6200633333333333    0.2609300000000000    0.2484650000000000 C
   0.6802833333333334    0.1784100000000000    0.2925250000000000 C
   0.6511166666666666    0.1763300000000000    0.2505450000000000 C
   0.0965633333333333    0.5765200000000000    0.1299950000000000 C
   0.1195933333333333    0.4843700000000000    0.1246350000000000 C
   0.1811700000000000    0.4030500000000000    0.0815750000000000 C
   0.1504233333333333    0.4880900000000000    0.0836350000000000 C
   0.4023066666666666    0.2362700000000000    0.9534899999999999 C
   0.3798566666666666    0.2391100000000000    0.9985500000000000 C
   0.3195100000000000    0.3217100000000000    0.0425050000000000 C
   0.3488100000000000    0.3237200000000000    0.0005700000000000 C
   0.0965633333333333    0.5765200000000000    0.6299950000000000 C
   0.1195933333333333    0.4843700000000000    0.6246350000000001 C
   0.1811700000000000    0.4030500000000000    0.5815750000000000 C
   0.1504233333333333    0.4880900000000000    0.5836350000000000 C
   0.4023066666666666    0.2362700000000000    0.4534900000000000 C
   0.3798566666666666    0.2391100000000000    0.4985500000000000 C
   0.3195100000000000    0.3217100000000000    0.5425050000000000 C
   0.3488100000000000    0.3237200000000000    0.5005700000000000 C
   0.2365600000000000    0.0764700000000000    0.6188800000000000 C
   0.2135366666666667    0.9843600000000000    0.6244400000000000 C
   0.1519433333333333    0.9033500000000000    0.6675550000000000 C
   0.1826133333333333    0.9884400000000000    0.6653850000000000 C
   0.9311099999999999    0.7362600000000000    0.7953150000000000 C
   0.9535466666666665    0.7391400000000000    0.7502850000000000 C
   0.0135400000000000    0.8215600000000000    0.7059950000000000 C
   0.9845533333333333    0.8237200000000000    0.7481150000000000 C
   0.7633200000000000    0.4235800000000000    0.3689100000000000 C
   0.7863233333333333    0.5157000000000000    0.3744450000000000 C
   0.8479500000000000    0.5966800000000000    0.4174850000000000 C
   0.8172666666666666    0.5116100000000000    0.4153450000000000 C
   0.0688133333333333    0.7637500000000000    0.5452850000000000 C
   0.0463433333333333    0.7608600000000000    0.5002850000000000 C
   0.9862700000000000    0.6783700000000000    0.4561400000000000 C
   0.0152866666666667    0.6763300000000000    0.4982300000000000 C
   0.2365600000000000    0.0764700000000000    0.1188800000000000 C
   0.2135366666666667    0.9843600000000000    0.1244400000000000 C
   0.1519433333333333    0.9033500000000000    0.1675550000000000 C
   0.1826133333333333    0.9884400000000000    0.1653850000000000 C
   0.9311099999999999    0.7362600000000000    0.2953150000000000 C
   0.9535466666666665    0.7391400000000000    0.2502850000000000 C
   0.0135400000000000    0.8215600000000000    0.2059950000000000 C
   0.9845533333333333    0.8237200000000000    0.2481150000000000 C
   0.7633200000000000    0.4235800000000000    0.8689100000000001 C
   0.7863233333333333    0.5157000000000000    0.8744449999999999 C
   0.8479500000000000    0.5966800000000000    0.9174850000000000 C
   0.8172666666666666    0.5116100000000000    0.9153450000000001 C
   0.0688133333333333    0.7637500000000000    0.0452850000000000 C
   0.0463433333333333    0.7608600000000000    0.0002850000000000 C
   0.9862700000000000    0.6783700000000000    0.9561400000000000 C
   0.0152866666666667    0.6763300000000000    0.9982300000000000 C
   0.5699533333333333    0.9234500000000000    0.8799850000000000 C
   0.5469033333333333    0.0156100000000000    0.8746450000000000 C
   0.4853066666666667    0.0969600000000000    0.8316200000000000 C
   0.5160533333333333    0.0119200000000000    0.8336850000000000 C
   0.2643100000000000    0.2637600000000000    0.7034150000000000 C
   0.2867300000000000    0.2609300000000000    0.7484649999999999 C
   0.3469500000000000    0.1784100000000000    0.7925249999999999 C
   0.3177833333333333    0.1763300000000000    0.7505450000000000 C
   0.5699533333333333    0.9234500000000000    0.3799850000000000 C
   0.5469033333333333    0.0156100000000000    0.3746450000000000 C
   0.4853066666666667    0.0969600000000000    0.3316200000000000 C
   0.5160533333333333    0.0119200000000000    0.3336850000000000 C
   0.2643100000000000    0.2637600000000000    0.2034150000000000 C
   0.2867300000000000    0.2609300000000000    0.2484650000000000 C
   0.3469500000000000    0.1784100000000000    0.2925250000000000 C
   0.3177833333333333    0.1763300000000000    0.2505450000000000 C
   0.2366200000000000    0.9234500000000000    0.3799850000000000 C
   0.2135700000000000    0.0156100000000000    0.3746450000000000 C
   0.1519733333333333    0.0969600000000000    0.3316200000000000 C
   0.1827200000000000    0.0119200000000000    0.3336850000000000 C
   0.9309766666666666    0.2637600000000000    0.2034150000000000 C
   0.9533966666666667    0.2609300000000000    0.2484650000000000 C
   0.0136166666666667    0.1784100000000000    0.2925250000000000 C
   0.9844499999999999    0.1763300000000000    0.2505450000000000 C
   0.2366200000000000    0.9234500000000000    0.8799850000000000 C
   0.2135700000000000    0.0156100000000000    0.8746450000000000 C
   0.1519733333333333    0.0969600000000000    0.8316200000000000 C
   0.1827200000000000    0.0119200000000000    0.8336850000000000 C
   0.9309766666666666    0.2637600000000000    0.7034150000000000 C
   0.9533966666666667    0.2609300000000000    0.7484649999999999 C
   0.0136166666666667    0.1784100000000000    0.7925249999999999 C
   0.9844499999999999    0.1763300000000000    0.7505450000000000 C
   0.7632300000000000    0.5765200000000000    0.6299950000000000 C
   0.7862600000000000    0.4843700000000000    0.6246350000000001 C
   0.8478366666666666    0.4030500000000000    0.5815750000000000 C
   0.8170900000000000    0.4880900000000000    0.5836350000000000 C
   0.0689733333333333    0.2362700000000000    0.4534900000000000 C
   0.0465233333333333    0.2391100000000000    0.4985500000000000 C
   0.9861766666666666    0.3217100000000000    0.5425050000000000 C
   0.0154766666666667    0.3237200000000000    0.5005700000000000 C
   0.7632300000000000    0.5765200000000000    0.1299950000000000 C
   0.7862600000000000    0.4843700000000000    0.1246350000000000 C
   0.8478366666666666    0.4030500000000000    0.0815750000000000 C
   0.8170900000000000    0.4880900000000000    0.0836350000000000 C
   0.0689733333333333    0.2362700000000000    0.9534899999999999 C
   0.0465233333333333    0.2391100000000000    0.9985500000000000 C
   0.9861766666666666    0.3217100000000000    0.0425050000000000 C
   0.0154766666666667    0.3237200000000000    0.0005700000000000 C
   0.4298966666666666    0.5765200000000000    0.6299950000000000 C
   0.4529266666666666    0.4843700000000000    0.6246350000000001 C
   0.5145033333333333    0.4030500000000000    0.5815750000000000 C
   0.4837566666666666    0.4880900000000000    0.5836350000000000 C
   0.7356400000000000    0.2362700000000000    0.4534900000000000 C
   0.7131900000000000    0.2391100000000000    0.4985500000000000 C
   0.6528433333333332    0.3217100000000000    0.5425050000000000 C
   0.6821433333333333    0.3237200000000000    0.5005700000000000 C
   0.4298966666666666    0.5765200000000000    0.1299950000000000 C
   0.4529266666666666    0.4843700000000000    0.1246350000000000 C
   0.5145033333333333    0.4030500000000000    0.0815750000000000 C
   0.4837566666666666    0.4880900000000000    0.0836350000000000 C
   0.7356400000000000    0.2362700000000000    0.9534899999999999 C
   0.7131900000000000    0.2391100000000000    0.9985500000000000 C
   0.6528433333333332    0.3217100000000000    0.0425050000000000 C
   0.6821433333333333    0.3237200000000000    0.0005700000000000 C
   0.9032266666666666    0.0764700000000000    0.6188800000000000 C
   0.8802033333333332    0.9843600000000000    0.6244400000000000 C
   0.8186099999999999    0.9033500000000000    0.6675550000000000 C
   0.8492799999999999    0.9884400000000000    0.6653850000000000 C
   0.5977766666666666    0.7362600000000000    0.7953150000000000 C
   0.6202133333333333    0.7391400000000000    0.7502850000000000 C
   0.6802066666666666    0.8215600000000000    0.7059950000000000 C
   0.6512199999999999    0.8237200000000000    0.7481150000000000 C
   0.4299866666666666    0.4235800000000000    0.3689100000000000 C
   0.4529900000000000    0.5157000000000000    0.3744450000000000 C
   0.5146166666666666    0.5966800000000000    0.4174850000000000 C
   0.4839333333333333    0.5116100000000000    0.4153450000000000 C
   0.7354799999999999    0.7637500000000000    0.5452850000000000 C
   0.7130099999999999    0.7608600000000000    0.5002850000000000 C
   0.6529366666666667    0.6783700000000000    0.4561400000000000 C
   0.6819533333333333    0.6763300000000000    0.4982300000000000 C
   0.5698933333333334    0.0764700000000000    0.6188800000000000 C
   0.5468700000000000    0.9843600000000000    0.6244400000000000 C
   0.4852766666666666    0.9033500000000000    0.6675550000000000 C
   0.5159466666666667    0.9884400000000000    0.6653850000000000 C
   0.2644433333333333    0.7362600000000000    0.7953150000000000 C
   0.2868800000000000    0.7391400000000000    0.7502850000000000 C
   0.3468733333333333    0.8215600000000000    0.7059950000000000 C
   0.3178866666666667    0.8237200000000000    0.7481150000000000 C
   0.0966533333333333    0.4235800000000000    0.3689100000000000 C
   0.1196566666666667    0.5157000000000000    0.3744450000000000 C
   0.1812833333333333    0.5966800000000000    0.4174850000000000 C
   0.1506000000000000    0.5116100000000000    0.4153450000000000 C
   0.4021466666666667    0.7637500000000000    0.5452850000000000 C
   0.3796766666666667    0.7608600000000000    0.5002850000000000 C
   0.3196033333333334    0.6783700000000000    0.4561400000000000 C
   0.3486200000000000    0.6763300000000000    0.4982300000000000 C
   0.5698933333333334    0.0764700000000000    0.1188800000000000 C
   0.5468700000000000    0.9843600000000000    0.1244400000000000 C
   0.4852766666666666    0.9033500000000000    0.1675550000000000 C
   0.5159466666666667    0.9884400000000000    0.1653850000000000 C
   0.2644433333333333    0.7362600000000000    0.2953150000000000 C
   0.2868800000000000    0.7391400000000000    0.2502850000000000 C
   0.3468733333333333    0.8215600000000000    0.2059950000000000 C
   0.3178866666666667    0.8237200000000000    0.2481150000000000 C
   0.9032266666666666    0.0764700000000000    0.1188800000000000 C
   0.8802033333333332    0.9843600000000000    0.1244400000000000 C
   0.8186099999999999    0.9033500000000000    0.1675550000000000 C
   0.8492799999999999    0.9884400000000000    0.1653850000000000 C
   0.5977766666666666    0.7362600000000000    0.2953150000000000 C
   0.6202133333333333    0.7391400000000000    0.2502850000000000 C
   0.6802066666666666    0.8215600000000000    0.2059950000000000 C
   0.6512199999999999    0.8237200000000000    0.2481150000000000 C
   0.7354799999999999    0.7637500000000000    0.0452850000000000 C
   0.7130099999999999    0.7608600000000000    0.0002850000000000 C
   0.6529366666666667    0.6783700000000000    0.9561400000000000 C
   0.6819533333333333    0.6763300000000000    0.9982300000000000 C
   0.0966533333333333    0.4235800000000000    0.8689100000000001 C
   0.1196566666666667    0.5157000000000000    0.8744449999999999 C
   0.1812833333333333    0.5966800000000000    0.9174850000000000 C
   0.1506000000000000    0.5116100000000000    0.9153450000000001 C
   0.4021466666666667    0.7637500000000000    0.0452850000000000 C
   0.3796766666666667    0.7608600000000000    0.0002850000000000 C
   0.3196033333333334    0.6783700000000000    0.9561400000000000 C
   0.3486200000000000    0.6763300000000000    0.9982300000000000 C
   0.8794833333333333    0.8631200000000000    0.8983650000000001 O
   0.9436733333333333    0.9106300000000001    0.8643850000000000 O
   0.9130766666666666    0.0864200000000000    0.8667100000000000 O
   0.7931633333333332    0.1095000000000000    0.8645149999999999 O
   0.8187033333333333    0.1478400000000000    0.7983899999999999 O
   0.8766099999999999    0.9991900000000000    0.7962750000000001 O
   0.6220766666666666    0.2963200000000000    0.6731450000000000 O
   0.5574133333333333    0.2304100000000000    0.6982650000000000 O
   0.5868400000000000    0.2501900000000000    0.7829150000000000 O
   0.7045966666666666    0.2482500000000000    0.7981849999999999 O
   0.6803066666666666    0.1119900000000000    0.8186500000000000 O
   0.6242633333333333    0.0977100000000000    0.7462850000000000 O
   0.8794833333333333    0.8631200000000000    0.3983650000000000 O
   0.9436733333333333    0.9106300000000001    0.3643850000000000 O
   0.9130766666666666    0.0864200000000000    0.3667100000000000 O
   0.7931633333333332    0.1095000000000000    0.3645150000000000 O
   0.8187033333333333    0.1478400000000000    0.2983900000000000 O
   0.8766099999999999    0.9991900000000000    0.2962750000000000 O
   0.6220766666666666    0.2963200000000000    0.1731450000000000 O
   0.5574133333333333    0.2304100000000000    0.1982650000000000 O
   0.5868400000000000    0.2501900000000000    0.2829150000000000 O
   0.7045966666666666    0.2482500000000000    0.2981850000000000 O
   0.6803066666666666    0.1119900000000000    0.3186500000000000 O
   0.6242633333333333    0.0977100000000000    0.2462850000000000 O
   0.1204200000000000    0.6368300000000000    0.1483100000000000 O
   0.0561633333333333    0.5893600000000000    0.1144800000000000 O