H4 C12 N4
1.0
  21.8359980843317452    0.0000000000000000   -0.0091466420236929
  -0.0249165534040654   11.5313253736002057   -6.5119093431596964
   0.0000000000000000    0.0000000000000000   26.4800000000000004
H C N
4 12 4
direct
   0.9450300000000000    0.5738799999999999    0.0937400000000000 H
   0.0547400000000000    0.6158100000000000    0.0936300000000000 H
   0.0549900000000000    0.4262100000000000    0.9062500000000000 H
   0.9452800000000000    0.3842800000000000    0.9063850000000000 H
   0.9691500000000000    0.5416100000000000    0.0526350000000000 C
   0.8390100000000000    0.4910100000000000    0.0516100000000000 C
   0.0307400000000000    0.5649700000000000    0.0525650000000000 C
   0.1607900000000000    0.6138200000000000    0.0513000000000000 C
   0.8719000000000000    0.4513800000000000    0.0001100000000000 C
   0.9365300000000000    0.4760400000000000    0.0000500000000000 C
   0.0308800000000000    0.4584800000000000    0.9473800000000000 C
   0.1610100000000000    0.5090800000000000    0.9484049999999999 C
   0.9692800000000000    0.4351300000000000    0.9474450000000000 C
   0.8392400000000000    0.3862800000000000    0.9487050000000000 C
   0.1281200000000000    0.5487100000000000    0.9999000000000000 C
   0.0635000000000000    0.5240400000000000    0.9999000000000000 C
   0.8123899999999999    0.5228000000000000    0.0954250000000000 N
   0.1872300000000000    0.6711700000000000    0.0950050000000000 N
   0.1876300000000000    0.4772900000000000    0.9045850000000000 N
   0.8127900000000000    0.3289200000000000    0.9050050000000001 N
