H6 O4
1.0
  10.3734999936801024    0.0000000000000000   -0.0003621034598361
  -0.2117084872785219   39.5109299004372474   -0.0151713265100432
   0.0000000000000000    0.0000000000000000   19.9939999999999998
H O
6 4
direct
   0.4097222907146402    0.5354927477500568    0.4040047184253001 H
   0.0493485867580999    0.5048772345836305    0.4086503791593567 H
   0.2278406123421786    0.5176097119504732    0.3976671964048963 H
   0.0987377411218473    0.4623314679534570    0.1257302014184887 H
   0.4530443162913712    0.4972032899053079    0.1173649277815182 H
   0.2792747312677766    0.4825290727228216    0.1302486013122903 H
   0.3286600000000000    0.5350833333333334    0.4281800000000000 O
   0.1196600000000000    0.5170633333333333    0.4299300000000000 O
   0.1782700000000000    0.4636533333333333    0.1003300000000000 O
   0.3838200000000000    0.4842666666666666    0.0968600000000000 O
