H4 C8 O4
1.0
  10.3734999936801024    0.0000000000000000   -0.0003621034598361
  -0.2117084872785219   39.5109299004372474   -0.0151713265100432
   0.0000000000000000    0.0000000000000000   19.9939999999999998
H C O
4 8 4
direct
   0.4577900000000000    0.5092500000000000    0.2021400000000000 H
   0.0670600000000000    0.4728533333333333    0.2055300000000000 H
   0.0467100000000000    0.4911099999999999    0.3254300000000000 H
   0.4378900000000000    0.5271633333333333    0.3220400000000000 H
   0.2752700000000000    0.4783933333333333    0.1258800000000000 C
   0.2634600000000000    0.4899900000000000    0.1968900000000000 C
   0.3682700000000000    0.5053333333333333    0.2295400000000000 C
   0.1474000000000000    0.4848333333333333    0.2315800000000000 C
   0.2294900000000000    0.5215566666666667    0.4017900000000000 C
   0.2412900000000000    0.5101066666666667    0.3306900000000000 C
   0.1362900000000000    0.4948666666666666    0.2979900000000000 C
   0.3573300000000000    0.5152733333333332    0.2960100000000000 C
   0.3838200000000000    0.4842666666666666    0.0968600000000000 O
   0.1782700000000000    0.4636533333333333    0.1003300000000000 O
   0.1196600000000000    0.5170633333333333    0.4299300000000000 O
   0.3286600000000000    0.5350833333333334    0.4281800000000000 O
