Zn24 H92 C129 O81
1.0
  10.3734999936801024    0.0000000000000000   -0.0003621034598361
  -0.2117084872785219   39.5109299004372474   -0.0151713265100432
   0.0000000000000000    0.0000000000000000   19.9939999999999998
Zn H C O
24 92 129 81
direct
   0.6333299999999999    0.0607766666666667    0.9859900000000000 Zn
   0.5647700000000000    0.2946466666666666    0.4860600000000000 Zn
   0.8666600000000000    0.2725600000000000    0.4859700000000000 Zn
   0.0620000000000000    0.2045466666666667    0.5140400000000001 Zn
   0.3664100000000000    0.2267166666666667    0.5138600000000000 Zn
   0.4380000000000000    0.1287866666666667    0.0140200000000000 Zn
   0.1335600000000000    0.1066266666666667    0.0138400000000000 Zn
   0.9352000000000000    0.0386900000000000    0.9860700000000000 Zn
   0.6333299999999999    0.3941100000000000    0.9859900000000000 Zn
   0.5647700000000000    0.6279800000000000    0.4860600000000000 Zn
   0.8666600000000000    0.6058933333333333    0.4859700000000000 Zn
   0.0620000000000000    0.5378799999999999    0.5140400000000001 Zn
   0.3664100000000000    0.5600499999999999    0.5138600000000000 Zn
   0.4380000000000000    0.4621200000000000    0.0140200000000000 Zn
   0.1335600000000000    0.4399600000000000    0.0138400000000000 Zn
   0.9352000000000000    0.3720233333333333    0.9860700000000000 Zn
   0.6333299999999999    0.7274433333333333    0.9859900000000000 Zn
   0.5647700000000000    0.9613133333333332    0.4860600000000000 Zn
   0.8666600000000000    0.9392266666666667    0.4859700000000000 Zn
   0.0620000000000000    0.8712133333333333    0.5140400000000001 Zn
   0.3664100000000000    0.8933833333333333    0.5138600000000000 Zn
   0.4380000000000000    0.7954533333333333    0.0140200000000000 Zn
   0.1335600000000000    0.7732933333333333    0.0138400000000000 Zn
   0.9352000000000000    0.7053566666666666    0.9860700000000000 Zn
   0.7250000000000000    0.1540133333333333    0.0078400000000000 H
   0.6263200000000000    0.1467500000000000    0.1215900000000000 H
   0.7984500000000000    0.1461333333333333    0.1259400000000000 H
   0.7079100000000000    0.1075233333333333    0.1312700000000000 H
   0.9577500000000000    0.3245400000000000    0.7990800000000000 H
   0.5686400000000000    0.0276600000000000    0.7923100000000000 H
   0.5507300000000001    0.0088100000000000    0.6726700000000000 H
   0.9403000000000000    0.3060633333333333    0.6794500000000000 H
   0.7749500000000000    0.1793300000000000    0.5066200000000000 H
   0.8733300000000001    0.1858566666666667    0.6206100000000000 H
   0.7012000000000000    0.1865033333333333    0.6248500000000000 H
   0.7919000000000000    0.2250466666666666    0.6312300000000000 H
   0.5425400000000000    0.0089100000000000    0.2991800000000000 H
   0.9316300000000000    0.3058999999999999    0.2924600000000000 H
   0.9495700000000000    0.3247633333333333    0.1728600000000000 H
   0.5599200000000000    0.0274066666666667    0.1795900000000000 H
   0.2771900000000000    0.3196833333333333    0.4931100000000000 H
   0.3766000000000000    0.3132066666666666    0.3794100000000000 H
   0.2044800000000000    0.3124200000000000    0.3747300000000000 H
   0.2941300000000000    0.2739533333333333    0.3685700000000000 H
   0.0425900000000000    0.1571933333333333    0.7019300000000001 H
   0.4332300000000000    0.1936566666666666    0.7054500000000000 H
   0.4535800000000000    0.1753766666666667    0.8253100000000000 H
   0.0624800000000000    0.1392600000000000    0.8217800000000000 H
   0.2227700000000000    0.0136466666666667    0.9933300000000000 H
   0.1233900000000000    0.0199100000000000    0.8795900000000000 H
   0.2955100000000000    0.0207066666666667    0.8749200000000000 H
   0.2058000000000000    0.0591500000000000    0.8685400000000000 H
   0.4577900000000000    0.1759166666666667    0.2021400000000000 H
   0.0670600000000000    0.1395200000000000    0.2055300000000000 H
   0.0467100000000000    0.1577766666666666    0.3254300000000000 H
   0.4378900000000000    0.1938300000000000    0.3220400000000000 H
   0.7250000000000000    0.4873466666666667    0.0078400000000000 H
   0.6263200000000000    0.4800833333333333    0.1215900000000000 H
   0.7984500000000000    0.4794666666666667    0.1259400000000000 H
   0.7079100000000000    0.4408566666666667    0.1312700000000000 H
   0.9577500000000000    0.6578733333333333    0.7990800000000000 H
   0.5686400000000000    0.3609933333333333    0.7923100000000000 H
   0.5507300000000001    0.3421433333333333    0.6726700000000000 H
   0.9403000000000000    0.6393966666666666    0.6794500000000000 H
   0.7749500000000000    0.5126633333333332    0.5066200000000000 H
   0.8733300000000001    0.5191900000000000    0.6206100000000000 H
   0.7012000000000000    0.5198366666666666    0.6248500000000000 H
   0.7919000000000000    0.5583800000000000    0.6312300000000000 H
   0.5425400000000000    0.3422433333333333    0.2991800000000000 H
   0.9316300000000000    0.6392333333333333    0.2924600000000000 H
   0.9495700000000000    0.6580966666666666    0.1728600000000000 H
   0.5599200000000000    0.3607400000000000    0.1795900000000000 H
   0.2771900000000000    0.6530166666666666    0.4931100000000000 H
   0.3766000000000000    0.6465399999999999    0.3794100000000000 H
   0.2044800000000000    0.6457533333333333    0.3747300000000000 H
   0.2941300000000000    0.6072866666666666    0.3685700000000000 H
   0.0425900000000000    0.4905266666666667    0.7019300000000001 H
   0.4332300000000000    0.5269900000000000    0.7054500000000000 H
   0.4535800000000000    0.5087100000000000    0.8253100000000000 H
   0.0624800000000000    0.4725933333333333    0.8217800000000000 H
   0.2227700000000000    0.3469800000000000    0.9933300000000000 H
   0.1233900000000000    0.3532433333333333    0.8795900000000000 H
   0.2955100000000000    0.3540400000000000    0.8749200000000000 H
   0.2058000000000000    0.3924833333333333    0.8685400000000000 H
   0.4577900000000000    0.5092500000000000    0.2021400000000000 H
   0.0670600000000000    0.4728533333333333    0.2055300000000000 H
   0.0467100000000000    0.4911099999999999    0.3254300000000000 H
   0.4378900000000000    0.5271633333333333    0.3220400000000000 H
   0.7250000000000000    0.8206800000000000    0.0078400000000000 H
   0.6263200000000000    0.8134166666666667    0.1215900000000000 H
   0.7984500000000000    0.8128000000000000    0.1259400000000000 H
   0.7079100000000000    0.7741899999999999    0.1312700000000000 H
   0.9577500000000000    0.9912066666666666    0.7990800000000000 H
   0.5686400000000000    0.6943266666666666    0.7923100000000000 H
   0.5507300000000001    0.6754766666666666    0.6726700000000000 H
   0.9403000000000000    0.9727299999999999    0.6794500000000000 H
   0.7749500000000000    0.8459966666666666    0.5066200000000000 H
   0.8733300000000001    0.8525233333333333    0.6206100000000000 H
   0.7012000000000000    0.8531700000000000    0.6248500000000000 H
   0.7919000000000000    0.8917133333333332    0.6312300000000000 H
   0.5425400000000000    0.6755766666666666    0.2991800000000000 H
   0.9316300000000000    0.9725666666666666    0.2924600000000000 H
   0.9495700000000000    0.9914299999999999    0.1728600000000000 H
   0.5599200000000000    0.6940733333333333    0.1795900000000000 H
   0.2771900000000000    0.9863499999999999    0.4931100000000000 H
   0.3766000000000000    0.9798733333333333    0.3794100000000000 H
   0.2044800000000000    0.9790866666666667    0.3747300000000000 H
   0.2941300000000000    0.9406200000000000    0.3685700000000000 H
   0.0425900000000000    0.8238599999999999    0.7019300000000001 H
   0.4332300000000000    0.8603233333333333    0.7054500000000000 H
   0.4535800000000000    0.8420433333333333    0.8253100000000000 H
   0.0624800000000000    0.8059266666666667    0.8217800000000000 H
   0.4577900000000000    0.8425833333333332    0.2021400000000000 H
   0.0670600000000000    0.8061866666666666    0.2055300000000000 H
   0.0467100000000000    0.8244433333333333    0.3254300000000000 H
   0.4378900000000000    0.8604966666666666    0.3220400000000000 H
   0.8431000000000000    0.1103866666666667    0.0123500000000000 C
   0.7188400000000000    0.1287166666666666    0.0312600000000000 C
   0.7129100000000000    0.1325833333333333    0.1075300000000000 C
   0.7748200000000000    0.0222900000000000    0.8737200000000001 C
   0.7640100000000000    0.0104866666666667    0.8027400000000000 C
   0.8690400000000000    0.3283033333333333    0.7710500000000000 C
   0.6491700000000000    0.0155300000000000    0.7671000000000000 C
   0.7333600000000000    0.3112000000000000    0.5981600000000000 C
   0.7444499999999999    0.3229733333333333    0.6691500000000000 C
   0.6394200000000000    0.0051566666666667    0.7008000000000000 C
   0.8594600000000000    0.3180400000000000    0.7046800000000000 C
   0.6568900000000000    0.2229166666666667    0.5121000000000000 C
   0.7811000000000000    0.2044833333333334    0.5306900000000000 C
   0.7868500000000000    0.2001400000000000    0.6068400000000000 C
   0.7251700000000000    0.3110733333333333    0.3737400000000000 C
   0.7360500000000000    0.3229233333333333    0.3028100000000000 C
   0.6311099999999999    0.0050600000000000    0.2710700000000000 C
   0.8510200000000000    0.3179733333333333    0.2672200000000000 C
   0.7665999999999999    0.0221100000000000    0.0981400000000000 C
   0.7554900000000000    0.0103033333333333    0.1690900000000000 C
   0.8607800000000000    0.3283500000000000    0.2009400000000000 C
   0.6406500000000001    0.0153333333333333    0.2047200000000000 C
   0.1580200000000000    0.2759433333333333    0.4874200000000000 C
   0.2829800000000000    0.2945333333333333    0.4690700000000000 C
   0.2895800000000000    0.2988600000000000    0.3929400000000000 C
   0.2248600000000000    0.1882133333333333    0.6258300000000000 C
   0.2368300000000000    0.1765166666666667    0.6967500000000000 C
   0.1320900000000000    0.1611233333333333    0.7293400000000000 C
   0.3528900000000000    0.1816600000000000    0.7314600000000000 C
   0.2706800000000000    0.1450233333333333    0.9016900000000000 C
   0.2590000000000000    0.1563766666666667    0.8305300000000000 C
   0.3640000000000000    0.1716166666666667    0.7978499999999999 C
   0.1430200000000000    0.1511700000000000    0.7957900000000000 C
   0.3419500000000000    0.0573733333333333    0.9874300000000000 C
   0.2169800000000000    0.0387566666666667    0.9691500000000000 C
   0.2103900000000000    0.0342900000000000    0.8930500000000000 C
   0.2752700000000000    0.1450600000000000    0.1258800000000000 C
   0.2634600000000000    0.1566566666666667    0.1968900000000000 C
   0.3682700000000000    0.1720000000000000    0.2295400000000000 C
   0.1474000000000000    0.1515000000000000    0.2315800000000000 C
   0.2294900000000000    0.1882233333333333    0.4017900000000000 C
   0.2412900000000000    0.1767733333333333    0.3306900000000000 C
   0.1362900000000000    0.1615333333333333    0.2979900000000000 C
   0.3573300000000000    0.1819400000000000    0.2960100000000000 C
   0.8431000000000000    0.4437200000000000    0.0123500000000000 C
   0.7188400000000000    0.4620500000000000    0.0312600000000000 C
   0.7129100000000000    0.4659166666666666    0.1075300000000000 C
   0.7748200000000000    0.3556233333333333    0.8737200000000001 C
   0.7640100000000000    0.3438200000000000    0.8027400000000000 C
   0.8690400000000000    0.6616366666666667    0.7710500000000000 C
   0.6491700000000000    0.3488633333333333    0.7671000000000000 C
   0.7333600000000000    0.6445333333333333    0.5981600000000000 C
   0.7444499999999999    0.6563066666666666    0.6691500000000000 C
   0.6394200000000000    0.3384900000000000    0.7008000000000000 C
   0.8594600000000000    0.6513733333333334    0.7046800000000000 C
   0.6568900000000000    0.5562499999999999    0.5121000000000000 C
   0.7811000000000000    0.5378166666666666    0.5306900000000000 C
   0.7868500000000000    0.5334733333333332    0.6068400000000000 C
   0.7251700000000000    0.6444066666666666    0.3737400000000000 C
   0.7360500000000000    0.6562566666666667    0.3028100000000000 C
   0.6311099999999999    0.3383933333333333    0.2710700000000000 C
   0.8510200000000000    0.6513066666666667    0.2672200000000000 C
   0.7665999999999999    0.3554433333333333    0.0981400000000000 C
   0.7554900000000000    0.3436366666666666    0.1690900000000000 C
   0.8607800000000000    0.6616833333333333    0.2009400000000000 C
   0.6406500000000001    0.3486666666666666    0.2047200000000000 C
   0.1580200000000000    0.6092766666666667    0.4874200000000000 C
   0.2829800000000000    0.6278666666666666    0.4690700000000000 C
   0.2895800000000000    0.6321933333333334    0.3929400000000000 C
   0.2248600000000000    0.5215466666666666    0.6258300000000000 C
   0.2368300000000000    0.5098499999999999    0.6967500000000000 C
   0.1320900000000000    0.4944566666666667    0.7293400000000000 C
   0.3528900000000000    0.5149933333333333    0.7314600000000000 C
   0.2706800000000000    0.4783566666666667    0.9016900000000000 C
   0.2590000000000000    0.4897100000000000    0.8305300000000000 C
   0.3640000000000000    0.5049500000000000    0.7978499999999999 C
   0.1430200000000000    0.4845033333333333    0.7957900000000000 C
   0.3419500000000000    0.3907066666666666    0.9874300000000000 C
   0.2169800000000000    0.3720900000000000    0.9691500000000000 C
   0.2103900000000000    0.3676233333333333    0.8930500000000000 C
   0.2752700000000000    0.4783933333333333    0.1258800000000000 C
   0.2634600000000000    0.4899900000000000    0.1968900000000000 C
   0.3682700000000000    0.5053333333333333    0.2295400000000000 C
   0.1474000000000000    0.4848333333333333    0.2315800000000000 C
   0.2294900000000000    0.5215566666666667    0.4017900000000000 C
   0.2412900000000000    0.5101066666666667    0.3306900000000000 C
   0.1362900000000000    0.4948666666666666    0.2979900000000000 C
   0.3573300000000000    0.5152733333333332    0.2960100000000000 C
   0.8431000000000000    0.7770533333333333    0.0123500000000000 C
   0.7188400000000000    0.7953833333333333    0.0312600000000000 C
   0.7129100000000000    0.7992500000000000    0.1075300000000000 C
   0.7748200000000000    0.6889566666666667    0.8737200000000001 C
   0.7640100000000000    0.6771533333333333    0.8027400000000000 C
   0.8690400000000000    0.9949699999999999    0.7710500000000000 C
   0.6491700000000000    0.6821966666666667    0.7671000000000000 C
   0.7333600000000000    0.9778666666666667    0.5981600000000000 C
   0.7444499999999999    0.9896400000000000    0.6691500000000000 C
   0.6394200000000000    0.6718233333333333    0.7008000000000000 C
   0.8594600000000000    0.9847066666666666    0.7046800000000000 C
   0.6568900000000000    0.8895833333333333    0.5121000000000000 C
   0.7811000000000000    0.8711500000000000    0.5306900000000000 C
   0.7868500000000000    0.8668066666666666    0.6068400000000000 C
   0.7251700000000000    0.9777399999999999    0.3737400000000000 C
   0.7360500000000000    0.9895900000000000    0.3028100000000000 C
   0.6311099999999999    0.6717266666666666    0.2710700000000000 C
   0.8510200000000000    0.9846400000000000    0.2672200000000000 C
   0.7665999999999999    0.6887766666666666    0.0981400000000000 C
   0.7554900000000000    0.6769700000000000    0.1690900000000000 C
   0.8607800000000000    0.9950166666666667    0.2009400000000000 C
   0.6406500000000001    0.6819999999999999    0.2047200000000000 C
   0.1580200000000000    0.9426099999999999    0.4874200000000000 C
   0.2829800000000000    0.9611999999999999    0.4690700000000000 C
   0.2895800000000000    0.9655266666666666    0.3929400000000000 C
   0.2248600000000000    0.8548800000000000    0.6258300000000000 C
   0.2368300000000000    0.8431833333333333    0.6967500000000000 C
   0.1320900000000000    0.8277900000000000    0.7293400000000000 C
   0.3528900000000000    0.8483266666666667    0.7314600000000000 C
   0.2706800000000000    0.8116900000000000    0.9016900000000000 C
   0.2590000000000000    0.8230433333333333    0.8305300000000000 C
   0.3640000000000000    0.8382833333333333    0.7978499999999999 C
   0.1430200000000000    0.8178366666666667    0.7957900000000000 C
   0.2752700000000000    0.8117266666666666    0.1258800000000000 C
   0.2634600000000000    0.8233233333333333    0.1968900000000000 C
   0.3682700000000000    0.8386666666666667    0.2295400000000000 C
   0.1474000000000000    0.8181666666666666    0.2315800000000000 C
   0.2294900000000000    0.8548899999999999    0.4017900000000000 C
   0.2412900000000000    0.8434400000000000    0.3306900000000000 C
   0.1362900000000000    0.8281999999999999    0.2979900000000000 C
   0.3573300000000000    0.8486066666666666    0.2960100000000000 C
   0.8286400000000000    0.0815266666666667    0.9834400000000000 O
   0.6099100000000000    0.1108766666666667    0.0054600000000000 O
   0.9492000000000000    0.1239733333333333    0.0269100000000000 O
   0.8828000000000000    0.0164433333333333    0.9031200000000000 O
   0.6782400000000000    0.0370933333333333    0.8989800000000000 O
   0.6237800000000000    0.3155133333333333    0.5698299999999999 O
   0.8323400000000000    0.2976600000000000    0.5720499999999999 O
   0.6714000000000000    0.2518200000000000    0.4834200000000000 O
   0.8901300000000000    0.2224566666666667    0.5054100000000000 O
   0.5507800000000000    0.2093400000000000    0.5266400000000000 O
   0.6171500000000000    0.3168900000000000    0.4031400000000000 O
   0.8217300000000000    0.2962566666666666    0.3989800000000000 O
   0.8762000000000000    0.0178133333333333    0.0698100000000000 O
   0.6676500000000000    0.0356766666666667    0.0720700000000000 O
   0.1715100000000000    0.2472733333333333    0.5168800000000000 O
   0.3916200000000000    0.2767533333333333    0.4946600000000000 O
   0.0522700000000000    0.2891733333333333    0.4719400000000000 O
   0.1162400000000000    0.1823866666666666    0.5968300000000000 O
   0.3217800000000000    0.2030033333333333    0.6003200000000000 O
   0.3804800000000000    0.1495600000000000    0.9298500000000000 O
   0.1714400000000000    0.1315600000000000    0.9281199999999999 O
   0.3284500000000000    0.0860633333333333    0.0168500000000000 O
   0.1083400000000000    0.0565800000000000    0.9946400000000000 O
   0.4477000000000000    0.0441400000000000    0.9719500000000000 O
   0.3838200000000000    0.1509333333333333    0.0968600000000000 O
   0.1782700000000000    0.1303200000000000    0.1003300000000000 O
   0.1196600000000000    0.1837300000000000    0.4299300000000000 O
   0.3286600000000000    0.2017500000000000    0.4281800000000000 O
   0.8286400000000000    0.4148600000000000    0.9834400000000000 O
   0.6099100000000000    0.4442100000000000    0.0054600000000000 O
   0.9492000000000000    0.4573066666666666    0.0269100000000000 O
   0.8828000000000000    0.3497766666666666    0.9031200000000000 O
   0.6782400000000000    0.3704266666666666    0.8989800000000000 O
   0.6237800000000000    0.6488466666666666    0.5698299999999999 O
   0.8323400000000000    0.6309933333333333    0.5720499999999999 O
   0.6714000000000000    0.5851533333333333    0.4834200000000000 O
   0.8901300000000000    0.5557900000000000    0.5054100000000000 O
   0.5507800000000000    0.5426733333333333    0.5266400000000000 O
   0.6171500000000000    0.6502233333333334    0.4031400000000000 O
   0.8217300000000000    0.6295899999999999    0.3989800000000000 O
   0.8762000000000000    0.3511466666666667    0.0698100000000000 O
   0.6676500000000000    0.3690099999999999    0.0720700000000000 O
   0.1715100000000000    0.5806066666666667    0.5168800000000000 O
   0.3916200000000000    0.6100866666666667    0.4946600000000000 O
   0.0522700000000000    0.6225066666666665    0.4719400000000000 O
   0.1162400000000000    0.5157200000000000    0.5968300000000000 O
   0.3217800000000000    0.5363366666666667    0.6003200000000000 O
   0.3804800000000000    0.4828933333333333    0.9298500000000000 O
   0.1714400000000000    0.4648933333333333    0.9281199999999999 O
   0.3284500000000000    0.4193966666666666    0.0168500000000000 O
   0.1083400000000000    0.3899133333333333    0.9946400000000000 O
   0.4477000000000000    0.3774733333333333    0.9719500000000000 O
   0.3838200000000000    0.4842666666666666    0.0968600000000000 O
   0.1782700000000000    0.4636533333333333    0.1003300000000000 O
   0.1196600000000000    0.5170633333333333    0.4299300000000000 O
   0.3286600000000000    0.5350833333333334    0.4281800000000000 O
   0.8286400000000000    0.7481933333333333    0.9834400000000000 O
   0.6099100000000000    0.7775433333333333    0.0054600000000000 O
   0.9492000000000000    0.7906400000000000    0.0269100000000000 O
   0.8828000000000000    0.6831100000000000    0.9031200000000000 O
   0.6782400000000000    0.7037599999999999    0.8989800000000000 O
   0.6237800000000000    0.9821799999999999    0.5698299999999999 O
   0.8323400000000000    0.9643266666666666    0.5720499999999999 O
   0.6714000000000000    0.9184866666666667    0.4834200000000000 O
   0.8901300000000000    0.8891233333333333    0.5054100000000000 O
   0.5507800000000000    0.8760066666666666    0.5266400000000000 O
   0.6171500000000000    0.9835566666666666    0.4031400000000000 O
   0.8217300000000000    0.9629233333333332    0.3989800000000000 O
   0.8762000000000000    0.6844800000000000    0.0698100000000000 O
   0.6676500000000000    0.7023433333333333    0.0720700000000000 O
   0.1715100000000000    0.9139400000000000    0.5168800000000000 O
   0.3916200000000000    0.9434199999999999    0.4946600000000000 O
   0.0522700000000000    0.9558399999999999    0.4719400000000000 O
   0.1162400000000000    0.8490533333333332    0.5968300000000000 O
   0.3217800000000000    0.8696699999999999    0.6003200000000000 O
   0.3804800000000000    0.8162266666666667    0.9298500000000000 O
   0.1714400000000000    0.7982266666666666    0.9281199999999999 O
   0.3838200000000000    0.8175999999999999    0.0968600000000000 O
   0.1782700000000000    0.7969866666666666    0.1003300000000000 O
   0.1196600000000000    0.8503966666666666    0.4299300000000000 O
   0.3286600000000000    0.8684166666666666    0.4281800000000000 O
