Cd12 H92 C110 N55 Cl12 O2
1.0
  13.1633492753437569    0.0000000000000000   -4.2777934563635736
  -5.8882588095201083   11.7726084284582218   -4.2787124210798835
   0.0000000000000000    0.0000000000000000   27.6819999999999986
Cd H C N Cl O
12 92 110 55 12 2
direct
   0.0449200000000000    0.5385100000000000    0.7005900000000000 Cd
   0.4011600000000000    0.0449200000000000    0.7692550000000000 Cd
   0.5384800000000000    0.4011700000000000    0.0224500000000000 Cd
   0.0449200000000000    0.5385100000000000    0.2005900000000000 Cd
   0.4011600000000000    0.0449200000000000    0.2692550000000000 Cd
   0.5384800000000000    0.4011700000000000    0.5224500000000000 Cd
   0.9550500000000000    0.4615000000000000    0.2994250000000000 Cd
   0.5988100000000000    0.9550999999999999    0.2307550000000000 Cd
   0.4614800000000000    0.5988400000000000    0.9775600000000000 Cd
   0.9550500000000000    0.4615000000000000    0.7994250000000001 Cd
   0.5988100000000000    0.9550999999999999    0.7307550000000000 Cd
   0.4614800000000000    0.5988400000000000    0.4775600000000000 Cd
   0.2373600000000000    0.9460800000000000    0.6246200000000000 H
   0.1160300000000000    0.8062700000000000    0.5229700000000000 H
   0.9832000000000000    0.5400600000000000    0.5685000000000000 H
   0.9911700000000000    0.6067700000000000    0.4953300000000000 H
   0.2988600000000000    0.9095600000000000    0.8197350000000000 H
   0.1632700000000000    0.8043600000000000    0.8012500000000000 H
   0.2873700000000000    0.5147100000000000    0.7932049999999999 H
   0.4498500000000000    0.8710800000000000    0.8786050000000001 H
   0.2492100000000000    0.2373600000000000    0.9730400000000000 H
   0.0459200000000000    0.1160200000000000    0.9031000000000000 H
   0.1378000000000000    0.9832400000000000    0.7700000000000000 H
   0.9905900000000000    0.9912000000000000    0.8033800000000000 H
   0.6394400000000000    0.2988800000000000    0.9547850000000000 H
   0.6025100000000000    0.1632800000000000    0.9021850000000000 H
   0.5863699999999999    0.2873800000000000    0.7573550000000000 H
   0.7571600000000001    0.4498800000000000    0.9355450000000001 H
   0.9460300000000000    0.2492300000000000    0.1186850000000000 H
   0.8062400000000000    0.0459300000000000    0.0580150000000000 H
   0.5400300000000000    0.1378100000000000    0.9916000000000000 H
   0.6067399999999999    0.9906400000000000    0.9956100000000000 H
   0.9095200000000000    0.6394600000000000    0.1494350000000000 H
   0.8043300000000000    0.6025199999999999    0.0816350000000000 H
   0.5146700000000000    0.5863900000000000    0.1436850000000000 H
   0.8710300000000000    0.7571900000000000    0.2249350000000000 H
   0.2373600000000000    0.9460800000000000    0.1246200000000000 H
   0.1160300000000000    0.8062700000000000    0.0229700000000000 H
   0.9832000000000000    0.5400600000000000    0.0685000000000000 H
   0.9911700000000000    0.6067700000000000    0.9953300000000000 H
   0.2988600000000000    0.9095600000000000    0.3197350000000000 H
   0.1632700000000000    0.8043600000000000    0.3012500000000000 H
   0.2873700000000000    0.5147100000000000    0.2932050000000000 H
   0.4498500000000000    0.8710800000000000    0.3786050000000000 H
   0.2492100000000000    0.2373600000000000    0.4730400000000000 H
   0.0459200000000000    0.1160200000000000    0.4031000000000000 H
   0.1378000000000000    0.9832400000000000    0.2700000000000000 H
   0.9905900000000000    0.9912000000000000    0.3033800000000000 H
   0.6394400000000000    0.2988800000000000    0.4547850000000000 H
   0.6025100000000000    0.1632800000000000    0.4021850000000000 H
   0.5863699999999999    0.2873800000000000    0.2573550000000000 H
   0.7571600000000001    0.4498800000000000    0.4355450000000000 H
   0.9460300000000000    0.2492300000000000    0.6186850000000000 H
   0.8062400000000000    0.0459300000000000    0.5580150000000000 H
   0.5400300000000000    0.1378100000000000    0.4916000000000000 H
   0.6067399999999999    0.9906400000000000    0.4956100000000000 H
   0.9095200000000000    0.6394600000000000    0.6494350000000000 H
   0.8043300000000000    0.6025199999999999    0.5816350000000000 H
   0.5146700000000000    0.5863900000000000    0.6436850000000001 H
   0.8710300000000000    0.7571900000000000    0.7249350000000000 H
   0.4024583252953172    0.7124270539658003    0.1940339478328511 H
   0.4023569735031680    0.7260961128066038    0.1409993052487415 H
   0.7626200000000000    0.0539400000000000    0.3753900000000000 H
   0.8839399999999999    0.1937400000000000    0.4770400000000000 H
   0.0167600000000000    0.4599600000000000    0.4311150000000000 H
   0.0088000000000000    0.3932500000000000    0.5046800000000000 H
   0.7011100000000000    0.0904500000000000    0.1802750000000000 H
   0.8367000000000000    0.1956500000000000    0.1987500000000000 H
   0.7126000000000000    0.4853100000000000    0.2068100000000000 H
   0.5501200000000001    0.1289400000000000    0.1214050000000000 H
   0.6945672850180891    0.8898844722240083    0.1483444549362336 H
   0.5627860951295084    0.8231410682886541    0.1154000754963399 H
   0.0539400000000000    0.7507900000000000    0.8813250000000000 H
   0.1937300000000000    0.9540800000000000    0.9419950000000000 H
   0.4599400000000000    0.8622100000000000    0.0083850000000000 H
   0.3932300000000000    0.0093700000000000    0.0044000000000000 H
   0.0904500000000000    0.3605500000000000    0.8505750000000001 H
   0.1956400000000000    0.3974900000000000    0.9183749999999999 H
   0.4853000000000000    0.4136300000000000    0.8563000000000001 H
   0.1289400000000000    0.2428200000000000    0.7750750000000000 H
   0.7626200000000000    0.0539400000000000    0.8753900000000000 H
   0.8839399999999999    0.1937400000000000    0.9770400000000000 H
   0.0167600000000000    0.4599600000000000    0.9311150000000000 H
   0.0088000000000000    0.3932500000000000    0.0046800000000000 H
   0.7011100000000000    0.0904500000000000    0.6802750000000000 H
   0.8367000000000000    0.1956500000000000    0.6987500000000000 H
   0.7126000000000000    0.4853100000000000    0.7068099999999999 H
   0.5501200000000001    0.1289400000000000    0.6214050000000000 H
   0.7507600000000000    0.7626500000000001    0.5269750000000000 H
   0.9540500000000000    0.8839900000000001    0.5968750000000000 H
   0.8621700000000000    0.0167800000000000    0.7299850000000000 H
   0.0093800000000000    0.0088200000000000    0.6966300000000000 H
   0.3605300000000000    0.7011300000000000    0.5452250000000000 H
   0.3974600000000000    0.8367300000000000    0.5978250000000001 H
   0.4136000000000000    0.7126400000000001    0.7426550000000001 H
   0.2428100000000000    0.5501300000000000    0.5644700000000000 H
   0.0539400000000000    0.7507900000000000    0.3813250000000000 H
   0.1937300000000000    0.9540800000000000    0.4419950000000000 H
   0.4599400000000000    0.8622100000000000    0.5083850000000000 H
   0.3932300000000000    0.0093700000000000    0.5044000000000000 H
   0.0904500000000000    0.3605500000000000    0.3505750000000000 H
   0.1956400000000000    0.3974900000000000    0.4183750000000000 H
   0.4853000000000000    0.4136300000000000    0.3563000000000000 H
   0.1289400000000000    0.2428200000000000    0.2750750000000000 H
   0.1821100000000000    0.8587500000000000    0.6128600000000000 C
   0.1139300000000000    0.7798100000000000    0.5560300000000000 C
   0.0379000000000000    0.6279200000000000    0.5809150000000000 C
   0.0430400000000000    0.6659100000000000    0.5402700000000000 C
   0.1990400000000000    0.7977600000000000    0.7305699999999999 C
   0.1063600000000000    0.7068500000000000    0.6381749999999999 C
   0.1791500000000000    0.8211800000000000    0.6542200000000000 C
   0.2365300000000000    0.8208000000000000    0.7916500000000000 C
   0.3070300000000000    0.6035100000000000    0.8061650000000000 C
   0.3904900000000000    0.7828800000000000    0.8499150000000000 C
   0.2256900000000000    0.1821200000000000    0.9293750000000001 C
   0.1120400000000000    0.1139200000000000    0.8899100000000000 C
   0.1618200000000000    0.0378900000000000    0.8139500000000000 C
   0.0805300000000000    0.0430300000000000    0.8329550000000000 C
   0.4611200000000000    0.1990500000000000    0.8988849999999999 C
   0.2763400000000000    0.1063700000000000    0.8534250000000000 C
   0.3084200000000000    0.1791500000000000    0.9105500000000000 C
   0.5832800000000000    0.2365400000000000    0.9104050000000000 C
   0.6123000000000000    0.3070400000000000    0.8017600000000000 C
   0.6997900000000000    0.3905100000000000    0.8914450000000000 C
   0.8587200000000000    0.2257100000000000    0.0910600000000000 C
   0.7797800000000000    0.1120500000000000    0.0569650000000000 C
   0.6279000000000000    0.1618300000000000    0.0189450000000000 C
   0.6658800000000000    0.0805400000000000    0.0215150000000000 C
   0.7977300000000001    0.4611300000000000    0.0995200000000000 C
   0.7068200000000000    0.2763500000000000    0.0531800000000000 C
   0.8211500000000000    0.3084300000000000    0.0895750000000000 C
   0.8207700000000000    0.5833000000000000    0.1182650000000000 C
   0.6034700000000000    0.6123200000000000    0.1535150000000000 C
   0.7828400000000000    0.6998200000000000    0.1952500000000000 C
   0.1821100000000000    0.8587500000000000    0.1128600000000000 C
   0.1139300000000000    0.7798100000000000    0.0560300000000000 C
   0.0379000000000000    0.6279200000000000    0.0809150000000000 C
   0.0430400000000000    0.6659100000000000    0.0402700000000000 C
   0.1990400000000000    0.7977600000000000    0.2305700000000000 C
   0.1063600000000000    0.7068500000000000    0.1381750000000000 C
   0.1791500000000000    0.8211800000000000    0.1542200000000000 C
   0.2365300000000000    0.8208000000000000    0.2916500000000000 C
   0.3070300000000000    0.6035100000000000    0.3061650000000000 C
   0.3904900000000000    0.7828800000000000    0.3499150000000000 C
   0.2256900000000000    0.1821200000000000    0.4293750000000000 C
   0.1120400000000000    0.1139200000000000    0.3899100000000000 C
   0.1618200000000000    0.0378900000000000    0.3139500000000000 C
   0.0805300000000000    0.0430300000000000    0.3329550000000000 C
   0.4611200000000000    0.1990500000000000    0.3988850000000000 C
   0.2763400000000000    0.1063700000000000    0.3534250000000000 C
   0.3084200000000000    0.1791500000000000    0.4105500000000000 C
   0.5832800000000000    0.2365400000000000    0.4104050000000000 C
   0.6123000000000000    0.3070400000000000    0.3017600000000000 C
   0.6997900000000000    0.3905100000000000    0.3914450000000000 C
   0.8587200000000000    0.2257100000000000    0.5910600000000000 C
   0.7797800000000000    0.1120500000000000    0.5569650000000000 C
   0.6279000000000000    0.1618300000000000    0.5189450000000000 C
   0.6658800000000000    0.0805400000000000    0.5215150000000000 C
   0.7977300000000001    0.4611300000000000    0.5995200000000001 C
   0.7068200000000000    0.2763500000000000    0.5531800000000000 C
   0.8211500000000000    0.3084300000000000    0.5895750000000000 C
   0.8207700000000000    0.5833000000000000    0.6182650000000000 C
   0.6034700000000000    0.6123200000000000    0.6535150000000001 C
   0.7828400000000000    0.6998200000000000    0.6952500000000000 C
   0.8178600000000000    0.1412600000000000    0.3871550000000000 C
   0.8860400000000000    0.2202000000000000    0.4439800000000000 C
   0.9620700000000000    0.3720900000000000    0.4190000000000000 C
   0.9569299999999999    0.3341000000000000    0.4597400000000000 C
   0.8009300000000000    0.2022500000000000    0.2694450000000000 C
   0.8935999999999999    0.2931700000000000    0.3618350000000000 C
   0.8208299999999999    0.1788300000000000    0.3457900000000000 C
   0.7634400000000000    0.1792100000000000    0.2083600000000000 C
   0.6929400000000000    0.3965000000000000    0.1938450000000000 C
   0.6094800000000000    0.2171300000000000    0.1500950000000000 C
   0.1412500000000000    0.7743100000000001    0.9089499999999999 C
   0.2201900000000000    0.8879600000000000    0.9430450000000000 C
   0.3720700000000000    0.8381900000000000    0.9810650000000001 C
   0.3340900000000000    0.9194800000000000    0.9784950000000000 C
   0.2022400000000000    0.5388800000000000    0.9004500000000000 C
   0.2931500000000000    0.7236600000000000    0.9468300000000001 C
   0.1788300000000000    0.6915800000000000    0.9104350000000000 C
   0.1792000000000000    0.4167200000000000    0.8817450000000000 C
   0.3965000000000000    0.3877000000000000    0.8464950000000000 C
   0.2171300000000000    0.3002000000000000    0.8047599999999999 C
   0.8178600000000000    0.1412600000000000    0.8871550000000000 C
   0.8860400000000000    0.2202000000000000    0.9439800000000000 C
   0.9620700000000000    0.3720900000000000    0.9190000000000000 C
   0.9569299999999999    0.3341000000000000    0.9597400000000000 C
   0.8009300000000000    0.2022500000000000    0.7694449999999999 C
   0.8935999999999999    0.2931700000000000    0.8618350000000000 C
   0.8208299999999999    0.1788300000000000    0.8457900000000000 C
   0.7634400000000000    0.1792100000000000    0.7083600000000000 C
   0.6929400000000000    0.3965000000000000    0.6938450000000000 C
   0.6094800000000000    0.2171300000000000    0.6500950000000000 C
   0.7742800000000000    0.8179000000000000    0.5706350000000000 C
   0.8879300000000000    0.8860900000000000    0.6101050000000000 C
   0.8381500000000000    0.9621200000000000    0.6860500000000000 C
   0.9194400000000000    0.9569900000000000    0.6670550000000000 C
   0.5388500000000001    0.8009700000000000    0.6011299999999999 C
   0.7236300000000000    0.8936600000000000    0.6465850000000000 C
   0.6915500000000000    0.8208600000000000    0.5894200000000001 C
   0.4166900000000000    0.7634700000000000    0.5896050000000000 C
   0.3876700000000000    0.6929700000000000    0.6982500000000000 C
   0.3001800000000000    0.6095000000000000    0.6085650000000000 C
   0.1412500000000000    0.7743100000000001    0.4089500000000000 C
   0.2201900000000000    0.8879600000000000    0.4430450000000000 C
   0.3720700000000000    0.8381900000000000    0.4810650000000000 C
   0.3340900000000000    0.9194800000000000    0.4784950000000000 C
   0.2022400000000000    0.5388800000000000    0.4004500000000000 C
   0.2931500000000000    0.7236600000000000    0.4468300000000000 C
   0.1788300000000000    0.6915800000000000    0.4104350000000000 C
   0.1792000000000000    0.4167200000000000    0.3817450000000000 C
   0.3965000000000000    0.3877000000000000    0.3464950000000000 C
   0.2171300000000000    0.3002000000000000    0.3047600000000000 C
   0.1191500000000000    0.6949200000000000    0.6874450000000000 N
   0.2379100000000000    0.8772799999999999    0.7133500000000000 N
   0.2344000000000000    0.6350000000000000    0.7785550000000000 N
   0.4043600000000000    0.6919200000000000    0.8504499999999999 N
   0.2896000000000000    0.7510000000000000    0.8068700000000000 N
   0.3748700000000000    0.1191500000000000    0.8474600000000000 N
   0.4267500000000000    0.2379200000000000    0.9386399999999999 N
   0.5570900000000000    0.2344100000000000    0.8175000000000000 N
   0.7009300000000001    0.4043800000000000    0.8459650000000001 N
   0.6137100000000000    0.2896200000000000    0.8755050000000000 N
   0.6948900000000000    0.3748900000000000    0.0595750000000000 N
   0.8772500000000000    0.4267700000000000    0.1189500000000000 N
   0.6349600000000000    0.5571000000000000    0.1172000000000000 N
   0.6918800000000001    0.7009500000000000    0.2021850000000000 N
   0.7509600000000000    0.6137300000000000    0.1448000000000000 N
   0.1191500000000000    0.6949200000000000    0.1874450000000000 N
   0.2379100000000000    0.8772799999999999    0.2133500000000000 N
   0.2344000000000000    0.6350000000000000    0.2785550000000000 N
   0.4043600000000000    0.6919200000000000    0.3504500000000000 N
   0.2896000000000000    0.7510000000000000    0.3068700000000000 N
   0.3748700000000000    0.1191500000000000    0.3474600000000000 N
   0.4267500000000000    0.2379200000000000    0.4386400000000000 N
   0.5570900000000000    0.2344100000000000    0.3175000000000000 N
   0.7009300000000001    0.4043800000000000    0.3459650000000000 N
   0.6137100000000000    0.2896200000000000    0.3755050000000000 N
   0.6948900000000000    0.3748900000000000    0.5595750000000000 N
   0.8772500000000000    0.4267700000000000    0.6189500000000000 N
   0.6349600000000000    0.5571000000000000    0.6172000000000000 N
   0.6918800000000001    0.7009500000000000    0.7021850000000001 N
   0.7509600000000000    0.6137300000000000    0.6448000000000000 N
   0.8808200000000000    0.3051000000000000    0.3125700000000000 N
   0.7620500000000000    0.1227400000000000    0.2866250000000000 N
   0.7655700000000000    0.3650200000000000    0.2214550000000000 N
   0.5956100000000000    0.3080900000000000    0.1495250000000000 N
   0.7103699999999999    0.2490200000000000    0.1931450000000000 N
   0.3050800000000000    0.6251300000000000    0.9404000000000000 N
   0.1227200000000000    0.5732500000000000    0.8810549999999999 N
   0.3650100000000000    0.4429100000000000    0.8828150000000000 N
   0.3080900000000000    0.2990600000000000    0.7978250000000000 N
   0.2490100000000000    0.3862800000000000    0.8552100000000000 N
   0.8808200000000000    0.3051000000000000    0.8125700000000000 N
   0.7620500000000000    0.1227400000000000    0.7866250000000000 N
   0.7655700000000000    0.3650200000000000    0.7214550000000000 N
   0.5956100000000000    0.3080900000000000    0.6495250000000000 N
   0.7103699999999999    0.2490200000000000    0.6931450000000000 N
   0.6251000000000000    0.8808600000000000    0.6525500000000000 N
   0.5732200000000000    0.7621000000000000    0.5613700000000000 N
   0.4428800000000000    0.7656100000000000    0.6825100000000000 N
   0.2990400000000000    0.5956399999999999    0.6540450000000000 N
   0.3862600000000000    0.7104000000000000    0.6245100000000000 N
   0.3050800000000000    0.6251300000000000    0.4404000000000000 N
   0.1227200000000000    0.5732500000000000    0.3810550000000000 N
   0.3650100000000000    0.4429100000000000    0.3828150000000000 N
   0.3080900000000000    0.2990600000000000    0.2978250000000000 N
   0.2490100000000000    0.3862800000000000    0.3552100000000000 N
   0.0369300000000000    0.3757300000000000    0.7315000000000000 Cl
   0.0369300000000000    0.3757300000000000    0.2315000000000000 Cl
   0.6242600000000000    0.5369400000000000    0.4815550000000000 Cl
   0.6242600000000000    0.5369400000000000    0.9815550000000000 Cl
   0.4630600000000000    0.0369300000000000    0.1878650000000000 Cl
   0.4630600000000000    0.0369300000000000    0.6878649999999999 Cl
   0.3757000000000000    0.4630700000000000    0.0184600000000000 Cl
   0.3757000000000000    0.4630700000000000    0.5184600000000000 Cl
   0.5369100000000000    0.9630800000000000    0.3121450000000000 Cl
   0.5369100000000000    0.9630800000000000    0.8121450000000000 Cl
   0.9630400000000000    0.6242799999999999    0.7684700000000000 Cl
   0.9630400000000000    0.6242799999999999    0.2684700000000000 Cl
   0.4428800000000000    0.7656100000000000    0.1825100000000000 O
   0.6251000000000000    0.8808600000000000    0.1525500000000000 O
