H2 C7 O6
1.0
  26.0268580692314266    0.0000000000000000   -9.2089262698798464
  -2.4298853860033405    7.4940805173075189   -0.5303114283128935
   0.0000000000000000    0.0000000000000000   20.1859999999999999
H C O
2 7 6
direct
   0.2353400000000000    0.4931000000000000    0.0000000000000000 H
   0.3612925000000000    0.6020200000000000    0.8990850000000000 H
   0.2405925000000000    0.2803000000000000    0.9260150000000000 C
   0.1937850000000000    0.1387700000000000    0.9319050000000000 C
   0.3079350000000000    0.3395300000000000    0.8773750000000000 C
   0.3332000000000000    0.2554500000000000    0.8336800000000000 C
   0.3267675000000000    0.5153700000000000    0.9077450000000000 C
   0.3017175000000000    0.5825600000000000    0.9512849999999999 C
   0.2566425000000000    0.4530100000000000    0.9581950000000000 C
   0.3165550000000000    0.7415800000000000    0.0000000000000000 O
   0.1682125000000000    0.0015000000000000    0.8846800000000000 O
   0.1844350000000000    0.1781400000000000    0.9878050000000000 O
   0.2652975000000000    0.2215000000000000    0.8857100000000000 O
   0.3082275000000000    0.0914800000000000    0.8041300000000000 O
   0.3766600000000000    0.3484500000000000    0.8306300000000000 O
