H7 O5
1.0
  26.0268580692314266    0.0000000000000000   -9.2089262698798464
  -2.4298853860033405    7.4940805173075189   -0.5303114283128935
   0.0000000000000000    0.0000000000000000   20.1859999999999999
H O
7 5
direct
   0.3062918708749901    0.6315855404576866   -0.0336962652282971 H
   0.2737891723314950    0.0098146230508826    0.8002245335299214 H
   0.3987531583746926    0.4722892405604819    0.8472749872864143 H
   0.3375080783298453    0.2556070352587245    0.8261899900554470 H
   0.1743295254477985    0.2026471553685251    0.9394430104329033 H
   0.1588825877762301   -0.0295153212207706    0.8336992332035403 H
   0.1468691962518263    0.0532604253350145    0.7825368865950308 H
   0.3165550000000000    0.7415800000000000    0.0000000000000000 O
   0.3082275000000000    0.0914800000000000    0.8041300000000000 O
   0.3766600000000000    0.3484500000000000    0.8306300000000000 O
   0.1844350000000000    0.1781400000000000    0.9878050000000000 O
   0.1682125000000000    0.0015000000000000    0.8846800000000000 O
