H7 C12 N1 O8
1.0
  14.1319911836612011    0.0000000000000000   -0.0157855922304280
  -0.0116273982173364   17.8787059629333207   -2.7763981873252788
   0.0000000000000000    0.0000000000000000   39.1060000000000016
H C N O
7 12 1 8
direct
   0.3499200000000000    0.3605400000000000    0.2971650000000000 H
   0.4857700000000000    0.2719500000000000    0.2911100000000000 H
   0.5629200000000000    0.3445400000000000    0.1959000000000000 H
   0.4740100000000000    0.5579100000000000    0.2033300000000000 H
   0.3979800000000000    0.5359100000000000    0.2356100000000000 H
   0.5578400000000000    0.4255300000000000    0.1690700000000000 H
   0.4851100000000000    0.4911100000000000    0.1538550000000000 H
   0.2870500000000000    0.4451900000000000    0.2535900000000000 C
   0.3757900000000000    0.4012700000000000    0.2491500000000000 C
   0.3951000000000000    0.3555200000000000    0.2743850000000000 C
   0.4701300000000000    0.3054700000000000    0.2709850000000000 C
   0.5295800000000001    0.3020200000000000    0.2420000000000000 C
   0.6163600000000000    0.2530300000000000    0.2394550000000000 C
   0.5129200000000000    0.3482200000000000    0.2172000000000000 C
   0.4373700000000000    0.3989700000000000    0.2199300000000000 C
   0.4094700000000000    0.5266600000000000    0.2075850000000000 C
   0.3293200000000000    0.5641699999999999    0.1908400000000000 C
   0.4837700000000000    0.4367300000000000    0.1630350000000000 C
   0.4527900000000000    0.3796800000000000    0.1313250000000000 C
   0.4232000000000000    0.4465600000000000    0.1943700000000000 N
   0.2551600000000000    0.4722200000000000    0.2836250000000000 O
   0.2382700000000000    0.4554400000000000    0.2267750000000000 O
   0.6211900000000000    0.2000900000000000    0.2569600000000000 O
   0.6827600000000000    0.2691900000000000    0.2193850000000000 O
   0.2757800000000000    0.5288000000000000    0.1678050000000000 O
   0.3205000000000000    0.6338900000000000    0.2017950000000000 O
   0.3710500000000000    0.3469700000000000    0.1318100000000000 O
   0.5093900000000000    0.3715700000000000    0.1068350000000000 O
