H12 O8
1.0
  14.1319911836612011    0.0000000000000000   -0.0157855922304280
  -0.0116273982173364   17.8787059629333207   -2.7763981873252788
   0.0000000000000000    0.0000000000000000   39.1060000000000016
H O
12 8
direct
   0.6835246597987684    0.3077620919254039    0.2046822555882034 H
   0.5753510847975636    0.1822594929393534    0.2722459607307092 H
   0.6220920247695723    0.2455912574048921    0.2396160260373409 H
   0.3630829053239397    0.6272425310471152    0.1964985009194860 H
   0.3571630438541692    0.6752311537623377    0.2138448977512526 H
   0.2734361185124683    0.4649506216092987    0.2762077641270968 H
   0.2724124744990148    0.4768859046754343    0.3078766814079488 H
   0.2830636439103856    0.4376232000673022    0.2085958104601915 H
   0.3401151754364858    0.5187568599643670    0.1598029345009020 H
   0.4326183209555809    0.3716078734824694    0.1314446875989300 H
   0.4631471570318738    0.4400769134287053    0.1737039249530499 H
   0.4140912000602220    0.4997001948416765    0.2031371370141417 H
   0.6827600000000000    0.2691900000000000    0.2193850000000000 O
   0.6211900000000000    0.2000900000000000    0.2569600000000000 O
   0.3205000000000000    0.6338900000000000    0.2017950000000000 O
   0.2551600000000000    0.4722200000000000    0.2836250000000000 O
   0.2382700000000000    0.4554400000000000    0.2267750000000000 O
   0.2757800000000000    0.5288000000000000    0.1678050000000000 O
   0.3710500000000000    0.3469700000000000    0.1318100000000000 O
   0.4232000000000000    0.4465600000000000    0.1943700000000000 O
