Cd32 H181 C260 N31 O128
1.0
  14.1319911836612011    0.0000000000000000   -0.0157855922304280
  -0.0116273982173364   17.8787059629333207   -2.7763981873252788
   0.0000000000000000    0.0000000000000000   39.1060000000000016
Cd H C N O
32 181 260 31 128
direct
   0.8070200000000000    0.3351000000000000    0.8248249999999999 Cd
   0.7357800000000000    0.6005200000000001    0.8305700000000000 Cd
   0.8069600000000000    0.6648800000000000    0.9251000000000000 Cd
   0.7355600000000000    0.3996000000000000    0.9194300000000000 Cd
   0.2088400000000000    0.8163400000000000    0.7684850000000000 Cd
   0.2084500000000000    0.1835700000000000    0.9816199999999999 Cd
   0.8739900000000000    0.5237300000000000    0.0100000000000000 Cd
   0.8738000000000000    0.4763000000000000    0.7400500000000000 Cd
   0.1930000000000000    0.6648500000000001    0.6751000000000000 Cd
   0.2641900000000000    0.3995400000000000    0.6694450000000001 Cd
   0.1931200000000000    0.3351100000000000    0.5748650000000000 Cd
   0.2644800000000000    0.6004500000000000    0.5805650000000000 Cd
   0.7911400000000000    0.1836400000000000    0.7314499999999999 Cd
   0.7915800000000000    0.8164500000000000    0.5183550000000000 Cd
   0.1260400000000000    0.4763200000000000    0.4900300000000000 Cd
   0.1262300000000000    0.5238000000000000    0.7599700000000000 Cd
   0.8069600000000000    0.6648800000000000    0.4251000000000000 Cd
   0.7355600000000000    0.3996000000000000    0.4194300000000000 Cd
   0.2641900000000000    0.3995400000000000    0.1694450000000000 Cd
   0.8070200000000000    0.3351000000000000    0.3248250000000000 Cd
   0.1930000000000000    0.6648500000000001    0.1751000000000000 Cd
   0.7357800000000000    0.6005200000000001    0.3305700000000000 Cd
   0.1931200000000000    0.3351100000000000    0.0748650000000000 Cd
   0.2644800000000000    0.6004500000000000    0.0805650000000000 Cd
   0.7911400000000000    0.1836400000000000    0.2314500000000000 Cd
   0.2088400000000000    0.8163400000000000    0.2684850000000000 Cd
   0.7915800000000000    0.8164500000000000    0.0183550000000000 Cd
   0.2084500000000000    0.1835700000000000    0.4816200000000000 Cd
   0.1260400000000000    0.4763200000000000    0.9900300000000000 Cd
   0.8739900000000000    0.5237300000000000    0.5100000000000000 Cd
   0.1262300000000000    0.5238000000000000    0.2599700000000000 Cd
   0.8738000000000000    0.4763000000000000    0.2400500000000000 Cd
   0.0768500000000000    0.1720900000000000    0.7207550000000000 H
   0.3779200000000000    0.1412700000000000    0.7024049999999999 H
   0.0907500000000000    0.2927500000000000    0.6989100000000000 H
   0.3773700000000000    0.2602800000000000    0.6785300000000000 H
   0.1039300000000000    0.0990000000000000    0.7613799999999999 H
   0.3423500000000000    0.0230800000000000    0.6955700000000000 H
   0.1101800000000000    0.9763800000000000    0.7829600000000000 H
   0.3380200000000000    0.9040800000000000    0.7205000000000000 H
   0.0771400000000000    0.8277500000000000    0.0292400000000000 H
   0.3783400000000000    0.8586900000000000    0.0476150000000000 H
   0.0910300000000000    0.7071700000000000    0.0510900000000000 H
   0.3778200000000000    0.7396800000000000    0.0714950000000000 H
   0.3427900000000000    0.9769200000000000    0.0544750000000000 H
   0.3382200000000000    0.0959700000000000    0.0294950000000000 H
   0.1040600000000000    0.9008100000000000    0.9886100000000000 H
   0.1101000000000000    0.0234600000000000    0.9670750000000000 H
   0.5148600000000000    0.5088700000000000    0.8461099999999999 H
   0.4421400000000000    0.5744500000000000    0.8308949999999999 H
   0.6021000000000000    0.4641500000000000    0.7643650000000000 H
   0.5260400000000000    0.4421000000000000    0.7966250000000000 H
   0.4370600000000000    0.6554800000000000    0.8040400000000000 H
   0.5141900000000000    0.7280600000000000    0.7088700000000000 H
   0.6500700000000000    0.6394900000000000    0.7028200000000000 H
   0.0479500000000000    0.7119400000000000    0.9674750000000000 H
   0.1086700000000000    0.6318900000000000    0.9473000000000000 H
   0.9957000000000000    0.5501100000000000    0.9046449999999999 H
   0.0790300000000000    0.5968400000000000    0.8815500000000001 H
   0.0667700000000000    0.6899300000000000    0.8561650000000001 H
   0.0517800000000000    0.9279800000000000    0.8742099999999999 H
   0.9775400000000000    0.9240300000000000    0.9322300000000000 H
   0.0481000000000000    0.2884000000000000    0.7827600000000000 H
   0.1084900000000000    0.3686000000000000    0.8030500000000000 H
   0.9958399999999999    0.4499900000000000    0.8456100000000000 H
   0.0788800000000000    0.4030500000000000    0.8687700000000000 H
   0.0654400000000000    0.3098600000000000    0.8941550000000000 H
   0.0511100000000000    0.0717700000000000    0.8756400000000000 H
   0.9774700000000000    0.0760500000000000    0.8149999999999999 H
   0.5144800000000000    0.4911400000000000    0.9038250000000000 H
   0.4418300000000000    0.4254800000000000    0.9189950000000000 H
   0.6020600000000000    0.5359500000000000    0.9855950000000000 H
   0.5260000000000000    0.5579700000000000    0.9532750000000000 H
   0.4367100000000000    0.3445500000000000    0.9458949999999999 H
   0.5142300000000000    0.2720100000000000    0.0410900000000000 H
   0.6502200000000000    0.3606300000000000    0.0471600000000000 H
   0.9228900000000000    0.1722600000000000    0.4707450000000000 H
   0.6216900000000000    0.1413400000000000    0.4523550000000000 H
   0.9090100000000000    0.2928700000000000    0.4489200000000000 H
   0.6222100000000000    0.2603900000000000    0.4285100000000000 H
   0.8959800000000000    0.0992000000000000    0.5113600000000000 H
   0.6572200000000000    0.0231000000000000    0.4455050000000000 H
   0.8899400000000000    0.9765500000000000    0.5328950000000000 H
   0.6617900000000000    0.9040500000000000    0.4704850000000000 H
   0.9231400000000000    0.8279000000000000    0.7792000000000000 H
   0.6220800000000000    0.8587399999999999    0.7975850000000000 H
   0.9092500000000000    0.7072800000000000    0.8011100000000000 H
   0.6226500000000000    0.7397800000000000    0.8215000000000000 H
   0.6576600000000000    0.9769200000000000    0.8044050000000000 H
   0.6619699999999999    0.0959000000000000    0.7793650000000000 H
   0.8960399999999999    0.9009700000000000    0.7385500000000000 H
   0.8897800000000000    0.0235800000000000    0.7169900000000000 H
   0.4851100000000000    0.4911100000000000    0.6538550000000000 H
   0.5578400000000000    0.4255300000000000    0.6690700000000001 H
   0.3979800000000000    0.5359100000000000    0.7356100000000000 H
   0.4740100000000000    0.5579100000000000    0.7033300000000000 H
   0.4857700000000000    0.2719500000000000    0.7911100000000000 H
   0.3499200000000000    0.3605400000000000    0.7971650000000000 H
   0.5629200000000000    0.3445400000000000    0.6959000000000000 H
   0.9518300000000000    0.7115500000000000    0.7171900000000000 H
   0.8915200000000000    0.6313000000000000    0.6969050000000000 H
   0.9211000000000000    0.5969200000000000    0.6311850000000000 H
   0.0041300000000000    0.5499700000000000    0.6543450000000000 H
   0.9345500000000000    0.6901400000000000    0.6058000000000000 H
   0.9489500000000000    0.9282200000000000    0.6243450000000000 H
   0.0226000000000000    0.9239000000000001    0.6824850000000000 H
   0.9521400000000000    0.2880300000000000    0.5325050000000000 H
   0.8913700000000000    0.3680500000000000    0.5526799999999999 H
   0.9210199999999999    0.4031400000000000    0.6184300000000000 H
   0.0043500000000000    0.4498600000000000    0.5953300000000000 H
   0.9333000000000000    0.3100500000000000    0.6438250000000000 H
   0.9482699999999999    0.0720100000000000    0.6257750000000000 H
   0.0225200000000000    0.0759500000000000    0.5677550000000000 H
   0.4854800000000000    0.5088700000000000    0.5961600000000000 H
   0.5581800000000000    0.5745200000000000    0.5809900000000000 H
   0.3979300000000000    0.4641400000000000    0.5143799999999999 H
   0.4739900000000000    0.4420800000000000    0.5466850000000000 H
   0.5633300000000000    0.6554800000000000    0.5540950000000000 H
   0.4858500000000000    0.7280100000000000    0.4588950000000000 H
   0.3498300000000000    0.6394200000000000    0.4528250000000000 H
   0.6835246597987684    0.3077620919254039    0.2046822555882034 H
   0.5753510847975636    0.1822594929393534    0.2722459607307092 H
   0.6220920247695723    0.2455912574048921    0.2396160260373409 H
   0.9231400000000000    0.8279000000000000    0.2792000000000000 H
   0.6220800000000000    0.8587399999999999    0.2975850000000000 H
   0.9092500000000000    0.7072800000000000    0.3011100000000000 H
   0.6226500000000000    0.7397800000000000    0.3215000000000000 H
   0.6576600000000000    0.9769200000000000    0.3044050000000000 H
   0.6619699999999999    0.0959000000000000    0.2793650000000000 H
   0.8960399999999999    0.9009700000000000    0.2385500000000000 H
   0.8897800000000000    0.0235800000000000    0.2169900000000000 H
   0.0768500000000000    0.1720900000000000    0.2207550000000000 H
   0.3779200000000000    0.1412700000000000    0.2024050000000000 H
   0.0907500000000000    0.2927500000000000    0.1989100000000000 H
   0.3773700000000000    0.2602800000000000    0.1785300000000000 H
   0.1039300000000000    0.0990000000000000    0.2613800000000000 H
   0.3423500000000000    0.0230800000000000    0.1955700000000000 H
   0.1101800000000000    0.9763800000000000    0.2829600000000000 H
   0.3380200000000000    0.9040800000000000    0.2205000000000000 H
   0.0771400000000000    0.8277500000000000    0.5292400000000000 H
   0.3783400000000000    0.8586900000000000    0.5476150000000000 H
   0.0910300000000000    0.7071700000000000    0.5510900000000000 H
   0.3778200000000000    0.7396800000000000    0.5714950000000000 H
   0.3427900000000000    0.9769200000000000    0.5544750000000001 H
   0.3382200000000000    0.0959700000000000    0.5294950000000000 H
   0.1040600000000000    0.9008100000000000    0.4886100000000000 H
   0.1101000000000000    0.0234600000000000    0.4670750000000000 H
   0.9228900000000000    0.1722600000000000    0.9707450000000000 H
   0.6216900000000000    0.1413400000000000    0.9523550000000001 H
   0.9090100000000000    0.2928700000000000    0.9489200000000000 H
   0.6222100000000000    0.2603900000000000    0.9285099999999999 H
   0.8959800000000000    0.0992000000000000    0.0113600000000000 H
   0.6572200000000000    0.0231000000000000    0.9455050000000000 H
   0.8899400000000000    0.9765500000000000    0.0328950000000000 H
   0.6617900000000000    0.9040500000000000    0.9704850000000000 H
   0.0479500000000000    0.7119400000000000    0.4674750000000000 H
   0.1086700000000000    0.6318900000000000    0.4473000000000000 H
   0.9957000000000000    0.5501100000000000    0.4046450000000000 H
   0.0790300000000000    0.5968400000000000    0.3815500000000000 H
   0.0667700000000000    0.6899300000000000    0.3561650000000000 H
   0.0517800000000000    0.9279800000000000    0.3742100000000000 H
   0.9775400000000000    0.9240300000000000    0.4322300000000000 H
   0.0481000000000000    0.2884000000000000    0.2827600000000000 H
   0.1084900000000000    0.3686000000000000    0.3030500000000000 H
   0.9958399999999999    0.4499900000000000    0.3456100000000000 H
   0.0788800000000000    0.4030500000000000    0.3687700000000000 H
   0.0654400000000000    0.3098600000000000    0.3941550000000000 H
   0.0511100000000000    0.0717700000000000    0.3756400000000000 H
   0.9774700000000000    0.0760500000000000    0.3150000000000000 H
   0.5144800000000000    0.4911400000000000    0.4038250000000000 H
   0.4418300000000000    0.4254800000000000    0.4189950000000000 H
   0.6020600000000000    0.5359500000000000    0.4855950000000000 H
   0.5260000000000000    0.5579700000000000    0.4532750000000000 H
   0.4367100000000000    0.3445500000000000    0.4458950000000000 H
   0.5142300000000000    0.2720100000000000    0.5410900000000000 H
   0.6502200000000000    0.3606300000000000    0.5471600000000000 H
   0.2734361185124683    0.4649506216092987    0.2762077641270968 H
   0.2724124744990148    0.4768859046754343    0.3078766814079488 H
   0.2830636439103856    0.4376232000673022    0.2085958104601915 H
   0.3401151754364858    0.5187568599643670    0.1598029345009020 H
   0.4326183209555809    0.3716078734824694    0.1314446875989300 H
   0.4631471570318738    0.4400769134287053    0.1737039249530499 H
   0.4140912000602220    0.4997001948416765    0.2031371370141417 H
   0.3630829053239397    0.6272425310471152    0.1964985009194860 H
   0.3571630438541692    0.6752311537623377    0.2138448977512526 H
   0.5148600000000000    0.5088700000000000    0.3461100000000000 H
   0.4421400000000000    0.5744500000000000    0.3308950000000000 H
   0.6021000000000000    0.4641500000000000    0.2643650000000000 H
   0.5260400000000000    0.4421000000000000    0.2966250000000000 H
   0.4370600000000000    0.6554800000000000    0.3040400000000000 H
   0.5141900000000000    0.7280600000000000    0.2088700000000000 H
   0.6500700000000000    0.6394900000000000    0.2028200000000000 H
   0.9518300000000000    0.7115500000000000    0.2171900000000000 H
   0.8915200000000000    0.6313000000000000    0.1969050000000000 H
   0.9211000000000000    0.5969200000000000    0.1311850000000000 H
   0.0041300000000000    0.5499700000000000    0.1543450000000000 H
   0.9345500000000000    0.6901400000000000    0.1058000000000000 H
   0.9489500000000000    0.9282200000000000    0.1243450000000000 H
   0.0226000000000000    0.9239000000000001    0.1824850000000000 H
   0.9521400000000000    0.2880300000000000    0.0325050000000000 H
   0.8913700000000000    0.3680500000000000    0.0526800000000000 H
   0.9210199999999999    0.4031400000000000    0.1184300000000000 H
   0.0043500000000000    0.4498600000000000    0.0953300000000000 H
   0.9333000000000000    0.3100500000000000    0.1438250000000000 H
   0.9482699999999999    0.0720100000000000    0.1257750000000000 H
   0.0225200000000000    0.0759500000000000    0.0677550000000000 H
   0.4854800000000000    0.5088700000000000    0.0961600000000000 H
   0.5581800000000000    0.5745200000000000    0.0809900000000000 H
   0.3979300000000000    0.4641400000000000    0.0143800000000000 H
   0.4739900000000000    0.4420800000000000    0.0466850000000000 H
   0.5633300000000000    0.6554800000000000    0.0540950000000000 H
   0.4858500000000000    0.7280100000000000    0.9588950000000001 H
   0.3498300000000000    0.6394200000000000    0.9528250000000000 H
   0.1457100000000000    0.1896000000000000    0.7123300000000000 C
   0.3117900000000000    0.1717200000000000    0.7014100000000000 C
   0.1530100000000000    0.2575000000000000    0.6999150000000001 C
   0.3127600000000000    0.2392400000000000    0.6887550000000000 C
   0.2268100000000000    0.1449800000000000    0.7134950000000000 C
   0.1578400000000000    0.0581300000000000    0.7515550000000000 C
   0.2901400000000000    0.0160700000000000    0.7152849999999999 C
   0.1603600000000000    0.9898300000000000    0.7636800000000000 C
   0.2880200000000000    0.9492699999999999    0.7286800000000000 C
   0.2244400000000000    0.0726700000000000    0.7267500000000000 C
   0.1460400000000000    0.8102900000000000    0.0376650000000000 C
   0.3122000000000000    0.8282200000000000    0.0486000000000000 C
   0.1533400000000000    0.7423900000000000    0.0500500000000000 C
   0.3131800000000000    0.7607000000000000    0.0612550000000000 C
   0.2271700000000000    0.8549200000000000    0.0365050000000000 C
   0.2904800000000000    0.9839000000000000    0.0347550000000000 C
   0.2882200000000000    0.0507400000000000    0.0213900000000000 C
   0.1580000000000000    0.9417200000000000    0.9984450000000000 C
   0.1603900000000000    0.0000000000000000    0.9863550000000000 C
   0.2247300000000000    0.9272400000000000    0.0232300000000000 C
   0.5471400000000000    0.6203000000000000    0.8686550000000000 C
   0.6707200000000000    0.4358700000000000    0.8091349999999999 C
   0.3836300000000000    0.7469900000000000    0.7605299999999999 C
   0.5162099999999999    0.5632600000000000    0.8369400000000000 C
   0.7129900000000000    0.5549100000000000    0.7464000000000000 C
   0.5905700000000000    0.4733700000000000    0.7923899999999999 C
   0.4870700000000000    0.6518100000000000    0.7827649999999999 C
   0.5298500000000000    0.6945500000000000    0.7289950000000001 C
   0.6048900000000000    0.6445100000000000    0.7255950000000000 C
   0.4704100000000000    0.6980000000000000    0.7577849999999999 C
   0.5626300000000000    0.6010600000000000    0.7800549999999999 C
   0.6242200000000000    0.5987800000000000    0.7508400000000000 C
   0.9787200000000000    0.6111900000000000    0.9727950000000001 C
   0.1015600000000000    0.8080600000000000    0.8263950000000000 C
   0.9280400000000000    0.8073399999999999    0.9606250000000001 C
   0.0377100000000000    0.6571700000000000    0.9513199999999999 C
   0.9352500000000000    0.5942400000000000    0.8625000000000000 C
   0.0000000000000000    0.6000200000000000    0.8921250000000001 C
   0.9802900000000000    0.8042200000000000    0.9270900000000000 C
   0.0000000000000000    0.7369400000000000    0.9063749999999999 C
   0.0462600000000000    0.7398900000000000    0.8736750000000000 C
   0.0377700000000000    0.8750300000000000    0.8832300000000000 C
   0.9979300000000000    0.8725900000000000    0.9155500000000000 C
   0.0600700000000000    0.8081700000000001    0.8618049999999999 C
   0.9786700000000000    0.3890100000000000    0.7773399999999999 C
   0.1000800000000000    0.1915100000000000    0.9237850000000001 C
   0.9280500000000000    0.1928700000000000    0.7892000000000000 C
   0.0376100000000000    0.3431300000000000    0.7989100000000000 C
   0.9350600000000000    0.4058000000000000    0.8876299999999999 C
   0.0000000000000000    0.4000100000000000    0.8581000000000000 C
   0.9800900000000000    0.1958900000000000    0.8228350000000000 C
   0.0000000000000000    0.2630900000000000    0.8437300000000000 C
   0.0453000000000000    0.2599500000000000    0.8765050000000000 C
   0.0371400000000000    0.1247900000000000    0.8666900000000000 C
   0.9975800000000000    0.1274200000000000    0.8343149999999999 C
   0.0589400000000000    0.1915600000000000    0.8883000000000000 C
   0.5158800000000000    0.4367600000000000    0.9099999999999999 C
   0.5467500000000000    0.3797400000000000    0.8813000000000000 C
   0.6706700000000000    0.5641900000000000    0.9408500000000000 C
   0.3834000000000000    0.2530200000000000    0.9894400000000000 C
   0.7129500000000000    0.4452500000000000    0.0036000000000000 C
   0.5904800000000000    0.5266999999999999    0.9575650000000000 C
   0.4867900000000000    0.3482500000000000    0.9671850000000000 C
   0.5298000000000000    0.3055500000000000    0.0209500000000000 C
   0.6049000000000000    0.3556000000000000    0.0243800000000000 C
   0.4702200000000000    0.3020500000000000    0.9921500000000000 C
   0.5624300000000000    0.3990100000000000    0.9699000000000000 C
   0.6241300000000000    0.4013400000000000    0.9991399999999999 C
   0.8539900000000000    0.1897400000000000    0.4623250000000000 C
   0.6878400000000000    0.1718200000000000    0.4513800000000000 C
   0.8466900000000001    0.2576500000000000    0.4499200000000000 C
   0.6868500000000000    0.2393600000000000    0.4387450000000000 C
   0.7728600000000000    0.1451100000000000    0.4634750000000000 C
   0.8420299999999999    0.0582900000000000    0.5015250000000000 C
   0.7095399999999999    0.0161200000000000    0.4652250000000000 C
   0.8396500000000000    0.9899600000000000    0.5136150000000000 C
   0.7118000000000000    0.9492800000000000    0.4785850000000000 C
   0.7753000000000000    0.0727800000000000    0.4767450000000000 C
   0.8542900000000000    0.8104000000000000    0.7876600000000000 C
   0.6882200000000001    0.8283000000000000    0.7985850000000000 C
   0.8470100000000000    0.7425300000000000    0.8001000000000000 C
   0.6872500000000000    0.7608100000000000    0.8112650000000000 C
   0.7732000000000000    0.8550300000000000    0.7864949999999999 C
   0.7098600000000000    0.9839200000000000    0.7846850000000001 C
   0.7119600000000000    0.0507100000000000    0.7712800000000000 C
   0.8421500000000000    0.9418500000000000    0.7484100000000000 C
   0.8396100000000000    0.0000000000000000    0.7362750000000000 C
   0.7755500000000000    0.9273100000000000    0.7731800000000000 C
   0.4527900000000000    0.3796800000000000    0.6313250000000000 C
   0.3293200000000000    0.5641699999999999    0.6908400000000000 C
   0.6163600000000000    0.2530300000000000    0.7394550000000000 C
   0.4837700000000000    0.4367300000000000    0.6630350000000000 C
   0.2870500000000000    0.4451900000000000    0.7535900000000000 C
   0.4094700000000000    0.5266600000000000    0.7075850000000000 C
   0.4701300000000000    0.3054700000000000    0.7709850000000000 C
   0.3951000000000000    0.3555200000000000    0.7743850000000000 C
   0.5129200000000000    0.3482200000000000    0.7172000000000001 C
   0.5295800000000001    0.3020200000000000    0.7420000000000000 C
   0.4373700000000000    0.3989700000000000    0.7199300000000000 C
   0.3757900000000000    0.4012700000000000    0.7491500000000000 C
   0.0649200000000000    0.5941900000000000    0.6123250000000000 C
   0.0213600000000000    0.6110000000000000    0.7226350000000000 C
   0.8999400000000000    0.8085000000000000    0.5761499999999999 C
   0.0719800000000000    0.8070500000000000    0.7107450000000000 C
   0.9623800000000000    0.6568200000000000    0.7010550000000000 C
   0.9934300000000000    0.5999600000000000    0.6418500000000000 C
   0.9547000000000000    0.7400300000000000    0.6234600000000000 C
   0.9923600000000000    0.7368700000000000    0.6562399999999999 C
   0.9629100000000000    0.8751900000000000    0.6332850000000000 C
   0.0024500000000000    0.8725400000000000    0.6656650000000000 C
   0.9410800000000000    0.8084300000000000    0.6116800000000000 C
   0.0199200000000000    0.8040700000000000    0.6771350000000000 C
   0.0647900000000000    0.4057600000000000    0.6374800000000000 C
   0.0213100000000000    0.3888200000000000    0.5272000000000000 C
   0.8984799999999999    0.1919100000000000    0.6735900000000000 C
   0.0720100000000000    0.1926500000000000    0.5393600000000000 C
   0.9623500000000000    0.3428000000000000    0.5486650000000000 C
   0.9933900000000000    0.3999600000000000    0.6078550000000000 C
   0.9537900000000000    0.2600900000000000    0.6263100000000000 C
   0.9919300000000000    0.2630400000000000    0.5936150000000000 C
   0.9622800000000000    0.1249500000000000    0.6167549999999999 C
   0.0021400000000000    0.1273900000000000    0.5844400000000000 C
   0.9399999999999999    0.1918100000000000    0.6381800000000000 C
   0.0197600000000000    0.1957600000000000    0.5728950000000000 C
   0.4532800000000000    0.6202800000000001    0.6186950000000000 C
   0.3293300000000000    0.4358500000000000    0.5591100000000000 C
   0.6166500000000000    0.7470100000000000    0.5105499999999999 C
   0.4841200000000000    0.5632700000000000    0.5869900000000000 C
   0.2870600000000000    0.5548400000000000    0.4964000000000000 C
   0.4095100000000000    0.4733600000000000    0.5424100000000001 C
   0.5132400000000000    0.6518000000000000    0.5328000000000001 C
   0.4702500000000000    0.6945000000000000    0.4790150000000000 C
   0.3951500000000000    0.6444400000000000    0.4756050000000000 C
   0.5298300000000000    0.6979800000000000    0.5078000000000000 C
   0.4376000000000000    0.6010400000000000    0.5300850000000000 C
   0.3758800000000000    0.5987400000000000    0.5008550000000001 C
   0.8542900000000000    0.8104000000000000    0.2876600000000000 C
   0.6882200000000001    0.8283000000000000    0.2985850000000000 C
   0.8470100000000000    0.7425300000000000    0.3001000000000000 C
   0.6872500000000000    0.7608100000000000    0.3112650000000000 C
   0.7732000000000000    0.8550300000000000    0.2864950000000000 C
   0.7098600000000000    0.9839200000000000    0.2846850000000000 C
   0.7119600000000000    0.0507100000000000    0.2712800000000000 C
   0.8421500000000000    0.9418500000000000    0.2484100000000000 C
   0.8396100000000000    0.0000000000000000    0.2362750000000000 C
   0.7755500000000000    0.9273100000000000    0.2731800000000000 C
   0.1457100000000000    0.1896000000000000    0.2123300000000000 C
   0.3117900000000000    0.1717200000000000    0.2014100000000000 C
   0.1530100000000000    0.2575000000000000    0.1999150000000000 C
   0.3127600000000000    0.2392400000000000    0.1887550000000000 C
   0.2268100000000000    0.1449800000000000    0.2134950000000000 C
   0.1578400000000000    0.0581300000000000    0.2515550000000000 C
   0.2901400000000000    0.0160700000000000    0.2152850000000000 C
   0.1603600000000000    0.9898300000000000    0.2636800000000000 C
   0.2880200000000000    0.9492699999999999    0.2286800000000000 C
   0.2244400000000000    0.0726700000000000    0.2267500000000000 C
   0.1460400000000000    0.8102900000000000    0.5376649999999999 C
   0.3122000000000000    0.8282200000000000    0.5486000000000000 C
   0.1533400000000000    0.7423900000000000    0.5500500000000000 C
   0.3131800000000000    0.7607000000000000    0.5612549999999999 C
   0.2271700000000000    0.8549200000000000    0.5365050000000000 C
   0.2904800000000000    0.9839000000000000    0.5347550000000000 C
   0.2882200000000000    0.0507400000000000    0.5213900000000000 C
   0.1580000000000000    0.9417200000000000    0.4984450000000000 C
   0.1603900000000000    0.0000000000000000    0.4863550000000000 C
   0.2247300000000000    0.9272400000000000    0.5232300000000000 C
   0.8539900000000000    0.1897400000000000    0.9623250000000000 C
   0.6878400000000000    0.1718200000000000    0.9513800000000000 C
   0.8466900000000001    0.2576500000000000    0.9499200000000000 C
   0.6868500000000000    0.2393600000000000    0.9387449999999999 C
   0.7728600000000000    0.1451100000000000    0.9634750000000001 C
   0.8420299999999999    0.0582900000000000    0.0015250000000000 C
   0.7095399999999999    0.0161200000000000    0.9652250000000000 C
   0.8396500000000000    0.9899600000000000    0.0136150000000000 C
   0.7118000000000000    0.9492800000000000    0.9785850000000000 C
   0.7753000000000000    0.0727800000000000    0.9767450000000000 C
   0.9787200000000000    0.6111900000000000    0.4727950000000000 C
   0.1015600000000000    0.8080600000000000    0.3263950000000000 C
   0.9280400000000000    0.8073399999999999    0.4606250000000000 C
   0.0377100000000000    0.6571700000000000    0.4513200000000000 C
   0.9352500000000000    0.5942400000000000    0.3625000000000000 C
   0.0000000000000000    0.6000200000000000    0.3921250000000000 C
   0.9802900000000000    0.8042200000000000    0.4270900000000000 C
   0.0000000000000000    0.7369400000000000    0.4063750000000000 C
   0.0462600000000000    0.7398900000000000    0.3736750000000000 C
   0.0377700000000000    0.8750300000000000    0.3832300000000000 C
   0.9979300000000000    0.8725900000000000    0.4155500000000000 C
   0.0600700000000000    0.8081700000000001    0.3618050000000000 C
   0.9786700000000000    0.3890100000000000    0.2773400000000000 C
   0.1000800000000000    0.1915100000000000    0.4237850000000000 C
   0.9280500000000000    0.1928700000000000    0.2892000000000000 C
   0.0376100000000000    0.3431300000000000    0.2989100000000000 C
   0.9350600000000000    0.4058000000000000    0.3876300000000000 C
   0.0000000000000000    0.4000100000000000    0.3581000000000000 C
   0.9800900000000000    0.1958900000000000    0.3228350000000000 C
   0.0000000000000000    0.2630900000000000    0.3437300000000000 C
   0.0453000000000000    0.2599500000000000    0.3765050000000000 C
   0.0371400000000000    0.1247900000000000    0.3666900000000000 C
   0.9975800000000000    0.1274200000000000    0.3343150000000000 C
   0.0589400000000000    0.1915600000000000    0.3883000000000000 C
   0.5158800000000000    0.4367600000000000    0.4100000000000000 C
   0.5467500000000000    0.3797400000000000    0.3813000000000000 C
   0.6706700000000000    0.5641900000000000    0.4408500000000000 C
   0.3834000000000000    0.2530200000000000    0.4894400000000000 C
   0.7129500000000000    0.4452500000000000    0.5036000000000000 C
   0.5904800000000000    0.5266999999999999    0.4575650000000000 C
   0.4867900000000000    0.3482500000000000    0.4671850000000000 C
   0.5298000000000000    0.3055500000000000    0.5209500000000000 C
   0.6049000000000000    0.3556000000000000    0.5243800000000000 C
   0.4702200000000000    0.3020500000000000    0.4921500000000000 C
   0.5624300000000000    0.3990100000000000    0.4699000000000000 C
   0.6241300000000000    0.4013400000000000    0.4991400000000000 C
   0.5471400000000000    0.6203000000000000    0.3686550000000000 C
   0.6707200000000000    0.4358700000000000    0.3091350000000000 C
   0.3836300000000000    0.7469900000000000    0.2605300000000000 C
   0.5162099999999999    0.5632600000000000    0.3369400000000000 C
   0.7129900000000000    0.5549100000000000    0.2464000000000000 C
   0.5905700000000000    0.4733700000000000    0.2923900000000000 C
   0.4870700000000000    0.6518100000000000    0.2827650000000000 C
   0.5298500000000000    0.6945500000000000    0.2289950000000000 C
   0.6048900000000000    0.6445100000000000    0.2255950000000000 C
   0.4704100000000000    0.6980000000000000    0.2577850000000000 C
   0.5626300000000000    0.6010600000000000    0.2800550000000000 C