H8 C10 N2
1.0
  14.1319911836612011    0.0000000000000000   -0.0157855922304280
  -0.0116273982173364   17.8787059629333207   -2.7763981873252788
   0.0000000000000000    0.0000000000000000   39.1060000000000016
H C N
8 10 2
direct
   0.0907500000000000    0.2927500000000000    0.1989100000000000 H
   0.0768500000000000    0.1720900000000000    0.2207550000000000 H
   0.3779200000000000    0.1412700000000000    0.2024050000000000 H
   0.3773700000000000    0.2602800000000000    0.1785300000000000 H
   0.1039300000000000    0.0990000000000000    0.2613800000000000 H
   0.1101800000000000    0.9763800000000000    0.2829600000000000 H
   0.3380200000000000    0.9040800000000000    0.2205000000000000 H
   0.3423500000000000    0.0230800000000000    0.1955700000000000 H
   0.1530100000000000    0.2575000000000000    0.1999150000000000 C
   0.1457100000000000    0.1896000000000000    0.2123300000000000 C
   0.2268100000000000    0.1449800000000000    0.2134950000000000 C
   0.3117900000000000    0.1717200000000000    0.2014100000000000 C
   0.3127600000000000    0.2392400000000000    0.1887550000000000 C
   0.1578400000000000    0.0581300000000000    0.2515550000000000 C
   0.1603600000000000    0.9898300000000000    0.2636800000000000 C
   0.2880200000000000    0.9492699999999999    0.2286800000000000 C
   0.2901400000000000    0.0160700000000000    0.2152850000000000 C
   0.2244400000000000    0.0726700000000000    0.2267500000000000 C
   0.2352000000000000    0.2824900000000000    0.1882850000000000 N
   0.2242000000000000    0.9361699999999999    0.2526100000000000 N
