H16 C22 O4
1.0
  10.5439819776639503    0.0000000000000000   -2.9074645835672364
  -0.0067970773843596   13.4629918537073205   -0.0131585238279604
   0.0000000000000000    0.0000000000000000   15.1300000000000008
H C O
16 22 4
direct
   0.4788600000000000    0.2981400000000000    0.6443500000000000 H
   0.4001600000000000    0.3749100000000000    0.7697400000000000 H
   0.7798800000000000    0.4725200000000000    0.9017600000000000 H
   0.8555500000000000    0.3965900000000000    0.7756900000000000 H
   0.5715500000000000    0.6349100000000000    0.8229100000000000 H
   0.5847300000000000    0.7197500000000000    0.9156300000000001 H
   0.7128400000000000    0.6397900000000000    0.9125900000000000 H
   0.4794400000000000    0.3232700000000000    0.9537700000000000 H
   0.5227100000000000    0.7010400000000000    0.3549300000000000 H
   0.6008100000000000    0.6241100000000001    0.2293700000000000 H
   0.2208500000000000    0.5264000000000000    0.0981700000000000 H
   0.1457500000000000    0.6025800000000000    0.2243400000000000 H
   0.4286600000000000    0.3639900000000000    0.1762800000000000 H
   0.4156200000000000    0.2792000000000000    0.0835200000000000 H
   0.2874700000000000    0.3591500000000000    0.0864900000000000 H
   0.5210399999999999    0.6756799999999999    0.0455200000000000 H
   0.7246800000000000    0.2882400000000000    0.6339300000000000 C
   0.6727200000000000    0.3406800000000000    0.7037800000000000 C
   0.5439000000000001    0.3357500000000000    0.7017800000000000 C
   0.5006300000000000    0.3783500000000000    0.7719100000000000 C
   0.5849400000000000    0.4277100000000000    0.8452400000000000 C
   0.7130300000000001    0.4352100000000000    0.8452100000000000 C
   0.7561400000000000    0.3921700000000000    0.7755200000000000 C
   0.5413400000000000    0.4673500000000000    0.9232200000000000 C
   0.5555500000000000    0.5682199999999999    0.9497700000000000 C
   0.6089100000000000    0.6446300000000000    0.8973800000000000 C
   0.4863700000000000    0.4015600000000000    0.9735400000000000 C
   0.2771400000000000    0.7112300000000000    0.3658600000000000 C
   0.3287200000000000    0.6586100000000000    0.2958900000000000 C
   0.4574600000000000    0.6634300000000000    0.2976100000000000 C
   0.5004100000000000    0.6207100000000000    0.2273800000000000 C
   0.4158800000000000    0.5712699999999999    0.1542200000000000 C
   0.2879000000000000    0.5637900000000000    0.1545700000000000 C
   0.2450900000000000    0.6069900000000000    0.2243400000000000 C
   0.4592100000000000    0.5316000000000000    0.0761200000000000 C
   0.4449200000000000    0.4307400000000000    0.0495200000000000 C
   0.3914200000000000    0.3543100000000000    0.1018000000000000 C
   0.5141200000000000    0.5973900000000000    0.0257600000000000 C
   0.8400000000000000    0.2952800000000000    0.6371500000000000 O
   0.6449200000000000    0.2334500000000000    0.5743700000000000 O
   0.1618300000000000    0.7044400000000000    0.3628000000000000 O
   0.3571800000000000    0.7659400000000000    0.4253600000000000 O
