Zn2 H48 C62 N6 O10
1.0
  10.5439819776639503    0.0000000000000000   -2.9074645835672364
  -0.0067970773843596   13.4629918537073205   -0.0131585238279604
   0.0000000000000000    0.0000000000000000   15.1300000000000008
Zn H C N O
2 48 62 6 10
direct
   0.7517500000000000    0.1741000000000000    0.4999400000000000 Zn
   0.2505800000000000    0.8253700000000000    0.5000200000000000 Zn
   0.9436721805577375    0.0856793601348887    0.6346259699857818 H
   0.0581959541083936    0.9137605205502276    0.3657007613265619 H
   0.5659800000000000    0.8665700000000000    0.2824300000000000 H
   0.7623200000000000    0.9417300000000000    0.4225700000000000 H
   0.4788100000000000    0.1609200000000000    0.3473500000000000 H
   0.4337600000000000    0.1327000000000000    0.7178300000000000 H
   0.2381500000000000    0.0572800000000000    0.5772200000000000 H
   0.5228900000000000    0.8390400000000000    0.6524100000000000 H
   0.1594700000000000    0.1370300000000000    0.0627300000000000 H
   0.3660700000000000    0.1551500000000000    0.1815900000000000 H
   0.3451800000000000    0.8481000000000000    0.2574400000000000 H
   0.1433700000000000    0.8292700000000000    0.1352400000000000 H
   0.8413600000000000    0.8628300000000000    0.9370900000000000 H
   0.6347800000000000    0.8445100000000000    0.8181400000000000 H
   0.6546999999999999    0.1518500000000000    0.7428100000000000 H
   0.8564700000000000    0.1708500000000000    0.8651000000000000 H
   0.5847300000000000    0.7197500000000000    0.9156300000000001 H
   0.5715500000000000    0.6349100000000000    0.8229100000000000 H
   0.7128400000000000    0.6397900000000000    0.9125900000000000 H
   0.4156200000000000    0.2792000000000000    0.0835200000000000 H
   0.4286600000000000    0.3639900000000000    0.1762800000000000 H
   0.2874700000000000    0.3591500000000000    0.0864900000000000 H
   0.5227100000000000    0.7010400000000000    0.3549300000000000 H
   0.6008100000000000    0.6241100000000001    0.2293700000000000 H
   0.1457500000000000    0.6025800000000000    0.2243400000000000 H
   0.2208500000000000    0.5264000000000000    0.0981700000000000 H
   0.4788600000000000    0.2981400000000000    0.6443500000000000 H
   0.4001600000000000    0.3749100000000000    0.7697400000000000 H
   0.8555500000000000    0.3965900000000000    0.7756900000000000 H
   0.7798800000000000    0.4725200000000000    0.9017600000000000 H
   0.4794400000000000    0.3232700000000000    0.9537700000000000 H
   0.5210399999999999    0.6756799999999999    0.0455200000000000 H
   0.9148300000000000    0.7201900000000000    0.0842800000000000 H
   0.9280200000000000    0.6353799999999999    0.1768700000000000 H
   0.7868700000000000    0.6399100000000000    0.0870500000000000 H
   0.0840900000000000    0.2797900000000000    0.9155600000000000 H
   0.0705400000000000    0.3645300000000000    0.8228900000000000 H
   0.2120900000000000    0.3598300000000000    0.9123400000000000 H
   0.8987500000000000    0.6240700000000000    0.7704700000000000 H
   0.9763900000000000    0.7010300000000000    0.6447700000000000 H
   0.3549500000000000    0.6030500000000000    0.7757400000000000 H
   0.2796700000000000    0.5271100000000000    0.9018100000000000 H
   0.0218600000000000    0.2985200000000000    0.3550000000000000 H
   0.1001400000000000    0.3752800000000000    0.2295700000000000 H
   0.6460500000000000    0.3960800000000000    0.2246700000000000 H
   0.7207100000000000    0.4722300000000000    0.0983200000000000 H
   0.0201700000000000    0.3237200000000000    0.0453200000000000 H
   0.9786500000000000    0.6762899999999999    0.9543100000000000 H
   0.5771900000000000    0.9370900000000000    0.3179800000000000 C
   0.6728400000000000    0.9754200000000000    0.3870300000000000 C
   0.5289500000000000    0.0911400000000000    0.3502400000000000 C
   0.4230400000000000    0.0623100000000000    0.6820800000000000 C
   0.3277800000000000    0.0238600000000000    0.6128300000000000 C
   0.4723200000000000    0.9086100000000000    0.6495800000000000 C
   0.2012100000000000    0.0745100000000000    0.1057900000000000 C
   0.3155500000000000    0.0845600000000000    0.1723800000000000 C
   0.3058300000000000    0.9106700000000000    0.2137300000000000 C
   0.1922500000000000    0.9005800000000000    0.1461800000000000 C
   0.3678200000000000    0.0024600000000000    0.2264200000000000 C
   0.1385900000000000    0.9819800000000000    0.0915800000000000 C
   0.7993700000000000    0.9253500000000000    0.8941200000000000 C
   0.6850900000000000    0.9152000000000000    0.8275100000000000 C
   0.6942600000000000    0.0892700000000000    0.7864500000000000 C
   0.8077900000000000    0.0994600000000000    0.8540100000000000 C
   0.6326500000000000    0.9973600000000000    0.7736300000000000 C
   0.8616100000000000    0.0180200000000000    0.9084500000000000 C
   0.6089100000000000    0.6446300000000000    0.8973800000000000 C
   0.3914200000000000    0.3543100000000000    0.1018000000000000 C
   0.2771400000000000    0.7112300000000000    0.3658600000000000 C
   0.7246800000000000    0.2882400000000000    0.6339300000000000 C
   0.4574600000000000    0.6634300000000000    0.2976100000000000 C
   0.5004100000000000    0.6207100000000000    0.2273800000000000 C
   0.2450900000000000    0.6069900000000000    0.2243400000000000 C
   0.2879000000000000    0.5637900000000000    0.1545700000000000 C
   0.3287200000000000    0.6586100000000000    0.2958900000000000 C
   0.4158800000000000    0.5712699999999999    0.1542200000000000 C
   0.5439000000000001    0.3357500000000000    0.7017800000000000 C
   0.5006300000000000    0.3783500000000000    0.7719100000000000 C
   0.7561400000000000    0.3921700000000000    0.7755200000000000 C
   0.7130300000000001    0.4352100000000000    0.8452100000000000 C
   0.6727200000000000    0.3406800000000000    0.7037800000000000 C
   0.5849400000000000    0.4277100000000000    0.8452400000000000 C
   0.4863700000000000    0.4015600000000000    0.9735400000000000 C
   0.4449200000000000    0.4307400000000000    0.0495200000000000 C
   0.5413400000000000    0.4673500000000000    0.9232200000000000 C
   0.5141200000000000    0.5973900000000000    0.0257600000000000 C
   0.5555500000000000    0.5682199999999999    0.9497700000000000 C
   0.4592100000000000    0.5316000000000000    0.0761200000000000 C
   0.8908000000000000    0.6450100000000000    0.1024100000000000 C
   0.1081700000000000    0.3549100000000000    0.8973300000000000 C
   0.2238200000000000    0.7114200000000001    0.6341900000000000 C
   0.7780600000000000    0.2883200000000000    0.3661800000000000 C
   0.9991400000000000    0.6210200000000000    0.7723800000000000 C
   0.0433500000000000    0.6638800000000000    0.7024100000000000 C
   0.2556000000000000    0.6075000000000000    0.7757100000000000 C
   0.2126900000000000    0.5644300000000000    0.8454400000000000 C
   0.1720800000000000    0.6590000000000000    0.7041400000000000 C
   0.0846900000000000    0.5719100000000000    0.8457400000000000 C
   0.9581200000000000    0.3365200000000000    0.2979300000000000 C
   0.9997300000000000    0.3787300000000000    0.2275600000000000 C
   0.7454100000000000    0.3920700000000000    0.2246200000000000 C
   0.7879400000000000    0.4352400000000000    0.1547800000000000 C
   0.8293800000000000    0.3409600000000000    0.2962100000000000 C
   0.9159700000000000    0.4282100000000000    0.1544900000000000 C
   0.0135100000000000    0.4020500000000000    0.0258500000000000 C
   0.0550300000000000    0.4313200000000000    0.9499400000000000 C
   0.9590700000000000    0.4679200000000000    0.0764100000000000 C
   0.9858000000000000    0.5980300000000000    0.9740200000000000 C
   0.9445100000000000    0.5687500000000000    0.0500000000000000 C
   0.0412000000000000    0.5322400000000000    0.9237300000000001 C
   0.6413200000000000    0.0709600000000000    0.4072700000000000 N
   0.4856600000000000    0.0112000000000000    0.2944900000000000 N
   0.3599700000000000    0.9285700000000000    0.5924600000000000 N
   0.5149600000000000    0.9884900000000000    0.7055100000000000 N
   0.0234300000000000    0.9625100000000000    0.0248800000000000 N
   0.9766600000000000    0.0375100000000000    0.9751800000000000 N
   0.8609300000000000    0.0709500000000000    0.5925000000000000 O
   0.1411200000000000    0.9284700000000000    0.4075900000000000 O
   0.1618300000000000    0.7044400000000000    0.3628000000000000 O
   0.3571800000000000    0.7659400000000000    0.4253600000000000 O
   0.8400000000000000    0.2952800000000000    0.6371500000000000 O
   0.6449200000000000    0.2334500000000000    0.5743700000000000 O
   0.3391200000000000    0.7045000000000000    0.6372900000000000 O
   0.1439500000000000    0.7660700000000000    0.5746800000000000 O
   0.6628100000000000    0.2950200000000000    0.3632500000000000 O
   0.8582600000000000    0.2336600000000000    0.4254700000000000 O
