P1 H12 C6 N3 O1
1.0
  29.2939998393776726    0.0000000000000000   -0.0030676605008653
  -0.0014531866263628   20.8169999207427097    0.0010899755706634
   0.0000000000000000    0.0000000000000000   33.1920000000000002
P H C N O
1 12 6 3 1
direct
   0.1196100000000000    0.9497100000000001    0.4189550000000000 P
   0.1562500000000000    0.9704500000000000    0.3544650000000000 H
   0.1747200000000000    0.0260200000000000    0.3924100000000000 H
   0.0959050000000000    0.8386400000000001    0.4285750000000000 H
   0.1077800000000000    0.8565199999999999    0.3769950000000000 H
   0.1553400000000000    0.0009200000000000    0.4768650000000000 H
   0.1254900000000000    0.9296400000000000    0.4911850000000000 H
   0.2559750000000000    0.9172200000000000    0.4390000000000000 H
   0.2280200000000000    0.9927400000000000    0.4431200000000000 H
   0.1577350000000000    0.8254200000000000    0.4761750000000000 H
   0.2150100000000000    0.8196500000000000    0.4585500000000000 H
   0.1869700000000000    0.8610100000000001    0.3540750000000000 H
   0.2316800000000000    0.8407800000000000    0.3877750000000000 H
   0.1668750000000000    0.9751600000000000    0.3861600000000000 C
   0.1197650000000000    0.8634600000000000    0.4081900000000000 C
   0.1479850000000000    0.9508799999999999    0.4680150000000000 C
   0.2229400000000000    0.9415500000000000    0.4363750000000000 C
   0.1827650000000000    0.8460700000000000    0.4552050000000000 C
   0.1991700000000000    0.8665500000000000    0.3851100000000000 C
   0.2082050000000000    0.9352900000000000    0.3936500000000000 N
   0.1908050000000000    0.9136200000000000    0.4652350000000000 N
   0.1662700000000000    0.8360000000000000    0.4131950000000000 N
   0.0743800000000000    0.9836100000000000    0.4148500000000000 O
