Zn8 H72 C102 N4 O38
1.0
  12.3543524944285625    0.0000000000000000   -1.0152785053406561
  -1.9419506547423719   19.5624806354538343   -4.4363935851138558
   0.0000000000000000    0.0000000000000000   20.2250000000000014
Zn H C N O
8 72 102 4 38
direct
   0.0087800000000000    0.3495700000000000    0.0858000000000000 Zn
   0.9167400000000000    0.2000200000000000    0.9267700000000000 Zn
   0.3055500000000000    0.1140500000000000    0.6087000000000000 Zn
   0.5088000000000000    0.0853300000000000    0.3498400000000000 Zn
   0.4167900000000000    0.9279300000000000    0.1981800000000000 Zn
   0.8055099999999999    0.6088900000000000    0.1138900000000000 Zn
   0.6162600000000000    0.6640700000000000    0.1502000000000000 Zn
   0.1161200000000000    0.1505200000000000    0.6630000000000000 Zn
   0.8337951087617846    0.1663436382786787    0.7998008181074019 H
   0.8805908629813338    0.2440103191613336    0.8135720027501988 H
   0.9587348406233669    0.2214056962161500    0.7067857752512833 H
   0.9116620097495463    0.1437488302206977    0.6927249770867941 H
   0.4372817617125674    0.0927623155352900    0.5130976917873498 H
   0.4654496344369651    0.0883168686187597    0.4762392796199476 H
   0.5126057802488642    0.1143100207699607    0.5831099769023235 H
   0.5934242393601804    0.1015012335334911    0.4771338990985373 H
  -0.0342465084350792    0.4761797960571087    0.0884463909558666 H
   0.9375469278488495    0.5132030891603723    0.0927725383352689 H
   1.0127423509402822    0.5833644890277913    0.1142182468399409 H
   0.0937824437544405    0.4769372520057037    0.1017171272829991 H
   0.3639400000000000    0.6283200000000000    0.1250700000000000 H
   0.3957800000000000    0.6888200000000000    0.0750000000000000 H
   0.3183900000000000    0.7973300000000000    0.0973300000000000 H
   0.2284500000000000    0.8151100000000000    0.1626000000000000 H
   0.2466200000000000    0.6532600000000000    0.2124100000000000 H
   0.1886200000000000    0.7333100000000000    0.2293600000000000 H
   0.4376700000000000    0.6500800000000000    0.2431800000000000 H
   0.5214900000000000    0.7272200000000000    0.2810600000000000 H
   0.3012200000000000    0.8371800000000000    0.2813800000000000 H
   0.4429900000000000    0.8343200000000000    0.3032600000000000 H
   0.5093100000000000    0.7944000000000000    0.1265900000000000 H
   0.5638400000000000    0.8098500000000000    0.2135100000000000 H
   0.3851400000000000    0.5195200000000000    0.0149300000000000 H
   0.2676100000000000    0.4292900000000000    0.9281600000000000 H
   0.6705900000000000    0.4528800000000000    0.9255100000000001 H
   0.5359200000000000    0.2695000000000000    0.7336400000000000 H
   0.6532900000000000    0.3589400000000000    0.8205600000000000 H
   0.2510000000000000    0.3318000000000000    0.8265600000000000 H
   0.8852000000000000    0.0153200000000000    0.5188100000000000 H
   0.7677800000000000    0.9286100000000000    0.4285100000000000 H
   0.1708600000000000    0.9257900000000000    0.4523500000000000 H
   0.0363800000000000    0.7337600000000000    0.2689700000000000 H
   0.1537300000000000    0.8207900000000000    0.3582600000000000 H
   0.7512500000000000    0.8268799999999999    0.3312200000000000 H
   0.9826800000000000    0.2575200000000000    0.5090400000000000 H
   0.9404100000000000    0.3034000000000000    0.4063500000000000 H
   0.2991400000000000    0.2162500000000000    0.4479300000000000 H
   0.3129500000000000    0.2873800000000000    0.2374100000000000 H
   0.3526200000000000    0.2382400000000000    0.3387700000000000 H
   0.9969800000000000    0.3302000000000000    0.2987100000000000 H
   0.2403300000000000    0.1789600000000000    0.8841000000000000 H
   0.4381900000000000    0.1777900000000000    0.8760100000000000 H
   0.2980700000000000    0.3403000000000000    0.0659500000000000 H
   0.6859499999999999    0.3841200000000000    0.1054900000000000 H
   0.4877900000000000    0.3854200000000000    0.1132200000000000 H
   0.6289900000000000    0.2262200000000000    0.9213300000000000 H
   0.9313300000000000    0.7431300000000000    0.9929400000000000 H
   0.9906300000000000    0.8415100000000000    0.9439400000000000 H
   0.9604000000000000    0.9562800000000000    0.9225700000000000 H
   0.6904200000000000    0.0585300000000000    0.0009600000000000 H
   0.6256500000000000    0.9569800000000001    0.0442900000000000 H
   0.6514100000000000    0.8414800000000000    0.0610100000000000 H
   0.4830400000000000    0.5093200000000000    0.2564600000000000 H
   0.4408100000000000    0.4066200000000000    0.3025300000000000 H
   0.7991000000000000    0.4468800000000000    0.2155000000000000 H
   0.8131500000000000    0.2361700000000000    0.2875100000000000 H
   0.8525000000000000    0.3373500000000000    0.2378300000000000 H
   0.4974500000000000    0.2986600000000000    0.3297600000000000 H
   0.7403900000000000    0.8855000000000000    0.1778800000000000 H
   0.9383300000000000    0.8776200000000000    0.1764200000000000 H
   0.1290300000000000    0.9229300000000000    0.2248400000000000 H
   0.1856300000000000    0.1054400000000000    0.3850200000000000 H
   0.9874100000000000    0.1126500000000000    0.3869000000000000 H
   0.7976900000000000    0.0655200000000000    0.3414400000000000 H
   0.1898600000000000    0.0020000000000000    0.0564900000000000 H
   0.1248900000000000    0.0446200000000000    0.9545000000000000 H
   0.1511600000000000    0.0609500000000000    0.8395500000000000 H
   0.4321400000000000    0.9927400000000000    0.7430000000000000 H
   0.4915900000000000    0.9441800000000000    0.8416400000000001 H
   0.4610900000000000    0.9233000000000000    0.9561500000000001 H
   0.3776400000000000    0.6829100000000000    0.1258100000000000 C
   0.3003200000000000    0.7892800000000000    0.1473900000000000 C
   0.2611200000000000    0.7081200000000000    0.2143400000000000 C
   0.4502000000000000    0.7049200000000000    0.2449000000000000 C
   0.3727100000000000    0.8109300000000000    0.2665700000000000 C
   0.4930700000000000    0.7873300000000000    0.1771500000000000 C
   0.3202600000000000    0.2382500000000000    0.7243900000000000 C
   0.6020000000000000    0.5454100000000000    0.0285500000000000 C
   0.4197900000000000    0.4845200000000000    0.9751200000000000 C
   0.3557200000000000    0.4349400000000000    0.9272800000000000 C
   0.5823800000000000    0.4478000000000000    0.9253600000000000 C
   0.5345600000000000    0.4913800000000000    0.9748200000000000 C
   0.5185999999999999    0.3970800000000000    0.8745500000000000 C
   0.5011600000000000    0.3034600000000000    0.7741600000000000 C
   0.5653500000000000    0.3528000000000000    0.8221900000000000 C
   0.3389000000000000    0.3383200000000000    0.8254899999999999 C
   0.3865900000000000    0.2952000000000000    0.7755900000000000 C
   0.4025100000000000    0.3899000000000000    0.8755600000000000 C
   0.8204700000000000    0.7244600000000000    0.2379400000000000 C
   0.1020000000000000    0.0288000000000000    0.5449300000000000 C
   0.9199100000000000    0.9754900000000000    0.4838600000000000 C
   0.8559099999999999    0.9276700000000000    0.4342400000000000 C
   0.0826200000000000    0.9256500000000000    0.4472200000000000 C
   0.0346900000000000    0.9751100000000000    0.4908100000000000 C
   0.0189000000000000    0.8748600000000000    0.3964400000000000 C
   0.0015300000000000    0.7743500000000000    0.3028900000000000 C
   0.0657300000000000    0.8224500000000000    0.3521600000000000 C
   0.8391999999999999    0.8258000000000000    0.3377100000000000 C
   0.8869400000000000    0.7757900000000000    0.2946800000000000 C
   0.9028000000000000    0.8759000000000000    0.3892400000000000 C
   0.1303900000000000    0.3386400000000000    0.1995000000000000 C
   0.1685600000000000    0.2039100000000000    0.5448100000000000 C
   0.0423900000000000    0.2595200000000000    0.4727600000000000 C
   0.0193600000000000    0.2850000000000000    0.4159000000000000 C
   0.2212000000000000    0.2358400000000000    0.4388000000000000 C
   0.1445600000000000    0.2345400000000000    0.4848600000000000 C
   0.1998900000000000    0.2610900000000000    0.3797200000000000 C
   0.2543800000000000    0.2869700000000000    0.2747000000000000 C
   0.2766400000000000    0.2608100000000000    0.3311600000000000 C
   0.0754200000000000    0.3115400000000000    0.3084600000000000 C
   0.1526100000000000    0.3125100000000000    0.2627800000000000 C
   0.0968400000000000    0.2867100000000000    0.3679900000000000 C
   0.7885600000000000    0.3049100000000000    0.0092200000000000 C
   0.1387500000000000    0.2635300000000000    0.9787700000000000 C
   0.2978100000000000    0.2142800000000000    0.9216100000000000 C
   0.4078900000000000    0.2137600000000000    0.9172800000000000 C
   0.3297100000000000    0.3062000000000000    0.0230000000000000 C
   0.2579100000000000    0.2615700000000000    0.9748200000000000 C
   0.4432200000000000    0.3061800000000000    0.0210500000000000 C
   0.6284999999999999    0.3503500000000000    0.0668700000000000 C
   0.5185200000000000    0.3509100000000000    0.0710400000000000 C
   0.5971900000000000    0.2612400000000000    0.9625700000000000 C
   0.6688300000000000    0.3055400000000000    0.0119600000000000 C
   0.4835400000000000    0.2597600000000000    0.9660000000000000 C
   0.8696100000000000    0.0733600000000000    0.9334000000000000 C
   0.7564100000000000    0.7281400000000000    0.0615400000000000 C
   0.8841300000000000    0.7869000000000000    0.9966500000000000 C
   0.9166299999999999    0.8412900000000000    0.9696900000000001 C
   0.8875999999999999    0.9559000000000000    0.9493500000000000 C
   0.8291200000000000    0.0124700000000000    0.9585500000000000 C
   0.8553600000000000    0.8987000000000001    0.9754900000000000 C
   0.7341200000000000    0.0130600000000000    0.9935700000000000 C
   0.6988000000000000    0.9572500000000000    0.0177500000000000 C
   0.7258000000000000    0.8416000000000000    0.0358200000000000 C
   0.7877100000000000    0.7866000000000000    0.0302300000000000 C
   0.7582600000000000    0.8989100000000000    0.0097700000000000 C
   0.6308300000000000    0.1990400000000000    0.3388100000000000 C
   0.6685600000000000    0.5445300000000000    0.2030600000000000 C
   0.5426800000000001    0.4727500000000000    0.2585800000000000 C
   0.5196900000000000    0.4158800000000000    0.2841600000000000 C
   0.7212700000000000    0.4380800000000000    0.2350700000000000 C
   0.6447200000000000    0.4844800000000000    0.2336600000000000 C
   0.7000100000000000    0.3789700000000000    0.2604700000000000 C
   0.7545900000000000    0.2736900000000000    0.2868500000000000 C
   0.7766999999999999    0.3300700000000000    0.2604300000000000 C
   0.5758000000000000    0.3081500000000000    0.3111400000000000 C
   0.6530000000000000    0.2621700000000000    0.3123900000000000 C
   0.5971200000000000    0.3676300000000000    0.2860900000000000 C
   0.2884600000000000    0.0101400000000000    0.3041900000000000 C
   0.6385700000000000    0.9791500000000000    0.2633700000000000 C
   0.7978000000000000    0.9226200000000000    0.2136000000000000 C
   0.9079100000000000    0.9184500000000000    0.2129200000000000 C
   0.0971200000000000    0.9636800000000000    0.2604900000000000 C
   0.1687300000000000    0.0127300000000000    0.3052100000000000 C
   0.9834600000000000    0.9668600000000001    0.2593700000000000 C
   0.1282600000000000    0.0670300000000000    0.3508700000000000 C
   0.0182200000000000    0.0709200000000000    0.3517600000000000 C
   0.8294500000000000    0.0238700000000000    0.3067800000000000 C
   0.7577600000000000    0.9752500000000000    0.2615500000000000 C
   0.9430100000000000    0.0212500000000000    0.3065700000000000 C
   0.2565200000000000    0.0612900000000000    0.7271900000000000 C
   0.3695000000000000    0.9348700000000000    0.0725100000000000 C
   0.2337600000000000    0.9944200000000000    0.0113500000000000 C
   0.1983900000000000    0.0182000000000000    0.9553000000000000 C
   0.2257600000000000    0.0357800000000000    0.8401200000000000 C
   0.2879800000000000    0.0300500000000000    0.7856000000000000 C
   0.2582300000000000    0.0099700000000000    0.8975100000000000 C
   0.3847200000000000    0.9965600000000000    0.7864400000000000 C
   0.4172900000000000    0.9698400000000000    0.8409500000000000 C
   0.3879900000000000    0.9500000000000000    0.9552600000000000 C
   0.3291400000000000    0.9594900000000000    0.0113800000000000 C
   0.3557200000000000    0.9758300000000000    0.8979100000000000 C
   0.2807800000000000    0.7164400000000000    0.1453900000000000 N
   0.3538600000000000    0.7383200000000000    0.2652000000000000 N
   0.4754100000000000    0.7129400000000000    0.1753500000000000 N
   0.3957600000000000    0.8225500000000000    0.1979200000000000 N
   0.8957300000000000    0.1992500000000000    0.8213400000000000 O
   0.9752700000000000    0.1760900000000000    0.7122000000000001 O
   0.5280500000000000    0.0741200000000000    0.4521000000000000 O
   0.4458400000000000    0.0870700000000000    0.5600000000000001 O
   0.9459500000000000    0.5602300000000000    0.0870300000000000 O
   0.0283800000000000    0.4518700000000000    0.0744000000000000 O
   0.2171100000000000    0.2335000000000000    0.7248500000000000 O
   0.3733900000000000    0.1977700000000000    0.6845900000000000 O
   0.7043000000000000    0.5415700000000000    0.0356400000000000 O
   0.5511800000000000    0.5911500000000000    0.0637400000000000 O
   0.7173100000000000    0.7250000000000000    0.2332100000000000 O
   0.8735100000000000    0.6844300000000000    0.1976200000000000 O
   0.2043100000000000    0.0358800000000000    0.5413000000000000 O
   0.0510800000000000    0.0639800000000000    0.5904900000000000 O
   0.2061300000000000    0.3600600000000000    0.1705200000000000 O
   0.0269500000000000    0.3360200000000000    0.1776000000000000 O
   0.0965200000000000    0.2028900000000000    0.5862500000000000 O
   0.2600800000000000    0.1793300000000000    0.5496000000000000 O
   0.8484699999999999    0.3331900000000000    0.0642200000000000 O
   0.8242500000000000    0.2779200000000000    0.9529300000000001 O
   0.1066200000000000    0.3163200000000000    0.0164000000000000 O
   0.0762600000000000    0.2129100000000000    0.9424900000000000 O
   0.9394800000000000    0.0696200000000000    0.8915300000000000 O
   0.8292600000000000    0.1305000000000000    0.9585800000000000 O
   0.6706800000000001    0.7303700000000000    0.0925100000000000 O
   0.8193100000000000    0.6803100000000000    0.0563700000000000 O
   0.7066000000000000    0.1698700000000000    0.3604800000000000 O
   0.5273900000000000    0.1773300000000000    0.3361400000000000 O
   0.5966900000000001    0.5864400000000000    0.2024000000000000 O
   0.7596700000000000    0.5489500000000000    0.1782300000000000 O
   0.3241600000000000    0.9542000000000000    0.2757000000000000 O
   0.3483700000000000    0.0648800000000000    0.3336700000000000 O
   0.6061200000000000    0.0150300000000000    0.3169300000000000 O
   0.5763700000000000    0.9445800000000000    0.2117800000000000 O
   0.1705400000000000    0.0923100000000000    0.7292200000000000 O
   0.3194300000000000    0.0561000000000000    0.6796800000000000 O
   0.4389900000000000    0.8924000000000000    0.0694300000000000 O
   0.3295200000000000    0.9609500000000000    0.1292500000000000 O
