H12 O8
1.0
  20.0981828226735928    0.0000000000000000   -4.1442114118838367
  -0.0100473584747951   16.6159938620993550    0.0101501361666340
   0.0000000000000000    0.0000000000000000   39.5959999999999965
H O
12 8
direct
   0.6770451905114984    1.0730473044080955    0.2490202826232632 H
   0.7540777064523172    0.9593026296829306    0.3353270690537798 H
   0.7228660295949123    1.0181604125091410    0.2969977678722846 H
   0.7583006750718578    0.2284912674820766    0.2299191288235521 H
   0.8706261939191376    0.3601454592014908    0.3011066625499185 H
   0.8174844060208732    0.2912486696235252    0.2709924909353926 H
   0.8321235765701670    0.2864701046838762    0.6515918265734200 H
   0.9687456347586343    0.3966472696033707    0.7199754039253664 H
   0.9083626980617288    0.3392932873412985    0.6839440499430813 H
   0.1598237456757800    0.2829179868701026    0.6303158616150435 H
   0.1225838786049244    0.3780592665699140    0.7108599004791929 H
   0.1283108422733637    0.3304338884576932    0.6693473429108620 H
   0.6788900000000000    1.0248900000000001    0.2630400000000000 O
   0.7249500000000000    0.9637600000000000    0.3128350000000000 O
   0.7835100000000000    0.2778900000000000    0.2351900000000000 O
   0.8481300000000001    0.3513000000000000    0.2774000000000000 O
   0.8426800000000000    0.3183000000000000    0.6725150000000000 O
   0.9224800000000000    0.3818600000000000    0.7119250000000000 O
   0.1815100000000000    0.3055500000000000    0.6523000000000000 O
   0.1580500000000000    0.3614700000000000    0.6994950000000000 O
