H23 C40 Cl2 O10
1.0
  20.0981828226735928    0.0000000000000000   -4.1442114118838367
  -0.0100473584747951   16.6159938620993550    0.0101501361666340
   0.0000000000000000    0.0000000000000000   39.5959999999999965
H C Cl O
23 40 2 10
direct
   0.7824400000000000    0.0587000000000000    0.3572950000000000 H
   0.8589800000000000    0.2918100000000000    0.3358100000000000 H
   0.9528700000000000    0.1993700000000000    0.3542050000000000 H
   0.1018300000000000    0.2693300000000000    0.4418950000000000 H
   0.0206700000000000    0.2549400000000000    0.4799200000000000 H
   0.6897799999999999    0.1844200000000000    0.4364500000000000 H
   0.7266400000000000    0.0875900000000000    0.4455950000000000 H
   0.6807000000000000    0.1979200000000000    0.4989650000000000 H
   0.6362800000000000    0.1128100000000000    0.4790650000000000 H
   0.7544200000000000    0.1642300000000000    0.4000100000000000 H
   0.8889400000000000    0.0706800000000000    0.4855250000000000 H
   0.8647800000000000    0.4989300000000000    0.4527000000000000 H
   0.9343399999999999    0.5618000000000000    0.4695450000000000 H
   0.9447200000000000    0.4769700000000000    0.4438900000000000 H
   0.7152300000000000    0.0999800000000000    0.5000000000000000 H
   0.8977500000000000    0.9607300000000000    0.5284500000000000 H
   0.9596200000000000    0.1298000000000000    0.6109500000000000 H
   0.9591300000000000    0.3850700000000000    0.5548850000000000 H
   0.9880500000000000    0.4512700000000000    0.5075100000000000 H
   0.9062400000000000    0.4685400000000000    0.5151450000000000 H
   0.0818200000000000    0.2816600000000000    0.6056200000000000 H
   0.0370700000000000    0.3579300000000000    0.7020050000000000 H
   0.8778800000000000    0.2896600000000000    0.6182500000000000 H
   0.8113500000000000    0.2900200000000000    0.2663000000000000 C
   0.8022200000000000    0.2285200000000000    0.2922150000000000 C
   0.7649800000000000    0.1600500000000000    0.2826200000000000 C
   0.7565100000000000    0.0984000000000000    0.3045800000000000 C
   0.7873599999999999    0.1074300000000000    0.3395250000000000 C
   0.8236100000000000    0.1769700000000000    0.3513450000000000 C
   0.8312300000000000    0.2369700000000000    0.3274150000000000 C
   0.7183400000000000    0.0243300000000000    0.2928600000000000 C
   0.8500799999999999    0.1875300000000000    0.3888200000000000 C
   0.9179200000000000    0.2082000000000000    0.4025200000000000 C
   0.9664600000000000    0.2131800000000000    0.3815750000000000 C
   0.0310000000000000    0.2344900000000000    0.3958450000000000 C
   0.0508100000000000    0.2511400000000000    0.4314100000000000 C
   0.0052200000000000    0.2438200000000000    0.4523600000000000 C
   0.9378500000000000    0.2221600000000000    0.4390250000000000 C
   0.8914299999999999    0.2135900000000000    0.4611350000000000 C
   0.8262300000000000    0.1907200000000000    0.4468600000000000 C
   0.7195700000000000    0.1469100000000000    0.4568500000000000 C
   0.6861300000000000    0.1388400000000000    0.4874350000000000 C
   0.8061900000000000    0.1781500000000000    0.4109800000000000 C
   0.9117200000000000    0.2291500000000000    0.4987400000000000 C
   0.9345400000000000    0.4484200000000000    0.4957950000000000 C
   0.9184300000000000    0.4994100000000000    0.4635100000000000 C
   0.9177800000000000    0.1653900000000000    0.5232250000000001 C
   0.9039199999999999    0.0840900000000000    0.5129150000000000 C
   0.9087200000000000    0.0227100000000000    0.5366500000000000 C
   0.9286799999999999    0.0400600000000000    0.5722000000000000 C
   0.9437500000000000    0.1174800000000000    0.5835450000000000 C
   0.9385599999999999    0.1818000000000000    0.5594900000000000 C
   0.9539500000000000    0.2626600000000000    0.5702500000000000 C
   0.9475500000000000    0.3237600000000000    0.5460150000000000 C
   0.9256200000000000    0.3078200000000000    0.5104400000000000 C
   0.9769200000000000    0.2840600000000000    0.6073000000000000 C
   0.0448400000000000    0.2937500000000000    0.6212250000000000 C
   0.0664400000000000    0.3196200000000000    0.6553350000000000 C
   0.0199700000000000    0.3364700000000000    0.6757550000000000 C
   0.9521800000000000    0.3248700000000000    0.6623749999999999 C
   0.9308999999999999    0.2980600000000000    0.6283250000000000 C
   0.1387500000000000    0.3297900000000000    0.6700349999999999 C
   0.9016600000000000    0.3424200000000000    0.6836150000000000 C
   0.0904200000000000    0.2406300000000000    0.3699450000000000 Cl
   0.9348300000000000    0.9609100000000000    0.6016300000000000 Cl
   0.7835100000000000    0.2778900000000000    0.2351900000000000 O
   0.8481300000000001    0.3513000000000000    0.2774000000000000 O
   0.6788900000000000    1.0248900000000001    0.2630400000000000 O
   0.7249500000000000    0.9637600000000000    0.3128350000000000 O
   0.7836200000000000    0.1837900000000000    0.4691250000000000 O
   0.9166000000000000    0.3665900000000000    0.4858500000000000 O
   0.1815100000000000    0.3055500000000000    0.6523000000000000 O
   0.1580500000000000    0.3614700000000000    0.6994950000000000 O
   0.9224800000000000    0.3818600000000000    0.7119250000000000 O
   0.8426800000000000    0.3183000000000000    0.6725150000000000 O
