H2 O2
1.0
  31.7190866424936928    0.0000000000000000   -4.5092113019881870
  -1.2082216222760682   18.4688806705200150   -8.5242463766339256
   0.0000000000000000    0.0000000000000000   24.3219999999999992
H O
2 2
direct
   0.4602993925153829    0.0461575543248959    0.8653980118608969 H
   0.4150395519404933    0.1807701735440174    0.1350031236713483 H
   0.4741650000000000    0.0043900000000000    0.8389599999999999 O
   0.4009250000000000    0.1654900000000000    0.1612750000000000 O
