H1 O1
1.0
  31.7190866424936928    0.0000000000000000   -4.5092113019881870
  -1.2082216222760682   18.4688806705200150   -8.5242463766339256
   0.0000000000000000    0.0000000000000000   24.3219999999999992
H O
1 1
direct
   0.2834701675572669    0.3370309835912307    0.2141198779307890 H
   0.2750000000000000    0.3865400000000000    0.2346950000000000 O
