H1 C1 S1 N1
1.0
  31.7190866424936928    0.0000000000000000   -4.5092113019881870
  -1.2082216222760682   18.4688806705200150   -8.5242463766339256
   0.0000000000000000    0.0000000000000000   24.3219999999999992
H C S N
1 1 1 1
direct
   0.9373650000000000    0.9597100000000000    0.6500000000000000 H
   0.9103000000000000    0.8834100000000000    0.7099400000000000 C
   0.9238299999999999    0.9328100000000000    0.6758999999999999 S
   0.9002100000000000    0.8479000000000000    0.7346250000000000 N
