H3 C9 O6
1.0
  27.0019871027626621    0.0000000000000000   -0.0263913288570591
   0.3757723439903178   14.4171003595398481    0.0098167432461292
   0.0000000000000000    0.0000000000000000   30.7059999999999995
H C O
3 9 6
direct
   0.4805950000000000    0.3038900000000000    0.8828199999999999 H
   0.3584400000000000    0.4827500000000000    0.8431800000000000 H
   0.3960550000000000    0.2379800000000000    0.7684850000000000 H
   0.4414650000000000    0.2615700000000000    0.8251550000000001 C
   0.4501100000000000    0.3199200000000000    0.8606400000000001 C
   0.4200000000000000    0.3991200000000000    0.8673450000000000 C
   0.3814250000000000    0.4205400000000000    0.8382550000000000 C
   0.3729150000000000    0.3626800000000000    0.8025750000000000 C
   0.4026650000000000    0.2827900000000000    0.7962700000000000 C
   0.4751550000000000    0.1799000000000000    0.8173000000000000 C
   0.4297750000000000    0.4630100000000000    0.9043450000000000 C
   0.3337250000000000    0.3868500000000000    0.7703000000000000 C
   0.4657700000000000    0.1281200000000000    0.7841000000000000 O
   0.4688700000000000    0.4452100000000000    0.9273950000000000 O
   0.3996950000000000    0.5306500000000000    0.9111450000000000 O
   0.3088000000000000    0.4637600000000000    0.7744150000000001 O
   0.3253000000000000    0.3315500000000000    0.7387500000000000 O
   0.5117450000000000    0.1647200000000000    0.8427249999999999 O
