H9 O6
1.0
  27.0019871027626621    0.0000000000000000   -0.0263913288570591
   0.3757723439903178   14.4171003595398481    0.0098167432461292
   0.0000000000000000    0.0000000000000000   30.7059999999999995
H O
9 6
direct
   0.5475962846673222    0.1644913984420528    0.8447957231213675 H
   0.5015183162462339    0.1245097295098915    0.7810335469615447 H
   0.3678757054328776    0.5291631272078935    0.8965071289779820 H
   0.4886118013432610    0.3881000483678399    0.9262851806576955 H
   0.4298600834857830    0.4433871191261021    0.9094492179113923 H
   0.3380240580929645    0.2689726130336257    0.7438810496248929 H
   0.3067634538229114    0.5048788280605500    0.7993708426604174 H
   0.3219565651184420    0.3990555275314037    0.7797204605710412 H
   0.9016743980575970    0.1253405061705126    0.8092772655886554 H
   0.5117450000000000    0.1647200000000000    0.8427249999999999 O
   0.4657700000000000    0.1281200000000000    0.7841000000000000 O
   0.3996950000000000    0.5306500000000000    0.9111450000000000 O
   0.4688700000000000    0.4452100000000000    0.9273950000000000 O
   0.3253000000000000    0.3315500000000000    0.7387500000000000 O
   0.3088000000000000    0.4637600000000000    0.7744150000000001 O
