Zn32 H130 C168 O112
1.0
  20.7469999873602049    0.0000000000000000   -0.0007242069196723
  -0.0705694957595073   13.1703099668124164   -0.0050571088366811
   0.0000000000000000    0.0000000000000000   39.9879999999999995
Zn H C O
32 130 168 112
direct
   0.0310000000000000    0.6136400000000000    0.7570200000000000 Zn
   0.2190000000000000    0.3863600000000000    0.5070100000000000 Zn
   0.2190000000000000    0.3863600000000000    0.0070100000000000 Zn
   0.0310000000000000    0.6136400000000000    0.2570200000000000 Zn
   0.1832050000000000    0.6801500000000000    0.2569300000000000 Zn
   0.1832050000000000    0.6801500000000000    0.7569300000000000 Zn
   0.0667800000000000    0.3198800000000000    0.5069200000000000 Zn
   0.0667800000000000    0.3198800000000000    0.0069200000000000 Zn
   0.2823850000000000    0.8839399999999999    0.2430300000000000 Zn
   0.4676000000000000    0.1160700000000000    0.4930350000000000 Zn
   0.2823850000000000    0.8839399999999999    0.7430300000000000 Zn
   0.4676000000000000    0.1160700000000000    0.9930350000000000 Zn
   0.4333300000000000    0.8176800000000000    0.7429850000000000 Zn
   0.4333300000000000    0.8176800000000000    0.2429850000000000 Zn
   0.3166650000000000    0.1823300000000000    0.9929950000000001 Zn
   0.3166650000000000    0.1823300000000000    0.4929950000000000 Zn
   0.7190000000000000    0.3863600000000000    0.0070100000000000 Zn
   0.5310000000000000    0.6136400000000000    0.2570200000000000 Zn
   0.7190000000000000    0.3863600000000000    0.5070100000000000 Zn
   0.5310000000000000    0.6136400000000000    0.7570200000000000 Zn
   0.6832050000000001    0.6801500000000000    0.7569300000000000 Zn
   0.6832050000000001    0.6801500000000000    0.2569300000000000 Zn
   0.5667800000000001    0.3198800000000000    0.0069200000000000 Zn
   0.5667800000000001    0.3198800000000000    0.5069200000000000 Zn
   0.7823850000000000    0.8839399999999999    0.2430300000000000 Zn
   0.9676000000000000    0.1160700000000000    0.4930350000000000 Zn
   0.7823850000000000    0.8839399999999999    0.7430300000000000 Zn
   0.9676000000000000    0.1160700000000000    0.9930350000000000 Zn
   0.9333300000000000    0.8176800000000000    0.2429850000000000 Zn
   0.9333300000000000    0.8176800000000000    0.7429850000000000 Zn
   0.8166650000000000    0.1823300000000000    0.9929950000000001 Zn
   0.8166650000000000    0.1823300000000000    0.4929950000000000 Zn
   0.2006667022444173    0.6129743191126918    0.8128536718846164 H
   0.0235131571484666    0.5083361646056367    0.8086555106356091 H
   0.1104028132194958    0.5523707325146703    0.8150996631009012 H
   0.8506000000000000    0.5595100000000000    0.8124250000000000 H
   0.9366650000000001    0.5575700000000000    0.8103050000000001 H
   0.8959500000000000    0.6751400000000000    0.8156150000000000 H
   0.8874750000000000    0.5379900000000000    0.7533099999999999 H
   0.1421828503729267    0.3629941707601120    0.5728591753565804 H
   0.0233550000000000    0.4733300000000000    0.6627149999999999 H
   0.0335300000000000    0.4185600000000000    0.6027650000000000 H
   0.2288950000000000    0.5277500000000001    0.6010700000000000 H
   0.2189450000000000    0.5814900000000000    0.6610199999999999 H
   0.3992250000000000    0.4384000000000000    0.5629700000000000 H
   0.3131600000000000    0.4402500000000000    0.5607950000000000 H
   0.3539550000000000    0.3225700000000000    0.5656350000000000 H
   0.3625000000000000    0.4620400000000000    0.5039200000000000 H
   0.1937300838938486    0.4467214342959491    0.9407440794773805 H
   0.0233550000000000    0.4733300000000000    0.1627150000000000 H
   0.0335300000000000    0.4185600000000000    0.1027650000000000 H
   0.2288950000000000    0.5277500000000001    0.1010700000000000 H
   0.2189450000000000    0.5814900000000000    0.1610200000000000 H
   0.3992250000000000    0.4384000000000000    0.0629700000000000 H
   0.3131600000000000    0.4402500000000000    0.0607950000000000 H
   0.3539550000000000    0.3225700000000000    0.0656350000000000 H
   0.3625000000000000    0.4620400000000000    0.0039200000000000 H
   0.0212950000000000    0.4715800000000000    0.3509650000000000 H
   0.0312400000000000    0.4177800000000000    0.4108900000000000 H
   0.2267900000000000    0.5261300000000000    0.4126550000000000 H
   0.2166150000000000    0.5809700000000000    0.3527250000000000 H
   0.8506000000000000    0.5595100000000000    0.3124250000000000 H
   0.9366650000000001    0.5575700000000000    0.3103050000000000 H
   0.8959500000000000    0.6751400000000000    0.3156150000000000 H
   0.8874750000000000    0.5379900000000000    0.2533100000000000 H
   0.0827601457961616    0.3894025841762744    0.9399125487204829 H
   0.4747850000000000    0.9742900000000000    0.0864300000000000 H
   0.4658150000000000    0.9177000000000000    0.1462300000000000 H
   0.2712700000000000    0.0267300000000000    0.1495900000000000 H
   0.2799600000000000    0.0822200000000000    0.0897950000000000 H
   0.1883000000000000    0.9396200000000000    0.1897050000000000 H
   0.1022400000000000    0.9372600000000000    0.1873650000000000 H
   0.1470650000000000    0.8218600000000000    0.1842850000000000 H
   0.1385950000000000    0.9590500000000000    0.2465550000000000 H
   0.4788750000000000    0.9736200000000000    0.3995400000000000 H
   0.4701500000000000    0.9181900000000000    0.3397250000000000 H
   0.2753650000000000    0.0264300000000000    0.3363350000000000 H
   0.2843200000000000    0.0829800000000000    0.3961550000000000 H
   0.6477550000000000    0.0621200000000000    0.4374600000000000 H
   0.5616950000000001    0.0597300000000000    0.4397950000000000 H
   0.6029000000000000    0.1774500000000000    0.4342700000000000 H
   0.6113850000000000    0.0409400000000000    0.4966650000000000 H
   0.4747850000000000    0.9742900000000000    0.5864300000000000 H
   0.4658150000000000    0.9177000000000000    0.6462300000000000 H
   0.2712700000000000    0.0267300000000000    0.6495900000000000 H
   0.2799600000000000    0.0822200000000000    0.5897950000000000 H
   0.1883000000000000    0.9396200000000000    0.6897050000000000 H
   0.1022400000000000    0.9372600000000000    0.6873650000000000 H
   0.1470650000000000    0.8218600000000000    0.6842850000000000 H
   0.1385950000000000    0.9590500000000000    0.7465550000000000 H
   0.4788750000000000    0.9736200000000000    0.8995400000000000 H
   0.4701500000000000    0.9181900000000000    0.8397250000000001 H
   0.2753650000000000    0.0264300000000000    0.8363350000000001 H
   0.2843200000000000    0.0829800000000000    0.8961550000000000 H
   0.6477550000000000    0.0621200000000000    0.9374600000000000 H
   0.5616950000000001    0.0597300000000000    0.9397949999999999 H
   0.6029000000000000    0.1774500000000000    0.9342699999999999 H
   0.6113850000000000    0.0409400000000000    0.9966650000000000 H
   0.5233550000000000    0.4733300000000000    0.1627150000000000 H
   0.5335299999999999    0.4185600000000000    0.1027650000000000 H
   0.7288950000000000    0.5277500000000001    0.1010700000000000 H
   0.7189449999999999    0.5814900000000000    0.1610200000000000 H
   0.8992249999999999    0.4384000000000000    0.0629700000000000 H
   0.8131600000000000    0.4402500000000000    0.0607950000000000 H
   0.8539550000000000    0.3225700000000000    0.0656350000000000 H
   0.8625000000000000    0.4620400000000000    0.0039200000000000 H
   0.5212950000000000    0.4715800000000000    0.3509650000000000 H
   0.5312400000000000    0.4177800000000000    0.4108900000000000 H
   0.7267900000000000    0.5261300000000000    0.4126550000000000 H
   0.7166150000000000    0.5809700000000000    0.3527250000000000 H
   0.3506000000000000    0.5595100000000000    0.3124250000000000 H
   0.4366650000000000    0.5575700000000000    0.3103050000000000 H
   0.3959500000000000    0.6751400000000000    0.3156150000000000 H
   0.3874750000000000    0.5379900000000000    0.2533100000000000 H
   0.5233550000000000    0.4733300000000000    0.6627149999999999 H
   0.5335299999999999    0.4185600000000000    0.6027650000000000 H
   0.7288950000000000    0.5277500000000001    0.6010700000000000 H
   0.7189449999999999    0.5814900000000000    0.6610199999999999 H
   0.8992249999999999    0.4384000000000000    0.5629700000000000 H
   0.8131600000000000    0.4402500000000000    0.5607950000000000 H
   0.8539550000000000    0.3225700000000000    0.5656350000000000 H
   0.8625000000000000    0.4620400000000000    0.5039200000000000 H
   0.5212950000000000    0.4715800000000000    0.8509650000000000 H
   0.5312400000000000    0.4177800000000000    0.9108900000000000 H
   0.7267900000000000    0.5261300000000000    0.9126550000000000 H
   0.7166150000000000    0.5809700000000000    0.8527250000000000 H
   0.3506000000000000    0.5595100000000000    0.8124250000000000 H
   0.4366650000000000    0.5575700000000000    0.8103050000000001 H
   0.3959500000000000    0.6751400000000000    0.8156150000000000 H
   0.3874750000000000    0.5379900000000000    0.7533099999999999 H
   0.9747850000000000    0.9742900000000000    0.0864300000000000 H
   0.9658150000000000    0.9177000000000000    0.1462300000000000 H
   0.7712700000000000    0.0267300000000000    0.1495900000000000 H
   0.7799600000000000    0.0822200000000000    0.0897950000000000 H
   0.6883000000000000    0.9396200000000000    0.1897050000000000 H
   0.6022400000000000    0.9372600000000000    0.1873650000000000 H
   0.6470650000000000    0.8218600000000000    0.1842850000000000 H
   0.6385950000000000    0.9590500000000000    0.2465550000000000 H
   0.9788749999999999    0.9736200000000000    0.3995400000000000 H
   0.9701500000000001    0.9181900000000000    0.3397250000000000 H
   0.7753650000000001    0.0264300000000000    0.3363350000000000 H
   0.7843200000000000    0.0829800000000000    0.3961550000000000 H
   0.1477550000000000    0.0621200000000000    0.4374600000000000 H
   0.0616950000000000    0.0597300000000000    0.4397950000000000 H
   0.1029000000000000    0.1774500000000000    0.4342700000000000 H
   0.1113850000000000    0.0409400000000000    0.4966650000000000 H
   0.9747850000000000    0.9742900000000000    0.5864300000000000 H
   0.9658150000000000    0.9177000000000000    0.6462300000000000 H
   0.7712700000000000    0.0267300000000000    0.6495900000000000 H
   0.7799600000000000    0.0822200000000000    0.5897950000000000 H
   0.6883000000000000    0.9396200000000000    0.6897050000000000 H
   0.6022400000000000    0.9372600000000000    0.6873650000000000 H
   0.6470650000000000    0.8218600000000000    0.6842850000000000 H
   0.6385950000000000    0.9590500000000000    0.7465550000000000 H
   0.9788749999999999    0.9736200000000000    0.8995400000000000 H
   0.9701500000000001    0.9181900000000000    0.8397250000000001 H
   0.7753650000000001    0.0264300000000000    0.8363350000000001 H
   0.7843200000000000    0.0829800000000000    0.8961550000000000 H
   0.1477550000000000    0.0621200000000000    0.9374600000000000 H
   0.0616950000000000    0.0597300000000000    0.9397949999999999 H
   0.1029000000000000    0.1774500000000000    0.9342699999999999 H
   0.1113850000000000    0.0409400000000000    0.9966650000000000 H
   0.8934250000000000    0.6004200000000000    0.8034200000000000 C
   0.8284450000000000    0.6687500000000000    0.7560500000000000 C
   0.8905500000000000    0.6134500000000001    0.7653449999999999 C
   0.1376350000000000    0.4351800000000000    0.5629400000000000 C
   0.1147450000000000    0.5646700000000000    0.7008950000000000 C
   0.0681450000000000    0.4846000000000000    0.6489950000000000 C
   0.0737000000000000    0.4545000000000000    0.6157900000000001 C
   0.1841350000000000    0.5160000000000000    0.6147700000000000 C
   0.1786650000000000    0.5458200000000000    0.6480049999999999 C
   0.1317300000000000    0.4699700000000000    0.5984450000000000 C
   0.1206450000000000    0.5303200000000000    0.6653450000000000 C
   0.3564550000000000    0.3977500000000000    0.5537650000000000 C
   0.4215500000000000    0.3311600000000000    0.5061750000000000 C
   0.3594200000000000    0.3861500000000000    0.5156300000000000 C
   0.1376350000000000    0.4351800000000000    0.0629400000000000 C
   0.1147450000000000    0.5646700000000000    0.2008950000000000 C
   0.0681450000000000    0.4846000000000000    0.1489950000000000 C
   0.0737000000000000    0.4545000000000000    0.1157900000000000 C
   0.1841350000000000    0.5160000000000000    0.1147700000000000 C
   0.1786650000000000    0.5458200000000000    0.1480050000000000 C
   0.1317300000000000    0.4699700000000000    0.0984450000000000 C
   0.1206450000000000    0.5303200000000000    0.1653450000000000 C
   0.3564550000000000    0.3977500000000000    0.0537650000000000 C
   0.4215500000000000    0.3311600000000000    0.0061750000000000 C
   0.3594200000000000    0.3861500000000000    0.0156300000000000 C
   0.1353400000000000    0.4350700000000000    0.4508450000000000 C
   0.1124300000000000    0.5646400000000000    0.3129150000000000 C
   0.0660450000000000    0.4833700000000000    0.3646700000000000 C
   0.0715100000000000    0.4535100000000000    0.3978950000000000 C
   0.1184150000000000    0.5295500000000000    0.3483750000000000 C
   0.1820000000000000    0.5148500000000000    0.3989250000000000 C
   0.1764450000000000    0.5449800000000000    0.3657300000000000 C
   0.1295000000000000    0.4691300000000000    0.4152650000000000 C
   0.8934250000000000    0.6004200000000000    0.3034200000000000 C
   0.8284450000000000    0.6687500000000000    0.2560500000000000 C
   0.8905500000000000    0.6134500000000001    0.2653450000000000 C
   0.3833000000000000    0.0663300000000000    0.0490700000000000 C
   0.3625850000000000    0.9332200000000000    0.1868700000000000 C
   0.4303900000000000    0.9850500000000000    0.1004700000000000 C
   0.4255100000000000    0.9539200000000000    0.1336100000000000 C
   0.3155550000000000    0.0151800000000000    0.1355350000000000 C
   0.3203250000000000    0.0460000000000000    0.1023600000000000 C
   0.3777450000000000    0.0309100000000000    0.0845450000000000 C
   0.3680250000000000    0.9687700000000000    0.1514050000000000 C
   0.1447900000000000    0.8965800000000000    0.1964700000000000 C
   0.0790100000000000    0.8278300000000000    0.2437100000000000 C
   0.1414900000000000    0.8836000000000001    0.2345350000000000 C
   0.3666800000000000    0.9336000000000000    0.2990800000000000 C
   0.3874100000000000    0.0668700000000000    0.4368600000000000 C
   0.4345200000000000    0.9849100000000000    0.3855250000000000 C
   0.4297300000000000    0.9541200000000000    0.3523400000000000 C
   0.3722250000000000    0.9689200000000000    0.3345750000000000 C
   0.3197100000000000    0.0154700000000000    0.3504000000000000 C
   0.3245850000000000    0.0465900000000000    0.3835500000000000 C
   0.3820050000000000    0.0314600000000000    0.4013700000000000 C
   0.6051950000000000    0.1028700000000000    0.4465250000000000 C
   0.6709750000000000    0.1721200000000000    0.4937150000000000 C
   0.6084900000000000    0.1162700000000000    0.4845750000000000 C
   0.3833000000000000    0.0663300000000000    0.5490699999999999 C
   0.3625850000000000    0.9332200000000000    0.6868700000000000 C
   0.4303900000000000    0.9850500000000000    0.6004700000000001 C
   0.4255100000000000    0.9539200000000000    0.6336100000000000 C
   0.3155550000000000    0.0151800000000000    0.6355350000000000 C
   0.3203250000000000    0.0460000000000000    0.6023600000000000 C
   0.3777450000000000    0.0309100000000000    0.5845450000000000 C
   0.3680250000000000    0.9687700000000000    0.6514050000000000 C
   0.1447900000000000    0.8965800000000000    0.6964700000000000 C
   0.0790100000000000    0.8278300000000000    0.7437100000000000 C
   0.1414900000000000    0.8836000000000001    0.7345349999999999 C
   0.3666800000000000    0.9336000000000000    0.7990800000000000 C
   0.3874100000000000    0.0668700000000000    0.9368600000000000 C
   0.4345200000000000    0.9849100000000000    0.8855250000000000 C
   0.4297300000000000    0.9541200000000000    0.8523400000000000 C
   0.3722250000000000    0.9689200000000000    0.8345750000000001 C
   0.3197100000000000    0.0154700000000000    0.8504000000000000 C
   0.3245850000000000    0.0465900000000000    0.8835500000000001 C
   0.3820050000000000    0.0314600000000000    0.9013700000000000 C
   0.6051950000000000    0.1028700000000000    0.9465250000000001 C
   0.6709750000000000    0.1721200000000000    0.9937150000000000 C
   0.6084900000000000    0.1162700000000000    0.9845750000000000 C
   0.6376350000000000    0.4351800000000000    0.0629400000000000 C
   0.6147450000000000    0.5646700000000000    0.2008950000000000 C
   0.5681450000000000    0.4846000000000000    0.1489950000000000 C
   0.5737000000000000    0.4545000000000000    0.1157900000000000 C
   0.6841349999999999    0.5160000000000000    0.1147700000000000 C
   0.6786650000000000    0.5458200000000000    0.1480050000000000 C
   0.6317300000000000    0.4699700000000000    0.0984450000000000 C
   0.6206450000000000    0.5303200000000000    0.1653450000000000 C
   0.8564550000000000    0.3977500000000000    0.0537650000000000 C
   0.9215500000000000    0.3311600000000000    0.0061750000000000 C
   0.8594200000000001    0.3861500000000000    0.0156300000000000 C
   0.6353400000000000    0.4350700000000000    0.4508450000000000 C
   0.6124300000000000    0.5646400000000000    0.3129150000000000 C
   0.5660450000000000    0.4833700000000000    0.3646700000000000 C
   0.5715100000000000    0.4535100000000000    0.3978950000000000 C
   0.6184150000000000    0.5295500000000000    0.3483750000000000 C
   0.6819999999999999    0.5148500000000000    0.3989250000000000 C
   0.6764450000000000    0.5449800000000000    0.3657300000000000 C
   0.6294999999999999    0.4691300000000000    0.4152650000000000 C
   0.3934250000000000    0.6004200000000000    0.3034200000000000 C
   0.3284450000000000    0.6687500000000000    0.2560500000000000 C
   0.3905500000000000    0.6134500000000001    0.2653450000000000 C
   0.6376350000000000    0.4351800000000000    0.5629400000000000 C
   0.6147450000000000    0.5646700000000000    0.7008950000000000 C
   0.5681450000000000    0.4846000000000000    0.6489950000000000 C
   0.5737000000000000    0.4545000000000000    0.6157900000000001 C
   0.6841349999999999    0.5160000000000000    0.6147700000000000 C
   0.6786650000000000    0.5458200000000000    0.6480049999999999 C
   0.6317300000000000    0.4699700000000000    0.5984450000000000 C
   0.6206450000000000    0.5303200000000000    0.6653450000000000 C
   0.8564550000000000    0.3977500000000000    0.5537650000000000 C
   0.9215500000000000    0.3311600000000000    0.5061750000000000 C
   0.8594200000000001    0.3861500000000000    0.5156300000000000 C
   0.6353400000000000    0.4350700000000000    0.9508449999999999 C
   0.6124300000000000    0.5646400000000000    0.8129150000000001 C
   0.5660450000000000    0.4833700000000000    0.8646700000000000 C
   0.5715100000000000    0.4535100000000000    0.8978950000000000 C
   0.6184150000000000    0.5295500000000000    0.8483750000000000 C
   0.6819999999999999    0.5148500000000000    0.8989250000000000 C
   0.6764450000000000    0.5449800000000000    0.8657300000000000 C
   0.6294999999999999    0.4691300000000000    0.9152650000000000 C
   0.3934250000000000    0.6004200000000000    0.8034200000000000 C
   0.3284450000000000    0.6687500000000000    0.7560500000000000 C
   0.3905500000000000    0.6134500000000001    0.7653449999999999 C
   0.8833000000000000    0.0663300000000000    0.0490700000000000 C
   0.8625849999999999    0.9332200000000000    0.1868700000000000 C
   0.9303900000000001    0.9850500000000000    0.1004700000000000 C
   0.9255100000000001    0.9539200000000000    0.1336100000000000 C
   0.8155550000000000    0.0151800000000000    0.1355350000000000 C
   0.8203250000000000    0.0460000000000000    0.1023600000000000 C
   0.8777450000000000    0.0309100000000000    0.0845450000000000 C
   0.8680250000000000    0.9687700000000000    0.1514050000000000 C
   0.6447900000000000    0.8965800000000000    0.1964700000000000 C
   0.5790100000000000    0.8278300000000000    0.2437100000000000 C
   0.6414900000000000    0.8836000000000001    0.2345350000000000 C
   0.8666800000000000    0.9336000000000000    0.2990800000000000 C
   0.8874100000000000    0.0668700000000000    0.4368600000000000 C
   0.9345200000000000    0.9849100000000000    0.3855250000000000 C
   0.9297299999999999    0.9541200000000000    0.3523400000000000 C
   0.8722250000000000    0.9689200000000000    0.3345750000000000 C
   0.8197099999999999    0.0154700000000000    0.3504000000000000 C
   0.8245850000000000    0.0465900000000000    0.3835500000000000 C
   0.8820049999999999    0.0314600000000000    0.4013700000000000 C
   0.1051950000000000    0.1028700000000000    0.4465250000000000 C
   0.1709750000000000    0.1721200000000000    0.4937150000000000 C
   0.1084900000000000    0.1162700000000000    0.4845750000000000 C
   0.8833000000000000    0.0663300000000000    0.5490699999999999 C
   0.8625849999999999    0.9332200000000000    0.6868700000000000 C
   0.9303900000000001    0.9850500000000000    0.6004700000000001 C
   0.9255100000000001    0.9539200000000000    0.6336100000000000 C
   0.8155550000000000    0.0151800000000000    0.6355350000000000 C
   0.8203250000000000    0.0460000000000000    0.6023600000000000 C
   0.8777450000000000    0.0309100000000000    0.5845450000000000 C
   0.8680250000000000    0.9687700000000000    0.6514050000000000 C
   0.6447900000000000    0.8965800000000000    0.6964700000000000 C
   0.5790100000000000    0.8278300000000000    0.7437100000000000 C
   0.6414900000000000    0.8836000000000001    0.7345349999999999 C
   0.8666800000000000    0.9336000000000000    0.7990800000000000 C
   0.8874100000000000    0.0668700000000000    0.9368600000000000 C
   0.9345200000000000    0.9849100000000000    0.8855250000000000 C
   0.9297299999999999    0.9541200000000000    0.8523400000000000 C
   0.8722250000000000    0.9689200000000000    0.8345750000000001 C
   0.8197099999999999    0.0154700000000000    0.8504000000000000 C
   0.8245850000000000    0.0465900000000000    0.8835500000000001 C
   0.8820049999999999    0.0314600000000000    0.9013700000000000 C
   0.1051950000000000    0.1028700000000000    0.9465250000000001 C
   0.1709750000000000    0.1721200000000000    0.9937150000000000 C
   0.1084900000000000    0.1162700000000000    0.9845750000000000 C
   0.1608900000000000    0.6090100000000001    0.8001600000000000 O
   0.0581200000000000    0.5471600000000000    0.7984150000000000 O
   0.7753900000000000    0.6280200000000000    0.7633200000000000 O
   0.8357000000000000    0.7554600000000000    0.7417100000000000 O
   0.9450650000000000    0.6673700000000000    0.7527050000000000 O
   0.0891350000000000    0.3909600000000000    0.5501650000000000 O
   0.1919100000000000    0.4528000000000000    0.5484300000000000 O
   0.1643300000000000    0.6052500000000000    0.7140900000000000 O
   0.0598300000000000    0.5511900000000000    0.7149650000000000 O
   0.4746000000000000    0.3719200000000000    0.5134550000000000 O
   0.4143200000000000    0.2445800000000000    0.4917200000000000 O
   0.3049550000000000    0.3326300000000000    0.5027300000000000 O
   0.1902400000000000    0.4486800000000000    0.9649250000000000 O
   0.0891350000000000    0.3909600000000000    0.0501650000000000 O
   0.1919100000000000    0.4528000000000000    0.0484300000000000 O
   0.1643300000000000    0.6052500000000000    0.2140900000000000 O
   0.0598300000000000    0.5511900000000000    0.2149650000000000 O
   0.4746000000000000    0.3719200000000000    0.0134550000000000 O
   0.4143200000000000    0.2445800000000000    0.9917199999999999 O
   0.3049550000000000    0.3326300000000000    0.0027300000000000 O
   0.0857200000000000    0.3946800000000000    0.4640600000000000 O
   0.1902400000000000    0.4486800000000000    0.4649250000000000 O
   0.1608900000000000    0.6090100000000001    0.3001600000000000 O
   0.0581200000000000    0.5471600000000000    0.2984150000000000 O
   0.7753900000000000    0.6280200000000000    0.2633200000000000 O
   0.8357000000000000    0.7554600000000000    0.2417100000000000 O
   0.9450650000000000    0.6673700000000000    0.2527050000000000 O
   0.0857200000000000    0.3946800000000000    0.9640599999999999 O
   0.3338250000000000    0.1070300000000000    0.0360350000000000 O
   0.4381000000000000    0.0534400000000000    0.0349050000000000 O
   0.4108650000000000    0.8887699999999999    0.1994900000000000 O
   0.3085750000000000    0.9506700000000000    0.2015700000000000 O
   0.0261350000000000    0.8675200000000000    0.2359700000000000 O
   0.0857550000000000    0.7418200000000000    0.2584400000000000 O
   0.1958100000000000    0.8302600000000000    0.2473300000000000 O
   0.4161700000000000    0.8929800000000000    0.2860250000000000 O
   0.3118900000000000    0.9465400000000000    0.2849150000000000 O
   0.3391200000000000    0.1112800000000000    0.4494900000000000 O
   0.4414000000000000    0.0493300000000000    0.4515600000000000 O
   0.7238500000000000    0.1324200000000000    0.4859750000000000 O
   0.6642250000000001    0.2581900000000000    0.5084250000000000 O
   0.5541700000000001    0.1697400000000000    0.4973200000000000 O
   0.3338250000000000    0.1070300000000000    0.5360350000000000 O
   0.4381000000000000    0.0534400000000000    0.5349050000000000 O
   0.4108650000000000    0.8887699999999999    0.6994899999999999 O
   0.3085750000000000    0.9506700000000000    0.7015700000000000 O
   0.0261350000000000    0.8675200000000000    0.7359700000000000 O
   0.0857550000000000    0.7418200000000000    0.7584400000000000 O
   0.1958100000000000    0.8302600000000000    0.7473300000000000 O
   0.4161700000000000    0.8929800000000000    0.7860250000000000 O
   0.3118900000000000    0.9465400000000000    0.7849150000000000 O
   0.3391200000000000    0.1112800000000000    0.9494899999999999 O
   0.4414000000000000    0.0493300000000000    0.9515600000000000 O
   0.7238500000000000    0.1324200000000000    0.9859750000000000 O
   0.6642250000000001    0.2581900000000000    0.0084250000000000 O
   0.5541700000000001    0.1697400000000000    0.9973200000000000 O
   0.5891350000000000    0.3909600000000000    0.0501650000000000 O
   0.6919100000000000    0.4528000000000000    0.0484300000000000 O
   0.6643300000000000    0.6052500000000000    0.2140900000000000 O
   0.5598300000000000    0.5511900000000000    0.2149650000000000 O
   0.9746000000000000    0.3719200000000000    0.0134550000000000 O
   0.9143200000000000    0.2445800000000000    0.9917199999999999 O
   0.8049550000000000    0.3326300000000000    0.0027300000000000 O
   0.5857200000000000    0.3946800000000000    0.4640600000000000 O
   0.6902400000000000    0.4486800000000000    0.4649250000000000 O
   0.6608900000000000    0.6090100000000001    0.3001600000000000 O
   0.5581199999999999    0.5471600000000000    0.2984150000000000 O
   0.2753900000000000    0.6280200000000000    0.2633200000000000 O
   0.3357000000000000    0.7554600000000000    0.2417100000000000 O
   0.4450650000000000    0.6673700000000000    0.2527050000000000 O
   0.5891350000000000    0.3909600000000000    0.5501650000000000 O
   0.6919100000000000    0.4528000000000000    0.5484300000000000 O
   0.6643300000000000    0.6052500000000000    0.7140900000000000 O
   0.5598300000000000    0.5511900000000000    0.7149650000000000 O
   0.9746000000000000    0.3719200000000000    0.5134550000000000 O
   0.9143200000000000    0.2445800000000000    0.4917200000000000 O
   0.8049550000000000    0.3326300000000000    0.5027300000000000 O
   0.5857200000000000    0.3946800000000000    0.9640599999999999 O
   0.6902400000000000    0.4486800000000000    0.9649250000000000 O
   0.6608900000000000    0.6090100000000001    0.8001600000000000 O
   0.5581199999999999    0.5471600000000000    0.7984150000000000 O
   0.2753900000000000    0.6280200000000000    0.7633200000000000 O
   0.3357000000000000    0.7554600000000000    0.7417100000000000 O
   0.4450650000000000    0.6673700000000000    0.7527050000000000 O
   0.8338250000000000    0.1070300000000000    0.0360350000000000 O
   0.9380999999999999    0.0534400000000000    0.0349050000000000 O
   0.9108650000000000    0.8887699999999999    0.1994900000000000 O
   0.8085750000000000    0.9506700000000000    0.2015700000000000 O
   0.5261350000000000    0.8675200000000000    0.2359700000000000 O
   0.5857550000000000    0.7418200000000000    0.2584400000000000 O
   0.6958100000000000    0.8302600000000000    0.2473300000000000 O
   0.9161699999999999    0.8929800000000000    0.2860250000000000 O
   0.8118900000000000    0.9465400000000000    0.2849150000000000 O
   0.8391200000000000    0.1112800000000000    0.4494900000000000 O
   0.9414000000000000    0.0493300000000000    0.4515600000000000 O
   0.2238500000000000    0.1324200000000000    0.4859750000000000 O
   0.1642250000000000    0.2581900000000000    0.5084250000000000 O
   0.0541700000000000    0.1697400000000000    0.4973200000000000 O
   0.8338250000000000    0.1070300000000000    0.5360350000000000 O
   0.9380999999999999    0.0534400000000000    0.5349050000000000 O
   0.9108650000000000    0.8887699999999999    0.6994899999999999 O
   0.8085750000000000    0.9506700000000000    0.7015700000000000 O
   0.5261350000000000    0.8675200000000000    0.7359700000000000 O
   0.5857550000000000    0.7418200000000000    0.7584400000000000 O
   0.6958100000000000    0.8302600000000000    0.7473300000000000 O
   0.9161699999999999    0.8929800000000000    0.7860250000000000 O