H4 C3 O3
1.0
  20.7469999873602049    0.0000000000000000   -0.0007242069196723
  -0.0705694957595073   13.1703099668124164   -0.0050571088366811
   0.0000000000000000    0.0000000000000000   39.9879999999999995
H C O
4 3 3
direct
   0.6113850000000000    0.0409400000000000    0.4966650000000000 H
   0.5616950000000001    0.0597300000000000    0.4397950000000000 H
   0.6477550000000000    0.0621200000000000    0.4374600000000000 H
   0.6029000000000000    0.1774500000000000    0.4342700000000000 H
   0.6709750000000000    0.1721200000000000    0.4937150000000000 C
   0.6084900000000000    0.1162700000000000    0.4845750000000000 C
   0.6051950000000000    0.1028700000000000    0.4465250000000000 C
   0.5541700000000001    0.1697400000000000    0.4973200000000000 O
   0.7238500000000000    0.1324200000000000    0.4859750000000000 O
   0.6642250000000001    0.2581900000000000    0.5084250000000000 O
