Ca32 H248 C434 S31 O186
1.0
  22.6139995040194819    0.0000000000000000    0.0047362650499251
   0.0008246870991955   23.9484504314913522   -3.9375907926412044
   0.0000000000000000    0.0000000000000000   22.8520000000000003
Ca H C S O
32 248 434 31 186
direct
   0.0664950000000000    0.9324100000000000    0.7774500000000000 Ca
   0.3163950000000000    0.4324700000000000    0.7774100000000000 Ca
   0.3164900000000000    0.9324100000000000    0.7774500000000000 Ca
   0.1913250000000000    0.3170600000000000    0.7226500000000000 Ca
   0.1912150000000000    0.8170300000000000    0.7227200000000000 Ca
   0.4413200000000000    0.3170600000000000    0.7226500000000000 Ca
   0.4412100000000000    0.8170300000000000    0.7227200000000000 Ca
   0.1835250000000000    0.0676000000000000    0.2225000000000000 Ca
   0.1836600000000000    0.5675200000000000    0.2225800000000000 Ca
   0.4335200000000000    0.0676000000000000    0.2225000000000000 Ca
   0.4336550000000000    0.5675200000000000    0.2225800000000000 Ca
   0.0588600000000000    0.1829900000000000    0.2772800000000000 Ca
   0.0587100000000000    0.6829100000000000    0.2773500000000000 Ca
   0.3088550000000000    0.1829900000000000    0.2772800000000000 Ca
   0.3087000000000000    0.6829100000000000    0.2773500000000000 Ca
   0.0664000000000000    0.4324700000000000    0.7774100000000000 Ca
   0.5664950000000000    0.9324100000000000    0.7774500000000000 Ca
   0.8163950000000000    0.4324700000000000    0.7774100000000000 Ca
   0.8164899999999999    0.9324100000000000    0.7774500000000000 Ca
   0.6913250000000000    0.3170600000000000    0.7226500000000000 Ca
   0.6912150000000000    0.8170300000000000    0.7227200000000000 Ca
   0.9413199999999999    0.3170600000000000    0.7226500000000000 Ca
   0.9412100000000000    0.8170300000000000    0.7227200000000000 Ca
   0.6835249999999999    0.0676000000000000    0.2225000000000000 Ca
   0.6836599999999999    0.5675200000000000    0.2225800000000000 Ca
   0.9335200000000000    0.0676000000000000    0.2225000000000000 Ca
   0.9336550000000000    0.5675200000000000    0.2225800000000000 Ca
   0.5588600000000000    0.1829900000000000    0.2772800000000000 Ca
   0.5587100000000000    0.6829100000000000    0.2773500000000000 Ca
   0.8088550000000000    0.1829900000000000    0.2772800000000000 Ca
   0.8087000000000000    0.6829100000000000    0.2773500000000000 Ca
   0.5664000000000000    0.4324700000000000    0.7774100000000000 Ca
   0.1596300000000000    0.1318400000000000    0.0991700000000000 H
   0.1596150000000000    0.6318900000000000    0.0993000000000000 H
   0.4096250000000000    0.1318400000000000    0.0991700000000000 H
   0.4096100000000000    0.6318800000000000    0.0993000000000000 H
   0.1827200000000000    0.1095300000000000    0.9911799999999999 H
   0.1825750000000000    0.6095800000000000    0.9912900000000000 H
   0.4327150000000000    0.1095300000000000    0.9911799999999999 H
   0.4325700000000000    0.6095800000000000    0.9912900000000000 H
   0.0095700000000000    0.0369200000000000    0.9578100000000001 H
   0.0093750000000000    0.5370000000000000    0.9581200000000000 H
   0.2595650000000000    0.0369200000000000    0.9578100000000001 H
   0.2593700000000000    0.5370000000000000    0.9581200000000000 H
   0.2370150000000000    0.0597200000000000    0.0663200000000000 H
   0.2369700000000000    0.5597900000000000    0.0666600000000000 H
   0.4870100000000000    0.0597200000000000    0.0663200000000000 H
   0.4869600000000000    0.5597900000000000    0.0666600000000000 H
   0.1831300000000000    0.1487400000000000    0.8806200000000000 H
   0.1829200000000000    0.6487000000000001    0.8807400000000000 H
   0.4331250000000000    0.1487400000000000    0.8806200000000000 H
   0.4329150000000000    0.6487000000000001    0.8807400000000000 H
   0.1624250000000000    0.2280500000000000    0.8267900000000000 H
   0.1622900000000000    0.7279700000000000    0.8268300000000000 H
   0.4124250000000000    0.2280500000000000    0.8267900000000000 H
   0.4122850000000000    0.7279700000000000    0.8268300000000000 H
   0.2416400000000000    0.1588800000000000    0.7761800000000000 H
   0.2414800000000000    0.6588500000000000    0.7762200000000000 H
   0.4916350000000000    0.1588800000000000    0.7761800000000000 H
   0.4914750000000000    0.6588500000000000    0.7762200000000000 H
   0.0130600000000000    0.0769700000000000    0.8268500000000000 H
   0.0128200000000000    0.5769800000000000    0.8269000000000000 H
   0.2630550000000000    0.0769700000000000    0.8268500000000000 H
   0.2628150000000000    0.5769800000000000    0.8269900000000000 H
   0.0348250000000000    0.1185000000000000    0.4003900000000000 H
   0.0346250000000000    0.6184300000000000    0.4005000000000000 H
   0.2848200000000000    0.1185000000000000    0.4003900000000000 H
   0.2846200000000000    0.6184300000000000    0.4005000000000000 H
   0.0576300000000000    0.1404500000000000    0.5084500000000000 H
   0.0574600000000000    0.6404400000000000    0.5085000000000000 H
   0.3076250000000000    0.1404500000000000    0.5084500000000000 H
   0.3074550000000000    0.6404400000000000    0.5085499999999999 H
   0.1343200000000000    0.2128000000000000    0.5417300000000000 H
   0.1341650000000000    0.7128300000000000    0.5418300000000000 H
   0.3843150000000000    0.2128000000000000    0.5417300000000000 H
   0.3841650000000000    0.7128300000000000    0.5418300000000000 H
   0.1120600000000000    0.1903500000000000    0.4331500000000000 H
   0.1118850000000000    0.6903400000000000    0.4332500000000000 H
   0.3620550000000000    0.1903600000000000    0.4331500000000000 H
   0.3618850000000000    0.6903400000000000    0.4332500000000000 H
   0.0579000000000000    0.1008700000000000    0.6188399999999999 H
   0.0577550000000000    0.6008800000000000    0.6188500000000000 H
   0.3078950000000000    0.1008700000000000    0.6188399999999999 H
   0.3077500000000000    0.6008800000000000    0.6188500000000000 H
   0.0374450000000000    0.0215700000000000    0.6727400000000000 H
   0.0372700000000000    0.5215600000000000    0.6727200000000000 H
   0.2874400000000000    0.0215700000000000    0.6727400000000000 H
   0.2872650000000000    0.5215600000000000    0.6727200000000000 H
   0.1165550000000000    0.0904400000000000    0.7235200000000001 H
   0.1164000000000000    0.5904600000000000    0.7235200000000001 H
   0.3665500000000000    0.0904400000000000    0.7235200000000001 H
   0.3663950000000000    0.5904600000000000    0.7235200000000001 H
   0.1377150000000000    0.1723500000000000    0.6727900000000000 H
   0.1375900000000000    0.6723900000000000    0.6728200000000000 H
   0.3877100000000000    0.1723500000000000    0.6727900000000000 H
   0.3875850000000000    0.6724000000000000    0.6728200000000000 H
   0.0904600000000000    0.3681200000000000    0.9006999999999999 H
   0.0904100000000000    0.8681400000000000    0.9008000000000000 H
   0.3404050000000000    0.8681400000000000    0.9008000000000000 H
   0.0675000000000000    0.3904400000000000    0.0087100000000000 H
   0.0673300000000000    0.8904500000000000    0.0087900000000000 H
   0.3173250000000000    0.8904400000000000    0.0087900000000000 H
   0.2407050000000000    0.4630200000000000    0.0418600000000000 H
   0.2404900000000000    0.9630500000000000    0.0421500000000000 H
   0.4904850000000000    0.9630500000000000    0.0421500000000000 H
   0.0131050000000000    0.4402300000000000    0.9333300000000000 H
   0.0130300000000000    0.9402500000000000    0.9336400000000000 H
   0.2631000000000000    0.4402300000000000    0.9333300000000000 H
   0.2630250000000000    0.9402500000000000    0.9336400000000000 H
   0.0671800000000000    0.3513100000000000    0.1192400000000000 H
   0.0669150000000000    0.8512400000000000    0.1193600000000000 H
   0.3169100000000000    0.8512400000000000    0.1193600000000000 H
   0.0878050000000000    0.2720500000000000    0.1731600000000000 H
   0.0876050000000000    0.7719300000000000    0.1731900000000000 H
   0.3376000000000000    0.7719300000000000    0.1731900000000000 H
   0.0086100000000000    0.3411800000000000    0.2237800000000000 H
   0.0083950000000000    0.8410900000000000    0.2238100000000000 H
   0.2586050000000000    0.3411800000000000    0.2237800000000000 H
   0.2583900000000000    0.8410900000000000    0.2238100000000000 H
   0.2372700000000000    0.4230500000000000    0.1730000000000000 H
   0.2369850000000000    0.9230100000000000    0.1731400000000000 H
   0.4869800000000000    0.9230100000000000    0.1731400000000000 H
   0.2154350000000000    0.3815500000000000    0.5995000000000000 H
   0.2152650000000000    0.8814900000000000    0.5995800000000000 H
   0.4654300000000000    0.3815500000000000    0.5995000000000000 H
   0.4652650000000000    0.8814900000000000    0.5995800000000000 H
   0.1926150000000000    0.3595400000000000    0.4914300000000000 H
   0.1924500000000000    0.8595400000000000    0.4915200000000000 H
   0.4426100000000000    0.3595400000000000    0.4914300000000000 H
   0.4424500000000000    0.8595400000000000    0.4915200000000000 H
   0.1159100000000000    0.2871500000000000    0.4581900000000000 H
   0.1157600000000000    0.7871800000000000    0.4582400000000000 H
   0.3659100000000000    0.2871600000000000    0.4581900000000000 H
   0.3657550000000000    0.7871899999999999    0.4582400000000000 H
   0.1381700000000000    0.3096400000000000    0.5667700000000000 H
   0.1380200000000000    0.8096300000000000    0.5668200000000000 H
   0.3881650000000000    0.3096400000000000    0.5667700000000000 H
   0.3880200000000000    0.8096400000000000    0.5668200000000000 H
   0.1923300000000000    0.3991100000000000    0.3811600000000000 H
   0.1921500000000000    0.8991100000000000    0.3811500000000000 H
   0.4423250000000000    0.3991200000000000    0.3811600000000000 H
   0.4421400000000000    0.8991100000000000    0.3811500000000000 H
   0.2128050000000000    0.4784400000000000    0.3272900000000000 H
   0.2125850000000000    0.9784100000000000    0.3272400000000000 H
   0.4628000000000000    0.4784400000000000    0.3272900000000000 H
   0.4625800000000000    0.9784200000000000    0.3272000000000000 H
   0.1336850000000000    0.4095500000000000    0.2764900000000000 H
   0.1334850000000000    0.9095700000000000    0.2764500000000000 H
   0.3836800000000000    0.4095500000000000    0.2764900000000000 H
   0.3834800000000000    0.9095700000000000    0.2764500000000000 H
   0.1125050000000000    0.3276100000000000    0.3271900000000000 H
   0.1123350000000000    0.8276400000000000    0.3271800000000000 H
   0.3625000000000000    0.3276100000000000    0.3270000000000000 H
   0.3623300000000000    0.8276400000000000    0.3271800000000000 H
   0.6596299999999999    0.1318400000000000    0.0991700000000000 H
   0.6596150000000001    0.6318900000000000    0.0993000000000000 H
   0.9096250000000000    0.1318400000000000    0.0991700000000000 H
   0.9096100000000000    0.6318800000000000    0.0993000000000000 H
   0.6827200000000000    0.1095300000000000    0.9911799999999999 H
   0.6825749999999999    0.6095800000000000    0.9912900000000000 H
   0.9327150000000000    0.1095300000000000    0.9911799999999999 H
   0.9325700000000000    0.6095800000000000    0.9912900000000000 H
   0.5095700000000000    0.0369200000000000    0.9578100000000001 H
   0.5093750000000000    0.5370000000000000    0.9581200000000000 H
   0.7595650000000000    0.0369200000000000    0.9578100000000001 H
   0.7593700000000000    0.5370000000000000    0.9581200000000000 H
   0.7370150000000000    0.0597200000000000    0.0663200000000000 H
   0.7369700000000000    0.5597900000000000    0.0666600000000000 H
   0.9870099999999999    0.0597200000000000    0.0663200000000000 H
   0.9869600000000001    0.5597900000000000    0.0666600000000000 H
   0.6831300000000000    0.1487400000000000    0.8806200000000000 H
   0.6829200000000000    0.6487000000000001    0.8807400000000000 H
   0.9331250000000000    0.1487400000000000    0.8806200000000000 H
   0.9329149999999999    0.6487000000000001    0.8807400000000000 H
   0.6624250000000000    0.2280500000000000    0.8267900000000000 H
   0.6622900000000000    0.7279700000000000    0.8268300000000000 H
   0.9124250000000000    0.2280500000000000    0.8267900000000000 H
   0.9122850000000000    0.7279700000000000    0.8268300000000000 H
   0.7416400000000000    0.1588800000000000    0.7761800000000000 H
   0.7414800000000000    0.6588500000000000    0.7762200000000000 H
   0.9916350000000000    0.1588800000000000    0.7761800000000000 H
   0.9914750000000000    0.6588500000000000    0.7762200000000000 H
   0.5130600000000000    0.0769700000000000    0.8268500000000000 H
   0.5128200000000001    0.5769800000000000    0.8269000000000000 H
   0.7630550000000000    0.0769700000000000    0.8268500000000000 H
   0.7628150000000000    0.5769800000000000    0.8269900000000000 H
   0.5348250000000000    0.1185000000000000    0.4003900000000000 H
   0.5346250000000000    0.6184300000000000    0.4005000000000000 H
   0.7848200000000001    0.1185000000000000    0.4003900000000000 H
   0.7846200000000000    0.6184300000000000    0.4005000000000000 H
   0.5576300000000000    0.1404500000000000    0.5084500000000000 H
   0.5574600000000000    0.6404400000000000    0.5085000000000000 H
   0.8076250000000000    0.1404500000000000    0.5084500000000000 H
   0.8074550000000000    0.6404400000000000    0.5085499999999999 H
   0.6343200000000000    0.2128000000000000    0.5417300000000000 H
   0.6341650000000000    0.7128300000000000    0.5418300000000000 H
   0.8843150000000000    0.2128000000000000    0.5417300000000000 H
   0.8841650000000000    0.7128300000000000    0.5418300000000000 H
   0.6120600000000000    0.1903500000000000    0.4331500000000000 H
   0.6118850000000000    0.6903400000000000    0.4332500000000000 H
   0.8620550000000000    0.1903600000000000    0.4331500000000000 H
   0.8618850000000000    0.6903400000000000    0.4332500000000000 H
   0.5579000000000000    0.1008700000000000    0.6188399999999999 H
   0.5577550000000000    0.6008800000000000    0.6188500000000000 H
   0.8078950000000000    0.1008700000000000    0.6188399999999999 H
   0.8077500000000000    0.6008800000000000    0.6188500000000000 H
   0.5374450000000000    0.0215700000000000    0.6727400000000000 H
   0.5372700000000000    0.5215600000000000    0.6727200000000000 H
   0.7874399999999999    0.0215700000000000    0.6727400000000000 H
   0.7872650000000000    0.5215600000000000    0.6727200000000000 H
   0.6165550000000000    0.0904400000000000    0.7235200000000001 H
   0.6164000000000001    0.5904600000000000    0.7235200000000001 H
   0.8665499999999999    0.0904400000000000    0.7235200000000001 H
   0.8663950000000000    0.5904600000000000    0.7235200000000001 H
   0.6377150000000000    0.1723500000000000    0.6727900000000000 H
   0.6375900000000000    0.6723900000000000    0.6728200000000000 H
   0.8877100000000000    0.1723500000000000    0.6727900000000000 H
   0.8875850000000001    0.6724000000000000    0.6728200000000000 H
   0.5904600000000000    0.3681200000000000    0.9006999999999999 H
   0.5904100000000000    0.8681400000000000    0.9008000000000000 H
   0.8404550000000000    0.3681200000000000    0.9006999999999999 H
   0.8404050000000001    0.8681400000000000    0.9008000000000000 H
   0.5675000000000000    0.3904400000000000    0.0087100000000000 H
   0.5673300000000000    0.8904500000000000    0.0087900000000000 H
   0.8175000000000000    0.3904400000000000    0.0087100000000000 H
   0.8173250000000001    0.8904400000000000    0.0087900000000000 H
   0.7407049999999999    0.4630200000000000    0.0418600000000000 H
   0.7404900000000000    0.9630500000000000    0.0421500000000000 H
   0.9907000000000000    0.4630200000000000    0.0418600000000000 H
   0.9904850000000001    0.9630500000000000    0.0421500000000000 H
   0.5130300000000000    0.9402500000000000    0.9336400000000000 H
   0.7631000000000000    0.4402300000000000    0.9333300000000000 H
   0.7630250000000001    0.9402500000000000    0.9336400000000000 H
   0.5671800000000000    0.3513100000000000    0.1192400000000000 H
   0.5669150000000001    0.8512400000000000    0.1193600000000000 H
   0.8171750000000000    0.3513100000000000    0.1192400000000000 H
   0.8169100000000000    0.8512400000000000    0.1193600000000000 H
   0.5878050000000000    0.2720500000000000    0.1731600000000000 H
   0.5876050000000000    0.7719300000000000    0.1731900000000000 H
   0.8378050000000000    0.2720500000000000    0.1731600000000000 H
   0.8376000000000000    0.7719300000000000    0.1731900000000000 H
   0.5083950000000000    0.8410900000000000    0.2238100000000000 H
   0.7586050000000000    0.3411800000000000    0.2237800000000000 H
   0.7583900000000000    0.8410900000000000    0.2238100000000000 H
   0.7372700000000000    0.4230500000000000    0.1730000000000000 H
   0.7369850000000000    0.9230100000000000    0.1731400000000000 H
   0.9872650000000001    0.4230500000000000    0.1730000000000000 H
   0.9869800000000000    0.9230100000000000    0.1731400000000000 H
   0.7154350000000000    0.3815500000000000    0.5995000000000000 H
   0.7152650000000000    0.8814900000000000    0.5995800000000000 H
   0.9654300000000000    0.3815500000000000    0.5995000000000000 H
   0.9652650000000000    0.8814900000000000    0.5995800000000000 H
   0.6926150000000000    0.3595400000000000    0.4914300000000000 H
   0.6924500000000000    0.8595400000000000    0.4915200000000000 H
   0.9426099999999999    0.3595400000000000    0.4914300000000000 H
   0.9424500000000000    0.8595400000000000    0.4915200000000000 H
   0.6159100000000000    0.2871500000000000    0.4581900000000000 H
   0.6157600000000000    0.7871800000000000    0.4582400000000000 H
   0.8659100000000000    0.2871600000000000    0.4581900000000000 H
   0.8657550000000001    0.7871899999999999    0.4582400000000000 H
   0.6381700000000000    0.3096400000000000    0.5667700000000000 H
   0.6380200000000000    0.8096300000000000    0.5668200000000000 H
   0.8881650000000000    0.3096400000000000    0.5667700000000000 H
   0.8880200000000000    0.8096400000000000    0.5668200000000000 H
   0.6923300000000000    0.3991100000000000    0.3811600000000000 H
   0.6921500000000000    0.8991100000000000    0.3811500000000000 H
   0.9423250000000001    0.3991200000000000    0.3811600000000000 H
   0.9421400000000000    0.8991100000000000    0.3811500000000000 H
   0.7128050000000000    0.4784400000000000    0.3272900000000000 H
   0.7125850000000000    0.9784100000000000    0.3272400000000000 H
   0.9628000000000000    0.4784400000000000    0.3272900000000000 H
   0.9625800000000000    0.9784200000000000    0.3272000000000000 H
   0.6336850000000001    0.4095500000000000    0.2764900000000000 H
   0.6334850000000000    0.9095700000000000    0.2764500000000000 H
   0.8836800000000000    0.4095500000000000    0.2764900000000000 H
   0.8834800000000000    0.9095700000000000    0.2764500000000000 H
   0.6125050000000000    0.3276100000000000    0.3271900000000000 H
   0.6123350000000000    0.8276400000000000    0.3271800000000000 H
   0.8625000000000000    0.3276100000000000    0.3270000000000000 H
   0.8623300000000000    0.8276400000000000    0.3271800000000000 H
   0.3129900000000000    0.7466100000000000    0.7655600000000000 C
   0.1820950000000000    0.1403800000000000    0.3453400000000000 C
   0.1819450000000000    0.6403200000000000    0.3454000000000000 C
   0.4320900000000000    0.1403800000000000    0.3453400000000000 C
   0.1930950000000000    0.3899700000000000    0.8456100000000000 C
   0.1931200000000000    0.8899600000000000    0.8458200000000000 C
   0.4431150000000000    0.8899600000000000    0.8458200000000000 C
   0.1784150000000000    0.4030100000000000    0.9105700000000000 C
   0.0568900000000000    0.1100400000000000    0.1541000000000000 C
   0.0569650000000000    0.6100300000000000    0.1543800000000000 C
   0.3068850000000000    0.1100400000000000    0.1541300000000000 C
   0.3069600000000000    0.6100300000000000    0.1543800000000000 C
   0.0716750000000000    0.0969700000000000    0.0891900000000000 C
   0.0716550000000000    0.5970100000000000    0.0894200000000000 C
   0.3216700000000000    0.0969700000000000    0.0891900000000000 C
   0.3216500000000000    0.5970100000000000    0.0894200000000000 C
   0.1268050000000000    0.1114100000000000    0.0680500000000000 C
   0.1267600000000000    0.6114600000000000    0.0682200000000000 C
   0.3768050000000000    0.1114100000000000    0.0680500000000000 C
   0.3767550000000000    0.6114500000000000    0.0682200000000000 C
   0.1397950000000000    0.0989600000000000    0.0077100000000000 C
   0.1396700000000000    0.5990100000000000    0.0078600000000000 C
   0.3897900000000000    0.0989600000000000    0.0077100000000000 C
   0.3896650000000000    0.5990100000000000    0.0078600000000000 C
   0.0976700000000000    0.0713300000000000    0.9687000000000000 C
   0.0975050000000000    0.5713900000000000    0.9689000000000000 C
   0.3476650000000000    0.0713300000000000    0.9687000000000000 C
   0.3475000000000000    0.5713800000000000    0.9689000000000000 C
   0.0421150000000000    0.0576100000000000    0.9889100000000000 C
   0.0419650000000000    0.5576900000000000    0.9891000000000000 C
   0.2921100000000000    0.0576100000000000    0.9889100000000000 C
   0.2919600000000000    0.5576900000000000    0.9891000000000000 C
   0.0295400000000000    0.0707000000000000    0.0492100000000000 C
   0.0294650000000000    0.5707700000000000    0.0494900000000000 C
   0.2795350000000000    0.0707000000000000    0.0492100000000000 C
   0.2794600000000000    0.5707700000000000    0.0494900000000000 C
   0.0989150000000000    0.1088800000000000    0.8573000000000000 C
   0.0986850000000000    0.6088700000000000    0.8574400000000000 C
   0.3489100000000000    0.1088800000000000    0.8573000000000000 C
   0.3486800000000000    0.6088700000000000    0.8574400000000000 C
   0.1409750000000000    0.1514000000000000    0.8583100000000000 C
   0.1407700000000000    0.6513600000000001    0.8584100000000000 C
   0.3909700000000000    0.1514000000000000    0.8583000000000000 C
   0.3907650000000000    0.6513600000000001    0.8584100000000000 C
   0.1291900000000000    0.1958700000000000    0.8285400000000001 C
   0.1290300000000000    0.6958000000000000    0.8286000000000000 C
   0.3791800000000000    0.1958700000000000    0.8285400000000001 C
   0.3790250000000000    0.6958000000000000    0.8286000000000000 C
   0.0751600000000000    0.1988500000000000    0.7990900000000000 C
   0.0750200000000000    0.6987900000000000    0.7991300000000000 C
   0.3251550000000000    0.1988500000000000    0.7990900000000000 C
   0.3250100000000000    0.6987900000000000    0.7991300000000000 C
   0.0332400000000000    0.1563600000000000    0.7995100000000001 C
   0.0330700000000000    0.6563300000000000    0.7995700000000000 C
   0.2832350000000000    0.1563600000000000    0.7995100000000001 C
   0.2830650000000000    0.6563300000000000    0.7995700000000000 C
   0.0448650000000000    0.1108100000000000    0.8279800000000000 C
   0.0446500000000000    0.6108000000000000    0.8280900000000000 C
   0.2948600000000000    0.1108100000000000    0.8279800000000000 C
   0.2946450000000000    0.6108000000000000    0.8280900000000000 C
   0.0631000000000000    0.2466700000000000    0.7655000000000000 C
   0.0629950000000000    0.7466100000000000    0.7655600000000000 C
   0.3130950000000000    0.2466700000000000    0.7655000000000000 C
   0.4319400000000000    0.6403200000000000    0.3454600000000000 C
   0.1967950000000000    0.1532700000000000    0.4103100000000000 C
   0.1966150000000000    0.6532300000000000    0.4104200000000000 C
   0.4467900000000000    0.1532700000000000    0.4103100000000000 C
   0.4466050000000000    0.6532300000000000    0.4104200000000000 C
   0.0019000000000000    0.1388000000000000    0.4314900000000000 C
   0.0017200000000000    0.6387600000000000    0.4316000000000000 C
   0.2518950000000000    0.1388000000000000    0.4314900000000000 C
   0.2517100000000000    0.6387600000000000    0.4316000000000000 C
   0.0147250000000000    0.1510500000000000    0.4918800000000000 C
   0.0145600000000000    0.6510400000000000    0.4919800000000000 C
   0.2647200000000000    0.1510500000000000    0.4918800000000000 C
   0.2645550000000000    0.6510400000000000    0.4919800000000000 C
   0.2224950000000000    0.1785000000000000    0.5309199999999999 C
   0.2223400000000000    0.6785200000000000    0.5310100000000000 C
   0.4724900000000000    0.1785000000000000    0.5309199999999999 C
   0.4723350000000000    0.6785200000000000    0.5310100000000000 C
   0.1669700000000000    0.1922300000000000    0.5106500000000000 C
   0.1668100000000000    0.6922400000000000    0.5107500000000000 C
   0.4169650000000000    0.1922300000000000    0.5106500000000000 C
   0.4168050000000000    0.6922500000000000    0.5107500000000000 C
   0.1545450000000000    0.1793400000000000    0.4503000000000000 C
   0.1543700000000000    0.6793300000000000    0.4504000000000000 C
   0.4045400000000000    0.1793400000000000    0.4503000000000000 C
   0.4043650000000000    0.6793400000000001    0.4504000000000000 C
   0.2236250000000000    0.1406300000000000    0.6422600000000001 C
   0.2235000000000000    0.6406600000000000    0.6423000000000000 C
   0.4736200000000000    0.1406300000000000    0.6422600000000001 C
   0.4734950000000000    0.6406600000000000    0.6423000000000000 C
   0.0157700000000000    0.0981700000000000    0.6412000000000000 C
   0.0156300000000000    0.5981800000000000    0.6412200000000000 C
   0.2657650000000000    0.0981700000000000    0.6412000000000000 C
   0.2656200000000000    0.5981800000000000    0.6412200000000000 C
   0.0041250000000000    0.0536900000000000    0.6710100000000000 C
   0.0039700000000000    0.5536900000000000    0.6710100000000000 C
   0.2541200000000000    0.0536900000000000    0.6710100000000000 C
   0.2539600000000000    0.5536900000000000    0.6710100000000000 C
   0.2001600000000000    0.0506200000000000    0.7005000000000000 C
   0.2000050000000000    0.5506400000000000    0.7005000000000000 C
   0.4501550000000000    0.0506200000000000    0.7005800000000000 C
   0.4500000000000000    0.5506400000000000    0.7005000000000000 C
   0.1581200000000000    0.0930100000000000    0.7000999999999999 C
   0.1579700000000000    0.5930299999999999    0.7001500000000001 C
   0.4081150000000000    0.0930100000000000    0.7000999999999999 C
   0.4079650000000000    0.5930299999999999    0.7001500000000001 C
   0.1696050000000000    0.1385800000000000    0.6716299999999999 C
   0.1694700000000000    0.6386100000000000    0.6716600000000000 C
   0.4196000000000000    0.1385800000000000    0.6716299999999999 C
   0.4194650000000000    0.6386100000000000    0.6716000000000000 C
   0.1883750000000000    0.0028600000000000    0.7343300000000000 C
   0.1882000000000000    0.5028899999999999    0.7343300000000000 C
   0.4383700000000000    0.0028600000000000    0.7343300000000000 C
   0.4381950000000000    0.5028899999999999    0.7343300000000000 C
   0.1783650000000000    0.9030200000000000    0.9107700000000000 C
   0.4283600000000000    0.9030200000000000    0.9107700000000000 C
   0.1233100000000000    0.3885600000000000    0.9317800000000001 C
   0.1232350000000000    0.8885700000000000    0.9319200000000000 C
   0.3732300000000000    0.8885700000000000    0.9319200000000000 C
   0.1104050000000000    0.4010000000000000    0.9921300000000000 C
   0.1102550000000000    0.9010100000000000    0.9922600000000000 C
   0.3602500000000000    0.9010100000000000    0.9922600000000000 C
   0.1525700000000000    0.4286300000000000    0.0310900000000000 C
   0.1523800000000000    0.9286400000000000    0.0312700000000000 C
   0.4023750000000000    0.9286400000000000    0.0312700000000000 C
   0.2081100000000000    0.4423300000000000    0.0108100000000000 C
   0.2079400000000000    0.9423600000000000    0.0110500000000000 C
   0.4579350000000000    0.9423600000000000    0.0110500000000000 C
   0.2206050000000000    0.4292400000000000    0.9504899999999999 C
   0.2205050000000000    0.9292700000000000    0.9507500000000000 C
   0.4705000000000000    0.9292700000000000    0.9507500000000000 C
   0.1514050000000000    0.3911500000000000    0.1425500000000000 C
   0.1511350000000000    0.8911000000000000    0.1426800000000000 C
   0.4011300000000000    0.8911000000000000    0.1426800000000000 C
   0.1093200000000000    0.3486600000000000    0.1415700000000000 C
   0.1090700000000000    0.8485900000000000    0.1416000000000000 C
   0.3590650000000000    0.8485800000000000    0.1416700000000000 C
   0.1210650000000000    0.3042200000000000    0.1713900000000000 C
   0.1208500000000000    0.8041100000000000    0.1714000000000000 C
   0.3708450000000000    0.8041100000000000    0.1714400000000000 C
   0.1750700000000000    0.3012400000000000    0.2008800000000000 C
   0.1748700000000000    0.8011300000000000    0.2009000000000000 C
   0.4248700000000000    0.8011300000000000    0.2009000000000000 C
   0.2170200000000000    0.3437000000000000    0.2004200000000000 C
   0.2167950000000000    0.8436100000000000    0.2004000000000000 C
   0.4667900000000000    0.8436100000000000    0.2004800000000000 C
   0.2054400000000000    0.3892200000000000    0.1719000000000000 C
   0.2051800000000000    0.8891600000000000    0.1720100000000000 C
   0.4551750000000000    0.8891600000000000    0.1720100000000000 C
   0.1870800000000000    0.2534200000000000    0.2344500000000000 C
   0.1869200000000000    0.7533100000000000    0.2344600000000000 C
   0.4369150000000000    0.7533100000000000    0.2344600000000000 C
   0.0680900000000000    0.3596600000000000    0.6545500000000000 C
   0.0679750000000000    0.8596200000000001    0.6546000000000000 C