H3 C2 N4
1.0
  39.5699989814613957    0.0000000000000000    0.0089781481281564
  -0.0306724669784916   13.9469648362714196    0.0063289476229558
   0.0000000000000000    0.0000000000000000   16.9879999999999995
H C N
3 2 4
direct
   0.5197633333333334    0.3012200000000000    0.8486300000000000 H
   0.4790066666666666    0.2712400000000000    0.1380900000000000 H
   0.4777399999999999    0.1617300000000000    0.0912300000000000 H
   0.4898766666666666    0.2801000000000000    0.0227600000000000 C
   0.5100800000000000    0.3097100000000000    0.9077700000000000 C
   0.5051933333333334    0.3944900000000000    0.9412000000000000 N
   0.4919733333333333    0.3766600000000000    0.0160000000000000 N
   0.5011099999999999    0.2360700000000000    0.9556800000000000 N
   0.4763266666666666    0.2348300000000000    0.0861100000000000 N
