C2 O4
1.0
  39.5699989814613957    0.0000000000000000    0.0089781481281564
  -0.0306724669784916   13.9469648362714196    0.0063289476229558
   0.0000000000000000    0.0000000000000000   16.9879999999999995
C O
2 4
direct
   0.3071433333333333    0.9837500000000000    0.2801700000000000 C
   0.3211366666666666    0.0833400000000000    0.2563300000000000 C
   0.3230833333333333    0.1044100000000000    0.1837700000000000 O
   0.2978200000000000   -0.0700600000000000    0.2245000000000000 O
   0.3302866666666666    0.1402300000000000    0.3104800000000000 O
   0.3066600000000000   -0.0332900000000000    0.3535100000000000 O
