H6 O4
1.0
  34.6471832415931971    0.0000000000000000    0.1481542218906864
   0.0865802142892796   27.5858570683225501    0.0197401259409662
   0.0000000000000000    0.0000000000000000   21.9909999999999997
H O
6 4
direct
   1.0030907169039174    0.4882121310074056    0.2979134432057111 H
   0.9895654684040672    0.5171241964156786    0.2926944798758761 H
   0.0219767955201898    0.4540168683501803    0.3884551881675650 H
   0.0900892221546183    0.4459867863547853    0.3839381741678429 H
   0.1097382776076264    0.5233888269706811    0.2873308251749992 H
   0.1008561922642671    0.4891395294116644    0.2979026738097784 H
   0.9932000000000001    0.5124649999999999    0.3360200000000000 O
   0.0134440000000000    0.4749400000000000    0.4213300000000000 O
   0.0967160000000000    0.4707050000000000    0.4134200000000000 O
   0.1081900000000000    0.5164950000000000    0.3305300000000000 O
