H1 C3 O4
1.0
  34.6471832415931971    0.0000000000000000    0.1481542218906864
   0.0865802142892796   27.5858570683225501    0.0197401259409662
   0.0000000000000000    0.0000000000000000   21.9909999999999997
H C O
1 3 4
direct
   0.0516740000000000    0.4271700000000000    0.3325500000000000 H
   0.0167760000000000    0.4861200000000000    0.3656100000000000 C
   0.0518620000000000    0.4670450000000000    0.3302000000000000 C
   0.0884220000000000    0.5000000000000000    0.3603700000000000 C
   0.0134440000000000    0.4749400000000000    0.4213300000000000 O
   0.0967160000000000    0.4707050000000000    0.4134200000000000 O
   0.1081900000000000    0.5164950000000000    0.3305300000000000 O
   0.9932000000000001    0.5124649999999999    0.3360200000000000 O
