H2 C3 O4
1.0
  34.6471832415931971    0.0000000000000000    0.1481542218906864
   0.0865802142892796   27.5858570683225501    0.0197401259409662
   0.0000000000000000    0.0000000000000000   21.9909999999999997
H C O
2 3 4
direct
   0.1491820000000000    0.0205000000000000    0.7827100000000000 H
   0.1478640000000000    0.0719800000000000    0.8328500000000000 H
   0.1831220000000000    0.0131650000000000    0.8649300000000000 C
   0.1479120000000000    0.0321150000000000    0.8302000000000000 C
   0.1114560000000000    0.0130150000000000    0.8608900000000000 C
   0.1866100000000000    0.0247550000000000    0.9204500000000000 O
   0.1033380000000000    0.0271900000000000    0.9144200000000000 O
   0.0916440000000000    0.9826050000000000    0.8307400000000000 O
   0.2066060000000000    0.9865699999999999    0.8352100000000000 O
