Zn80 H484 C637 N80 O320
1.0
  34.6471832415931971    0.0000000000000000    0.1481542218906864
   0.0865802142892796   27.5858570683225501    0.0197401259409662
   0.0000000000000000    0.0000000000000000   21.9909999999999997
Zn H C N O
80 484 637 80 320
direct
   0.8567720000000001    0.4340300000000000    0.4671600000000000 Zn
   0.7486600000000001    0.3084750000000000    0.3677800000000000 Zn
   0.6567720000000001    0.4340300000000000    0.4671600000000000 Zn
   0.5486600000000000    0.3084750000000000    0.3677800000000000 Zn
   0.4567720000000000    0.4340300000000000    0.4671600000000000 Zn
   0.3486600000000000    0.3084750000000000    0.3677800000000000 Zn
   0.2567720000000000    0.4340300000000000    0.4671600000000000 Zn
   0.1486600000000000    0.3084750000000000    0.3677800000000000 Zn
   0.0567720000000000    0.4340300000000000    0.4671600000000000 Zn
   0.9486600000000001    0.3084750000000000    0.3677800000000000 Zn
   0.9500940000000000    0.5586450000000001    0.3677100000000000 Zn
   0.8431500000000001    0.6836599999999999    0.4670500000000000 Zn
   0.7500940000000000    0.5586450000000001    0.3677100000000000 Zn
   0.6431500000000001    0.6836599999999999    0.4670500000000000 Zn
   0.5500940000000001    0.5586450000000001    0.3677100000000000 Zn
   0.4431500000000000    0.6836599999999999    0.4670500000000000 Zn
   0.3500940000000000    0.5586450000000001    0.3677100000000000 Zn
   0.2431500000000000    0.6836599999999999    0.4670500000000000 Zn
   0.1500940000000000    0.5586450000000001    0.3677100000000000 Zn
   0.0431500000000000    0.6836599999999999    0.4670500000000000 Zn
   0.8567720000000001    0.9340300000000000    0.4671600000000000 Zn
   0.7486600000000001    0.8084750000000001    0.3677800000000000 Zn
   0.6567720000000001    0.9340300000000000    0.4671600000000000 Zn
   0.5486600000000000    0.8084750000000001    0.3677800000000000 Zn
   0.0567720000000000    0.9340300000000000    0.4671600000000000 Zn
   0.9486600000000001    0.8084750000000001    0.3677800000000000 Zn
   0.4567720000000000    0.9340300000000000    0.4671600000000000 Zn
   0.3486600000000000    0.8084750000000001    0.3677800000000000 Zn
   0.2567720000000000    0.9340300000000000    0.4671600000000000 Zn
   0.1486600000000000    0.8084750000000001    0.3677800000000000 Zn
   0.5500940000000001    0.0586450000000000    0.3677100000000000 Zn
   0.4431500000000000    0.1836600000000000    0.4670500000000000 Zn
   0.3500940000000000    0.0586450000000000    0.3677100000000000 Zn
   0.2431500000000000    0.1836600000000000    0.4670500000000000 Zn
   0.7500940000000000    0.0586450000000000    0.3677100000000000 Zn
   0.6431500000000001    0.1836600000000000    0.4670500000000000 Zn
   0.9500940000000000    0.0586450000000000    0.3677100000000000 Zn
   0.8431500000000001    0.1836600000000000    0.4670500000000000 Zn
   0.1500940000000000    0.0586450000000000    0.3677100000000000 Zn
   0.0431500000000000    0.1836600000000000    0.4670500000000000 Zn
   0.2495560000000000    0.4397450000000000    0.8668400000000001 Zn
   0.3568160000000000    0.3146050000000000    0.9674500000000000 Zn
   0.4502440000000000    0.1908400000000000    0.8668800000000000 Zn
   0.3431820000000000    0.0645500000000000    0.9676800000000000 Zn
   0.4495560000000000    0.4397450000000000    0.8668400000000001 Zn
   0.5568160000000000    0.3146050000000000    0.9674500000000000 Zn
   0.6502440000000000    0.1908400000000000    0.8668800000000000 Zn
   0.5431820000000001    0.0645500000000000    0.9676800000000000 Zn
   0.0495560000000000    0.4397450000000000    0.8668400000000001 Zn
   0.1568160000000000    0.3146050000000000    0.9674500000000000 Zn
   0.2502440000000000    0.1908400000000000    0.8668800000000000 Zn
   0.1431820000000000    0.0645500000000000    0.9676800000000000 Zn
   0.8495560000000001    0.4397450000000000    0.8668400000000001 Zn
   0.9568160000000001    0.3146050000000000    0.9674500000000000 Zn
   0.0502440000000000    0.1908400000000000    0.8668800000000000 Zn
   0.9431820000000001    0.0645500000000000    0.9676800000000000 Zn
   0.6495560000000001    0.4397450000000000    0.8668400000000001 Zn
   0.7568160000000002    0.3146050000000000    0.9674500000000000 Zn
   0.8502440000000000    0.1908400000000000    0.8668800000000000 Zn
   0.7431820000000001    0.0645500000000000    0.9676800000000000 Zn
   0.0495560000000000    0.9397450000000001    0.8668400000000001 Zn
   0.1568160000000000    0.8146050000000000    0.9674500000000000 Zn
   0.2502440000000000    0.6908400000000000    0.8668800000000000 Zn
   0.1431820000000000    0.5645500000000000    0.9676800000000000 Zn
   0.8495560000000001    0.9397450000000001    0.8668400000000001 Zn
   0.9568160000000001    0.8146050000000000    0.9674500000000000 Zn
   0.0502440000000000    0.6908400000000000    0.8668800000000000 Zn
   0.9431820000000001    0.5645500000000000    0.9676800000000000 Zn
   0.6495560000000001    0.9397450000000001    0.8668400000000001 Zn
   0.7568160000000002    0.8146050000000000    0.9674500000000000 Zn
   0.8502440000000000    0.6908400000000000    0.8668800000000000 Zn
   0.7431820000000001    0.5645500000000000    0.9676800000000000 Zn
   0.2495560000000000    0.9397450000000001    0.8668400000000001 Zn
   0.3568160000000000    0.8146050000000000    0.9674500000000000 Zn
   0.4502440000000000    0.6908400000000000    0.8668800000000000 Zn
   0.3431820000000000    0.5645500000000000    0.9676800000000000 Zn
   0.4495560000000000    0.9397450000000001    0.8668400000000001 Zn
   0.5568160000000000    0.8146050000000000    0.9674500000000000 Zn
   0.6502440000000000    0.6908400000000000    0.8668800000000000 Zn
   0.5431820000000001    0.5645500000000000    0.9676800000000000 Zn
   0.1785152150380802    0.0470515101465477    0.8888157657513536 H
   0.7592140000000001    0.3542600000000000    0.5516000000000000 H
   0.7577080000000000    0.3021650000000000    0.5024999999999999 H
   0.8494720000000000    0.2291550000000000    0.2825200000000000 H
   0.8480160000000001    0.1770550000000000    0.3317900000000000 H
   0.5592140000000001    0.3542600000000000    0.5516000000000000 H
   0.5577080000000001    0.3021650000000000    0.5024999999999999 H
   0.6494720000000000    0.2291550000000000    0.2825200000000000 H
   0.6480160000000001    0.1770550000000000    0.3317900000000000 H
   0.3592140000000000    0.3542600000000000    0.5516000000000000 H
   0.3577080000000000    0.3021650000000000    0.5024999999999999 H
   0.4494720000000000    0.2291550000000000    0.2825200000000000 H
   0.4480160000000000    0.1770550000000000    0.3317900000000000 H
   0.1592140000000000    0.3542600000000000    0.5516000000000000 H
   0.1577080000000000    0.3021650000000000    0.5024999999999999 H
   0.2494720000000000    0.2291550000000000    0.2825200000000000 H
   0.2480160000000000    0.1770550000000000    0.3317900000000000 H
   0.9592140000000000    0.3542600000000000    0.5516000000000000 H
   0.9577080000000000    0.3021650000000000    0.5024999999999999 H
   0.0494720000000000    0.2291550000000000    0.2825200000000000 H
   0.0480160000000000    0.1770550000000000    0.3317900000000000 H
   0.8516740000000000    0.4271700000000000    0.3325500000000000 H
   0.8505540000000000    0.5000000000000000    0.2828200000000000 H
   0.9412920000000000    0.6038350000000000    0.5519200000000000 H
   0.9428760000000000    0.5520500000000000    0.5022700000000000 H
   0.6516740000000001    0.4271700000000000    0.3325500000000000 H
   0.6505540000000001    0.5000000000000000    0.2828200000000000 H
   0.7412920000000001    0.6038350000000000    0.5519200000000000 H
   0.7428760000000001    0.5520500000000000    0.5022700000000000 H
   0.4516740000000000    0.4271700000000000    0.3325500000000000 H
   0.4505540000000000    0.5000000000000000    0.2828200000000000 H
   0.5412920000000000    0.6038350000000000    0.5519200000000000 H
   0.5428760000000000    0.5520500000000000    0.5022700000000000 H
   0.2516740000000000    0.4271700000000000    0.3325500000000000 H
   0.2505540000000000    0.5000000000000000    0.2828200000000000 H
   0.3412920000000000    0.6038350000000000    0.5519200000000000 H
   0.3428760000000000    0.5520500000000000    0.5022700000000000 H
   0.0516740000000000    0.4271700000000000    0.3325500000000000 H
   0.0505540000000000    0.5000000000000000    0.2828200000000000 H
   0.1412920000000000    0.6038350000000000    0.5519200000000000 H
   0.1428760000000000    0.5520500000000000    0.5022700000000000 H
   0.7592140000000001    0.8542600000000000    0.5516000000000000 H
   0.7577080000000000    0.8021650000000000    0.5024999999999999 H
   0.8494720000000000    0.7291550000000000    0.2825200000000000 H
   0.8480160000000001    0.6770550000000000    0.3317900000000000 H
   0.5592140000000001    0.8542600000000000    0.5516000000000000 H
   0.5577080000000001    0.8021650000000000    0.5024999999999999 H
   0.6494720000000000    0.7291550000000000    0.2825200000000000 H
   0.6480160000000001    0.6770550000000000    0.3317900000000000 H
   0.9592140000000000    0.8542600000000000    0.5516000000000000 H
   0.9577080000000000    0.8021650000000000    0.5024999999999999 H
   0.0494720000000000    0.7291550000000000    0.2825200000000000 H
   0.0480160000000000    0.6770550000000000    0.3317900000000000 H
   0.3592140000000000    0.8542600000000000    0.5516000000000000 H
   0.3577080000000000    0.8021650000000000    0.5024999999999999 H
   0.4494720000000000    0.7291550000000000    0.2825200000000000 H
   0.4480160000000000    0.6770550000000000    0.3317900000000000 H
   0.1592140000000000    0.8542600000000000    0.5516000000000000 H
   0.1577080000000000    0.8021650000000000    0.5024999999999999 H
   0.2494720000000000    0.7291550000000000    0.2825200000000000 H
   0.2480160000000000    0.6770550000000000    0.3317900000000000 H
   0.4516740000000000    0.9271700000000000    0.3325500000000000 H
   0.4505540000000000    0.0000000000000000    0.2828200000000000 H
   0.5412920000000000    0.1038350000000000    0.5519200000000000 H
   0.5428760000000000    0.0520500000000000    0.5022700000000000 H
   0.2516740000000000    0.9271700000000000    0.3325500000000000 H
   0.2505540000000000    0.0000000000000000    0.2828200000000000 H
   0.3412920000000000    0.1038350000000000    0.5519200000000000 H
   0.3428760000000000    0.0520500000000000    0.5022700000000000 H
   0.6516740000000001    0.9271700000000000    0.3325500000000000 H
   0.6505540000000001    0.0000000000000000    0.2828200000000000 H
   0.7412920000000001    0.1038350000000000    0.5519200000000000 H
   0.7428760000000001    0.0520500000000000    0.5022700000000000 H
   0.8516740000000000    0.9271700000000000    0.3325500000000000 H
   0.8505540000000000    0.0000000000000000    0.2828200000000000 H
   0.9412920000000000    0.1038350000000000    0.5519200000000000 H
   0.9428760000000000    0.0520500000000000    0.5022700000000000 H
   0.0516740000000000    0.9271700000000000    0.3325500000000000 H
   0.0505540000000000    0.0000000000000000    0.2828200000000000 H
   0.1412920000000000    0.1038350000000000    0.5519200000000000 H
   0.1428760000000000    0.0520500000000000    0.5022700000000000 H
   0.8355360000000001    0.0966500000000000    0.5767400000000000 H
   0.8887000000000000    0.9862200000000000    0.6890100000000000 H
   0.8870120000000000    0.9316599999999999    0.5978900000000000 H
   0.8343720000000000    0.0369700000000000    0.4926200000000000 H
   0.8821280000000000    0.1427500000000000    0.6433600000000000 H
   0.8409880000000001    0.0266950000000000    0.7593900000000000 H
   0.8788360000000001    0.1967650000000000    0.7348700000000000 H
   0.8380440000000000    0.0856000000000000    0.8438300000000000 H
   0.4355360000000000    0.0966500000000000    0.5767400000000000 H
   0.4887000000000000    0.9862200000000000    0.6890100000000000 H
   0.4870120000000000    0.9316599999999999    0.5978900000000000 H
   0.4343720000000000    0.0369700000000000    0.4926200000000000 H
   0.4821280000000000    0.1427500000000000    0.6433600000000000 H
   0.4409880000000000    0.0266950000000000    0.7593900000000000 H
   0.4788360000000000    0.1967650000000000    0.7348700000000000 H
   0.4380440000000000    0.0856000000000000    0.8438300000000000 H
   0.8355360000000001    0.5966500000000000    0.5767400000000000 H
   0.8887000000000000    0.4862200000000000    0.6890100000000000 H
   0.8870120000000000    0.4316600000000000    0.5978900000000000 H
   0.8343720000000000    0.5369699999999999    0.4926200000000000 H
   0.8821280000000000    0.6427499999999999    0.6433600000000000 H
   0.8409880000000001    0.5266950000000000    0.7593900000000000 H
   0.8788360000000001    0.6967650000000000    0.7348700000000000 H
   0.8380440000000000    0.5856000000000000    0.8438300000000000 H
   0.4355360000000000    0.5966500000000000    0.5767400000000000 H
   0.4887000000000000    0.4862200000000000    0.6890100000000000 H
   0.4870120000000000    0.4316600000000000    0.5978900000000000 H
   0.4343720000000000    0.5369699999999999    0.4926200000000000 H
   0.4821280000000000    0.6427499999999999    0.6433600000000000 H
   0.4409880000000000    0.5266950000000000    0.7593900000000000 H
   0.4788360000000000    0.6967650000000000    0.7348700000000000 H
   0.4380440000000000    0.5856000000000000    0.8438300000000000 H
   0.2355360000000000    0.5966500000000000    0.5767400000000000 H
   0.2887000000000000    0.4862200000000000    0.6890100000000000 H
   0.2870120000000000    0.4316600000000000    0.5978900000000000 H
   0.2343720000000000    0.5369699999999999    0.4926200000000000 H
   0.2821280000000000    0.6427499999999999    0.6433600000000000 H
   0.2409880000000000    0.5266950000000000    0.7593900000000000 H
   0.2788360000000000    0.6967650000000000    0.7348700000000000 H
   0.2380440000000000    0.5856000000000000    0.8438300000000000 H
   0.0355360000000000    0.0966500000000000    0.5767400000000000 H
   0.0887000000000000    0.9862200000000000    0.6890100000000000 H
   0.0870120000000000    0.9316599999999999    0.5978900000000000 H
   0.0343720000000000    0.0369700000000000    0.4926200000000000 H
   0.0821280000000000    0.1427500000000000    0.6433600000000000 H
   0.0409880000000000    0.0266950000000000    0.7593900000000000 H
   0.0788360000000000    0.1967650000000000    0.7348700000000000 H
   0.0380440000000000    0.0856000000000000    0.8438300000000000 H
   0.6355360000000001    0.0966500000000000    0.5767400000000000 H
   0.6887000000000001    0.9862200000000000    0.6890100000000000 H
   0.6870120000000001    0.9316599999999999    0.5978900000000000 H
   0.6343720000000000    0.0369700000000000    0.4926200000000000 H
   0.6821280000000001    0.1427500000000000    0.6433600000000000 H
   0.6409880000000001    0.0266950000000000    0.7593900000000000 H
   0.6788360000000001    0.1967650000000000    0.7348700000000000 H
   0.6380440000000001    0.0856000000000000    0.8438300000000000 H
   0.0355360000000000    0.5966500000000000    0.5767400000000000 H
   0.0887000000000000    0.4862200000000000    0.6890100000000000 H
   0.0870120000000000    0.4316600000000000    0.5978900000000000 H
   0.0343720000000000    0.5369699999999999    0.4926200000000000 H
   0.0821280000000000    0.6427499999999999    0.6433600000000000 H
   0.0409880000000000    0.5266950000000000    0.7593900000000000 H
   0.0788360000000000    0.6967650000000000    0.7348700000000000 H
   0.0380440000000000    0.5856000000000000    0.8438300000000000 H
   0.6355360000000001    0.5966500000000000    0.5767400000000000 H
   0.6887000000000001    0.4862200000000000    0.6890100000000000 H
   0.6870120000000001    0.4316600000000000    0.5978900000000000 H
   0.6343720000000000    0.5369699999999999    0.4926200000000000 H
   0.6821280000000001    0.6427499999999999    0.6433600000000000 H
   0.6409880000000001    0.5266950000000000    0.7593900000000000 H
   0.6788360000000001    0.6967650000000000    0.7348700000000000 H
   0.6380440000000001    0.5856000000000000    0.8438300000000000 H
   0.7172040000000001    0.8563700000000001    0.1445400000000000 H
   0.7590380000000001    0.9723800000000000    0.2592400000000000 H
   0.7202440000000001    0.8025650000000000    0.2363500000000000 H
   0.7616980000000001    0.9136600000000000    0.3440000000000000 H
   0.7634180000000002    0.9019200000000001    0.0767200000000000 H
   0.7114240000000001    0.0130750000000000    0.1897800000000000 H
   0.7130860000000001    0.0674800000000000    0.0983300000000000 H
   0.7646380000000002    0.9614400000000001    0.9923200000000000 H
   0.9172040000000000    0.8563700000000001    0.1445400000000000 H
   0.9590380000000001    0.9723800000000000    0.2592400000000000 H
   0.9202440000000001    0.8025650000000000    0.2363500000000000 H
   0.9616980000000001    0.9136600000000000    0.3440000000000000 H
   0.9634180000000001    0.9019200000000001    0.0767200000000000 H
   0.9114240000000000    0.0130750000000000    0.1897800000000000 H
   0.9130860000000001    0.0674800000000000    0.0983300000000000 H
   0.9646380000000001    0.9614400000000001    0.9923200000000000 H
   0.5172040000000000    0.8563700000000001    0.1445400000000000 H
   0.5590380000000000    0.9723800000000000    0.2592400000000000 H
   0.5202440000000000    0.8025650000000000    0.2363500000000000 H
   0.5616980000000000    0.9136600000000000    0.3440000000000000 H
   0.5634180000000000    0.9019200000000001    0.0767200000000000 H
   0.5114240000000000    0.0130750000000000    0.1897800000000000 H
   0.5130860000000000    0.0674800000000000    0.0983300000000000 H
   0.5646380000000000    0.9614400000000001    0.9923200000000000 H
   0.3172040000000000    0.8563700000000001    0.1445400000000000 H
   0.3590380000000000    0.9723800000000000    0.2592400000000000 H
   0.3202440000000000    0.8025650000000000    0.2363500000000000 H
   0.3616980000000000    0.9136600000000000    0.3440000000000000 H
   0.3634180000000000    0.9019200000000001    0.0767200000000000 H
   0.3114240000000000    0.0130750000000000    0.1897800000000000 H
   0.3130860000000000    0.0674800000000000    0.0983300000000000 H
   0.3646380000000000    0.9614400000000001    0.9923200000000000 H
   0.1172040000000000    0.8563700000000001    0.1445400000000000 H
   0.1590380000000000    0.9723800000000000    0.2592400000000000 H
   0.1202440000000000    0.8025650000000000    0.2363500000000000 H
   0.1616980000000000    0.9136600000000000    0.3440000000000000 H
   0.1634180000000000    0.9019200000000001    0.0767200000000000 H
   0.1114240000000000    0.0130750000000000    0.1897800000000000 H
   0.1130860000000000    0.0674800000000000    0.0983300000000000 H
   0.1646380000000000    0.9614400000000001    0.9923200000000000 H
   0.7172040000000001    0.3563700000000000    0.1445400000000000 H
   0.7590380000000001    0.4723800000000000    0.2592400000000000 H
   0.7202440000000001    0.3025650000000000    0.2363500000000000 H
   0.7616980000000001    0.4136600000000000    0.3440000000000000 H
   0.7634180000000002    0.4019200000000000    0.0767200000000000 H
   0.7114240000000001    0.5130749999999999    0.1897800000000000 H
   0.7130860000000001    0.5674800000000000    0.0983300000000000 H
   0.7646380000000002    0.4614400000000000    0.9923200000000000 H
   0.5172040000000000    0.3563700000000000    0.1445400000000000 H
   0.5590380000000000    0.4723800000000000    0.2592400000000000 H
   0.5202440000000000    0.3025650000000000    0.2363500000000000 H
   0.5616980000000000    0.4136600000000000    0.3440000000000000 H
   0.5634180000000000    0.4019200000000000    0.0767200000000000 H
   0.5114240000000000    0.5130749999999999    0.1897800000000000 H
   0.5130860000000000    0.5674800000000000    0.0983300000000000 H
   0.5646380000000000    0.4614400000000000    0.9923200000000000 H
   0.9172040000000000    0.3563700000000000    0.1445400000000000 H
   0.9590380000000001    0.4723800000000000    0.2592400000000000 H
   0.9202440000000001    0.3025650000000000    0.2363500000000000 H
   0.9616980000000001    0.4136600000000000    0.3440000000000000 H
   0.9634180000000001    0.4019200000000000    0.0767200000000000 H
   0.9114240000000000    0.5130749999999999    0.1897800000000000 H
   0.9130860000000001    0.5674800000000000    0.0983300000000000 H
   0.9646380000000001    0.4614400000000000    0.9923200000000000 H
   0.3172040000000000    0.3563700000000000    0.1445400000000000 H
   0.3590380000000000    0.4723800000000000    0.2592400000000000 H
   0.3202440000000000    0.3025650000000000    0.2363500000000000 H
   0.3616980000000000    0.4136600000000000    0.3440000000000000 H
   0.3634180000000000    0.4019200000000000    0.0767200000000000 H
   0.3114240000000000    0.5130749999999999    0.1897800000000000 H
   0.3130860000000000    0.5674800000000000    0.0983300000000000 H
   0.3646380000000000    0.4614400000000000    0.9923200000000000 H
   0.1172040000000000    0.3563700000000000    0.1445400000000000 H
   0.1590380000000000    0.4723800000000000    0.2592400000000000 H
   0.1202440000000000    0.3025650000000000    0.2363500000000000 H
   0.1616980000000000    0.4136600000000000    0.3440000000000000 H
   0.1634180000000000    0.4019200000000000    0.0767200000000000 H
   0.1114240000000000    0.5130749999999999    0.1897800000000000 H
   0.1130860000000000    0.5674800000000000    0.0983300000000000 H
   0.1646380000000000    0.4614400000000000    0.9923200000000000 H
   0.3817660000000000    0.1059350000000000    0.1438400000000000 H
   0.3413420000000000    0.2228100000000000    0.2594300000000000 H
   0.3781480000000000    0.0520750000000000    0.2355200000000000 H
   0.3382000000000000    0.1640700000000000    0.3441800000000000 H
   0.3359920000000000    0.1522050000000000    0.0768800000000000 H
   0.3884540000000000    0.2627750000000000    0.1890300000000000 H
   0.3870360000000000    0.3170650000000000    0.0974800000000000 H
   0.3350340000000001    0.2116200000000000    0.9923700000000000 H
   0.9817660000000000    0.1059350000000000    0.1438400000000000 H
   0.9413420000000000    0.2228100000000000    0.2594300000000000 H
   0.9781480000000000    0.0520750000000000    0.2355200000000000 H
   0.9382000000000000    0.1640700000000000    0.3441800000000000 H
   0.9359920000000000    0.1522050000000000    0.0768800000000000 H
   0.9884540000000001    0.2627750000000000    0.1890300000000000 H
   0.9870360000000000    0.3170650000000000    0.0974800000000000 H
   0.9350340000000000    0.2116200000000000    0.9923700000000000 H
   0.7817660000000001    0.6059350000000000    0.1438400000000000 H
   0.7413420000000001    0.7228100000000000    0.2594300000000000 H
   0.7781480000000001    0.5520750000000000    0.2355200000000000 H
   0.7382000000000001    0.6640699999999999    0.3441800000000000 H
   0.7359920000000001    0.6522050000000000    0.0768800000000000 H
   0.7884540000000001    0.7627750000000000    0.1890300000000000 H
   0.7870360000000001    0.8170649999999999    0.0974800000000000 H
   0.7350340000000001    0.7116200000000000    0.9923700000000000 H
   0.3817660000000000    0.6059350000000000    0.1438400000000000 H
   0.3413420000000000    0.7228100000000000    0.2594300000000000 H
   0.3781480000000000    0.5520750000000000    0.2355200000000000 H
   0.3382000000000000    0.6640699999999999    0.3441800000000000 H
   0.3359920000000000    0.6522050000000000    0.0768800000000000 H
   0.3884540000000000    0.7627750000000000    0.1890300000000000 H
   0.3870360000000000    0.8170649999999999    0.0974800000000000 H
   0.3350340000000001    0.7116200000000000    0.9923700000000000 H
   0.1817660000000000    0.6059350000000000    0.1438400000000000 H
   0.1413420000000000    0.7228100000000000    0.2594300000000000 H
   0.1781480000000000    0.5520750000000000    0.2355200000000000 H
   0.1382000000000000    0.6640699999999999    0.3441800000000000 H
   0.1359920000000000    0.6522050000000000    0.0768800000000000 H
   0.1884540000000000    0.7627750000000000    0.1890300000000000 H
   0.1870360000000000    0.8170649999999999    0.0974800000000000 H
   0.1350340000000000    0.7116200000000000    0.9923700000000000 H
   0.9817660000000000    0.6059350000000000    0.1438400000000000 H
   0.9413420000000000    0.7228100000000000    0.2594300000000000 H
   0.9781480000000000    0.5520750000000000    0.2355200000000000 H
   0.9382000000000000    0.6640699999999999    0.3441800000000000 H
   0.9359920000000000    0.6522050000000000    0.0768800000000000 H
   0.9884540000000001    0.7627750000000000    0.1890300000000000 H
   0.9870360000000000    0.8170649999999999    0.0974800000000000 H
   0.9350340000000000    0.7116200000000000    0.9923700000000000 H
   0.5817660000000000    0.1059350000000000    0.1438400000000000 H
   0.5413420000000000    0.2228100000000000    0.2594300000000000 H
   0.5781480000000000    0.0520750000000000    0.2355200000000000 H
   0.5382000000000000    0.1640700000000000    0.3441800000000000 H
   0.5359920000000000    0.1522050000000000    0.0768800000000000 H
   0.5884540000000000    0.2627750000000000    0.1890300000000000 H
   0.5870360000000000    0.3170650000000000    0.0974800000000000 H
   0.5350340000000000    0.2116200000000000    0.9923700000000000 H
   0.7817660000000001    0.1059350000000000    0.1438400000000000 H
   0.7413420000000001    0.2228100000000000    0.2594300000000000 H
   0.7781480000000001    0.0520750000000000    0.2355200000000000 H
   0.7382000000000001    0.1640700000000000    0.3441800000000000 H
   0.7359920000000001    0.1522050000000000    0.0768800000000000 H
   0.7884540000000001    0.2627750000000000    0.1890300000000000 H
   0.7870360000000001    0.3170650000000000    0.0974800000000000 H
   0.7350340000000001    0.2116200000000000    0.9923700000000000 H
   0.1817660000000000    0.1059350000000000    0.1438400000000000 H
   0.1413420000000000    0.2228100000000000    0.2594300000000000 H
   0.1781480000000000    0.0520750000000000    0.2355200000000000 H
   0.1382000000000000    0.1640700000000000    0.3441800000000000 H
   0.1359920000000000    0.1522050000000000    0.0768800000000000 H
   0.1884540000000000    0.2627750000000000    0.1890300000000000 H
   0.1870360000000000    0.3170650000000000    0.0974800000000000 H
   0.1350340000000000    0.2116200000000000    0.9923700000000000 H
   0.5817660000000000    0.6059350000000000    0.1438400000000000 H
   0.5413420000000000    0.7228100000000000    0.2594300000000000 H
   0.5781480000000000    0.5520750000000000    0.2355200000000000 H
   0.5382000000000000    0.6640699999999999    0.3441800000000000 H
   0.5359920000000000    0.6522050000000000    0.0768800000000000 H
   0.5884540000000000    0.7627750000000000    0.1890300000000000 H
   0.5870360000000000    0.8170649999999999    0.0974800000000000 H
   0.5350340000000000    0.7116200000000000    0.9923700000000000 H
   0.8635040000000000    0.8465300000000000    0.5758500000000000 H
   0.8113040000000000    0.7360900000000000    0.6892900000000000 H
   0.8128180000000000    0.6815700000000000    0.5980500000000000 H
   0.8646140000000000    0.7869250000000000    0.4916400000000000 H
   0.8174860000000000    0.8927950000000000    0.6437000000000000 H
   0.8592220000000000    0.7762600000000000    0.7583800000000001 H
   0.8211240000000001    0.9466250000000000    0.7352900000000000 H
   0.8623420000000001    0.8349550000000000    0.8429700000000000 H
   0.6635040000000001    0.8465300000000000    0.5758500000000000 H
   0.6113040000000001    0.7360900000000000    0.6892900000000000 H
   0.6128180000000001    0.6815700000000000    0.5980500000000000 H
   0.6646140000000000    0.7869250000000000    0.4916400000000000 H
   0.6174860000000001    0.8927950000000000    0.6437000000000000 H
   0.6592220000000001    0.7762600000000000    0.7583800000000001 H
   0.6211240000000001    0.9466250000000000    0.7352900000000000 H
   0.6623420000000001    0.8349550000000000    0.8429700000000000 H
   0.4635040000000000    0.8465300000000000    0.5758500000000000 H
   0.4113040000000000    0.7360900000000000    0.6892900000000000 H
   0.4128180000000000    0.6815700000000000    0.5980500000000000 H
   0.4646140000000000    0.7869250000000000    0.4916400000000000 H
   0.4174860000000000    0.8927950000000000    0.6437000000000000 H
   0.4592220000000000    0.7762600000000000    0.7583800000000001 H
   0.4211240000000001    0.9466250000000000    0.7352900000000000 H
   0.4623420000000000    0.8349550000000000    0.8429700000000000 H
   0.0635040000000000    0.8465300000000000    0.5758500000000000 H
   0.0113040000000000    0.7360900000000000    0.6892900000000000 H
   0.0128180000000000    0.6815700000000000    0.5980500000000000 H
   0.0646140000000000    0.7869250000000000    0.4916400000000000 H
   0.0174860000000000    0.8927950000000000    0.6437000000000000 H
   0.0592220000000000    0.7762600000000000    0.7583800000000001 H
   0.0211240000000000    0.9466250000000000    0.7352900000000000 H
   0.0623420000000000    0.8349550000000000    0.8429700000000000 H
   0.8635040000000000    0.3465300000000000    0.5758500000000000 H
   0.8113040000000000    0.2360900000000000    0.6892900000000000 H
   0.8128180000000000    0.1815700000000000    0.5980500000000000 H
   0.8646140000000000    0.2869250000000000    0.4916400000000000 H
   0.8174860000000000    0.3927950000000000    0.6437000000000000 H
   0.8592220000000000    0.2762600000000000    0.7583800000000001 H
   0.8211240000000001    0.4466250000000000    0.7352900000000000 H
   0.8623420000000001    0.3349550000000000    0.8429700000000000 H
   0.6635040000000001    0.3465300000000000    0.5758500000000000 H
   0.6113040000000001    0.2360900000000000    0.6892900000000000 H
   0.6128180000000001    0.1815700000000000    0.5980500000000000 H