H2 O1
1.0
  26.8083068409256526    0.0000000000000000    5.5658857626418081
   3.3396257397221754   16.3488981405061260    0.6955792621552803
   0.0000000000000000    0.0000000000000000   33.4020000000000010
H O
2 1
direct
   0.8864323601607556    0.2368225085500195    0.9188918547747837 H
   0.9032417926265969    0.1642552249171014    0.8864241473094575 H
   0.8740250000000001    0.2001900000000000    0.9029800000000000 O
