H12 C6 N4
1.0
  26.8083068409256526    0.0000000000000000    5.5658857626418081
   3.3396257397221754   16.3488981405061260    0.6955792621552803
   0.0000000000000000    0.0000000000000000   33.4020000000000010
H C N
12 6 4
direct
   0.9043150000000000    0.1052900000000000    0.8597300000000000 H
   0.9414350000000000    0.1093200000000000    0.8979100000000000 H
   0.8312300000000000    0.2087600000000000    0.8565499999999999 H
   0.8606750000000001    0.3947700000000000    0.8901950000000001 H
   0.9178050000000000    0.3907100000000000    0.8520799999999999 H
   0.8118050000000000    0.2913300000000000    0.8933200000000000 H
   0.9443250000000001    0.2805100000000000    0.8026400000000000 H
   0.9062049999999999    0.2042000000000000    0.8046000000000000 H
   0.9916400000000001    0.2868000000000000    0.8544000000000000 H
   0.9159150000000000    0.2195200000000000    0.9473500000000000 H
   0.8597850000000000    0.2958400000000000    0.9453000000000000 H
   0.9905400000000000    0.2132400000000000    0.8956750000000000 H
   0.9183200000000000    0.1457100000000000    0.8778800000000000 C
   0.8937850000000001    0.3543400000000000    0.8720850000000000 C
   0.9202550000000000    0.2442400000000000    0.8228350000000000 C
   0.8928600000000000    0.2558000000000000    0.9271350000000000 C
   0.8442300000000000    0.2500400000000000    0.8745000000000001 C
   0.9683800000000000    0.2500200000000000    0.8750249999999999 C
   0.8740250000000001    0.2001900000000000    0.9029800000000000 N
   0.8755600000000000    0.2998600000000000    0.8469550000000000 N
   0.9509950000000000    0.1940000000000000    0.8500950000000000 N
   0.9246400000000000    0.3060500000000000    0.8999150000000000 N
