H1 C5 N2 O4
1.0
  29.0599999822956327    0.0000000000000000    0.0010143853610522
   0.0005536340194825   31.7219999903372631    0.0005536533452900
   0.0000000000000000    0.0000000000000000   32.8220000000000027
H C N O
1 5 2 4
direct
   0.9752250000000000    0.0402750000000000    0.2398500000000000 H
   0.8721400000000000    0.0081150000000000    0.2210350000000000 C
   0.9402750000000000    0.0282200000000000    0.2408550000000000 C
   0.8754900000000000    0.0000000000000000    0.2635900000000000 C
   0.8365300000000000    0.9996250000000000    0.1896700000000000 C
   0.8453500000000000    0.9853499999999999    0.2960250000000000 C
   0.9136949999999999    0.0240550000000000    0.2076000000000000 N
   0.9190050000000001    0.0156900000000000    0.2751450000000000 N
   0.8494850000000000    0.0054750000000000    0.1527800000000000 O
   0.8029700000000000    0.9762500000000001    0.2913200000000000 O
   0.7959499999999999    0.9871900000000000    0.1979350000000000 O
   0.8647700000000000    0.9793650000000000    0.3305400000000000 O
