H8 C14 O4
1.0
  34.4166970379246777    0.0000000000000000    1.8428567496435726
   0.1582934120279490   17.2276899392999283    0.9752838310218130
   0.0000000000000000    0.0000000000000000   34.8140000000000001
H C O
8 14 4
direct
   0.5894650000000000    0.0356400000000000    0.6422450000000000 H
   0.5943600000000000    0.0380600000000000    0.7131300000000000 H
   0.5313050000000000    0.2583100000000000    0.6413700000000000 H
   0.5354050000000000    0.2589000000000000    0.7125650000000000 H
   0.5828650000000000    0.2641600000000000    0.5135999999999999 H
   0.5791800000000000    0.2666100000000000    0.5852100000000000 H
   0.5406250000000000    0.0292300000000000    0.5934000000000000 H
   0.5422150000000000    0.0290500000000000    0.5221200000000000 H
   0.5661700000000001    0.1441800000000000    0.4706650000000000 C
   0.5775150000000000    0.0846500000000000    0.6575650000000000 C
   0.5804300000000000    0.0858600000000000    0.6971950000000000 C
   0.5731650000000000    0.2134400000000000    0.5314150000000000 C
   0.5710050000000000    0.2145100000000000    0.5713850000000000 C
   0.5499400000000000    0.0808900000000000    0.5761200000000000 C
   0.5508200000000000    0.0804900000000000    0.5361700000000000 C
   0.5455050000000000    0.2103600000000000    0.6570100000000000 C
   0.5475449999999999    0.2107500000000000    0.6967750000000000 C
   0.5631500000000000    0.1462800000000000    0.5134250000000000 C
   0.5601150000000000    0.1478100000000000    0.5943650000000000 C
   0.5606550000000000    0.1475200000000000    0.6367600000000000 C
   0.5655900000000000    0.1490800000000000    0.7171750000000000 C
   0.5690999999999999    0.1507000000000000    0.7595900000000000 C
   0.5499849999999999    0.0871700000000000    0.4560500000000000 O
   0.5848200000000000    0.1989300000000000    0.4517800000000000 O
   0.5496550000000000    0.2028800000000000    0.7771049999999999 O
   0.5915049999999999    0.0998300000000000    0.7752200000000000 O
