H6 C12 S2 N2 O4
1.0
  22.5992263259282247    0.0000000000000000   -1.9592920837569734
   0.6076251316660864   11.5067621804698259   -5.9971089552781267
   0.0000000000000000    0.0000000000000000   38.9579999999999984
H C S N O
6 12 2 2 4
direct
   0.1236500000000000    0.6973500000000000    0.0678000000000000 H
   0.3079000000000000    0.6118300000000000    0.0842133333333333 H
   0.2915600000000000    0.4084200000000000    0.0332500000000000 H
   0.3445900000000000    0.0309300000000000    0.0604233333333333 H
   0.1728000000000000    0.1936800000000000    0.0980633333333333 H
   0.1671200000000000    0.2557800000000000    0.0451466666666667 H
   0.2248500000000000    0.7913400000000000    0.1123633333333333 C
   0.2164900000000000    0.6697900000000000    0.0808166666666667 C
   0.1619100000000000    0.6359600000000000    0.0610333333333333 C
   0.2641900000000000    0.5869000000000000    0.0701466666666667 C
   0.2552700000000000    0.4744000000000000    0.0418166666666667 C
   0.1988000000000000    0.4462900000000000    0.0237366666666667 C
   0.2531300000000000    0.1722300000000000    0.0257000000000000 C
   0.3043400000000000    0.0798600000000000    0.0578933333333333 C
   0.2584800000000000    0.1064300000000000    0.0830800000000000 C
   0.2085700000000000    0.1713600000000000    0.0785233333333333 C
   0.2603000000000000    0.0650200000000000    0.1133300000000000 C
   0.2053900000000000    0.2060500000000000    0.0496166666666667 C
   0.2574400000000000    0.2047600000000000    0.9859533333333332 S
   0.1819600000000000    0.3038200000000000    0.9873499999999999 S
   0.3017600000000000    0.1115200000000000    0.0294366666666667 N
   0.1526600000000000    0.5266800000000000    0.0328000000000000 N
   0.3099700000000000    1.0274799999999999    0.1222766666666667 O
   0.2107800000000000    0.0708700000000000    0.1275500000000000 O
   0.2781400000000000    0.8193300000000000    0.1224233333333333 O
   0.1783900000000000   -0.1451100000000000    0.1263700000000000 O
