Zn24 H138 C276 S46 N46 O92
1.0
  22.5992263259282247    0.0000000000000000   -1.9592920837569734
   0.6076251316660864   11.5067621804698259   -5.9971089552781267
   0.0000000000000000    0.0000000000000000   38.9579999999999984
Zn H C S N O
24 138 276 46 46 92
direct
   0.9350900000000000    0.4951600000000000    0.3245600000000000 Zn
   0.3149200000000000    0.9736600000000000    0.1650333333333333 Zn
   0.8149200000000000    0.9736600000000000    0.1650333333333333 Zn
   0.0649200000000000    0.5048400000000000    0.0087766666666667 Zn
   0.5649200000000000    0.5048400000000000    0.0087766666666667 Zn
   0.1850900000000000    0.0263400000000000    0.1682833333333333 Zn
   0.6850900000000000    0.0263400000000000    0.1682833333333333 Zn
   0.4350800000000000    0.4951600000000000    0.3245600000000000 Zn
   0.9350900000000000    0.4951600000000000    0.6578933333333332 Zn
   0.3149200000000000    0.9736600000000000    0.4983666666666666 Zn
   0.8149200000000000    0.9736600000000000    0.4983666666666666 Zn
   0.0649200000000000    0.5048400000000000    0.3421100000000000 Zn
   0.5649200000000000    0.5048400000000000    0.3421100000000000 Zn
   0.1850900000000000    0.0263400000000000    0.5016166666666666 Zn
   0.6850900000000000    0.0263400000000000    0.5016166666666666 Zn
   0.4350800000000000    0.4951600000000000    0.6578933333333332 Zn
   0.9350900000000000    0.4951600000000000    0.9912266666666666 Zn
   0.3149200000000000    0.9736600000000000    0.8316999999999999 Zn
   0.8149200000000000    0.9736600000000000    0.8316999999999999 Zn
   0.0649200000000000    0.5048400000000000    0.6754433333333333 Zn
   0.5649200000000000    0.5048400000000000    0.6754433333333333 Zn
   0.1850900000000000    0.0263400000000000    0.8349500000000000 Zn
   0.6850900000000000    0.0263400000000000    0.8349500000000000 Zn
   0.4350800000000000    0.4951600000000000    0.9912266666666666 Zn
   0.3736500000000000    0.7965500000000000    0.1008866666666667 H
   0.8736500000000000    0.7965500000000000    0.1008866666666667 H
   0.0579100000000000    0.7474400000000000    0.1293966666666667 H
   0.5579200000000000    0.7474400000000000    0.1293966666666667 H
   0.0415600000000000    0.9003400000000000    0.1972133333333334 H
   0.5415600000000000    0.9003400000000000    0.1972133333333334 H
   0.0945900000000000    0.8185200000000000    0.3229666666666666 H
   0.5945900000000000    0.8185300000000000    0.3229933333333333 H
   0.4227800000000000    0.7058100000000000    0.2687666666666667 H
   0.9227800000000000    0.7058100000000000    0.2687666666666667 H
   0.4170900000000000    0.8646000000000000    0.2481000000000000 H
   0.9170900000000000    0.8646000000000000    0.2481000000000000 H
   0.3763600000000000    0.3026400000000000    0.2655233333333333 H
   0.8763600000000000    0.3026400000000000    0.2655233333333333 H
   0.1921000000000000    0.3881600000000000    0.2491000000000000 H
   0.6921000000000000    0.3881600000000000    0.2491000000000000 H
   0.2084400000000000    0.5915700000000000    0.3000833333333333 H
   0.7084400000000000    0.5915700000000000    0.3000833333333333 H
   0.1554100000000000    0.9690600000000000    0.2729100000000000 H
   0.6554100000000000    0.9690700000000000    0.2729100000000000 H
   0.3272000000000000    0.8063300000000000    0.2352733333333333 H
   0.8272000000000000    0.8063300000000000    0.2352733333333333 H
   0.3328900000000000    0.7442200000000000    0.2881899999999999 H
   0.8328900000000000    0.7442200000000000    0.2881899999999999 H
   0.1263500000000000    0.2034500000000000    0.2324500000000000 H
   0.6263500000000000    0.2034500000000000    0.2324500000000000 H
   0.4420900000000000    0.2525600000000000    0.2039400000000000 H
   0.9420900000000000    0.2525600000000000    0.2039400000000000 H
   0.4584500000000000    0.0996600000000000    0.1361233333333333 H
   0.9584500000000000    0.0996600000000000    0.1361233333333333 H
   0.4054100000000000    0.1814700000000000    0.0103333333333333 H
   0.9054100000000000    0.1814700000000000    0.0103466666666667 H
   0.0772200000000000    0.2941800000000000    0.0645666666666667 H
   0.5772200000000000    0.2941800000000000    0.0645666666666667 H
   0.0829200000000000    0.1353800000000000    0.0850000000000000 H
   0.5829200000000000    0.1353900000000000    0.0852333333333333 H
   0.6236500000000000    0.6973500000000000    0.0678000000000000 H
   0.8079100000000000    0.6118300000000000    0.0842133333333333 H
   0.7915600000000000    0.4084200000000000    0.0332500000000000 H
   0.8445900000000000    0.0309300000000000    0.0604266666666667 H
   0.6728100000000000    0.1936700000000000    0.0980633333333333 H
   0.6671200000000000    0.2557800000000000    0.0451466666666667 H
   0.3736500000000000    0.7965500000000000    0.4342199999999999 H
   0.8736500000000000    0.7965500000000000    0.4342199999999999 H
   0.0579100000000000    0.7474400000000000    0.4627300000000000 H
   0.5579200000000000    0.7474400000000000    0.4627300000000000 H
   0.0415600000000000    0.9003400000000000    0.5305466666666667 H
   0.5415600000000000    0.9003400000000000    0.5305466666666667 H
   0.0945900000000000    0.8185200000000000    0.6562999999999999 H
   0.5945900000000000    0.8185300000000000    0.6563266666666666 H
   0.4227800000000000    0.7058100000000000    0.6021000000000000 H
   0.9227800000000000    0.7058100000000000    0.6021000000000000 H
   0.4170900000000000    0.8646000000000000    0.5814333333333332 H
   0.9170900000000000    0.8646000000000000    0.5814333333333332 H
   0.3763600000000000    0.3026400000000000    0.5988566666666666 H
   0.8763600000000000    0.3026400000000000    0.5988566666666666 H
   0.1921000000000000    0.3881600000000000    0.5824333333333334 H
   0.6921000000000000    0.3881600000000000    0.5824333333333334 H
   0.2084400000000000    0.5915700000000000    0.6334166666666666 H
   0.7084400000000000    0.5915700000000000    0.6334166666666666 H
   0.1554100000000000    0.9690600000000000    0.6062433333333332 H
   0.6554100000000000    0.9690700000000000    0.6062433333333332 H
   0.3272000000000000    0.8063300000000000    0.5686066666666667 H
   0.8272000000000000    0.8063300000000000    0.5686066666666667 H
   0.3328900000000000    0.7442200000000000    0.6215233333333332 H
   0.8328900000000000    0.7442200000000000    0.6215233333333332 H
   0.1263500000000000    0.2034500000000000    0.5657833333333333 H
   0.6263500000000000    0.2034500000000000    0.5657833333333333 H
   0.4420900000000000    0.2525600000000000    0.5372733333333333 H
   0.9420900000000000    0.2525600000000000    0.5372733333333333 H
   0.4584500000000000    0.0996600000000000    0.4694566666666666 H
   0.9584500000000000    0.0996600000000000    0.4694566666666666 H
   0.4054100000000000    0.1814700000000000    0.3436666666666667 H
   0.9054100000000000    0.1814700000000000    0.3436800000000000 H
   0.0772200000000000    0.2941800000000000    0.3979000000000000 H
   0.5772200000000000    0.2941800000000000    0.3979000000000000 H
   0.0829200000000000    0.1353800000000000    0.4183333333333333 H
   0.5829200000000000    0.1353900000000000    0.4185666666666666 H
   0.1236500000000000    0.6973500000000000    0.4011333333333333 H
   0.6236500000000000    0.6973500000000000    0.4011333333333333 H
   0.3079000000000000    0.6118300000000000    0.4175466666666666 H
   0.8079100000000000    0.6118300000000000    0.4175466666666666 H
   0.2915600000000000    0.4084200000000000    0.3665833333333333 H
   0.7915600000000000    0.4084200000000000    0.3665833333333333 H
   0.3445900000000000    0.0309300000000000    0.3937566666666666 H
   0.8445900000000000    0.0309300000000000    0.3937600000000000 H
   0.1728000000000000    0.1936800000000000    0.4313966666666667 H
   0.6728100000000000    0.1936700000000000    0.4313966666666667 H
   0.1671200000000000    0.2557800000000000    0.3784800000000000 H
   0.6671200000000000    0.2557800000000000    0.3784800000000000 H
   0.3736500000000000    0.7965500000000000    0.7675533333333333 H
   0.8736500000000000    0.7965500000000000    0.7675533333333333 H
   0.0579100000000000    0.7474400000000000    0.7960633333333333 H
   0.5579200000000000    0.7474400000000000    0.7960633333333333 H
   0.0415600000000000    0.9003400000000000    0.8638800000000000 H
   0.5415600000000000    0.9003400000000000    0.8638800000000000 H
   0.0945900000000000    0.8185200000000000    0.9896333333333333 H
   0.5945900000000000    0.8185300000000000    0.9896600000000000 H
   0.4227800000000000    0.7058100000000000    0.9354333333333333 H
   0.9227800000000000    0.7058100000000000    0.9354333333333333 H
   0.4170900000000000    0.8646000000000000    0.9147666666666666 H
   0.9170900000000000    0.8646000000000000    0.9147666666666666 H
   0.3763600000000000    0.3026400000000000    0.9321900000000000 H
   0.8763600000000000    0.3026400000000000    0.9321900000000000 H
   0.1921000000000000    0.3881600000000000    0.9157666666666666 H
   0.6921000000000000    0.3881600000000000    0.9157666666666666 H
   0.2084400000000000    0.5915700000000000    0.9667500000000000 H
   0.7084400000000000    0.5915700000000000    0.9667500000000000 H
   0.1554100000000000    0.9690600000000000    0.9395766666666666 H
   0.6554100000000000    0.9690700000000000    0.9395766666666666 H
   0.3272000000000000    0.8063300000000000    0.9019400000000000 H
   0.8272000000000000    0.8063300000000000    0.9019400000000000 H
   0.3328900000000000    0.7442200000000000    0.9548566666666666 H
   0.8328900000000000    0.7442200000000000    0.9548566666666666 H
   0.1263500000000000    0.2034500000000000    0.8991166666666666 H
   0.6263500000000000    0.2034500000000000    0.8991166666666666 H
   0.4420900000000000    0.2525600000000000    0.8706066666666666 H
   0.9420900000000000    0.2525600000000000    0.8706066666666666 H
   0.4584500000000000    0.0996600000000000    0.8027899999999999 H
   0.9584500000000000    0.0996600000000000    0.8027899999999999 H
   0.4054100000000000    0.1814700000000000    0.6769999999999999 H
   0.9054100000000000    0.1814700000000000    0.6770133333333332 H
   0.0772200000000000    0.2941800000000000    0.7312333333333333 H
   0.5772200000000000    0.2941800000000000    0.7312333333333333 H
   0.0829200000000000    0.1353800000000000    0.7516666666666666 H
   0.5829200000000000    0.1353900000000000    0.7519000000000000 H
   0.1236500000000000    0.6973500000000000    0.7344666666666666 H
   0.6236500000000000    0.6973500000000000    0.7344666666666666 H
   0.3079000000000000    0.6118300000000000    0.7508800000000000 H
   0.8079100000000000    0.6118300000000000    0.7508800000000000 H
   0.2915600000000000    0.4084200000000000    0.6999166666666666 H
   0.7915600000000000    0.4084200000000000    0.6999166666666666 H
   0.3445900000000000    0.0309300000000000    0.7270900000000000 H
   0.8445900000000000    0.0309300000000000    0.7270933333333333 H
   0.1728000000000000    0.1936800000000000    0.7647299999999999 H
   0.6728100000000000    0.1936700000000000    0.7647299999999999 H
   0.1671200000000000    0.2557800000000000    0.7118133333333333 H
   0.6671200000000000    0.2557800000000000    0.7118133333333333 H
   0.4748600000000000    0.6629200000000000    0.0695333333333333 C
   0.9748599999999999    0.6629200000000000    0.0695333333333333 C
   0.4665000000000000    0.7575900000000000    0.1100666666666667 C
   0.9665100000000000    0.7575800000000000    0.1100766666666667 C
   0.4119100000000000    0.8169200000000000    0.1213533333333333 C
   0.9119100000000000    0.8169100000000000    0.1213533333333333 C
   0.0142000000000000    0.7896300000000001    0.1377066666666666 C
   0.5142000000000000    0.7896300000000001    0.1377066666666666 C
   0.0052700000000000    0.8746000000000000    0.1752200000000000 C
   0.5052700000000000    0.8746000000000000    0.1752200000000000 C
   0.4488000000000000    0.9288300000000000    0.1845900000000000 C
   0.9488000000000000    0.9288300000000000    0.1845900000000000 C
   0.0031100000000000    0.9228300000000000    0.2759333333333333 C
   0.5031099999999999    0.9228300000000000    0.2759333333333333 C
   0.0543400000000000    0.8261800000000000    0.3066933333333333 C
   0.5543400000000001    0.8261800000000000    0.3066933333333333 C
   0.0084700000000000    0.7506699999999999    0.2978366666666666 C
   0.5084800000000000    0.7506600000000000    0.2978333333333333 C
   0.4585500000000000    0.7644000000000000    0.2762000000000000 C
   0.9585500000000000    0.7644000000000000    0.2762133333333333 C
   0.0102900000000000    0.6599100000000000    0.3116266666666667 C
   0.5102900000000000    0.6599100000000000    0.3116266666666667 C
   0.4553800000000000    0.8511200000000000    0.2646533333333333 C
   0.9553800000000000    0.8511100000000000    0.2646533333333333 C
   0.2751600000000000    0.2086500000000000    0.2209733333333333 C
   0.7751600000000000    0.2086500000000000    0.2209733333333333 C
   0.2835100000000000    0.3302000000000000    0.2525200000000000 C
   0.7835100000000000    0.3302000000000000    0.2524999999999999 C
   0.3381000000000000    0.3640400000000000    0.2723033333333333 C
   0.8381000000000000    0.3640400000000000    0.2723033333333333 C
   0.2358100000000000    0.4130900000000000    0.2631900000000000 C
   0.7358100000000000    0.4130900000000000    0.2631900000000000 C
   0.2447300000000000    0.5256000000000000    0.2915166666666666 C
   0.7447400000000000    0.5256000000000000    0.2915166666666666 C
   0.3012000000000000    0.5537000000000000    0.3096000000000000 C
   0.8012000000000000    0.5537000000000000    0.3096000000000000 C
   0.2468700000000000    0.8277700000000000    0.3076366666666667 C
   0.7468700000000000    0.8277700000000000    0.3076366666666667 C
   0.1956600000000000    0.9201400000000000    0.2754433333333333 C
   0.6956599999999999    0.9201400000000000    0.2754433333333333 C
   0.2415200000000000    0.8935600000000000    0.2502566666666667 C
   0.7415200000000000    0.8935600000000000    0.2502566666666667 C
   0.2914300000000000    0.8286500000000000    0.2548133333333333 C
   0.7914400000000000    0.8286500000000000    0.2548133333333333 C
   0.2397000000000000    0.9349800000000000    0.2200066666666667 C
   0.7397100000000000    0.9349800000000000    0.2200066666666667 C
   0.2946100000000000    0.7939500000000000    0.2837200000000000 C
   0.7946100000000000    0.7939500000000000    0.2837200000000000 C
   0.0251400000000000    0.3370800000000000    0.2637800000000000 C
   0.5251500000000000    0.3370800000000000    0.2637800000000000 C
   0.0335000000000000    0.2424100000000000    0.2232600000000000 C
   0.5335000000000000    0.2424100000000000    0.2232600000000000 C
   0.0880900000000000    0.1830800000000000    0.2119833333333333 C
   0.5880900000000000    0.1830800000000000    0.2119833333333333 C
   0.4858000000000000    0.2103700000000000    0.1956300000000000 C
   0.9858000000000000    0.2103700000000000    0.1956300000000000 C
   0.4947400000000000    0.1254100000000000    0.1581166666666667 C
   0.9947400000000000    0.1254000000000000    0.1581166666666667 C
   0.0512100000000000    0.0711600000000000    0.1487466666666667 C
   0.5512100000000000    0.0711600000000000    0.1487466666666667 C
   0.4968900000000000    0.0771700000000000    0.0574033333333333 C
   0.9968900000000001    0.0771600000000000    0.0574033333333333 C
   0.4456600000000000    0.1738200000000000    0.0266433333333333 C
   0.9456700000000000    0.1738200000000000    0.0266433333333333 C
   0.4915300000000000    0.2493300000000000    0.0355000000000000 C
   0.9915300000000000    0.2493300000000000    0.0355000000000000 C
   0.0414500000000000    0.2355900000000000    0.0571200000000000 C
   0.5414600000000001    0.2355900000000000    0.0571233333333333 C
   0.4897100000000000    0.3400900000000000    0.0217000000000000 C
   0.9897200000000000    0.3400900000000000    0.0217000000000000 C
   0.0446300000000000    0.1488800000000000    0.0686800000000000 C
   0.5446299999999999    0.1488800000000000    0.0686800000000000 C
   0.7248500000000000    0.7913400000000000    0.1123633333333333 C
   0.7165000000000000    0.6697900000000000    0.0808166666666667 C
   0.6619100000000000    0.6359600000000000    0.0610333333333333 C
   0.7642000000000000    0.5869100000000000    0.0701466666666667 C
   0.7552700000000000    0.4744000000000000    0.0418000000000000 C
   0.6988000000000000    0.4462900000000000    0.0237366666666667 C
   0.7531300000000000    0.1722300000000000    0.0257000000000000 C
   0.8043500000000000    0.0798600000000000    0.0578933333333333 C
   0.7584900000000000    0.1064300000000000    0.0830800000000000 C
   0.7085700000000000    0.1713600000000000    0.0785233333333333 C
   0.7603000000000000    0.0650200000000000    0.1133300000000000 C
   0.7053900000000000    0.2060500000000000    0.0496166666666667 C
   0.4748600000000000    0.6629200000000000    0.4028666666666667 C
   0.9748599999999999    0.6629200000000000    0.4028666666666667 C
   0.4665000000000000    0.7575900000000000    0.4434000000000000 C
   0.9665100000000000    0.7575800000000000    0.4434100000000000 C
   0.4119100000000000    0.8169200000000000    0.4546866666666666 C
   0.9119100000000000    0.8169100000000000    0.4546866666666666 C
   0.0142000000000000    0.7896300000000001    0.4710400000000000 C
   0.5142000000000000    0.7896300000000001    0.4710400000000000 C
   0.0052700000000000    0.8746000000000000    0.5085533333333333 C
   0.5052700000000000    0.8746000000000000    0.5085533333333333 C
   0.4488000000000000    0.9288300000000000    0.5179233333333333 C
   0.9488000000000000    0.9288300000000000    0.5179233333333333 C
   0.0031100000000000    0.9228300000000000    0.6092666666666666 C
   0.5031099999999999    0.9228300000000000    0.6092666666666666 C
   0.0543400000000000    0.8261800000000000    0.6400266666666666 C
   0.5543400000000001    0.8261800000000000    0.6400266666666666 C
   0.0084700000000000    0.7506699999999999    0.6311700000000000 C
   0.5084800000000000    0.7506600000000000    0.6311666666666667 C
   0.4585500000000000    0.7644000000000000    0.6095333333333333 C
   0.9585500000000000    0.7644000000000000    0.6095466666666667 C
   0.0102900000000000    0.6599100000000000    0.6449600000000000 C
   0.5102900000000000    0.6599100000000000    0.6449600000000000 C
   0.4553800000000000    0.8511200000000000    0.5979866666666667 C
   0.9553800000000000    0.8511100000000000    0.5979866666666667 C
   0.2751600000000000    0.2086500000000000    0.5543066666666666 C
   0.7751600000000000    0.2086500000000000    0.5543066666666666 C
   0.2835100000000000    0.3302000000000000    0.5858533333333333 C
   0.7835100000000000    0.3302000000000000    0.5858333333333332 C
   0.3381000000000000    0.3640400000000000    0.6056366666666666 C
   0.8381000000000000    0.3640400000000000    0.6056366666666666 C
   0.2358100000000000    0.4130900000000000    0.5965233333333333 C
   0.7358100000000000    0.4130900000000000    0.5965233333333333 C
   0.2447300000000000    0.5256000000000000    0.6248499999999999 C
   0.7447400000000000    0.5256000000000000    0.6248499999999999 C
   0.3012000000000000    0.5537000000000000    0.6429333333333334 C
   0.8012000000000000    0.5537000000000000    0.6429333333333334 C
   0.2468700000000000    0.8277700000000000    0.6409700000000000 C
   0.7468700000000000    0.8277700000000000    0.6409700000000000 C
   0.1956600000000000    0.9201400000000000    0.6087766666666666 C
   0.6956599999999999    0.9201400000000000    0.6087766666666666 C
   0.2415200000000000    0.8935600000000000    0.5835900000000001 C
   0.7415200000000000    0.8935600000000000    0.5835900000000001 C
   0.2914300000000000    0.8286500000000000    0.5881466666666666 C
   0.7914400000000000    0.8286500000000000    0.5881466666666666 C
   0.2397000000000000    0.9349800000000000    0.5533399999999999 C
   0.7397100000000000    0.9349800000000000    0.5533399999999999 C
   0.2946100000000000    0.7939500000000000    0.6170533333333332 C
   0.7946100000000000    0.7939500000000000    0.6170533333333332 C
   0.0251400000000000    0.3370800000000000    0.5971133333333334 C
   0.5251500000000000    0.3370800000000000    0.5971133333333334 C
   0.0335000000000000    0.2424100000000000    0.5565933333333333 C
   0.5335000000000000    0.2424100000000000    0.5565933333333333 C
   0.0880900000000000    0.1830800000000000    0.5453166666666667 C
   0.5880900000000000    0.1830800000000000    0.5453166666666667 C
   0.4858000000000000    0.2103700000000000    0.5289633333333333 C
   0.9858000000000000    0.2103700000000000    0.5289633333333333 C
   0.4947400000000000    0.1254100000000000    0.4914499999999999 C
   0.9947400000000000    0.1254000000000000    0.4914499999999999 C
   0.0512100000000000    0.0711600000000000    0.4820800000000000 C
   0.5512100000000000    0.0711600000000000    0.4820800000000000 C
   0.4968900000000000    0.0771700000000000    0.3907366666666666 C
   0.9968900000000001    0.0771600000000000    0.3907366666666666 C
   0.4456600000000000    0.1738200000000000    0.3599766666666667 C
   0.9456700000000000    0.1738200000000000    0.3599766666666667 C
   0.4915300000000000    0.2493300000000000    0.3688333333333333 C
   0.9915300000000000    0.2493300000000000    0.3688333333333333 C
   0.0414500000000000    0.2355900000000000    0.3904533333333333 C
   0.5414600000000001    0.2355900000000000    0.3904566666666667 C
   0.4897100000000000    0.3400900000000000    0.3550333333333333 C
   0.9897200000000000    0.3400900000000000    0.3550333333333333 C
   0.0446300000000000    0.1488800000000000    0.4020133333333333 C
   0.5446299999999999    0.1488800000000000    0.4020133333333333 C
   0.2248500000000000    0.7913400000000000    0.4456966666666666 C
   0.7248500000000000    0.7913400000000000    0.4456966666666666 C
   0.2164900000000000    0.6697900000000000    0.4141500000000000 C
   0.7165000000000000    0.6697900000000000    0.4141500000000000 C
   0.1619100000000000    0.6359600000000000    0.3943666666666666 C
   0.6619100000000000    0.6359600000000000    0.3943666666666666 C
   0.2641900000000000    0.5869000000000000    0.4034799999999999 C
   0.7642000000000000    0.5869100000000000    0.4034799999999999 C
   0.2552700000000000    0.4744000000000000    0.3751500000000000 C
   0.7552700000000000    0.4744000000000000    0.3751333333333333 C
   0.1988000000000000    0.4462900000000000    0.3570700000000000 C
   0.6988000000000000    0.4462900000000000    0.3570700000000000 C
   0.2531300000000000    0.1722300000000000    0.3590333333333333 C
   0.7531300000000000    0.1722300000000000    0.3590333333333333 C
   0.3043400000000000    0.0798600000000000    0.3912266666666667 C
   0.8043500000000000    0.0798600000000000    0.3912266666666667 C
   0.2584800000000000    0.1064300000000000    0.4164133333333333 C
   0.7584900000000000    0.1064300000000000    0.4164133333333333 C
   0.2085700000000000    0.1713600000000000    0.4118566666666666 C
   0.7085700000000000    0.1713600000000000    0.4118566666666666 C
   0.2603000000000000    0.0650200000000000    0.4466633333333333 C
   0.7603000000000000    0.0650200000000000    0.4466633333333333 C
   0.2053900000000000    0.2060500000000000    0.3829500000000000 C
   0.7053900000000000    0.2060500000000000    0.3829500000000000 C
   0.4748600000000000    0.6629200000000000    0.7362000000000000 C
   0.9748599999999999    0.6629200000000000    0.7362000000000000 C
   0.4665000000000000    0.7575900000000000    0.7767333333333333 C
   0.9665100000000000    0.7575800000000000    0.7767433333333333 C
   0.4119100000000000    0.8169200000000000    0.7880199999999999 C
   0.9119100000000000    0.8169100000000000    0.7880199999999999 C
   0.0142000000000000    0.7896300000000001    0.8043733333333333 C
   0.5142000000000000    0.7896300000000001    0.8043733333333333 C
   0.0052700000000000    0.8746000000000000    0.8418866666666667 C
   0.5052700000000000    0.8746000000000000    0.8418866666666667 C
   0.4488000000000000    0.9288300000000000    0.8512566666666666 C
   0.9488000000000000    0.9288300000000000    0.8512566666666666 C
   0.0031100000000000    0.9228300000000000    0.9425999999999999 C
   0.5031099999999999    0.9228300000000000    0.9425999999999999 C
   0.0543400000000000    0.8261800000000000    0.9733600000000000 C
   0.5543400000000001    0.8261800000000000    0.9733600000000000 C
   0.0084700000000000    0.7506699999999999    0.9645033333333333 C
   0.5084800000000000    0.7506600000000000    0.9644999999999999 C
   0.4585500000000000    0.7644000000000000    0.9428666666666666 C
   0.9585500000000000    0.7644000000000000    0.9428799999999999 C
   0.0102900000000000    0.6599100000000000    0.9782933333333332 C
   0.5102900000000000    0.6599100000000000    0.9782933333333332 C
   0.4553800000000000    0.8511200000000000    0.9313199999999999 C
   0.9553800000000000    0.8511100000000000    0.9313199999999999 C
   0.2751600000000000    0.2086500000000000    0.8876400000000000 C
   0.7751600000000000    0.2086500000000000    0.8876400000000000 C
   0.2835100000000000    0.3302000000000000    0.9191866666666666 C
   0.7835100000000000    0.3302000000000000    0.9191666666666666 C
   0.3381000000000000    0.3640400000000000    0.9389700000000000 C
   0.8381000000000000    0.3640400000000000    0.9389700000000000 C
   0.2358100000000000    0.4130900000000000    0.9298566666666666 C
   0.7358100000000000    0.4130900000000000    0.9298566666666666 C
   0.2447300000000000    0.5256000000000000    0.9581833333333333 C
   0.7447400000000000    0.5256000000000000    0.9581833333333333 C
   0.3012000000000000    0.5537000000000000    0.9762666666666666 C
   0.8012000000000000    0.5537000000000000    0.9762666666666666 C
   0.2468700000000000    0.8277700000000000    0.9743033333333333 C
   0.7468700000000000    0.8277700000000000    0.9743033333333333 C
   0.1956600000000000    0.9201400000000000    0.9421100000000000 C
   0.6956599999999999    0.9201400000000000    0.9421100000000000 C
   0.2415200000000000    0.8935600000000000    0.9169233333333333 C
   0.7415200000000000    0.8935600000000000    0.9169233333333333 C
   0.2914300000000000    0.8286500000000000    0.9214800000000000 C
   0.7914400000000000    0.8286500000000000    0.9214800000000000 C
   0.2397000000000000    0.9349800000000000    0.8866733333333333 C
   0.7397100000000000    0.9349800000000000    0.8866733333333333 C
   0.2946100000000000    0.7939500000000000    0.9503866666666666 C
   0.7946100000000000    0.7939500000000000    0.9503866666666666 C
   0.0251400000000000    0.3370800000000000    0.9304466666666666 C
   0.5251500000000000    0.3370800000000000    0.9304466666666666 C
   0.0335000000000000    0.2424100000000000    0.8899266666666666 C
   0.5335000000000000    0.2424100000000000    0.8899266666666666 C
   0.0880900000000000    0.1830800000000000    0.8786499999999999 C
   0.5880900000000000    0.1830800000000000    0.8786499999999999 C
   0.4858000000000000    0.2103700000000000    0.8622966666666666 C
   0.9858000000000000    0.2103700000000000    0.8622966666666666 C
   0.4947400000000000    0.1254100000000000    0.8247833333333333 C
   0.9947400000000000    0.1254000000000000    0.8247833333333333 C
   0.0512100000000000    0.0711600000000000    0.8154133333333333 C
   0.5512100000000000    0.0711600000000000    0.8154133333333333 C
   0.4968900000000000    0.0771700000000000    0.7240700000000000 C
   0.9968900000000001    0.0771600000000000    0.7240700000000000 C
   0.4456600000000000    0.1738200000000000    0.6933100000000000 C
   0.9456700000000000    0.1738200000000000    0.6933100000000000 C
   0.4915300000000000    0.2493300000000000    0.7021666666666666 C
   0.9915300000000000    0.2493300000000000    0.7021666666666666 C
   0.0414500000000000    0.2355900000000000    0.7237866666666666 C
   0.5414600000000001    0.2355900000000000    0.7237899999999999 C
   0.4897100000000000    0.3400900000000000    0.6883666666666667 C
   0.9897200000000000    0.3400900000000000    0.6883666666666667 C
   0.0446300000000000    0.1488800000000000    0.7353466666666666 C
   0.5446299999999999    0.1488800000000000    0.7353466666666666 C
   0.2248500000000000    0.7913400000000000    0.7790300000000000 C
   0.7248500000000000    0.7913400000000000    0.7790300000000000 C
   0.2164900000000000    0.6697900000000000    0.7474833333333333 C
   0.7165000000000000    0.6697900000000000    0.7474833333333333 C
   0.1619100000000000    0.6359600000000000    0.7277000000000000 C
   0.6619100000000000    0.6359600000000000    0.7277000000000000 C
   0.2641900000000000    0.5869000000000000    0.7368133333333333 C
   0.7642000000000000    0.5869100000000000    0.7368133333333333 C
   0.2552700000000000    0.4744000000000000    0.7084833333333334 C
   0.7552700000000000    0.4744000000000000    0.7084666666666666 C
   0.1988000000000000    0.4462900000000000    0.6904033333333333 C
   0.6988000000000000    0.4462900000000000    0.6904033333333333 C
   0.2531300000000000    0.1722300000000000    0.6923666666666666 C
   0.7531300000000000    0.1722300000000000    0.6923666666666666 C
   0.3043400000000000    0.0798600000000000    0.7245600000000000 C
   0.8043500000000000    0.0798600000000000    0.7245600000000000 C
   0.2584800000000000    0.1064300000000000    0.7497466666666666 C
   0.7584900000000000    0.1064300000000000    0.7497466666666666 C
   0.2085700000000000    0.1713600000000000    0.7451900000000000 C
   0.7085700000000000    0.1713600000000000    0.7451900000000000 C
   0.2603000000000000    0.0650200000000000    0.7799966666666667 C
   0.7603000000000000    0.0650200000000000    0.7799966666666667 C