H4 C8 O4
1.0
  31.9602028506849010    0.0000000000000000   18.3430622782313222
  10.6218246817192323   30.1566689739136997   18.3576028072461348
   0.0000000000000000    0.0000000000000000   36.8680000000000021
H C O
4 8 4
direct
   0.9758599999999999    0.7160000000000000    0.4757100000000000 H
   0.9760300000000000    0.8321550000000000    0.4762100000000000 H
   0.0241500000000000    0.7840000000000000    0.5242800000000000 H
   0.0239850000000000    0.6678400000000000    0.5237500000000000 H
   0.9866300000000000    0.7305150000000000    0.4865350000000000 C
   0.9867300000000000    0.7961650000000000    0.4868200000000000 C
   0.9445150000000000    0.8055450000000000    0.4445200000000000 C
   0.9731799999999999    0.7768550000000001    0.4731900000000000 C
   0.0133800000000000    0.7694850000000000    0.5134550000000000 C
   0.0132800000000000    0.7038350000000000    0.5131700000000000 C
   0.0554950000000000    0.6944550000000000    0.5554700000000000 C
   0.0268350000000000    0.7231450000000000    0.5268000000000000 C
   0.9333850000000000    0.7857450000000000    0.4334250000000000 O
   0.9335599999999999    0.8474400000000000    0.4335100000000000 O
   0.0666300000000000    0.7142500000000001    0.5665500000000000 O
   0.0664500000000000    0.6525600000000000    0.5664500000000000 O
