H4 C8 O4
1.0
  35.1564704787903182    0.0000000000000000   12.1843279451082172
 -17.5523031563789473   31.2944726002562454   12.8252662576018466
   0.0000000000000000    0.0000000000000000   38.1180000000000021
H C O
4 8 4
direct
   0.5657449999999999    0.3783050000000000    0.6176450000000000 H
   0.5640150000000000    0.3785700000000000    0.5046800000000000 H
   0.5047350000000000    0.2598550000000000    0.6201150000000000 H
   0.5852750000000000    0.4185600000000000    0.5412100000000000 H
   0.5191750000000001    0.2919250000000000    0.6704700000000000 C
   0.5327000000000000    0.3166400000000000    0.6240150000000000 C
   0.5564200000000000    0.3614350000000000    0.6013200000000000 C
   0.5229650000000000    0.2921400000000000    0.5377350000000000 C
   0.5343750000000000    0.3167650000000000    0.5596850000000000 C
   0.5561800000000000    0.3615800000000000    0.5378350000000000 C
   0.5223700000000000    0.2946200000000000    0.6028200000000000 C
   0.5675600000000000    0.3837150000000000    0.5585400000000000 C
   0.4900700000000000    0.2528250000000000    0.6907099999999999 O
   0.5384550000000000    0.3121450000000000    0.6852600000000000 O
   0.5127450000000000    0.2529600000000000    0.5563100000000000 O
   0.5238750000000000    0.3124850000000000    0.5000000000000000 O
