Zn96 H380 C760 O380
1.0
  35.1564704787903182    0.0000000000000000   12.1843279451082172
 -17.5523031563789473   31.2944726002562454   12.8252662576018466
   0.0000000000000000    0.0000000000000000   38.1180000000000021
Zn H C O
96 380 760 380
direct
   0.2569600000000000    0.0346200000000000    0.2109800000000000 Zn
   0.4679700000000000    0.2110350000000000    0.2540250000000000 Zn
   0.4930250000000000    0.2109600000000000    0.0346000000000000 Zn
   0.2820700000000000    0.2539550000000000    0.2110550000000000 Zn
   0.0276500000000000    0.0347400000000000    0.2545950000000000 Zn
   0.2777400000000000    0.2454450000000000    0.4652250000000000 Zn
   0.2430250000000000    0.4653750000000000    0.2890250000000000 Zn
   0.0320200000000000    0.2889650000000000    0.2459750000000000 Zn
   0.0069650000000000    0.2890400000000000    0.4654050000000000 Zn
   0.2179150000000000    0.2460400000000000    0.2889500000000000 Zn
   0.4723400000000000    0.4652600000000000    0.2454050000000000 Zn
   0.2222500000000000    0.2545550000000000    0.0347750000000000 Zn
   0.7569600000000001    0.0346200000000000    0.2109800000000000 Zn
   0.9679700000000000    0.2110350000000000    0.2540250000000000 Zn
   0.9930250000000000    0.2109600000000000    0.0346000000000000 Zn
   0.7820700000000000    0.2539550000000000    0.2110550000000000 Zn
   0.5276500000000000    0.0347400000000000    0.2545950000000000 Zn
   0.7777400000000000    0.2454450000000000    0.4652250000000000 Zn
   0.7430250000000000    0.4653750000000000    0.2890250000000000 Zn
   0.5320200000000000    0.2889650000000000    0.2459750000000000 Zn
   0.5069650000000000    0.2890400000000000    0.4654050000000000 Zn
   0.7179150000000000    0.2460400000000000    0.2889500000000000 Zn
   0.9723400000000000    0.4652600000000000    0.2454050000000000 Zn
   0.7222500000000001    0.2545550000000000    0.0347750000000000 Zn
   0.2569600000000000    0.5346200000000000    0.2109800000000000 Zn
   0.4679700000000000    0.7110350000000000    0.2540250000000000 Zn
   0.4930250000000000    0.7109600000000000    0.0346000000000000 Zn
   0.2820700000000000    0.7539549999999999    0.2110550000000000 Zn
   0.0276500000000000    0.5347400000000000    0.2545950000000000 Zn
   0.2777400000000000    0.7454450000000000    0.4652250000000000 Zn
   0.2430250000000000    0.9653750000000000    0.2890250000000000 Zn
   0.0320200000000000    0.7889650000000000    0.2459750000000000 Zn
   0.0069650000000000    0.7890400000000000    0.4654050000000000 Zn
   0.2179150000000000    0.7460400000000000    0.2889500000000000 Zn
   0.4723400000000000    0.9652600000000000    0.2454050000000000 Zn
   0.2222500000000000    0.7545550000000000    0.0347750000000000 Zn
   0.7569600000000001    0.5346200000000000    0.2109800000000000 Zn
   0.9679700000000000    0.7110350000000000    0.2540250000000000 Zn
   0.9930250000000000    0.7109600000000000    0.0346000000000000 Zn
   0.7820700000000000    0.7539549999999999    0.2110550000000000 Zn
   0.5276500000000000    0.5347400000000000    0.2545950000000000 Zn
   0.7777400000000000    0.7454450000000000    0.4652250000000000 Zn
   0.7430250000000000    0.9653750000000000    0.2890250000000000 Zn
   0.5320200000000000    0.7889650000000000    0.2459750000000000 Zn
   0.5069650000000000    0.7890400000000000    0.4654050000000000 Zn
   0.7179150000000000    0.7460400000000000    0.2889500000000000 Zn
   0.9723400000000000    0.9652600000000000    0.2454050000000000 Zn
   0.7222500000000001    0.7545550000000000    0.0347750000000000 Zn
   0.2569600000000000    0.0346200000000000    0.7109799999999999 Zn
   0.4679700000000000    0.2110350000000000    0.7540249999999999 Zn
   0.4930250000000000    0.2109600000000000    0.5346000000000000 Zn
   0.2820700000000000    0.2539550000000000    0.7110550000000000 Zn
   0.0276500000000000    0.0347400000000000    0.7545950000000000 Zn
   0.2777400000000000    0.2454450000000000    0.9652250000000000 Zn
   0.2430250000000000    0.4653750000000000    0.7890250000000000 Zn
   0.0320200000000000    0.2889650000000000    0.7459750000000001 Zn
   0.0069650000000000    0.2890400000000000    0.9654050000000001 Zn
   0.2179150000000000    0.2460400000000000    0.7889500000000000 Zn
   0.4723400000000000    0.4652600000000000    0.7454050000000000 Zn
   0.2222500000000000    0.2545550000000000    0.5347750000000000 Zn
   0.7569600000000001    0.0346200000000000    0.7109799999999999 Zn
   0.9679700000000000    0.2110350000000000    0.7540249999999999 Zn
   0.9930250000000000    0.2109600000000000    0.5346000000000000 Zn
   0.7820700000000000    0.2539550000000000    0.7110550000000000 Zn
   0.5276500000000000    0.0347400000000000    0.7545950000000000 Zn
   0.7777400000000000    0.2454450000000000    0.9652250000000000 Zn
   0.7430250000000000    0.4653750000000000    0.7890250000000000 Zn
   0.5320200000000000    0.2889650000000000    0.7459750000000001 Zn
   0.5069650000000000    0.2890400000000000    0.9654050000000001 Zn
   0.7179150000000000    0.2460400000000000    0.7889500000000000 Zn
   0.9723400000000000    0.4652600000000000    0.7454050000000000 Zn
   0.7222500000000001    0.2545550000000000    0.5347750000000000 Zn
   0.2569600000000000    0.5346200000000000    0.7109799999999999 Zn
   0.4679700000000000    0.7110350000000000    0.7540249999999999 Zn
   0.4930250000000000    0.7109600000000000    0.5346000000000000 Zn
   0.2820700000000000    0.7539549999999999    0.7110550000000000 Zn
   0.0276500000000000    0.5347400000000000    0.7545950000000000 Zn
   0.2777400000000000    0.7454450000000000    0.9652250000000000 Zn
   0.2430250000000000    0.9653750000000000    0.7890250000000000 Zn
   0.0320200000000000    0.7889650000000000    0.7459750000000001 Zn
   0.0069650000000000    0.7890400000000000    0.9654050000000001 Zn
   0.2179150000000000    0.7460400000000000    0.7889500000000000 Zn
   0.4723400000000000    0.9652600000000000    0.7454050000000000 Zn
   0.2222500000000000    0.7545550000000000    0.5347750000000000 Zn
   0.7569600000000001    0.5346200000000000    0.7109799999999999 Zn
   0.9679700000000000    0.7110350000000000    0.7540249999999999 Zn
   0.9930250000000000    0.7109600000000000    0.5346000000000000 Zn
   0.7820700000000000    0.7539549999999999    0.7110550000000000 Zn
   0.5276500000000000    0.5347400000000000    0.7545950000000000 Zn
   0.7777400000000000    0.7454450000000000    0.9652250000000000 Zn
   0.7430250000000000    0.9653750000000000    0.7890250000000000 Zn
   0.5320200000000000    0.7889650000000000    0.7459750000000001 Zn
   0.5069650000000000    0.7890400000000000    0.9654050000000001 Zn
   0.7179150000000000    0.7460400000000000    0.7889500000000000 Zn
   0.9723400000000000    0.9652600000000000    0.7454050000000000 Zn
   0.7222500000000001    0.7545550000000000    0.5347750000000000 Zn
   0.2514750000000000    0.1890100000000000    0.1357600000000000 H
   0.1820700000000000    0.1173250000000000    0.0042600000000000 H
   0.3876700000000000    0.1357300000000000    0.1751250000000000 H
   0.1858700000000000    0.0046900000000000    0.3787500000000000 H
   0.0630400000000000    0.1750100000000000    0.1884300000000000 H
   0.0657450000000000    0.3783050000000000    0.1176450000000000 H
   0.3621500000000000    0.1751800000000000    0.1358350000000000 H
   0.0640150000000000    0.3785700000000000    0.0046800000000000 H
   0.1873200000000000    0.1884350000000000    0.1750500000000000 H
   0.1842650000000000    0.1177700000000000    0.3784500000000000 H
   0.4982450000000000    0.1357400000000000    0.1891500000000000 H
   0.0681300000000000    0.0045450000000000    0.1169500000000000 H
   0.2485150000000000    0.3109850000000000    0.3642400000000000 H
   0.3179200000000000    0.3826750000000000    0.4957400000000000 H
   0.1123200000000000    0.3642700000000000    0.3248800000000000 H
   0.3141150000000000    0.4953050000000000    0.1212200000000000 H
   0.4369500000000000    0.3249900000000000    0.3115700000000000 H
   0.4342450000000000    0.1217000000000000    0.3823550000000000 H
   0.1378400000000000    0.3248200000000000    0.3641500000000000 H
   0.4359750000000000    0.1214300000000000    0.4953200000000000 H
   0.3126700000000000    0.3115650000000000    0.3249100000000000 H
   0.3157200000000000    0.3822300000000000    0.1215550000000000 H
   0.0017450000000000    0.3642600000000000    0.3108500000000000 H
   0.4318600000000000    0.4954550000000000    0.3830300000000000 H
   0.3665650000000000    0.2416250000000000    0.0171450000000000 H
   0.2866500000000000    0.1620400000000000    0.1758000000000000 H
   0.3834250000000000    0.0171450000000000    0.2416800000000000 H
   0.4630400000000000    0.1757500000000000    0.1620700000000000 H
   0.1249600000000000    0.2412750000000000    0.2413000000000000 H
   0.1252650000000000    0.1616500000000000    0.1616500000000000 H
   0.1334250000000000    0.2583750000000000    0.4828550000000000 H
   0.2133400000000000    0.3379550000000000    0.3241650000000000 H
   0.1165650000000000    0.4828550000000000    0.2583250000000000 H
   0.0369500000000000    0.3242500000000000    0.3379300000000000 H
   0.3750300000000000    0.2587250000000000    0.2586700000000000 H
   0.3747200000000000    0.3383500000000000    0.3383500000000000 H
   0.1249800000000000    0.1203250000000000    0.1203400000000000 H
   0.1251250000000000    0.0408450000000000    0.0404000000000000 H
   0.2452100000000000    0.1200500000000000    0.2599700000000000 H
   0.1646950000000000    0.0413300000000000    0.4187500000000000 H
   0.0047350000000000    0.2598550000000000    0.1201150000000000 H
   0.0852750000000000    0.4185600000000000    0.0412100000000000 H
   0.3750050000000000    0.3796700000000000    0.3796600000000000 H
   0.3748650000000000    0.4591550000000000    0.4596050000000000 H
   0.2547750000000000    0.3799500000000000    0.2400350000000000 H
   0.3352950000000000    0.4586700000000000    0.0810000000000000 H
   0.4952600000000000    0.2401450000000000    0.3798850000000000 H
   0.4147150000000000    0.0814450000000000    0.4587900000000000 H
   0.7514750000000000    0.1890100000000000    0.1357600000000000 H
   0.6820700000000000    0.1173250000000000    0.0042600000000000 H
   0.8876700000000000    0.1357300000000000    0.1751250000000000 H
   0.6858700000000000    0.0046900000000000    0.3787500000000000 H
   0.5630400000000000    0.1750100000000000    0.1884300000000000 H
   0.5657449999999999    0.3783050000000000    0.1176450000000000 H
   0.8621500000000000    0.1751800000000000    0.1358350000000000 H
   0.5640150000000000    0.3785700000000000    0.0046800000000000 H
   0.6873199999999999    0.1884350000000000    0.1750500000000000 H
   0.6842650000000000    0.1177700000000000    0.3784500000000000 H
   0.9982450000000000    0.1357400000000000    0.1891500000000000 H
   0.5681300000000000    0.0045450000000000    0.1169500000000000 H
   0.7485150000000000    0.3109850000000000    0.3642400000000000 H
   0.8179200000000000    0.3826750000000000    0.4957400000000000 H
   0.6123200000000000    0.3642700000000000    0.3248800000000000 H
   0.8141149999999999    0.4953050000000000    0.1212200000000000 H
   0.9369499999999999    0.3249900000000000    0.3115700000000000 H
   0.9342450000000000    0.1217000000000000    0.3823550000000000 H
   0.6378400000000000    0.3248200000000000    0.3641500000000000 H
   0.9359750000000000    0.1214300000000000    0.4953200000000000 H
   0.8126700000000000    0.3115650000000000    0.3249100000000000 H
   0.8157200000000000    0.3822300000000000    0.1215550000000000 H
   0.5017450000000000    0.3642600000000000    0.3108500000000000 H
   0.9318600000000000    0.4954550000000000    0.3830300000000000 H
   0.8665650000000000    0.2416250000000000    0.0171450000000000 H
   0.7866500000000001    0.1620400000000000    0.1758000000000000 H
   0.8834250000000000    0.0171450000000000    0.2416800000000000 H
   0.9630400000000000    0.1757500000000000    0.1620700000000000 H
   0.6249600000000000    0.2412750000000000    0.2413000000000000 H
   0.6252650000000000    0.1616500000000000    0.1616500000000000 H
   0.6334250000000000    0.2583750000000000    0.4828550000000000 H
   0.7133400000000000    0.3379550000000000    0.3241650000000000 H
   0.6165650000000000    0.4828550000000000    0.2583250000000000 H
   0.5369500000000000    0.3242500000000000    0.3379300000000000 H
   0.8750300000000000    0.2587250000000000    0.2586700000000000 H
   0.8747199999999999    0.3383500000000000    0.3383500000000000 H
   0.6249800000000000    0.1203250000000000    0.1203400000000000 H
   0.6251249999999999    0.0408450000000000    0.0404000000000000 H
   0.7452100000000000    0.1200500000000000    0.2599700000000000 H
   0.6646950000000000    0.0413300000000000    0.4187500000000000 H
   0.5047350000000000    0.2598550000000000    0.1201150000000000 H
   0.5852750000000000    0.4185600000000000    0.0412100000000000 H
   0.8750050000000000    0.3796700000000000    0.3796600000000000 H
   0.8748650000000000    0.4591550000000000    0.4596050000000000 H
   0.7547750000000000    0.3799500000000000    0.2400350000000000 H
   0.8352950000000000    0.4586700000000000    0.0810000000000000 H
   0.9952600000000000    0.2401450000000000    0.3798850000000000 H
   0.9147149999999999    0.0814450000000000    0.4587900000000000 H
   0.2514750000000000    0.6890100000000000    0.1357600000000000 H
   0.1820700000000000    0.6173250000000000    0.0042600000000000 H
   0.3876700000000000    0.6357300000000000    0.1751250000000000 H
   0.1858700000000000    0.5046900000000000    0.3787500000000000 H
   0.0630400000000000    0.6750100000000000    0.1884300000000000 H
   0.0657450000000000    0.8783050000000000    0.1176450000000000 H
   0.3621500000000000    0.6751800000000000    0.1358350000000000 H
   0.0640150000000000    0.8785700000000001    0.0046800000000000 H
   0.1873200000000000    0.6884350000000000    0.1750500000000000 H
   0.1842650000000000    0.6177700000000000    0.3784500000000000 H
   0.4982450000000000    0.6357400000000000    0.1891500000000000 H
   0.0681300000000000    0.5045450000000000    0.1169500000000000 H
   0.2485150000000000    0.8109850000000001    0.3642400000000000 H
   0.3179200000000000    0.8826750000000000    0.4957400000000000 H
   0.1123200000000000    0.8642700000000000    0.3248800000000000 H
   0.3141150000000000    0.9953050000000000    0.1212200000000000 H
   0.4369500000000000    0.8249900000000000    0.3115700000000000 H
   0.4342450000000000    0.6217000000000000    0.3823550000000000 H
   0.1378400000000000    0.8248200000000000    0.3641500000000000 H
   0.4359750000000000    0.6214300000000000    0.4953200000000000 H
   0.3126700000000000    0.8115650000000000    0.3249100000000000 H
   0.3157200000000000    0.8822300000000001    0.1215550000000000 H
   0.0017450000000000    0.8642600000000000    0.3108500000000000 H
   0.4318600000000000    0.9954550000000000    0.3830300000000000 H
   0.3665650000000000    0.7416250000000000    0.0171450000000000 H
   0.2866500000000000    0.6620400000000000    0.1758000000000000 H
   0.3834250000000000    0.5171450000000000    0.2416800000000000 H
   0.4630400000000000    0.6757500000000000    0.1620700000000000 H
   0.1249600000000000    0.7412750000000000    0.2413000000000000 H
   0.1252650000000000    0.6616500000000000    0.1616500000000000 H
   0.1334250000000000    0.7583750000000000    0.4828550000000000 H
   0.2133400000000000    0.8379550000000000    0.3241650000000000 H
   0.1165650000000000    0.9828550000000000    0.2583250000000000 H
   0.0369500000000000    0.8242499999999999    0.3379300000000000 H
   0.3750300000000000    0.7587250000000000    0.2586700000000000 H
   0.3747200000000000    0.8383499999999999    0.3383500000000000 H
   0.1249800000000000    0.6203250000000000    0.1203400000000000 H
   0.1251250000000000    0.5408450000000000    0.0404000000000000 H
   0.2452100000000000    0.6200500000000000    0.2599700000000000 H
   0.1646950000000000    0.5413300000000000    0.4187500000000000 H
   0.0047350000000000    0.7598549999999999    0.1201150000000000 H
   0.0852750000000000    0.9185600000000000    0.0412100000000000 H
   0.3750050000000000    0.8796700000000000    0.3796600000000000 H
   0.3748650000000000    0.9591550000000000    0.4596050000000000 H
   0.2547750000000000    0.8799500000000000    0.2400350000000000 H
   0.3352950000000000    0.9586700000000000    0.0810000000000000 H
   0.4952600000000000    0.7401450000000001    0.3798850000000000 H
   0.4147150000000000    0.5814450000000000    0.4587900000000000 H
   0.7514750000000000    0.6890100000000000    0.1357600000000000 H
   0.6820700000000000    0.6173250000000000    0.0042600000000000 H
   0.8876700000000000    0.6357300000000000    0.1751250000000000 H
   0.6858700000000000    0.5046900000000000    0.3787500000000000 H
   0.5630400000000000    0.6750100000000000    0.1884300000000000 H
   0.5657449999999999    0.8783050000000000    0.1176450000000000 H
   0.8621500000000000    0.6751800000000000    0.1358350000000000 H
   0.5640150000000000    0.8785700000000001    0.0046800000000000 H
   0.6873199999999999    0.6884350000000000    0.1750500000000000 H
   0.6842650000000000    0.6177700000000000    0.3784500000000000 H
   0.9982450000000000    0.6357400000000000    0.1891500000000000 H
   0.5681300000000000    0.5045450000000000    0.1169500000000000 H
   0.7485150000000000    0.8109850000000001    0.3642400000000000 H
   0.8179200000000000    0.8826750000000000    0.4957400000000000 H
   0.6123200000000000    0.8642700000000000    0.3248800000000000 H
   0.8141149999999999    0.9953050000000000    0.1212200000000000 H
   0.9369499999999999    0.8249900000000000    0.3115700000000000 H
   0.9342450000000000    0.6217000000000000    0.3823550000000000 H
   0.6378400000000000    0.8248200000000000    0.3641500000000000 H
   0.9359750000000000    0.6214300000000000    0.4953200000000000 H
   0.8126700000000000    0.8115650000000000    0.3249100000000000 H
   0.8157200000000000    0.8822300000000001    0.1215550000000000 H
   0.5017450000000000    0.8642600000000000    0.3108500000000000 H
   0.9318600000000000    0.9954550000000000    0.3830300000000000 H
   0.8665650000000000    0.7416250000000000    0.0171450000000000 H
   0.7866500000000001    0.6620400000000000    0.1758000000000000 H
   0.8834250000000000    0.5171450000000000    0.2416800000000000 H
   0.9630400000000000    0.6757500000000000    0.1620700000000000 H
   0.6249600000000000    0.7412750000000000    0.2413000000000000 H
   0.6252650000000000    0.6616500000000000    0.1616500000000000 H
   0.6334250000000000    0.7583750000000000    0.4828550000000000 H
   0.7133400000000000    0.8379550000000000    0.3241650000000000 H
   0.6165650000000000    0.9828550000000000    0.2583250000000000 H
   0.5369500000000000    0.8242499999999999    0.3379300000000000 H
   0.8750300000000000    0.7587250000000000    0.2586700000000000 H
   0.8747199999999999    0.8383499999999999    0.3383500000000000 H
   0.6249800000000000    0.6203250000000000    0.1203400000000000 H
   0.6251249999999999    0.5408450000000000    0.0404000000000000 H
   0.7452100000000000    0.6200500000000000    0.2599700000000000 H
   0.6646950000000000    0.5413300000000000    0.4187500000000000 H
   0.5047350000000000    0.7598549999999999    0.1201150000000000 H
   0.5852750000000000    0.9185600000000000    0.0412100000000000 H
   0.8750050000000000    0.8796700000000000    0.3796600000000000 H
   0.8748650000000000    0.9591550000000000    0.4596050000000000 H
   0.7547750000000000    0.8799500000000000    0.2400350000000000 H
   0.8352950000000000    0.9586700000000000    0.0810000000000000 H
   0.9952600000000000    0.7401450000000001    0.3798850000000000 H
   0.9147149999999999    0.5814450000000000    0.4587900000000000 H
   0.2514750000000000    0.1890100000000000    0.6357600000000000 H
   0.1820700000000000    0.1173250000000000    0.5042600000000000 H
   0.3876700000000000    0.1357300000000000    0.6751250000000000 H
   0.1858700000000000    0.0046900000000000    0.8787499999999999 H
   0.0630400000000000    0.1750100000000000    0.6884300000000000 H
   0.0657450000000000    0.3783050000000000    0.6176450000000000 H
   0.3621500000000000    0.1751800000000000    0.6358350000000000 H
   0.0640150000000000    0.3785700000000000    0.5046800000000000 H
   0.1873200000000000    0.1884350000000000    0.6750500000000000 H
   0.1842650000000000    0.1177700000000000    0.8784500000000000 H
   0.4982450000000000    0.1357400000000000    0.6891500000000000 H
   0.0681300000000000    0.0045450000000000    0.6169500000000000 H
   0.2485150000000000    0.3109850000000000    0.8642400000000000 H
   0.3179200000000000    0.3826750000000000    0.9957400000000001 H
   0.1123200000000000    0.3642700000000000    0.8248800000000001 H
   0.3141150000000000    0.4953050000000000    0.6212200000000000 H
   0.4369500000000000    0.3249900000000000    0.8115700000000000 H
   0.4342450000000000    0.1217000000000000    0.8823550000000000 H
   0.1378400000000000    0.3248200000000000    0.8641500000000000 H
   0.4359750000000000    0.1214300000000000    0.9953200000000000 H
   0.3126700000000000    0.3115650000000000    0.8249100000000000 H
   0.3157200000000000    0.3822300000000000    0.6215550000000000 H
   0.0017450000000000    0.3642600000000000    0.8108500000000001 H
   0.4318600000000000    0.4954550000000000    0.8830300000000000 H
   0.3665650000000000    0.2416250000000000    0.5171450000000000 H
   0.2866500000000000    0.1620400000000000    0.6758000000000000 H
   0.3834250000000000    0.0171450000000000    0.7416800000000000 H
   0.4630400000000000    0.1757500000000000    0.6620699999999999 H
   0.1249600000000000    0.2412750000000000    0.7413000000000000 H
   0.1252650000000000    0.1616500000000000    0.6616500000000000 H
   0.1334250000000000    0.2583750000000000    0.9828550000000000 H
   0.2133400000000000    0.3379550000000000    0.8241650000000000 H
   0.1165650000000000    0.4828550000000000    0.7583250000000000 H
   0.0369500000000000    0.3242500000000000    0.8379300000000001 H
   0.3750300000000000    0.2587250000000000    0.7586700000000000 H
   0.3747200000000000    0.3383500000000000    0.8383499999999999 H
   0.1249800000000000    0.1203250000000000    0.6203400000000000 H
   0.1251250000000000    0.0408450000000000    0.5404000000000000 H
   0.2452100000000000    0.1200500000000000    0.7599700000000000 H
   0.1646950000000000    0.0413300000000000    0.9187500000000000 H
   0.0047350000000000    0.2598550000000000    0.6201150000000000 H
   0.0852750000000000    0.4185600000000000    0.5412100000000000 H
   0.3750050000000000    0.3796700000000000    0.8796600000000000 H
   0.3748650000000000    0.4591550000000000    0.9596050000000000 H
   0.2547750000000000    0.3799500000000000    0.7400350000000000 H
   0.3352950000000000    0.4586700000000000    0.5810000000000000 H
   0.4952600000000000    0.2401450000000000    0.8798850000000000 H
   0.4147150000000000    0.0814450000000000    0.9587900000000000 H
   0.7514750000000000    0.1890100000000000    0.6357600000000000 H
   0.6820700000000000    0.1173250000000000    0.5042600000000000 H
   0.8876700000000000    0.1357300000000000    0.6751250000000000 H
   0.6858700000000000    0.0046900000000000    0.8787499999999999 H
   0.5630400000000000    0.1750100000000000    0.6884300000000000 H
   0.8621500000000000    0.1751800000000000    0.6358350000000000 H
   0.6873199999999999    0.1884350000000000    0.6750500000000000 H
   0.6842650000000000    0.1177700000000000    0.8784500000000000 H
   0.9982450000000000    0.1357400000000000    0.6891500000000000 H
   0.5681300000000000    0.0045450000000000    0.6169500000000000 H
   0.7485150000000000    0.3109850000000000    0.8642400000000000 H
   0.8179200000000000    0.3826750000000000    0.9957400000000001 H
   0.6123200000000000    0.3642700000000000    0.8248800000000001 H
   0.8141149999999999    0.4953050000000000    0.6212200000000000 H
   0.9369499999999999    0.3249900000000000    0.8115700000000000 H
   0.9342450000000000    0.1217000000000000    0.8823550000000000 H
   0.6378400000000000    0.3248200000000000    0.8641500000000000 H
   0.9359750000000000    0.1214300000000000    0.9953200000000000 H
   0.8126700000000000    0.3115650000000000    0.8249100000000000 H
   0.8157200000000000    0.3822300000000000    0.6215550000000000 H
   0.5017450000000000    0.3642600000000000    0.8108500000000001 H
   0.9318600000000000    0.4954550000000000    0.8830300000000000 H
   0.8665650000000000    0.2416250000000000    0.5171450000000000 H
   0.7866500000000001    0.1620400000000000    0.6758000000000000 H
   0.8834250000000000    0.0171450000000000    0.7416800000000000 H
   0.9630400000000000    0.1757500000000000    0.6620699999999999 H
   0.6249600000000000    0.2412750000000000    0.7413000000000000 H
   0.6252650000000000    0.1616500000000000    0.6616500000000000 H
   0.6334250000000000    0.2583750000000000    0.9828550000000000 H
   0.7133400000000000    0.3379550000000000    0.8241650000000000 H
   0.6165650000000000    0.4828550000000000    0.7583250000000000 H
   0.5369500000000000    0.3242500000000000    0.8379300000000001 H
   0.8750300000000000    0.2587250000000000    0.7586700000000000 H
   0.8747199999999999    0.3383500000000000    0.8383499999999999 H
   0.6249800000000000    0.1203250000000000    0.6203400000000000 H
   0.6251249999999999    0.0408450000000000    0.5404000000000000 H
   0.7452100000000000    0.1200500000000000    0.7599700000000000 H
   0.6646950000000000    0.0413300000000000    0.9187500000000000 H
   0.8750050000000000    0.3796700000000000    0.8796600000000000 H
   0.8748650000000000    0.4591550000000000    0.9596050000000000 H
   0.7547750000000000    0.3799500000000000    0.7400350000000000 H
   0.8352950000000000    0.4586700000000000    0.5810000000000000 H
   0.9952600000000000    0.2401450000000000    0.8798850000000000 H
   0.9147149999999999    0.0814450000000000    0.9587900000000000 H
   0.2514750000000000    0.6890100000000000    0.6357600000000000 H
   0.1820700000000000    0.6173250000000000    0.5042600000000000 H
   0.3876700000000000    0.6357300000000000    0.6751250000000000 H
   0.1858700000000000    0.5046900000000000    0.8787499999999999 H
   0.0630400000000000    0.6750100000000000    0.6884300000000000 H
   0.0657450000000000    0.8783050000000000    0.6176450000000000 H
   0.3621500000000000    0.6751800000000000    0.6358350000000000 H
   0.0640150000000000    0.8785700000000001    0.5046800000000000 H
   0.1873200000000000    0.6884350000000000    0.6750500000000000 H
   0.1842650000000000    0.6177700000000000    0.8784500000000000 H
   0.4982450000000000    0.6357400000000000    0.6891500000000000 H
   0.0681300000000000    0.5045450000000000    0.6169500000000000 H
   0.2485150000000000    0.8109850000000001    0.8642400000000000 H
   0.3179200000000000    0.8826750000000000    0.9957400000000001 H
   0.1123200000000000    0.8642700000000000    0.8248800000000001 H
   0.3141150000000000    0.9953050000000000    0.6212200000000000 H
   0.4369500000000000    0.8249900000000000    0.8115700000000000 H
   0.4342450000000000    0.6217000000000000    0.8823550000000000 H
   0.1378400000000000    0.8248200000000000    0.8641500000000000 H
   0.4359750000000000    0.6214300000000000    0.9953200000000000 H
   0.3126700000000000    0.8115650000000000    0.8249100000000000 H
   0.3157200000000000    0.8822300000000001    0.6215550000000000 H
   0.0017450000000000    0.8642600000000000    0.8108500000000001 H
   0.4318600000000000    0.9954550000000000    0.8830300000000000 H
   0.3665650000000000    0.7416250000000000    0.5171450000000000 H
   0.2866500000000000    0.6620400000000000    0.6758000000000000 H
   0.3834250000000000    0.5171450000000000    0.7416800000000000 H
   0.4630400000000000    0.6757500000000000    0.6620699999999999 H
   0.1249600000000000    0.7412750000000000    0.7413000000000000 H
   0.1252650000000000    0.6616500000000000    0.6616500000000000 H
   0.1334250000000000    0.7583750000000000    0.9828550000000000 H
   0.2133400000000000    0.8379550000000000    0.8241650000000000 H
   0.1165650000000000    0.9828550000000000    0.7583250000000000 H
   0.0369500000000000    0.8242499999999999    0.8379300000000001 H
   0.3750300000000000    0.7587250000000000    0.7586700000000000 H
   0.3747200000000000    0.8383499999999999    0.8383499999999999 H
   0.1249800000000000    0.6203250000000000    0.6203400000000000 H
   0.1251250000000000    0.5408450000000000    0.5404000000000000 H
   0.2452100000000000    0.6200500000000000    0.7599700000000000 H
   0.1646950000000000    0.5413300000000000    0.9187500000000000 H
   0.0047350000000000    0.7598549999999999    0.6201150000000000 H
   0.0852750000000000    0.9185600000000000    0.5412100000000000 H
   0.3750050000000000    0.8796700000000000    0.8796600000000000 H
   0.3748650000000000    0.9591550000000000    0.9596050000000000 H
   0.2547750000000000    0.8799500000000000    0.7400350000000000 H
   0.3352950000000000    0.9586700000000000    0.5810000000000000 H
   0.4952600000000000    0.7401450000000001    0.8798850000000000 H
   0.4147150000000000    0.5814450000000000    0.9587900000000000 H
   0.7514750000000000    0.6890100000000000    0.6357600000000000 H
   0.6820700000000000    0.6173250000000000    0.5042600000000000 H
   0.8876700000000000    0.6357300000000000    0.6751250000000000 H
   0.6858700000000000    0.5046900000000000    0.8787499999999999 H
   0.5630400000000000    0.6750100000000000    0.6884300000000000 H
   0.5657449999999999    0.8783050000000000    0.6176450000000000 H
   0.8621500000000000    0.6751800000000000    0.6358350000000000 H
   0.5640150000000000    0.8785700000000001    0.5046800000000000 H