Zn48 H372 C651 N31 O186
1.0
  28.9322719673924524    0.0000000000000000   -6.5116798757952434
 -14.7013371044941739   24.8928063992024668   -6.5018690321974111
   0.0000000000000000    0.0000000000000000   33.5499999999999972
Zn H C N O
48 372 651 31 186
direct
   0.0373150000000000    0.2367050000000000    0.2891000000000000 Zn
   0.2370450000000000    0.0375450000000000    0.0393950000000000 Zn
   0.4626850000000000    0.2633050000000000    0.2108900000000000 Zn
   0.1644450000000000    0.3353650000000000    0.3749000000000000 Zn
   0.3355550000000000    0.1646450000000000    0.1250550000000000 Zn
   0.2629500000000000    0.4624650000000000    0.4605950000000000 Zn
   0.5373150000000000    0.2367050000000000    0.2891000000000000 Zn
   0.7370450000000000    0.0375450000000000    0.0393950000000000 Zn
   0.9626850000000000    0.2633050000000000    0.2108900000000000 Zn
   0.6644450000000000    0.3353650000000000    0.3749000000000000 Zn
   0.8355550000000000    0.1646450000000000    0.1250550000000000 Zn
   0.7629500000000000    0.4624650000000000    0.4605950000000000 Zn
   0.0373150000000000    0.7367049999999999    0.2891000000000000 Zn
   0.2370450000000000    0.5375450000000001    0.0393950000000000 Zn
   0.4626850000000000    0.7633050000000000    0.2108900000000000 Zn
   0.1644450000000000    0.8353650000000000    0.3749000000000000 Zn
   0.3355550000000000    0.6646450000000000    0.1250550000000000 Zn
   0.2629500000000000    0.9624650000000000    0.4605950000000000 Zn
   0.5373150000000000    0.7367049999999999    0.2891000000000000 Zn
   0.7370450000000000    0.5375450000000001    0.0393950000000000 Zn
   0.9626850000000000    0.7633050000000000    0.2108900000000000 Zn
   0.6644450000000000    0.8353650000000000    0.3749000000000000 Zn
   0.8355550000000000    0.6646450000000000    0.1250550000000000 Zn
   0.7629500000000000    0.9624650000000000    0.4605950000000000 Zn
   0.0373150000000000    0.2367050000000000    0.7891000000000000 Zn
   0.2370450000000000    0.0375450000000000    0.5393950000000000 Zn
   0.4626850000000000    0.2633050000000000    0.7108900000000000 Zn
   0.1644450000000000    0.3353650000000000    0.8749000000000000 Zn
   0.3355550000000000    0.1646450000000000    0.6250550000000000 Zn
   0.2629500000000000    0.4624650000000000    0.9605950000000000 Zn
   0.5373150000000000    0.2367050000000000    0.7891000000000000 Zn
   0.7370450000000000    0.0375450000000000    0.5393950000000000 Zn
   0.9626850000000000    0.2633050000000000    0.7108900000000000 Zn
   0.6644450000000000    0.3353650000000000    0.8749000000000000 Zn
   0.8355550000000000    0.1646450000000000    0.6250550000000000 Zn
   0.7629500000000000    0.4624650000000000    0.9605950000000000 Zn
   0.0373150000000000    0.7367049999999999    0.7891000000000000 Zn
   0.2370450000000000    0.5375450000000001    0.5393950000000000 Zn
   0.4626850000000000    0.7633050000000000    0.7108900000000000 Zn
   0.1644450000000000    0.8353650000000000    0.8749000000000000 Zn
   0.3355550000000000    0.6646450000000000    0.6250550000000000 Zn
   0.2629500000000000    0.9624650000000000    0.9605950000000000 Zn
   0.5373150000000000    0.7367049999999999    0.7891000000000000 Zn
   0.7370450000000000    0.5375450000000001    0.5393950000000000 Zn
   0.9626850000000000    0.7633050000000000    0.7108900000000000 Zn
   0.6644450000000000    0.8353650000000000    0.8749000000000000 Zn
   0.8355550000000000    0.6646450000000000    0.6250550000000000 Zn
   0.7629500000000000    0.9624650000000000    0.9605950000000000 Zn
   0.2386650000000000    0.2689150000000000    0.4170700000000000 H
   0.2893950000000000    0.2212350000000000    0.4218800000000000 H
   0.4372000000000000    0.3712350000000000    0.4618150000000000 H
   0.3855000000000000    0.4186050000000000    0.4569100000000000 H
   0.0668350000000000    0.3016300000000000    0.4579850000000000 H
   0.4932300000000000    0.2836050000000000    0.4878400000000000 H
   0.3945650000000000    0.2785450000000000    0.3696950000000000 H
   0.4678100000000000    0.2955100000000000    0.3397300000000000 H
   0.3061950000000000    0.1670750000000000    0.0201350000000000 H
   0.3490000000000000    0.2514800000000000    0.0055050000000000 H
   0.4019500000000000    0.1780700000000000    0.4149450000000000 H
   0.3616450000000000    0.0947900000000000    0.4320250000000000 H
   0.2308000000000000    0.2613400000000000    0.3325400000000000 H
   0.2786350000000000    0.2107650000000000    0.3278500000000000 H
   0.1289450000000000    0.0626550000000000    0.2879700000000000 H
   0.0814100000000000    0.1142050000000000    0.2927350000000000 H
   0.1982800000000000    0.4330750000000000    0.2918950000000000 H
   0.2164250000000000    0.0067750000000000    0.2620500000000000 H
   0.2217750000000000    0.1056500000000000    0.3802700000000000 H
   0.2046450000000000    0.0322900000000000    0.4102100000000000 H
   0.3331900000000000    0.1940800000000000    0.2299400000000000 H
   0.2487950000000000    0.1512750000000000    0.2444900000000000 H
   0.3219150000000000    0.0980550000000000    0.3350100000000000 H
   0.4051550000000000    0.1382850000000000    0.3179500000000000 H
   0.2613350000000000    0.2311000000000000    0.0829250000000000 H
   0.2106050000000000    0.2787750000000000    0.0781150000000000 H
   0.0628000000000000    0.1287750000000000    0.0381800000000000 H
   0.1144950000000000    0.0814050000000000    0.0430800000000000 H
   0.4331650000000000    0.1983800000000000    0.0420050000000000 H
   0.0067650000000000    0.2164050000000000    0.0121550000000000 H
   0.1054350000000000    0.2214650000000000    0.1303000000000000 H
   0.0321900000000000    0.2045000000000000    0.1602650000000000 H
   0.1938050000000000    0.3329350000000000    0.4798600000000000 H
   0.1510000000000000    0.2485300000000000    0.4944900000000000 H
   0.0980500000000000    0.3219400000000000    0.0850500000000000 H
   0.1383550000000000    0.4052250000000000    0.0679700000000000 H
   0.2692000000000000    0.2386700000000000    0.1674550000000000 H
   0.2213600000000000    0.2892500000000000    0.1721400000000000 H
   0.3710500000000000    0.4373550000000000    0.2120250000000000 H
   0.4185900000000000    0.3858100000000000    0.2072550000000000 H
   0.3017200000000000    0.0669350000000000    0.2081000000000000 H
   0.2835750000000000    0.4932350000000000    0.2379300000000000 H
   0.2782250000000000    0.3943600000000000    0.1197250000000000 H
   0.2953550000000000    0.4677200000000000    0.0897850000000000 H
   0.1668100000000000    0.3059300000000000    0.2700500000000000 H
   0.2512050000000000    0.3487350000000000    0.2555000000000000 H
   0.1780850000000000    0.4019600000000000    0.1649800000000000 H
   0.0948450000000000    0.3617250000000000    0.1820400000000000 H
   0.7386650000000000    0.2689150000000000    0.4170700000000000 H
   0.7893950000000001    0.2212350000000000    0.4218800000000000 H
   0.9372000000000000    0.3712350000000000    0.4618150000000000 H
   0.8855000000000000    0.4186050000000000    0.4569100000000000 H
   0.5668350000000000    0.3016300000000000    0.4579850000000000 H
   0.9932300000000001    0.2836050000000000    0.4878400000000000 H
   0.8945650000000001    0.2785450000000000    0.3696950000000000 H
   0.9678100000000001    0.2955100000000000    0.3397300000000000 H
   0.8061950000000000    0.1670750000000000    0.0201350000000000 H
   0.8490000000000000    0.2514800000000000    0.0055050000000000 H
   0.9019500000000000    0.1780700000000000    0.4149450000000000 H
   0.8616450000000000    0.0947900000000000    0.4320250000000000 H
   0.7308000000000000    0.2613400000000000    0.3325400000000000 H
   0.7786350000000000    0.2107650000000000    0.3278500000000000 H
   0.6289450000000000    0.0626550000000000    0.2879700000000000 H
   0.5814100000000000    0.1142050000000000    0.2927350000000000 H
   0.6982800000000000    0.4330750000000000    0.2918950000000000 H
   0.7164250000000000    0.0067750000000000    0.2620500000000000 H
   0.7217750000000001    0.1056500000000000    0.3802700000000000 H
   0.7046450000000000    0.0322900000000000    0.4102100000000000 H
   0.8331900000000000    0.1940800000000000    0.2299400000000000 H
   0.7487950000000000    0.1512750000000000    0.2444900000000000 H
   0.8219150000000000    0.0980550000000000    0.3350100000000000 H
   0.9051549999999999    0.1382850000000000    0.3179500000000000 H
   0.7613350000000000    0.2311000000000000    0.0829250000000000 H
   0.7106049999999999    0.2787750000000000    0.0781150000000000 H
   0.5628000000000000    0.1287750000000000    0.0381800000000000 H
   0.6144950000000000    0.0814050000000000    0.0430800000000000 H
   0.9331650000000000    0.1983800000000000    0.0420050000000000 H
   0.5067650000000000    0.2164050000000000    0.0121550000000000 H
   0.6054349999999999    0.2214650000000000    0.1303000000000000 H
   0.5321900000000001    0.2045000000000000    0.1602650000000000 H
   0.6938050000000000    0.3329350000000000    0.4798600000000000 H
   0.6510000000000000    0.2485300000000000    0.4944900000000000 H
   0.5980500000000000    0.3219400000000000    0.0850500000000000 H
   0.6383550000000000    0.4052250000000000    0.0679700000000000 H
   0.7692000000000000    0.2386700000000000    0.1674550000000000 H
   0.7213600000000000    0.2892500000000000    0.1721400000000000 H
   0.8710500000000000    0.4373550000000000    0.2120250000000000 H
   0.9185900000000000    0.3858100000000000    0.2072550000000000 H
   0.8017200000000000    0.0669350000000000    0.2081000000000000 H
   0.7835750000000000    0.4932350000000000    0.2379300000000000 H
   0.7782249999999999    0.3943600000000000    0.1197250000000000 H
   0.7953550000000000    0.4677200000000000    0.0897850000000000 H
   0.6668100000000000    0.3059300000000000    0.2700500000000000 H
   0.7512050000000000    0.3487350000000000    0.2555000000000000 H
   0.6780850000000000    0.4019600000000000    0.1649800000000000 H
   0.5948450000000000    0.3617250000000000    0.1820400000000000 H
   0.2386650000000000    0.7689150000000000    0.4170700000000000 H
   0.2893950000000000    0.7212350000000000    0.4218800000000000 H
   0.4372000000000000    0.8712350000000000    0.4618150000000000 H
   0.3855000000000000    0.9186050000000000    0.4569100000000000 H
   0.0668350000000000    0.8016300000000001    0.4579850000000000 H
   0.4932300000000000    0.7836050000000000    0.4878400000000000 H
   0.3945650000000000    0.7785450000000000    0.3696950000000000 H
   0.4678100000000000    0.7955099999999999    0.3397300000000000 H
   0.4019500000000000    0.6780700000000000    0.4149450000000000 H
   0.3616450000000000    0.5947900000000000    0.4320250000000000 H
   0.2308000000000000    0.7613400000000000    0.3325400000000000 H
   0.2786350000000000    0.7107650000000000    0.3278500000000000 H
   0.1289450000000000    0.5626550000000000    0.2879700000000000 H
   0.0814100000000000    0.6142050000000000    0.2927350000000000 H
   0.1982800000000000    0.9330750000000000    0.2918950000000000 H
   0.2164250000000000    0.5067750000000000    0.2620500000000000 H
   0.2217750000000000    0.6056500000000000    0.3802700000000000 H
   0.2046450000000000    0.5322900000000000    0.4102100000000000 H
   0.3331900000000000    0.6940800000000000    0.2299400000000000 H
   0.2487950000000000    0.6512750000000000    0.2444900000000000 H
   0.3219150000000000    0.5980550000000000    0.3350100000000000 H
   0.4051550000000000    0.6382850000000000    0.3179500000000000 H
   0.2613350000000000    0.7311000000000000    0.0829250000000000 H
   0.2106050000000000    0.7787750000000000    0.0781150000000000 H
   0.0628000000000000    0.6287750000000000    0.0381800000000000 H
   0.1144950000000000    0.5814049999999999    0.0430800000000000 H
   0.4331650000000000    0.6983800000000000    0.0420050000000000 H
   0.0067650000000000    0.7164050000000000    0.0121550000000000 H
   0.1054350000000000    0.7214650000000000    0.1303000000000000 H
   0.0321900000000000    0.7045000000000000    0.1602650000000000 H
   0.1938050000000000    0.8329350000000000    0.4798600000000000 H
   0.1510000000000000    0.7485300000000000    0.4944900000000000 H
   0.0980500000000000    0.8219400000000000    0.0850500000000000 H
   0.1383550000000000    0.9052249999999999    0.0679700000000000 H
   0.2692000000000000    0.7386699999999999    0.1674550000000000 H
   0.2213600000000000    0.7892500000000000    0.1721400000000000 H
   0.3710500000000000    0.9373549999999999    0.2120250000000000 H
   0.4185900000000000    0.8858100000000000    0.2072550000000000 H
   0.3017200000000000    0.5669350000000000    0.2081000000000000 H
   0.2835750000000000    0.9932350000000000    0.2379300000000000 H
   0.2782250000000000    0.8943600000000000    0.1197250000000000 H
   0.2953550000000000    0.9677200000000000    0.0897850000000000 H
   0.1668100000000000    0.8059300000000000    0.2700500000000000 H
   0.2512050000000000    0.8487350000000000    0.2555000000000000 H
   0.1780850000000000    0.9019600000000000    0.1649800000000000 H
   0.0948450000000000    0.8617250000000001    0.1820400000000000 H
   0.7386650000000000    0.7689150000000000    0.4170700000000000 H
   0.7893950000000001    0.7212350000000000    0.4218800000000000 H
   0.9372000000000000    0.8712350000000000    0.4618150000000000 H
   0.8855000000000000    0.9186050000000000    0.4569100000000000 H
   0.5668350000000000    0.8016300000000001    0.4579850000000000 H
   0.9932300000000001    0.7836050000000000    0.4878400000000000 H
   0.8945650000000001    0.7785450000000000    0.3696950000000000 H
   0.9678100000000001    0.7955099999999999    0.3397300000000000 H
   0.8061950000000000    0.6670750000000000    0.0201350000000000 H
   0.8490000000000000    0.7514799999999999    0.0055050000000000 H
   0.9019500000000000    0.6780700000000000    0.4149450000000000 H
   0.8616450000000000    0.5947900000000000    0.4320250000000000 H
   0.7308000000000000    0.7613400000000000    0.3325400000000000 H
   0.7786350000000000    0.7107650000000000    0.3278500000000000 H
   0.6289450000000000    0.5626550000000000    0.2879700000000000 H
   0.5814100000000000    0.6142050000000000    0.2927350000000000 H
   0.6982800000000000    0.9330750000000000    0.2918950000000000 H
   0.7164250000000000    0.5067750000000000    0.2620500000000000 H
   0.7217750000000001    0.6056500000000000    0.3802700000000000 H
   0.7046450000000000    0.5322900000000000    0.4102100000000000 H
   0.8331900000000000    0.6940800000000000    0.2299400000000000 H
   0.7487950000000000    0.6512750000000000    0.2444900000000000 H
   0.8219150000000000    0.5980550000000000    0.3350100000000000 H
   0.9051549999999999    0.6382850000000000    0.3179500000000000 H
   0.7613350000000000    0.7311000000000000    0.0829250000000000 H
   0.7106049999999999    0.7787750000000000    0.0781150000000000 H
   0.5628000000000000    0.6287750000000000    0.0381800000000000 H
   0.6144950000000000    0.5814049999999999    0.0430800000000000 H
   0.9331650000000000    0.6983800000000000    0.0420050000000000 H
   0.5067650000000000    0.7164050000000000    0.0121550000000000 H
   0.6054349999999999    0.7214650000000000    0.1303000000000000 H
   0.5321900000000001    0.7045000000000000    0.1602650000000000 H
   0.6938050000000000    0.8329350000000000    0.4798600000000000 H
   0.6510000000000000    0.7485300000000000    0.4944900000000000 H
   0.5980500000000000    0.8219400000000000    0.0850500000000000 H
   0.6383550000000000    0.9052249999999999    0.0679700000000000 H
   0.7692000000000000    0.7386699999999999    0.1674550000000000 H
   0.7213600000000000    0.7892500000000000    0.1721400000000000 H
   0.8710500000000000    0.9373549999999999    0.2120250000000000 H
   0.9185900000000000    0.8858100000000000    0.2072550000000000 H
   0.8017200000000000    0.5669350000000000    0.2081000000000000 H
   0.7835750000000000    0.9932350000000000    0.2379300000000000 H
   0.7782249999999999    0.8943600000000000    0.1197250000000000 H
   0.7953550000000000    0.9677200000000000    0.0897850000000000 H
   0.6668100000000000    0.8059300000000000    0.2700500000000000 H
   0.7512050000000000    0.8487350000000000    0.2555000000000000 H
   0.6780850000000000    0.9019600000000000    0.1649800000000000 H
   0.5948450000000000    0.8617250000000001    0.1820400000000000 H
   0.2386650000000000    0.2689150000000000    0.9170700000000001 H
   0.2893950000000000    0.2212350000000000    0.9218800000000000 H
   0.4372000000000000    0.3712350000000000    0.9618150000000000 H
   0.3855000000000000    0.4186050000000000    0.9569099999999999 H
   0.0668350000000000    0.3016300000000000    0.9579850000000000 H
   0.4932300000000000    0.2836050000000000    0.9878400000000001 H
   0.3945650000000000    0.2785450000000000    0.8696950000000000 H
   0.4678100000000000    0.2955100000000000    0.8397300000000000 H
   0.3061950000000000    0.1670750000000000    0.5201350000000000 H
   0.3490000000000000    0.2514800000000000    0.5055050000000000 H
   0.4019500000000000    0.1780700000000000    0.9149450000000000 H
   0.3616450000000000    0.0947900000000000    0.9320250000000000 H
   0.2308000000000000    0.2613400000000000    0.8325400000000001 H
   0.2786350000000000    0.2107650000000000    0.8278500000000000 H
   0.1289450000000000    0.0626550000000000    0.7879700000000001 H
   0.0814100000000000    0.1142050000000000    0.7927350000000000 H
   0.1982800000000000    0.4330750000000000    0.7918950000000000 H
   0.2164250000000000    0.0067750000000000    0.7620500000000000 H
   0.2217750000000000    0.1056500000000000    0.8802700000000000 H
   0.2046450000000000    0.0322900000000000    0.9102100000000000 H
   0.3331900000000000    0.1940800000000000    0.7299400000000000 H
   0.2487950000000000    0.1512750000000000    0.7444900000000000 H
   0.3219150000000000    0.0980550000000000    0.8350100000000000 H
   0.4051550000000000    0.1382850000000000    0.8179500000000000 H
   0.2613350000000000    0.2311000000000000    0.5829250000000000 H
   0.2106050000000000    0.2787750000000000    0.5781150000000000 H
   0.0628000000000000    0.1287750000000000    0.5381800000000000 H
   0.1144950000000000    0.0814050000000000    0.5430800000000000 H
   0.4331650000000000    0.1983800000000000    0.5420050000000000 H
   0.0067650000000000    0.2164050000000000    0.5121550000000000 H
   0.1054350000000000    0.2214650000000000    0.6303000000000000 H
   0.0321900000000000    0.2045000000000000    0.6602650000000000 H
   0.1938050000000000    0.3329350000000000    0.9798600000000000 H
   0.1510000000000000    0.2485300000000000    0.9944900000000000 H
   0.0980500000000000    0.3219400000000000    0.5850500000000000 H
   0.1383550000000000    0.4052250000000000    0.5679700000000000 H
   0.2692000000000000    0.2386700000000000    0.6674550000000000 H
   0.2213600000000000    0.2892500000000000    0.6721400000000000 H
   0.3710500000000000    0.4373550000000000    0.7120250000000000 H
   0.4185900000000000    0.3858100000000000    0.7072550000000000 H
   0.3017200000000000    0.0669350000000000    0.7081000000000000 H
   0.2835750000000000    0.4932350000000000    0.7379300000000000 H
   0.2782250000000000    0.3943600000000000    0.6197250000000000 H
   0.2953550000000000    0.4677200000000000    0.5897850000000000 H
   0.1668100000000000    0.3059300000000000    0.7700500000000000 H
   0.2512050000000000    0.3487350000000000    0.7555000000000001 H
   0.1780850000000000    0.4019600000000000    0.6649800000000000 H
   0.0948450000000000    0.3617250000000000    0.6820400000000000 H
   0.7386650000000000    0.2689150000000000    0.9170700000000001 H
   0.7893950000000001    0.2212350000000000    0.9218800000000000 H
   0.9372000000000000    0.3712350000000000    0.9618150000000000 H
   0.8855000000000000    0.4186050000000000    0.9569099999999999 H
   0.5668350000000000    0.3016300000000000    0.9579850000000000 H
   0.9932300000000001    0.2836050000000000    0.9878400000000001 H
   0.8945650000000001    0.2785450000000000    0.8696950000000000 H
   0.9678100000000001    0.2955100000000000    0.8397300000000000 H
   0.8061950000000000    0.1670750000000000    0.5201350000000000 H
   0.8490000000000000    0.2514800000000000    0.5055050000000000 H
   0.9019500000000000    0.1780700000000000    0.9149450000000000 H
   0.8616450000000000    0.0947900000000000    0.9320250000000000 H
   0.7308000000000000    0.2613400000000000    0.8325400000000001 H
   0.7786350000000000    0.2107650000000000    0.8278500000000000 H
   0.6289450000000000    0.0626550000000000    0.7879700000000001 H
   0.5814100000000000    0.1142050000000000    0.7927350000000000 H
   0.6982800000000000    0.4330750000000000    0.7918950000000000 H
   0.7164250000000000    0.0067750000000000    0.7620500000000000 H
   0.7217750000000001    0.1056500000000000    0.8802700000000000 H
   0.7046450000000000    0.0322900000000000    0.9102100000000000 H
   0.8331900000000000    0.1940800000000000    0.7299400000000000 H
   0.7487950000000000    0.1512750000000000    0.7444900000000000 H
   0.8219150000000000    0.0980550000000000    0.8350100000000000 H
   0.9051549999999999    0.1382850000000000    0.8179500000000000 H
   0.7613350000000000    0.2311000000000000    0.5829250000000000 H
   0.7106049999999999    0.2787750000000000    0.5781150000000000 H
   0.5628000000000000    0.1287750000000000    0.5381800000000000 H
   0.6144950000000000    0.0814050000000000    0.5430800000000000 H
   0.9331650000000000    0.1983800000000000    0.5420050000000000 H
   0.5067650000000000    0.2164050000000000    0.5121550000000000 H
   0.6054349999999999    0.2214650000000000    0.6303000000000000 H
   0.5321900000000001    0.2045000000000000    0.6602650000000000 H
   0.6938050000000000    0.3329350000000000    0.9798600000000000 H
   0.6510000000000000    0.2485300000000000    0.9944900000000000 H
   0.5980500000000000    0.3219400000000000    0.5850500000000000 H
   0.6383550000000000    0.4052250000000000    0.5679700000000000 H
   0.7692000000000000    0.2386700000000000    0.6674550000000000 H
   0.7213600000000000    0.2892500000000000    0.6721400000000000 H
   0.8710500000000000    0.4373550000000000    0.7120250000000000 H
   0.9185900000000000    0.3858100000000000    0.7072550000000000 H
   0.8017200000000000    0.0669350000000000    0.7081000000000000 H
   0.7835750000000000    0.4932350000000000    0.7379300000000000 H
   0.7782249999999999    0.3943600000000000    0.6197250000000000 H
   0.7953550000000000    0.4677200000000000    0.5897850000000000 H
   0.6668100000000000    0.3059300000000000    0.7700500000000000 H
   0.7512050000000000    0.3487350000000000    0.7555000000000001 H
   0.6780850000000000    0.4019600000000000    0.6649800000000000 H
   0.5948450000000000    0.3617250000000000    0.6820400000000000 H
   0.0668350000000000    0.8016300000000001    0.9579850000000000 H
   0.3061950000000000    0.6670750000000000    0.5201350000000000 H
   0.3490000000000000    0.7514799999999999    0.5055050000000000 H
   0.2308000000000000    0.7613400000000000    0.8325400000000001 H
   0.2786350000000000    0.7107650000000000    0.8278500000000000 H
   0.1289450000000000    0.5626550000000000    0.7879700000000001 H
   0.0814100000000000    0.6142050000000000    0.7927350000000000 H
   0.1982800000000000    0.9330750000000000    0.7918950000000000 H
   0.2164250000000000    0.5067750000000000    0.7620500000000000 H
   0.2217750000000000    0.6056500000000000    0.8802700000000000 H
   0.2046450000000000    0.5322900000000000    0.9102100000000000 H
   0.3331900000000000    0.6940800000000000    0.7299400000000000 H
   0.2487950000000000    0.6512750000000000    0.7444900000000000 H
   0.3219150000000000    0.5980550000000000    0.8350100000000000 H
   0.4051550000000000    0.6382850000000000    0.8179500000000000 H
   0.2613350000000000    0.7311000000000000    0.5829250000000000 H
   0.2106050000000000    0.7787750000000000    0.5781150000000000 H
   0.0628000000000000    0.6287750000000000    0.5381800000000000 H
   0.1144950000000000    0.5814049999999999    0.5430800000000000 H
   0.4331650000000000    0.6983800000000000    0.5420050000000000 H
   0.0067650000000000    0.7164050000000000    0.5121550000000000 H
   0.1054350000000000    0.7214650000000000    0.6303000000000000 H
   0.0321900000000000    0.7045000000000000    0.6602650000000000 H
   0.1938050000000000    0.8329350000000000    0.9798600000000000 H
   0.1510000000000000    0.7485300000000000    0.9944900000000000 H
   0.0980500000000000    0.8219400000000000    0.5850500000000000 H
   0.1383550000000000    0.9052249999999999    0.5679700000000000 H
   0.2692000000000000    0.7386699999999999    0.6674550000000000 H
   0.2213600000000000    0.7892500000000000    0.6721400000000000 H
   0.3710500000000000    0.9373549999999999    0.7120250000000000 H
   0.4185900000000000    0.8858100000000000    0.7072550000000000 H
   0.3017200000000000    0.5669350000000000    0.7081000000000000 H
   0.2835750000000000    0.9932350000000000    0.7379300000000000 H
   0.2782250000000000    0.8943600000000000    0.6197250000000000 H
   0.2953550000000000    0.9677200000000000    0.5897850000000000 H
   0.1668100000000000    0.8059300000000000    0.7700500000000000 H
   0.2512050000000000    0.8487350000000000    0.7555000000000001 H
   0.1780850000000000    0.9019600000000000    0.6649800000000000 H
   0.0948450000000000    0.8617250000000001    0.6820400000000000 H
   0.7386650000000000    0.7689150000000000    0.9170700000000001 H
   0.7893950000000001    0.7212350000000000    0.9218800000000000 H
   0.9372000000000000    0.8712350000000000    0.9618150000000000 H
   0.8855000000000000    0.9186050000000000    0.9569099999999999 H
   0.9932300000000001    0.7836050000000000    0.9878400000000001 H
   0.8945650000000001    0.7785450000000000    0.8696950000000000 H
   0.9678100000000001    0.7955099999999999    0.8397300000000000 H
   0.8061950000000000    0.6670750000000000    0.5201350000000000 H
   0.8490000000000000    0.7514799999999999    0.5055050000000000 H
   0.9019500000000000    0.6780700000000000    0.9149450000000000 H
   0.8616450000000000    0.5947900000000000    0.9320250000000000 H
   0.7308000000000000    0.7613400000000000    0.8325400000000001 H
   0.7786350000000000    0.7107650000000000    0.8278500000000000 H
   0.6289450000000000    0.5626550000000000    0.7879700000000001 H
   0.5814100000000000    0.6142050000000000    0.7927350000000000 H
   0.6982800000000000    0.9330750000000000    0.7918950000000000 H
   0.7164250000000000    0.5067750000000000    0.7620500000000000 H
   0.7217750000000001    0.6056500000000000    0.8802700000000000 H
   0.7046450000000000    0.5322900000000000    0.9102100000000000 H
   0.8331900000000000    0.6940800000000000    0.7299400000000000 H
   0.7487950000000000    0.6512750000000000    0.7444900000000000 H
   0.8219150000000000    0.5980550000000000    0.8350100000000000 H
   0.9051549999999999    0.6382850000000000    0.8179500000000000 H
   0.7613350000000000    0.7311000000000000    0.5829250000000000 H
   0.7106049999999999    0.7787750000000000    0.5781150000000000 H
   0.5628000000000000    0.6287750000000000    0.5381800000000000 H
   0.6144950000000000    0.5814049999999999    0.5430800000000000 H
   0.9331650000000000    0.6983800000000000    0.5420050000000000 H
   0.5067650000000000    0.7164050000000000    0.5121550000000000 H
   0.6054349999999999    0.7214650000000000    0.6303000000000000 H
   0.5321900000000001    0.7045000000000000    0.6602650000000000 H
   0.6938050000000000    0.8329350000000000    0.9798600000000000 H
   0.6510000000000000    0.7485300000000000    0.9944900000000000 H
   0.5980500000000000    0.8219400000000000    0.5850500000000000 H
   0.6383550000000000    0.9052249999999999    0.5679700000000000 H
   0.7692000000000000    0.7386699999999999    0.6674550000000000 H
   0.7213600000000000    0.7892500000000000    0.6721400000000000 H
   0.8710500000000000    0.9373549999999999    0.7120250000000000 H
   0.9185900000000000    0.8858100000000000    0.7072550000000000 H
   0.8017200000000000    0.5669350000000000    0.7081000000000000 H
   0.7835750000000000    0.9932350000000000    0.7379300000000000 H
   0.7782249999999999    0.8943600000000000    0.6197250000000000 H
   0.7953550000000000    0.9677200000000000    0.5897850000000000 H
   0.6668100000000000    0.8059300000000000    0.7700500000000000 H
   0.7512050000000000    0.8487350000000000    0.7555000000000001 H
   0.6780850000000000    0.9019600000000000    0.6649800000000000 H
   0.5948450000000000    0.8617250000000001    0.6820400000000000 H
   0.2765900000000000    0.3737350000000000    0.4338800000000000 C
   0.3086950000000000    0.3468550000000000    0.4370800000000000 C
   0.2822150000000000    0.2911450000000000    0.4274300000000000 C
   0.3106450000000000    0.2645300000000000    0.4300650000000000 C
   0.3668700000000000    0.2931100000000000    0.4429050000000000 C
   0.3936550000000000    0.3488950000000000    0.4520750000000000 C
   0.3648100000000000    0.3753300000000000    0.4492500000000000 C
   0.0638700000000000    0.3064350000000000    0.3776500000000000 C
   0.0215900000000000    0.2989450000000000    0.3967500000000000 C
   0.0288500000000000    0.2960450000000000    0.4387400000000000 C
   0.4878800000000000    0.2860850000000000    0.4553600000000000 C
   0.4391600000000000    0.2792850000000000    0.4303750000000000 C
   0.4323900000000000    0.2837800000000000    0.3889850000000000 C
   0.4732200000000000    0.2932500000000000    0.3722600000000000 C
   0.3009150000000000    0.0737300000000000    0.4828150000000000 C
   0.3299350000000000    0.1249950000000000    0.4760800000000000 C