H6 O4
1.0
  15.4399999623736566    0.0000000000000000   -0.0010779153451558
   0.0007720648388944   16.4674809625378664   -6.7309858232185240
   0.0000000000000000    0.0000000000000000   18.3180000000000014
H O
6 4
direct
   0.3650778777753381    0.4263321947400719    0.0981663827918310 H
   0.3048273320644755    0.3780186501308939    0.2824744108991164 H
   0.3241438736200414    0.3931574737417554    0.1889542772709409 H
   0.1343114696597498    1.0720117250264278    1.0684623266983706 H
   0.1944624186216271    1.1224687391867922    0.8851869541548094 H
   0.1750396912472454    1.1062829247190435    0.9780653910549830 H
   0.3779800000000000    0.4376400000000000    0.1531400000000000 O
   0.3405200000000000    0.4075100000000000    0.2587300000000000 O
   0.1216800000000000    1.0611199999999998    1.0135200000000000 O
   0.1590900000000000    1.0925300000000000    0.9086900000000000 O
