Zn18 H50 C88 O48
1.0
  15.4399999623736566    0.0000000000000000   -0.0010779153451558
   0.0007720648388944   16.4674809625378664   -6.7309858232185240
   0.0000000000000000    0.0000000000000000   18.3180000000000014
Zn H C O
18 50 88 48
direct
   0.0966500000000000    0.0029500000000000    0.1668000000000000 Zn
   0.4033600000000000    0.5029500000000000    0.6667999999999999 Zn
   0.9033700000000000    0.9970700000000000    0.8332000000000001 Zn
   0.5966600000000000    0.4970600000000000    0.3332000000000000 Zn
   0.9009400000000000    0.9968000000000000    0.4965700000000000 Zn
   0.5990799999999999    0.4967700000000000    0.9965900000000000 Zn
   0.0999200000000000    0.9999300000000000    0.8337100000000000 Zn
   0.4000800000000000    0.4999400000000000    0.3337000000000000 Zn
   0.4999800000000000    0.4973500000000000    0.1659900000000000 Zn
   0.0000000000000000    0.9973600000000000    0.6659900000000000 Zn
   0.4009300000000000    0.5032200000000000    0.0034200000000000 Zn
   0.0990800000000000    0.0032000000000000    0.5034300000000000 Zn
   0.9000899999999999    0.0000000000000000    0.1662800000000000 Zn
   0.5999300000000000    0.5000500000000000    0.6662900000000000 Zn
   0.9999700000000000    0.0026400000000000    0.3340100000000000 Zn
   0.5000300000000000    0.5026600000000000    0.8340200000000000 Zn
   0.5000100000000000    0.4999900000000000    0.5000000000000000 Zn
   0.0000000000000000    0.9999900000000000    0.9999900000000000 Zn
   0.2031800000000000    0.6647700000000000    0.7835400000000000 H
   0.1054900000000000    0.7732800000000000    0.8720700000000000 H
   0.3002700000000000    0.8413000000000000    0.0528900000000000 H
   0.3979300000000000    0.7325700000000001    0.9643900000000000 H
   0.1996600000000000    0.3414200000000000    0.5528800000000000 H
   0.1019500000000000    0.2327100000000000    0.4643900000000000 H
   0.3944100000000000    0.2732900000000000    0.3720400000000000 H
   0.2966800000000000    0.1648000000000000    0.2835300000000000 H
   0.7968100000000000    0.3352200000000000    0.2164700000000000 H
   0.8945100000000000    0.2267100000000000    0.1279400000000000 H
   0.6997300000000000    0.1586900000000000    0.9471200000000000 H
   0.6020700000000000    0.2674200000000000    0.0356200000000000 H
   0.7033100000000000    0.8352100000000000    0.7164700000000001 H
   0.6055900000000000    0.7267200000000000    0.6279600000000000 H
   0.8003400000000001    0.6586000000000000    0.4471300000000000 H
   0.8980399999999999    0.7673100000000000    0.5356200000000000 H
   0.6679300000000000    0.6626700000000000    0.3062500000000000 H
   0.7526600000000000    0.7829100000000000    0.3926500000000000 H
   0.7901000000000000    0.6779300000000000    0.1015500000000000 H
   0.8781099999999999    0.7956200000000000    0.1880900000000000 H
   0.7473600000000000    0.2828600000000000    0.8925999999999999 H
   0.8321100000000000    0.1626400000000000    0.8062600000000000 H
   0.7099100000000000    0.1779100000000000    0.6015600000000000 H
   0.6218800000000000    0.2955900000000000    0.6881100000000000 H
   0.3650778777753381    0.4263321947400719    0.0981663827918310 H
   0.3048273320644755    0.3780186501308939    0.2824744108991164 H
   0.3241438736200414    0.3931574737417554    0.1889542772709409 H
   0.1343114696597498    1.0720117250264278    1.0684623266983706 H
   0.1944624186216271    1.1224687391867922    0.8851869541548094 H
   0.1750396912472454    1.1062829247190435    0.9780653910549830 H
   0.2540900000000000    0.7129500000000000    0.4389000000000000 H
   0.1783500000000000    0.8391800000000000    0.5258000000000000 H
   0.2443400000000000    0.7848400000000000    0.7287200000000000 H
   0.3209100000000000    0.6592300000000000    0.6418500000000000 H
   0.1679000000000000    0.8373600000000000    0.1937000000000000 H
   0.2526400000000000    0.7171300000000000    0.1073300000000000 H
   0.2901000000000000    0.8220900000000000    0.3984000000000000 H
   0.3781200000000000    0.7044000000000000    0.3118900000000000 H
   0.2473600000000000    0.2170900000000000    0.6073499999999999 H
   0.3320800000000000    0.3373300000000000    0.6937400000000000 H
   0.2099100000000000    0.3220800000000000    0.8984500000000000 H
   0.1219000000000000    0.2043800000000000    0.8119100000000000 H
   0.8209300000000000    0.8407500000000000    0.8581299999999999 H
   0.7443600000000000    0.7151400000000000    0.7712599999999999 H
   0.7541000000000000    0.7870900000000000    0.0610800000000000 H
   0.6783700000000000    0.6608500000000000    0.9742100000000000 H
   0.7556500000000000    0.2151400000000000    0.2712700000000000 H
   0.6790900000000000    0.3407500000000000    0.3581000000000000 H
   0.7459300000000000    0.2870500000000000    0.5610900000000000 H
   0.8216599999999999    0.1608100000000000    0.4742000000000000 H
   0.3649600000000000    0.6265300000000000    0.8159700000000000 C
   0.1382700000000000    0.8793700000000000    0.0202100000000000 C
   0.2240300000000000    0.7038200000000000    0.8425000000000000 C
   0.1697900000000000    0.7642099999999999    0.8917200000000000 C
   0.1969000000000000    0.8140300000000000    0.9678000000000000 C
   0.2794900000000000    0.8023100000000000    0.9938900000000001 C
   0.3336900000000000    0.7418100000000000    0.9446900000000000 C
   0.3065900000000000    0.6920700000000000    0.8685700000000000 C
   0.3616900000000000    0.3793900000000000    0.5202000000000000 C
   0.1349500000000000    0.1265700000000000    0.3159800000000000 C
   0.2204200000000000    0.3024000000000000    0.4938700000000000 C
   0.1662000000000000    0.2419100000000000    0.4446900000000000 C
   0.3301100000000000    0.2642500000000000    0.3917000000000000 C
   0.2758500000000000    0.2038700000000000    0.3425000000000000 C
   0.3030100000000000    0.3140800000000000    0.4677800000000000 C
   0.1932800000000000    0.1921400000000000    0.3685000000000000 C
   0.8617400000000000    0.1206300000000000    0.9790000000000000 C
   0.6350400000000000    0.3734700000000000    0.1840400000000000 C
   0.7759700000000000    0.2961700000000000    0.1575000000000000 C
   0.8302100000000000    0.2357800000000000    0.1082800000000000 C
   0.8030900000000000    0.1859600000000000    0.0322000000000000 C
   0.7205100000000000    0.1976800000000000    0.0061200000000000 C
   0.6663100000000000    0.2581800000000000    0.0553100000000000 C
   0.6934000000000000    0.3079200000000000    0.1314300000000000 C
   0.8650500000000000    0.8734400000000000    0.6840300000000000 C
   0.6383100000000000    0.6206199999999999    0.4798000000000000 C
   0.7241400000000000    0.7961400000000000    0.6575100000000000 C
   0.6698900000000000    0.7357700000000000    0.6083000000000000 C
   0.6969900000000000    0.6859300000000000    0.5322200000000000 C
   0.7795800000000001    0.6976100000000000    0.5061400000000000 C
   0.8338000000000000    0.7581000000000000    0.5553200000000000 C
   0.8067100000000000    0.8078700000000000    0.6314300000000000 C
   0.8715600000000000    0.8692400000000000    0.3474000000000000 C
   0.6663800000000000    0.5956000000000000    0.1469000000000000 C
   0.7130600000000000    0.6928400000000000    0.2806500000000000 C
   0.7609100000000000    0.7593400000000000    0.3289000000000000 C
   0.7824600000000000    0.7011400000000000    0.1653300000000000 C
   0.8316800000000000    0.7665400000000000    0.2136700000000000 C
   0.7222499999999999    0.6640300000000000    0.1983700000000000 C
   0.8206100000000000    0.7969100000000000    0.2958000000000000 C
   0.6284400000000000    0.3692000000000000    0.8474200000000000 C
   0.8336500000000000    0.0955800000000000    0.6469100000000000 C
   0.7391000000000000    0.2593000000000000    0.8289200000000000 C
   0.7869699999999999    0.1928000000000000    0.7806600000000000 C
   0.7175400000000000    0.2011100000000000    0.6653400000000000 C
   0.6683100000000000    0.2665100000000000    0.7136900000000000 C
   0.7777700000000000    0.1640100000000000    0.6983000000000000 C
   0.6793900000000000    0.2968700000000000    0.7958200000000000 C
   0.1588800000000000    0.8937400000000000    0.6842600000000000 C
   0.3412000000000000    0.6054000000000000    0.4830300000000000 C
   0.2519200000000000    0.7295000000000000    0.5024000000000000 C
   0.2092100000000000    0.7993600000000000    0.5508400000000000 C
   0.2064100000000000    0.8194300000000000    0.6326000000000001 C
   0.2470300000000000    0.7687500000000000    0.6652200000000000 C
   0.2900000000000000    0.6990000000000000    0.6167800000000000 C
   0.2930200000000000    0.6790800000000000    0.5350400000000000 C
   0.3715500000000000    0.6307900000000000    0.1525800000000000 C
   0.1663600000000000    0.9044200000000000    0.3530900000000000 C
   0.2130300000000000    0.8071900000000000    0.2193400000000000 C
   0.2609000000000000    0.7406900000000000    0.1710800000000000 C
   0.2824600000000000    0.7988800000000000    0.3346500000000000 C
   0.3316900000000000    0.7334800000000000    0.2863100000000000 C
   0.2222300000000000    0.8359900000000000    0.3016100000000000 C
   0.3206100000000000    0.7031200000000000    0.2041800000000000 C
   0.1284700000000000    0.1307500000000000    0.6526000000000000 C
   0.3336300000000000    0.4044100000000000    0.8530000000000000 C
   0.2391000000000000    0.2406600000000000    0.6710000000000000 C
   0.2869600000000000    0.3071600000000000    0.7193500000000000 C
   0.2175400000000000    0.2988700000000000    0.8346700000000000 C
   0.1683300000000000    0.2334600000000000    0.7863200000000000 C
   0.2777600000000000    0.3359700000000000    0.8016200000000000 C
   0.1794100000000000    0.2030800000000000    0.7041900000000000 C
   0.6589000000000000    0.6062700000000000    0.8157500000000000 C
   0.8412200000000000    0.8946100000000000    0.0169300000000000 C
   0.7900100000000000    0.8010000000000000    0.8832000000000000 C
   0.7470500000000000    0.7312400000000000    0.8347700000000000 C
   0.7930400000000000    0.8209300000000000    0.9649400000000000 C
   0.7519300000000000    0.7705300000000000    0.9975500000000000 C
   0.7092200000000000    0.7006599999999999    0.9491700000000000 C
   0.7064300000000000    0.6805800000000000    0.8673999999999999 C
   0.8411300000000000    0.1062500000000000    0.3157400000000000 C
   0.6588100000000000    0.3945900000000000    0.5169600000000000 C
   0.7529600000000000    0.2312300000000000    0.3347700000000000 C
   0.7100000000000000    0.3009900000000000    0.3832100000000000 C
   0.7069800000000001    0.3209100000000000    0.4649500000000000 C
   0.7480800000000000    0.2704900000000000    0.4975500000000000 C
   0.7907999999999999    0.2006300000000000    0.4491600000000000 C
   0.7935900000000000    0.1805600000000000    0.3673900000000000 C
   0.4358500000000000    0.6127200000000000    0.8431800000000000 O
   0.3374800000000000    0.5890300000000001    0.7447600000000000 O
   0.0661500000000000    0.8912600000000001    0.9935800000000000 O
   0.1664800000000000    0.9189200000000000    0.0907600000000000 O
   0.4338200000000000    0.3912400000000000    0.4935600000000000 O
   0.3335100000000000    0.4189200000000000    0.5907600000000000 O
   0.0640700000000000    0.1127300000000000    0.3431900000000000 O
   0.1624500000000000    0.0890600000000000    0.2447800000000000 O
   0.9338600000000000    0.1087500000000000    0.0064200000000000 O
   0.8335300000000000    0.0811000000000000    0.9092400000000000 O
   0.5641500000000000    0.3872900000000000    0.1568200000000000 O
   0.6625200000000000    0.4109700000000000    0.2552000000000000 O
   0.9359300000000000    0.8872800000000000    0.6568100000000000 O
   0.8375500000000000    0.9109600000000000    0.7552200000000000 O
   0.5661900000000000    0.6087600000000000    0.5064400000000000 O
   0.6665000000000000    0.5810999999999999    0.4092400000000000 O
   0.9372700000000000    0.8906200000000000    0.3188800000000000 O
   0.8436300000000000    0.9042700000000000    0.4187500000000000 O
   0.6225000000000001    0.5563700000000000    0.1785700000000000 O
   0.6673600000000000    0.5822400000000000    0.0723500000000000 O
   0.5627500000000000    0.3906100000000000    0.8188900000000000 O
   0.6563400000000000    0.4041900000000000    0.9187800000000000 O
   0.8775300000000000    0.0563400000000000    0.6785700000000000 O
   0.8326700000000000    0.0822400000000000    0.5723000000000000 O
   0.3779800000000000    0.4376400000000000    0.1531400000000000 O
   0.3405200000000000    0.4075100000000000    0.2587300000000000 O
   0.1216800000000000    1.0611199999999998    1.0135200000000000 O
   0.1590900000000000    1.0925300000000000    0.9086900000000000 O
   0.1220200000000000    0.9376600000000000    0.6531500000000000 O
   0.1594800000000000    0.9075100000000000    0.7587400000000000 O
   0.3783200000000000    0.5611200000000000    0.5135000000000000 O
   0.3409100000000000    0.5925500000000000    0.4086700000000000 O
   0.4372600000000000    0.6094000000000001    0.1811100000000000 O
   0.3436400000000000    0.5957800000000000    0.0812200000000000 O
   0.1224900000000000    0.9436700000000000    0.3214300000000000 O
   0.1673400000000000    0.9177500000000000    0.4276300000000000 O
   0.0627400000000000    0.1093900000000000    0.6811000000000000 O
   0.1564100000000000    0.0957100000000000    0.5812600000000000 O
   0.3775000000000000    0.4436400000000000    0.8214300000000000 O
   0.3326500000000000    0.4177600000000000    0.9276400000000000 O
   0.6220200000000000    0.5623700000000000    0.8468599999999999 O
   0.6594900000000000    0.5924800000000000    0.7412600000000000 O
   0.8783300000000001    0.9388800000000000    0.9864700000000000 O
   0.8409200000000000    0.9074600000000000    0.0913000000000000 O
   0.8780000000000000    0.0623500000000000    0.3468500000000000 O
   0.8405300000000000    0.0924700000000000    0.2412000000000000 O
   0.6216800000000000    0.4388700000000000    0.4864900000000000 O
   0.6591000000000000    0.4074300000000000    0.5913200000000000 O
