H14 C14 N4
1.0
  21.1888668055021547    0.0000000000000000    6.6836702116942366
   4.6284676755929892   12.9943551200721608    3.8490340332926727
   0.0000000000000000    0.0000000000000000   18.3730000000000011
H C N
14 14 4
direct
   0.6455600000000000    0.7221500000000000    0.4642000000000000 H
   0.7109300000000000    0.5030300000000000    0.6540899999999999 H
   0.6680900000000000    0.4128100000000000    0.5712500000000000 H
   0.6139600000000000    0.6240300000000000    0.3997300000000000 H
   0.6622400000000001    0.4916600000000000    0.4095400000000000 H
   0.5154200000000000    0.6241400000000000    0.5590700000000000 H
   0.5888500000000000    0.4172400000000000    0.3943800000000000 H
   0.3544400000000000    0.2778700000000000    0.5357600000000000 H
   0.2890700000000000    0.4969900000000000    0.3458800000000000 H
   0.3319100000000000    0.5872100000000000    0.4287200000000000 H
   0.3860400000000000    0.3760000000000000    0.6002400000000000 H
   0.3377500000000000    0.5083800000000001    0.5904199999999999 H
   0.4845800000000000    0.3759000000000000    0.4409000000000000 H
   0.4111500000000000    0.5827900000000000    0.6055900000000000 H
   0.6579300000000000    0.6511900000000000    0.5053800000000001 C
   0.6917500000000000    0.5346900000000000    0.6017100000000000 C
   0.6702800000000000    0.4894400000000000    0.5620400000000000 C
   0.6229800000000000    0.5512000000000000    0.4412400000000000 C
   0.5595599999999999    0.5240100000000000    0.4729800000000000 C
   0.5089300000000000    0.5702199999999999    0.5323300000000000 C
   0.5500600000000000    0.4536600000000000    0.4409500000000000 C
   0.3420700000000000    0.3488300000000000    0.4945900000000000 C
   0.3082500000000000    0.4653300000000000    0.3982600000000000 C
   0.3297200000000000    0.5105800000000000    0.4379300000000000 C
   0.3770100000000000    0.4488300000000000    0.5587299999999999 C
   0.4404400000000000    0.4760200000000000    0.5269900000000000 C
   0.4910700000000000    0.4298100000000000    0.4676400000000000 C
   0.4499400000000000    0.5463700000000000    0.5590200000000000 C
   0.6841600000000000    0.6355300000000000    0.5657200000000000 N
   0.6487400000000000    0.5643500000000000    0.5009400000000001 N
   0.3158400000000000    0.3644900000000000    0.4342500000000000 N
   0.3512600000000000    0.4356800000000000    0.4990300000000000 N
