H4 O2
1.0
  21.1888668055021547    0.0000000000000000    6.6836702116942366
   4.6284676755929892   12.9943551200721608    3.8490340332926727
   0.0000000000000000    0.0000000000000000   18.3730000000000011
H O
4 2
direct
   0.3351202174590280    0.3529792029962494    0.4786025856453585 H
   0.3104734961893957    0.4357888464112437    0.4088032974777800 H
   0.6648797825409720    0.6470407970037507    0.5213674143546416 H
   0.6895265038106043    0.5642311535887563    0.5911667025222199 H
   0.3158400000000000    0.3644900000000000    0.4342500000000000 O
   0.6841600000000000    0.6355300000000000    0.5657200000000000 O
