H2 C8 O4
1.0
  32.6846384552008331    0.0000000000000000   18.5667043131732719
   5.3662014942962868   15.3422865696917192    9.2995268877545296
   0.0000000000000000    0.0000000000000000   37.4480000000000004
H C O
2 8 4
direct
   0.1593250000000000    0.0892500000000000    0.8980100000000000 H
   0.0451750000000000    0.3204600000000000    0.8974650000000000 H
   0.1622750000000000    0.2201700000000000    0.8637049999999999 C
   0.1419300000000000    0.1590000000000000    0.8892700000000000 C
   0.1105450000000000    0.3249200000000000    0.8634649999999999 C
   0.0797900000000000    0.2848400000000000    0.8889800000000000 C
   0.1541800000000000    0.3077700000000000    0.8458100000000000 C
   0.0961450000000000    0.1927500000000000    0.9038500000000000 C
   0.0679850000000000    0.1367300000000000    0.9320200000000001 C
   0.1822350000000000    0.3636800000000000    0.8177050000000000 C
   0.0874050000000000    1.0545499999999999    0.9428250000000000 O
   0.2228550000000000    0.3237000000000000    0.8072900000000001 O
   0.0271350000000000    0.1760800000000000    0.9426900000000000 O
   0.1624550000000000    0.4454000000000000    0.8071999999999999 O
