H9 O6
1.0
  14.0133967129489463    0.0000000000000000    0.3963250755524618
   0.1753570080026163   13.1297800960089486   -6.4168800479821666
   0.0000000000000000    0.0000000000000000   16.6709999999999994
H O
9 6
direct
   0.3390388227151673    0.0746225410485080    0.6501291615593795 H
   0.3173387273615699    0.8371758358029494    0.4011031380408858 H
   0.3233632310955500    0.9529424580416366    0.5244652057294873 H
   1.1029757643198621    0.6618897148579632    0.3732876134456259 H
   1.0314288070573219    0.6264527868905525    0.5991758900424367 H
   1.0679527633621635    0.6465597181998941    0.4892936851535261 H
   0.9911384173556222    0.4718366499657909    0.1774201493707847 H
   0.9982318699595493    0.2326746568604581    0.2387804652237716 H
   0.9947922021882802    0.3484808656421101    0.2031201263366261 H
   0.3550400000000000    0.0251600000000000    0.5894700000000000 O
   0.3423600000000000    0.8942200000000000    0.4524500000000000 O
   1.0795599999999999    0.6389200000000000    0.4165900000000000 O
   1.0410200000000001    0.6201400000000000    0.5391000000000000 O
   0.9922700000000000    0.4344100000000000    0.2131500000000000 O
   0.9961800000000000    0.3025800000000000    0.2469400000000000 O
