H12 C12 N4
1.0
  23.4697268690745560    0.0000000000000000   12.1712679984888954
   5.8423127883036399   12.7277984888261759    3.0363509203413623
   0.0000000000000000    0.0000000000000000   28.6739999999999995
H C N
12 12 4
direct
   0.5989650000000000    0.9876700000000000    0.8326549999999999 H
   0.5660849999999999    0.1175000000000000    0.8114350000000000 H
   0.8243950000000000    0.1656600000000000    0.7440500000000000 H
   0.8136150000000000    0.1232500000000000    0.8089900000000000 H
   0.9010000000000000    0.0123500000000000    0.6673750000000001 H
   0.9338949999999999    0.8825000000000000    0.6885749999999999 H
   0.6755850000000000    0.8343200000000000    0.7559899999999999 H
   0.6863650000000000    0.8767100000000000    0.6910450000000000 H
   0.5774300000000000    0.9832000000000000    0.7580850000000000 H
   0.6177900000000001    0.0609700000000000    0.7192650000000000 H
   0.9225500000000000    0.0167700000000000    0.7419450000000000 H
   0.8821950000000001    0.9389900000000000    0.7807550000000000 H
   0.6640850000000000    0.0560600000000000    0.7913250000000001 C
   0.6077650000000000    0.0422600000000000    0.7994150000000000 C
   0.7665200000000000    0.0827400000000000    0.7781549999999999 C
   0.8215399999999999    0.0991600000000000    0.7713449999999999 C
   0.8358950000000001    0.9439300000000000    0.7087000000000000 C
   0.8922150000000000    0.9577300000000000    0.7006050000000000 C
   0.7334650000000000    0.9172300000000000    0.7218750000000000 C
   0.6784350000000000    0.9008200000000000    0.7286900000000001 C
   0.7238200000000000    0.9933900000000000    0.7532500000000000 C
   0.6173400000000000    0.9998200000000000    0.7498650000000000 C
   0.7761549999999999    0.0065700000000000    0.7467600000000000 C
   0.8826400000000000    0.0001600000000000    0.7501599999999999 C
   0.6572900000000000    0.1268900000000000    0.8201849999999999 N
   0.7091400000000000    0.1402800000000000    0.8135450000000000 N
   0.8426850000000000    0.8731400000000000    0.6798200000000000 N
   0.7908400000000000    0.8597200000000000    0.6864700000000000 N
