H6 O4
1.0
  23.6737386560723486    0.0000000000000000   -1.4151869289906218
   1.2103473833766381   28.7705255156147288    0.0392016187808567
   0.0000000000000000    0.0000000000000000   34.9239999999999995
H O
6 4
direct
   0.0082102955919607    0.8944031649640655    0.1593110042465631 H
   0.0083380655092561    0.8132377660214384    0.2532755873083423 H
   0.0084797054891854    0.8501261451952755    0.2058752209743651 H
   0.0052191303653605    0.8303691707819459    0.0861500303653574 H
   0.0051117537451687    0.7487939503392700    0.0738032554382543 H
   0.0022433425152688    0.8130721282229367    0.4171555766491220 H
   0.0074100000000000    0.8874350000000000    0.1864500000000000 O
   0.0075200000000000    0.8417700000000000    0.2384200000000000 O
   0.0054500000000000    0.8256800000000000    0.0586600000000000 O
   0.0053600000000000    0.7497700000000000    0.0460500000000000 O
