H4 O2
1.0
  23.6737386560723486    0.0000000000000000   -1.4151869289906218
   1.2103473833766381   28.7705255156147288    0.0392016187808567
   0.0000000000000000    0.0000000000000000   34.9239999999999995
H O
4 2
direct
   0.6251559186907881    0.6840673299640985    0.4855734245771501 H
   0.6283238493421743    0.6850382123580163    0.5337852918431694 H
   0.8822946585057980    0.6693124988021381    0.4896666556467371 H
   0.8846980555297740    0.7028849662554308    0.5290746450255767 H
   0.6056100000000000    0.6844200000000000    0.5094750000000000 O
   0.9045000000000000    0.6865300000000000    0.5089600000000000 O
