H4 O2
1.0
  29.0511718561710168    0.0000000000000000   -2.8228988262453010
  -0.0166874959800490   33.7539958544056731   -0.0011782368711919
   0.0000000000000000    0.0000000000000000   34.9179999999999993
H O
4 2
direct
   0.3171054528143405    0.3893745887065534    0.4615533253921749 H
   0.2840082154729687    0.3913041934591526    0.4233877983667366 H
   0.0730865533903209    0.5448322111639967    0.3718341228450930 H
   0.0275148338451734    0.5220485535760170    0.3578410353721285 H
   0.3143850000000000    0.3823000000000000    0.4342500000000000 O
   0.0408650000000000    0.5484950000000000    0.3618750000000000 O
