H14 C10 N4
1.0
  29.0511718561710168    0.0000000000000000   -2.8228988262453010
  -0.0166874959800490   33.7539958544056731   -0.0011782368711919
   0.0000000000000000    0.0000000000000000   34.9179999999999993
H C N
14 10 4
direct
   0.1826900000000000    0.4136250000000000    0.4615250000000000 H
   0.1893350000000000    0.4189150000000000    0.4123200000000000 H
   0.2263450000000000    0.4872750000000000    0.4274150000000000 H
   0.2129750000000000    0.4816300000000000    0.4754700000000000 H
   0.3484700000000000    0.3843900000000000    0.4918000000000000 H
   0.2590900000000000    0.3911200000000000    0.3896900000000000 H
   0.1277200000000000    0.4734900000000000    0.4494200000000000 H
   0.1399000000000000    0.4571150000000000    0.3806950000000000 H
   0.0548200000000000    0.4512650000000000    0.3655150000000000 H
   0.1518550000000000    0.5210150000000000    0.4438000000000000 H
   0.1651750000000000    0.5000000000000000    0.3753650000000000 H
   0.1096900000000000    0.5668550000000000    0.3822550000000000 H
   0.9866200000000001    0.5072250000000000    0.3440050000000000 H
   0.2676050000000000    0.4221100000000000    0.5078200000000000 H
   0.2034600000000000    0.4284150000000000    0.4411300000000000 C
   0.2017850000000000    0.4735000000000000    0.4454500000000000 C
   0.3182400000000000    0.3923250000000000    0.4729400000000000 C
   0.2786200000000000    0.4110450000000000    0.4811000000000000 C
   0.2729400000000000    0.3945850000000000    0.4194300000000000 C
   0.1532600000000000    0.4899500000000000    0.4343650000000000 C
   0.1403750000000000    0.4878550000000000    0.3908000000000000 C
   0.0552150000000000    0.4833300000000000    0.3665900000000000 C
   0.0219350000000000    0.5109950000000000    0.3561550000000000 C
   0.0848500000000000    0.5434950000000000    0.3754700000000000 C
   0.2502050000000000    0.4122500000000000    0.4469350000000000 N
   0.3143850000000000    0.3823000000000000    0.4342500000000000 N
   0.0408650000000000    0.5484950000000000    0.3618750000000000 N
   0.0948250000000000    0.5043700000000000    0.3787900000000000 N
