H10 C18 O10
1.0
  29.0511718561710168    0.0000000000000000   -2.8228988262453010
  -0.0166874959800490   33.7539958544056731   -0.0011782368711919
   0.0000000000000000    0.0000000000000000   34.9179999999999993
H C O
10 18 10
direct
   0.1008450000000000    0.0343000000000000    0.7885249999999999 H
   0.0167700000000000    0.0330550000000000    0.7783900000000000 H
   0.1962050000000000    0.1039500000000000    0.7306200000000000 H
   0.0671400000000000    0.0690200000000000    0.6700349999999999 H
   0.9525450000000000    0.0116750000000000    0.7302299999999999 H
   0.0474450000000000    0.9883050000000000    0.7697750000000000 H
   0.8991500000000000    0.9656800000000000    0.7114800000000000 H
   0.9832200000000000    0.9669250000000000    0.7216200000000000 H
   0.8037900000000000    0.8960300000000000    0.7693850000000000 H
   0.9328500000000000    0.9309700000000001    0.8299750000000000 H
   0.1467850000000000    0.1098300000000000    0.6614400000000000 C
   0.1091050000000000    0.0491350000000000    0.7624200000000000 C
   0.0796400000000000    0.0481500000000000    0.7283400000000000 C
   0.0224900000000000    0.0101450000000000    0.7569650000000000 C
   0.1633150000000000    0.0888150000000000    0.7302950000000000 C
   0.0912900000000000    0.0686950000000000    0.6957900000000000 C
   0.1508750000000000    0.0699100000000000    0.7633650000000001 C
   0.1820200000000000    0.0719000000000000    0.8003500000000000 C
   0.1333150000000000    0.0885650000000000    0.6964550000000000 C
   0.8908900000000000    0.9508449999999999    0.7375849999999999 C
   0.9203550000000000    0.9518300000000000    0.7716650000000000 C
   0.9775000000000000    0.9898350000000000    0.7430400000000000 C
   0.8366800000000000    0.9111600000000000    0.7697050000000000 C
   0.9087000000000001    0.9312849999999999    0.8042150000000000 C
   0.8491150000000001    0.9300700000000000    0.7366400000000000 C
   0.8179700000000000    0.9280850000000000    0.6996200000000000 C
   0.8666750000000000    0.9114200000000000    0.8035500000000000 C
   0.8532000000000000    0.8901550000000000    0.8385650000000000 C
   0.2187000000000000    0.0936200000000000    0.7982899999999999 O
   0.0387000000000000    0.0281450000000000    0.7235900000000000 O
   0.1873300000000000    0.1215000000000000    0.6500000000000000 O
   0.1721000000000000    0.0541150000000000    0.8298099999999999 O
   0.1141450000000000    0.1147050000000000    0.6334850000000000 O
   0.7812950000000001    0.9063650000000000    0.7017000000000000 O
   0.9612849999999999    0.9718450000000001    0.7764150000000001 O
   0.8126599999999999    0.8784799999999999    0.8400050000000000 O
   0.8278900000000000    0.9458700000000000    0.6701950000000000 O
   0.8858400000000000    0.8852800000000001    0.8665200000000000 O
