H8 O6
1.0
  29.0511718561710168    0.0000000000000000   -2.8228988262453010
  -0.0166874959800490   33.7539958544056731   -0.0011782368711919
   0.0000000000000000    0.0000000000000000   34.9179999999999993
H O
8 6
direct
   0.8087965496993009    0.9226522163454347    0.7001402665746546 H
   0.9170546321002104    0.8952913055465537    0.8670833080138047 H
   0.7853265276131864    0.8812543768709477    0.8220699467986549 H
   0.8463572477212422    0.8892875418583257    0.8406131099922498 H
   0.1911952565625430    0.0773331126646247    0.7998347047841101 H
   0.0857202112645681    0.1027888294539528    0.6401311659407565 H
   0.2153509516543100    0.1167617400060606    0.6666566476926368 H
   0.1547447693694171    0.1078396991587031    0.6576189431697947 H
   0.7812950000000001    0.9063650000000000    0.7017000000000000 O
   0.8858400000000000    0.8852800000000001    0.8665200000000000 O
   0.8126599999999999    0.8784799999999999    0.8400050000000000 O
   0.2187000000000000    0.0936200000000000    0.7982899999999999 O
   0.1141450000000000    0.1147050000000000    0.6334850000000000 O
   0.1873300000000000    0.1215000000000000    0.6500000000000000 O
