H4 C8 O4
1.0
  31.9621899834977015    0.0000000000000000   18.2671565236300317
  10.6091442931621351   30.1926559180329939   18.2330965549500839
   0.0000000000000000    0.0000000000000000   36.8220000000000027
H C O
4 8 4
direct
   0.9659000000000000    0.7258900000000000    0.0821100000000000 H
   0.9178400000000000    0.7741700000000000    0.0340200000000000 H
   0.0821700000000000    0.7258300000000000    0.9659750000000000 H
   0.0341100000000000    0.7741100000000001    0.9178850000000001 H
   0.0554300000000000    0.6943000000000000    0.0554450000000000 C
   0.0267900000000000    0.7230650000000001    0.0268000000000000 C
   0.9804550000000001    0.7366400000000000    0.0461400000000000 C
   0.9538350000000000    0.7633850000000000    0.0195000000000000 C
   0.0461750000000000    0.7366100000000000    0.9804900000000000 C
   0.0195550000000000    0.7633550000000000    0.9538550000000000 C
   0.9445800000000000    0.8057000000000001    0.9445500000000000 C
   0.9732200000000000    0.7769300000000000    0.9731500000000000 C
   0.0973250000000000    0.6832300000000000    0.0356700000000000 O
   0.0356350000000000    0.6831400000000000    0.0973100000000000 O
   0.9026850000000000    0.8167700000000000    0.9643250000000000 O
   0.9643750000000000    0.8168550000000000    0.9026850000000000 O
