Cd16 H222 C341 N62 O65
1.0
  17.0049995622883756    0.0000000000000000   -0.0038583120778170
  -3.7383628922418990   18.3582369854212608   -0.0016349371747293
   0.0000000000000000    0.0000000000000000   38.7359999999999971
Cd H C N O
16 222 341 62 65
direct
   0.8472900000000000    0.5069399999999999    0.2786550000000000 Cd
   0.8473600000000000    0.0069200000000000    0.4714000000000000 Cd
   0.1525300000000000    0.4930500000000000    0.7213950000000000 Cd
   0.1525500000000000    0.9930900000000000    0.5286550000000000 Cd
   0.8472900000000000    0.5069399999999999    0.7786550000000000 Cd
   0.8473600000000000    0.0069200000000000    0.9714000000000000 Cd
   0.1525300000000000    0.4930500000000000    0.2213950000000000 Cd
   0.1525500000000000    0.9930900000000000    0.0286550000000000 Cd
   0.6525600000000000    0.4930700000000000    0.7213950000000000 Cd
   0.6525100000000000    0.9930800000000000    0.5286500000000000 Cd
   0.3473200000000000    0.5069700000000000    0.2786550000000000 Cd
   0.3473200000000000    0.0069400000000000    0.4714000000000000 Cd
   0.3473200000000000    0.5069700000000000    0.7786550000000000 Cd
   0.3473200000000000    0.0069400000000000    0.9714000000000000 Cd
   0.6525600000000000    0.4930700000000000    0.2213950000000000 Cd
   0.6525100000000000    0.9930800000000000    0.0286500000000000 Cd
   0.7716700000000000    0.6105400000000000    0.3294450000000000 H
   0.6022600000000000    0.7936900000000000    0.3347550000000000 H
   0.5751800000000000    0.6980499999999999    0.2887400000000000 H
   0.6472800000000000    0.8820300000000000    0.3695900000000000 H
   0.8166000000000000    0.7537000000000000    0.4049350000000000 H
   0.8587200000000000    0.8475400000000000    0.4504850000000000 H
   0.6979000000000000    0.9707600000000000    0.4157750000000000 H
   0.8863200000000000    0.6826900000000000    0.3614050000000000 H
   0.1245000000000000    0.6626500000000000    0.4292350000000000 H
   0.0765800000000000    0.5692500000000000    0.3833150000000000 H
   0.1229000000000000    0.7222800000000000    0.4787050000000000 H
   0.9918600000000000    0.8555199999999999    0.4194550000000000 H
   0.0367300000000000    0.9550800000000000    0.4614000000000000 H
   0.1617200000000000    0.8268100000000000    0.5187850000000001 H
   0.7717000000000001    0.1105400000000000    0.4205950000000000 H
   0.6022800000000000    0.2936900000000000    0.4152950000000000 H
   0.5751700000000000    0.1980000000000000    0.4612750000000000 H
   0.6472700000000000    0.3820400000000000    0.3804700000000000 H
   0.8165700000000000    0.2537000000000000    0.3451000000000000 H
   0.8586200000000000    0.3475100000000000    0.2995800000000000 H
   0.6978400000000000    0.4707400000000000    0.3342850000000000 H
   0.1227900000000000    0.2222100000000000    0.2713700000000000 H
   0.9918100000000000    0.3555200000000000    0.3305900000000000 H
   0.1616400000000000    0.3267000000000000    0.2312750000000000 H
   0.0366800000000000    0.4550400000000000    0.2886200000000000 H
   0.1243800000000000    0.1625900000000000    0.3208050000000000 H
   0.0764400000000000    0.0691800000000000    0.3667000000000000 H
   0.8863300000000000    0.1827400000000000    0.3886550000000000 H
   0.2281900000000000    0.3895100000000000    0.6706200000000000 H
   0.3975400000000000    0.2063100000000000    0.6653400000000000 H
   0.4247100000000000    0.3020300000000000    0.7113150000000000 H
   0.3525900000000000    0.1180300000000000    0.6304900000000000 H
   0.1832500000000000    0.2463200000000000    0.5951200000000000 H
   0.1412700000000000    0.1525200000000000    0.5495400000000000 H
   0.3020600000000000    0.0293200000000000    0.5842849999999999 H
   0.1135900000000000    0.3172800000000000    0.6386200000000000 H
   0.8753400000000000    0.3373800000000000    0.5708450000000000 H
   0.9233200000000000    0.4307400000000000    0.6167750000000000 H
   0.8768899999999999    0.2777000000000000    0.5213500000000000 H
   0.0080200000000000    0.1445200000000000    0.5805899999999999 H
   0.8381999999999999    0.1732000000000000    0.4812400000000000 H
   0.9631700000000000    0.0449400000000000    0.5386250000000000 H
   0.2282000000000000    0.8894800000000000    0.5794550000000001 H
   0.3975900000000000    0.7063199999999999    0.5847500000000000 H
   0.4246700000000000    0.8019700000000000    0.5387550000000000 H
   0.3526100000000000    0.6179900000000000    0.6195950000000000 H
   0.1833300000000000    0.7463500000000000    0.6549300000000000 H
   0.1412300000000000    0.6525200000000000    0.7004650000000000 H
   0.3019900000000000    0.5292600000000000    0.6657600000000000 H
   0.1135600000000000    0.8172100000000000    0.6114150000000000 H
   0.8755100000000000    0.8374500000000000    0.6792500000000000 H
   0.9235000000000000    0.9308500000000000    0.6333500000000000 H
   0.8770300000000000    0.7777800000000000    0.7286900000000001 H
   0.0080500000000000    0.6444700000000000    0.6694950000000000 H
   0.9631400000000000    0.5449500000000000    0.7114549999999999 H
   0.8381400000000000    0.6732900000000001    0.7687750000000000 H
   0.7716700000000000    0.6105400000000000    0.8294450000000000 H
   0.6022600000000000    0.7936900000000000    0.8347550000000000 H
   0.5751800000000000    0.6980499999999999    0.7887400000000000 H
   0.6472800000000000    0.8820300000000000    0.8695900000000000 H
   0.8166000000000000    0.7537000000000000    0.9049350000000000 H
   0.8587200000000000    0.8475400000000000    0.9504850000000000 H
   0.6979000000000000    0.9707600000000000    0.9157750000000000 H
   0.8863200000000000    0.6826900000000000    0.8614050000000000 H
   0.1245000000000000    0.6626500000000000    0.9292350000000000 H
   0.0765800000000000    0.5692500000000000    0.8833150000000001 H
   0.1229000000000000    0.7222800000000000    0.9787049999999999 H
   0.9918600000000000    0.8555199999999999    0.9194550000000000 H
   0.0367300000000000    0.9550800000000000    0.9614000000000000 H
   0.1617200000000000    0.8268100000000000    0.0187850000000000 H
   0.7717000000000001    0.1105400000000000    0.9205950000000001 H
   0.6022800000000000    0.2936900000000000    0.9152950000000000 H
   0.5751700000000000    0.1980000000000000    0.9612750000000000 H
   0.6472700000000000    0.3820400000000000    0.8804700000000000 H
   0.8165700000000000    0.2537000000000000    0.8451000000000000 H
   0.8586200000000000    0.3475100000000000    0.7995800000000000 H
   0.6978400000000000    0.4707400000000000    0.8342849999999999 H
   0.1227900000000000    0.2222100000000000    0.7713700000000000 H
   0.9918100000000000    0.3555200000000000    0.8305899999999999 H
   0.1616400000000000    0.3267000000000000    0.7312750000000000 H
   0.0366800000000000    0.4550400000000000    0.7886200000000000 H
   0.1243800000000000    0.1625900000000000    0.8208050000000000 H
   0.0764400000000000    0.0691800000000000    0.8667000000000000 H
   0.8863300000000000    0.1827400000000000    0.8886550000000000 H
   0.2281900000000000    0.3895100000000000    0.1706200000000000 H
   0.3975400000000000    0.2063100000000000    0.1653400000000000 H
   0.4247100000000000    0.3020300000000000    0.2113150000000000 H
   0.3525900000000000    0.1180300000000000    0.1304900000000000 H
   0.1832500000000000    0.2463200000000000    0.0951200000000000 H
   0.1412700000000000    0.1525200000000000    0.0495400000000000 H
   0.3020600000000000    0.0293200000000000    0.0842850000000000 H
   0.1135900000000000    0.3172800000000000    0.1386200000000000 H
   0.8753400000000000    0.3373800000000000    0.0708450000000000 H
   0.9233200000000000    0.4307400000000000    0.1167750000000000 H
   0.8768899999999999    0.2777000000000000    0.0213500000000000 H
   0.0080200000000000    0.1445200000000000    0.0805900000000000 H
   0.8381999999999999    0.1732000000000000    0.9812400000000000 H
   0.9631700000000000    0.0449400000000000    0.0386250000000000 H
   0.2282000000000000    0.8894800000000000    0.0794550000000000 H
   0.3975900000000000    0.7063199999999999    0.0847500000000000 H
   0.4246700000000000    0.8019700000000000    0.0387550000000000 H
   0.3526100000000000    0.6179900000000000    0.1195950000000000 H
   0.1833300000000000    0.7463500000000000    0.1549300000000000 H
   0.1412300000000000    0.6525200000000000    0.2004650000000000 H
   0.3019900000000000    0.5292600000000000    0.1657600000000000 H
   0.1135600000000000    0.8172100000000000    0.1114150000000000 H
   0.8755100000000000    0.8374500000000000    0.1792500000000000 H
   0.9235000000000000    0.9308500000000000    0.1333500000000000 H
   0.8770300000000000    0.7777800000000000    0.2286900000000000 H
   0.0080500000000000    0.6444700000000000    0.1694950000000000 H
   0.9631400000000000    0.5449500000000000    0.2114550000000000 H
   0.8381400000000000    0.6732900000000001    0.2687750000000000 H
   0.3034106026536779    0.8694240104053599    0.9327254129594169 H
   0.2384818023001042    0.9194256608434404    0.9185943047870812 H
   0.7282300000000000    0.3895000000000000    0.6705950000000001 H
   0.8975900000000000    0.2063100000000000    0.6652950000000000 H
   0.9246500000000000    0.3019200000000000    0.7113250000000000 H
   0.8525900000000000    0.1179900000000000    0.6304650000000001 H
   0.6832400000000000    0.2462900000000000    0.5951050000000000 H
   0.6411900000000000    0.1524600000000000    0.5495500000000000 H
   0.8020200000000000    0.0292700000000000    0.5842700000000000 H
   0.6135900000000000    0.3173300000000000    0.6386300000000000 H
   0.3753300000000000    0.3373500000000000    0.5708600000000000 H
   0.4232700000000000    0.4307100000000000    0.6167899999999999 H
   0.3769600000000000    0.2777500000000000    0.5213600000000000 H
   0.5080300000000000    0.1445200000000000    0.5805850000000000 H
   0.3382200000000000    0.1732600000000000    0.4812500000000000 H
   0.4631800000000000    0.0449600000000000    0.5386150000000000 H
   0.7282500000000000    0.8895300000000000    0.5794400000000000 H
   0.8976300000000000    0.7063600000000000    0.5847800000000000 H
   0.9247200000000000    0.8019800000000000    0.5387500000000000 H
   0.8525900000000000    0.6180300000000000    0.6195650000000000 H
   0.6832900000000000    0.7463300000000000    0.6549250000000000 H
   0.6412600000000001    0.6525200000000000    0.7004700000000000 H
   0.8020500000000000    0.5293099999999999    0.6657450000000000 H
   0.6136500000000000    0.8173300000000000    0.6114650000000000 H
   0.3754600000000000    0.8374100000000000    0.6792199999999999 H
   0.4234000000000000    0.9307700000000000    0.6333100000000000 H
   0.3769900000000000    0.7777600000000000    0.7286800000000000 H
   0.5080500000000000    0.6445100000000000    0.6694750000000000 H
   0.4631700000000000    0.5449600000000000    0.7114199999999999 H
   0.3382100000000000    0.6732700000000000    0.7687800000000000 H
   0.2716900000000000    0.6105300000000000    0.3294000000000000 H
   0.1023000000000000    0.7936800000000001    0.3347750000000000 H
   0.0751100000000000    0.6980200000000000    0.2887500000000000 H
   0.1473500000000000    0.8819900000000001    0.3695600000000000 H
   0.3166400000000000    0.7536900000000000    0.4049600000000000 H
   0.3586700000000000    0.8475300000000000    0.4505150000000000 H
   0.1978900000000000    0.9707300000000000    0.4157500000000000 H
   0.3862700000000000    0.6826800000000000    0.3614400000000000 H
   0.6245200000000000    0.6626500000000000    0.4292200000000000 H
   0.5765800000000000    0.5692900000000000    0.3832850000000000 H
   0.6229200000000000    0.7222900000000000    0.4787050000000000 H
   0.4918800000000000    0.8555199999999999    0.4194650000000000 H
   0.5366900000000000    0.9550700000000000    0.4614400000000000 H
   0.6616500000000000    0.8267800000000000    0.5188150000000000 H
   0.2717300000000000    0.1105700000000000    0.4205950000000000 H
   0.1022600000000000    0.2936800000000000    0.4152700000000000 H
   0.0751800000000000    0.1980200000000000    0.4612650000000000 H
   0.1473000000000000    0.3820500000000000    0.3804550000000000 H
   0.3165500000000000    0.2536800000000000    0.3451050000000000 H
   0.3586600000000000    0.3475200000000000    0.2995750000000000 H
   0.1979000000000000    0.4707700000000000    0.3342800000000000 H
   0.3863000000000000    0.1827100000000000    0.3886200000000000 H
   0.6244300000000000    0.1625800000000000    0.3208300000000000 H
   0.5764899999999999    0.0692200000000000    0.3667500000000000 H
   0.6228399999999999    0.2222100000000000    0.2713650000000000 H
   0.4918100000000000    0.3554700000000000    0.3305700000000000 H
   0.5366400000000000    0.4550000000000000    0.2886050000000000 H
   0.6615799999999999    0.3266600000000000    0.2312450000000000 H
   0.3862700000000000    0.6826800000000000    0.8614400000000000 H
   0.6245200000000000    0.6626500000000000    0.9292199999999999 H
   0.5765800000000000    0.5692900000000000    0.8832850000000000 H
   0.6229200000000000    0.7222900000000000    0.9787049999999999 H
   0.4918800000000000    0.8555199999999999    0.9194650000000000 H
   0.5366900000000000    0.9550700000000000    0.9614400000000001 H
   0.6616500000000000    0.8267800000000000    0.0188150000000000 H
   0.0638642721326031    0.6149646886808919    0.7542046185374695 H
   0.2595035218546159    0.5470064734693428    0.7903304737717924 H
   0.1622110487433620    0.5838345897657117    0.7740015667920443 H
   0.2717300000000000    0.1105700000000000    0.9205950000000001 H
   0.1022600000000000    0.2936800000000000    0.9152700000000000 H
   0.0751800000000000    0.1980200000000000    0.9612650000000000 H
   0.1473000000000000    0.3820500000000000    0.8804550000000000 H
   0.3165500000000000    0.2536800000000000    0.8451050000000000 H
   0.3586600000000000    0.3475200000000000    0.7995749999999999 H
   0.1979000000000000    0.4707700000000000    0.8342800000000000 H
   0.3863000000000000    0.1827100000000000    0.8886200000000000 H
   0.6244300000000000    0.1625800000000000    0.8208299999999999 H
   0.5764899999999999    0.0692200000000000    0.8667500000000000 H
   0.6228399999999999    0.2222100000000000    0.7713650000000001 H
   0.4918100000000000    0.3554700000000000    0.8305700000000000 H
   0.5366400000000000    0.4550000000000000    0.7886050000000000 H
   0.6615799999999999    0.3266600000000000    0.7312450000000000 H
   0.7282300000000000    0.3895000000000000    0.1705950000000000 H
   0.8975900000000000    0.2063100000000000    0.1652950000000000 H
   0.9246500000000000    0.3019200000000000    0.2113250000000000 H
   0.8525900000000000    0.1179900000000000    0.1304650000000000 H
   0.6832400000000000    0.2462900000000000    0.0951050000000000 H
   0.6411900000000000    0.1524600000000000    0.0495500000000000 H
   0.8020200000000000    0.0292700000000000    0.0842700000000000 H
   0.6135900000000000    0.3173300000000000    0.1386300000000000 H
   0.3753300000000000    0.3373500000000000    0.0708600000000000 H
   0.4232700000000000    0.4307100000000000    0.1167900000000000 H
   0.3769600000000000    0.2777500000000000    0.0213600000000000 H
   0.5080300000000000    0.1445200000000000    0.0805850000000000 H
   0.3382200000000000    0.1732600000000000    0.9812500000000000 H
   0.4631800000000000    0.0449600000000000    0.0386150000000000 H
   0.7282500000000000    0.8895300000000000    0.0794400000000000 H
   0.8976300000000000    0.7063600000000000    0.0847800000000000 H
   0.9247200000000000    0.8019800000000000    0.0387500000000000 H
   0.8525900000000000    0.6180300000000000    0.1195650000000000 H
   0.6832900000000000    0.7463300000000000    0.1549250000000000 H
   0.6412600000000001    0.6525200000000000    0.2004700000000000 H
   0.8020500000000000    0.5293099999999999    0.1657450000000000 H
   0.6136500000000000    0.8173300000000000    0.1114650000000000 H
   0.3754600000000000    0.8374100000000000    0.1792200000000000 H
   0.4234000000000000    0.9307700000000000    0.1333100000000000 H
   0.3769900000000000    0.7777600000000000    0.2286800000000000 H
   0.5080500000000000    0.6445100000000000    0.1694750000000000 H
   0.4631700000000000    0.5449600000000000    0.2114200000000000 H
   0.3382100000000000    0.6732700000000000    0.2687800000000000 H
   0.6632700000000000    0.5914100000000000    0.2768500000000000 C
   0.7327399999999999    0.6502599999999999    0.3298300000000000 C
   0.7035900000000000    0.7531200000000000    0.3557800000000000 C
   0.6398600000000000    0.7531300000000000    0.3326700000000000 C
   0.6241700000000000    0.6998600000000000    0.3070750000000000 C
   0.6723400000000000    0.6475100000000000    0.3049500000000000 C
   0.6945600000000000    0.8714499999999999    0.3866500000000000 C
   0.7877400000000000    0.8003600000000000    0.4067500000000000 C
   0.8121000000000000    0.8528100000000000    0.4318900000000000 C
   0.7226000000000000    0.9218000000000000    0.4124650000000000 C
   0.7275900000000000    0.8088800000000000    0.3831150000000000 C
   0.9483400000000000    0.5664700000000000    0.3397250000000000 C
   0.9394800000000000    0.6768600000000000    0.3759850000000000 C
   0.0289300000000000    0.7214699999999999    0.4193900000000000 C
   0.0708200000000000    0.6648900000000000    0.4142400000000000 C
   0.0449200000000000    0.6132100000000000    0.3886750000000000 C
   0.9778900000000000    0.6188600000000000    0.3687700000000000 C
   0.1025700000000000    0.7728800000000000    0.4736700000000000 C
   0.0294200000000000    0.8469500000000000    0.4411950000000000 C
   0.0544000000000000    0.9027200000000000    0.4647300000000000 C
   0.1244400000000000    0.8309700000000000    0.4962850000000000 C
   0.0539600000000000    0.7801700000000000    0.4450900000000000 C
   0.6632900000000000    0.0913800000000000    0.4731500000000000 C
   0.7327600000000000    0.1502600000000000    0.4202100000000000 C
   0.7036000000000000    0.2531300000000000    0.3942800000000000 C
   0.6398700000000000    0.2531200000000000    0.4173750000000000 C
   0.6241700000000000    0.1998300000000000    0.4429500000000000 C
   0.6723600000000000    0.1474900000000000    0.4450500000000000 C
   0.6945500000000000    0.3714500000000000    0.3634100000000000 C
   0.7877100000000000    0.3003600000000000    0.3432750000000000 C
   0.8120300000000000    0.3527900000000000    0.3181700000000000 C
   0.7225500000000000    0.4217900000000000    0.3375950000000000 C
   0.7275800000000000    0.3088800000000000    0.3669450000000000 C
   0.9483200000000001    0.0664400000000000    0.4102950000000000 C
   0.1025000000000000    0.2728200000000000    0.2764000000000000 C
   0.0293800000000000    0.3469300000000000    0.3088600000000000 C
   0.1243700000000000    0.3308900000000000    0.2537700000000000 C
   0.0543500000000000    0.4026700000000000    0.2853000000000000 C
   0.0538900000000000    0.2801400000000000    0.3049700000000000 C
   0.0707100000000000    0.1648400000000000    0.3357950000000000 C
   0.0448000000000000    0.1131600000000000    0.3610000000000000 C
   0.9394500000000000    0.1768700000000000    0.3740650000000000 C
   0.0288600000000000    0.2214600000000000    0.3306650000000000 C
   0.9778300000000000    0.1188500000000000    0.3812650000000000 C
   0.3366100000000000    0.4086400000000000    0.7232050000000000 C
   0.2671100000000000    0.3497900000000000    0.6702350000000000 C
   0.2962300000000000    0.2469000000000000    0.6443050000000000 C
   0.3599600000000000    0.2468900000000000    0.6674100000000001 C
   0.3757000000000000    0.3002000000000000    0.6929800000000000 C
   0.3275300000000000    0.3525500000000000    0.6951000000000001 C
   0.3053200000000000    0.1286100000000000    0.6134200000000000 C
   0.2121300000000000    0.1996700000000000    0.5932700000000000 C
   0.1878400000000000    0.1472500000000000    0.5681500000000000 C
   0.2773400000000000    0.0782700000000000    0.5875950000000000 C
   0.2722600000000000    0.1911500000000000    0.6169550000000000 C
   0.0516000000000000    0.4335100000000000    0.6603250000000001 C
   0.0604000000000000    0.3231200000000000    0.6240550000000000 C
   0.9709000000000000    0.2785300000000000    0.5806650000000000 C
   0.9290200000000000    0.3351200000000000    0.5858300000000000 C
   0.9549700000000000    0.3867800000000000    0.6113950000000000 C
   0.0220100000000000    0.3811200000000000    0.6312500000000000 C
   0.8972500000000000    0.2271200000000000    0.5263850000000000 C
   0.9704400000000000    0.1530700000000000    0.5588550000000000 C
   0.8754400000000000    0.1690400000000000    0.5000000000000000 C
   0.9454900000000001    0.0973000000000000    0.5353150000000000 C
   0.9458600000000000    0.2198400000000000    0.5549650000000000 C
   0.3365600000000000    0.9086100000000000    0.5268699999999999 C
   0.2671200000000000    0.8497600000000000    0.5798400000000000 C
   0.2963000000000000    0.7469000000000000    0.6057750000000000 C
   0.3600000000000000    0.7468800000000000    0.5826700000000000 C
   0.3756800000000000    0.8001600000000000    0.5570500000000000 C
   0.3275100000000000    0.8525100000000000    0.5549700000000000 C
   0.3053300000000000    0.6285800000000000    0.6366499999999999 C
   0.2121800000000000    0.6996800000000000    0.6567800000000000 C
   0.1878200000000000    0.6472400000000000    0.6818750000000000 C
   0.2773000000000000    0.5782300000000000    0.6624550000000000 C
   0.2723100000000000    0.6911500000000000    0.6331100000000001 C
   0.0516200000000000    0.9335400000000000    0.5897550000000000 C
   0.0604300000000000    0.8231000000000001    0.6260000000000000 C
   0.9710000000000000    0.7785300000000001    0.6693950000000000 C
   0.9291700000000001    0.8351700000000000    0.6642600000000000 C
   0.9551100000000000    0.8868500000000000    0.6387100000000000 C
   0.0220800000000000    0.8811400000000000    0.6187950000000000 C
   0.8973300000000000    0.7271700000000000    0.7236600000000000 C
   0.9704700000000001    0.6530600000000000    0.6912150000000000 C
   0.9454700000000000    0.5973200000000000    0.7147500000000000 C
   0.8754300000000000    0.6691000000000000    0.7462850000000000 C
   0.9459400000000000    0.7198600000000001    0.6950499999999999 C
   0.6632700000000000    0.5914100000000000    0.7768500000000000 C
   0.7327399999999999    0.6502599999999999    0.8298300000000001 C
   0.7035900000000000    0.7531200000000000    0.8557800000000000 C
   0.6398600000000000    0.7531300000000000    0.8326700000000000 C
   0.6241700000000000    0.6998600000000000    0.8070750000000000 C
   0.6723400000000000    0.6475100000000000    0.8049500000000001 C
   0.6945600000000000    0.8714499999999999    0.8866499999999999 C
   0.7877400000000000    0.8003600000000000    0.9067499999999999 C
   0.8121000000000000    0.8528100000000000    0.9318900000000000 C
   0.7226000000000000    0.9218000000000000    0.9124650000000001 C
   0.7275900000000000    0.8088800000000000    0.8831150000000000 C
   0.9483400000000000    0.5664700000000000    0.8397250000000001 C
   0.9394800000000000    0.6768600000000000    0.8759850000000000 C
   0.0289300000000000    0.7214699999999999    0.9193899999999999 C
   0.0708200000000000    0.6648900000000000    0.9142399999999999 C
   0.0449200000000000    0.6132100000000000    0.8886750000000000 C
   0.9778900000000000    0.6188600000000000    0.8687700000000000 C
   0.1025700000000000    0.7728800000000000    0.9736700000000000 C
   0.0294200000000000    0.8469500000000000    0.9411950000000000 C
   0.0544000000000000    0.9027200000000000    0.9647300000000000 C
   0.1244400000000000    0.8309700000000000    0.9962850000000000 C
   0.0539600000000000    0.7801700000000000    0.9450900000000000 C
   0.6632900000000000    0.0913800000000000    0.9731500000000000 C
   0.7327600000000000    0.1502600000000000    0.9202100000000000 C
   0.7036000000000000    0.2531300000000000    0.8942800000000000 C
   0.6398700000000000    0.2531200000000000    0.9173750000000001 C
   0.6241700000000000    0.1998300000000000    0.9429500000000000 C
   0.6723600000000000    0.1474900000000000    0.9450499999999999 C
   0.6945500000000000    0.3714500000000000    0.8634100000000000 C
   0.7877100000000000    0.3003600000000000    0.8432750000000000 C
   0.8120300000000000    0.3527900000000000    0.8181700000000001 C
   0.7225500000000000    0.4217900000000000    0.8375950000000000 C
   0.7275800000000000    0.3088800000000000    0.8669450000000001 C
   0.9483200000000001    0.0664400000000000    0.9102950000000001 C
   0.1025000000000000    0.2728200000000000    0.7764000000000000 C
   0.0293800000000000    0.3469300000000000    0.8088600000000000 C
   0.1243700000000000    0.3308900000000000    0.7537700000000001 C
   0.0543500000000000    0.4026700000000000    0.7853000000000000 C
   0.0538900000000000    0.2801400000000000    0.8049700000000000 C
   0.0707100000000000    0.1648400000000000    0.8357950000000001 C
   0.0448000000000000    0.1131600000000000    0.8610000000000000 C
   0.9394500000000000    0.1768700000000000    0.8740650000000000 C
   0.0288600000000000    0.2214600000000000    0.8306650000000000 C
   0.9778300000000000    0.1188500000000000    0.8812650000000000 C
   0.3366100000000000    0.4086400000000000    0.2232050000000000 C
   0.2671100000000000    0.3497900000000000    0.1702350000000000 C
   0.2962300000000000    0.2469000000000000    0.1443050000000000 C
   0.3599600000000000    0.2468900000000000    0.1674100000000000 C
   0.3757000000000000    0.3002000000000000    0.1929800000000000 C
   0.3275300000000000    0.3525500000000000    0.1951000000000000 C
   0.3053200000000000    0.1286100000000000    0.1134200000000000 C
   0.2121300000000000    0.1996700000000000    0.0932700000000000 C
   0.1878400000000000    0.1472500000000000    0.0681500000000000 C
   0.2773400000000000    0.0782700000000000    0.0875950000000000 C
   0.2722600000000000    0.1911500000000000    0.1169550000000000 C
   0.0516000000000000    0.4335100000000000    0.1603250000000000 C
   0.0604000000000000    0.3231200000000000    0.1240550000000000 C
   0.9709000000000000    0.2785300000000000    0.0806650000000000 C
   0.9290200000000000    0.3351200000000000    0.0858300000000000 C
   0.9549700000000000    0.3867800000000000    0.1113950000000000 C
   0.0220100000000000    0.3811200000000000    0.1312500000000000 C
   0.8972500000000000    0.2271200000000000    0.0263850000000000 C
   0.9704400000000000    0.1530700000000000    0.0588550000000000 C
   0.8754400000000000    0.1690400000000000    0.0000000000000000 C
   0.9454900000000001    0.0973000000000000    0.0353150000000000 C
   0.9458600000000000    0.2198400000000000    0.0549650000000000 C
   0.3365600000000000    0.9086100000000000    0.0268700000000000 C
   0.2671200000000000    0.8497600000000000    0.0798400000000000 C
   0.2963000000000000    0.7469000000000000    0.1057750000000000 C
   0.3600000000000000    0.7468800000000000    0.0826700000000000 C
   0.3756800000000000    0.8001600000000000    0.0570500000000000 C
   0.3275100000000000    0.8525100000000000    0.0549700000000000 C
   0.3053300000000000    0.6285800000000000    0.1366500000000000 C
   0.2121800000000000    0.6996800000000000    0.1567800000000000 C
   0.1878200000000000    0.6472400000000000    0.1818750000000000 C
   0.2773000000000000    0.5782300000000000    0.1624550000000000 C
   0.2723100000000000    0.6911500000000000    0.1331100000000000 C
   0.0516200000000000    0.9335400000000000    0.0897550000000000 C
   0.0604300000000000    0.8231000000000001    0.1260000000000000 C
   0.9710000000000000    0.7785300000000001    0.1693950000000000 C
   0.9291700000000001    0.8351700000000000    0.1642600000000000 C
   0.9551100000000000    0.8868500000000000    0.1387100000000000 C
   0.0220800000000000    0.8811400000000000    0.1187950000000000 C
   0.8973300000000000    0.7271700000000000    0.2236600000000000 C
   0.9704700000000001    0.6530600000000000    0.1912150000000000 C
   0.9454700000000000    0.5973200000000000    0.2147500000000000 C
   0.8754300000000000    0.6691000000000000    0.2462850000000000 C
   0.9459400000000000    0.7198600000000001    0.1950500000000000 C
   0.8365800000000000    0.4085900000000000    0.7232050000000000 C
   0.7671400000000000    0.3497600000000000    0.6702000000000000 C
   0.7962700000000000    0.2469000000000000    0.6442700000000000 C
   0.8599900000000000    0.2468700000000000    0.6673800000000000 C
   0.8756800000000000    0.3001400000000000    0.6929750000000000 C
   0.8275200000000000    0.3524900000000000    0.6950950000000000 C
   0.8053100000000000    0.1285700000000000    0.6133999999999999 C
   0.7121200000000000    0.1996400000000000    0.5932550000000000 C
   0.6877900000000000    0.1472000000000000    0.5681450000000000 C
   0.7773099999999999    0.0782200000000000    0.5875800000000000 C
   0.7722700000000000    0.1911300000000000    0.6169300000000000 C
   0.5515800000000000    0.4335400000000000    0.6603300000000000 C
   0.5604100000000000    0.3231600000000000    0.6240600000000001 C
   0.4709400000000000    0.2785400000000000    0.5806750000000001 C
   0.4290300000000000    0.3351100000000000    0.5858449999999999 C
   0.4549500000000000    0.3867800000000000    0.6114100000000000 C
   0.5219800000000000    0.3811400000000000    0.6312949999999999 C
   0.3973000000000000    0.2271600000000000    0.5263900000000000 C
   0.4704700000000000    0.1530900000000000    0.5588500000000000 C
   0.3754600000000000    0.1690800000000000    0.5000000000000000 C
   0.4455000000000000    0.0973300000000000    0.5353100000000000 C
   0.4459100000000000    0.2198600000000000    0.5549650000000000 C
   0.8366300000000000    0.9086200000000000    0.5268600000000000 C