H5 O3
1.0
  17.0049995622883756    0.0000000000000000   -0.0038583120778170
  -3.7383628922418990   18.3582369854212608   -0.0016349371747293
   0.0000000000000000    0.0000000000000000   38.7359999999999971
H O
5 3
direct
   0.3034106026536779    0.8694240104053599    0.9327254129594169 H
   0.2384818023001042    0.9194256608434404    0.9185943047870812 H
   0.0638642721326031    0.6149646886808919    0.7542046185374695 H
   0.2595035218546159    0.5470064734693428    0.7903304737717924 H
   0.1622110487433620    0.5838345897657117    0.7740015667920443 H
   0.2805900000000000    0.9132100000000000    0.9348850000000000 O
   0.1064600000000000    0.5874500000000000    0.7552050000000000 O
   0.2147300000000000    0.5499100000000000    0.7752350000000000 O
