H7 C11 N2 O2
1.0
  17.0049995622883756    0.0000000000000000   -0.0038583120778170
  -3.7383628922418990   18.3582369854212608   -0.0016349371747293
   0.0000000000000000    0.0000000000000000   38.7359999999999971
H C N O
7 11 2 2
direct
   0.0751100000000000    0.6980200000000000    0.7887500000000001 H
   0.1023000000000000    0.7936800000000001    0.8347750000000000 H
   0.2716900000000000    0.6105300000000000    0.8294000000000000 H
   0.1473500000000000    0.8819900000000001    0.8695600000000000 H
   0.1978900000000000    0.9707300000000000    0.9157500000000001 H
   0.3586700000000000    0.8475300000000000    0.9505150000000000 H
   0.3166400000000000    0.7536900000000000    0.9049600000000000 H
   0.1632100000000000    0.5913900000000000    0.7768450000000000 C
   0.1723100000000000    0.6474800000000001    0.8049550000000000 C
   0.1241200000000000    0.6998200000000000    0.8070999999999999 C
   0.1398800000000000    0.7531099999999999    0.8326800000000000 C
   0.2036500000000000    0.7531000000000000    0.8557500000000000 C
   0.2327500000000000    0.6502400000000000    0.8298099999999999 C
   0.2276400000000000    0.8088500000000000    0.8831150000000000 C
   0.1946100000000000    0.8714200000000000    0.8866350000000001 C
   0.2226000000000000    0.9217700000000000    0.9124500000000000 C
   0.3120800000000000    0.8527900000000000    0.9319050000000000 C
   0.2877700000000000    0.8003400000000001    0.9067950000000000 C
   0.2484400000000000    0.7010900000000000    0.8544050000000001 N
   0.2805900000000000    0.9132100000000000    0.9348850000000000 N
   0.2147300000000000    0.5499100000000000    0.7752350000000000 O
   0.1064600000000000    0.5874500000000000    0.7552050000000000 O
