H18 C26 N4
1.0
  30.9329124118216683    0.0000000000000000   -9.4612729573017269
  -3.4949153032120339   13.0101875696959937   -7.0765581623203113
   0.0000000000000000    0.0000000000000000   15.2300000000000004
H C N
18 26 4
direct
   0.2956600000000000    0.6020100000000000    0.9313399999999999 H
   0.2932966666666666    0.0694700000000000    0.9123400000000000 H
   0.3095433333333333    0.2590900000000000    0.0167200000000000 H
   0.2982566666666666    0.2580100000000000    0.7259100000000001 H
   0.2825733333333333    0.0677900000000000    0.6334700000000000 H
   0.2777666666666667    0.4783400000000000    0.7275400000000000 H
   0.2073633333333333    0.4017800000000000    0.5698500000000000 H
   0.1472666666666667    0.2523900000000000    0.6868600000000000 H
   0.2167600000000000    0.3178700000000000    0.8482000000000000 H
   0.3733933333333333    0.9305600000000001    0.0877500000000000 H
   0.3572066666666667    0.7409400000000000    0.9833800000000000 H
   0.3684033333333333    0.7419700000000000    0.2741300000000000 H
   0.3840300000000000    0.9321900000000000    0.3665600000000000 H
   0.3889600000000000    0.5217500000000000    0.2725900000000000 H
   0.4593766666666667    0.5982600000000000    0.4302200000000000 H
   0.5194600000000000    0.7475600000000000    0.3131100000000000 H
   0.4499466666666666    0.6821500000000000    0.1518500000000000 H
   0.3710166666666667    0.3979900000000000    0.0686800000000000 H
   0.3130466666666666    0.5567600000000000    0.9603600000000000 C
   0.2944000000000000    0.1140400000000000    0.8736200000000000 C
   0.3037066666666667    0.2206300000000000    0.9317200000000000 C
   0.3050866666666666    0.2769100000000000    0.8806200000000000 C
   0.2970733333333333    0.2198300000000000    0.7707600000000000 C
   0.2882866666666666    0.1133400000000000    0.7183200000000000 C
   0.3171400000000000    0.3909900000000000    0.9411300000000000 C
   0.2957500000000000    0.4496700000000000    0.9008900000000000 C
   0.2541633333333333    0.4042900000000000    0.8030700000000000 C
   0.2501000000000000    0.4280800000000000    0.7227700000000000 C
   0.2103500000000000    0.3856600000000000    0.6337200000000000 C
   0.1772866666666666    0.3019200000000000    0.6987700000000000 C
   0.2162433333333333    0.3388500000000000    0.7886200000000000 C
   0.3722833333333333    0.8859800000000000    0.1264500000000000 C
   0.3630066666666666    0.7794000000000000    0.0683600000000000 C
   0.3616000000000000    0.7231200000000000    0.1194500000000000 C
   0.3695900000000000    0.7801700000000000    0.2292900000000000 C
   0.3783466666666667    0.8866500000000000    0.2817300000000000 C
   0.3495600000000000    0.6090300000000000    0.0589300000000000 C
   0.3709466666666666    0.5503600000000000    0.0991800000000000 C
   0.4125466666666666    0.5957400000000000    0.1969900000000000 C
   0.4166233333333333    0.5719800000000000    0.2773200000000000 C
   0.4563833333333333    0.6143800000000000    0.3663400000000000 C
   0.4894400000000000    0.6980700000000000    0.3012500000000000 C
   0.4504700000000000    0.6611600000000000    0.2114300000000000 C
   0.3536400000000000    0.4432800000000000    0.0396900000000000 C
   0.2867066666666667    0.0596000000000000    0.7679100000000000 N
   0.1737666666666667    0.3238600000000000    0.6207300000000000 N
   0.3799066666666667    0.9403899999999999    0.2321300000000000 N
   0.4929800000000000    0.6761100000000000    0.3792900000000000 N
