Cu30 H90 C130 I30 N20
1.0
  30.9329124118216683    0.0000000000000000   -9.4612729573017269
  -3.4949153032120339   13.0101875696959937   -7.0765581623203113
   0.0000000000000000    0.0000000000000000   15.2300000000000004
Cu H C I N
30 90 130 30 20
direct
   0.3013233333333333    0.7442000000000000    0.6166500000000000 Cu
   0.2444333333333333    0.7544300000000000    0.7153900000000000 Cu
   0.2158466666666667    0.7388900000000000    0.5170700000000000 Cu
   0.2694633333333333    0.9038600000000000    0.6878400000000000 Cu
   0.0167233333333333    0.4736900000000000    0.4272400000000000 Cu
   0.0322666666666667    0.2562300000000000    0.3837500000000000 Cu
   0.0890700000000000    0.2453500000000000    0.2846500000000000 Cu
   0.1176700000000000    0.2608700000000000    0.4829000000000000 Cu
   0.0636733333333333    0.0961100000000000    0.3121100000000000 Cu
   0.3168066666666667    0.5265200000000000    0.5729600000000000 Cu
   0.6346566666666666    0.7442000000000000    0.6166500000000000 Cu
   0.5777666666666667    0.7544300000000000    0.7153900000000000 Cu
   0.5491800000000000    0.7388900000000000    0.5170700000000000 Cu
   0.6027966666666666    0.9038600000000000    0.6878400000000000 Cu
   0.3500566666666666    0.4736900000000000    0.4272400000000000 Cu
   0.3656000000000000    0.2562300000000000    0.3837500000000000 Cu
   0.4224033333333333    0.2453500000000000    0.2846500000000000 Cu
   0.4510033333333333    0.2608700000000000    0.4829000000000000 Cu
   0.3970066666666666    0.0961100000000000    0.3121100000000000 Cu
   0.6501399999999999    0.5265200000000000    0.5729600000000000 Cu
   0.9679899999999999    0.7442000000000000    0.6166500000000000 Cu
   0.9110999999999999    0.7544300000000000    0.7153900000000000 Cu
   0.8825133333333333    0.7388900000000000    0.5170700000000000 Cu
   0.9361299999999999    0.9038600000000000    0.6878400000000000 Cu
   0.6833899999999999    0.4736900000000000    0.4272400000000000 Cu
   0.6989333333333333    0.2562300000000000    0.3837500000000000 Cu
   0.7557366666666666    0.2453500000000000    0.2846500000000000 Cu
   0.7843366666666667    0.2608700000000000    0.4829000000000000 Cu
   0.7303400000000000    0.0961100000000000    0.3121100000000000 Cu
   0.9834733333333333    0.5265200000000000    0.5729600000000000 Cu
   0.0424766666666667    0.6845100000000000    0.7989200000000000 H
   0.1089133333333333    0.6839300000000000    0.9319100000000000 H
   0.0633166666666667    0.3520500000000000    0.7535800000000000 H
   0.3329666666666666    0.3659400000000000    0.6270000000000000 H
   0.0883700000000000    0.4208400000000000    0.9558500000000000 H
   0.1402466666666667    0.5061900000000000    0.7396500000000000 H
   0.1697700000000000    0.5896400000000001    0.6584600000000000 H
   0.2704866666666667    0.8054000000000000    0.9478300000000000 H
   0.2442133333333333    0.7330100000000001    0.0440200000000000 H
   0.0400600000000000    0.9305600000000001    0.0877500000000000 H
   0.0238733333333333    0.7409400000000000    0.9833800000000000 H
   0.0350700000000000    0.7419700000000000    0.2741300000000000 H
   0.0506966666666667    0.9321900000000000    0.3665600000000000 H
   0.0556266666666667    0.5217500000000000    0.2725900000000000 H
   0.1260433333333333    0.5982600000000000    0.4302200000000000 H
   0.1861266666666667    0.7475600000000000    0.3131100000000000 H
   0.1166133333333333    0.6821500000000000    0.1518500000000000 H
   0.2908533333333333    0.3154900000000000    0.2010800000000000 H
   0.2244066666666667    0.3160100000000000    0.0680800000000000 H
   0.2699466666666667    0.6479100000000000    0.2464300000000000 H
   0.0003033333333333    0.6340600000000000    0.3730500000000000 H
   0.2449266666666667    0.5790500000000000    0.0441100000000000 H
   0.1930733333333333    0.4937600000000000    0.2603100000000000 H
   0.1636100000000000    0.4102500000000000    0.3415300000000000 H
   0.0628766666666667    0.1944500000000000    0.0522100000000000 H
   0.0890933333333333    0.2668800000000000    0.9559800000000001 H
   0.0376833333333333    0.3979900000000000    0.0686800000000000 H
   0.3758100000000000    0.6845100000000000    0.7989200000000000 H
   0.4422466666666666    0.6839300000000000    0.9319100000000000 H
   0.3966499999999999    0.3520500000000000    0.7535800000000000 H
   0.6662999999999999    0.3659400000000000    0.6270000000000000 H
   0.4217033333333333    0.4208400000000000    0.9558500000000000 H
   0.4735800000000000    0.5061900000000000    0.7396500000000000 H
   0.5031033333333333    0.5896400000000001    0.6584600000000000 H
   0.6038200000000000    0.8054000000000000    0.9478300000000000 H
   0.5775466666666667    0.7330100000000001    0.0440200000000000 H
   0.6289933333333333    0.6020100000000000    0.9313399999999999 H
   0.6241866666666667    0.3154900000000000    0.2010800000000000 H
   0.5577400000000000    0.3160100000000000    0.0680800000000000 H
   0.6032800000000000    0.6479100000000000    0.2464300000000000 H
   0.3336366666666666    0.6340600000000000    0.3730500000000000 H
   0.5782600000000000    0.5790500000000000    0.0441100000000000 H
   0.5264066666666667    0.4937600000000000    0.2603100000000000 H
   0.4969433333333333    0.4102500000000000    0.3415300000000000 H
   0.3962100000000000    0.1944500000000000    0.0522100000000000 H
   0.4224266666666666    0.2668800000000000    0.9559800000000001 H
   0.6266300000000000    0.0694700000000000    0.9123400000000000 H
   0.6428766666666665    0.2590900000000000    0.0167200000000000 H
   0.6315899999999999    0.2580100000000000    0.7259100000000001 H
   0.6159066666666666    0.0677900000000000    0.6334700000000000 H
   0.6111000000000000    0.4783400000000000    0.7275400000000000 H
   0.5406966666666666    0.4017800000000000    0.5698500000000000 H
   0.4806000000000000    0.2523900000000000    0.6868600000000000 H
   0.5500933333333333    0.3178700000000000    0.8482000000000000 H
   0.7091433333333332    0.6845100000000000    0.7989200000000000 H
   0.7755799999999999    0.6839300000000000    0.9319100000000000 H
   0.7299833333333333    0.3520500000000000    0.7535800000000000 H
   0.9996333333333333    0.3659400000000000    0.6270000000000000 H
   0.7550366666666666    0.4208400000000000    0.9558500000000000 H
   0.8069133333333333    0.5061900000000000    0.7396500000000000 H
   0.8364366666666666    0.5896400000000001    0.6584600000000000 H
   0.9371533333333333    0.8054000000000000    0.9478300000000000 H
   0.9108799999999999    0.7330100000000001    0.0440200000000000 H
   0.7067266666666666    0.9305600000000001    0.0877500000000000 H
   0.6905399999999999    0.7409400000000000    0.9833800000000000 H
   0.7017366666666667    0.7419700000000000    0.2741300000000000 H
   0.7173633333333334    0.9321900000000000    0.3665600000000000 H
   0.9623266666666666    0.6020100000000000    0.9313399999999999 H
   0.7222933333333333    0.5217500000000000    0.2725900000000000 H
   0.7927100000000000    0.5982600000000000    0.4302200000000000 H
   0.8527933333333333    0.7475600000000000    0.3131100000000000 H
   0.7832800000000000    0.6821500000000000    0.1518500000000000 H
   0.9575199999999999    0.3154900000000000    0.2010800000000000 H
   0.8910733333333333    0.3160100000000000    0.0680800000000000 H
   0.9366133333333333    0.6479100000000000    0.2464300000000000 H
   0.6669700000000000    0.6340600000000000    0.3730500000000000 H
   0.9115933333333333    0.5790500000000000    0.0441100000000000 H
   0.8597399999999999    0.4937600000000000    0.2603100000000000 H
   0.8302766666666666    0.4102500000000000    0.3415300000000000 H
   0.7295433333333333    0.1944500000000000    0.0522100000000000 H
   0.7557600000000000    0.2668800000000000    0.9559800000000001 H
   0.9599633333333333    0.0694700000000000    0.9123400000000000 H
   0.9762099999999999    0.2590900000000000    0.0167200000000000 H
   0.9649233333333332    0.2580100000000000    0.7259100000000001 H
   0.9492400000000000    0.0677900000000000    0.6334700000000000 H
   0.7043499999999999    0.3979900000000000    0.0686800000000000 H
   0.9444333333333332    0.4783400000000000    0.7275400000000000 H
   0.8740300000000000    0.4017800000000000    0.5698500000000000 H
   0.8139333333333333    0.2523900000000000    0.6868600000000000 H
   0.8834266666666666    0.3178700000000000    0.8482000000000000 H
   0.0483066666666667    0.6124800000000000    0.7922600000000000 C
   0.0852933333333333    0.6114800000000000    0.8659900000000000 C
   0.0922100000000000    0.5172600000000001    0.8537200000000000 C
   0.0597100000000000    0.4277500000000000    0.7683600000000000 C
   0.0239633333333333    0.4348400000000000    0.6972000000000000 C
   0.1314766666666667    0.5096800000000000    0.9268500000000000 C
   0.1231733333333333    0.4529500000000000    0.9734300000000000 C
   0.1763033333333333    0.5579100000000000    0.9530300000000000 C
   0.1898166666666667    0.6107200000000000    0.9008100000000000 C
   0.1688333333333333    0.5732200000000000    0.7908400000000000 C
   0.1855733333333333    0.6194400000000000    0.7439600000000000 C
   0.2416000000000000    0.7390600000000001    0.9048700000000000 C
   0.2267400000000000    0.6973900000000000    0.9578700000000000 C
   0.0389500000000000    0.8859800000000000    0.1264500000000000 C
   0.0296733333333333    0.7794000000000000    0.0683600000000000 C
   0.0282666666666667    0.7231200000000000    0.1194500000000000 C
   0.0362566666666667    0.7801700000000000    0.2292900000000000 C
   0.0450133333333333    0.8866500000000000    0.2817300000000000 C
   0.0162266666666667    0.6090300000000000    0.0589300000000000 C
   0.0376133333333333    0.5503600000000000    0.0991800000000000 C
   0.0792133333333333    0.5957400000000000    0.1969900000000000 C
   0.0832900000000000    0.5719800000000000    0.2773200000000000 C
   0.1230500000000000    0.6143800000000000    0.3663400000000000 C
   0.1561066666666667    0.6980700000000000    0.3012500000000000 C
   0.1171366666666667    0.6611600000000000    0.2114300000000000 C
   0.2850000000000000    0.3875000000000000    0.2077400000000000 C
   0.2480166666666667    0.3884700000000000    0.1339900000000000 C
   0.2410866666666667    0.4826900000000000    0.1462600000000000 C
   0.2735733333333333    0.5722200000000000    0.2316400000000000 C
   0.3093133333333333    0.5651600000000000    0.3028300000000000 C
   0.2018200000000000    0.4902300000000000    0.0731200000000000 C
   0.2101233333333333    0.5469400000000000    0.0265200000000000 C
   0.1569900000000000    0.4420100000000000    0.0469500000000000 C
   0.1435033333333333    0.3891800000000000    0.0991700000000000 C
   0.1645033333333333    0.4267000000000000    0.2091400000000000 C
   0.1477833333333333    0.3804700000000000    0.2560400000000000 C
   0.0917500000000000    0.2608200000000000    0.0951500000000000 C
   0.1065866666666667    0.3024900000000000    0.0421300000000000 C
   0.0203066666666667    0.4432800000000000    0.0396900000000000 C
   0.3816400000000000    0.6124800000000000    0.7922600000000000 C
   0.4186266666666666    0.6114800000000000    0.8659900000000000 C
   0.4255433333333333    0.5172600000000001    0.8537200000000000 C
   0.3930433333333333    0.4277500000000000    0.7683600000000000 C
   0.3572966666666667    0.4348400000000000    0.6972000000000000 C
   0.4648099999999999    0.5096800000000000    0.9268500000000000 C
   0.4565066666666666    0.4529500000000000    0.9734300000000000 C
   0.5096366666666666    0.5579100000000000    0.9530300000000000 C
   0.5231500000000000    0.6107200000000000    0.9008100000000000 C
   0.5021666666666667    0.5732200000000000    0.7908400000000000 C
   0.5189066666666666    0.6194400000000000    0.7439600000000000 C
   0.5749333333333333    0.7390600000000001    0.9048700000000000 C
   0.5600733333333333    0.6973900000000000    0.9578700000000000 C
   0.6463800000000000    0.5567600000000000    0.9603600000000000 C
   0.6183333333333333    0.3875000000000000    0.2077400000000000 C
   0.5813500000000000    0.3884700000000000    0.1339900000000000 C
   0.5744199999999999    0.4826900000000000    0.1462600000000000 C
   0.6069066666666667    0.5722200000000000    0.2316400000000000 C
   0.6426466666666666    0.5651600000000000    0.3028300000000000 C
   0.5351533333333334    0.4902300000000000    0.0731200000000000 C
   0.5434566666666667    0.5469400000000000    0.0265200000000000 C
   0.4903233333333333    0.4420100000000000    0.0469500000000000 C
   0.4768366666666666    0.3891800000000000    0.0991700000000000 C
   0.4978366666666666    0.4267000000000000    0.2091400000000000 C
   0.4811166666666666    0.3804700000000000    0.2560400000000000 C
   0.4250833333333333    0.2608200000000000    0.0951500000000000 C
   0.4399200000000000    0.3024900000000000    0.0421300000000000 C
   0.6277333333333333    0.1140400000000000    0.8736200000000000 C
   0.6370400000000001    0.2206300000000000    0.9317200000000000 C
   0.6384200000000000    0.2769100000000000    0.8806200000000000 C
   0.6304066666666666    0.2198300000000000    0.7707600000000000 C
   0.6216200000000000    0.1133400000000000    0.7183200000000000 C
   0.6504733333333332    0.3909900000000000    0.9411300000000000 C
   0.6290833333333332    0.4496700000000000    0.9008900000000000 C
   0.5874966666666666    0.4042900000000000    0.8030700000000000 C
   0.5834333333333332    0.4280800000000000    0.7227700000000000 C
   0.5436833333333333    0.3856600000000000    0.6337200000000000 C
   0.5106200000000000    0.3019200000000000    0.6987700000000000 C
   0.5495766666666666    0.3388500000000000    0.7886200000000000 C
   0.7149733333333332    0.6124800000000000    0.7922600000000000 C
   0.7519600000000000    0.6114800000000000    0.8659900000000000 C
   0.7588766666666666    0.5172600000000001    0.8537200000000000 C
   0.7263766666666667    0.4277500000000000    0.7683600000000000 C
   0.6906300000000000    0.4348400000000000    0.6972000000000000 C
   0.7981433333333333    0.5096800000000000    0.9268500000000000 C
   0.7898400000000000    0.4529500000000000    0.9734300000000000 C
   0.8429700000000000    0.5579100000000000    0.9530300000000000 C
   0.8564833333333333    0.6107200000000000    0.9008100000000000 C
   0.8354999999999999    0.5732200000000000    0.7908400000000000 C
   0.8522399999999999    0.6194400000000000    0.7439600000000000 C
   0.9082666666666666    0.7390600000000001    0.9048700000000000 C
   0.8934066666666667    0.6973900000000000    0.9578700000000000 C
   0.7056166666666667    0.8859800000000000    0.1264500000000000 C
   0.6963400000000000    0.7794000000000000    0.0683600000000000 C
   0.6949333333333333    0.7231200000000000    0.1194500000000000 C
   0.7029233333333333    0.7801700000000000    0.2292900000000000 C
   0.7116800000000000    0.8866500000000000    0.2817300000000000 C
   0.6828933333333334    0.6090300000000000    0.0589300000000000 C
   0.9797133333333332    0.5567600000000000    0.9603600000000000 C
   0.7042800000000000    0.5503600000000000    0.0991800000000000 C
   0.7458800000000000    0.5957400000000000    0.1969900000000000 C
   0.7499566666666666    0.5719800000000000    0.2773200000000000 C
   0.7897166666666666    0.6143800000000000    0.3663400000000000 C
   0.8227733333333334    0.6980700000000000    0.3012500000000000 C
   0.7838033333333333    0.6611600000000000    0.2114300000000000 C
   0.9516666666666667    0.3875000000000000    0.2077400000000000 C
   0.9146833333333333    0.3884700000000000    0.1339900000000000 C
   0.9077533333333333    0.4826900000000000    0.1462600000000000 C
   0.9402400000000000    0.5722200000000000    0.2316400000000000 C
   0.9759800000000000    0.5651600000000000    0.3028300000000000 C
   0.8684866666666666    0.4902300000000000    0.0731200000000000 C
   0.8767900000000000    0.5469400000000000    0.0265200000000000 C
   0.8236566666666666    0.4420100000000000    0.0469500000000000 C
   0.8101699999999999    0.3891800000000000    0.0991700000000000 C
   0.8311700000000000    0.4267000000000000    0.2091400000000000 C
   0.8144499999999999    0.3804700000000000    0.2560400000000000 C
   0.7584166666666666    0.2608200000000000    0.0951500000000000 C
   0.7732533333333333    0.3024900000000000    0.0421300000000000 C
   0.9610666666666666    0.1140400000000000    0.8736200000000000 C
   0.9703733333333333    0.2206300000000000    0.9317200000000000 C
   0.9717533333333332    0.2769100000000000    0.8806200000000000 C
   0.9637399999999999    0.2198300000000000    0.7707600000000000 C
   0.9549533333333333    0.1133400000000000    0.7183200000000000 C
   0.9838066666666666    0.3909900000000000    0.9411300000000000 C
   0.6869733333333333    0.4432800000000000    0.0396900000000000 C
   0.9624166666666666    0.4496700000000000    0.9008900000000000 C
   0.9208299999999999    0.4042900000000000    0.8030700000000000 C
   0.9167666666666666    0.4280800000000000    0.7227700000000000 C
   0.8770166666666666    0.3856600000000000    0.6337200000000000 C
   0.8439533333333333    0.3019200000000000    0.6987700000000000 C
   0.8829100000000000    0.3388500000000000    0.7886200000000000 C
   0.2362133333333333    0.5687600000000000    0.5326500000000000 I
   0.0404700000000000    0.6754400000000000    0.5858900000000000 I
   0.3298300000000000    0.8643900000000000    0.8337100000000000 I
   0.2824700000000000    0.8374100000000000    0.4974100000000000 I
   0.1828100000000000    0.8495400000000000    0.6667999999999999 I
   0.0972666666666667    0.4313000000000000    0.4673900000000000 I
   0.2927933333333333    0.3245700000000000    0.4141900000000000 I
   0.0034833333333333    0.1355900000000000    0.1661900000000000 I
   0.0509666666666667    0.1627100000000000    0.5027700000000001 I
   0.1505100000000000    0.1500000000000000    0.3330900000000000 I
   0.5695466666666666    0.5687600000000000    0.5326500000000000 I
   0.3738033333333333    0.6754400000000000    0.5858900000000000 I
   0.6631633333333333    0.8643900000000000    0.8337100000000000 I
   0.6158033333333333    0.8374100000000000    0.4974100000000000 I
   0.5161433333333333    0.8495400000000000    0.6667999999999999 I
   0.4306000000000000    0.4313000000000000    0.4673900000000000 I
   0.6261266666666667    0.3245700000000000    0.4141900000000000 I
   0.3368166666666667    0.1355900000000000    0.1661900000000000 I
   0.3843000000000000    0.1627100000000000    0.5027700000000001 I
   0.4838433333333333    0.1500000000000000    0.3330900000000000 I
   0.9028799999999999    0.5687600000000000    0.5326500000000000 I
   0.7071366666666666    0.6754400000000000    0.5858900000000000 I
   0.9964966666666666    0.8643900000000000    0.8337100000000000 I
   0.9491366666666666    0.8374100000000000    0.4974100000000000 I
   0.8494766666666667    0.8495400000000000    0.6667999999999999 I
   0.7639333333333334    0.4313000000000000    0.4673900000000000 I
   0.9594600000000000    0.3245700000000000    0.4141900000000000 I
   0.6701499999999999    0.1355900000000000    0.1661900000000000 I
   0.7176333333333333    0.1627100000000000    0.5027700000000001 I
   0.8171766666666667    0.1500000000000000    0.3330900000000000 I
   0.0182266666666667    0.5253900000000000    0.7063400000000000 N
   0.2220466666666666    0.7001400000000000    0.7982800000000000 N
   0.0465733333333333    0.9403899999999999    0.2321300000000000 N
   0.1596466666666667    0.6761100000000000    0.3792900000000000 N
   0.3150666666666667    0.4746000000000000    0.2936700000000000 N
   0.1113466666666667    0.2997000000000000    0.2017300000000000 N
   0.3515600000000000    0.5253900000000000    0.7063400000000000 N
   0.5553800000000000    0.7001400000000000    0.7982800000000000 N
   0.6484000000000000    0.4746000000000000    0.2936700000000000 N
   0.4446800000000000    0.2997000000000000    0.2017300000000000 N
   0.6200399999999999    0.0596000000000000    0.7679100000000000 N
   0.5071000000000000    0.3238600000000000    0.6207300000000000 N
   0.6848933333333332    0.5253900000000000    0.7063400000000000 N
   0.8887133333333332    0.7001400000000000    0.7982800000000000 N
   0.7132400000000000    0.9403899999999999    0.2321300000000000 N
   0.8263133333333332    0.6761100000000000    0.3792900000000000 N
   0.9817333333333333    0.4746000000000000    0.2936700000000000 N
   0.7780133333333333    0.2997000000000000    0.2017300000000000 N
   0.9533733333333333    0.0596000000000000    0.7679100000000000 N
   0.8404333333333333    0.3238600000000000    0.6207300000000000 N
