H12 O8
1.0
  32.2618992755691352    0.0000000000000000   -2.1581035964549877
  -1.2678832194421634   16.2607058380094003   -2.4294068806159301
   0.0000000000000000    0.0000000000000000   32.9840000000000018
H O
12 8
direct
   0.5185444851562121    0.9510549842916923    0.9471776741608875 H
   0.6121556758597364    1.0562842241732500    0.8962953767250381 H
   0.5658771747094730    1.0091802033886363    0.9245075153527307 H
   0.6693908224964293    0.4463256369618904    0.9343568013205075 H
   0.6826423680207897    0.4682578853540077    0.9354817947997025 H
   0.7709118082447158    0.6409014191666169    0.9626807925978493 H
   0.7658545485849905    0.4951416995288803    0.9346835854434185 H
   0.7652945804157978    0.4021081728659118    0.9166955833247473 H
   0.5341557665140361    0.4390382430340588    0.8385070444244600 H
   0.4037981143733621    0.4208882141659239    0.7464694885415494 H
   0.5182296389709731    0.3396096198429266    0.7408385035619178 H
   0.4620925418405062    0.3807730450261547    0.7468561270721172 H
   0.5375600000000000    0.9547900000000000    0.9258750000000000 O
   0.5901100000000000    1.0139399999999998    0.8973599999999999 O
   0.6773650000000000    0.4549900000000000    0.9639100000000000 O
   0.7844200000000000    0.5919300000000000    0.9526000000000000 O
   0.7760500000000000    0.4581800000000000    0.9270750000000000 O
   0.5366550000000000    0.4985200000000000    0.8385500000000000 O
   0.4274050000000000    0.3992600000000000    0.7330449999999999 O
   0.4914350000000000    0.3538900000000000    0.7301700000000000 O
