Ca48 H372 C465 N93 O279
1.0
  32.2618992755691352    0.0000000000000000   -2.1581035964549877
  -1.2678832194421634   16.2607058380094003   -2.4294068806159301
   0.0000000000000000    0.0000000000000000   32.9840000000000018
Ca H C N O
48 372 465 93 279
direct
   0.1979850000000000    0.3323600000000000    0.1793400000000000 Ca
   0.4074250000000000    0.0652700000000000    0.2450650000000000 Ca
   0.0559400000000000    0.8884300000000001    0.3617850000000000 Ca
   0.0521000000000000    0.6402500000000000    0.3329550000000000 Ca
   0.3425150000000000    0.5096400000000000    0.4669800000000000 Ca
   0.3059300000000000    0.7234699999999999    0.4442250000000000 Ca
   0.3021200000000000    0.6659300000000000    0.3201700000000000 Ca
   0.0924650000000000    0.9340800000000000    0.2548850000000000 Ca
   0.4441350000000000    0.1106500000000000    0.1380350000000000 Ca
   0.4479450000000000    0.3585500000000000    0.1661350000000000 Ca
   0.1572950000000000    0.4892500000000000    0.0324050000000000 Ca
   0.1940200000000000    0.2755500000000000    0.0554650000000000 Ca
   0.6979850000000000    0.3323600000000000    0.1793400000000000 Ca
   0.9074249999999999    0.0652700000000000    0.2450650000000000 Ca
   0.5559400000000000    0.8884300000000001    0.3617850000000000 Ca
   0.5521000000000000    0.6402500000000000    0.3329550000000000 Ca
   0.8425150000000000    0.5096400000000000    0.4669800000000000 Ca
   0.8059300000000000    0.7234699999999999    0.4442250000000000 Ca
   0.8021199999999999    0.6659300000000000    0.3201700000000000 Ca
   0.5924650000000000    0.9340800000000000    0.2548850000000000 Ca
   0.9441349999999999    0.1106500000000000    0.1380350000000000 Ca
   0.9479450000000000    0.3585500000000000    0.1661350000000000 Ca
   0.6572950000000000    0.4892500000000000    0.0324050000000000 Ca
   0.6940200000000000    0.2755500000000000    0.0554650000000000 Ca
   0.1979850000000000    0.3323600000000000    0.6793400000000001 Ca
   0.4074250000000000    0.0652700000000000    0.7450650000000000 Ca
   0.0559400000000000    0.8884300000000001    0.8617850000000000 Ca
   0.0521000000000000    0.6402500000000000    0.8329550000000000 Ca
   0.3425150000000000    0.5096400000000000    0.9669800000000000 Ca
   0.3059300000000000    0.7234699999999999    0.9442250000000000 Ca
   0.3021200000000000    0.6659300000000000    0.8201700000000001 Ca
   0.0924650000000000    0.9340800000000000    0.7548850000000000 Ca
   0.4441350000000000    0.1106500000000000    0.6380350000000000 Ca
   0.4479450000000000    0.3585500000000000    0.6661350000000000 Ca
   0.1572950000000000    0.4892500000000000    0.5324050000000000 Ca
   0.1940200000000000    0.2755500000000000    0.5554650000000000 Ca
   0.6979850000000000    0.3323600000000000    0.6793400000000001 Ca
   0.9074249999999999    0.0652700000000000    0.7450650000000000 Ca
   0.5559400000000000    0.8884300000000001    0.8617850000000000 Ca
   0.5521000000000000    0.6402500000000000    0.8329550000000000 Ca
   0.8425150000000000    0.5096400000000000    0.9669800000000000 Ca
   0.8059300000000000    0.7234699999999999    0.9442250000000000 Ca
   0.8021199999999999    0.6659300000000000    0.8201700000000001 Ca
   0.5924650000000000    0.9340800000000000    0.7548850000000000 Ca
   0.9441349999999999    0.1106500000000000    0.6380350000000000 Ca
   0.9479450000000000    0.3585500000000000    0.6661350000000000 Ca
   0.6572950000000000    0.4892500000000000    0.5324050000000000 Ca
   0.6940200000000000    0.2755500000000000    0.5554650000000000 Ca
   0.2267950000000000    0.2620900000000000    0.3631650000000000 H
   0.1399700000000000    0.2583600000000000    0.2572750000000000 H
   0.1131650000000000    0.1086600000000000    0.3507850000000000 H
   0.2168250000000000    0.0621400000000000    0.4531650000000000 H
   0.1657900000000000    0.0263800000000000    0.4623150000000000 H
   0.2798800000000000    0.3900200000000000    0.2635000000000000 H
   0.3118550000000000    0.3805800000000000    0.3080350000000000 H
   0.0414750000000000    0.1314900000000000    0.2019850000000000 H
   0.0218650000000000    0.2291800000000000    0.2125100000000000 H
   0.1803650000000000    0.9086700000000000    0.1708850000000000 H
   0.2527850000000000    0.8456800000000000    0.2746600000000000 H
   0.3099250000000000    0.0000000000000000    0.1964100000000000 H
   0.2946350000000000    0.1503300000000000    0.1056200000000000 H
   0.2445500000000000    0.1038300000000000    0.0876000000000000 H
   0.1253450000000000    0.7037700000000000    0.2651350000000000 H
   0.1588900000000000    0.7093200000000000    0.3097850000000000 H
   0.3920950000000000    0.9322100000000000    0.3111200000000000 H
   0.3598200000000000    0.9339100000000000    0.3525750000000000 H
   0.1388500000000000    0.0753200000000000    0.4055450000000000 H
   0.2475200000000000    0.3672500000000000    0.3439250000000000 H
   0.0693500000000000    0.2607900000000000    0.2663800000000000 H
   0.2977000000000000    0.0675000000000000    0.1583850000000000 H
   0.2088850000000000    0.7828600000000000    0.2834050000000000 H
   0.3086200000000000    0.8422400000000000    0.2976350000000000 H
   0.0228300000000000    0.2729600000000000    0.3684650000000000 H
   0.1096500000000000    0.4846100000000000    0.3697050000000000 H
   0.1365350000000000    0.2984500000000000    0.4450500000000000 H
   0.0330400000000000    0.0934200000000000    0.4685600000000000 H
   0.0841150000000000    0.0748200000000000    0.4862250000000000 H
   0.4694400000000000    0.4719900000000000    0.3044250000000000 H
   0.4375250000000000    0.3824500000000000    0.3085300000000000 H
   0.2082500000000000    0.5951800000000000    0.4347000000000000 H
   0.2277450000000000    0.5760700000000000    0.3857500000000000 H
   0.0698350000000000    0.6576600000000000    0.0453450000000000 H
   0.4971950000000000    0.4503000000000000    0.0768550000000000 H
   0.4402250000000000    0.6069900000000000    0.0020450000000000 H
   0.4553400000000000    0.7874100000000001    0.4241700000000000 H
   0.0053550000000000    0.8240900000000000    0.4474300000000000 H
   0.1245850000000000    0.4690600000000000    0.1478400000000000 H
   0.0910350000000000    0.3797600000000000    0.1449950000000000 H
   0.3579550000000000    0.3777400000000000    0.0328800000000000 H
   0.3900550000000000    0.2944400000000000    0.0315300000000000 H
   0.1110300000000000    0.1885700000000000    0.4618800000000000 H
   0.0015950000000000    0.3111300000000000    0.3160800000000000 H
   0.1805950000000000    0.4678400000000000    0.3691250000000000 H
   0.4523250000000000    0.6828300000000000    0.4660350000000000 H
   0.0410950000000000    0.4325500000000000    0.1082200000000000 H
   0.4413350000000000    0.4034400000000000    0.0780050000000000 H
   0.2728500000000000    0.7370200000000000    0.1365250000000000 H
   0.3596450000000000    0.7396700000000000    0.2423650000000000 H
   0.3865150000000000    0.8903200000000000    0.1492600000000000 H
   0.2829950000000000    0.9371500000000000    0.0467350000000000 H
   0.3340700000000000    0.9723400000000000    0.0373350000000000 H
   0.2194550000000000    0.6089300000000000    0.2360650000000000 H
   0.1875150000000000    0.6172600000000000    0.1913400000000000 H
   0.4582200000000000    0.8693900000000000    0.2976650000000000 H
   0.4776850000000000    0.7714800000000001    0.2880100000000000 H
   0.3197550000000000    0.0906300000000000    0.3289050000000000 H
   0.2471550000000000    0.1538100000000000    0.2252750000000000 H
   0.1901700000000000    0.0039700000000000    0.3035200000000000 H
   0.2052750000000000    0.8480900000000000    0.3936900000000000 H
   0.2552400000000000    0.8947000000000001    0.4120950000000000 H
   0.3745750000000000    0.2957300000000000    0.2346500000000000 H
   0.3410800000000000    0.2898800000000000    0.1899600000000000 H
   0.1079200000000000    0.0658800000000000    0.1889800000000000 H
   0.1400250000000000    0.0629800000000000    0.1473300000000000 H
   0.3609950000000000    0.9238600000000000    0.0942700000000000 H
   0.2515700000000000    0.6325900000000000    0.1556700000000000 H
   0.4305350000000000    0.7384500000000001    0.2339050000000000 H
   0.2022600000000000    0.9319800000000000    0.3414850000000000 H
   0.2911200000000000    0.2163200000000000    0.2163200000000000 H
   0.1913150000000000    0.1560600000000000    0.2018050000000000 H
   0.4767800000000000    0.7262500000000000    0.1310450000000000 H
   0.3899100000000000    0.5144600000000000    0.1291550000000000 H
   0.3631750000000000    0.7015500000000000    0.0543300000000000 H
   0.4668150000000000    0.9064000000000000    0.0311450000000000 H
   0.4157800000000000    0.9246900000000000    0.0132600000000000 H
   0.0298450000000000    0.5269400000000000    0.1950250000000000 H
   0.0618300000000000    0.6160099999999999    0.1902750000000000 H
   0.2914750000000000    0.4036900000000000    0.0657800000000000 H
   0.2714800000000000    0.4253900000000000    0.1143850000000000 H
   0.4303600000000000    0.3416500000000000    0.4542950000000000 H
   0.0027900000000000    0.5492700000000000    0.4228200000000000 H
   0.0599150000000000    0.3926900000000000    0.0000000000000000 H
   0.0445900000000000    0.2109600000000000    0.0750550000000000 H
   0.4944750000000000    0.1749900000000000    0.0518250000000000 H
   0.3753500000000000    0.5302100000000000    0.3518900000000000 H
   0.4089150000000000    0.6194800000000000    0.3546250000000000 H
   0.1420950000000000    0.6221800000000000    0.4660700000000000 H
   0.1098400000000000    0.7051200000000000    0.4669450000000000 H
   0.3888350000000000    0.8111200000000000    0.0377000000000000 H
   0.0000000000000000    0.6878000000000000    0.1836250000000000 H
   0.3191000000000000    0.5327700000000000    0.1302200000000000 H
   0.0476500000000000    0.3166700000000000    0.0337650000000000 H
   0.4589000000000000    0.5667400000000000    0.3914100000000000 H
   0.0586050000000000    0.5953000000000001    0.4211100000000000 H
   0.7267950000000000    0.2620900000000000    0.3631650000000000 H
   0.6399700000000000    0.2583600000000000    0.2572750000000000 H
   0.6131650000000000    0.1086600000000000    0.3507850000000000 H
   0.7168250000000000    0.0621400000000000    0.4531650000000000 H
   0.6657900000000000    0.0263800000000000    0.4623150000000000 H
   0.7798800000000000    0.3900200000000000    0.2635000000000000 H
   0.8118550000000000    0.3805800000000000    0.3080350000000000 H
   0.5414750000000000    0.1314900000000000    0.2019850000000000 H
   0.5218650000000000    0.2291800000000000    0.2125100000000000 H
   0.6803650000000000    0.9086700000000000    0.1708850000000000 H
   0.7527850000000000    0.8456800000000000    0.2746600000000000 H
   0.8099250000000000    0.0000000000000000    0.1964100000000000 H
   0.7946350000000000    0.1503300000000000    0.1056200000000000 H
   0.7445500000000000    0.1038300000000000    0.0876000000000000 H
   0.6253450000000000    0.7037700000000000    0.2651350000000000 H
   0.6588900000000000    0.7093200000000000    0.3097850000000000 H
   0.8920950000000001    0.9322100000000000    0.3111200000000000 H
   0.8598200000000000    0.9339100000000000    0.3525750000000000 H
   0.6388500000000000    0.0753200000000000    0.4055450000000000 H
   0.7475200000000000    0.3672500000000000    0.3439250000000000 H
   0.5693500000000000    0.2607900000000000    0.2663800000000000 H
   0.7977000000000001    0.0675000000000000    0.1583850000000000 H
   0.7088850000000000    0.7828600000000000    0.2834050000000000 H
   0.8086200000000000    0.8422400000000000    0.2976350000000000 H
   0.5228300000000000    0.2729600000000000    0.3684650000000000 H
   0.6096500000000000    0.4846100000000000    0.3697050000000000 H
   0.6365350000000000    0.2984500000000000    0.4450500000000000 H
   0.5330400000000000    0.0934200000000000    0.4685600000000000 H
   0.5841149999999999    0.0748200000000000    0.4862250000000000 H
   0.9694400000000001    0.4719900000000000    0.3044250000000000 H
   0.9375249999999999    0.3824500000000000    0.3085300000000000 H
   0.7082500000000000    0.5951800000000000    0.4347000000000000 H
   0.7277450000000000    0.5760700000000000    0.3857500000000000 H
   0.5698350000000000    0.6576600000000000    0.0453450000000000 H
   0.9971950000000001    0.4503000000000000    0.0768550000000000 H
   0.9402250000000000    0.6069900000000000    0.0020450000000000 H
   0.9553400000000001    0.7874100000000001    0.4241700000000000 H
   0.5053550000000000    0.8240900000000000    0.4474300000000000 H
   0.6245849999999999    0.4690600000000000    0.1478400000000000 H
   0.5910350000000000    0.3797600000000000    0.1449950000000000 H
   0.8579550000000000    0.3777400000000000    0.0328800000000000 H
   0.8900550000000000    0.2944400000000000    0.0315300000000000 H
   0.6110300000000000    0.1885700000000000    0.4618800000000000 H
   0.5015950000000000    0.3111300000000000    0.3160800000000000 H
   0.6805950000000001    0.4678400000000000    0.3691250000000000 H
   0.9523250000000000    0.6828300000000000    0.4660350000000000 H
   0.5410950000000000    0.4325500000000000    0.1082200000000000 H
   0.9413350000000000    0.4034400000000000    0.0780050000000000 H
   0.7728500000000000    0.7370200000000000    0.1365250000000000 H
   0.8596450000000000    0.7396700000000000    0.2423650000000000 H
   0.8865149999999999    0.8903200000000000    0.1492600000000000 H
   0.7829950000000000    0.9371500000000000    0.0467350000000000 H
   0.8340700000000000    0.9723400000000000    0.0373350000000000 H
   0.7194550000000000    0.6089300000000000    0.2360650000000000 H
   0.6875150000000000    0.6172600000000000    0.1913400000000000 H
   0.9582200000000001    0.8693900000000000    0.2976650000000000 H
   0.9776850000000000    0.7714800000000001    0.2880100000000000 H
   0.8197550000000000    0.0906300000000000    0.3289050000000000 H
   0.7471550000000000    0.1538100000000000    0.2252750000000000 H
   0.6901700000000000    0.0039700000000000    0.3035200000000000 H
   0.7052750000000000    0.8480900000000000    0.3936900000000000 H
   0.7552400000000000    0.8947000000000001    0.4120950000000000 H
   0.8745750000000000    0.2957300000000000    0.2346500000000000 H
   0.8410800000000000    0.2898800000000000    0.1899600000000000 H
   0.6079200000000000    0.0658800000000000    0.1889800000000000 H
   0.6400250000000001    0.0629800000000000    0.1473300000000000 H
   0.8609950000000000    0.9238600000000000    0.0942700000000000 H
   0.7515700000000001    0.6325900000000000    0.1556700000000000 H
   0.9305350000000000    0.7384500000000001    0.2339050000000000 H
   0.7022600000000000    0.9319800000000000    0.3414850000000000 H
   0.7911200000000000    0.2163200000000000    0.2163200000000000 H
   0.6913150000000000    0.1560600000000000    0.2018050000000000 H
   0.9767800000000000    0.7262500000000000    0.1310450000000000 H
   0.8899100000000000    0.5144600000000000    0.1291550000000000 H
   0.8631750000000000    0.7015500000000000    0.0543300000000000 H
   0.9668150000000000    0.9064000000000000    0.0311450000000000 H
   0.9157800000000000    0.9246900000000000    0.0132600000000000 H
   0.5298450000000000    0.5269400000000000    0.1950250000000000 H
   0.5618300000000001    0.6160099999999999    0.1902750000000000 H
   0.7914749999999999    0.4036900000000000    0.0657800000000000 H
   0.7714799999999999    0.4253900000000000    0.1143850000000000 H
   0.9303600000000001    0.3416500000000000    0.4542950000000000 H
   0.5027900000000000    0.5492700000000000    0.4228200000000000 H
   0.5599150000000001    0.3926900000000000    0.0000000000000000 H
   0.5445900000000000    0.2109600000000000    0.0750550000000000 H
   0.9944750000000000    0.1749900000000000    0.0518250000000000 H
   0.8753500000000001    0.5302100000000000    0.3518900000000000 H
   0.9089149999999999    0.6194800000000000    0.3546250000000000 H
   0.6420950000000000    0.6221800000000000    0.4660700000000000 H
   0.6098399999999999    0.7051200000000000    0.4669450000000000 H
   0.8888350000000000    0.8111200000000000    0.0377000000000000 H
   0.5000000000000000    0.6878000000000000    0.1836250000000000 H
   0.8190999999999999    0.5327700000000000    0.1302200000000000 H
   0.5476500000000000    0.3166700000000000    0.0337650000000000 H
   0.9589000000000000    0.5667400000000000    0.3914100000000000 H
   0.5586050000000000    0.5953000000000001    0.4211100000000000 H
   0.2267950000000000    0.2620900000000000    0.8631650000000000 H
   0.1399700000000000    0.2583600000000000    0.7572749999999999 H
   0.1131650000000000    0.1086600000000000    0.8507850000000000 H
   0.2168250000000000    0.0621400000000000    0.9531650000000000 H
   0.1657900000000000    0.0263800000000000    0.9623150000000000 H
   0.2798800000000000    0.3900200000000000    0.7635000000000001 H
   0.3118550000000000    0.3805800000000000    0.8080350000000001 H
   0.0414750000000000    0.1314900000000000    0.7019850000000000 H
   0.0218650000000000    0.2291800000000000    0.7125100000000000 H
   0.1803650000000000    0.9086700000000000    0.6708850000000000 H
   0.2527850000000000    0.8456800000000000    0.7746600000000000 H
   0.3099250000000000    0.0000000000000000    0.6964100000000000 H
   0.2946350000000000    0.1503300000000000    0.6056200000000000 H
   0.2445500000000000    0.1038300000000000    0.5876000000000000 H
   0.1253450000000000    0.7037700000000000    0.7651350000000000 H
   0.1588900000000000    0.7093200000000000    0.8097850000000000 H
   0.3920950000000000    0.9322100000000000    0.8111200000000001 H
   0.3598200000000000    0.9339100000000000    0.8525750000000001 H
   0.1388500000000000    0.0753200000000000    0.9055450000000000 H
   0.2475200000000000    0.3672500000000000    0.8439250000000000 H
   0.0693500000000000    0.2607900000000000    0.7663800000000001 H
   0.2977000000000000    0.0675000000000000    0.6583850000000000 H
   0.2088850000000000    0.7828600000000000    0.7834050000000000 H
   0.3086200000000000    0.8422400000000000    0.7976350000000000 H
   0.0228300000000000    0.2729600000000000    0.8684650000000000 H
   0.1096500000000000    0.4846100000000000    0.8697050000000000 H
   0.1365350000000000    0.2984500000000000    0.9450499999999999 H
   0.0330400000000000    0.0934200000000000    0.9685600000000000 H
   0.0841150000000000    0.0748200000000000    0.9862250000000000 H
   0.2082500000000000    0.5951800000000000    0.9347000000000000 H
   0.2277450000000000    0.5760700000000000    0.8857500000000000 H
   0.0698350000000000    0.6576600000000000    0.5453450000000000 H
   0.4971950000000000    0.4503000000000000    0.5768550000000000 H
   0.4402250000000000    0.6069900000000000    0.5020450000000000 H
   0.4553400000000000    0.7874100000000001    0.9241699999999999 H
   0.0053550000000000    0.8240900000000000    0.9474300000000000 H
   0.1245850000000000    0.4690600000000000    0.6478400000000000 H
   0.0910350000000000    0.3797600000000000    0.6449950000000000 H
   0.3579550000000000    0.3777400000000000    0.5328800000000000 H
   0.3900550000000000    0.2944400000000000    0.5315300000000001 H
   0.1110300000000000    0.1885700000000000    0.9618800000000001 H
   0.0015950000000000    0.3111300000000000    0.8160800000000000 H
   0.1805950000000000    0.4678400000000000    0.8691249999999999 H
   0.4523250000000000    0.6828300000000000    0.9660350000000000 H
   0.0410950000000000    0.4325500000000000    0.6082200000000000 H
   0.4413350000000000    0.4034400000000000    0.5780050000000000 H
   0.2728500000000000    0.7370200000000000    0.6365250000000000 H
   0.3596450000000000    0.7396700000000000    0.7423649999999999 H
   0.3865150000000000    0.8903200000000000    0.6492599999999999 H
   0.2829950000000000    0.9371500000000000    0.5467350000000000 H
   0.3340700000000000    0.9723400000000000    0.5373350000000000 H
   0.2194550000000000    0.6089300000000000    0.7360650000000000 H
   0.1875150000000000    0.6172600000000000    0.6913400000000001 H
   0.4582200000000000    0.8693900000000000    0.7976650000000001 H
   0.4776850000000000    0.7714800000000001    0.7880100000000000 H
   0.3197550000000000    0.0906300000000000    0.8289050000000000 H
   0.2471550000000000    0.1538100000000000    0.7252750000000000 H
   0.1901700000000000    0.0039700000000000    0.8035200000000000 H
   0.2052750000000000    0.8480900000000000    0.8936900000000000 H
   0.2552400000000000    0.8947000000000001    0.9120950000000000 H
   0.3745750000000000    0.2957300000000000    0.7346500000000000 H
   0.3410800000000000    0.2898800000000000    0.6899600000000000 H
   0.1079200000000000    0.0658800000000000    0.6889800000000000 H
   0.1400250000000000    0.0629800000000000    0.6473300000000000 H
   0.3609950000000000    0.9238600000000000    0.5942700000000000 H
   0.2515700000000000    0.6325900000000000    0.6556700000000000 H
   0.4305350000000000    0.7384500000000001    0.7339050000000000 H
   0.2022600000000000    0.9319800000000000    0.8414850000000000 H
   0.2911200000000000    0.2163200000000000    0.7163200000000001 H
   0.1913150000000000    0.1560600000000000    0.7018050000000000 H
   0.4767800000000000    0.7262500000000000    0.6310450000000000 H
   0.3899100000000000    0.5144600000000000    0.6291550000000000 H
   0.3631750000000000    0.7015500000000000    0.5543300000000000 H
   0.4668150000000000    0.9064000000000000    0.5311450000000000 H
   0.4157800000000000    0.9246900000000000    0.5132600000000000 H
   0.0298450000000000    0.5269400000000000    0.6950250000000000 H
   0.0618300000000000    0.6160099999999999    0.6902750000000000 H
   0.2914750000000000    0.4036900000000000    0.5657799999999999 H
   0.2714800000000000    0.4253900000000000    0.6143850000000000 H
   0.4303600000000000    0.3416500000000000    0.9542950000000000 H
   0.0027900000000000    0.5492700000000000    0.9228200000000000 H
   0.0599150000000000    0.3926900000000000    0.5000000000000000 H
   0.0445900000000000    0.2109600000000000    0.5750550000000000 H
   0.4944750000000000    0.1749900000000000    0.5518250000000000 H
   0.3753500000000000    0.5302100000000000    0.8518900000000000 H
   0.4089150000000000    0.6194800000000000    0.8546250000000000 H
   0.1420950000000000    0.6221800000000000    0.9660700000000000 H
   0.1098400000000000    0.7051200000000000    0.9669449999999999 H
   0.3888350000000000    0.8111200000000000    0.5377000000000000 H
   0.0000000000000000    0.6878000000000000    0.6836250000000000 H
   0.3191000000000000    0.5327700000000000    0.6302200000000000 H
   0.0476500000000000    0.3166700000000000    0.5337650000000000 H
   0.4589000000000000    0.5667400000000000    0.8914100000000000 H
   0.0586050000000000    0.5953000000000001    0.9211100000000000 H
   0.7267950000000000    0.2620900000000000    0.8631650000000000 H
   0.6399700000000000    0.2583600000000000    0.7572749999999999 H
   0.6131650000000000    0.1086600000000000    0.8507850000000000 H
   0.7168250000000000    0.0621400000000000    0.9531650000000000 H
   0.6657900000000000    0.0263800000000000    0.9623150000000000 H
   0.7798800000000000    0.3900200000000000    0.7635000000000001 H
   0.8118550000000000    0.3805800000000000    0.8080350000000001 H
   0.5414750000000000    0.1314900000000000    0.7019850000000000 H
   0.5218650000000000    0.2291800000000000    0.7125100000000000 H
   0.6803650000000000    0.9086700000000000    0.6708850000000000 H
   0.7527850000000000    0.8456800000000000    0.7746600000000000 H
   0.8099250000000000    0.0000000000000000    0.6964100000000000 H
   0.7946350000000000    0.1503300000000000    0.6056200000000000 H
   0.7445500000000000    0.1038300000000000    0.5876000000000000 H
   0.6253450000000000    0.7037700000000000    0.7651350000000000 H
   0.6588900000000000    0.7093200000000000    0.8097850000000000 H
   0.8920950000000001    0.9322100000000000    0.8111200000000001 H
   0.8598200000000000    0.9339100000000000    0.8525750000000001 H
   0.6388500000000000    0.0753200000000000    0.9055450000000000 H
   0.7475200000000000    0.3672500000000000    0.8439250000000000 H
   0.5693500000000000    0.2607900000000000    0.7663800000000001 H
   0.7977000000000001    0.0675000000000000    0.6583850000000000 H
   0.7088850000000000    0.7828600000000000    0.7834050000000000 H
   0.8086200000000000    0.8422400000000000    0.7976350000000000 H
   0.9694400000000001    0.4719900000000000    0.8044249999999999 H
   0.9375249999999999    0.3824500000000000    0.8085300000000000 H
   0.5698350000000000    0.6576600000000000    0.5453450000000000 H
   0.9971950000000001    0.4503000000000000    0.5768550000000000 H
   0.9402250000000000    0.6069900000000000    0.5020450000000000 H
   0.9553400000000001    0.7874100000000001    0.9241699999999999 H
   0.5053550000000000    0.8240900000000000    0.9474300000000000 H
   0.6245849999999999    0.4690600000000000    0.6478400000000000 H
   0.5910350000000000    0.3797600000000000    0.6449950000000000 H
   0.8579550000000000    0.3777400000000000    0.5328800000000000 H
   0.8900550000000000    0.2944400000000000    0.5315300000000001 H
   0.9523250000000000    0.6828300000000000    0.9660350000000000 H
   0.5410950000000000    0.4325500000000000    0.6082200000000000 H
   0.9413350000000000    0.4034400000000000    0.5780050000000000 H
   0.7728500000000000    0.7370200000000000    0.6365250000000000 H
   0.8596450000000000    0.7396700000000000    0.7423649999999999 H
   0.8865149999999999    0.8903200000000000    0.6492599999999999 H
   0.7829950000000000    0.9371500000000000    0.5467350000000000 H
   0.8340700000000000    0.9723400000000000    0.5373350000000000 H
   0.7194550000000000    0.6089300000000000    0.7360650000000000 H
   0.6875150000000000    0.6172600000000000    0.6913400000000001 H
   0.9582200000000001    0.8693900000000000    0.7976650000000001 H
   0.9776850000000000    0.7714800000000001    0.7880100000000000 H
   0.8197550000000000    0.0906300000000000    0.8289050000000000 H
   0.7471550000000000    0.1538100000000000    0.7252750000000000 H
   0.6901700000000000    0.0039700000000000    0.8035200000000000 H
   0.7052750000000000    0.8480900000000000    0.8936900000000000 H
   0.7552400000000000    0.8947000000000001    0.9120950000000000 H
   0.8745750000000000    0.2957300000000000    0.7346500000000000 H
   0.8410800000000000    0.2898800000000000    0.6899600000000000 H
   0.6079200000000000    0.0658800000000000    0.6889800000000000 H
   0.6400250000000001    0.0629800000000000    0.6473300000000000 H
   0.8609950000000000    0.9238600000000000    0.5942700000000000 H
   0.7515700000000001    0.6325900000000000    0.6556700000000000 H
   0.9305350000000000    0.7384500000000001    0.7339050000000000 H
   0.7022600000000000    0.9319800000000000    0.8414850000000000 H
   0.7911200000000000    0.2163200000000000    0.7163200000000001 H
   0.6913150000000000    0.1560600000000000    0.7018050000000000 H
   0.9767800000000000    0.7262500000000000    0.6310450000000000 H
   0.8899100000000000    0.5144600000000000    0.6291550000000000 H
   0.8631750000000000    0.7015500000000000    0.5543300000000000 H
   0.9668150000000000    0.9064000000000000    0.5311450000000000 H
   0.9157800000000000    0.9246900000000000    0.5132600000000000 H
   0.5298450000000000    0.5269400000000000    0.6950250000000000 H
   0.5618300000000001    0.6160099999999999    0.6902750000000000 H
   0.7914749999999999    0.4036900000000000    0.5657799999999999 H
   0.7714799999999999    0.4253900000000000    0.6143850000000000 H
   0.9303600000000001    0.3416500000000000    0.9542950000000000 H
   0.5027900000000000    0.5492700000000000    0.9228200000000000 H
   0.5599150000000001    0.3926900000000000    0.5000000000000000 H
   0.5445900000000000    0.2109600000000000    0.5750550000000000 H
   0.9944750000000000    0.1749900000000000    0.5518250000000000 H
   0.8753500000000001    0.5302100000000000    0.8518900000000000 H
   0.9089149999999999    0.6194800000000000    0.8546250000000000 H
   0.6420950000000000    0.6221800000000000    0.9660700000000000 H
   0.6098399999999999    0.7051200000000000    0.9669449999999999 H
   0.8888350000000000    0.8111200000000000    0.5377000000000000 H
   0.5000000000000000    0.6878000000000000    0.6836250000000000 H
   0.8190999999999999    0.5327700000000000    0.6302200000000000 H
   0.5476500000000000    0.3166700000000000    0.5337650000000000 H
   0.9589000000000000    0.5667400000000000    0.8914100000000000 H
   0.5586050000000000    0.5953000000000001    0.9211100000000000 H
   0.4471350000000000    0.6909200000000000    0.1214750000000000 C
   0.4360250000000000    0.6165800000000000    0.1347950000000000 C
   0.3975950000000000    0.5743300000000000    0.1200300000000000 C
   0.3714600000000000    0.6057100000000000    0.0914150000000000 C
   0.1715000000000000    0.1855300000000000    0.3613850000000000 C
   0.1971600000000000    0.2429300000000000    0.3454800000000000 C
   0.1860650000000000    0.2695800000000000    0.3083200000000000 C
   0.1476450000000000    0.2400800000000000    0.2871950000000000 C
   0.1214900000000000    0.1828300000000000    0.3028700000000000 C
   0.1337350000000000    0.1543200000000000    0.3396450000000000 C
   0.1890000000000000    0.1620500000000000    0.4012750000000000 C
   0.1848150000000000    0.0798300000000000    0.4555200000000000 C
   0.1857650000000000    0.1481500000000000    0.4924900000000000 C
   0.2161800000000000    0.3209300000000000    0.2882600000000000 C
   0.2829750000000000    0.4049000000000000    0.2971600000000000 C
   0.2879500000000000    0.4985800000000000    0.3080600000000000 C