Zn4 H36 C58 N10 O18
1.0
  14.0047354240300344    0.0000000000000000    0.5862377528940687
   1.5541212345626700   15.0621188739379068    1.3141092860355628
   0.0000000000000000    0.0000000000000000   15.2490000000000006
Zn H C N O
4 36 58 10 18
direct
   0.6872100000000000    0.1187700000000000    0.8449900000000000 Zn
   0.8908900000000000    0.0996400000000000    0.8400900000000000 Zn
   0.1091700000000000    0.9003200000000000    0.1599100000000000 Zn
   0.3128400000000000    0.8811900000000000    0.1550000000000000 Zn
   0.9368000000000000    0.7974800000000000    0.8749500000000000 H
   0.6414600000000000    0.8541200000000000    0.8052500000000000 H
   0.6352800000000000    0.6905300000000000    0.7993800000000000 H
   0.9280500000000000    0.3860200000000000    0.7939900000000000 H
   0.6322400000000000    0.3972400000000000    0.8817100000000000 H
   0.6322800000000000    0.5623200000000000    0.8838900000000000 H
   0.6365700000000000    0.0971300000000000    0.1422300000000000 H
   0.9370900000000000    0.1287200000000000    0.1090300000000000 H
   0.9419900000000000    0.1380800000000000    0.2706800000000000 H
   0.6455000000000000    0.1590100000000000    0.5567299999999999 H
   0.9453800000000000    0.0661900000000000    0.5612300000000000 H
   0.9449800000000000    0.0663600000000000    0.3971100000000000 H
   0.2302200000000000    0.0933200000000000    0.7025400000000001 H
   0.2077600000000000    0.1313200000000000    0.9810300000000000 H
   0.0532700000000000    0.0870400000000000    0.7076300000000000 H
   0.0337000000000000    0.1160700000000000    0.9753800000000000 H
   0.3581300000000000    0.1634800000000000    0.7047300000000000 H
   0.3546400000000000    0.0714500000000000    0.9816700000000000 H
   0.5310100000000000    0.0825900000000000    0.9780900000000000 H
   0.5355000000000000    0.1631700000000000    0.7120700000000000 H
   0.3635200000000000    0.9028500000000000    0.8577399999999999 H
   0.0630000000000000    0.8712500000000000    0.8910000000000000 H
   0.0580600000000000    0.8619200000000000    0.7293400000000000 H
   0.3545500000000000    0.8409600000000000    0.4432700000000000 H
   0.0546700000000000    0.9337900000000000    0.4387700000000000 H
   0.0550700000000000    0.9336100000000001    0.6028900000000000 H
   0.9236390462133880    0.9024503872742028    0.2129290340315188 H
   0.9318491723216112    0.8903187111836368    0.1041465187667457 H
   0.4952466386898170    0.8612850529336649    0.2092932587687989 H
   0.4970577487343845    0.8945453431116237    0.1011919131151933 H
   0.0632500000000000    0.2024700000000000    0.1250600000000000 H
   0.3586000000000000    0.1458600000000000    0.1947300000000000 H
   0.3647800000000000    0.3094500000000000    0.2006000000000000 H
   0.0720000000000000    0.6139400000000000    0.2060300000000000 H
   0.3677900000000000    0.6027300000000000    0.1182600000000000 H
   0.3677600000000000    0.4376600000000000    0.1160800000000000 H
   0.7952200000000000    0.9357900000000000    0.8460700000000000 C
   0.7833100000000000    0.2807700000000000    0.8369300000000000 C
   0.8685800000000000    0.7752900000000000    0.8587500000000000 C
   0.7832800000000000    0.6580500000000000    0.8376000000000000 C
   0.7037400000000000    0.8068800000000000    0.8204399999999999 C
   0.7006000000000000    0.7161800000000000    0.8179800000000000 C
   0.7895799999999999    0.8383200000000000    0.8417900000000000 C
   0.8614100000000000    0.4241700000000000    0.8138000000000000 C
   0.7811399999999999    0.5603700000000000    0.8377300000000000 C
   0.6960499999999999    0.4302800000000000    0.8624200000000000 C
   0.6963900000000000    0.5215800000000000    0.8627700000000000 C
   0.7803000000000000    0.3795200000000000    0.8373900000000000 C
   0.7924000000000000    0.1128900000000000    0.6699800000000000 C
   0.7816300000000000    0.1059300000000000    0.0157800000000000 C
   0.7054600000000000    0.1053500000000000    0.1697600000000000 C
   0.7913900000000000    0.1168400000000000    0.2929900000000000 C
   0.8727000000000000    0.1237100000000000    0.1506500000000000 C
   0.8753100000000000    0.1272300000000000    0.2410700000000000 C
   0.7861800000000000    0.1120900000000000    0.1130000000000000 C
   0.7129600000000000    0.1382800000000000    0.5223900000000000 C
   0.7936299999999999    0.1148100000000000    0.3905800000000000 C
   0.8802300000000000    0.0867200000000000    0.5252100000000000 C
   0.8796100000000000    0.0874500000000000    0.4341400000000000 C
   0.7952200000000000    0.1128500000000000    0.5715500000000000 C
   0.1895500000000000    0.1016400000000000    0.7641500000000000 C
   0.1776000000000000    0.1201700000000000    0.9189100000000000 C
   0.0913400000000000    0.0961700000000000    0.7664800000000001 C
   0.0800000000000000    0.1128800000000000    0.9164300000000000 C
   0.2351700000000000    0.1137200000000000    0.8418300000000000 C
   0.3930400000000000    0.1435500000000000    0.7668000000000000 C
   0.3906600000000000    0.0947800000000000    0.9207200000000000 C
   0.4891700000000000    0.0988500000000000    0.9191700000000000 C
   0.4917000000000000    0.1447200000000000    0.7701300000000000 C
   0.3399800000000000    0.1177100000000000    0.8430500000000000 C
   0.2076400000000000    0.8870900000000000    0.3300300000000000 C
   0.2185100000000000    0.8940300000000000    0.9842200000000000 C
   0.2946300000000000    0.8946200000000000    0.8302200000000000 C
   0.2086800000000000    0.8831400000000000    0.7070100000000000 C
   0.1273800000000000    0.8762700000000000    0.8493700000000000 C
   0.1247600000000000    0.8727500000000000    0.7589399999999999 C
   0.2139300000000000    0.8878800000000000    0.8870000000000000 C
   0.2870800000000000    0.8616900000000000    0.4776100000000000 C
   0.2064200000000000    0.8851599999999999    0.6094200000000000 C
   0.1198100000000000    0.9132500000000000    0.4747900000000000 C
   0.1204400000000000    0.9125200000000000    0.5658600000000000 C
   0.2048200000000000    0.8871300000000000    0.4284500000000000 C
   0.2048400000000000    0.0641800000000000    0.1539300000000000 C
   0.2167300000000000    0.7192000000000000    0.1630700000000000 C
   0.1314700000000000    0.2246700000000000    0.1412600000000000 C
   0.2167700000000000    0.3419200000000000    0.1624000000000000 C
   0.2963200000000000    0.1930900000000000    0.1795500000000000 C
   0.2994600000000000    0.2837900000000000    0.1820100000000000 C
   0.2104800000000000    0.1616500000000000    0.1582100000000000 C
   0.1386300000000000    0.5757900000000000    0.1862100000000000 C
   0.2189100000000000    0.4396000000000000    0.1622600000000000 C
   0.3039800000000000    0.5696900000000000    0.1375600000000000 C
   0.3036500000000000    0.4783900000000000    0.1372100000000000 C
   0.2197400000000000    0.6204499999999999    0.1626100000000000 C
   0.8667500000000000    0.6876200000000000    0.8572900000000000 N
   0.8629599999999999    0.5120900000000000    0.8135100000000000 N
   0.7069000000000000    0.1065000000000000    0.2573500000000000 N
   0.7108600000000000    0.1395700000000000    0.4346600000000000 N
   0.0370600000000000    0.1011100000000000    0.8414100000000000 N
   0.5395000000000000    0.1227600000000000    0.8451200000000000 N
   0.2931700000000000    0.8934900000000000    0.7426300000000000 N
   0.2891800000000000    0.8604000000000001    0.5653400000000000 N
   0.1333000000000000    0.3123400000000000    0.1427100000000000 N
   0.1370900000000000    0.4878700000000000    0.1865000000000000 N
   0.8762799999999999    0.9621499999999999    0.8591100000000000 O
   0.7159900000000000    0.9848200000000000    0.8370500000000000 O
   0.8630800000000000    0.2374600000000000    0.8184399999999999 O
   0.7041500000000001    0.2477500000000000    0.8560000000000000 O
   0.7122100000000000    0.1361000000000000    0.7077400000000000 O
   0.8714600000000000    0.0887900000000000    0.7080300000000000 O
   0.7011600000000000    0.0957800000000000    0.9843700000000000 O
   0.8606200000000001    0.1110500000000000    0.9719200000000000 O
   0.2878300000000000    0.8638700000000000    0.2922600000000000 O
   0.1285800000000000    0.9111800000000000    0.2919700000000000 O
   0.2989800000000000    0.9041800000000000    0.0156100000000000 O
   0.1395300000000000    0.8889100000000000    0.0281000000000000 O
   0.9630100000000000    0.8988600000000000    0.1585800000000000 O
   0.4605600000000000    0.8772100000000000    0.1548800000000000 O
   0.1237800000000000    0.0378100000000000    0.1408900000000000 O
   0.2840700000000000    0.0151500000000000    0.1629500000000000 O
   0.1369600000000000    0.7625000000000000    0.1815700000000000 O
   0.2958900000000000    0.7522200000000000    0.1440000000000000 O
