H4 O2
1.0
  14.0047354240300344    0.0000000000000000    0.5862377528940687
   1.5541212345626700   15.0621188739379068    1.3141092860355628
   0.0000000000000000    0.0000000000000000   15.2490000000000006
H O
4 2
direct
   0.9236390462133880    0.9024503872742028    0.2129290340315188 H
   0.9318491723216112    0.8903187111836368    0.1041465187667457 H
   0.4952466386898170    0.8612850529336649    0.2092932587687989 H
   0.4970577487343845    0.8945453431116237    0.1011919131151933 H
   0.9630100000000000    0.8988600000000000    0.1585800000000000 O
   0.4605600000000000    0.8772100000000000    0.1548800000000000 O
