H5 C9 N7
1.0
  13.2009999497343191    0.0000000000000000    0.0011520045713174
   0.0000008304799774   23.7069980898960253   -0.0095165994771286
   0.0000000000000000    0.0000000000000000   32.5339999999999989
H C N
5 9 7
direct
   0.3886100000000000    0.3055100000000000    0.0006750000000000 H
   0.1140500000000000    0.9214900000000000    0.0890900000000000 H
   0.9284900000000000    0.8983600000000000    0.0886750000000000 H
   0.8753500000000000    0.0632400000000000    0.0362900000000000 H
   0.8063300000000000    0.9718200000000000    0.0611350000000000 H
   0.2759600000000000    0.1880100000000000    0.0137100000000000 C
   0.3636800000000000    0.2621200000000000    0.0041650000000000 C
   0.0300500000000000    0.0402300000000000    0.0493750000000000 C
   0.1855200000000000    0.1548500000000000    0.0205750000000000 C
   0.0749200000000000    0.0931400000000000    0.0355250000000000 C
   0.0581300000000000    0.9514600000000000    0.0775500000000000 C
   0.9551200000000000    0.9389800000000000    0.0773900000000000 C
   0.9253800000000000    0.0307100000000000    0.0482800000000000 C
   0.8876700000000000    0.9795100000000000    0.0623700000000000 C
   0.2667200000000000    0.2450200000000000    0.0073400000000000 N
   0.4282800000000000    0.2184500000000000    0.0079000000000000 N
   0.3719100000000000    0.1701100000000000    0.0142500000000000 N
   0.0936200000000000    0.1798200000000000    0.0178650000000000 N
   0.1773400000000000    0.1000900000000000    0.0315150000000000 N
   0.0954400000000000    0.0008600000000000    0.0639500000000000 N
   0.0221800000000000    0.1402100000000000    0.0273700000000000 N
