Zn64 H195 C175 N256 O111
1.0
  18.4391181994581714    0.0000000000000000   -5.1507227673803690
  -0.6016730061817479   19.0989718659495935   -1.8624887267573376
   0.0000000000000000    0.0000000000000000   34.8400000000000034
Zn H C N O
64 195 175 256 111
direct
   0.1097800000000000    0.6163600000000000    0.4134400000000000 Zn
   0.1960900000000000    0.6357699999999999    0.5847350000000000 Zn
   0.3045800000000000    0.8669700000000000    0.4146900000000000 Zn
   0.3903000000000000    0.8874500000000000    0.5861000000000000 Zn
   0.1947200000000000    0.1359100000000000    0.5849100000000000 Zn
   0.1101900000000000    0.1161600000000000    0.4136250000000000 Zn
   0.3904100000000000    0.3855900000000000    0.5847900000000000 Zn
   0.3044200000000000    0.3668600000000000    0.4136650000000000 Zn
   0.5109300000000000    0.7273600000000000    0.3282800000000000 Zn
   0.8184200000000000    0.9753900000000000    0.3281850000000000 Zn
   0.5123300000000000    0.2275800000000000    0.3283500000000000 Zn
   0.8169000000000000    0.4762100000000000    0.3270150000000000 Zn
   0.6849700000000000    0.5254400000000000    0.6700200000000001 Zn
   0.9845400000000000    0.2750700000000000    0.6700650000000000 Zn
   0.6860300000000000    0.0258600000000000    0.6710000000000000 Zn
   0.9865100000000000    0.7754900000000000    0.6698500000000001 Zn
   0.6944600000000000    0.1337000000000000    0.5835800000000000 Zn
   0.6109599999999999    0.1142800000000000    0.4128500000000000 Zn
   0.8887800000000000    0.3845100000000000    0.5836250000000001 Zn
   0.8042100000000000    0.3660100000000000    0.4130800000000000 Zn
   0.6953300000000000    0.6345200000000000    0.5833950000000000 Zn
   0.8900800000000000    0.8854300000000001    0.5839400000000000 Zn
   0.8042800000000000    0.8641400000000000    0.4130700000000000 Zn
   0.6087700000000000    0.6140600000000001    0.4119500000000000 Zn
   0.3166600000000000    0.9774100000000000    0.3285350000000000 Zn
   0.0127600000000000    0.2272200000000000    0.3283600000000000 Zn
   0.0143200000000000    0.7272300000000000    0.3282000000000000 Zn
   0.4881500000000000    0.7751300000000000    0.6703000000000000 Zn
   0.1827900000000000    0.5253900000000000    0.6700000000000000 Zn
   0.3144000000000000    0.4756800000000000    0.3270500000000000 Zn
   0.4868800000000000    0.2751900000000000    0.6702450000000000 Zn
   0.1839600000000000    0.0273200000000000    0.6715700000000000 Zn
   0.1097800000000000    0.6163600000000000    0.9134400000000000 Zn
   0.1960900000000000    0.6357699999999999    0.0847350000000000 Zn
   0.3045800000000000    0.8669700000000000    0.9146900000000000 Zn
   0.3903000000000000    0.8874500000000000    0.0861000000000000 Zn
   0.1947200000000000    0.1359100000000000    0.0849100000000000 Zn
   0.1101900000000000    0.1161600000000000    0.9136250000000000 Zn
   0.3904100000000000    0.3855900000000000    0.0847900000000000 Zn
   0.3044200000000000    0.3668600000000000    0.9136649999999999 Zn
   0.5109300000000000    0.7273600000000000    0.8282800000000000 Zn
   0.8184200000000000    0.9753900000000000    0.8281849999999999 Zn
   0.5123300000000000    0.2275800000000000    0.8283499999999999 Zn
   0.8169000000000000    0.4762100000000000    0.8270150000000001 Zn
   0.6849700000000000    0.5254400000000000    0.1700200000000000 Zn
   0.9845400000000000    0.2750700000000000    0.1700650000000000 Zn
   0.6860300000000000    0.0258600000000000    0.1710000000000000 Zn
   0.9865100000000000    0.7754900000000000    0.1698500000000000 Zn
   0.6944600000000000    0.1337000000000000    0.0835800000000000 Zn
   0.6109599999999999    0.1142800000000000    0.9128499999999999 Zn
   0.8887800000000000    0.3845100000000000    0.0836250000000000 Zn
   0.8042100000000000    0.3660100000000000    0.9130800000000000 Zn
   0.6953300000000000    0.6345200000000000    0.0833950000000000 Zn
   0.8900800000000000    0.8854300000000001    0.0839400000000000 Zn
   0.8042800000000000    0.8641400000000000    0.9130700000000000 Zn
   0.6087700000000000    0.6140600000000001    0.9119500000000000 Zn
   0.3166600000000000    0.9774100000000000    0.8285350000000000 Zn
   0.0127600000000000    0.2272200000000000    0.8283600000000000 Zn
   0.0143200000000000    0.7272300000000000    0.8282000000000000 Zn
   0.4881500000000000    0.7751300000000000    0.1703000000000000 Zn
   0.1827900000000000    0.5253900000000000    0.1700000000000000 Zn
   0.3144000000000000    0.4756800000000000    0.8270500000000001 Zn
   0.4868800000000000    0.2751900000000000    0.1702450000000000 Zn
   0.1839600000000000    0.0273200000000000    0.1715700000000000 Zn
   0.0872600000000000    0.6466600000000000    0.7018000000000000 H
   0.0112400000000000    0.7687200000000000    0.5833500000000000 H
   0.0616900000000000    0.7165600000000000    0.5580100000000000 H
   0.9329100000000000    0.4709900000000000    0.4082700000000000 H
   0.0022100000000000    0.5274900000000000    0.4365300000000000 H
   0.8852400000000000    0.6085000000000000    0.2959350000000000 H
   0.3052500000000000    0.7487100000000000    0.4647200000000000 H
   0.2468600000000000    0.6797900000000000    0.4673400000000000 H
   0.1525900000000000    0.8315100000000000    0.3469000000000000 H
   0.3141900000000000    0.4872400000000000    0.5262950000000000 H
   0.2740100000000000    0.5669100000000000    0.5294850000000000 H
   0.3022400000000000    0.4215100000000000    0.6518900000000000 H
   0.4092200000000000    0.8554600000000000    0.2960100000000000 H
   0.4859500000000000    0.7319200000000000    0.4135000000000000 H
   0.4388700000000000    0.7858200000000000    0.4403400000000000 H
   0.0110300000000000    0.2690300000000000    0.5846450000000000 H
   0.0603600000000000    0.2167500000000000    0.5593300000000000 H
   0.0861600000000000    0.1466500000000000    0.7027950000000001 H
   0.4087000000000000    0.3544600000000000    0.2948750000000000 H
   0.4885300000000000    0.2346300000000000    0.4135250000000000 H
   0.4401100000000000    0.2878700000000000    0.4399050000000000 H
   0.5693000000000000    0.5274400000000000    0.5873699999999999 H
   0.4973200000000000    0.4731800000000000    0.5608000000000000 H
   0.6173700000000000    0.3931200000000000    0.7011250000000000 H
   0.5687500000000000    0.0297700000000000    0.5884750000000000 H
   0.4961900000000000    0.9761000000000000    0.5619550000000000 H
   0.6188100000000000    0.8925300000000000    0.7011300000000000 H
   0.1959200000000000    0.7540900000000000    0.5345500000000000 H
   0.2534100000000000    0.8236599999999999    0.5322950000000000 H
   0.3504300000000000    0.6693500000000000    0.6511950000000000 H
   0.3059900000000000    0.9243200000000000    0.6540600000000000 H
   0.3056900000000000    0.9858800000000000    0.5252300000000000 H
   0.2713500000000000    0.0684000000000000    0.5301900000000001 H
   0.1539600000000000    0.9971400000000000    0.4628300000000000 H
   0.2184200000000000    0.9317200000000000    0.4676650000000000 H
   0.2000700000000000    0.0818100000000000    0.3477250000000000 H
   0.9324600000000000    0.9738500000000000    0.4107950000000000 H
   0.0031200000000000    0.0305800000000000    0.4386450000000000 H
   0.8865300000000000    0.1065500000000000    0.2964100000000000 H
   0.1857000000000000    0.5148200000000001    0.4719450000000000 H
   0.2268500000000000    0.4357100000000000    0.4690000000000000 H
   0.1952100000000000    0.5789800000000001    0.3455500000000000 H
   0.2184000000000000    0.2360300000000000    0.5250000000000000 H
   0.2591800000000000    0.3182400000000000    0.5298600000000000 H
   0.3469300000000000    0.1718900000000000    0.6526000000000001 H
   0.3087400000000000    0.2468400000000000    0.4622400000000000 H
   0.2486200000000000    0.1814500000000000    0.4671250000000000 H
   0.1490400000000000    0.3327500000000000    0.3479900000000000 H
   0.9898900000000000    0.7325300000000000    0.4143900000000000 H
   0.9397799999999999    0.7847800000000000    0.4400800000000000 H
   0.9127600000000000    0.8548200000000000    0.2960500000000000 H
   0.9096700000000000    0.3542300000000000    0.2948000000000000 H
   0.9884600000000000    0.2338900000000000    0.4133950000000000 H
   0.9399600000000000    0.2872200000000000    0.4397400000000000 H
   0.5170300000000000    0.7733000000000000    0.5861600000000000 H
   0.5635400000000000    0.7199400000000000    0.5597050000000000 H
   0.5886800000000000    0.6451900000000000    0.7021450000000000 H
   0.5150100000000000    0.2715900000000000    0.5855399999999999 H
   0.5620800000000000    0.2182700000000000    0.5593950000000000 H
   0.5880200000000000    0.1456400000000000    0.7024000000000000 H
   0.0673600000000000    0.0318200000000000    0.5889300000000000 H
   0.9956000000000000    0.9780700000000000    0.5617400000000000 H
   0.1166400000000000    0.8928900000000000    0.7007250000000000 H
   0.4323400000000000    0.9734300000000000    0.4103250000000000 H
   0.5040000000000000    0.0292300000000000    0.4379850000000000 H
   0.3846000000000000    0.1087200000000000    0.2970000000000000 H
   0.8451100000000000    0.1712500000000000    0.6518250000000000 H
   0.7585100000000000    0.3167800000000000    0.5285900000000000 H
   0.7188600000000001    0.2338500000000000    0.5234150000000000 H
   0.8101000000000000    0.2445300000000000    0.4605750000000000 H
   0.7498300000000000    0.1795200000000000    0.4658100000000000 H
   0.6484600000000000    0.3321800000000000    0.3476850000000000 H
   0.0636800000000000    0.5336800000000000    0.5902400000000000 H
   0.9934600000000000    0.4784600000000000    0.5620500000000000 H
   0.1160800000000000    0.3912000000000000    0.7003100000000000 H
   0.4304100000000000    0.4728200000000000    0.4100800000000000 H
   0.5017800000000000    0.5289900000000000    0.4376400000000000 H
   0.3823200000000000    0.6082000000000000    0.2966100000000000 H
   0.7713700000000000    0.5669900000000000    0.5283650000000000 H
   0.8053500000000000    0.4842200000000000    0.5231650000000000 H
   0.8045800000000000    0.4211900000000000    0.6514000000000000 H
   0.6525300000000001    0.4952100000000000    0.4608850000000000 H
   0.7174800000000000    0.4303600000000000    0.4658650000000000 H
   0.6993900000000000    0.5803600000000000    0.3460750000000000 H
   0.8469600000000000    0.6713000000000000    0.6517400000000000 H
   0.7593100000000000    0.8172199999999999    0.5287150000000000 H
   0.7199000000000000    0.7342300000000000    0.5236050000000000 H
   0.8088500000000000    0.7433700000000000    0.4600500000000000 H
   0.7482700000000000    0.6786000000000000    0.4653450000000000 H
   0.6481100000000000    0.8315000000000000    0.3470850000000000 H
   0.8065000000000000    0.9220000000000000    0.6524400000000000 H
   0.7712100000000000    0.0668100000000000    0.5287900000000000 H
   0.8053900000000001    0.9840700000000000    0.5236000000000000 H
   0.6527600000000000    0.9943500000000000    0.4610650000000000 H
   0.7178300000000000    0.9294800000000000    0.4662300000000000 H
   0.7016400000000000    0.0802300000000000    0.3469650000000000 H
   0.0872600000000000    0.6466600000000000    0.2018000000000000 H
   0.0112400000000000    0.7687200000000000    0.0833500000000000 H
   0.0616900000000000    0.7165600000000000    0.0580100000000000 H
   0.9329100000000000    0.4709900000000000    0.9082700000000000 H
   0.0022100000000000    0.5274900000000000    0.9365300000000000 H
   0.8852400000000000    0.6085000000000000    0.7959350000000001 H
   0.3052500000000000    0.7487100000000000    0.9647200000000000 H
   0.2468600000000000    0.6797900000000000    0.9673400000000000 H
   0.1525900000000000    0.8315100000000000    0.8469000000000000 H
   0.3141900000000000    0.4872400000000000    0.0262950000000000 H
   0.2740100000000000    0.5669100000000000    0.0294850000000000 H
   0.3022400000000000    0.4215100000000000    0.1518900000000000 H
   0.4092200000000000    0.8554600000000000    0.7960100000000000 H
   0.4859500000000000    0.7319200000000000    0.9135000000000000 H
   0.4388700000000000    0.7858200000000000    0.9403400000000000 H
   0.0110300000000000    0.2690300000000000    0.0846450000000000 H
   0.0603600000000000    0.2167500000000000    0.0593300000000000 H
   0.0861600000000000    0.1466500000000000    0.2027950000000000 H
   0.4087000000000000    0.3544600000000000    0.7948750000000000 H
   0.4885300000000000    0.2346300000000000    0.9135249999999999 H
   0.4401100000000000    0.2878700000000000    0.9399050000000000 H
   0.5693000000000000    0.5274400000000000    0.0873700000000000 H
   0.4973200000000000    0.4731800000000000    0.0608000000000000 H
   0.6173700000000000    0.3931200000000000    0.2011250000000000 H
   0.5687500000000000    0.0297700000000000    0.0884750000000000 H
   0.4961900000000000    0.9761000000000000    0.0619550000000000 H
   0.6188100000000000    0.8925300000000000    0.2011300000000000 H
   0.1959200000000000    0.7540900000000000    0.0345500000000000 H
   0.2534100000000000    0.8236599999999999    0.0322950000000000 H
   0.3504300000000000    0.6693500000000000    0.1511950000000000 H
   0.3059900000000000    0.9243200000000000    0.1540600000000000 H
   0.3056900000000000    0.9858800000000000    0.0252300000000000 H
   0.2713500000000000    0.0684000000000000    0.0301900000000000 H
   0.1539600000000000    0.9971400000000000    0.9628300000000001 H
   0.2184200000000000    0.9317200000000000    0.9676650000000000 H
   0.2000700000000000    0.0818100000000000    0.8477250000000001 H
   0.9324600000000000    0.9738500000000000    0.9107950000000000 H
   0.0031200000000000    0.0305800000000000    0.9386450000000000 H
   0.8865300000000000    0.1065500000000000    0.7964100000000001 H
   0.1857000000000000    0.5148200000000001    0.9719450000000001 H
   0.2268500000000000    0.4357100000000000    0.9690000000000000 H
   0.1952100000000000    0.5789800000000001    0.8455500000000000 H
   0.2184000000000000    0.2360300000000000    0.0250000000000000 H
   0.2591800000000000    0.3182400000000000    0.0298600000000000 H
   0.3469300000000000    0.1718900000000000    0.1526000000000000 H
   0.3087400000000000    0.2468400000000000    0.9622400000000000 H
   0.2486200000000000    0.1814500000000000    0.9671250000000000 H
   0.1490400000000000    0.3327500000000000    0.8479900000000000 H
   0.9898900000000000    0.7325300000000000    0.9143900000000000 H
   0.9397799999999999    0.7847800000000000    0.9400800000000000 H
   0.9127600000000000    0.8548200000000000    0.7960499999999999 H
   0.5150100000000000    0.2715900000000000    0.0855400000000000 H
   0.5620800000000000    0.2182700000000000    0.0593950000000000 H
   0.5880200000000000    0.1456400000000000    0.2024000000000000 H
   0.4323400000000000    0.9734300000000000    0.9103250000000001 H
   0.5040000000000000    0.0292300000000000    0.9379850000000001 H
   0.3846000000000000    0.1087200000000000    0.7969999999999999 H
   0.8451100000000000    0.1712500000000000    0.1518250000000000 H
   0.7585100000000000    0.3167800000000000    0.0285900000000000 H
   0.7188600000000001    0.2338500000000000    0.0234150000000000 H
   0.8101000000000000    0.2445300000000000    0.9605750000000000 H
   0.7498300000000000    0.1795200000000000    0.9658100000000001 H
   0.6484600000000000    0.3321800000000000    0.8476850000000000 H
   0.0636800000000000    0.5336800000000000    0.0902400000000000 H
   0.9934600000000000    0.4784600000000000    0.0620500000000000 H
   0.1160800000000000    0.3912000000000000    0.2003100000000000 H
   0.6525300000000001    0.4952100000000000    0.9608850000000000 H
   0.7174800000000000    0.4303600000000000    0.9658650000000000 H
   0.6993900000000000    0.5803600000000000    0.8460750000000000 H
   0.9096700000000000    0.3542300000000000    0.7948000000000000 H
   0.9045402685761921    0.3323823669682353    0.9491544014073809 H
   0.9884600000000000    0.2338900000000000    0.9133950000000000 H
   0.9399600000000000    0.2872200000000000    0.9397400000000000 H
   0.9610106587180732    0.3682295992723153    0.0467512408766666 H
   0.9785443398359821    0.3371629898903326    0.9979176026243187 H
   0.5170300000000000    0.7733000000000000    0.0861600000000000 H
   0.5635400000000000    0.7199400000000000    0.0597050000000000 H
   0.5886800000000000    0.6451900000000000    0.2021450000000000 H
   0.0673600000000000    0.0318200000000000    0.0889300000000000 H
   0.9956000000000000    0.9780700000000000    0.0617400000000000 H
   0.1166400000000000    0.8928900000000000    0.2007250000000000 H
   0.4304100000000000    0.4728200000000000    0.9100800000000000 H
   0.5017800000000000    0.5289900000000000    0.9376400000000000 H
   0.3823200000000000    0.6082000000000000    0.7966100000000000 H
   0.7713700000000000    0.5669900000000000    0.0283650000000000 H
   0.8053500000000000    0.4842200000000000    0.0231650000000000 H
   0.8045800000000000    0.4211900000000000    0.1514000000000000 H
   0.8469600000000000    0.6713000000000000    0.1517400000000000 H
   0.7593100000000000    0.8172199999999999    0.0287150000000000 H
   0.7199000000000000    0.7342300000000000    0.0236050000000000 H
   0.8088500000000000    0.7433700000000000    0.9600500000000001 H
   0.7482700000000000    0.6786000000000000    0.9653450000000000 H
   0.6481100000000000    0.8315000000000000    0.8470850000000000 H
   0.8065000000000000    0.9220000000000000    0.1524400000000000 H
   0.7712100000000000    0.0668100000000000    0.0287900000000000 H
   0.8053900000000001    0.9840700000000000    0.0236000000000000 H
   0.6527600000000000    0.9943500000000000    0.9610650000000001 H
   0.7178300000000000    0.9294800000000000    0.9662299999999999 H
   0.7016400000000000    0.0802300000000000    0.8469650000000000 H
   0.0257300000000000    0.2823600000000000    0.7560100000000001 C
   0.9723300000000000    0.2183600000000000    0.7423200000000000 C
   0.0257300000000000    0.2823600000000000    0.2560100000000000 C
   0.9723300000000000    0.2183600000000000    0.2423200000000000 C
   0.5259200000000001    0.2836600000000000    0.2562450000000000 C
   0.4739700000000000    0.2186200000000000    0.2424000000000000 C
   0.5259200000000001    0.2836600000000000    0.7562450000000001 C
   0.4739700000000000    0.2186200000000000    0.7423999999999999 C
   0.5252900000000000    0.7838400000000000    0.7563100000000000 C
   0.4738300000000000    0.7184800000000000    0.7423050000000000 C
   0.5252900000000000    0.7838400000000000    0.2563100000000000 C
   0.4738300000000000    0.7184800000000000    0.2423050000000000 C
   0.9745700000000000    0.7190000000000000    0.7421800000000001 C
   0.0269600000000000    0.7837499999999999    0.7558500000000000 C
   0.9745700000000000    0.7190000000000000    0.2421800000000000 C
   0.0269600000000000    0.7837499999999999    0.2558500000000000 C
   0.7332000000000000    0.5334100000000001    0.2556600000000000 C
   0.7683300000000000    0.4667800000000000    0.2413950000000000 C
   0.7332000000000000    0.5334100000000001    0.7556600000000000 C
   0.7683300000000000    0.4667800000000000    0.7413950000000000 C
   0.2311600000000000    0.5336800000000000    0.2556300000000000 C
   0.2659800000000000    0.4668200000000000    0.2414200000000000 C
   0.2311600000000000    0.5336800000000000    0.7556300000000000 C
   0.2659800000000000    0.4668200000000000    0.7414200000000000 C
   0.2324200000000000    0.0355200000000000    0.2571850000000000 C
   0.2667300000000000    0.9683500000000000    0.2429300000000000 C
   0.7694500000000000    0.9667600000000000    0.7423550000000000 C
   0.7345900000000000    0.0336100000000000    0.7565450000000000 C
   0.0914300000000000    0.6562800000000000    0.6723700000000000 C
   0.0756400000000000    0.6983800000000000    0.6158800000000000 C
   0.9194300000000000    0.5964900000000000    0.3246000000000000 C
   0.9618100000000001    0.5491600000000000    0.3790850000000000 C
   0.2139900000000000    0.7369000000000000    0.4188850000000000 C
   0.1631800000000000    0.7938900000000000    0.3689450000000000 C
   0.1417100000000000    0.6306800000000000    0.4981650000000000 C
   0.2906500000000000    0.5118100000000000    0.5778050000000000 C
   0.2910500000000000    0.4580900000000000    0.6293000000000000 C
   0.4059800000000000    0.8461500000000000    0.3256700000000000 C
   0.4229800000000000    0.8043600000000000    0.3822800000000000 C
   0.0910400000000000    0.1569100000000000    0.6735750000000000 C
   0.0762200000000000    0.1996200000000000    0.6173800000000000 C
   0.4057200000000000    0.3455500000000000    0.3246000000000000 C
   0.4235900000000000    0.3049400000000000    0.3816300000000000 C
   0.5825300000000000    0.4052200000000000    0.6726449999999999 C
   0.5393100000000000    0.4523400000000000    0.6181500000000000 C
   0.5835300000000000    0.9052400000000000    0.6729000000000001 C
   0.5395100000000000    0.9536700000000000    0.6189450000000000 C
   0.2872800000000000    0.7656800000000000    0.5803050000000000 C
   0.3392400000000000    0.7075500000000000    0.6294999999999999 C
   0.2932700000000000    0.9603500000000000    0.6311950000000000 C
   0.2886000000000000    0.0123400000000000    0.5785150000000000 C
   0.3573300000000000    0.8735300000000000    0.5000000000000000 C
   0.2042500000000000    0.9864700000000000    0.4188500000000000 C
   0.2097100000000000    0.0441200000000000    0.3696950000000000 C
   0.9613800000000000    0.0511300000000000    0.3809850000000000 C
   0.9200700000000001    0.0959200000000000    0.3255200000000000 C
   0.3601200000000000    0.3722900000000000    0.5000000000000000 C
   0.2088500000000000    0.4899700000000000    0.4203350000000000 C
   0.2070700000000000    0.5427900000000000    0.3683550000000000 C
   0.2895700000000000    0.2614900000000000    0.5778500000000000 C
   0.3371800000000000    0.2083300000000000    0.6299450000000000 C
   0.1418700000000000    0.1224400000000000    0.5000000000000000 C
   0.2148300000000000    0.2366700000000000    0.4185500000000000 C
   0.1608500000000000    0.2948700000000000    0.3698400000000000 C
   0.9255300000000000    0.8033800000000000    0.3821850000000000 C
   0.9090100000000000    0.8452600000000000    0.3255850000000000 C
   0.9066000000000000    0.3453500000000000    0.3245700000000000 C
   0.9241600000000000    0.3047500000000000    0.3815500000000000 C
   0.5936700000000000    0.6561000000000000    0.6730500000000000 C
   0.5798400000000000    0.7007800000000000    0.6174900000000000 C
   0.5928400000000000    0.1561200000000000    0.6732150000000000 C
   0.5784000000000000    0.1998200000000000    0.6173350000000000 C
   0.0817000000000000    0.9056800000000000    0.6724250000000001 C
   0.0379800000000000    0.9546400000000000    0.6186450000000000 C
   0.4611800000000000    0.0509400000000000    0.3806550000000000 C
   0.4188200000000000    0.0972400000000000    0.3257750000000000 C
   0.8356900000000000    0.2074500000000000    0.6290450000000000 C
   0.7889000000000000    0.2599500000000000    0.5766000000000000 C
   0.6419600000000000    0.1201300000000000    0.4988250000000000 C
   0.7154300000000000    0.2349200000000000    0.4174800000000000 C
   0.6607000000000000    0.2939000000000000    0.3692950000000000 C
   0.0806900000000000    0.4043400000000000    0.6722100000000000 C
   0.0359500000000000    0.4540700000000000    0.6188300000000000 C
   0.4588100000000000    0.5504200000000000    0.3802600000000000 C
   0.4165100000000000    0.5967400000000000    0.3253950000000000 C
   0.7880400000000000    0.5103100000000000    0.5760000000000000 C
   0.7921400000000000    0.4575600000000000    0.6287450000000000 C
   0.8580200000000000    0.3717100000000000    0.4988550000000000 C
   0.7031800000000000    0.4848400000000000    0.4170550000000000 C
   0.7089900000000000    0.5426500000000000    0.3680250000000000 C
   0.8373200000000000    0.7076600000000000    0.6290000000000000 C
   0.7901899999999999    0.7603900000000000    0.5767300000000000 C
   0.6419200000000000    0.6211400000000000    0.4986250000000000 C
   0.7142300000000000    0.7340100000000001    0.4169350000000000 C
   0.6600700000000000    0.7931800000000000    0.3686800000000000 C
   0.7935600000000000    0.9581200000000000    0.6296300000000000 C
   0.7884100000000001    0.0104200000000000    0.5769950000000000 C
   0.8580900000000000    0.8709600000000000    0.4989750000000000 C
   0.7041200000000000    0.9841000000000000    0.4175000000000000 C
   0.7107599999999999    0.0423100000000000    0.3687950000000000 C
   0.2324200000000000    0.0355200000000000    0.7571850000000000 C
   0.2667300000000000    0.9683500000000000    0.7429300000000000 C
   0.7694500000000000    0.9667600000000000    0.2423550000000000 C
   0.7345900000000000    0.0336100000000000    0.2565450000000000 C
   0.0914300000000000    0.6562800000000000    0.1723700000000000 C
   0.0756400000000000    0.6983800000000000    0.1158800000000000 C
   0.9194300000000000    0.5964900000000000    0.8246000000000000 C
   0.9618100000000001    0.5491600000000000    0.8790850000000000 C
   0.2139900000000000    0.7369000000000000    0.9188850000000000 C
   0.1631800000000000    0.7938900000000000    0.8689450000000001 C
   0.1417100000000000    0.6306800000000000    0.9981650000000000 C
   0.2906500000000000    0.5118100000000000    0.0778050000000000 C
   0.2910500000000000    0.4580900000000000    0.1293000000000000 C
   0.4059800000000000    0.8461500000000000    0.8256700000000000 C
   0.4229800000000000    0.8043600000000000    0.8822800000000000 C
   0.0910400000000000    0.1569100000000000    0.1735750000000000 C
   0.0762200000000000    0.1996200000000000    0.1173800000000000 C
   0.4057200000000000    0.3455500000000000    0.8246000000000000 C
   0.4235900000000000    0.3049400000000000    0.8816300000000000 C
   0.5825300000000000    0.4052200000000000    0.1726450000000000 C
   0.5393100000000000    0.4523400000000000    0.1181500000000000 C
   0.5835300000000000    0.9052400000000000    0.1729000000000000 C
   0.5395100000000000    0.9536700000000000    0.1189450000000000 C
   0.2872800000000000    0.7656800000000000    0.0803050000000000 C
   0.3392400000000000    0.7075500000000000    0.1295000000000000 C
   0.2932700000000000    0.9603500000000000    0.1311950000000000 C
   0.2886000000000000    0.0123400000000000    0.0785150000000000 C
   0.3573300000000000    0.8735300000000000    0.0000000000000000 C
   0.2042500000000000    0.9864700000000000    0.9188499999999999 C
   0.2097100000000000    0.0441200000000000    0.8696950000000000 C
   0.9613800000000000    0.0511300000000000    0.8809850000000000 C
   0.9200700000000001    0.0959200000000000    0.8255200000000000 C
   0.3601200000000000    0.3722900000000000    0.0000000000000000 C
   0.2088500000000000    0.4899700000000000    0.9203350000000000 C
   0.2070700000000000    0.5427900000000000    0.8683550000000000 C
   0.2895700000000000    0.2614900000000000    0.0778500000000000 C
   0.3371800000000000    0.2083300000000000    0.1299450000000000 C
   0.1418700000000000    0.1224400000000000    0.0000000000000000 C
   0.2148300000000000    0.2366700000000000    0.9185500000000000 C
   0.1608500000000000    0.2948700000000000    0.8698399999999999 C
   0.9255300000000000    0.8033800000000000    0.8821850000000000 C
   0.9090100000000000    0.8452600000000000    0.8255850000000000 C
   0.5928400000000000    0.1561200000000000    0.1732150000000000 C
   0.5784000000000000    0.1998200000000000    0.1173350000000000 C
   0.4611800000000000    0.0509400000000000    0.8806550000000000 C
   0.4188200000000000    0.0972400000000000    0.8257749999999999 C
   0.8356900000000000    0.2074500000000000    0.1290450000000000 C
   0.7889000000000000    0.2599500000000000    0.0766000000000000 C
   0.6419600000000000    0.1201300000000000    0.9988250000000001 C
   0.7154300000000000    0.2349200000000000    0.9174800000000001 C
   0.6607000000000000    0.2939000000000000    0.8692949999999999 C
   0.0806900000000000    0.4043400000000000    0.1722100000000000 C
   0.0359500000000000    0.4540700000000000    0.1188300000000000 C
   0.7031800000000000    0.4848400000000000    0.9170550000000000 C
   0.7089900000000000    0.5426500000000000    0.8680250000000000 C
   0.9066000000000000    0.3453500000000000    0.8245700000000000 C
   0.9241600000000000    0.3047500000000000    0.8815500000000001 C
   0.5936700000000000    0.6561000000000000    0.1730500000000000 C
   0.5798400000000000    0.7007800000000000    0.1174900000000000 C
   0.0817000000000000    0.9056800000000000    0.1724250000000000 C
   0.0379800000000000    0.9546400000000000    0.1186450000000000 C
   0.4588100000000000    0.5504200000000000    0.8802600000000000 C
   0.4165100000000000    0.5967400000000000    0.8253950000000000 C
   0.7880400000000000    0.5103100000000000    0.0760000000000000 C
   0.7921400000000000    0.4575600000000000    0.1287450000000000 C
   0.8373200000000000    0.7076600000000000    0.1290000000000000 C
   0.7901899999999999    0.7603900000000000    0.0767300000000000 C
   0.6419200000000000    0.6211400000000000    0.9986250000000000 C
   0.7142300000000000    0.7340100000000001    0.9169350000000001 C
   0.6600700000000000    0.7931800000000000    0.8686800000000000 C
   0.7935600000000000    0.9581200000000000    0.1296300000000000 C
   0.7884100000000001    0.0104200000000000    0.0769950000000000 C
   0.8580900000000000    0.8709600000000000    0.9989749999999999 C
   0.7041200000000000    0.9841000000000000    0.9175000000000000 C
   0.7107599999999999    0.0423100000000000    0.8687950000000000 C
   0.1339500000000000    0.6203500000000000    0.6538900000000000 N
   0.0550800000000000    0.7383700000000000    0.5848000000000000 N