H3 C2 N4
1.0
  18.4391181994581714    0.0000000000000000   -5.1507227673803690
  -0.6016730061817479   19.0989718659495935   -1.8624887267573376
   0.0000000000000000    0.0000000000000000   34.8400000000000034
H C N
3 2 4
direct
   0.9884600000000000    0.2338900000000000    0.9133950000000000 H
   0.9399600000000000    0.2872200000000000    0.9397400000000000 H
   0.9096700000000000    0.3542300000000000    0.7948000000000000 H
   0.9241600000000000    0.3047500000000000    0.8815500000000001 C
   0.9066000000000000    0.3453500000000000    0.8245700000000000 C
   0.8759200000000000    0.3561200000000000    0.8805050000000000 N
   0.8647000000000000    0.3816800000000000    0.8432750000000000 N
   0.9447500000000000    0.2966700000000000    0.8469300000000000 N
   0.9456000000000000    0.2652100000000000    0.9127750000000000 N
