H6 O4
1.0
  18.4391181994581714    0.0000000000000000   -5.1507227673803690
  -0.6016730061817479   19.0989718659495935   -1.8624887267573376
   0.0000000000000000    0.0000000000000000   34.8400000000000034
H O
6 4
direct
   0.8408032605469606    0.8971242289898002    0.2809912469517979 H
   0.7562140835431806   -0.0766138367332567    0.1800554962218658 H
   0.8108147578895005    0.8862183306172969    0.2254444131382031 H
   0.7468188197612768    1.0766291000165504    0.3187640506829487 H
   0.6634110328249050    0.1035884576392170    0.2180529439581819 H
   0.6922892959531137    0.1143929359396856    0.2734519735412580 H
   0.8093100000000000    0.9334600000000000    0.2693750000000000 O
   0.7553600000000000   -0.0497999999999999    0.2049900000000000 O
   0.7483600000000000    1.0499300000000000    0.2939150000000000 O
   0.6950100000000000    0.0672600000000000    0.2295850000000000 O
