H6 O4
1.0
  15.6031040304147837    0.0000000000000000   -0.1672142818477936
  -0.0428880308868740   18.8975165158425682    0.4931999090268200
   0.0000000000000000    0.0000000000000000   39.7060000000000031
H O
6 4
direct
   0.7224217658970047    0.9113709985722872    0.2510821985296840 H
   0.8880858033353154    0.7479991644775528    0.2640033659872273 H
   0.8071503453135852    0.8203537120159348    0.2579656529873400 H
   0.4975729318346510    0.6312403787838121    0.2277074276555515 H
   0.7044574120010820    0.5520228254996964    0.2634403209538433 H
   0.6204222679944321    0.5980493463388808    0.2466007481334743 H
   0.7780600000000000    0.8892500000000000    0.2542150000000000 O
   0.8677000000000000    0.7962800000000000    0.2613750000000000 O
   0.5177500000000000    0.5866000000000000    0.2373900000000000 O
   0.6442600000000001    0.5453100000000000    0.2580400000000000 O
