H1 O1
1.0
  32.8844889360125592    0.0000000000000000   -0.0269753084747077
  -0.0561253743144462   25.5159335120800073   -0.0155868364484702
   0.0000000000000000    0.0000000000000000   20.0659999999999989
H O
1 1
direct
   0.0269670695121495    0.3723447758497089    0.9094600098864077 H
   0.0297000000000000    0.3836750000000000    0.9558500000000000 O
