H5 C4 N2
1.0
  32.8844889360125592    0.0000000000000000   -0.0269753084747077
  -0.0561253743144462   25.5159335120800073   -0.0155868364484702
   0.0000000000000000    0.0000000000000000   20.0659999999999989
H C N
5 4 2
direct
   0.0036166666666667    0.4902050000000000    0.8734300000000000 H
   0.0228266666666667    0.4595850000000000    0.0024100000000000 H
   0.0218933333333333    0.3084150000000000    0.8172500000000000 H
   0.0185900000000000    0.2846900000000000    0.9000899999999999 H
   0.0664633333333333    0.3051550000000000    0.8679600000000000 H
   0.0259166666666667    0.3679900000000000    0.8916300000000000 C
   0.0125133333333333    0.4522950000000000    0.8927300000000000 C
   0.0215066666666667    0.4369650000000000    0.9567400000000000 C
   0.0336533333333333    0.3136900000000000    0.8679900000000000 C
   0.0297000000000000    0.3836750000000000    0.9558500000000000 N
   0.0153200000000000    0.4086400000000000    0.8517600000000000 N
