Cu48 H150 C368 N46 O192
1.0
  29.9500579119592771    0.0000000000000000    8.4084300003202461
   5.1289142942460808   28.1240297842368676    5.0356698519298915
   0.0000000000000000    0.0000000000000000   30.0500000000000007
Cu H C N O
48 150 368 46 192
direct
   0.4637700000000000    0.7416450000000000    0.7472550000000000 Cu
   0.4637700000000000    0.2416450000000000    0.7472550000000000 Cu
   0.5357499999999999    0.7570650000000000    0.7547150000000000 Cu
   0.5357499999999999    0.2570650000000000    0.7547150000000000 Cu
   0.4637700000000000    0.7416450000000000    0.2472550000000000 Cu
   0.4637700000000000    0.2416450000000000    0.2472550000000000 Cu
   0.5357499999999999    0.7570650000000000    0.2547150000000000 Cu
   0.5357499999999999    0.2570650000000000    0.2547150000000000 Cu
   0.9637700000000000    0.7416450000000000    0.7472550000000000 Cu
   0.9637700000000000    0.2416450000000000    0.7472550000000000 Cu
   0.0357500000000000    0.7570650000000000    0.7547150000000000 Cu
   0.0357500000000000    0.2570650000000000    0.7547150000000000 Cu
   0.9637700000000000    0.7416450000000000    0.2472550000000000 Cu
   0.9637700000000000    0.2416450000000000    0.2472550000000000 Cu
   0.0357500000000000    0.7570650000000000    0.2547150000000000 Cu
   0.0357500000000000    0.2570650000000000    0.2547150000000000 Cu
   0.7471000000000000    0.4595600000000000    0.7432600000000000 Cu
   0.7526500000000000    0.5391000000000000    0.2571200000000000 Cu
   0.7471000000000000    0.4595600000000000    0.2432600000000000 Cu
   0.7526500000000000    0.5391000000000000    0.7571200000000000 Cu
   0.7486450000000000    0.2399600000000000    0.9626399999999999 Cu
   0.7486450000000000    0.2399600000000000    0.4626400000000000 Cu
   0.7507200000000001    0.7586649999999999    0.0385650000000000 Cu
   0.7507200000000001    0.7586649999999999    0.5385650000000000 Cu
   0.7471000000000000    0.9595600000000000    0.7432600000000000 Cu
   0.7526500000000000    0.0391000000000000    0.2571200000000000 Cu
   0.7471000000000000    0.9595600000000000    0.2432600000000000 Cu
   0.7526500000000000    0.0391000000000000    0.7571200000000000 Cu
   0.7486450000000000    0.7399600000000000    0.4626400000000000 Cu
   0.7486450000000000    0.7399600000000000    0.9626399999999999 Cu
   0.7507200000000001    0.2586650000000000    0.0385650000000000 Cu
   0.7507200000000001    0.2586650000000000    0.5385650000000000 Cu
   0.2507200000000000    0.2586650000000000    0.0385650000000000 Cu
   0.2526500000000000    0.0391000000000000    0.7571200000000000 Cu
   0.2471000000000000    0.9595600000000000    0.2432600000000000 Cu
   0.2471000000000000    0.9595600000000000    0.7432600000000000 Cu
   0.2526500000000000    0.0391000000000000    0.2571200000000000 Cu
   0.2486450000000000    0.7399600000000000    0.4626400000000000 Cu
   0.2507200000000000    0.2586650000000000    0.5385650000000000 Cu
   0.2486450000000000    0.7399600000000000    0.9626399999999999 Cu
   0.2471000000000000    0.4595600000000000    0.7432600000000000 Cu
   0.2526500000000000    0.5391000000000000    0.2571200000000000 Cu
   0.2471000000000000    0.4595600000000000    0.2432600000000000 Cu
   0.2526500000000000    0.5391000000000000    0.7571200000000000 Cu
   0.2486450000000000    0.2399600000000000    0.9626399999999999 Cu
   0.2486450000000000    0.2399600000000000    0.4626400000000000 Cu
   0.2507200000000000    0.7586649999999999    0.0385650000000000 Cu
   0.2507200000000000    0.7586649999999999    0.5385650000000000 Cu
   0.4893500000000000    0.0887250000000000    0.7529150000000000 H
   0.6045250000000000    0.9750900000000000    0.7511800000000000 H
   0.6177500000000000    0.1181950000000000    0.7585100000000000 H
   0.5102300000000000    0.9102850000000000    0.7483900000000000 H
   0.3951100000000000    0.0238000000000000    0.7489200000000000 H
   0.3820450000000000    0.8803700000000000    0.7426600000000000 H
   0.4893500000000000    0.5887249999999999    0.7529150000000000 H
   0.6045250000000000    0.4750900000000000    0.7511800000000000 H
   0.6177500000000000    0.6181950000000001    0.7585100000000000 H
   0.5102300000000000    0.4102850000000000    0.7483900000000000 H
   0.3951100000000000    0.5238000000000000    0.7489200000000000 H
   0.3820450000000000    0.3803700000000000    0.7426600000000000 H
   0.4893500000000000    0.0887250000000000    0.2529150000000000 H
   0.6045250000000000    0.9750900000000000    0.2511800000000000 H
   0.6177500000000000    0.1181950000000000    0.2585100000000000 H
   0.5102300000000000    0.9102850000000000    0.2483900000000000 H
   0.3951100000000000    0.0238000000000000    0.2489200000000000 H
   0.3820450000000000    0.8803700000000000    0.2426600000000000 H
   0.4893500000000000    0.5887249999999999    0.2529150000000000 H
   0.6045250000000000    0.4750900000000000    0.2511800000000000 H
   0.6177500000000000    0.6181950000000001    0.2585100000000000 H
   0.5102300000000000    0.4102850000000000    0.2483900000000000 H
   0.3951100000000000    0.5238000000000000    0.2489200000000000 H
   0.3820450000000000    0.3803700000000000    0.2426600000000000 H
   0.9893500000000000    0.0887250000000000    0.7529150000000000 H
   0.1045250000000000    0.9750900000000000    0.7511800000000000 H
   0.1177500000000000    0.1181950000000000    0.7585100000000000 H
   0.0102300000000000    0.9102850000000000    0.7483900000000000 H
   0.8951100000000001    0.0238000000000000    0.7489200000000000 H
   0.8820450000000000    0.8803700000000000    0.7426600000000000 H
   0.9893500000000000    0.5887249999999999    0.7529150000000000 H
   0.1045250000000000    0.4750900000000000    0.7511800000000000 H
   0.1177500000000000    0.6181950000000001    0.7585100000000000 H
   0.0102300000000000    0.4102850000000000    0.7483900000000000 H
   0.8951100000000001    0.5238000000000000    0.7489200000000000 H
   0.8820450000000000    0.3803700000000000    0.7426600000000000 H
   0.9893500000000000    0.0887250000000000    0.2529150000000000 H
   0.1045250000000000    0.9750900000000000    0.2511800000000000 H
   0.1177500000000000    0.1181950000000000    0.2585100000000000 H
   0.0102300000000000    0.9102850000000000    0.2483900000000000 H
   0.8951100000000001    0.0238000000000000    0.2489200000000000 H
   0.8820450000000000    0.8803700000000000    0.2426600000000000 H
   0.9893500000000000    0.5887249999999999    0.2529150000000000 H
   0.1045250000000000    0.4750900000000000    0.2511800000000000 H
   0.1177500000000000    0.6181950000000001    0.2585100000000000 H
   0.0102300000000000    0.4102850000000000    0.2483900000000000 H
   0.8951100000000001    0.5238000000000000    0.2489200000000000 H
   0.8820450000000000    0.3803700000000000    0.2426600000000000 H
   0.8945500000000000    0.7494900000000000    0.5236250000000000 H
   0.8868199999999999    0.7416900000000000    0.3842700000000000 H
   0.0146750000000000    0.7488900000000001    0.4108900000000000 H
   0.1048250000000000    0.7495250000000000    0.4782800000000000 H
   0.1125800000000000    0.7572500000000000    0.6176500000000000 H
   0.9846900000000001    0.7501850000000000    0.5910050000000000 H
   0.8945500000000000    0.7494900000000000    0.0236250000000000 H
   0.8868199999999999    0.7416900000000000    0.8842700000000000 H
   0.0146750000000000    0.7488900000000001    0.9108900000000000 H
   0.1048250000000000    0.7495250000000000    0.9782800000000000 H
   0.1125800000000000    0.7572500000000000    0.1176500000000000 H
   0.9846900000000001    0.7501850000000000    0.0910050000000000 H
   0.8945500000000000    0.2494900000000000    0.0236250000000000 H
   0.8868199999999999    0.2416900000000000    0.8842700000000000 H
   0.0146750000000000    0.2488900000000000    0.9108900000000000 H
   0.1048250000000000    0.2495250000000000    0.9782800000000000 H
   0.1125800000000000    0.2572500000000000    0.1176500000000000 H
   0.9846900000000001    0.2501850000000000    0.0910050000000000 H
   0.8945500000000000    0.2494900000000000    0.5236250000000000 H
   0.8868199999999999    0.2416900000000000    0.3842700000000000 H
   0.0146750000000000    0.2488900000000000    0.4108900000000000 H
   0.1048250000000000    0.2495250000000000    0.4782800000000000 H
   0.1125800000000000    0.2572500000000000    0.6176500000000000 H
   0.9846900000000001    0.2501850000000000    0.5910050000000000 H
   0.7335800000000000    0.3771350000000000    0.3823400000000000 H
   0.7345250000000000    0.5213350000000000    0.3991050000000000 H
   0.7433300000000000    0.4105200000000000    0.5133400000000000 H
   0.7660850000000000    0.6215100000000000    0.6179000000000000 H
   0.7653449999999999    0.4771700000000000    0.6014699999999999 H
   0.7565200000000001    0.5877150000000000    0.4870050000000000 H
   0.7335800000000000    0.3771350000000000    0.8823400000000000 H
   0.7345250000000000    0.5213350000000000    0.8991050000000000 H
   0.7433300000000000    0.4105200000000000    0.0133400000000000 H
   0.7660850000000000    0.6215100000000000    0.1179000000000000 H
   0.7653449999999999    0.4771700000000000    0.1014700000000000 H
   0.7565200000000001    0.5877150000000000    0.9870050000000000 H
   0.7335800000000000    0.8771350000000000    0.3823400000000000 H
   0.7345250000000000    0.0213350000000000    0.3991050000000000 H
   0.7433300000000000    0.9105200000000000    0.5133400000000000 H
   0.7660850000000000    0.1215100000000000    0.6179000000000000 H
   0.7653449999999999    0.9771700000000000    0.6014699999999999 H
   0.7565200000000001    0.0877150000000000    0.4870050000000000 H
   0.7335800000000000    0.8771350000000000    0.8823400000000000 H
   0.7345250000000000    0.0213350000000000    0.8991050000000000 H
   0.7433300000000000    0.9105200000000000    0.0133400000000000 H
   0.7660850000000000    0.1215100000000000    0.1179000000000000 H
   0.7653449999999999    0.9771700000000000    0.1014700000000000 H
   0.7565200000000001    0.0877150000000000    0.9870050000000000 H
   0.3945500000000000    0.2494900000000000    0.5236250000000000 H
   0.3868200000000000    0.2416900000000000    0.3842700000000000 H
   0.5146750000000000    0.2488900000000000    0.4108900000000000 H
   0.6048249999999999    0.2495250000000000    0.4782800000000000 H
   0.6125800000000000    0.2572500000000000    0.6176500000000000 H
   0.4846900000000000    0.2501850000000000    0.5910050000000000 H
   0.3945500000000000    0.7494900000000000    0.5236250000000000 H
   0.3868200000000000    0.7416900000000000    0.3842700000000000 H
   0.5146750000000000    0.7488900000000001    0.4108900000000000 H
   0.6048249999999999    0.7495250000000000    0.4782800000000000 H
   0.6125800000000000    0.7572500000000000    0.6176500000000000 H
   0.4846900000000000    0.7501850000000000    0.5910050000000000 H
   0.3945500000000000    0.7494900000000000    0.0236250000000000 H
   0.3868200000000000    0.7416900000000000    0.8842700000000000 H
   0.5146750000000000    0.7488900000000001    0.9108900000000000 H
   0.6048249999999999    0.7495250000000000    0.9782800000000000 H
   0.6125800000000000    0.7572500000000000    0.1176500000000000 H
   0.4846900000000000    0.7501850000000000    0.0910050000000000 H
   0.3945500000000000    0.2494900000000000    0.0236250000000000 H
   0.3868200000000000    0.2416900000000000    0.8842700000000000 H
   0.5146750000000000    0.2488900000000000    0.9108900000000000 H
   0.6048249999999999    0.2495250000000000    0.9782800000000000 H
   0.6125800000000000    0.2572500000000000    0.1176500000000000 H
   0.4846900000000000    0.2501850000000000    0.0910050000000000 H
   0.2619834925724128    0.1790793694816643    0.0905619887672369 H
   0.2589536475000813    0.1487817915734657    0.9682348205287736 H
   0.2612435130415979    0.1577613229180554    1.0313939448650604 H
   0.2371945776823185    0.0322119875865528    0.8442631037070885 H
   0.2292299940037081    0.9045724049983829    0.8219482682284519 H
   0.2318889189595851    0.9648620179574274    0.8391018797053174 H
   0.2631174445321670    0.9663837718529532    0.1561202772626109 H
   0.2698645005464068    0.0944212678279180    0.1785091643781610 H
   0.2678011579447540    1.0339748719489208    0.1613248241715186 H
   0.2335800000000000    0.8771350000000000    0.3823400000000000 H
   0.2345250000000000    0.0213350000000000    0.3991050000000000 H
   0.2433300000000000    0.9105200000000000    0.5133400000000000 H
   0.2660850000000000    0.1215100000000000    0.6179000000000000 H
   0.2653450000000000    0.9771700000000000    0.6014699999999999 H
   0.2565200000000000    0.0877150000000000    0.4870050000000000 H
   0.2412595133652378    0.8496764391998995    0.0317513049080590 H
   0.2370490732265768    0.8192443317690472    0.9098985078000539 H
   0.2383937585745626    0.8405659480253054    0.9685965425383122 H
   0.2335800000000000    0.3771350000000000    0.3823400000000000 H
   0.2345250000000000    0.5213350000000000    0.3991050000000000 H
   0.2433300000000000    0.4105200000000000    0.5133400000000000 H
   0.2660850000000000    0.6215100000000000    0.6179000000000000 H
   0.2653450000000000    0.4771700000000000    0.6014699999999999 H
   0.2565200000000000    0.5877150000000000    0.4870050000000000 H
   0.2335800000000000    0.3771350000000000    0.8823400000000000 H
   0.2345250000000000    0.5213350000000000    0.8991050000000000 H
   0.2433300000000000    0.4105200000000000    0.0133400000000000 H
   0.2660850000000000    0.6215100000000000    0.1179000000000000 H
   0.2653450000000000    0.4771700000000000    0.1014700000000000 H
   0.2565200000000000    0.5877150000000000    0.9870050000000000 H
   0.5316500000000000    0.1606050000000000    0.7559500000000000 C
   0.4680300000000000    0.8381449999999999    0.7458100000000000 C
   0.3342950000000000    0.9705100000000000    0.7459400000000000 C
   0.6654650000000000    0.0280800000000000    0.7544100000000000 C
   0.5247850000000001    0.0765700000000000    0.7538000000000000 C
   0.5514250000000001    0.1087600000000000    0.7559100000000001 C
   0.5898150000000000    0.0125600000000000    0.7528000000000000 C
   0.5971600000000000    0.0929450000000000    0.7565000000000000 C
   0.6163950000000000    0.0448750000000000    0.7550300000000000 C
   0.5440550000000000    0.0281950000000000    0.7524400000000000 C
   0.4748350000000000    0.9223500000000000    0.7472950000000000 C
   0.4482700000000000    0.8900200000000000    0.7453650000000001 C
   0.4555500000000000    0.9707650000000000    0.7482200000000000 C
   0.4098400000000000    0.9863000000000000    0.7476050000000000 C
   0.4025800000000000    0.9057299999999999    0.7441250000000000 C
   0.3833350000000000    0.9538350000000000    0.7455250000000000 C
   0.5316500000000000    0.6606050000000000    0.7559500000000000 C
   0.4680300000000000    0.3381450000000000    0.7458100000000000 C
   0.3342950000000000    0.4705100000000000    0.7459400000000000 C
   0.6654650000000000    0.5280800000000000    0.7544100000000000 C
   0.5247850000000001    0.5765700000000000    0.7538000000000000 C
   0.5514250000000001    0.6087600000000000    0.7559100000000001 C
   0.5898150000000000    0.5125600000000000    0.7528000000000000 C
   0.5971600000000000    0.5929450000000001    0.7565000000000000 C
   0.6163950000000000    0.5448750000000000    0.7550300000000000 C
   0.5440550000000000    0.5281950000000000    0.7524400000000000 C
   0.4748350000000000    0.4223500000000000    0.7472950000000000 C
   0.4482700000000000    0.3900200000000000    0.7453650000000001 C
   0.4555500000000000    0.4707650000000000    0.7482200000000000 C
   0.4098400000000000    0.4863000000000000    0.7476050000000000 C
   0.4025800000000000    0.4057300000000000    0.7441250000000000 C
   0.3833350000000000    0.4538350000000000    0.7455250000000000 C
   0.5316500000000000    0.1606050000000000    0.2559500000000000 C
   0.4680300000000000    0.8381449999999999    0.2458100000000000 C
   0.3342950000000000    0.9705100000000000    0.2459400000000000 C
   0.6654650000000000    0.0280800000000000    0.2544100000000000 C
   0.5247850000000001    0.0765700000000000    0.2538000000000000 C
   0.5514250000000001    0.1087600000000000    0.2559100000000000 C
   0.5898150000000000    0.0125600000000000    0.2528000000000000 C
   0.5971600000000000    0.0929450000000000    0.2565000000000000 C
   0.6163950000000000    0.0448750000000000    0.2550300000000000 C
   0.5440550000000000    0.0281950000000000    0.2524400000000000 C
   0.4748350000000000    0.9223500000000000    0.2472950000000000 C
   0.4482700000000000    0.8900200000000000    0.2453650000000000 C
   0.4555500000000000    0.9707650000000000    0.2482200000000000 C
   0.4098400000000000    0.9863000000000000    0.2476050000000000 C
   0.4025800000000000    0.9057299999999999    0.2441250000000000 C
   0.3833350000000000    0.9538350000000000    0.2455250000000000 C
   0.5316500000000000    0.6606050000000000    0.2559500000000000 C
   0.4680300000000000    0.3381450000000000    0.2458100000000000 C
   0.3342950000000000    0.4705100000000000    0.2459400000000000 C
   0.6654650000000000    0.5280800000000000    0.2544100000000000 C
   0.5247850000000001    0.5765700000000000    0.2538000000000000 C
   0.5514250000000001    0.6087600000000000    0.2559100000000000 C
   0.5898150000000000    0.5125600000000000    0.2528000000000000 C
   0.5971600000000000    0.5929450000000001    0.2565000000000000 C
   0.6163950000000000    0.5448750000000000    0.2550300000000000 C
   0.5440550000000000    0.5281950000000000    0.2524400000000000 C
   0.4748350000000000    0.4223500000000000    0.2472950000000000 C
   0.4482700000000000    0.3900200000000000    0.2453650000000000 C
   0.4555500000000000    0.4707650000000000    0.2482200000000000 C
   0.4098400000000000    0.4863000000000000    0.2476050000000000 C
   0.4025800000000000    0.4057300000000000    0.2441250000000000 C
   0.3833350000000000    0.4538350000000000    0.2455250000000000 C
   0.0316500000000000    0.1606050000000000    0.7559500000000000 C
   0.9680299999999999    0.8381449999999999    0.7458100000000000 C
   0.8342950000000000    0.9705100000000000    0.7459400000000000 C
   0.1654650000000000    0.0280800000000000    0.7544100000000000 C
   0.0247850000000000    0.0765700000000000    0.7538000000000000 C
   0.0514250000000000    0.1087600000000000    0.7559100000000001 C
   0.0898150000000000    0.0125600000000000    0.7528000000000000 C
   0.0971600000000000    0.0929450000000000    0.7565000000000000 C
   0.1163950000000000    0.0448750000000000    0.7550300000000000 C
   0.0440550000000000    0.0281950000000000    0.7524400000000000 C
   0.9748350000000000    0.9223500000000000    0.7472950000000000 C
   0.9482699999999999    0.8900200000000000    0.7453650000000001 C
   0.9555500000000000    0.9707650000000000    0.7482200000000000 C
   0.9098400000000000    0.9863000000000000    0.7476050000000000 C
   0.9025799999999999    0.9057299999999999    0.7441250000000000 C
   0.8833350000000000    0.9538350000000000    0.7455250000000000 C
   0.0316500000000000    0.6606050000000000    0.7559500000000000 C
   0.9680299999999999    0.3381450000000000    0.7458100000000000 C
   0.8342950000000000    0.4705100000000000    0.7459400000000000 C
   0.1654650000000000    0.5280800000000000    0.7544100000000000 C
   0.0247850000000000    0.5765700000000000    0.7538000000000000 C
   0.0514250000000000    0.6087600000000000    0.7559100000000001 C
   0.0898150000000000    0.5125600000000000    0.7528000000000000 C
   0.0971600000000000    0.5929450000000001    0.7565000000000000 C
   0.1163950000000000    0.5448750000000000    0.7550300000000000 C
   0.0440550000000000    0.5281950000000000    0.7524400000000000 C
   0.9748350000000000    0.4223500000000000    0.7472950000000000 C
   0.9482699999999999    0.3900200000000000    0.7453650000000001 C
   0.9555500000000000    0.4707650000000000    0.7482200000000000 C
   0.9098400000000000    0.4863000000000000    0.7476050000000000 C
   0.9025799999999999    0.4057300000000000    0.7441250000000000 C
   0.8833350000000000    0.4538350000000000    0.7455250000000000 C
   0.0316500000000000    0.1606050000000000    0.2559500000000000 C
   0.9680299999999999    0.8381449999999999    0.2458100000000000 C
   0.8342950000000000    0.9705100000000000    0.2459400000000000 C
   0.1654650000000000    0.0280800000000000    0.2544100000000000 C
   0.0247850000000000    0.0765700000000000    0.2538000000000000 C
   0.0514250000000000    0.1087600000000000    0.2559100000000000 C
   0.0898150000000000    0.0125600000000000    0.2528000000000000 C
   0.0971600000000000    0.0929450000000000    0.2565000000000000 C
   0.1163950000000000    0.0448750000000000    0.2550300000000000 C
   0.0440550000000000    0.0281950000000000    0.2524400000000000 C
   0.9748350000000000    0.9223500000000000    0.2472950000000000 C
   0.9482699999999999    0.8900200000000000    0.2453650000000000 C
   0.9555500000000000    0.9707650000000000    0.2482200000000000 C
   0.9098400000000000    0.9863000000000000    0.2476050000000000 C
   0.9025799999999999    0.9057299999999999    0.2441250000000000 C
   0.8833350000000000    0.9538350000000000    0.2455250000000000 C
   0.0316500000000000    0.6606050000000000    0.2559500000000000 C
   0.9680299999999999    0.3381450000000000    0.2458100000000000 C
   0.8342950000000000    0.4705100000000000    0.2459400000000000 C
   0.1654650000000000    0.5280800000000000    0.2544100000000000 C
   0.0247850000000000    0.5765700000000000    0.2538000000000000 C
   0.0514250000000000    0.6087600000000000    0.2559100000000000 C
   0.0898150000000000    0.5125600000000000    0.2528000000000000 C
   0.0971600000000000    0.5929450000000001    0.2565000000000000 C
   0.1163950000000000    0.5448750000000000    0.2550300000000000 C
   0.0440550000000000    0.5281950000000000    0.2524400000000000 C
   0.9748350000000000    0.4223500000000000    0.2472950000000000 C
   0.9482699999999999    0.3900200000000000    0.2453650000000000 C
   0.9555500000000000    0.4707650000000000    0.2482200000000000 C
   0.9098400000000000    0.4863000000000000    0.2476050000000000 C
   0.9025799999999999    0.4057300000000000    0.2441250000000000 C
   0.8833350000000000    0.4538350000000000    0.2455250000000000 C
   0.0261900000000000    0.7533050000000000    0.6614750000000000 C
   0.9731550000000000    0.7455700000000001    0.3404500000000000 C
   0.8353550000000001    0.7455849999999999    0.4726450000000000 C
   0.1640250000000000    0.7533250000000000    0.5292000000000000 C
   0.9573150000000000    0.7484400000000000    0.4711100000000000 C
   0.9106900000000000    0.7479300000000000    0.4868250000000000 C
   0.9064700000000000    0.7436550000000000    0.4085800000000000 C
   0.8852350000000000    0.7453950000000000    0.4557300000000000 C
   0.9786049999999999    0.7475900000000000    0.4232900000000000 C
   0.9529600000000000    0.7453149999999999    0.3921150000000000 C
   0.0886750000000000    0.7511000000000000    0.5150749999999999 C
   0.0929150000000000    0.7553350000000000    0.5933300000000000 C
   0.1141350000000000    0.7536050000000001    0.5461500000000000 C
   0.0420450000000000    0.7506349999999999    0.5307500000000001 C
   0.0207650000000000    0.7514700000000001    0.5786050000000000 C
   0.0464200000000000    0.7536550000000000    0.6098000000000000 C
   0.0261900000000000    0.7533050000000000    0.1614750000000000 C
   0.9731550000000000    0.7455700000000001    0.8404499999999999 C
   0.8353550000000001    0.7455849999999999    0.9726450000000000 C
   0.1640250000000000    0.7533250000000000    0.0292000000000000 C
   0.9573150000000000    0.7484400000000000    0.9711099999999999 C
   0.9106900000000000    0.7479300000000000    0.9868250000000001 C
   0.9064700000000000    0.7436550000000000    0.9085799999999999 C
   0.8852350000000000    0.7453950000000000    0.9557300000000000 C
   0.9786049999999999    0.7475900000000000    0.9232899999999999 C
   0.9529600000000000    0.7453149999999999    0.8921150000000000 C
   0.0886750000000000    0.7511000000000000    0.0150750000000000 C
   0.0929150000000000    0.7553350000000000    0.0933300000000000 C
   0.1141350000000000    0.7536050000000001    0.0461500000000000 C
   0.0420450000000000    0.7506349999999999    0.0307500000000000 C
   0.0207650000000000    0.7514700000000001    0.0786050000000000 C
   0.0464200000000000    0.7536550000000000    0.1098000000000000 C
   0.0261900000000000    0.2533050000000000    0.1614750000000000 C
   0.9731550000000000    0.2455700000000000    0.8404499999999999 C
   0.8353550000000001    0.2455850000000000    0.9726450000000000 C
   0.1640250000000000    0.2533250000000000    0.0292000000000000 C
   0.9573150000000000    0.2484400000000000    0.9711099999999999 C
   0.9106900000000000    0.2479300000000000    0.9868250000000001 C
   0.9064700000000000    0.2436550000000000    0.9085799999999999 C
   0.8852350000000000    0.2453950000000000    0.9557300000000000 C
   0.9786049999999999    0.2475900000000000    0.9232899999999999 C
   0.9529600000000000    0.2453150000000000    0.8921150000000000 C
   0.0886750000000000    0.2511000000000000    0.0150750000000000 C
   0.0929150000000000    0.2553350000000000    0.0933300000000000 C
   0.1141350000000000    0.2536050000000000    0.0461500000000000 C
   0.0420450000000000    0.2506350000000000    0.0307500000000000 C
   0.0207650000000000    0.2514700000000000    0.0786050000000000 C
   0.0464200000000000    0.2536550000000000    0.1098000000000000 C
   0.0261900000000000    0.2533050000000000    0.6614750000000000 C
   0.9731550000000000    0.2455700000000000    0.3404500000000000 C
   0.8353550000000001    0.2455850000000000    0.4726450000000000 C
   0.1640250000000000    0.2533250000000000    0.5292000000000000 C
   0.9573150000000000    0.2484400000000000    0.4711100000000000 C
   0.9106900000000000    0.2479300000000000    0.4868250000000000 C
   0.9064700000000000    0.2436550000000000    0.4085800000000000 C
   0.8852350000000000    0.2453950000000000    0.4557300000000000 C
   0.9786049999999999    0.2475900000000000    0.4232900000000000 C
   0.9529600000000000    0.2453150000000000    0.3921150000000000 C
   0.0886750000000000    0.2511000000000000    0.5150749999999999 C
   0.0929150000000000    0.2553350000000000    0.5933300000000000 C
   0.1141350000000000    0.2536050000000000    0.5461500000000000 C
   0.0420450000000000    0.2506350000000000    0.5307500000000001 C
   0.0207650000000000    0.2514700000000000    0.5786050000000000 C
   0.0464200000000000    0.2536550000000000    0.6098000000000000 C
   0.7399550000000000    0.3374150000000000    0.4694450000000000 C
   0.7596750000000000    0.6609950000000000    0.5308250000000000 C
   0.7351449999999999    0.4672100000000000    0.3355400000000000 C
   0.7645850000000001    0.5315400000000000    0.6648800000000000 C
   0.7345349999999999    0.4031800000000000    0.4039100000000000 C
   0.7350700000000000    0.4841550000000000    0.4132700000000000 C
   0.7391500000000000    0.4696300000000000    0.4588200000000000 C
   0.7337300000000000    0.4508900000000000    0.3855100000000000 C
   0.7401450000000001    0.4217700000000000    0.4777450000000000 C
   0.7375000000000000    0.3887900000000000    0.4502500000000000 C
   0.7652000000000000    0.5953800000000000    0.5963900000000000 C
   0.7647800000000000    0.5143250000000000    0.5872100000000000 C
   0.7607200000000001    0.5287200000000000    0.5416400000000000 C
   0.7660549999999999    0.5477050000000000    0.6148850000000000 C
   0.7597000000000000    0.5765550000000000    0.5226100000000000 C
   0.7622650000000000    0.6096300000000000    0.5500350000000001 C
   0.7399550000000000    0.3374150000000000    0.9694450000000000 C
   0.7596750000000000    0.6609950000000000    0.0308250000000000 C
   0.7351449999999999    0.4672100000000000    0.8355399999999999 C
   0.7645850000000001    0.5315400000000000    0.1648800000000000 C
   0.7345349999999999    0.4031800000000000    0.9039100000000000 C
   0.7350700000000000    0.4841550000000000    0.9132700000000000 C
   0.7391500000000000    0.4696300000000000    0.9588200000000000 C
   0.7337300000000000    0.4508900000000000    0.8855100000000000 C
   0.7401450000000001    0.4217700000000000    0.9777450000000000 C
   0.7375000000000000    0.3887900000000000    0.9502500000000000 C
   0.7652000000000000    0.5953800000000000    0.0963900000000000 C
   0.7647800000000000    0.5143250000000000    0.0872100000000000 C
   0.7607200000000001    0.5287200000000000    0.0416400000000000 C
   0.7660549999999999    0.5477050000000000    0.1148850000000000 C
   0.7597000000000000    0.5765550000000000    0.0226100000000000 C
   0.7622650000000000    0.6096300000000000    0.0500350000000000 C
   0.7399550000000000    0.8374150000000000    0.4694450000000000 C
   0.7596750000000000    0.1609950000000000    0.5308250000000000 C
   0.7351449999999999    0.9672100000000000    0.3355400000000000 C
   0.7645850000000001    0.0315400000000000    0.6648800000000000 C
   0.7345349999999999    0.9031800000000000    0.4039100000000000 C
   0.7350700000000000    0.9841550000000000    0.4132700000000000 C
   0.7391500000000000    0.9696300000000000    0.4588200000000000 C
   0.7337300000000000    0.9508900000000000    0.3855100000000000 C
   0.7401450000000001    0.9217700000000000    0.4777450000000000 C
   0.7375000000000000    0.8887900000000000    0.4502500000000000 C
   0.7652000000000000    0.0953800000000000    0.5963900000000000 C
   0.7647800000000000    0.0143250000000000    0.5872100000000000 C
   0.7607200000000001    0.0287200000000000    0.5416400000000000 C
   0.7660549999999999    0.0477050000000000    0.6148850000000000 C