H3 C7 N1 O4
1.0
  31.1803675535112106    0.0000000000000000   -0.0908816700181945
  -0.0932456906795972   35.7677919667902273   -0.0786578768238429
   0.0000000000000000    0.0000000000000000   21.0090000000000003
H C N O
3 7 1 4
direct
   0.6530566666666666    0.1171600000000000    0.1022500000000000 H
   0.7503500000000000    0.0596450000000000    0.9986600000000000 H
   0.6761633333333333    0.0053300000000000    0.1449900000000000 H
   0.6709833333333333    0.0924150000000000    0.0941000000000000 C
   0.7021066666666667    0.0927150000000000    0.0465200000000000 C
   0.7254999999999999    0.0601450000000000    0.0350100000000000 C
   0.6843066666666666    0.0298000000000000    0.1166200000000000 C
   0.7166433333333333    0.0282250000000000    0.0709700000000000 C
   0.7094499999999999    0.1275950000000000    0.0090400000000000 C
   0.7415499999999999    0.9929600000000001    0.0623100000000000 C
   0.6629266666666667    0.0612400000000000    0.1259900000000000 N
   0.6925966666666666    0.1581100000000000    1.0287600000000001 O
   0.7315466666666666    0.1264750000000000    0.9582900000000000 O
   0.7278333333333333    0.9628900000000000    0.0884400000000000 O
   0.7761066666666666    0.9935149999999999    0.0303500000000000 O
