Zn48 H144 C329 N47 O193
1.0
  31.1803675535112106    0.0000000000000000   -0.0908816700181945
  -0.0932456906795972   35.7677919667902273   -0.0786578768238429
   0.0000000000000000    0.0000000000000000   21.0090000000000003
Zn H C N O
48 144 329 47 193
direct
   0.7797400000000000    0.9359900000000000    0.5528900000000000 Zn
   0.7797400000000000    0.4359900000000000    0.5528900000000000 Zn
   0.1130733333333333    0.4359900000000000    0.5528900000000000 Zn
   0.4464066666666666    0.9359900000000000    0.5528900000000000 Zn
   0.1130733333333333    0.9359900000000000    0.5528900000000000 Zn
   0.4464066666666666    0.4359900000000000    0.5528900000000000 Zn
   0.9479033333333333    0.0623350000000000    0.6945500000000000 Zn
   0.8834066666666667    0.8124450000000000    0.3051800000000000 Zn
   0.0499966666666667    0.6858400000000000    0.4502200000000000 Zn
   0.7816366666666666    0.9345350000000000    0.0553200000000000 Zn
   0.8832033333333333    0.8125249999999999    0.8026100000000000 Zn
   0.9500599999999999    0.0623650000000000    0.1946700000000000 Zn
   0.0500933333333333    0.1858150000000000    0.9497200000000000 Zn
   0.9479033333333333    0.5623350000000000    0.6945500000000000 Zn
   0.8834066666666667    0.3124450000000000    0.3051800000000000 Zn
   0.0499966666666667    0.1858400000000000    0.4502200000000000 Zn
   0.7816366666666666    0.4345350000000000    0.0553200000000000 Zn
   0.8832033333333333    0.3125250000000000    0.8026100000000000 Zn
   0.9500599999999999    0.5623650000000000    0.1946700000000000 Zn
   0.0500933333333333    0.6858150000000001    0.9497200000000000 Zn
   0.2812366666666666    0.0623350000000000    0.6945500000000000 Zn
   0.2167400000000000    0.8124450000000000    0.3051800000000000 Zn
   0.3833300000000000    0.6858400000000000    0.4502200000000000 Zn
   0.1149700000000000    0.9345350000000000    0.0553200000000000 Zn
   0.2165366666666667    0.8125249999999999    0.8026100000000000 Zn
   0.2833933333333333    0.0623650000000000    0.1946700000000000 Zn
   0.3834266666666666    0.1858150000000000    0.9497200000000000 Zn
   0.2812366666666666    0.5623350000000000    0.6945500000000000 Zn
   0.2167400000000000    0.3124450000000000    0.3051800000000000 Zn
   0.3833300000000000    0.1858400000000000    0.4502200000000000 Zn
   0.1149700000000000    0.4345350000000000    0.0553200000000000 Zn
   0.2165366666666667    0.3125250000000000    0.8026100000000000 Zn
   0.2833933333333333    0.5623650000000000    0.1946700000000000 Zn
   0.3834266666666666    0.6858150000000001    0.9497200000000000 Zn
   0.5498700000000000    0.3125250000000000    0.8026100000000000 Zn
   0.6145699999999999    0.0623350000000000    0.6945500000000000 Zn
   0.5500733333333333    0.8124450000000000    0.3051800000000000 Zn
   0.7166633333333333    0.6858400000000000    0.4502200000000000 Zn
   0.4483033333333333    0.9345350000000000    0.0553200000000000 Zn
   0.5498700000000000    0.8125249999999999    0.8026100000000000 Zn
   0.6167266666666666    0.0623650000000000    0.1946700000000000 Zn
   0.7167600000000000    0.1858150000000000    0.9497200000000000 Zn
   0.6145699999999999    0.5623350000000000    0.6945500000000000 Zn
   0.5500733333333333    0.3124450000000000    0.3051800000000000 Zn
   0.7166633333333333    0.1858400000000000    0.4502200000000000 Zn
   0.4483033333333333    0.4345350000000000    0.0553200000000000 Zn
   0.6167266666666666    0.5623650000000000    0.1946700000000000 Zn
   0.7167600000000000    0.6858150000000001    0.9497200000000000 Zn
   0.4654820510411045    0.2155844903167109    0.8917085850378356 H
   0.3841395004900218    0.2681359197241378    0.9905368255058178 H
   0.4289781444621676    0.2478117080845370    0.9404119291959374 H
   0.9157566666666666    0.9373150000000000    0.7504800000000000 H
   0.8404999999999999    0.9922350000000000    0.6057700000000000 H
   0.8162366666666666    0.8800550000000000    0.6453000000000000 H
   0.9157566666666666    0.4373150000000000    0.7504800000000000 H
   0.8404999999999999    0.4922350000000000    0.6057700000000000 H
   0.8162366666666666    0.3800550000000000    0.6453000000000000 H
   0.2490900000000000    0.4373150000000000    0.7504800000000000 H
   0.1738333333333333    0.4922350000000000    0.6057700000000000 H
   0.1495700000000000    0.3800550000000000    0.6453000000000000 H
   0.5824233333333333    0.9373150000000000    0.7504800000000000 H
   0.5071666666666667    0.9922350000000000    0.6057700000000000 H
   0.4829033333333333    0.8800550000000000    0.6453000000000000 H
   0.2490900000000000    0.9373150000000000    0.7504800000000000 H
   0.1738333333333333    0.9922350000000000    0.6057700000000000 H
   0.1495700000000000    0.8800550000000000    0.6453000000000000 H
   0.5824233333333333    0.4373150000000000    0.7504800000000000 H
   0.5071666666666667    0.4922350000000000    0.6057700000000000 H
   0.4829033333333333    0.3800550000000000    0.6453000000000000 H
   0.0820966666666667    0.0615450000000000    0.5014999999999999 H
   0.0081466666666667    0.0060900000000000    0.6468699999999999 H
   0.9840466666666666    0.1179950000000000    0.6031900000000000 H
   0.7483099999999999    0.8110550000000001    0.5023100000000000 H
   0.8233933333333333    0.7555000000000001    0.3583100000000000 H
   0.8465699999999999    0.8682500000000000    0.3957000000000000 H
   0.9158299999999999    0.6870950000000000    0.2470000000000000 H
   0.9894499999999999    0.7424200000000000    0.3939100000000000 H
   0.0144800000000000    0.6300100000000000    0.3568300000000000 H
   0.9179966666666666    0.9375550000000000    0.2520700000000000 H
   0.8430133333333333    0.9915000000000000    0.1059500000000000 H
   0.8183900000000000    0.8797050000000000    0.1480400000000000 H
   0.7499300000000000    0.8099350000000001    0.0028300000000000 H
   0.8234033333333333    0.7554449999999999    0.8558600000000000 H
   0.0836833333333333    0.0596450000000000    0.9986600000000000 H
   0.9863899999999999    0.1171600000000000    0.1022500000000000 H
   0.0094966666666667    0.0053300000000000    0.1449900000000000 H
   0.9893200000000000    0.2419000000000000    0.8934200000000000 H
   0.9145833333333333    0.1875850000000000    0.7466200000000000 H
   0.0127466666666667    0.1303100000000000    0.8581299999999999 H
   0.0820966666666667    0.5615450000000000    0.5014999999999999 H
   0.0081466666666667    0.5060900000000000    0.6468699999999999 H
   0.9840466666666666    0.6179950000000000    0.6031900000000000 H
   0.7483099999999999    0.3110550000000000    0.5023100000000000 H
   0.8233933333333333    0.2555000000000000    0.3583100000000000 H
   0.8465699999999999    0.3682500000000000    0.3957000000000000 H
   0.9158299999999999    0.1870950000000000    0.2470000000000000 H
   0.9894499999999999    0.2424200000000000    0.3939100000000000 H
   0.0144800000000000    0.1300100000000000    0.3568300000000000 H
   0.9179966666666666    0.4375550000000000    0.2520700000000000 H
   0.8430133333333333    0.4915000000000000    0.1059500000000000 H
   0.8183900000000000    0.3797050000000000    0.1480400000000000 H
   0.7499300000000000    0.3099350000000000    0.0028300000000000 H
   0.8234033333333333    0.2554450000000000    0.8558600000000000 H
   0.0836833333333333    0.5596449999999999    0.9986600000000000 H
   0.9863899999999999    0.6171600000000000    0.1022500000000000 H
   0.0094966666666667    0.5053299999999999    0.1449900000000000 H
   0.9893200000000000    0.7419000000000000    0.8934200000000000 H
   0.9145833333333333    0.6875850000000000    0.7466200000000000 H
   0.0127466666666667    0.6303100000000000    0.8581299999999999 H
   0.4154300000000000    0.0615450000000000    0.5014999999999999 H
   0.3414800000000000    0.0060900000000000    0.6468699999999999 H
   0.3173800000000000    0.1179950000000000    0.6031900000000000 H
   0.0816433333333333    0.8110550000000001    0.5023100000000000 H
   0.1567266666666667    0.7555000000000001    0.3583100000000000 H
   0.1799033333333333    0.8682500000000000    0.3957000000000000 H
   0.2491633333333333    0.6870950000000000    0.2470000000000000 H
   0.3227833333333333    0.7424200000000000    0.3939100000000000 H
   0.3478133333333333    0.6300100000000000    0.3568300000000000 H
   0.2513300000000000    0.9375550000000000    0.2520700000000000 H
   0.1763466666666667    0.9915000000000000    0.1059500000000000 H
   0.1517233333333333    0.8797050000000000    0.1480400000000000 H
   0.0832633333333333    0.8099350000000001    0.0028300000000000 H
   0.1567366666666667    0.7554449999999999    0.8558600000000000 H
   0.4170166666666666    0.0596450000000000    0.9986600000000000 H
   0.3197233333333333    0.1171600000000000    0.1022500000000000 H
   0.3428300000000000    0.0053300000000000    0.1449900000000000 H
   0.3226533333333333    0.2419000000000000    0.8934200000000000 H
   0.2479166666666667    0.1875850000000000    0.7466200000000000 H
   0.3460800000000000    0.1303100000000000    0.8581299999999999 H
   0.4154300000000000    0.5615450000000000    0.5014999999999999 H
   0.3414800000000000    0.5060900000000000    0.6468699999999999 H
   0.3173800000000000    0.6179950000000000    0.6031900000000000 H
   0.0816433333333333    0.3110550000000000    0.5023100000000000 H
   0.1567266666666667    0.2555000000000000    0.3583100000000000 H
   0.1799033333333333    0.3682500000000000    0.3957000000000000 H
   0.2491633333333333    0.1870950000000000    0.2470000000000000 H
   0.3227833333333333    0.2424200000000000    0.3939100000000000 H
   0.3478133333333333    0.1300100000000000    0.3568300000000000 H
   0.2513300000000000    0.4375550000000000    0.2520700000000000 H
   0.1763466666666667    0.4915000000000000    0.1059500000000000 H
   0.1517233333333333    0.3797050000000000    0.1480400000000000 H
   0.0832633333333333    0.3099350000000000    0.0028300000000000 H
   0.1567366666666667    0.2554450000000000    0.8558600000000000 H
   0.4170166666666666    0.5596449999999999    0.9986600000000000 H
   0.3197233333333333    0.6171600000000000    0.1022500000000000 H
   0.3428300000000000    0.5053299999999999    0.1449900000000000 H
   0.3226533333333333    0.7419000000000000    0.8934200000000000 H
   0.2479166666666667    0.6875850000000000    0.7466200000000000 H
   0.3460800000000000    0.6303100000000000    0.8581299999999999 H
   0.5024745153726039    0.3343255422096892    0.8909376437644564 H
   0.4881738974559642    0.2886936244767822    0.8810257173545589 H
   0.7487633333333333    0.0615450000000000    0.5014999999999999 H
   0.6748133333333333    0.0060900000000000    0.6468699999999999 H
   0.6507133333333333    0.1179950000000000    0.6031900000000000 H
   0.4149766666666667    0.8110550000000001    0.5023100000000000 H
   0.4900599999999999    0.7555000000000001    0.3583100000000000 H
   0.5132366666666667    0.8682500000000000    0.3957000000000000 H
   0.5824966666666667    0.6870950000000000    0.2470000000000000 H
   0.6561166666666667    0.7424200000000000    0.3939100000000000 H
   0.6811466666666667    0.6300100000000000    0.3568300000000000 H
   0.5846633333333333    0.9375550000000000    0.2520700000000000 H
   0.5096799999999999    0.9915000000000000    0.1059500000000000 H
   0.4850566666666666    0.8797050000000000    0.1480400000000000 H
   0.4165966666666666    0.8099350000000001    0.0028300000000000 H
   0.4900700000000000    0.7554449999999999    0.8558600000000000 H
   0.7503500000000000    0.0596450000000000    0.9986600000000000 H
   0.6530566666666666    0.1171600000000000    0.1022500000000000 H
   0.6761633333333333    0.0053300000000000    0.1449900000000000 H
   0.6559866666666667    0.2419000000000000    0.8934200000000000 H
   0.5812500000000000    0.1875850000000000    0.7466200000000000 H
   0.6794133333333333    0.1303100000000000    0.8581299999999999 H
   0.7487633333333333    0.5615450000000000    0.5014999999999999 H
   0.6748133333333333    0.5060900000000000    0.6468699999999999 H
   0.6507133333333333    0.6179950000000000    0.6031900000000000 H
   0.4149766666666667    0.3110550000000000    0.5023100000000000 H
   0.4900599999999999    0.2555000000000000    0.3583100000000000 H
   0.5132366666666667    0.3682500000000000    0.3957000000000000 H
   0.5824966666666667    0.1870950000000000    0.2470000000000000 H
   0.6561166666666667    0.2424200000000000    0.3939100000000000 H
   0.6811466666666667    0.1300100000000000    0.3568300000000000 H
   0.5846633333333333    0.4375550000000000    0.2520700000000000 H
   0.5096799999999999    0.4915000000000000    0.1059500000000000 H
   0.4850566666666666    0.3797050000000000    0.1480400000000000 H
   0.4956036303908252    0.4014889616833127   -0.0332215266657968 H
   0.4224293895125052    0.3512556976119869    0.0424769038179818 H
   0.4580402264159675    0.3684680773490222    0.0012641763421563 H
   0.7503500000000000    0.5596449999999999    0.9986600000000000 H
   0.6530566666666666    0.6171600000000000    0.1022500000000000 H
   0.6761633333333333    0.5053299999999999    0.1449900000000000 H
   0.6559866666666667    0.7419000000000000    0.8934200000000000 H
   0.5812500000000000    0.6875850000000000    0.7466200000000000 H
   0.6794133333333333    0.6303100000000000    0.8581299999999999 H
   0.8741433333333333    0.8698150000000000    0.7411200000000000 C
   0.9070900000000000    0.0041200000000000    0.6875200000000000 C
   0.8905000000000000    0.9370100000000000    0.7145300000000000 C
   0.8487366666666666    0.9676600000000000    0.6338000000000000 C
   0.8349866666666665    0.9050400000000001    0.6561300000000000 C
   0.8816166666666666    0.9690250000000000    0.6789400000000000 C
   0.8665600000000000    0.9045650000000001    0.7033700000000001 C
   0.8741433333333333    0.3698150000000000    0.7411200000000000 C
   0.9070900000000000    0.5041200000000000    0.6875200000000000 C
   0.8905000000000000    0.4370100000000000    0.7145300000000000 C
   0.8487366666666666    0.4676600000000000    0.6338000000000000 C
   0.8349866666666665    0.4050400000000000    0.6561300000000000 C
   0.8816166666666666    0.4690250000000000    0.6789400000000000 C
   0.8665600000000000    0.4045650000000000    0.7033700000000001 C
   0.2074766666666667    0.3698150000000000    0.7411200000000000 C
   0.2404233333333333    0.5041200000000000    0.6875200000000000 C
   0.2238333333333333    0.4370100000000000    0.7145300000000000 C
   0.1820700000000000    0.4676600000000000    0.6338000000000000 C
   0.1683200000000000    0.4050400000000000    0.6561300000000000 C
   0.2149500000000000    0.4690250000000000    0.6789400000000000 C
   0.1998933333333333    0.4045650000000000    0.7033700000000001 C
   0.5408100000000000    0.8698150000000000    0.7411200000000000 C
   0.5737566666666667    0.0041200000000000    0.6875200000000000 C
   0.5571666666666666    0.9370100000000000    0.7145300000000000 C
   0.5154033333333333    0.9676600000000000    0.6338000000000000 C
   0.5016533333333333    0.9050400000000001    0.6561300000000000 C
   0.5482833333333333    0.9690250000000000    0.6789400000000000 C
   0.5332266666666666    0.9045650000000001    0.7033700000000001 C
   0.2074766666666667    0.8698150000000000    0.7411200000000000 C
   0.2404233333333333    0.0041200000000000    0.6875200000000000 C
   0.2238333333333333    0.9370100000000000    0.7145300000000000 C
   0.1820700000000000    0.9676600000000000    0.6338000000000000 C
   0.1683200000000000    0.9050400000000001    0.6561300000000000 C
   0.2149500000000000    0.9690250000000000    0.6789400000000000 C
   0.1998933333333333    0.9045650000000001    0.7033700000000001 C
   0.5408100000000000    0.3698150000000000    0.7411200000000000 C
   0.5737566666666667    0.5041200000000000    0.6875200000000000 C
   0.5571666666666666    0.4370100000000000    0.7145300000000000 C
   0.5154033333333333    0.4676600000000000    0.6338000000000000 C
   0.5016533333333333    0.4050400000000000    0.6561300000000000 C
   0.5482833333333333    0.4690250000000000    0.6789400000000000 C
   0.5332266666666666    0.4045650000000000    0.7033700000000001 C
   0.0730633333333333    0.9942299999999999    0.5631000000000000 C
   0.0409700000000000    0.1291500000000000    0.5128400000000000 C
   0.0572833333333333    0.0617250000000000    0.5379100000000000 C
   0.0162400000000000    0.0307650000000000    0.6189900000000000 C
   0.0026533333333333    0.0934900000000000    0.5976000000000000 C
   0.0484666666666667    0.0295250000000000    0.5731200000000000 C
   0.0337633333333333    0.0941550000000000    0.5500100000000000 C
   0.7578199999999999    0.7435849999999999    0.4409700000000000 C
   0.7888266666666666    0.8790850000000000    0.4905400000000000 C
   0.7733266666666666    0.8112750000000000    0.4662100000000000 C
   0.8150599999999999    0.7802400000000000    0.3859600000000000 C
   0.8281333333333333    0.8432100000000000    0.4069900000000000 C
   0.7966433333333333    0.8438850000000000    0.4540200000000000 C
   0.7825166666666666    0.7789750000000000    0.4313600000000000 C
   0.9580000000000000    0.6198000000000000    0.2564900000000000 C
   0.9235700000000000    0.7539300000000000    0.3110500000000000 C
   0.9408033333333332    0.6869499999999999    0.2833800000000000 C
   0.9816499999999999    0.7178300000000000    0.3653700000000000 C
   0.9960599999999999    0.6554150000000000    0.3423800000000000 C
   0.9491700000000000    0.7189900000000000    0.3195900000000000 C
   0.9648800000000000    0.6547050000000000    0.2945600000000000 C
   0.9096033333333333    0.0038900000000000    0.1877500000000000 C
   0.8760933333333333    0.8699550000000000    0.2438100000000000 C
   0.8928066666666666    0.9369950000000000    0.2160200000000000 C
   0.8511666666666666    0.9671400000000000    0.1345500000000000 C
   0.8372033333333333    0.9047350000000001    0.1583100000000000 C
   0.8688233333333333    0.9045099999999999    0.2054500000000000 C
   0.8840800000000000    0.9687550000000000    0.1796400000000000 C
   0.7906733333333333    0.8778400000000000    0.0000000000000000 C
   0.7980066666666666    0.8430150000000001    0.0000000000000000 C
   0.7585666666666666    0.7430600000000001    0.9398600000000000 C
   0.7746366666666666    0.8103950000000000    0.9662900000000000 C
   0.8154199999999999    0.7799700000000001    0.8843000000000000 C
   0.8289266666666666    0.8427100000000001    0.9066700000000000 C
   0.7833666666666667    0.7783850000000000    0.9304100000000000 C
   0.0427833333333333    0.1275950000000000    0.0090400000000000 C
   0.0748833333333333    0.9929600000000001    0.0623100000000000 C
   0.0588333333333333    0.0601450000000000    0.0350100000000000 C
   0.0043166666666667    0.0924150000000000    0.0941000000000000 C
   0.0176400000000000    0.0298000000000000    0.1166200000000000 C
   0.0499766666666667    0.0282250000000000    0.0709700000000000 C
   0.0354400000000000    0.0927150000000000    0.0465200000000000 C
   0.9234533333333332    0.2541900000000000    0.8101600000000000 C
   0.9554566666666666    0.1198550000000000    0.7560700000000000 C
   0.9809833333333333    0.2174300000000000    0.8649100000000000 C
   0.9484633333333332    0.2190000000000000    0.8192199999999999 C
   0.9395000000000000    0.1870750000000000    0.7830700000000000 C
   0.9941866666666666    0.1547800000000000    0.8419700000000000 C
   0.9629233333333332    0.1545100000000000    0.7943400000000000 C
   0.0730633333333333    0.4942300000000000    0.5631000000000000 C
   0.0409700000000000    0.6291500000000000    0.5128400000000000 C
   0.0572833333333333    0.5617250000000000    0.5379100000000000 C
   0.0162400000000000    0.5307650000000000    0.6189900000000000 C
   0.0026533333333333    0.5934900000000000    0.5976000000000000 C
   0.0484666666666667    0.5295250000000000    0.5731200000000000 C
   0.0337633333333333    0.5941550000000000    0.5500100000000000 C
   0.7578199999999999    0.2435850000000000    0.4409700000000000 C
   0.7888266666666666    0.3790850000000000    0.4905400000000000 C
   0.7733266666666666    0.3112750000000000    0.4662100000000000 C
   0.8150599999999999    0.2802400000000000    0.3859600000000000 C
   0.8281333333333333    0.3432100000000000    0.4069900000000000 C
   0.7966433333333333    0.3438850000000000    0.4540200000000000 C
   0.7825166666666666    0.2789750000000000    0.4313600000000000 C
   0.9580000000000000    0.1198000000000000    0.2564900000000000 C
   0.9235700000000000    0.2539300000000000    0.3110500000000000 C
   0.9408033333333332    0.1869500000000000    0.2833800000000000 C
   0.9816499999999999    0.2178300000000000    0.3653700000000000 C
   0.9960599999999999    0.1554150000000000    0.3423800000000000 C
   0.9491700000000000    0.2189900000000000    0.3195900000000000 C
   0.9648800000000000    0.1547050000000000    0.2945600000000000 C
   0.9096033333333333    0.5038899999999999    0.1877500000000000 C
   0.8760933333333333    0.3699550000000000    0.2438100000000000 C
   0.8928066666666666    0.4369950000000000    0.2160200000000000 C
   0.8511666666666666    0.4671400000000000    0.1345500000000000 C
   0.8372033333333333    0.4047350000000000    0.1583100000000000 C
   0.8688233333333333    0.4045100000000000    0.2054500000000000 C
   0.8840800000000000    0.4687550000000000    0.1796400000000000 C
   0.7906733333333333    0.3778400000000000    0.0000000000000000 C
   0.7980066666666666    0.3430150000000000    0.0000000000000000 C
   0.7585666666666666    0.2430600000000000    0.9398600000000000 C
   0.7746366666666666    0.3103950000000000    0.9662900000000000 C
   0.8154199999999999    0.2799700000000000    0.8843000000000000 C
   0.8289266666666666    0.3427100000000000    0.9066700000000000 C
   0.7833666666666667    0.2783850000000000    0.9304100000000000 C
   0.0427833333333333    0.6275950000000000    0.0090400000000000 C
   0.0748833333333333    0.4929600000000000    0.0623100000000000 C
   0.0588333333333333    0.5601450000000000    0.0350100000000000 C
   0.0043166666666667    0.5924150000000000    0.0941000000000000 C
   0.0176400000000000    0.5298000000000000    0.1166200000000000 C
   0.0499766666666667    0.5282249999999999    0.0709700000000000 C
   0.0354400000000000    0.5927150000000000    0.0465200000000000 C
   0.9234533333333332    0.7541900000000000    0.8101600000000000 C
   0.9554566666666666    0.6198550000000000    0.7560700000000000 C
   0.9809833333333333    0.7174300000000000    0.8649100000000000 C
   0.9484633333333332    0.7190000000000000    0.8192199999999999 C
   0.9395000000000000    0.6870750000000000    0.7830700000000000 C
   0.9941866666666666    0.6547800000000000    0.8419700000000000 C
   0.9629233333333332    0.6545100000000000    0.7943400000000000 C
   0.4063966666666666    0.9942299999999999    0.5631000000000000 C
   0.3743033333333333    0.1291500000000000    0.5128400000000000 C
   0.3906166666666667    0.0617250000000000    0.5379100000000000 C
   0.3495733333333333    0.0307650000000000    0.6189900000000000 C
   0.3359866666666667    0.0934900000000000    0.5976000000000000 C
   0.3818000000000000    0.0295250000000000    0.5731200000000000 C
   0.3670966666666666    0.0941550000000000    0.5500100000000000 C
   0.0911533333333333    0.7435849999999999    0.4409700000000000 C
   0.1221600000000000    0.8790850000000000    0.4905400000000000 C
   0.1066600000000000    0.8112750000000000    0.4662100000000000 C
   0.1483933333333333    0.7802400000000000    0.3859600000000000 C
   0.1614666666666666    0.8432100000000000    0.4069900000000000 C
   0.1299766666666667    0.8438850000000000    0.4540200000000000 C
   0.1158500000000000    0.7789750000000000    0.4313600000000000 C
   0.2913333333333333    0.6198000000000000    0.2564900000000000 C
   0.2569033333333333    0.7539300000000000    0.3110500000000000 C
   0.2741366666666666    0.6869499999999999    0.2833800000000000 C
   0.3149833333333333    0.7178300000000000    0.3653700000000000 C
   0.3293933333333333    0.6554150000000000    0.3423800000000000 C
   0.2825033333333333    0.7189900000000000    0.3195900000000000 C
   0.2982133333333333    0.6547050000000000    0.2945600000000000 C
   0.2429366666666666    0.0038900000000000    0.1877500000000000 C
   0.2094266666666666    0.8699550000000000    0.2438100000000000 C
   0.2261400000000000    0.9369950000000000    0.2160200000000000 C
   0.1845000000000000    0.9671400000000000    0.1345500000000000 C
   0.1705366666666667    0.9047350000000001    0.1583100000000000 C
   0.2021566666666667    0.9045099999999999    0.2054500000000000 C
   0.2174133333333333    0.9687550000000000    0.1796400000000000 C
   0.1240066666666667    0.8778400000000000    0.0000000000000000 C
   0.1313400000000000    0.8430150000000001    0.0000000000000000 C
   0.0919000000000000    0.7430600000000001    0.9398600000000000 C
   0.1079700000000000    0.8103950000000000    0.9662900000000000 C
   0.1487533333333333    0.7799700000000001    0.8843000000000000 C
   0.1622600000000000    0.8427100000000001    0.9066700000000000 C
   0.1167000000000000    0.7783850000000000    0.9304100000000000 C
   0.3761166666666667    0.1275950000000000    0.0090400000000000 C
   0.4082166666666667    0.9929600000000001    0.0623100000000000 C
   0.3921666666666667    0.0601450000000000    0.0350100000000000 C
   0.3376500000000000    0.0924150000000000    0.0941000000000000 C
   0.3509733333333333    0.0298000000000000    0.1166200000000000 C
   0.3833100000000000    0.0282250000000000    0.0709700000000000 C
   0.3687733333333333    0.0927150000000000    0.0465200000000000 C
   0.2567866666666667    0.2541900000000000    0.8101600000000000 C
   0.2887900000000000    0.1198550000000000    0.7560700000000000 C
   0.3143166666666666    0.2174300000000000    0.8649100000000000 C
   0.2817966666666666    0.2190000000000000    0.8192199999999999 C
   0.2728333333333333    0.1870750000000000    0.7830700000000000 C
   0.3275200000000000    0.1547800000000000    0.8419700000000000 C
   0.2962566666666666    0.1545100000000000    0.7943400000000000 C
   0.4063966666666666    0.4942300000000000    0.5631000000000000 C
   0.3743033333333333    0.6291500000000000    0.5128400000000000 C
   0.3906166666666667    0.5617250000000000    0.5379100000000000 C
   0.3495733333333333    0.5307650000000000    0.6189900000000000 C
   0.3359866666666667    0.5934900000000000    0.5976000000000000 C
   0.3818000000000000    0.5295250000000000    0.5731200000000000 C
   0.3670966666666666    0.5941550000000000    0.5500100000000000 C
   0.0911533333333333    0.2435850000000000    0.4409700000000000 C
   0.1221600000000000    0.3790850000000000    0.4905400000000000 C
   0.1066600000000000    0.3112750000000000    0.4662100000000000 C
   0.1483933333333333    0.2802400000000000    0.3859600000000000 C
   0.1614666666666666    0.3432100000000000    0.4069900000000000 C
   0.1299766666666667    0.3438850000000000    0.4540200000000000 C
   0.1158500000000000    0.2789750000000000    0.4313600000000000 C
   0.2913333333333333    0.1198000000000000    0.2564900000000000 C
   0.2569033333333333    0.2539300000000000    0.3110500000000000 C
   0.2741366666666666    0.1869500000000000    0.2833800000000000 C
   0.3149833333333333    0.2178300000000000    0.3653700000000000 C
   0.3293933333333333    0.1554150000000000    0.3423800000000000 C
   0.2825033333333333    0.2189900000000000    0.3195900000000000 C
   0.2982133333333333    0.1547050000000000    0.2945600000000000 C
   0.2429366666666666    0.5038899999999999    0.1877500000000000 C
   0.2094266666666666    0.3699550000000000    0.2438100000000000 C
   0.2261400000000000    0.4369950000000000    0.2160200000000000 C
   0.1845000000000000    0.4671400000000000    0.1345500000000000 C
   0.1705366666666667    0.4047350000000000    0.1583100000000000 C
   0.2021566666666667    0.4045100000000000    0.2054500000000000 C
   0.2174133333333333    0.4687550000000000    0.1796400000000000 C
   0.1240066666666667    0.3778400000000000    0.0000000000000000 C
   0.1313400000000000    0.3430150000000000    0.0000000000000000 C
   0.0919000000000000    0.2430600000000000    0.9398600000000000 C
   0.1079700000000000    0.3103950000000000    0.9662900000000000 C
   0.1487533333333333    0.2799700000000000    0.8843000000000000 C
   0.1622600000000000    0.3427100000000000    0.9066700000000000 C
   0.1167000000000000    0.2783850000000000    0.9304100000000000 C
   0.3761166666666667    0.6275950000000000    0.0090400000000000 C
   0.4082166666666667    0.4929600000000000    0.0623100000000000 C
   0.3921666666666667    0.5601450000000000    0.0350100000000000 C
   0.3376500000000000    0.5924150000000000    0.0941000000000000 C
   0.3509733333333333    0.5298000000000000    0.1166200000000000 C
   0.3833100000000000    0.5282249999999999    0.0709700000000000 C
   0.3687733333333333    0.5927150000000000    0.0465200000000000 C
   0.2567866666666667    0.7541900000000000    0.8101600000000000 C
   0.2887900000000000    0.6198550000000000    0.7560700000000000 C
   0.3143166666666666    0.7174300000000000    0.8649100000000000 C
   0.2817966666666666    0.7190000000000000    0.8192199999999999 C
   0.2728333333333333    0.6870750000000000    0.7830700000000000 C
   0.3275200000000000    0.6547800000000000    0.8419700000000000 C
   0.2962566666666666    0.6545100000000000    0.7943400000000000 C
   0.7397300000000000    0.9942299999999999    0.5631000000000000 C
   0.7076366666666666    0.1291500000000000    0.5128400000000000 C
   0.7239500000000000    0.0617250000000000    0.5379100000000000 C
   0.6829066666666667    0.0307650000000000    0.6189900000000000 C
   0.6693199999999999    0.0934900000000000    0.5976000000000000 C
   0.7151333333333333    0.0295250000000000    0.5731200000000000 C