Zn32 H101 Pt16 C217 N31 Cl32 O129
1.0
  26.1399263609909589    0.0000000000000000   -0.0620470947757306
  -0.1420016738554337   24.2085795144348204   -0.0139433822634023
   0.0000000000000000    0.0000000000000000   30.0839999999999996
Zn H Pt C N Cl O
32 101 16 217 31 32 129
direct
   0.1713100000000000    0.4329600000000000    0.5000000000000000 Zn
   0.3265950000000000    0.5691700000000000    0.2616350000000000 Zn
   0.6175349999999999    0.5230200000000000    0.0551750000000000 Zn
   0.8802950000000000    0.4792100000000000    0.3064500000000000 Zn
   0.0775750000000000    0.9328200000000000    0.5000000000000000 Zn
   0.9218649999999999    0.0673600000000000    0.2595250000000000 Zn
   0.3667050000000000    0.9771200000000000    0.3028550000000000 Zn
   0.6312700000000000    0.0233000000000000    0.0533050000000000 Zn
   0.5775749999999999    0.9328200000000000    0.5000000000000000 Zn
   0.4218650000000000    0.0673600000000000    0.2595250000000000 Zn
   0.8667050000000001    0.9771200000000000    0.3028550000000000 Zn
   0.1312700000000000    0.0233000000000000    0.0533050000000000 Zn
   0.6713100000000000    0.4329600000000000    0.5000000000000000 Zn
   0.8265950000000000    0.5691700000000000    0.2616350000000000 Zn
   0.1175350000000000    0.5230200000000000    0.0551750000000000 Zn
   0.3802950000000000    0.4792100000000000    0.3064500000000000 Zn
   0.6713100000000000    0.4329600000000000    0.0000000000000000 Zn
   0.8265950000000000    0.5691700000000000    0.7616350000000001 Zn
   0.1175350000000000    0.5230200000000000    0.5551750000000000 Zn
   0.3802950000000000    0.4792100000000000    0.8064500000000000 Zn
   0.5775749999999999    0.9328200000000000    0.0000000000000000 Zn
   0.4218650000000000    0.0673600000000000    0.7595250000000000 Zn
   0.8667050000000001    0.9771200000000000    0.8028550000000000 Zn
   0.1312700000000000    0.0233000000000000    0.5533050000000000 Zn
   0.0775750000000000    0.9328200000000000    0.0000000000000000 Zn
   0.9218649999999999    0.0673600000000000    0.7595250000000000 Zn
   0.3667050000000000    0.9771200000000000    0.8028550000000000 Zn
   0.6312700000000000    0.0233000000000000    0.5533050000000000 Zn
   0.1713100000000000    0.4329600000000000    0.0000000000000000 Zn
   0.3265950000000000    0.5691700000000000    0.7616350000000001 Zn
   0.6175349999999999    0.5230200000000000    0.5551750000000000 Zn
   0.8802950000000000    0.4792100000000000    0.8064500000000000 Zn
   0.0746351969976701    0.0057635623981045    0.6142021106549141 H
   0.0292744220659379    0.8629772120727593    0.5583144588789783 H
   0.0482362419776779   -0.0714671693934731    0.5876788556955472 H
   0.9399950000000000    0.3406500000000000    0.3835200000000000 H
   0.0434600000000000    0.3351700000000000    0.4882150000000000 H
   0.9983400000000000    0.4946000000000000    0.4359950000000000 H
   0.2069100000000000    0.6532300000000000    0.4856000000000000 H
   0.2928200000000000    0.6736799999999999    0.3708100000000000 H
   0.2556600000000000    0.5080000000000000    0.4132000000000000 H
   0.2918050000000000    0.3483900000000000    0.2356500000000000 H
   0.2073100000000000    0.3277100000000000    0.1197000000000000 H
   0.2411800000000000    0.4935500000000000    0.1640500000000000 H
   0.5584600000000000    0.6595500000000000    0.1334800000000000 H
   0.4549450000000000    0.6660800000000000    0.2376250000000000 H
   0.4993450000000000    0.5061300000000000    0.1859450000000000 H
   0.3093450000000000    0.8410700000000000    0.3839350000000000 H
   0.2060800000000000    0.8364100000000000    0.4884000000000000 H
   0.2506500000000000    0.9953200000000000    0.4338500000000000 H
   0.0421750000000000    0.1525200000000000    0.4836400000000000 H
   0.9570350000000001    0.1729000000000000    0.3681750000000000 H
   0.9934550000000000    0.0072400000000000    0.4102900000000000 H
   0.6911150000000000    0.1603400000000000    0.1328400000000000 H
   0.7942800000000000    0.1646900000000000    0.2378450000000000 H
   0.7478850000000000    0.0000000000000000    0.1840450000000000 H
   0.0416950000000000    0.8275700000000000    0.1181950000000000 H
   0.9557599999999999    0.8482400000000000    0.2328650000000000 H
   0.0042950000000000    0.9932800000000001    0.1594200000000000 H
   0.8093450000000000    0.8410700000000000    0.3839350000000000 H
   0.7060800000000000    0.8364100000000000    0.4884000000000000 H
   0.7506500000000000    0.9953200000000000    0.4338500000000000 H
   0.5421750000000000    0.1525200000000000    0.4836400000000000 H
   0.4570350000000000    0.1729000000000000    0.3681750000000000 H
   0.4934550000000000    0.0072400000000000    0.4102900000000000 H
   0.1911150000000000    0.1603400000000000    0.1328400000000000 H
   0.2942800000000000    0.1646900000000000    0.2378450000000000 H
   0.2478850000000000    0.0000000000000000    0.1840450000000000 H
   0.5416950000000000    0.8275700000000000    0.1181950000000000 H
   0.4557600000000000    0.8482400000000000    0.2328650000000000 H
   0.5042950000000000    0.9932800000000001    0.1594200000000000 H
   0.4399950000000000    0.3406500000000000    0.3835200000000000 H
   0.5434600000000001    0.3351700000000000    0.4882150000000000 H
   0.4983400000000000    0.4946000000000000    0.4359950000000000 H
   0.7069100000000000    0.6532300000000000    0.4856000000000000 H
   0.7928200000000001    0.6736799999999999    0.3708100000000000 H
   0.7556600000000000    0.5080000000000000    0.4132000000000000 H
   0.7918050000000000    0.3483900000000000    0.2356500000000000 H
   0.7073100000000000    0.3277100000000000    0.1197000000000000 H
   0.7411799999999999    0.4935500000000000    0.1640500000000000 H
   0.0584600000000000    0.6595500000000000    0.1334800000000000 H
   0.9549449999999999    0.6660800000000000    0.2376250000000000 H
   0.9993449999999999    0.5061300000000000    0.1859450000000000 H
   0.0178351067000813    0.8504169917460839    0.6511470254335209 H
  -0.0178278090792480    0.8587396610612152    0.6973291006470270 H
   0.4399950000000000    0.3406500000000000    0.8835200000000001 H
   0.5434600000000001    0.3351700000000000    0.9882150000000001 H
   0.4983400000000000    0.4946000000000000    0.9359950000000000 H
   0.7069100000000000    0.6532300000000000    0.9856000000000000 H
   0.7928200000000001    0.6736799999999999    0.8708100000000000 H
   0.7556600000000000    0.5080000000000000    0.9132000000000000 H
   0.7918050000000000    0.3483900000000000    0.7356500000000000 H
   0.7073100000000000    0.3277100000000000    0.6197000000000000 H
   0.7411799999999999    0.4935500000000000    0.6640500000000000 H
   0.0584600000000000    0.6595500000000000    0.6334800000000000 H
   0.9549449999999999    0.6660800000000000    0.7376250000000000 H
   0.9993449999999999    0.5061300000000000    0.6859450000000000 H
   0.8093450000000000    0.8410700000000000    0.8839350000000000 H
   0.7060800000000000    0.8364100000000000    0.9883999999999999 H
   0.7506500000000000    0.9953200000000000    0.9338500000000001 H
   0.5421750000000000    0.1525200000000000    0.9836400000000001 H
   0.4570350000000000    0.1729000000000000    0.8681749999999999 H
   0.4934550000000000    0.0072400000000000    0.9102900000000000 H
   0.1911150000000000    0.1603400000000000    0.6328400000000001 H
   0.2942800000000000    0.1646900000000000    0.7378450000000000 H
   0.2478850000000000    0.0000000000000000    0.6840450000000000 H
   0.5416950000000000    0.8275700000000000    0.6181950000000001 H
   0.4557600000000000    0.8482400000000000    0.7328650000000000 H
   0.5042950000000000    0.9932800000000001    0.6594200000000000 H
   0.3093450000000000    0.8410700000000000    0.8839350000000000 H
   0.2060800000000000    0.8364100000000000    0.9883999999999999 H
   0.2506500000000000    0.9953200000000000    0.9338500000000001 H
   0.0421750000000000    0.1525200000000000    0.9836400000000001 H
   0.9570350000000001    0.1729000000000000    0.8681749999999999 H
   0.9934550000000000    0.0072400000000000    0.9102900000000000 H
   0.6911150000000000    0.1603400000000000    0.6328400000000001 H
   0.7942800000000000    0.1646900000000000    0.7378450000000000 H
   0.7478850000000000    0.0000000000000000    0.6840450000000000 H
   0.9163862910862460    0.9019648968570522    0.7632069950557687 H
   0.9728138531862588    0.0287715321927633    0.6974355571185298 H
   0.9490182882261545    0.9623856268853588    0.7257623847883035 H
   0.9399950000000000    0.3406500000000000    0.8835200000000001 H
   0.0434600000000000    0.3351700000000000    0.9882150000000001 H
   0.9983400000000000    0.4946000000000000    0.9359950000000000 H
   0.2069100000000000    0.6532300000000000    0.9856000000000000 H
   0.2928200000000000    0.6736799999999999    0.8708100000000000 H
   0.2556600000000000    0.5080000000000000    0.9132000000000000 H
   0.2918050000000000    0.3483900000000000    0.7356500000000000 H
   0.2073100000000000    0.3277100000000000    0.6197000000000000 H
   0.2411800000000000    0.4935500000000000    0.6640500000000000 H
   0.5584600000000000    0.6595500000000000    0.6334800000000000 H
   0.4549450000000000    0.6660800000000000    0.7376250000000000 H
   0.4993450000000000    0.5061300000000000    0.6859450000000000 H
   0.5000000000000000    0.7503900000000000    0.1826250000000000 Pt
   0.9949200000000000    0.2502800000000000    0.4329900000000000 Pt
   0.2544600000000000    0.7511300000000000    0.4344200000000000 Pt
   0.7544600000000000    0.7511300000000000    0.4344200000000000 Pt
   0.2456700000000000    0.2502300000000000    0.1836200000000000 Pt
   0.7456700000000001    0.2502300000000000    0.1836200000000000 Pt
   0.0000000000000000    0.7503900000000000    0.1826250000000000 Pt
   0.4949200000000000    0.2502800000000000    0.4329900000000000 Pt
   0.0000000000000000    0.7503900000000000    0.6826250000000000 Pt
   0.4949200000000000    0.2502800000000000    0.9329900000000000 Pt
   0.7544600000000000    0.7511300000000000    0.9344200000000000 Pt
   0.2544600000000000    0.7511300000000000    0.9344200000000000 Pt
   0.2456700000000000    0.2502300000000000    0.6836200000000000 Pt
   0.7456700000000001    0.2502300000000000    0.6836200000000000 Pt
   0.5000000000000000    0.7503900000000000    0.6826250000000000 Pt
   0.9949200000000000    0.2502800000000000    0.9329900000000000 Pt
   0.9345550000000000    0.4514100000000000    0.3716000000000000 C
   0.0674200000000000    0.4420100000000000    0.4945250000000000 C
   0.9627250000000001    0.3638000000000000    0.4074600000000000 C
   0.0216000000000000    0.3609100000000000    0.4656300000000000 C
   0.9641900000000000    0.4214400000000000    0.4068500000000000 C
   0.9958950000000000    0.4496500000000000    0.4369450000000000 C
   0.0256800000000000    0.4185400000000000    0.4662450000000000 C
   0.1969750000000000    0.5390500000000000    0.4827700000000000 C
   0.3025100000000000    0.5682199999999999    0.3457950000000000 C
   0.2265850000000000    0.6333600000000000    0.4581550000000000 C
   0.2758800000000000    0.6447200000000000    0.3941900000000000 C
   0.2544800000000000    0.5525800000000000    0.4175900000000000 C
   0.2782050000000000    0.5878800000000000    0.3875100000000000 C
   0.2269650000000000    0.5759500000000000    0.4527050000000000 C
   0.3001050000000000    0.4627300000000000    0.2338300000000000 C
   0.1961400000000000    0.4334500000000000    0.0954700000000000 C
   0.2720050000000000    0.3682100000000000    0.2081600000000000 C
   0.2234950000000000    0.3567400000000000    0.1435350000000000 C
   0.2430900000000000    0.4489400000000000    0.1680500000000000 C
   0.2202750000000000    0.4136200000000000    0.1373400000000000 C
   0.2707150000000000    0.4256500000000000    0.2032500000000000 C
   0.5632300000000000    0.5486900000000000    0.1215500000000000 C
   0.4303300000000000    0.5597299999999999    0.2442550000000000 C
   0.5356250000000000    0.6366200000000000    0.1573550000000000 C
   0.5338550000000000    0.5789800000000001    0.1568150000000000 C
   0.4767350000000000    0.6400800000000000    0.2152500000000000 C
   0.5000000000000000    0.5510699999999999    0.1868750000000000 C
   0.4723750000000000    0.5824800000000000    0.2160150000000000 C
   0.3142100000000000    0.9515900000000000    0.3700000000000000 C
   0.1816700000000000    0.9428000000000000    0.4931100000000000 C
   0.2866350000000000    0.8644400000000000    0.4074700000000000 C
   0.2278650000000000    0.8620000000000000    0.4655350000000000 C
   0.2850000000000000    0.9220200000000000    0.4059400000000000 C
   0.2532550000000000    0.9504400000000000    0.4355500000000000 C
   0.2236100000000000    0.9195700000000000    0.4652500000000000 C
   0.0520300000000000    0.0386600000000000    0.4804500000000000 C
   0.9472849999999999    0.0675000000000000    0.3425250000000000 C
   0.0225850000000000    0.1326300000000000    0.4559250000000000 C
   0.9737050000000000    0.1439200000000000    0.3915900000000000 C
   0.9947250000000001    0.0518200000000000    0.4148300000000000 C
   0.9712750000000000    0.0870700000000000    0.3846500000000000 C
   0.0221300000000000    0.0752600000000000    0.4502550000000000 C
   0.6846600000000000    0.0497500000000000    0.1197600000000000 C
   0.7135600000000000    0.1369100000000000    0.1565950000000000 C
   0.7722899999999999    0.1392000000000000    0.2149450000000000 C
   0.7145049999999999    0.0792800000000000    0.1554100000000000 C
   0.7458700000000000    0.0507700000000000    0.1853400000000000 C
   0.7758849999999999    0.0815600000000000    0.2150050000000000 C
   0.8171550000000001    0.0577000000000000    0.2433400000000000 C
   0.9458700000000000    0.9622300000000000    0.2294550000000000 C
   0.0514350000000000    0.9327700000000000    0.0924250000000000 C
   0.0246900000000000    0.8566000000000000    0.1413450000000000 C
   0.9753650000000000    0.8680600000000001    0.2052250000000000 C
   0.0031300000000000    0.9487300000000000    0.1640500000000000 C
   0.0269500000000000    0.9134100000000001    0.1342600000000000 C
   0.9756400000000001    0.9253900000000000    0.1993900000000000 C
   0.8142100000000000    0.9515900000000000    0.3700000000000000 C
   0.6816700000000000    0.9428000000000000    0.4931100000000000 C
   0.7866350000000000    0.8644400000000000    0.4074700000000000 C
   0.7278650000000000    0.8620000000000000    0.4655350000000000 C
   0.7849999999999999    0.9220200000000000    0.4059400000000000 C
   0.7532550000000000    0.9504400000000000    0.4355500000000000 C
   0.7236100000000000    0.9195700000000000    0.4652500000000000 C
   0.5520300000000000    0.0386600000000000    0.4804500000000000 C
   0.4472850000000000    0.0675000000000000    0.3425250000000000 C
   0.5225850000000000    0.1326300000000000    0.4559250000000000 C
   0.4737050000000000    0.1439200000000000    0.3915900000000000 C
   0.4947250000000000    0.0518200000000000    0.4148300000000000 C
   0.4712750000000000    0.0870700000000000    0.3846500000000000 C
   0.5221300000000000    0.0752600000000000    0.4502550000000000 C
   0.1846600000000000    0.0497500000000000    0.1197600000000000 C
   0.2135600000000000    0.1369100000000000    0.1565950000000000 C
   0.2722900000000000    0.1392000000000000    0.2149450000000000 C
   0.2145050000000000    0.0792800000000000    0.1554100000000000 C
   0.2458700000000000    0.0507700000000000    0.1853400000000000 C
   0.2758850000000000    0.0815600000000000    0.2150050000000000 C
   0.3171550000000000    0.0577000000000000    0.2433400000000000 C
   0.4458700000000000    0.9622300000000000    0.2294550000000000 C
   0.5514350000000000    0.9327700000000000    0.0924250000000000 C
   0.5246900000000000    0.8566000000000000    0.1413450000000000 C
   0.4753650000000000    0.8680600000000001    0.2052250000000000 C
   0.5031300000000000    0.9487300000000000    0.1640500000000000 C
   0.5269500000000000    0.9134100000000001    0.1342600000000000 C
   0.4756400000000000    0.9253900000000000    0.1993900000000000 C
   0.4345550000000000    0.4514100000000000    0.3716000000000000 C
   0.5674200000000000    0.4420100000000000    0.4945250000000000 C
   0.4627250000000000    0.3638000000000000    0.4074600000000000 C
   0.5216000000000000    0.3609100000000000    0.4656300000000000 C
   0.4641900000000000    0.4214400000000000    0.4068500000000000 C
   0.4958950000000000    0.4496500000000000    0.4369450000000000 C
   0.5256800000000000    0.4185400000000000    0.4662450000000000 C
   0.6969750000000000    0.5390500000000000    0.4827700000000000 C
   0.8025100000000001    0.5682199999999999    0.3457950000000000 C
   0.7265850000000000    0.6333600000000000    0.4581550000000000 C
   0.7758800000000000    0.6447200000000000    0.3941900000000000 C
   0.7544800000000000    0.5525800000000000    0.4175900000000000 C
   0.7782050000000000    0.5878800000000000    0.3875100000000000 C
   0.7269650000000000    0.5759500000000000    0.4527050000000000 C
   0.8001050000000001    0.4627300000000000    0.2338300000000000 C
   0.6961400000000000    0.4334500000000000    0.0954700000000000 C
   0.7720050000000001    0.3682100000000000    0.2081600000000000 C
   0.7234950000000000    0.3567400000000000    0.1435350000000000 C
   0.7430900000000000    0.4489400000000000    0.1680500000000000 C
   0.7202750000000000    0.4136200000000000    0.1373400000000000 C
   0.7707150000000000    0.4256500000000000    0.2032500000000000 C
   0.0632300000000000    0.5486900000000000    0.1215500000000000 C
   0.9303300000000000    0.5597299999999999    0.2442550000000000 C
   0.0356250000000000    0.6366200000000000    0.1573550000000000 C
   0.0338550000000000    0.5789800000000001    0.1568150000000000 C
   0.9767350000000000    0.6400800000000000    0.2152500000000000 C
   0.0000000000000000    0.5510699999999999    0.1868750000000000 C
   0.9723750000000000    0.5824800000000000    0.2160150000000000 C
   0.4345550000000000    0.4514100000000000    0.8715999999999999 C
   0.5674200000000000    0.4420100000000000    0.9945250000000000 C
   0.4627250000000000    0.3638000000000000    0.9074599999999999 C
   0.5216000000000000    0.3609100000000000    0.9656300000000000 C
   0.4641900000000000    0.4214400000000000    0.9068499999999999 C
   0.4958950000000000    0.4496500000000000    0.9369449999999999 C
   0.5256800000000000    0.4185400000000000    0.9662450000000000 C
   0.6969750000000000    0.5390500000000000    0.9827699999999999 C
   0.8025100000000001    0.5682199999999999    0.8457950000000001 C
   0.7265850000000000    0.6333600000000000    0.9581550000000000 C
   0.7758800000000000    0.6447200000000000    0.8941900000000000 C
   0.7544800000000000    0.5525800000000000    0.9175900000000000 C
   0.7782050000000000    0.5878800000000000    0.8875100000000000 C
   0.7269650000000000    0.5759500000000000    0.9527050000000000 C
   0.8001050000000001    0.4627300000000000    0.7338300000000000 C
   0.6961400000000000    0.4334500000000000    0.5954699999999999 C
   0.7720050000000001    0.3682100000000000    0.7081600000000000 C
   0.7234950000000000    0.3567400000000000    0.6435350000000000 C
   0.7430900000000000    0.4489400000000000    0.6680500000000000 C
   0.7202750000000000    0.4136200000000000    0.6373400000000000 C
   0.7707150000000000    0.4256500000000000    0.7032499999999999 C
   0.0632300000000000    0.5486900000000000    0.6215500000000000 C
   0.9303300000000000    0.5597299999999999    0.7442550000000000 C
   0.0356250000000000    0.6366200000000000    0.6573550000000000 C
   0.0338550000000000    0.5789800000000001    0.6568150000000000 C
   0.9767350000000000    0.6400800000000000    0.7152499999999999 C
   0.0000000000000000    0.5510699999999999    0.6868750000000000 C
   0.9723750000000000    0.5824800000000000    0.7160150000000001 C
   0.8142100000000000    0.9515900000000000    0.8700000000000000 C
   0.6816700000000000    0.9428000000000000    0.9931099999999999 C
   0.7866350000000000    0.8644400000000000    0.9074700000000000 C
   0.7278650000000000    0.8620000000000000    0.9655350000000000 C
   0.7849999999999999    0.9220200000000000    0.9059400000000000 C
   0.7532550000000000    0.9504400000000000    0.9355500000000000 C
   0.7236100000000000    0.9195700000000000    0.9652499999999999 C
   0.5520300000000000    0.0386600000000000    0.9804500000000000 C
   0.4472850000000000    0.0675000000000000    0.8425250000000000 C
   0.5225850000000000    0.1326300000000000    0.9559250000000000 C
   0.4737050000000000    0.1439200000000000    0.8915900000000000 C
   0.4947250000000000    0.0518200000000000    0.9148300000000000 C
   0.4712750000000000    0.0870700000000000    0.8846499999999999 C
   0.5221300000000000    0.0752600000000000    0.9502550000000001 C
   0.1846600000000000    0.0497500000000000    0.6197600000000000 C
   0.2135600000000000    0.1369100000000000    0.6565950000000000 C
   0.2722900000000000    0.1392000000000000    0.7149449999999999 C
   0.2145050000000000    0.0792800000000000    0.6554100000000000 C
   0.2458700000000000    0.0507700000000000    0.6853400000000001 C
   0.2758850000000000    0.0815600000000000    0.7150050000000000 C
   0.3171550000000000    0.0577000000000000    0.7433400000000000 C
   0.4458700000000000    0.9622300000000000    0.7294550000000000 C
   0.5514350000000000    0.9327700000000000    0.5924250000000000 C
   0.5246900000000000    0.8566000000000000    0.6413450000000001 C
   0.4753650000000000    0.8680600000000001    0.7052250000000000 C
   0.5031300000000000    0.9487300000000000    0.6640500000000000 C
   0.5269500000000000    0.9134100000000001    0.6342600000000000 C
   0.4756400000000000    0.9253900000000000    0.6993900000000000 C
   0.3142100000000000    0.9515900000000000    0.8700000000000000 C
   0.1816700000000000    0.9428000000000000    0.9931099999999999 C
   0.2866350000000000    0.8644400000000000    0.9074700000000000 C
   0.2278650000000000    0.8620000000000000    0.9655350000000000 C
   0.2850000000000000    0.9220200000000000    0.9059400000000000 C
   0.2532550000000000    0.9504400000000000    0.9355500000000000 C
   0.2236100000000000    0.9195700000000000    0.9652499999999999 C
   0.0520300000000000    0.0386600000000000    0.9804500000000000 C
   0.9472849999999999    0.0675000000000000    0.8425250000000000 C
   0.0225850000000000    0.1326300000000000    0.9559250000000000 C
   0.9737050000000000    0.1439200000000000    0.8915900000000000 C
   0.9947250000000001    0.0518200000000000    0.9148300000000000 C
   0.9712750000000000    0.0870700000000000    0.8846499999999999 C
   0.0221300000000000    0.0752600000000000    0.9502550000000001 C
   0.6846600000000000    0.0497500000000000    0.6197600000000000 C
   0.7135600000000000    0.1369100000000000    0.6565950000000000 C
   0.7722899999999999    0.1392000000000000    0.7149449999999999 C
   0.7145049999999999    0.0792800000000000    0.6554100000000000 C
   0.7458700000000000    0.0507700000000000    0.6853400000000001 C
   0.7758849999999999    0.0815600000000000    0.7150050000000000 C
   0.8171550000000001    0.0577000000000000    0.7433400000000000 C
   0.9345550000000000    0.4514100000000000    0.8715999999999999 C
   0.0674200000000000    0.4420100000000000    0.9945250000000000 C
   0.9627250000000001    0.3638000000000000    0.9074599999999999 C
   0.0216000000000000    0.3609100000000000    0.9656300000000000 C
   0.9641900000000000    0.4214400000000000    0.9068499999999999 C
   0.9958950000000000    0.4496500000000000    0.9369449999999999 C
   0.0256800000000000    0.4185400000000000    0.9662450000000000 C
   0.1969750000000000    0.5390500000000000    0.9827699999999999 C
   0.3025100000000000    0.5682199999999999    0.8457950000000001 C
   0.2265850000000000    0.6333600000000000    0.9581550000000000 C
   0.2758800000000000    0.6447200000000000    0.8941900000000000 C
   0.2544800000000000    0.5525800000000000    0.9175900000000000 C
   0.2782050000000000    0.5878800000000000    0.8875100000000000 C
   0.2269650000000000    0.5759500000000000    0.9527050000000000 C
   0.3001050000000000    0.4627300000000000    0.7338300000000000 C
   0.1961400000000000    0.4334500000000000    0.5954699999999999 C
   0.2720050000000000    0.3682100000000000    0.7081600000000000 C
   0.2234950000000000    0.3567400000000000    0.6435350000000000 C
   0.2430900000000000    0.4489400000000000    0.6680500000000000 C
   0.2202750000000000    0.4136200000000000    0.6373400000000000 C
   0.2707150000000000    0.4256500000000000    0.7032499999999999 C
   0.5632300000000000    0.5486900000000000    0.6215500000000000 C
   0.4303300000000000    0.5597299999999999    0.7442550000000000 C
   0.5356250000000000    0.6366200000000000    0.6573550000000000 C
   0.5338550000000000    0.5789800000000001    0.6568150000000000 C
   0.4767350000000000    0.6400800000000000    0.7152499999999999 C
   0.5000000000000000    0.5510699999999999    0.6868750000000000 C
   0.4723750000000000    0.5824800000000000    0.7160150000000001 C
   0.9908500000000000    0.3341300000000000    0.4367500000000000 N
   0.2515300000000000    0.6670800000000000    0.4293800000000000 N
   0.2478150000000000    0.3343800000000000    0.1788350000000000 N
   0.5000000000000000    0.6665500000000000    0.1864700000000000 N
   0.2586300000000000    0.8350600000000000    0.4371450000000000 N
   0.9978250000000000    0.1663100000000000    0.4271200000000000 N
   0.7417950000000000    0.1662600000000000    0.1862500000000000 N
   0.0000000000000000    0.8343300000000000    0.1766500000000000 N
   0.7586300000000000    0.8350600000000000    0.4371450000000000 N
   0.4978250000000000    0.1663100000000000    0.4271200000000000 N
   0.2417950000000000    0.1662600000000000    0.1862500000000000 N
   0.5000000000000000    0.8343300000000000    0.1766500000000000 N
   0.4908500000000000    0.3341300000000000    0.4367500000000000 N
   0.7515300000000000    0.6670800000000000    0.4293800000000000 N
   0.7478150000000000    0.3343800000000000    0.1788350000000000 N
   0.0000000000000000    0.6665500000000000    0.1864700000000000 N
   0.4908500000000000    0.3341300000000000    0.9367500000000000 N
   0.7515300000000000    0.6670800000000000    0.9293800000000000 N
   0.7478150000000000    0.3343800000000000    0.6788350000000000 N
   0.0000000000000000    0.6665500000000000    0.6864700000000000 N
   0.7586300000000000    0.8350600000000000    0.9371450000000000 N
   0.4978250000000000    0.1663100000000000    0.9271199999999999 N
   0.2417950000000000    0.1662600000000000    0.6862500000000000 N
   0.5000000000000000    0.8343300000000000    0.6766500000000000 N
   0.2586300000000000    0.8350600000000000    0.9371450000000000 N
   0.9978250000000000    0.1663100000000000    0.9271199999999999 N
   0.7417950000000000    0.1662600000000000    0.6862500000000000 N
   0.9908500000000000    0.3341300000000000    0.9367500000000000 N
   0.2515300000000000    0.6670800000000000    0.9293800000000000 N
   0.2478150000000000    0.3343800000000000    0.6788350000000000 N
   0.5000000000000000    0.6665500000000000    0.6864700000000000 N
   0.7617050000000001    0.7444400000000000    0.0117450000000000 Cl
   0.2617050000000000    0.7444400000000000    0.0117450000000000 Cl
   0.2617050000000000    0.7444400000000000    0.5117450000000000 Cl
   0.7617050000000001    0.7444400000000000    0.5117450000000000 Cl
   0.4877200000000000    0.2422700000000000    0.0102350000000000 Cl
   0.9877199999999999    0.2422700000000000    0.0102350000000000 Cl
   0.4877200000000000    0.2422700000000000    0.5102350000000000 Cl
   0.9877199999999999    0.2422700000000000    0.5102350000000000 Cl
   0.7380100000000001    0.2566600000000000    0.2609300000000000 Cl
   0.2380100000000000    0.2566600000000000    0.2609300000000000 Cl
   0.2380100000000000    0.2566600000000000    0.7609300000000000 Cl
   0.7380100000000001    0.2566600000000000    0.7609300000000000 Cl
   0.4932800000000000    0.7404800000000000    0.6053999999999999 Cl
   0.4932800000000000    0.7404800000000000    0.1054000000000000 Cl
   0.9932799999999999    0.7404800000000000    0.1054000000000000 Cl
   0.9932799999999999    0.7404800000000000    0.6053999999999999 Cl
   0.0103150000000000    0.7587100000000000    0.2599300000000000 Cl
   0.0103150000000000    0.7587100000000000    0.7599300000000000 Cl
   0.5103150000000000    0.7587100000000000    0.2599300000000000 Cl
   0.5103150000000000    0.7587100000000000    0.7599300000000000 Cl
   0.0056650000000000    0.2600300000000000    0.8558600000000001 Cl
   0.5056650000000000    0.2600300000000000    0.8558600000000001 Cl
   0.0056650000000000    0.2600300000000000    0.3558600000000000 Cl
   0.5056650000000000    0.2600300000000000    0.3558600000000000 Cl
   0.7569550000000000    0.2421500000000000    0.6064000000000001 Cl
   0.2569550000000000    0.2421500000000000    0.6064000000000001 Cl
   0.2569550000000000    0.2421500000000000    0.1064000000000000 Cl
   0.7569550000000000    0.2421500000000000    0.1064000000000000 Cl
   0.2434900000000000    0.7593700000000000    0.3571350000000000 Cl
   0.7434900000000000    0.7593700000000000    0.3571350000000000 Cl
   0.2434900000000000    0.7593700000000000    0.8571350000000000 Cl
   0.7434900000000000    0.7593700000000000    0.8571350000000000 Cl
   0.0733150000000000   -0.0205600000000000    0.5899000000000000 O
   0.0467250000000000    0.8984000000000000    0.5598600000000000 O
   0.9379000000000000    0.5027400000000000    0.3672450000000000 O
   0.9064350000000000    0.4209200000000000    0.3454500000000000 O
   0.0671250000000000    0.4914000000000000    0.5000000000000000 O
   0.1037250000000000    0.4071800000000000    0.5019500000000000 O