H8 O5
1.0
  26.1399263609909589    0.0000000000000000   -0.0620470947757306
  -0.1420016738554337   24.2085795144348204   -0.0139433822634023
   0.0000000000000000    0.0000000000000000   30.0839999999999996
H O
8 5
direct
   0.0746351969976701    0.0057635623981045    0.6142021106549141 H
   0.0292744220659379    0.8629772120727593    0.5583144588789783 H
   0.0482362419776779   -0.0714671693934731    0.5876788556955472 H
   0.0178351067000813    0.8504169917460839    0.6511470254335209 H
  -0.0178278090792480    0.8587396610612152    0.6973291006470270 H
   0.9163862910862460    0.9019648968570522    0.7632069950557687 H
   0.9728138531862588    0.0287715321927633    0.6974355571185298 H
   0.9490182882261545    0.9623856268853588    0.7257623847883035 H
   0.0733150000000000   -0.0205600000000000    0.5899000000000000 O
   0.0467250000000000    0.8984000000000000    0.5598600000000000 O
   0.0000000000000000    0.8343300000000000    0.6766500000000000 O
   0.9181049999999999    0.9417400000000000    0.7595600000000000 O
   0.9512650000000000    0.0143800000000000    0.7209950000000001 O
