Ag8 H36 C28 N14 O1
1.0
  10.4238962343311421    0.0000000000000000   -5.1515840336635330
  -1.7044085306903451   11.4622764985619732   -1.0743616853852616
   0.0000000000000000    0.0000000000000000   11.6507000000000005
Ag H C N O
8 36 28 14 1
direct
   0.3815600000000000    0.3559100000000000    0.2933700000000000 Ag
   0.6184700000000000    0.6440900000000001    0.7066500000000000 Ag
   0.0011800000000000    0.5018600000000000    0.5004700000000000 Ag
   0.2060700000000000    0.1430700000000000    0.1189200000000000 Ag
   0.9994800000000000    0.9981500000000000    0.4987900000000000 Ag
   0.9399500000000000    0.2479900000000000    0.5603600000000000 Ag
   0.7939600000000000    0.8569300000000000    0.8811099999999999 Ag
   0.0600800000000000    0.7520100000000000    0.4396600000000000 Ag
   0.2445500000000000    0.4105300000000000    0.5977300000000000 H
   0.3774900000000000    0.4319300000000000    0.5618700000000000 H
   0.2825600000000000    0.2915400000000000    0.5190900000000001 H
   0.1029500000000000    0.4454000000000000    0.0991500000000000 H
   0.9305500000000000    0.5027900000000000    0.1933700000000000 H
   0.5437000000000000    0.2658900000000000    0.5240000000000000 H
   0.6883500000000000    0.2010500000000000    0.5862700000000000 H
   0.6967400000000000    0.3552000000000000    0.6148600000000000 H
   0.8032800000000000    0.2862000000000000    0.2432800000000000 H
   0.5523200000000000    0.3386200000000000    0.1273400000000000 H
   0.7578000000000000    0.5931400000000000    0.4032700000000000 H
   0.6244600000000000    0.5697100000000000    0.4382300000000000 H
   0.7181600000000000    0.7108000000000000    0.4820700000000000 H
   0.8981900000000000    0.5555500000000000    0.9010800000000000 H
   0.0716700000000000    0.5004300000000000    0.8074300000000000 H
   0.4563200000000000    0.7341100000000000    0.4760300000000000 H
   0.3116800000000000    0.7989500000000000    0.4137600000000000 H
   0.3032900000000000    0.6448000000000000    0.3851700000000000 H
   0.1967500000000000    0.7138000000000000    0.7567500000000000 H
   0.4477000000000000    0.6613800000000000    0.8726800000000000 H
   0.9754300000000000    0.2333800000000000    0.9559600000000000 H
   0.9132000000000000    0.2967900000000000    0.8107200000000000 H
   0.8844500000000000    0.1428800000000000    0.8038999999999999 H
   0.2573200000000000    0.2085900000000000    0.6977800000000000 H
   0.3726900000000000    0.1572200000000000    0.9486900000000000 H
   0.9013600000000001    0.0893700000000000    0.2558800000000000 H
   0.9367300000000000    0.0669300000000000    0.1228900000000000 H
   0.9797100000000000    0.2077600000000000    0.2169700000000000 H
   0.4008600000000000    0.0544500000000000    0.3963200000000000 H
   0.3069700000000000    0.9972800000000001    0.5687000000000000 H
   0.8691986976599433    0.9132486568094559    0.6954992730827735 H
   0.0246000000000000    0.7666200000000000    0.0440700000000000 H
   0.0868300000000000    0.7032100000000000    0.1893100000000000 H
   0.1155800000000000    0.8571200000000000    0.1961300000000000 H
   0.7427100000000000    0.7914099999999999    0.3022500000000000 H
   0.6273300000000001    0.8427900000000000    0.0513400000000000 H
   0.2784000000000000    0.3859200000000000    0.5259400000000000 C
   0.1901800000000000    0.4170300000000000    0.3981700000000000 C
   0.1086300000000000    0.4434700000000000    0.1943700000000000 C
   0.0228800000000000    0.4712000000000000    0.2407300000000000 C
   0.6457300000000000    0.2764300000000000    0.5431000000000000 C
   0.6554300000000000    0.2856600000000000    0.4209900000000000 C
   0.7336600000000000    0.2917900000000000    0.2810700000000000 C
   0.6094200000000000    0.3181800000000000    0.2237200000000000 C
   0.7232700000000000    0.6165800000000000    0.4747900000000000 C
   0.8115100000000000    0.5853300000000000    0.6024900000000000 C
   0.8927800000000000    0.5581100000000000    0.8060400000000000 C
   0.9790700000000000    0.5315299999999999    0.7599800000000000 C
   0.3543000000000000    0.7235700000000000    0.4569300000000000 C
   0.3446000000000000    0.7143400000000000    0.5790400000000000 C
   0.2663700000000000    0.7082100000000000    0.7189600000000000 C
   0.3906100000000000    0.6818200000000000    0.7763099999999999 C
   0.9563700000000001    0.2217100000000000    0.8541400000000000 C
   0.0787400000000000    0.2114800000000000    0.8447600000000000 C
   0.2192000000000000    0.2037400000000000    0.7671300000000000 C
   0.2763100000000000    0.1779400000000000    0.8913600000000000 C
   0.9730000000000000    0.1134900000000000    0.2216600000000000 C
   0.1012000000000000    0.0826300000000000    0.3096500000000000 C
   0.3054900000000000    0.0563400000000000    0.3908000000000000 C
   0.2593100000000000    0.0287300000000000    0.4765400000000000 C
   0.0436600000000000    0.7783000000000000    0.1458900000000000 C
   0.9212900000000001    0.7885200000000000    0.1552700000000000 C
   0.7808300000000000    0.7962600000000000    0.2329000000000000 C
   0.7237200000000000    0.8220700000000000    0.1086700000000000 C
   0.0747900000000000    0.4543300000000000    0.3693900000000000 N
   0.2142700000000000    0.4096600000000000    0.2941700000000000 N
   0.7621500000000000    0.2706300000000000    0.4053500000000000 N
   0.5601500000000000    0.3140500000000000    0.3122800000000000 N
   0.9273400000000001    0.5489000000000001    0.6314800000000000 N
   0.7869699999999999    0.5916900000000000    0.7062100000000000 N
   0.2378800000000000    0.7293700000000000    0.5946800000000000 N
   0.4398800000000000    0.6859499999999999    0.6877500000000000 N
   0.0947400000000000    0.2255500000000000    0.7382600000000000 N
   0.1874000000000000    0.1830800000000000    0.9402500000000000 N
   0.1303400000000000    0.0455000000000000    0.4248900000000000 N
   0.2052800000000000    0.0900000000000000    0.2854300000000000 N
   0.9052800000000000    0.7744500000000000    0.2617600000000000 N
   0.8126300000000000    0.8169300000000000    0.0597800000000000 N
   0.7943300000000000    0.9086600000000000    0.7133200000000000 O
