H4 C8 O4
1.0
  15.9944489240045655    0.0000000000000000    9.0757756482522876
   5.2834800045365311   15.0962639233272053    9.0722763735962211
   0.0000000000000000    0.0000000000000000   18.3930000000000007
H C O
4 8 4
direct
   0.0484800000000000    0.5679300000000000    0.3359000000000000 H
   0.0485500000000000    0.3358800000000000    0.5678000000000000 H
   0.9514500000000000    0.6641200000000000    0.4321300000000000 H
   0.9515100000000000    0.4320700000000000    0.6640800000000000 H
   0.0268500000000000    0.5389600000000000    0.4077000000000000 C
   0.0268900000000000    0.4077700000000000    0.5389100000000000 C
   0.9731000000000000    0.5922300000000000    0.4610700000000000 C
   0.9731400000000000    0.4610400000000000    0.5921999999999999 C
   0.1117900000000000    0.3891100000000000    0.3890700000000000 C
   0.0540700000000000    0.4464000000000000    0.4463800000000000 C
   0.8882000000000000    0.6108900000000000    0.6109100000000000 C
   0.9459200000000000    0.5535900000000000    0.5536000000000000 C
   0.1340900000000000    0.3054500000000000    0.4285100000000000 O
   0.1340200000000000    0.4285700000000000    0.3054300000000000 O
   0.8659800000000000    0.5714300000000000    0.6945600000000000 O
   0.8659000000000000    0.6945500000000000    0.5714700000000000 O
