La2 H18 C8 O18
1.0
   6.1682060490202728    0.0000000000000000   -0.5701441807382660
  -0.1869577015092009    7.5098767057774802   -1.9946315278434690
   0.0000000000000000    0.0000000000000000   13.3510000000000009
La H C O
2 18 8 18
direct
   0.7968800000000000    0.6939300000000000    0.8255800000000000 La
   0.5890300000000001    0.0412700000000000    0.4768600000000000 La
   1.1986101111342702    0.3812589062496451    0.8001741586088000 H
   0.2582748268466932    0.6066496288021644    0.8219545395667311 H
   0.6024252571033082    1.0429546008875414    0.8834700110887281 H
   0.6406163715972991    1.1314197452472747    0.8158654522600658 H
   0.6848939285079364    0.3571017348212223    0.8011131196363425 H
   0.7287414405070959    0.4048092768640453    0.9219545378005406 H
   0.5177884600507747    0.3621061382671365    0.8366615269328970 H
   0.5147145005688554    0.3488138438549115    0.6468923705324421 H
   0.4176608011397679    0.2075331800624441    0.7008947851075729 H
   0.7128987714050539    0.1342513314474604    0.6571365601436256 H
   0.9946600000000000    0.4383900000000000    0.1747200000000000 H
   0.0184400000000000    0.7969100000000000    0.2077700000000000 H
   0.8702000000000000    0.8561800000000001    0.6555000000000000 H
   0.1269800000000000    0.5543000000000000    0.5738799999999999 H
   0.4903200000000000    0.4952000000000000    0.1106400000000000 H
   0.3098900000000000    0.8147400000000000    0.1022000000000000 H
   0.6742600000000000    0.6718400000000000    0.3706800000000000 H
   0.9996900000000000    0.5880600000000000    0.4069700000000000 H
   0.9357600000000000    0.6074500000000000    0.0605100000000000 C
   0.0786000000000000    0.6689100000000000    0.1633100000000000 C
   0.0826500000000000    0.8602300000000001    0.4848700000000000 C
   0.7907500000000000    0.4795100000000000    0.5669100000000000 C
   0.9698700000000000    0.6198600000000000    0.5710400000000000 C
   0.3132100000000000    0.7016300000000000    0.1378400000000000 C
   0.4615200000000000    0.7490300000000000    0.2393400000000000 C
   0.9435700000000000    0.6898600000000000    0.4725600000000000 C
   1.1030500000000001    0.4817400000000000    0.8081600000000000 O
   0.4057600000000000    0.6506100000000000    0.8244400000000000 O
   0.6302400000000000    0.9886900000000000    0.8120400000000000 O
   0.6708400000000000    0.3995300000000000    0.8504900000000000 O
   0.4160000000000000    0.2461400000000000    0.6366000000000001 O
   0.7037400000000000    0.0082700000000000    0.6537600000000000 O
   0.8578400000000000    0.4509000000000000    0.0369700000000000 O
   0.9080100000000000    0.7194100000000000    0.0044500000000000 O
   0.0749700000000000    0.5410000000000000    0.2220100000000000 O
   0.2856900000000000    0.8511800000000000    0.5020300000000000 O
   0.9825400000000000    0.9994600000000000    0.4753300000000000 O
   0.7581599999999999    0.3471900000000000    0.4895100000000000 O
   0.6848900000000000    0.5057300000000000    0.6478900000000000 O
   0.9725100000000000    0.7587200000000000    0.6661100000000000 O
   0.3878100000000000    0.5489600000000000    0.0674700000000000 O
   0.5836800000000000    0.6285500000000001    0.2571400000000000 O
   0.4501600000000000    0.9061800000000000    0.3003400000000000 O
   0.7205200000000000    0.7247700000000000    0.4494500000000000 O
