H6 C18 O8
1.0
  23.0369999999999990    0.0000000000000000    0.0000000000000014
   0.0261044580147587   15.2619769220156023    0.0047946986290411
   0.0000000000000000    0.0000000000000000   18.1640000000000015
H C O
6 18 8
direct
   0.7500000000000000    0.5269000000000000    0.3324200000000000 H
   0.7500500000000000    0.7030100000000000    0.5192200000000000 H
   0.7500500000000000    0.8049300000000000    0.2975900000000000 H
   0.7500300000000000    0.4730700000000000    0.6675500000000000 H
   0.7499800000000000    0.2969600000000000    0.4807500000000000 H
   0.7499800000000000    0.1950400000000000    0.7023800000000000 H
   0.7500200000000000    0.6642200000000000    0.3070000000000000 C
   0.7500100000000000    0.5928500000000000    0.3552100000000000 C
   0.7500200000000000    0.6054300000000000    0.4321100000000000 C
   0.7500400000000000    0.6915000000000000    0.4600100000000000 C
   0.7500500000000000    0.7631300000000000    0.4117000000000000 C
   0.7500400000000000    0.7495200000000000    0.3353900000000000 C
   0.7500200000000000    0.6487900000000000    0.2248400000000000 C
   0.7500700000000000    0.8541800000000001    0.4431200000000000 C
   0.7500200000000000    0.5321200000000000    0.4800200000000000 C
   0.7500100000000000    0.3357500000000000    0.6929100000000000 C
   0.7500200000000000    0.4071300000000000    0.6447000000000001 C
   0.7500100000000000    0.3945500000000000    0.5678600000000000 C
   0.7499900000000000    0.3084700000000000    0.5399600000000000 C
   0.7499800000000000    0.2368400000000000    0.5881800000000000 C
   0.7499900000000000    0.2504500000000000    0.6645000000000000 C
   0.7500100000000000    0.3511900000000000    0.7751300000000000 C
   0.7499600000000000    0.1458000000000000    0.5568500000000000 C
   0.7500100000000000    0.4678500000000000    0.5199500000000000 C
   0.7500599999999999    0.8600500000000000    0.5129700000000000 O
   0.7500800000000000   -0.0823500000000000    0.3976400000000000 O
   0.7500100000000000    0.5665900000000000    0.2059500000000000 O
   0.7500200000000000    0.7116600000000000    0.1809900000000000 O
   0.7499700000000000    0.1399200000000000    0.4870000000000000 O
   0.7499500000000000    1.0823300000000000    0.6023300000000000 O
   0.7500200000000000    0.4333800000000000    0.7940100000000000 O
   0.7500100000000000    0.2883200000000000    0.8189800000000000 O
