H4 C8 O4
1.0
  37.5389929960423103    0.0000000000000000   -0.0229312687505535
  -0.0166302077561007   12.7844232548511361   -7.3927038001675323
   0.0000000000000000    0.0000000000000000   29.5159999999999982
H C O
4 8 4
direct
   0.9710266666666666    0.6595100000000000    0.4412750000000000 H
   0.9694166666666666    0.3222000000000000    0.3574900000000000 H
   0.9181766666666666    0.6603400000000000    0.3889000000000000 H
   0.9184399999999999    0.3229400000000000    0.3034300000000000 H
   0.0039833333333333    0.4911200000000000    0.4337000000000000 C
   0.9590233333333333    0.5868600000000000    0.4112500000000000 C
   0.9733333333333333    0.4910800000000000    0.4019750000000000 C
   0.9584333333333332    0.3957300000000000    0.3636000000000000 C
   0.9298799999999999    0.5872900000000000    0.3823700000000000 C
   0.9151566666666666    0.4919800000000000    0.3437100000000000 C
   0.9296800000000000    0.3961800000000000    0.3341050000000000 C
   0.8844766666666666    0.4931800000000000    0.3123850000000000 C
   0.0233066666666667    0.5727000000000000    0.4588750000000000 O
   0.0108966666666667    0.4097100000000000    0.4369200000000000 O
   0.8658699999999999    0.5757200000000000    0.3277150000000000 O
   0.8767833333333332    0.4113200000000000    0.2687850000000000 O
