In18 H140 C280 O140
1.0
  37.5389929960423103    0.0000000000000000   -0.0229312687505535
  -0.0166302077561007   12.7844232548511361   -7.3927038001675323
   0.0000000000000000    0.0000000000000000   29.5159999999999982
In H C O
18 140 280 140
direct
   0.1665466666666666    0.5002200000000000    0.2497400000000000 In
   0.2777633333333333    0.0004100000000000    0.2502100000000000 In
   0.0555500000000000    0.4994600000000000    0.4998550000000000 In
   0.4998800000000000    0.5002200000000000    0.2497400000000000 In
   0.6110966666666666    0.0004100000000000    0.2502100000000000 In
   0.3888833333333333    0.4994600000000000    0.4998550000000000 In
   0.8332133333333333    0.5002200000000000    0.2497400000000000 In
   0.9444299999999999    0.0004100000000000    0.2502100000000000 In
   0.7222166666666666    0.4994600000000000    0.4998550000000000 In
   0.1665466666666666    0.5002200000000000    0.7497400000000000 In
   0.2777633333333333    0.0004100000000000    0.7502100000000000 In
   0.0555500000000000    0.4994600000000000    0.9998549999999999 In
   0.4998800000000000    0.5002200000000000    0.7497400000000000 In
   0.6110966666666666    0.0004100000000000    0.7502100000000000 In
   0.3888833333333333    0.4994600000000000    0.9998549999999999 In
   0.8332133333333333    0.5002200000000000    0.7497400000000000 In
   0.9444299999999999    0.0004100000000000    0.7502100000000000 In
   0.7222166666666666    0.4994600000000000    0.9998549999999999 In
   0.3043600000000000    0.6595100000000000    0.4412750000000000 H
   0.3027500000000000    0.3222000000000000    0.3574900000000000 H
   0.0818300000000000    0.2221900000000000    0.1698550000000000 H
   0.0814866666666667    0.3928600000000000    0.3386700000000000 H
   0.1932966666666667    0.1157300000000000    0.3905400000000000 H
   0.1923200000000000    0.2820900000000000    0.3051400000000000 H
   0.3042400000000000    0.3401700000000000    0.0588750000000000 H
   0.3029533333333333    0.6774500000000000    0.1418500000000000 H
   0.0817233333333333    0.7774799999999999    0.3301450000000000 H
   0.0810433333333333    0.6077100000000000    0.1613200000000000 H
   0.1933000000000000    0.8840100000000000    0.1096500000000000 H
   0.1923233333333333    0.7176800000000000    0.1951150000000000 H
   0.1400000000000000    0.7799000000000000    0.0576900000000000 H
   0.1409766666666666    0.6099700000000000    0.1412950000000000 H
   0.0289800000000000    0.8826700000000000    0.3300450000000000 H
   0.0302366666666667    0.7165100000000000    0.1612850000000000 H
   0.2513100000000000    0.3400600000000000    0.1112150000000000 H
   0.2519400000000000    0.6774400000000000    0.1959700000000000 H
   0.1399600000000000    0.2193000000000000    0.4422950000000000 H
   0.1409666666666667    0.3893200000000000    0.3587000000000000 H
   0.0289166666666667    0.1175900000000000    0.1701800000000000 H
   0.0304766666666667    0.2847700000000000    0.3389450000000000 H
   0.2515100000000000    0.6603400000000000    0.3889000000000000 H
   0.2517733333333333    0.3229400000000000    0.3034300000000000 H
   0.6376933333333332    0.6595100000000000    0.4412750000000000 H
   0.6360833333333333    0.3222000000000000    0.3574900000000000 H
   0.4151633333333333    0.2221900000000000    0.1698550000000000 H
   0.4148200000000000    0.3928600000000000    0.3386700000000000 H
   0.5266299999999999    0.1157300000000000    0.3905400000000000 H
   0.5256533333333333    0.2820900000000000    0.3051400000000000 H
   0.6375733333333333    0.3401700000000000    0.0588750000000000 H
   0.6362866666666667    0.6774500000000000    0.1418500000000000 H
   0.4150566666666666    0.7774799999999999    0.3301450000000000 H
   0.4143766666666666    0.6077100000000000    0.1613200000000000 H
   0.5266333333333333    0.8840100000000000    0.1096500000000000 H
   0.5256566666666667    0.7176800000000000    0.1951150000000000 H
   0.4733333333333333    0.7799000000000000    0.0576900000000000 H
   0.4743100000000000    0.6099700000000000    0.1412950000000000 H
   0.3623133333333333    0.8826700000000000    0.3300450000000000 H
   0.3635700000000000    0.7165100000000000    0.1612850000000000 H
   0.5846433333333333    0.3400600000000000    0.1112150000000000 H
   0.5852733333333333    0.6774400000000000    0.1959700000000000 H
   0.4732933333333333    0.2193000000000000    0.4422950000000000 H
   0.4742999999999999    0.3893200000000000    0.3587000000000000 H
   0.3622500000000000    0.1175900000000000    0.1701800000000000 H
   0.3638100000000000    0.2847700000000000    0.3389450000000000 H
   0.5848433333333334    0.6603400000000000    0.3889000000000000 H
   0.5851066666666667    0.3229400000000000    0.3034300000000000 H
   0.7484966666666666    0.2221900000000000    0.1698550000000000 H
   0.7481533333333333    0.3928600000000000    0.3386700000000000 H
   0.8599633333333333    0.1157300000000000    0.3905400000000000 H
   0.8589866666666666    0.2820900000000000    0.3051400000000000 H
   0.9709066666666666    0.3401700000000000    0.0588750000000000 H
   0.9696199999999999    0.6774500000000000    0.1418500000000000 H
   0.7483900000000000    0.7774799999999999    0.3301450000000000 H
   0.7477100000000000    0.6077100000000000    0.1613200000000000 H
   0.8599666666666665    0.8840100000000000    0.1096500000000000 H
   0.8589899999999999    0.7176800000000000    0.1951150000000000 H
   0.8066666666666666    0.7799000000000000    0.0576900000000000 H
   0.8076433333333333    0.6099700000000000    0.1412950000000000 H
   0.6956466666666666    0.8826700000000000    0.3300450000000000 H
   0.6969033333333333    0.7165100000000000    0.1612850000000000 H
   0.9179766666666667    0.3400600000000000    0.1112150000000000 H
   0.9186066666666666    0.6774400000000000    0.1959700000000000 H
   0.8066266666666666    0.2193000000000000    0.4422950000000000 H
   0.8076333333333333    0.3893200000000000    0.3587000000000000 H
   0.6955833333333333    0.1175900000000000    0.1701800000000000 H
   0.6971433333333333    0.2847700000000000    0.3389450000000000 H
   0.3043600000000000    0.6595100000000000    0.9412750000000000 H
   0.3027500000000000    0.3222000000000000    0.8574900000000000 H
   0.0818300000000000    0.2221900000000000    0.6698550000000000 H
   0.0814866666666667    0.3928600000000000    0.8386700000000000 H
   0.1932966666666667    0.1157300000000000    0.8905400000000000 H
   0.1923200000000000    0.2820900000000000    0.8051400000000000 H
   0.3042400000000000    0.3401700000000000    0.5588750000000000 H
   0.3029533333333333    0.6774500000000000    0.6418500000000000 H
   0.0817233333333333    0.7774799999999999    0.8301450000000000 H
   0.0810433333333333    0.6077100000000000    0.6613200000000000 H
   0.1933000000000000    0.8840100000000000    0.6096500000000000 H
   0.1923233333333333    0.7176800000000000    0.6951150000000000 H
   0.1400000000000000    0.7799000000000000    0.5576900000000000 H
   0.1409766666666666    0.6099700000000000    0.6412949999999999 H
   0.0289800000000000    0.8826700000000000    0.8300449999999999 H
   0.0302366666666667    0.7165100000000000    0.6612850000000000 H
   0.2513100000000000    0.3400600000000000    0.6112150000000000 H
   0.2519400000000000    0.6774400000000000    0.6959700000000000 H
   0.1399600000000000    0.2193000000000000    0.9422950000000000 H
   0.1409666666666667    0.3893200000000000    0.8587000000000000 H
   0.0289166666666667    0.1175900000000000    0.6701800000000000 H
   0.0304766666666667    0.2847700000000000    0.8389450000000001 H
   0.2515100000000000    0.6603400000000000    0.8889000000000000 H
   0.2517733333333333    0.3229400000000000    0.8034300000000000 H
   0.6376933333333332    0.6595100000000000    0.9412750000000000 H
   0.6360833333333333    0.3222000000000000    0.8574900000000000 H
   0.4151633333333333    0.2221900000000000    0.6698550000000000 H
   0.4148200000000000    0.3928600000000000    0.8386700000000000 H
   0.5266299999999999    0.1157300000000000    0.8905400000000000 H
   0.5256533333333333    0.2820900000000000    0.8051400000000000 H
   0.6375733333333333    0.3401700000000000    0.5588750000000000 H
   0.6362866666666667    0.6774500000000000    0.6418500000000000 H
   0.4150566666666666    0.7774799999999999    0.8301450000000000 H
   0.4143766666666666    0.6077100000000000    0.6613200000000000 H
   0.5266333333333333    0.8840100000000000    0.6096500000000000 H
   0.5256566666666667    0.7176800000000000    0.6951150000000000 H
   0.4733333333333333    0.7799000000000000    0.5576900000000000 H
   0.4743100000000000    0.6099700000000000    0.6412949999999999 H
   0.3623133333333333    0.8826700000000000    0.8300449999999999 H
   0.3635700000000000    0.7165100000000000    0.6612850000000000 H
   0.5846433333333333    0.3400600000000000    0.6112150000000000 H
   0.5852733333333333    0.6774400000000000    0.6959700000000000 H
   0.4732933333333333    0.2193000000000000    0.9422950000000000 H
   0.4742999999999999    0.3893200000000000    0.8587000000000000 H
   0.3622500000000000    0.1175900000000000    0.6701800000000000 H
   0.3638100000000000    0.2847700000000000    0.8389450000000001 H
   0.5848433333333334    0.6603400000000000    0.8889000000000000 H
   0.5851066666666667    0.3229400000000000    0.8034300000000000 H
   0.9710266666666666    0.6595100000000000    0.9412750000000000 H
   0.9694166666666666    0.3222000000000000    0.8574900000000000 H
   0.7484966666666666    0.2221900000000000    0.6698550000000000 H
   0.7481533333333333    0.3928600000000000    0.8386700000000000 H
   0.8599633333333333    0.1157300000000000    0.8905400000000000 H
   0.8589866666666666    0.2820900000000000    0.8051400000000000 H
   0.9709066666666666    0.3401700000000000    0.5588750000000000 H
   0.9696199999999999    0.6774500000000000    0.6418500000000000 H
   0.7483900000000000    0.7774799999999999    0.8301450000000000 H
   0.7477100000000000    0.6077100000000000    0.6613200000000000 H
   0.8599666666666665    0.8840100000000000    0.6096500000000000 H
   0.8589899999999999    0.7176800000000000    0.6951150000000000 H
   0.8066666666666666    0.7799000000000000    0.5576900000000000 H
   0.8076433333333333    0.6099700000000000    0.6412949999999999 H
   0.6956466666666666    0.8826700000000000    0.8300449999999999 H
   0.6969033333333333    0.7165100000000000    0.6612850000000000 H
   0.9179766666666667    0.3400600000000000    0.6112150000000000 H
   0.9186066666666666    0.6774400000000000    0.6959700000000000 H
   0.8066266666666666    0.2193000000000000    0.9422950000000000 H
   0.8076333333333333    0.3893200000000000    0.8587000000000000 H
   0.6955833333333333    0.1175900000000000    0.6701800000000000 H
   0.6971433333333333    0.2847700000000000    0.8389450000000001 H
   0.9181766666666666    0.6603400000000000    0.8889000000000000 H
   0.9184399999999999    0.3229400000000000    0.8034300000000000 H
   0.2923566666666667    0.5868600000000000    0.4112500000000000 C
   0.3066666666666666    0.4910800000000000    0.4019750000000000 C
   0.2917666666666666    0.3957300000000000    0.3636000000000000 C
   0.0701000000000000    0.2351800000000000    0.2063750000000000 C
   0.0848100000000000    0.3123900000000000    0.2540950000000000 C
   0.0702600000000000    0.3315800000000000    0.3020050000000000 C
   0.1155133333333333    0.3749100000000000    0.2535150000000000 C
   0.1813066666666666    0.1752700000000000    0.3839300000000000 C
   0.1959533333333333    0.1937400000000000    0.3454050000000000 C
   0.1811200000000000    0.2699100000000000    0.3357000000000000 C
   0.2269200000000000    0.1307600000000000    0.3145200000000000 C
   0.2922933333333333    0.4129900000000000    0.0887000000000000 C
   0.3067033333333333    0.5085600000000000    0.0977650000000000 C
   0.2918833333333333    0.6040900000000000    0.1359150000000000 C
   0.0039933333333333    0.5082600000000000    0.0659900000000000 C
   0.0699400000000000    0.7647699999999999    0.2936800000000000 C
   0.0844900000000000    0.6876500000000000    0.2458850000000000 C
   0.0699000000000000    0.6688900000000000    0.1980300000000000 C
   0.1150833333333333    0.6247100000000000    0.2462600000000000 C
   0.1813133333333333    0.8243600000000000    0.1162500000000000 C
   0.1959533333333333    0.8060500000000000    0.1548450000000000 C
   0.1811266666666667    0.7297600000000000    0.1645050000000000 C
   0.2269100000000000    0.8693200000000000    0.1858300000000000 C
   0.1519933333333333    0.7670000000000000    0.0876000000000000 C
   0.1373500000000000    0.6900700000000000    0.0969000000000000 C
   0.1521866666666667    0.6710300000000000    0.1351650000000000 C
   0.1063900000000000    0.6280400000000000    0.0653300000000000 C
   0.0408700000000000    0.8227800000000000    0.2936250000000000 C
   0.0264966666666667    0.8047200000000000    0.2457850000000000 C
   0.0412566666666667    0.7282400000000000    0.1979850000000000 C
   0.3292600000000000    0.8683200000000000    0.2458950000000000 C
   0.2631066666666667    0.4129400000000000    0.1175800000000000 C
   0.2484466666666666    0.5084500000000000    0.1560000000000000 C
   0.2631066666666667    0.6040400000000000    0.1654350000000000 C
   0.2176833333333333    0.5076400000000000    0.1872000000000000 C
   0.1519633333333333    0.2323400000000000    0.4124500000000000 C
   0.1373166666666666    0.3091600000000000    0.4030900000000000 C
   0.1521666666666667    0.3283700000000000    0.3649000000000000 C
   0.1063533333333333    0.3709800000000000    0.4345700000000000 C
   0.0409266666666667    0.1775000000000000    0.2065500000000000 C
   0.0265966666666667    0.1959800000000000    0.2544450000000000 C
   0.0414866666666667    0.2726000000000000    0.3021800000000000 C
   0.3292800000000000    0.1325500000000000    0.2544100000000000 C
   0.2632133333333333    0.5872900000000000    0.3823700000000000 C
   0.2484900000000000    0.4919800000000000    0.3437100000000000 C
   0.2630133333333333    0.3961800000000000    0.3341050000000000 C
   0.2178100000000000    0.4931800000000000    0.3123850000000000 C
   0.6256900000000000    0.5868600000000000    0.4112500000000000 C
   0.6399999999999999    0.4910800000000000    0.4019750000000000 C
   0.6251000000000000    0.3957300000000000    0.3636000000000000 C
   0.3373166666666667    0.4911200000000000    0.4337000000000000 C
   0.4034333333333333    0.2351800000000000    0.2063750000000000 C
   0.4181433333333333    0.3123900000000000    0.2540950000000000 C
   0.4035933333333333    0.3315800000000000    0.3020050000000000 C
   0.4488466666666666    0.3749100000000000    0.2535150000000000 C
   0.5146400000000000    0.1752700000000000    0.3839300000000000 C
   0.5292866666666667    0.1937400000000000    0.3454050000000000 C
   0.5144533333333333    0.2699100000000000    0.3357000000000000 C
   0.5602533333333333    0.1307600000000000    0.3145200000000000 C
   0.6256266666666666    0.4129900000000000    0.0887000000000000 C
   0.6400366666666666    0.5085600000000000    0.0977650000000000 C
   0.6252166666666666    0.6040900000000000    0.1359150000000000 C
   0.3373266666666667    0.5082600000000000    0.0659900000000000 C
   0.4032733333333333    0.7647699999999999    0.2936800000000000 C
   0.4178233333333333    0.6876500000000000    0.2458850000000000 C
   0.4032333333333333    0.6688900000000000    0.1980300000000000 C
   0.4484166666666666    0.6247100000000000    0.2462600000000000 C
   0.5146466666666667    0.8243600000000000    0.1162500000000000 C
   0.5292866666666667    0.8060500000000000    0.1548450000000000 C
   0.5144599999999999    0.7297600000000000    0.1645050000000000 C
   0.5602433333333333    0.8693200000000000    0.1858300000000000 C
   0.4853266666666666    0.7670000000000000    0.0876000000000000 C
   0.4706833333333333    0.6900700000000000    0.0969000000000000 C
   0.4855200000000000    0.6710300000000000    0.1351650000000000 C
   0.4397233333333333    0.6280400000000000    0.0653300000000000 C
   0.3742033333333333    0.8227800000000000    0.2936250000000000 C
   0.3598300000000000    0.8047200000000000    0.2457850000000000 C
   0.3745900000000000    0.7282400000000000    0.1979850000000000 C
   0.6625933333333334    0.8683200000000000    0.2458950000000000 C
   0.5964400000000000    0.4129400000000000    0.1175800000000000 C
   0.5817800000000000    0.5084500000000000    0.1560000000000000 C
   0.5964400000000000    0.6040400000000000    0.1654350000000000 C
   0.5510166666666667    0.5076400000000000    0.1872000000000000 C
   0.4852966666666667    0.2323400000000000    0.4124500000000000 C
   0.4706500000000000    0.3091600000000000    0.4030900000000000 C
   0.4855000000000000    0.3283700000000000    0.3649000000000000 C
   0.4396866666666667    0.3709800000000000    0.4345700000000000 C
   0.3742600000000000    0.1775000000000000    0.2065500000000000 C
   0.3599300000000000    0.1959800000000000    0.2544450000000000 C
   0.3748200000000000    0.2726000000000000    0.3021800000000000 C
   0.6626133333333333    0.1325500000000000    0.2544100000000000 C
   0.5965466666666666    0.5872900000000000    0.3823700000000000 C
   0.5818233333333334    0.4919800000000000    0.3437100000000000 C
   0.5963466666666666    0.3961800000000000    0.3341050000000000 C
   0.5511433333333333    0.4931800000000000    0.3123850000000000 C
   0.6706500000000000    0.4911200000000000    0.4337000000000000 C
   0.7367666666666666    0.2351800000000000    0.2063750000000000 C
   0.7514766666666666    0.3123900000000000    0.2540950000000000 C
   0.7369266666666666    0.3315800000000000    0.3020050000000000 C
   0.7821800000000000    0.3749100000000000    0.2535150000000000 C
   0.8479733333333332    0.1752700000000000    0.3839300000000000 C
   0.8626199999999999    0.1937400000000000    0.3454050000000000 C
   0.8477866666666666    0.2699100000000000    0.3357000000000000 C
   0.8935866666666666    0.1307600000000000    0.3145200000000000 C
   0.9589599999999999    0.4129900000000000    0.0887000000000000 C
   0.9733700000000000    0.5085600000000000    0.0977650000000000 C
   0.9585500000000000    0.6040900000000000    0.1359150000000000 C
   0.6706599999999999    0.5082600000000000    0.0659900000000000 C
   0.7366066666666666    0.7647699999999999    0.2936800000000000 C
   0.7511566666666666    0.6876500000000000    0.2458850000000000 C
   0.7365666666666666    0.6688900000000000    0.1980300000000000 C
   0.7817499999999999    0.6247100000000000    0.2462600000000000 C
   0.8479800000000000    0.8243600000000000    0.1162500000000000 C
   0.8626199999999999    0.8060500000000000    0.1548450000000000 C
   0.8477933333333333    0.7297600000000000    0.1645050000000000 C
   0.8935766666666666    0.8693200000000000    0.1858300000000000 C
   0.8186599999999999    0.7670000000000000    0.0876000000000000 C
   0.8040166666666666    0.6900700000000000    0.0969000000000000 C
   0.8188533333333333    0.6710300000000000    0.1351650000000000 C
   0.7730566666666666    0.6280400000000000    0.0653300000000000 C
   0.7075366666666666    0.8227800000000000    0.2936250000000000 C
   0.6931633333333334    0.8047200000000000    0.2457850000000000 C
   0.7079233333333332    0.7282400000000000    0.1979850000000000 C
   0.9959266666666666    0.8683200000000000    0.2458950000000000 C
   0.9297733333333333    0.4129400000000000    0.1175800000000000 C
   0.9151133333333332    0.5084500000000000    0.1560000000000000 C
   0.9297733333333333    0.6040400000000000    0.1654350000000000 C
   0.8843500000000000    0.5076400000000000    0.1872000000000000 C
   0.8186300000000000    0.2323400000000000    0.4124500000000000 C
   0.8039833333333333    0.3091600000000000    0.4030900000000000 C
   0.8188333333333333    0.3283700000000000    0.3649000000000000 C
   0.7730199999999999    0.3709800000000000    0.4345700000000000 C
   0.7075933333333333    0.1775000000000000    0.2065500000000000 C
   0.6932633333333333    0.1959800000000000    0.2544450000000000 C
   0.7081533333333333    0.2726000000000000    0.3021800000000000 C
   0.9959466666666666    0.1325500000000000    0.2544100000000000 C
   0.2923566666666667    0.5868600000000000    0.9112500000000000 C
   0.3066666666666666    0.4910800000000000    0.9019750000000000 C
   0.2917666666666666    0.3957300000000000    0.8635999999999999 C
   0.0039833333333333    0.4911200000000000    0.9337000000000000 C
   0.0701000000000000    0.2351800000000000    0.7063750000000000 C
   0.0848100000000000    0.3123900000000000    0.7540950000000000 C
   0.0702600000000000    0.3315800000000000    0.8020050000000001 C
   0.1155133333333333    0.3749100000000000    0.7535149999999999 C
   0.1813066666666666    0.1752700000000000    0.8839300000000000 C
   0.1959533333333333    0.1937400000000000    0.8454050000000000 C
   0.1811200000000000    0.2699100000000000    0.8357000000000000 C
   0.2269200000000000    0.1307600000000000    0.8145200000000000 C
   0.2922933333333333    0.4129900000000000    0.5887000000000000 C
   0.3067033333333333    0.5085600000000000    0.5977650000000000 C
   0.2918833333333333    0.6040900000000000    0.6359150000000000 C
   0.0039933333333333    0.5082600000000000    0.5659900000000000 C
   0.0699400000000000    0.7647699999999999    0.7936799999999999 C
   0.0844900000000000    0.6876500000000000    0.7458850000000000 C
   0.0699000000000000    0.6688900000000000    0.6980300000000000 C
   0.1150833333333333    0.6247100000000000    0.7462600000000000 C
   0.1813133333333333    0.8243600000000000    0.6162500000000000 C
   0.1959533333333333    0.8060500000000000    0.6548450000000000 C
   0.1811266666666667    0.7297600000000000    0.6645050000000000 C
   0.2269100000000000    0.8693200000000000    0.6858299999999999 C
   0.1519933333333333    0.7670000000000000    0.5876000000000000 C
   0.1373500000000000    0.6900700000000000    0.5969000000000000 C
   0.1521866666666667    0.6710300000000000    0.6351650000000000 C
   0.1063900000000000    0.6280400000000000    0.5653300000000000 C
   0.0408700000000000    0.8227800000000000    0.7936250000000000 C
   0.0264966666666667    0.8047200000000000    0.7457850000000000 C
   0.0412566666666667    0.7282400000000000    0.6979850000000000 C
   0.3292600000000000    0.8683200000000000    0.7458950000000000 C
   0.2631066666666667    0.4129400000000000    0.6175800000000000 C
   0.2484466666666666    0.5084500000000000    0.6560000000000000 C
   0.2631066666666667    0.6040400000000000    0.6654350000000000 C
   0.2176833333333333    0.5076400000000000    0.6872000000000000 C
   0.1519633333333333    0.2323400000000000    0.9124500000000000 C
   0.1373166666666666    0.3091600000000000    0.9030899999999999 C
   0.1521666666666667    0.3283700000000000    0.8649000000000000 C
   0.1063533333333333    0.3709800000000000    0.9345700000000000 C
   0.0409266666666667    0.1775000000000000    0.7065500000000000 C
   0.0265966666666667    0.1959800000000000    0.7544450000000000 C
   0.0414866666666667    0.2726000000000000    0.8021800000000000 C
   0.3292800000000000    0.1325500000000000    0.7544100000000000 C
   0.2632133333333333    0.5872900000000000    0.8823700000000000 C
   0.2484900000000000    0.4919800000000000    0.8437100000000000 C
   0.2630133333333333    0.3961800000000000    0.8341050000000000 C
   0.2178100000000000    0.4931800000000000    0.8123850000000000 C
   0.6256900000000000    0.5868600000000000    0.9112500000000000 C
   0.6399999999999999    0.4910800000000000    0.9019750000000000 C
   0.6251000000000000    0.3957300000000000    0.8635999999999999 C
   0.3373166666666667    0.4911200000000000    0.9337000000000000 C
   0.4034333333333333    0.2351800000000000    0.7063750000000000 C
   0.4181433333333333    0.3123900000000000    0.7540950000000000 C
   0.4035933333333333    0.3315800000000000    0.8020050000000001 C
   0.4488466666666666    0.3749100000000000    0.7535149999999999 C
   0.5146400000000000    0.1752700000000000    0.8839300000000000 C
   0.5292866666666667    0.1937400000000000    0.8454050000000000 C
   0.5144533333333333    0.2699100000000000    0.8357000000000000 C
   0.5602533333333333    0.1307600000000000    0.8145200000000000 C
   0.6256266666666666    0.4129900000000000    0.5887000000000000 C
   0.6400366666666666    0.5085600000000000    0.5977650000000000 C
   0.6252166666666666    0.6040900000000000    0.6359150000000000 C
   0.3373266666666667    0.5082600000000000    0.5659900000000000 C
   0.4032733333333333    0.7647699999999999    0.7936799999999999 C
   0.4178233333333333    0.6876500000000000    0.7458850000000000 C
   0.4032333333333333    0.6688900000000000    0.6980300000000000 C
   0.4484166666666666    0.6247100000000000    0.7462600000000000 C
   0.5146466666666667    0.8243600000000000    0.6162500000000000 C
   0.5292866666666667    0.8060500000000000    0.6548450000000000 C
   0.5144599999999999    0.7297600000000000    0.6645050000000000 C
   0.5602433333333333    0.8693200000000000    0.6858299999999999 C
   0.4853266666666666    0.7670000000000000    0.5876000000000000 C
   0.4706833333333333    0.6900700000000000    0.5969000000000000 C
   0.4855200000000000    0.6710300000000000    0.6351650000000000 C
   0.4397233333333333    0.6280400000000000    0.5653300000000000 C
   0.3742033333333333    0.8227800000000000    0.7936250000000000 C
   0.3598300000000000    0.8047200000000000    0.7457850000000000 C
   0.3745900000000000    0.7282400000000000    0.6979850000000000 C
   0.6625933333333334    0.8683200000000000    0.7458950000000000 C
   0.5964400000000000    0.4129400000000000    0.6175800000000000 C
   0.5817800000000000    0.5084500000000000    0.6560000000000000 C
   0.5964400000000000    0.6040400000000000    0.6654350000000000 C
   0.5510166666666667    0.5076400000000000    0.6872000000000000 C
   0.4852966666666667    0.2323400000000000    0.9124500000000000 C
   0.4706500000000000    0.3091600000000000    0.9030899999999999 C
   0.4855000000000000    0.3283700000000000    0.8649000000000000 C
   0.4396866666666667    0.3709800000000000    0.9345700000000000 C
   0.3742600000000000    0.1775000000000000    0.7065500000000000 C
   0.3599300000000000    0.1959800000000000    0.7544450000000000 C
   0.3748200000000000    0.2726000000000000    0.8021800000000000 C
   0.6626133333333333    0.1325500000000000    0.7544100000000000 C
   0.5965466666666666    0.5872900000000000    0.8823700000000000 C
   0.5818233333333334    0.4919800000000000    0.8437100000000000 C
   0.5963466666666666    0.3961800000000000    0.8341050000000000 C
   0.5511433333333333    0.4931800000000000    0.8123850000000000 C
   0.9590233333333333    0.5868600000000000    0.9112500000000000 C
   0.9733333333333333    0.4910800000000000    0.9019750000000000 C
   0.9584333333333332    0.3957300000000000    0.8635999999999999 C
   0.6706500000000000    0.4911200000000000    0.9337000000000000 C
   0.7367666666666666    0.2351800000000000    0.7063750000000000 C
   0.7514766666666666    0.3123900000000000    0.7540950000000000 C
   0.7369266666666666    0.3315800000000000    0.8020050000000001 C
   0.7821800000000000    0.3749100000000000    0.7535149999999999 C
   0.8479733333333332    0.1752700000000000    0.8839300000000000 C
   0.8626199999999999    0.1937400000000000    0.8454050000000000 C
   0.8477866666666666    0.2699100000000000    0.8357000000000000 C
   0.8935866666666666    0.1307600000000000    0.8145200000000000 C
   0.9589599999999999    0.4129900000000000    0.5887000000000000 C
   0.9733700000000000    0.5085600000000000    0.5977650000000000 C
   0.9585500000000000    0.6040900000000000    0.6359150000000000 C
   0.6706599999999999    0.5082600000000000    0.5659900000000000 C
   0.7366066666666666    0.7647699999999999    0.7936799999999999 C
   0.7511566666666666    0.6876500000000000    0.7458850000000000 C
   0.7365666666666666    0.6688900000000000    0.6980300000000000 C
   0.7817499999999999    0.6247100000000000    0.7462600000000000 C
   0.8479800000000000    0.8243600000000000    0.6162500000000000 C
   0.8626199999999999    0.8060500000000000    0.6548450000000000 C
   0.8477933333333333    0.7297600000000000    0.6645050000000000 C
   0.8935766666666666    0.8693200000000000    0.6858299999999999 C
   0.8186599999999999    0.7670000000000000    0.5876000000000000 C
   0.8040166666666666    0.6900700000000000    0.5969000000000000 C
   0.8188533333333333    0.6710300000000000    0.6351650000000000 C
   0.7730566666666666    0.6280400000000000    0.5653300000000000 C
   0.7075366666666666    0.8227800000000000    0.7936250000000000 C
   0.6931633333333334    0.8047200000000000    0.7457850000000000 C
   0.7079233333333332    0.7282400000000000    0.6979850000000000 C
   0.9959266666666666    0.8683200000000000    0.7458950000000000 C
   0.9297733333333333    0.4129400000000000    0.6175800000000000 C
   0.9151133333333332    0.5084500000000000    0.6560000000000000 C
   0.9297733333333333    0.6040400000000000    0.6654350000000000 C
   0.8843500000000000    0.5076400000000000    0.6872000000000000 C
   0.8186300000000000    0.2323400000000000    0.9124500000000000 C
   0.8039833333333333    0.3091600000000000    0.9030899999999999 C
   0.8188333333333333    0.3283700000000000    0.8649000000000000 C
   0.7730199999999999    0.3709800000000000    0.9345700000000000 C
   0.7075933333333333    0.1775000000000000    0.7065500000000000 C
   0.6932633333333333    0.1959800000000000    0.7544450000000000 C
   0.7081533333333333    0.2726000000000000    0.8021800000000000 C
   0.9959466666666666    0.1325500000000000    0.7544100000000000 C
   0.9298799999999999    0.5872900000000000    0.8823700000000000 C
   0.9151566666666666    0.4919800000000000    0.8437100000000000 C
   0.9296800000000000    0.3961800000000000    0.8341050000000000 C