H4 C8 N8
1.0
  19.5881695554543889    0.0000000000000000    0.3873983308814611
   1.5364824020495509   10.4803390005931583    4.7459630488277105
   0.0000000000000000    0.0000000000000000   27.5799999999999983
H C N
4 8 8
direct
   0.3858600000000000    0.6116300000000000    0.2054000000000000 H
   0.4343450000000000    0.4069600000000000    0.2018750000000000 H
   0.5656000000000000    0.5931000000000000    0.2980950000000000 H
   0.6140850000000000    0.3884300000000000    0.2945700000000000 H
   0.4418550000000000    0.7392100000000000    0.2513600000000000 C
   0.4728250000000000    0.6177800000000000    0.2506850000000000 C
   0.4356200000000000    0.5618300000000001    0.2251150000000000 C
   0.4625950000000000    0.4454100000000000    0.2241850000000000 C
   0.5373500000000000    0.5546500000000000    0.2757850000000000 C
   0.5580900000000000    0.2608400000000000    0.2486150000000000 C
   0.5271200000000000    0.3822700000000000    0.2492850000000000 C
   0.5643250000000000    0.4382300000000000    0.2748500000000000 C
   0.3732400000000000    0.7726499999999999    0.2513550000000000 N
   0.3650650000000000    0.8876200000000000    0.2521750000000000 N
   0.4255200000000000    0.9261100000000000    0.2524450000000000 N
   0.4754250000000000    0.8333600000000000    0.2518800000000000 N
   0.6267050000000001    0.2274000000000000    0.2486200000000000 N
   0.6348800000000000    0.1124200000000000    0.2478100000000000 N
   0.5744250000000000    0.0739200000000000    0.2475400000000000 N
   0.5245200000000000    0.1666800000000000    0.2481000000000000 N
