H12 O6
1.0
  19.5881695554543889    0.0000000000000000    0.3873983308814611
   1.5364824020495509   10.4803390005931583    4.7459630488277105
   0.0000000000000000    0.0000000000000000   27.5799999999999983
H O
12 6
direct
   0.5902157631378809    0.0839761472303104    0.2476105236299269 H
   0.5383522045646212    0.1409696444161053    0.2479447843992348 H
   0.5361799316007186    0.0955565561928225    0.2483467337682860 H
   0.6122050876233475    0.1400190407437355    0.2467356187540228 H
   0.6288694807426911    0.1969569424104439    0.2484055376878802 H
   0.5487230938353486    0.2345669024586364    0.2484713015586894 H
   0.4097310578327737    0.9160576241168383    0.2523744845027681 H
   0.4615937713674288    0.8590657700765650    0.2520365904053182 H
   0.4637597350440422    0.9044786103357274    0.2516376874328247 H
   0.3877399075738061    0.8600159534972546    0.2532538128671853 H
   0.3710755108844312    0.8030905276595652    0.2515721108348338 H
   0.4512209488212066    0.7654776223269766    0.2515050787425388 H
   0.5744250000000000    0.0739200000000000    0.2475400000000000 O
   0.5245200000000000    0.1666800000000000    0.2481000000000000 O
   0.6348800000000000    0.1124200000000000    0.2478100000000000 O
   0.4255200000000000    0.9261100000000000    0.2524450000000000 O
   0.4754250000000000    0.8333600000000000    0.2518800000000000 O
   0.3650650000000000    0.8876200000000000    0.2521750000000000 O
