H8 O4
1.0
  21.8359980843317452    0.0000000000000000   -0.0091466420236929
  -0.0498331068081308   23.0626507472004114  -13.0238186863193928
   0.0000000000000000    0.0000000000000000   26.4800000000000004
H O
8 4
direct
   0.1654754834846832    0.7518736265969557    0.4410542304170240 H
   0.1663376543022083    0.7757571852889993    0.4174359006937192 H
   0.1652297612327240    0.8117250587499381    0.5586388715838201 H
   0.1544207551143061    0.8607233347153002    0.5691705235000249 H
   0.8345465398692463    0.7481701652433632    0.5589566005119826 H
   0.8336760333429006    0.7242859193204911    0.5825667439859492 H
   0.8347978105550168    0.6883232894789370    0.4413657304822017 H
   0.8455887057241219    0.6393181827129591    0.4308514109250755 H
   0.1876300000000000    0.7386450000000000    0.4045850000000000 O
   0.1872300000000000    0.8355850000000000    0.5950050000000000 O
   0.8123899999999999    0.7614000000000001    0.5954250000000000 O
   0.8127900000000000    0.6644600000000001    0.4050050000000000 O
