H4 C12 N4
1.0
  21.8359980843317452    0.0000000000000000   -0.0091466420236929
  -0.0498331068081308   23.0626507472004114  -13.0238186863193928
   0.0000000000000000    0.0000000000000000   26.4800000000000004
H C N
4 12 4
direct
   0.0549900000000000    0.7131050000000000    0.4062500000000000 H
   0.9452800000000000    0.6921400000000000    0.4063850000000000 H
   0.9450300000000000    0.7869400000000000    0.5937400000000000 H
   0.0547400000000000    0.8079050000000000    0.5936300000000000 H
   0.0308800000000000    0.7292400000000000    0.4473800000000000 C
   0.1610100000000000    0.7545400000000000    0.4484050000000000 C
   0.9692800000000000    0.7175650000000000    0.4474450000000000 C
   0.8392400000000000    0.6931400000000000    0.4487050000000000 C
   0.1281200000000000    0.7743550000000000    0.4999000000000000 C
   0.0635000000000000    0.7620199999999999    0.4999000000000000 C
   0.9691500000000000    0.7708050000000000    0.5526350000000000 C
   0.8390100000000000    0.7455050000000000    0.5516100000000000 C
   0.0307400000000000    0.7824850000000000    0.5525650000000000 C
   0.1607900000000000    0.8069100000000000    0.5513000000000000 C
   0.8719000000000000    0.7256899999999999    0.5001100000000001 C
   0.9365300000000000    0.7380200000000000    0.5000500000000000 C
   0.1876300000000000    0.7386450000000000    0.4045850000000000 N
   0.8127900000000000    0.6644600000000001    0.4050050000000000 N
   0.8123899999999999    0.7614000000000001    0.5954250000000000 N
   0.1872300000000000    0.8355850000000000    0.5950050000000000 N
