Cd16 H92 C276 N92
1.0
  21.8359980843317452    0.0000000000000000   -0.0091466420236929
  -0.0498331068081308   23.0626507472004114  -13.0238186863193928
   0.0000000000000000    0.0000000000000000   26.4800000000000004
Cd H C N
16 92 276 92
direct
   0.7500400000000000    0.3336550000000000    0.1662200000000000 Cd
   0.2499900000000000    0.1663900000000000    0.3337950000000000 Cd
   0.7499900000000000    0.1659250000000000    0.3337250000000000 Cd
   0.2500400000000000    0.3341200000000000    0.1662850000000000 Cd
   0.7500400000000000    0.8336550000000000    0.1662200000000000 Cd
   0.2499900000000000    0.6663900000000000    0.3337950000000000 Cd
   0.7499900000000000    0.6659250000000000    0.3337250000000000 Cd
   0.2500400000000000    0.8341200000000000    0.1662850000000000 Cd
   0.7500400000000000    0.3336550000000000    0.6662200000000000 Cd
   0.2499900000000000    0.1663900000000000    0.8337950000000001 Cd
   0.7499900000000000    0.1659250000000000    0.8337250000000000 Cd
   0.2500400000000000    0.3341200000000000    0.6662850000000000 Cd
   0.7500400000000000    0.8336550000000000    0.6662200000000000 Cd
   0.2499900000000000    0.6663900000000000    0.8337950000000001 Cd
   0.7499900000000000    0.6659250000000000    0.8337250000000000 Cd
   0.2500400000000000    0.8341200000000000    0.6662850000000000 Cd
   0.4449000000000000    0.2873450000000000    0.0937200000000000 H
   0.9450300000000000    0.2869400000000000    0.0937400000000000 H
   0.4453800000000000    0.3076250000000000    0.2130850000000000 H
   0.9453000000000000    0.3080000000000000    0.2135650000000000 H
   0.4450400000000000    0.4065000000000000    0.1922950000000000 H
   0.9453700000000000    0.4063400000000000    0.1921500000000000 H
   0.0547400000000000    0.3079050000000000    0.0936300000000000 H
   0.5547200000000000    0.3080000000000000    0.0936200000000000 H
   0.0551000000000000    0.4064050000000000    0.2130500000000000 H
   0.5547500000000000    0.4062350000000000    0.2131500000000000 H
   0.0549700000000000    0.2873700000000000    0.1928600000000000 H
   0.5550200000000000    0.2867150000000000    0.1923150000000000 H
   0.0549900000000000    0.2131050000000000    0.4062500000000000 H
   0.5551199999999999    0.2127050000000000    0.4062900000000000 H
   0.0547200000000000    0.1920500000000000    0.2864450000000000 H
   0.5546400000000000    0.1924150000000000    0.2869300000000000 H
   0.0546500000000000    0.0937050000000000    0.3078550000000000 H
   0.5549800000000000    0.0935500000000000    0.3077200000000000 H
   0.4453000000000000    0.1920500000000000    0.4063900000000000 H
   0.9452800000000000    0.1921400000000000    0.4063850000000000 H
   0.4452700000000000    0.0938150000000000    0.2868600000000000 H
   0.9449200000000000    0.0936400000000000    0.2869600000000000 H
   0.4450000000000000    0.2133300000000000    0.3077000000000000 H
   0.9450499999999999    0.2126750000000000    0.3071500000000000 H
   0.4449000000000000    0.7873450000000000    0.0937200000000000 H
   0.9450300000000000    0.7869400000000000    0.0937400000000000 H
   0.4453800000000000    0.8076250000000000    0.2130850000000000 H
   0.9453000000000000    0.8080000000000001    0.2135650000000000 H
   0.4450400000000000    0.9065000000000000    0.1922950000000000 H
   0.9453700000000000    0.9063399999999999    0.1921500000000000 H
   0.0547400000000000    0.8079050000000000    0.0936300000000000 H
   0.5547200000000000    0.8080000000000001    0.0936200000000000 H
   0.0551000000000000    0.9064050000000000    0.2130500000000000 H
   0.5547500000000000    0.9062350000000000    0.2131500000000000 H
   0.0549700000000000    0.7873700000000000    0.1928600000000000 H
   0.5550200000000000    0.7867150000000001    0.1923150000000000 H
   0.5551199999999999    0.7127050000000000    0.4062900000000000 H
   0.0547200000000000    0.6920500000000001    0.2864450000000000 H
   0.5546400000000000    0.6924150000000000    0.2869300000000000 H
   0.0546500000000000    0.5937050000000000    0.3078550000000000 H
   0.5549800000000000    0.5935500000000000    0.3077200000000000 H
   0.4453000000000000    0.6920500000000001    0.4063900000000000 H
   0.4452700000000000    0.5938150000000000    0.2868600000000000 H
   0.9449200000000000    0.5936399999999999    0.2869600000000000 H
   0.4450000000000000    0.7133300000000000    0.3077000000000000 H
   0.9450499999999999    0.7126749999999999    0.3071500000000000 H
   0.4449000000000000    0.2873450000000000    0.5937200000000000 H
   0.9450300000000000    0.2869400000000000    0.5937400000000000 H
   0.4453800000000000    0.3076250000000000    0.7130850000000000 H
   0.9453000000000000    0.3080000000000000    0.7135650000000000 H
   0.4450400000000000    0.4065000000000000    0.6922950000000000 H
   0.9453700000000000    0.4063400000000000    0.6921500000000000 H
   0.0547400000000000    0.3079050000000000    0.5936300000000000 H
   0.5547200000000000    0.3080000000000000    0.5936200000000000 H
   0.0551000000000000    0.4064050000000000    0.7130500000000000 H
   0.5547500000000000    0.4062350000000000    0.7131500000000000 H
   0.0549700000000000    0.2873700000000000    0.6928600000000000 H
   0.5550200000000000    0.2867150000000000    0.6923150000000000 H
   0.0549900000000000    0.2131050000000000    0.9062500000000000 H
   0.5551199999999999    0.2127050000000000    0.9062900000000000 H
   0.0547200000000000    0.1920500000000000    0.7864450000000001 H
   0.5546400000000000    0.1924150000000000    0.7869300000000000 H
   0.0546500000000000    0.0937050000000000    0.8078550000000000 H
   0.5549800000000000    0.0935500000000000    0.8077200000000000 H
   0.4453000000000000    0.1920500000000000    0.9063900000000000 H
   0.9452800000000000    0.1921400000000000    0.9063850000000000 H
   0.4452700000000000    0.0938150000000000    0.7868600000000000 H
   0.9449200000000000    0.0936400000000000    0.7869600000000000 H
   0.4450000000000000    0.2133300000000000    0.8077000000000000 H
   0.9450499999999999    0.2126750000000000    0.8071500000000000 H
   0.4449000000000000    0.7873450000000000    0.5937200000000000 H
   0.4453800000000000    0.8076250000000000    0.7130850000000000 H
   0.9453000000000000    0.8080000000000001    0.7135650000000000 H
   0.4450400000000000    0.9065000000000000    0.6922950000000000 H
   0.9453700000000000    0.9063399999999999    0.6921500000000000 H
   0.5547200000000000    0.8080000000000001    0.5936200000000000 H
   0.0551000000000000    0.9064050000000000    0.7130500000000000 H
   0.5547500000000000    0.9062350000000000    0.7131500000000000 H
   0.0549700000000000    0.7873700000000000    0.6928600000000000 H
   0.5550200000000000    0.7867150000000001    0.6923150000000000 H
   0.0549900000000000    0.7131050000000000    0.9062500000000000 H
   0.5551199999999999    0.7127050000000000    0.9062900000000000 H
   0.0547200000000000    0.6920500000000001    0.7864450000000001 H
   0.5546400000000000    0.6924150000000000    0.7869300000000000 H
   0.0546500000000000    0.5937050000000000    0.8078550000000000 H
   0.5549800000000000    0.5935500000000000    0.8077200000000000 H
   0.4453000000000000    0.6920500000000001    0.9063900000000000 H
   0.9452800000000000    0.6921400000000000    0.9063850000000000 H
   0.4452700000000000    0.5938150000000000    0.7868600000000000 H
   0.9449200000000000    0.5936399999999999    0.7869600000000000 H
   0.4450000000000000    0.7133300000000000    0.8077000000000000 H
   0.9450499999999999    0.7126749999999999    0.8071500000000000 H
   0.4690700000000000    0.2710200000000000    0.0526150000000000 C
   0.9691500000000000    0.2708050000000000    0.0526350000000000 C
   0.3388600000000000    0.2459650000000000    0.0516000000000000 C
   0.8390100000000000    0.2455050000000000    0.0516100000000000 C
   0.4693300000000000    0.2823150000000000    0.2292300000000000 C
   0.9692900000000000    0.2825100000000000    0.2294900000000000 C
   0.3392900000000000    0.3065250000000000    0.2544500000000000 C
   0.8391500000000000    0.3062400000000000    0.2545000000000000 C
   0.4691500000000000    0.4475200000000000    0.2176350000000000 C
   0.9693300000000000    0.4474350000000000    0.2175600000000000 C
   0.3391800000000000    0.4489300000000000    0.1932050000000000 C
   0.8392700000000000    0.4484750000000000    0.1931900000000000 C
   0.0307400000000000    0.2824850000000000    0.0525650000000000 C
   0.5307400000000000    0.2825250000000000    0.0525550000000000 C
   0.1607900000000000    0.3069100000000000    0.0513000000000000 C
   0.6609500000000000    0.3065400000000000    0.0512850000000000 C
   0.0309400000000000    0.4474650000000000    0.2292000000000000 C
   0.5307500000000001    0.4473650000000000    0.2292550000000000 C
   0.1611300000000000    0.4487100000000000    0.2544200000000000 C
   0.6609699999999999    0.4482600000000000    0.2542800000000000 C
   0.0308600000000000    0.2710200000000000    0.2179550000000000 C
   0.5309000000000000    0.2706750000000000    0.2176700000000000 C
   0.1608500000000000    0.2458400000000000    0.1937950000000000 C
   0.6608600000000000    0.2453150000000000    0.1936000000000000 C
   0.0308800000000000    0.2292400000000000    0.4473800000000000 C
   0.5309500000000000    0.2290300000000000    0.4473950000000000 C
   0.1610100000000000    0.2545400000000000    0.4484050000000000 C
   0.6611700000000000    0.2540800000000000    0.4484000000000000 C
   0.0307400000000000    0.2175350000000000    0.2705250000000000 C
   0.5306900000000000    0.2177250000000000    0.2707500000000000 C
   0.1608800000000000    0.1938100000000000    0.2455150000000000 C
   0.6607300000000000    0.1935200000000000    0.2455650000000000 C
   0.0306900000000000    0.0526100000000000    0.2824450000000000 C
   0.5308800000000000    0.0525300000000000    0.2823800000000000 C
   0.1607500000000000    0.0515700000000000    0.3068000000000000 C
   0.6608400000000000    0.0511150000000000    0.3068000000000000 C
   0.4692800000000000    0.2175200000000000    0.4474550000000000 C
   0.9692800000000000    0.2175650000000000    0.4474450000000000 C
   0.3390800000000000    0.1935050000000000    0.4487250000000000 C
   0.8392400000000000    0.1931400000000000    0.4487050000000000 C
   0.4692700000000000    0.0526800000000000    0.2707600000000000 C
   0.9690800000000001    0.0525800000000000    0.2708050000000000 C
   0.3390500000000000    0.0517900000000000    0.2457350000000000 C
   0.8389000000000000    0.0513300000000000    0.2455900000000000 C
   0.4691200000000000    0.2293700000000000    0.2823450000000000 C
   0.9691600000000000    0.2290250000000000    0.2820550000000000 C
   0.3391600000000000    0.2547350000000000    0.3064200000000000 C
   0.8391700000000000    0.2542050000000000    0.3062150000000000 C
   0.3717700000000000    0.2260400000000000    0.0001050000000000 C
   0.8719000000000000    0.2256900000000000    0.0001100000000000 C
   0.4364600000000000    0.2382000000000000    0.0000000000000000 C
   0.9365300000000000    0.2380200000000000    0.0000500000000000 C
   0.3719700000000000    0.2742750000000000    0.2741050000000000 C
   0.8719200000000000    0.2739450000000000    0.2740350000000000 C
   0.4365700000000000    0.2619950000000000    0.2619000000000000 C
   0.9365500000000000    0.2618350000000000    0.2618650000000000 C
   0.3718900000000000    0.0002900000000000    0.2258100000000000 C
   0.8718500000000000    0.4999150000000000    0.2257600000000000 C
   0.4365300000000000    0.0001700000000000    0.2380700000000000 C
   0.9365200000000000    0.4999800000000000    0.2380450000000000 C
   0.1281200000000000    0.2743550000000000    0.4999000000000000 C
   0.6282600000000000    0.2740000000000000    0.4998900000000000 C
   0.0635000000000000    0.2620200000000000    0.4999000000000000 C
   0.5635599999999999    0.2618450000000000    0.4999350000000000 C
   0.1281700000000000    0.0001150000000000    0.2742500000000000 C
   0.6281300000000000    0.4997450000000000    0.2742000000000000 C
   0.0635000000000000    0.0000500000000000    0.2619650000000000 C
   0.5634900000000000    0.4998650000000000    0.2619450000000000 C
   0.1281000000000000    0.2261000000000000    0.2259800000000000 C
   0.6280500000000000    0.2257700000000000    0.2259100000000000 C
   0.0634800000000000    0.2382100000000000    0.2381450000000000 C
   0.5634500000000000    0.2380500000000000    0.2381150000000000 C
   0.4690700000000000    0.7710200000000000    0.0526150000000000 C
   0.9691500000000000    0.7708050000000000    0.0526350000000000 C
   0.3388600000000000    0.7459650000000000    0.0516000000000000 C
   0.8390100000000000    0.7455050000000000    0.0516100000000000 C
   0.4693300000000000    0.7823150000000000    0.2292300000000000 C
   0.9692900000000000    0.7825100000000000    0.2294900000000000 C
   0.3392900000000000    0.8065249999999999    0.2544500000000000 C
   0.8391500000000000    0.8062400000000001    0.2545000000000000 C
   0.4691500000000000    0.9475199999999999    0.2176350000000000 C
   0.9693300000000000    0.9474350000000000    0.2175600000000000 C
   0.3391800000000000    0.9489300000000001    0.1932050000000000 C
   0.8392700000000000    0.9484750000000000    0.1931900000000000 C
   0.0307400000000000    0.7824850000000000    0.0525650000000000 C
   0.5307400000000000    0.7825250000000000    0.0525550000000000 C
   0.1607900000000000    0.8069100000000000    0.0513000000000000 C
   0.6609500000000000    0.8065400000000000    0.0512850000000000 C
   0.0309400000000000    0.9474650000000000    0.2292000000000000 C
   0.5307500000000001    0.9473650000000000    0.2292550000000000 C
   0.1611300000000000    0.9487099999999999    0.2544200000000000 C
   0.6609699999999999    0.9482600000000000    0.2542800000000000 C
   0.0308600000000000    0.7710200000000000    0.2179550000000000 C
   0.5309000000000000    0.7706750000000000    0.2176700000000000 C
   0.1608500000000000    0.7458400000000001    0.1937950000000000 C
   0.6608600000000000    0.7453149999999999    0.1936000000000000 C
   0.5309500000000000    0.7290300000000001    0.4473950000000000 C
   0.6611700000000000    0.7540800000000000    0.4484000000000000 C
   0.0307400000000000    0.7175350000000000    0.2705250000000000 C
   0.5306900000000000    0.7177249999999999    0.2707500000000000 C
   0.1608800000000000    0.6938100000000000    0.2455150000000000 C
   0.6607300000000000    0.6935200000000000    0.2455650000000000 C
   0.0306900000000000    0.5526100000000000    0.2824450000000000 C
   0.5308800000000000    0.5525300000000000    0.2823800000000000 C
   0.1607500000000000    0.5515700000000000    0.3068000000000000 C
   0.6608400000000000    0.5511150000000000    0.3068000000000000 C
   0.4692800000000000    0.7175199999999999    0.4474550000000000 C
   0.3390800000000000    0.6935050000000000    0.4487250000000000 C
   0.4692700000000000    0.5526799999999999    0.2707600000000000 C
   0.9690800000000001    0.5525800000000000    0.2708050000000000 C
   0.3390500000000000    0.5517900000000000    0.2457350000000000 C
   0.8389000000000000    0.5513300000000000    0.2455900000000000 C
   0.4691200000000000    0.7293700000000000    0.2823450000000000 C
   0.9691600000000000    0.7290250000000000    0.2820550000000000 C
   0.3391600000000000    0.7547349999999999    0.3064200000000000 C
   0.8391700000000000    0.7542050000000000    0.3062150000000000 C
   0.3717700000000000    0.7260400000000000    0.0001050000000000 C
   0.8719000000000000    0.7256899999999999    0.0001100000000000 C
   0.4364600000000000    0.7382000000000000    0.0000000000000000 C
   0.9365300000000000    0.7380200000000000    0.0000500000000000 C
   0.3719700000000000    0.7742750000000000    0.2741050000000000 C
   0.8719200000000000    0.7739450000000000    0.2740350000000000 C
   0.4365700000000000    0.7619950000000000    0.2619000000000000 C
   0.9365500000000000    0.7618350000000000    0.2618650000000000 C
   0.3718900000000000    0.5002900000000000    0.2258100000000000 C
   0.8718500000000000    0.9999150000000000    0.2257600000000000 C
   0.4365300000000000    0.5001700000000000    0.2380700000000000 C
   0.9365200000000000    0.9999800000000000    0.2380450000000000 C
   0.6282600000000000    0.7740000000000000    0.4998900000000000 C
   0.5635599999999999    0.7618450000000000    0.4999350000000000 C
   0.1281700000000000    0.5001150000000000    0.2742500000000000 C
   0.6281300000000000    0.9997450000000000    0.2742000000000000 C
   0.0635000000000000    0.5000500000000000    0.2619650000000000 C
   0.5634900000000000    0.9998650000000000    0.2619450000000000 C
   0.1281000000000000    0.7261000000000000    0.2259800000000000 C
   0.6280500000000000    0.7257700000000000    0.2259100000000000 C
   0.0634800000000000    0.7382100000000000    0.2381450000000000 C
   0.5634500000000000    0.7380500000000000    0.2381150000000000 C
   0.4690700000000000    0.2710200000000000    0.5526150000000000 C
   0.9691500000000000    0.2708050000000000    0.5526350000000000 C
   0.3388600000000000    0.2459650000000000    0.5516000000000000 C
   0.8390100000000000    0.2455050000000000    0.5516100000000000 C
   0.4693300000000000    0.2823150000000000    0.7292300000000000 C
   0.9692900000000000    0.2825100000000000    0.7294900000000000 C
   0.3392900000000000    0.3065250000000000    0.7544500000000001 C
   0.8391500000000000    0.3062400000000000    0.7544999999999999 C
   0.4691500000000000    0.4475200000000000    0.7176350000000000 C
   0.9693300000000000    0.4474350000000000    0.7175600000000000 C
   0.3391800000000000    0.4489300000000000    0.6932050000000000 C
   0.8392700000000000    0.4484750000000000    0.6931900000000000 C
   0.0307400000000000    0.2824850000000000    0.5525650000000000 C
   0.5307400000000000    0.2825250000000000    0.5525550000000000 C
   0.1607900000000000    0.3069100000000000    0.5513000000000000 C
   0.6609500000000000    0.3065400000000000    0.5512850000000000 C
   0.0309400000000000    0.4474650000000000    0.7292000000000000 C
   0.5307500000000001    0.4473650000000000    0.7292550000000000 C
   0.1611300000000000    0.4487100000000000    0.7544200000000000 C
   0.6609699999999999    0.4482600000000000    0.7542800000000001 C
   0.0308600000000000    0.2710200000000000    0.7179550000000000 C
   0.5309000000000000    0.2706750000000000    0.7176700000000000 C
   0.1608500000000000    0.2458400000000000    0.6937949999999999 C
   0.6608600000000000    0.2453150000000000    0.6936000000000000 C
   0.0308800000000000    0.2292400000000000    0.9473800000000000 C
   0.5309500000000000    0.2290300000000000    0.9473950000000000 C
   0.1610100000000000    0.2545400000000000    0.9484049999999999 C
   0.6611700000000000    0.2540800000000000    0.9484000000000000 C
   0.0307400000000000    0.2175350000000000    0.7705250000000000 C
   0.5306900000000000    0.2177250000000000    0.7707500000000000 C
   0.1608800000000000    0.1938100000000000    0.7455150000000000 C
   0.6607300000000000    0.1935200000000000    0.7455650000000000 C
   0.0306900000000000    0.0526100000000000    0.7824450000000001 C
   0.5308800000000000    0.0525300000000000    0.7823800000000001 C
   0.1607500000000000    0.0515700000000000    0.8068000000000000 C
   0.6608400000000000    0.0511150000000000    0.8068000000000000 C
   0.4692800000000000    0.2175200000000000    0.9474549999999999 C
   0.9692800000000000    0.2175650000000000    0.9474450000000000 C
   0.3390800000000000    0.1935050000000000    0.9487250000000000 C
   0.8392400000000000    0.1931400000000000    0.9487050000000000 C
   0.4692700000000000    0.0526800000000000    0.7707600000000000 C
   0.9690800000000001    0.0525800000000000    0.7708050000000000 C
   0.3390500000000000    0.0517900000000000    0.7457350000000000 C
   0.8389000000000000    0.0513300000000000    0.7455900000000000 C
   0.4691200000000000    0.2293700000000000    0.7823450000000001 C
   0.9691600000000000    0.2290250000000000    0.7820549999999999 C
   0.3391600000000000    0.2547350000000000    0.8064200000000000 C
   0.8391700000000000    0.2542050000000000    0.8062150000000000 C
   0.3717700000000000    0.2260400000000000    0.5001050000000000 C
   0.8719000000000000    0.2256900000000000    0.5001100000000001 C
   0.4364600000000000    0.2382000000000000    0.5000000000000000 C
   0.9365300000000000    0.2380200000000000    0.5000500000000000 C
   0.3719700000000000    0.2742750000000000    0.7741050000000000 C
   0.8719200000000000    0.2739450000000000    0.7740350000000000 C
   0.4365700000000000    0.2619950000000000    0.7619000000000000 C
   0.9365500000000000    0.2618350000000000    0.7618650000000000 C
   0.3718900000000000    0.0002900000000000    0.7258100000000001 C
   0.8718500000000000    0.4999150000000000    0.7257600000000000 C
   0.4365300000000000    0.0001700000000000    0.7380700000000000 C
   0.9365200000000000    0.4999800000000000    0.7380450000000001 C
   0.1281200000000000    0.2743550000000000    0.9999000000000000 C
   0.6282600000000000    0.2740000000000000    0.9998899999999999 C
   0.0635000000000000    0.2620200000000000    0.9999000000000000 C
   0.5635599999999999    0.2618450000000000    0.9999350000000000 C
   0.1281700000000000    0.0001150000000000    0.7742500000000000 C
   0.6281300000000000    0.4997450000000000    0.7742000000000000 C
   0.0635000000000000    0.0000500000000000    0.7619650000000000 C
   0.5634900000000000    0.4998650000000000    0.7619450000000000 C
   0.1281000000000000    0.2261000000000000    0.7259800000000000 C
   0.6280500000000000    0.2257700000000000    0.7259100000000001 C
   0.0634800000000000    0.2382100000000000    0.7381450000000001 C
   0.5634500000000000    0.2380500000000000    0.7381150000000000 C
   0.4690700000000000    0.7710200000000000    0.5526150000000000 C
   0.3388600000000000    0.7459650000000000    0.5516000000000000 C
   0.4693300000000000    0.7823150000000000    0.7292300000000000 C
   0.9692900000000000    0.7825100000000000    0.7294900000000000 C
   0.3392900000000000    0.8065249999999999    0.7544500000000001 C
   0.8391500000000000    0.8062400000000001    0.7544999999999999 C
   0.4691500000000000    0.9475199999999999    0.7176350000000000 C
   0.9693300000000000    0.9474350000000000    0.7175600000000000 C
   0.3391800000000000    0.9489300000000001    0.6932050000000000 C
   0.8392700000000000    0.9484750000000000    0.6931900000000000 C
   0.5307400000000000    0.7825250000000000    0.5525550000000000 C
   0.6609500000000000    0.8065400000000000    0.5512850000000000 C
   0.0309400000000000    0.9474650000000000    0.7292000000000000 C
   0.5307500000000001    0.9473650000000000    0.7292550000000000 C
   0.1611300000000000    0.9487099999999999    0.7544200000000000 C
   0.6609699999999999    0.9482600000000000    0.7542800000000001 C
   0.0308600000000000    0.7710200000000000    0.7179550000000000 C
   0.5309000000000000    0.7706750000000000    0.7176700000000000 C
   0.1608500000000000    0.7458400000000001    0.6937949999999999 C
   0.6608600000000000    0.7453149999999999    0.6936000000000000 C
   0.0308800000000000    0.7292400000000000    0.9473800000000000 C
   0.5309500000000000    0.7290300000000001    0.9473950000000000 C
   0.1610100000000000    0.7545400000000000    0.9484049999999999 C
   0.6611700000000000    0.7540800000000000    0.9484000000000000 C
   0.0307400000000000    0.7175350000000000    0.7705250000000000 C
   0.5306900000000000    0.7177249999999999    0.7707500000000000 C
   0.1608800000000000    0.6938100000000000    0.7455150000000000 C
   0.6607300000000000    0.6935200000000000    0.7455650000000000 C
   0.0306900000000000    0.5526100000000000    0.7824450000000001 C
   0.5308800000000000    0.5525300000000000    0.7823800000000001 C
   0.1607500000000000    0.5515700000000000    0.8068000000000000 C
   0.6608400000000000    0.5511150000000000    0.8068000000000000 C
   0.4692800000000000    0.7175199999999999    0.9474549999999999 C
   0.9692800000000000    0.7175650000000000    0.9474450000000000 C
   0.3390800000000000    0.6935050000000000    0.9487250000000000 C
   0.8392400000000000    0.6931400000000000    0.9487050000000000 C
   0.4692700000000000    0.5526799999999999    0.7707600000000000 C
   0.9690800000000001    0.5525800000000000    0.7708050000000000 C
   0.3390500000000000    0.5517900000000000    0.7457350000000000 C
   0.8389000000000000    0.5513300000000000    0.7455900000000000 C
   0.4691200000000000    0.7293700000000000    0.7823450000000001 C
   0.9691600000000000    0.7290250000000000    0.7820549999999999 C
   0.3391600000000000    0.7547349999999999    0.8064200000000000 C
   0.8391700000000000    0.7542050000000000    0.8062150000000000 C
   0.3717700000000000    0.7260400000000000    0.5001050000000000 C
   0.4364600000000000    0.7382000000000000    0.5000000000000000 C
   0.3719700000000000    0.7742750000000000    0.7741050000000000 C
   0.8719200000000000    0.7739450000000000    0.7740350000000000 C
   0.4365700000000000    0.7619950000000000    0.7619000000000000 C
   0.9365500000000000    0.7618350000000000    0.7618650000000000 C
   0.3718900000000000    0.5002900000000000    0.7258100000000001 C
   0.8718500000000000    0.9999150000000000    0.7257600000000000 C
   0.4365300000000000    0.5001700000000000    0.7380700000000000 C
   0.9365200000000000    0.9999800000000000    0.7380450000000001 C
   0.1281200000000000    0.7743550000000000    0.9999000000000000 C
   0.6282600000000000    0.7740000000000000    0.9998899999999999 C
   0.0635000000000000    0.7620199999999999    0.9999000000000000 C
   0.5635599999999999    0.7618450000000000    0.9999350000000000 C
   0.1281700000000000    0.5001150000000000    0.7742500000000000 C
   0.6281300000000000    0.9997450000000000    0.7742000000000000 C
   0.0635000000000000    0.5000500000000000    0.7619650000000000 C
   0.5634900000000000    0.9998650000000000    0.7619450000000000 C
   0.1281000000000000    0.7261000000000000    0.7259800000000000 C
   0.6280500000000000    0.7257700000000000    0.7259100000000001 C
   0.0634800000000000    0.7382100000000000    0.7381450000000001 C
   0.5634500000000000    0.7380500000000000    0.7381150000000000 C
   0.3122200000000000    0.2619050000000000    0.0954200000000000 N
   0.8123899999999999    0.2614000000000000    0.0954250000000000 N
   0.3128100000000000    0.3349350000000000    0.2387400000000000 N
   0.8125599999999999    0.3347000000000000    0.2389100000000000 N
   0.3127000000000000    0.4052600000000000    0.1644500000000000 N
   0.8128800000000000    0.4047300000000000    0.1645000000000000 N
   0.1872300000000000    0.3355850000000000    0.0950050000000000 N
   0.6874300000000000    0.3352200000000000    0.0949650000000000 N
   0.1878200000000000    0.4049600000000000    0.2385000000000000 N
   0.6875900000000000    0.4044600000000000    0.2383100000000000 N
   0.1873800000000000    0.2616100000000000    0.1654150000000000 N
   0.6874300000000000    0.2609600000000000    0.1651400000000000 N
   0.1876300000000000    0.2386450000000000    0.4045850000000000 N
   0.6878000000000000    0.2381400000000000    0.4045900000000000 N
   0.1874700000000000    0.1653500000000000    0.2611050000000000 N
   0.6872100000000000    0.1651050000000000    0.2612700000000000 N
   0.1871400000000000    0.0953100000000000    0.3355000000000000 N
   0.6873300000000000    0.0947850000000000    0.3355450000000000 N
   0.3125900000000000    0.1648150000000000    0.4050450000000000 N
   0.8127900000000000    0.1644600000000000    0.4050050000000000 N
   0.3124300000000000    0.0955850000000000    0.2617050000000000 N
   0.8122000000000000    0.0950850000000000    0.2614700000000000 N
   0.3125900000000000    0.2390900000000000    0.3348800000000000 N
   0.8126500000000000    0.2384350000000000    0.3345950000000000 N
   0.3122200000000000    0.7619050000000001    0.0954200000000000 N
   0.8123899999999999    0.7614000000000001    0.0954250000000000 N
   0.3128100000000000    0.8349350000000000    0.2387400000000000 N
   0.8125599999999999    0.8347000000000000    0.2389100000000000 N
   0.3127000000000000    0.9052600000000000    0.1644500000000000 N
   0.8128800000000000    0.9047300000000000    0.1645000000000000 N
   0.1872300000000000    0.8355850000000000    0.0950050000000000 N
   0.6874300000000000    0.8352200000000001    0.0949650000000000 N
   0.1878200000000000    0.9049600000000000    0.2385000000000000 N
   0.6875900000000000    0.9044600000000000    0.2383100000000000 N
   0.1873800000000000    0.7616100000000000    0.1654150000000000 N
   0.6874300000000000    0.7609600000000001    0.1651400000000000 N
   0.6878000000000000    0.7381400000000000    0.4045900000000000 N
   0.1874700000000000    0.6653500000000000    0.2611050000000000 N
   0.6872100000000000    0.6651050000000001    0.2612700000000000 N
   0.1871400000000000    0.5953100000000000    0.3355000000000000 N
   0.6873300000000000    0.5947850000000000    0.3355450000000000 N
   0.3125900000000000    0.6648149999999999    0.4050450000000000 N
   0.3124300000000000    0.5955850000000000    0.2617050000000000 N
   0.8122000000000000    0.5950850000000000    0.2614700000000000 N
   0.3125900000000000    0.7390900000000000    0.3348800000000000 N
   0.8126500000000000    0.7384350000000000    0.3345950000000000 N
   0.3122200000000000    0.2619050000000000    0.5954200000000001 N
   0.8123899999999999    0.2614000000000000    0.5954250000000000 N
   0.3128100000000000    0.3349350000000000    0.7387400000000000 N
   0.8125599999999999    0.3347000000000000    0.7389100000000000 N
   0.3127000000000000    0.4052600000000000    0.6644500000000000 N
   0.8128800000000000    0.4047300000000000    0.6645000000000000 N
   0.1872300000000000    0.3355850000000000    0.5950050000000000 N