Zn72 H82 C350 O288
1.0
  35.5964714162508074    0.0000000000000000    2.2891314317966072
   0.1683586198423458   22.4212129770420106    0.0833547434032237
   0.0000000000000000    0.0000000000000000   15.5861000000000001
Zn H C O
72 82 350 288
direct
   0.0416683333333333    0.4662666666666666    0.7499200000000000 Zn
   0.1249966666666667    0.5389400000000000    0.2501100000000000 Zn
   0.2083350000000000    0.4662666666666666    0.7499200000000000 Zn
   0.2916633333333333    0.5389400000000000    0.2501100000000000 Zn
   0.3750016666666667    0.4662666666666666    0.7499200000000000 Zn
   0.4583300000000000    0.5389400000000000    0.2501100000000000 Zn
   0.5416683333333333    0.4662666666666666    0.7499200000000000 Zn
   0.6249966666666666    0.5389400000000000    0.2501100000000000 Zn
   0.7083349999999999    0.4662666666666666    0.7499200000000000 Zn
   0.7916633333333333    0.5389400000000000    0.2501100000000000 Zn
   0.8750016666666666    0.4662666666666666    0.7499200000000000 Zn
   0.9583299999999999    0.5389400000000000    0.2501100000000000 Zn
   0.7915416666666666    0.6667099999999999    0.7502100000000000 Zn
   0.4582083333333333    0.6667099999999999    0.7502100000000000 Zn
   0.6248750000000000    0.6667099999999999    0.7502100000000000 Zn
   0.9582083333333332    0.6667099999999999    0.7502100000000000 Zn
   0.1248750000000000    0.6667099999999999    0.7502100000000000 Zn
   0.2915416666666666    0.6667099999999999    0.7502100000000000 Zn
   0.5417816666666667    0.3384966666666667    0.2498200000000000 Zn
   0.7084483333333333    0.3384966666666667    0.2498200000000000 Zn
   0.8751150000000000    0.3384966666666667    0.2498200000000000 Zn
   0.0417816666666667    0.3384966666666667    0.2498200000000000 Zn
   0.2084483333333333    0.3384966666666667    0.2498200000000000 Zn
   0.3751150000000000    0.3384966666666667    0.2498200000000000 Zn
   0.5416683333333333    0.1329333333333333    0.7499200000000000 Zn
   0.6249966666666666    0.2056066666666667    0.2501100000000000 Zn
   0.7083349999999999    0.1329333333333333    0.7499200000000000 Zn
   0.7916633333333333    0.2056066666666667    0.2501100000000000 Zn
   0.3750016666666667    0.1329333333333333    0.7499200000000000 Zn
   0.4583300000000000    0.2056066666666667    0.2501100000000000 Zn
   0.2083350000000000    0.1329333333333333    0.7499200000000000 Zn
   0.2916633333333333    0.2056066666666667    0.2501100000000000 Zn
   0.8750016666666666    0.1329333333333333    0.7499200000000000 Zn
   0.9583299999999999    0.2056066666666667    0.2501100000000000 Zn
   0.0416683333333333    0.1329333333333333    0.7499200000000000 Zn
   0.1249966666666667    0.2056066666666667    0.2501100000000000 Zn
   0.7915416666666666    0.3333766666666667    0.7502100000000000 Zn
   0.4582083333333333    0.3333766666666667    0.7502100000000000 Zn
   0.6248750000000000    0.3333766666666667    0.7502100000000000 Zn
   0.2915416666666666    0.3333766666666667    0.7502100000000000 Zn
   0.1248750000000000    0.3333766666666667    0.7502100000000000 Zn
   0.9582083333333332    0.3333766666666667    0.7502100000000000 Zn
   0.0417816666666667    0.0051633333333333    0.2498200000000000 Zn
   0.2084483333333333    0.0051633333333333    0.2498200000000000 Zn
   0.3751150000000000    0.0051633333333333    0.2498200000000000 Zn
   0.7084483333333333    0.0051633333333333    0.2498200000000000 Zn
   0.5417816666666667    0.0051633333333333    0.2498200000000000 Zn
   0.8751150000000000    0.0051633333333333    0.2498200000000000 Zn
   0.2916633333333333    0.8722733333333332    0.2501100000000000 Zn
   0.3750016666666667    0.7996000000000000    0.7499200000000000 Zn
   0.4583300000000000    0.8722733333333332    0.2501100000000000 Zn
   0.5416683333333333    0.7996000000000000    0.7499200000000000 Zn
   0.6249966666666666    0.8722733333333332    0.2501100000000000 Zn
   0.7083349999999999    0.7996000000000000    0.7499200000000000 Zn
   0.7916633333333333    0.8722733333333332    0.2501100000000000 Zn
   0.8750016666666666    0.7996000000000000    0.7499200000000000 Zn
   0.9583299999999999    0.8722733333333332    0.2501100000000000 Zn
   0.2083350000000000    0.7996000000000000    0.7499200000000000 Zn
   0.0416683333333333    0.7996000000000000    0.7499200000000000 Zn
   0.1249966666666667    0.8722733333333332    0.2501100000000000 Zn
   0.7915416666666666    0.0000433333333333    0.7502100000000000 Zn
   0.2915416666666666    0.0000433333333333    0.7502100000000000 Zn
   0.4582083333333333    0.0000433333333333    0.7502100000000000 Zn
   0.6248750000000000    0.0000433333333333    0.7502100000000000 Zn
   0.1248750000000000    0.0000433333333333    0.7502100000000000 Zn
   0.9582083333333332    0.0000433333333333    0.7502100000000000 Zn
   0.5417816666666667    0.6718299999999999    0.2498200000000000 Zn
   0.7084483333333333    0.6718299999999999    0.2498200000000000 Zn
   0.8751150000000000    0.6718299999999999    0.2498200000000000 Zn
   0.0417816666666667    0.6718299999999999    0.2498200000000000 Zn
   0.2084483333333333    0.6718299999999999    0.2498200000000000 Zn
   0.3751150000000000    0.6718299999999999    0.2498200000000000 Zn
   0.1555383333333333    0.3952233333333333    0.4787800000000000 H
   0.1777850000000000    0.6099833333333333    0.5212599999999999 H
   0.0717733333333333    0.6099966666666666    0.9767000000000000 H
   0.0948850000000000    0.3952066666666667    0.0233300000000000 H
   0.3222050000000000    0.3952233333333333    0.4787800000000000 H
   0.3444516666666667    0.6099833333333333    0.5212599999999999 H
   0.2384400000000000    0.6099966666666666    0.9767000000000000 H
   0.2615516666666666    0.3952066666666667    0.0233300000000000 H
   0.4888716666666666    0.3952233333333333    0.4787800000000000 H
   0.5111183333333333    0.6099833333333333    0.5212599999999999 H
   0.4051066666666666    0.6099966666666666    0.9767000000000000 H
   0.4282183333333333    0.3952066666666667    0.0233300000000000 H
   0.6555383333333333    0.3952233333333333    0.4787800000000000 H
   0.6777850000000000    0.6099833333333333    0.5212599999999999 H
   0.5717733333333334    0.6099966666666666    0.9767000000000000 H
   0.5948850000000000    0.3952066666666667    0.0233300000000000 H
   0.8222050000000000    0.3952233333333333    0.4787800000000000 H
   0.8444516666666666    0.6099833333333333    0.5212599999999999 H
   0.7384400000000000    0.6099966666666666    0.9767000000000000 H
   0.7615516666666666    0.3952066666666667    0.0233300000000000 H
   0.9888716666666666    0.3952233333333333    0.4787800000000000 H
   0.0111183333333333    0.6099833333333333    0.5212599999999999 H
   0.9051066666666666    0.6099966666666666    0.9767000000000000 H
   0.9282183333333333    0.3952066666666667    0.0233300000000000 H
   0.6555383333333333    0.0618900000000000    0.4787800000000000 H
   0.6777850000000000    0.2766500000000000    0.5212599999999999 H
   0.5717733333333334    0.2766633333333333    0.9767000000000000 H
   0.5948850000000000    0.0618733333333333    0.0233300000000000 H
   0.8222050000000000    0.0618900000000000    0.4787800000000000 H
   0.8444516666666666    0.2766500000000000    0.5212599999999999 H
   0.7384400000000000    0.2766633333333333    0.9767000000000000 H
   0.7615516666666666    0.0618733333333333    0.0233300000000000 H
   0.4888716666666666    0.0618900000000000    0.4787800000000000 H
   0.5111183333333333    0.2766500000000000    0.5212599999999999 H
   0.4051066666666666    0.2766633333333333    0.9767000000000000 H
   0.4282183333333333    0.0618733333333333    0.0233300000000000 H
   0.3222050000000000    0.0618900000000000    0.4787800000000000 H
   0.3444516666666667    0.2766500000000000    0.5212599999999999 H
   0.2384400000000000    0.2766633333333333    0.9767000000000000 H
   0.2615516666666666    0.0618733333333333    0.0233300000000000 H
   0.9888716666666666    0.0618900000000000    0.4787800000000000 H
   0.0111183333333333    0.2766500000000000    0.5212599999999999 H
   0.9051066666666666    0.2766633333333333    0.9767000000000000 H
   0.9282183333333333    0.0618733333333333    0.0233300000000000 H
   0.1555383333333333    0.0618900000000000    0.4787800000000000 H
   0.1777850000000000    0.2766500000000000    0.5212599999999999 H
   0.0717733333333333    0.2766633333333333    0.9767000000000000 H
   0.0948850000000000    0.0618733333333333    0.0233300000000000 H
   0.1881120496663589    0.9109550954582450    0.1564432765285623 H
   0.2267138502447449    0.7114756430966727    0.1173241763459917 H
   0.2279183184856067    0.7619822331193027    0.0924176346023586 H
   0.2769492530655585    0.9178799835215968    0.8705230400428785 H
   0.2800600667670638    0.9023898430210480    0.2091486609027329 H
   0.2472980284624097    0.8323191933466265    0.1891111506220699 H
   0.2394200355480976    0.8822487738050019    0.1962799640552020 H
   0.3222050000000000    0.7285566666666666    0.4787800000000000 H
   0.3444516666666667    0.9433166666666666    0.5212599999999999 H
   0.4888716666666666    0.7285566666666666    0.4787800000000000 H
   0.5111183333333333    0.9433166666666666    0.5212599999999999 H
   0.4051066666666666    0.9433300000000000    0.9767000000000000 H
   0.4282183333333333    0.7285400000000000    0.0233300000000000 H
   0.6555383333333333    0.7285566666666666    0.4787800000000000 H
   0.6777850000000000    0.9433166666666666    0.5212599999999999 H
   0.5717733333333334    0.9433300000000000    0.9767000000000000 H
   0.5948850000000000    0.7285400000000000    0.0233300000000000 H
   0.8222050000000000    0.7285566666666666    0.4787800000000000 H
   0.8444516666666666    0.9433166666666666    0.5212599999999999 H
   0.7384400000000000    0.9433300000000000    0.9767000000000000 H
   0.7615516666666666    0.7285400000000000    0.0233300000000000 H
   0.9888716666666666    0.7285566666666666    0.4787800000000000 H
   0.0111183333333333    0.9433166666666666    0.5212599999999999 H
   0.9051066666666666    0.9433300000000000    0.9767000000000000 H
   0.9282183333333333    0.7285400000000000    0.0233300000000000 H
   0.2542194535680302    0.8484799438646446    0.7805441724759948 H
   0.2433771872982337    0.8220507646355053    0.7385070060926769 H
   0.3163715811582994    0.7355685770552081    0.8844176251923290 H
   0.2112366765729123    0.7555724072192184    0.8138608330914835 H
   0.2597594178054579    0.7493627421794190    0.8512533199185316 H
   0.1555383333333333    0.7285566666666666    0.4787800000000000 H
   0.1777850000000000    0.9433166666666666    0.5212599999999999 H
   0.0717733333333333    0.9433300000000000    0.9767000000000000 H
   0.0948850000000000    0.7285400000000000    0.0233300000000000 H
   0.1714250000000000    0.4484566666666666    0.3293200000000000 C
   0.1618983333333333    0.5567466666666666    0.6707100000000000 C
   0.1807716666666667    0.5844099999999999    0.3568100000000000 C
   0.1525533333333333    0.4207966666666667    0.6432200000000000 C
   0.1602350000000000    0.4425566666666667    0.4884300000000000 C
   0.1591083333333333    0.4653633333333333    0.5718700000000000 C
   0.1678000000000000    0.4785933333333333    0.4159100000000000 C
   0.1730883333333333    0.5626466666666666    0.5116000000000001 C
   0.1742150000000000    0.5398433333333333    0.4281700000000000 C
   0.1655250000000000    0.5266100000000000    0.5841300000000000 C
   0.0876550000000000    0.5561666666666667    0.8282900000000000 C
   0.0790033333333333    0.4490400000000000    0.1717500000000000 C
   0.0973716666666667    0.4198433333333333    0.8583200000000000 C
   0.0692866666666667    0.5853599999999999    0.1417200000000000 C
   0.0766550000000000    0.5626433333333334    0.9872700000000000 C
   0.0758283333333333    0.5403300000000000    0.0712300000000000 C
   0.0841766666666666    0.5261766666666666    0.9153600000000000 C
   0.0900016666666667    0.4425600000000000    0.0127700000000000 C
   0.0908283333333333    0.4648733333333333    0.9288100000000000 C
   0.0824800000000000    0.4790300000000000    0.0846800000000000 C
   0.3380916666666666    0.4484566666666666    0.3293200000000000 C
   0.3285650000000000    0.5567466666666666    0.6707100000000000 C
   0.3474383333333333    0.5844099999999999    0.3568100000000000 C
   0.3192199999999999    0.4207966666666667    0.6432200000000000 C
   0.3269016666666666    0.4425566666666667    0.4884300000000000 C
   0.3257750000000000    0.4653633333333333    0.5718700000000000 C
   0.3344666666666666    0.4785933333333333    0.4159100000000000 C
   0.3397550000000000    0.5626466666666666    0.5116000000000001 C
   0.3408816666666666    0.5398433333333333    0.4281700000000000 C
   0.3321916666666667    0.5266100000000000    0.5841300000000000 C
   0.2543216666666667    0.5561666666666667    0.8282900000000000 C
   0.2456700000000000    0.4490400000000000    0.1717500000000000 C
   0.2640383333333333    0.4198433333333333    0.8583200000000000 C
   0.2359533333333333    0.5853599999999999    0.1417200000000000 C
   0.2433216666666667    0.5626433333333334    0.9872700000000000 C
   0.2424950000000000    0.5403300000000000    0.0712300000000000 C
   0.2508433333333333    0.5261766666666666    0.9153600000000000 C
   0.2566683333333333    0.4425600000000000    0.0127700000000000 C
   0.2574950000000000    0.4648733333333333    0.9288100000000000 C
   0.2491466666666667    0.4790300000000000    0.0846800000000000 C
   0.5047583333333333    0.4484566666666666    0.3293200000000000 C
   0.4952316666666666    0.5567466666666666    0.6707100000000000 C
   0.5141050000000000    0.5844099999999999    0.3568100000000000 C
   0.4858866666666666    0.4207966666666667    0.6432200000000000 C
   0.4935683333333333    0.4425566666666667    0.4884300000000000 C
   0.4924416666666667    0.4653633333333333    0.5718700000000000 C
   0.5011333333333333    0.4785933333333333    0.4159100000000000 C
   0.5064216666666667    0.5626466666666666    0.5116000000000001 C
   0.5075483333333334    0.5398433333333333    0.4281700000000000 C
   0.4988583333333333    0.5266100000000000    0.5841300000000000 C
   0.4209883333333333    0.5561666666666667    0.8282900000000000 C
   0.4123366666666666    0.4490400000000000    0.1717500000000000 C
   0.4307050000000000    0.4198433333333333    0.8583200000000000 C
   0.4026200000000000    0.5853599999999999    0.1417200000000000 C
   0.4099883333333333    0.5626433333333334    0.9872700000000000 C
   0.4091616666666666    0.5403300000000000    0.0712300000000000 C
   0.4175099999999999    0.5261766666666666    0.9153600000000000 C
   0.4233350000000000    0.4425600000000000    0.0127700000000000 C
   0.4241616666666667    0.4648733333333333    0.9288100000000000 C
   0.4158133333333333    0.4790300000000000    0.0846800000000000 C
   0.6714249999999999    0.4484566666666666    0.3293200000000000 C
   0.6618983333333333    0.5567466666666666    0.6707100000000000 C
   0.6807716666666667    0.5844099999999999    0.3568100000000000 C
   0.6525533333333333    0.4207966666666667    0.6432200000000000 C
   0.6602350000000000    0.4425566666666667    0.4884300000000000 C
   0.6591083333333333    0.4653633333333333    0.5718700000000000 C
   0.6677999999999999    0.4785933333333333    0.4159100000000000 C
   0.6730883333333333    0.5626466666666666    0.5116000000000001 C
   0.6742150000000000    0.5398433333333333    0.4281700000000000 C
   0.6655249999999999    0.5266100000000000    0.5841300000000000 C
   0.5876550000000000    0.5561666666666667    0.8282900000000000 C
   0.5790033333333333    0.4490400000000000    0.1717500000000000 C
   0.5973716666666666    0.4198433333333333    0.8583200000000000 C
   0.5692866666666667    0.5853599999999999    0.1417200000000000 C
   0.5766550000000000    0.5626433333333334    0.9872700000000000 C
   0.5758283333333334    0.5403300000000000    0.0712300000000000 C
   0.5841766666666667    0.5261766666666666    0.9153600000000000 C
   0.5900016666666666    0.4425600000000000    0.0127700000000000 C
   0.5908283333333333    0.4648733333333333    0.9288100000000000 C
   0.5824800000000000    0.4790300000000000    0.0846800000000000 C
   0.8380916666666666    0.4484566666666666    0.3293200000000000 C
   0.8285650000000000    0.5567466666666666    0.6707100000000000 C
   0.8474383333333333    0.5844099999999999    0.3568100000000000 C
   0.8192199999999999    0.4207966666666667    0.6432200000000000 C
   0.8269016666666666    0.4425566666666667    0.4884300000000000 C
   0.8257749999999999    0.4653633333333333    0.5718700000000000 C
   0.8344666666666666    0.4785933333333333    0.4159100000000000 C
   0.8397549999999999    0.5626466666666666    0.5116000000000001 C
   0.8408816666666666    0.5398433333333333    0.4281700000000000 C
   0.8321916666666667    0.5266100000000000    0.5841300000000000 C
   0.7543216666666667    0.5561666666666667    0.8282900000000000 C
   0.7456699999999999    0.4490400000000000    0.1717500000000000 C
   0.7640383333333333    0.4198433333333333    0.8583200000000000 C
   0.7359533333333332    0.5853599999999999    0.1417200000000000 C
   0.7433216666666667    0.5626433333333334    0.9872700000000000 C
   0.7424949999999999    0.5403300000000000    0.0712300000000000 C
   0.7508433333333333    0.5261766666666666    0.9153600000000000 C
   0.7566683333333333    0.4425600000000000    0.0127700000000000 C
   0.7574949999999999    0.4648733333333333    0.9288100000000000 C
   0.7491466666666666    0.4790300000000000    0.0846800000000000 C
   0.0047583333333333    0.4484566666666666    0.3293200000000000 C
   0.9952316666666665    0.5567466666666666    0.6707100000000000 C
   0.0141050000000000    0.5844099999999999    0.3568100000000000 C
   0.9858866666666666    0.4207966666666667    0.6432200000000000 C
   0.9935683333333333    0.4425566666666667    0.4884300000000000 C
   0.9924416666666666    0.4653633333333333    0.5718700000000000 C
   0.0011333333333333    0.4785933333333333    0.4159100000000000 C
   0.0064216666666667    0.5626466666666666    0.5116000000000001 C
   0.0075483333333333    0.5398433333333333    0.4281700000000000 C
   0.9988583333333332    0.5266100000000000    0.5841300000000000 C
   0.9209883333333333    0.5561666666666667    0.8282900000000000 C
   0.9123366666666666    0.4490400000000000    0.1717500000000000 C
   0.9307049999999999    0.4198433333333333    0.8583200000000000 C
   0.9026200000000000    0.5853599999999999    0.1417200000000000 C
   0.9099883333333333    0.5626433333333334    0.9872700000000000 C
   0.9091616666666666    0.5403300000000000    0.0712300000000000 C
   0.9175099999999999    0.5261766666666666    0.9153600000000000 C
   0.9233349999999999    0.4425600000000000    0.0127700000000000 C
   0.9241616666666665    0.4648733333333333    0.9288100000000000 C
   0.9158133333333333    0.4790300000000000    0.0846800000000000 C
   0.6714249999999999    0.1151233333333333    0.3293200000000000 C
   0.6618983333333333    0.2234133333333333    0.6707100000000000 C
   0.6807716666666667    0.2510766666666666    0.3568100000000000 C
   0.6525533333333333    0.0874633333333333    0.6432200000000000 C
   0.6602350000000000    0.1092233333333333    0.4884300000000000 C
   0.6591083333333333    0.1320300000000000    0.5718700000000000 C
   0.6677999999999999    0.1452600000000000    0.4159100000000000 C
   0.6730883333333333    0.2293133333333333    0.5116000000000001 C
   0.6742150000000000    0.2065100000000000    0.4281700000000000 C
   0.6655249999999999    0.1932766666666667    0.5841300000000000 C
   0.5876550000000000    0.2228333333333333    0.8282900000000000 C
   0.5790033333333333    0.1157066666666667    0.1717500000000000 C
   0.5973716666666666    0.0865100000000000    0.8583200000000000 C
   0.5692866666666667    0.2520266666666666    0.1417200000000000 C
   0.5766550000000000    0.2293100000000000    0.9872700000000000 C
   0.5758283333333334    0.2069966666666667    0.0712300000000000 C
   0.5841766666666667    0.1928433333333333    0.9153600000000000 C
   0.5900016666666666    0.1092266666666667    0.0127700000000000 C
   0.5908283333333333    0.1315400000000000    0.9288100000000000 C
   0.5824800000000000    0.1456966666666666    0.0846800000000000 C
   0.8380916666666666    0.1151233333333333    0.3293200000000000 C
   0.8285650000000000    0.2234133333333333    0.6707100000000000 C
   0.8474383333333333    0.2510766666666666    0.3568100000000000 C
   0.8192199999999999    0.0874633333333333    0.6432200000000000 C
   0.8269016666666666    0.1092233333333333    0.4884300000000000 C
   0.8257749999999999    0.1320300000000000    0.5718700000000000 C
   0.8344666666666666    0.1452600000000000    0.4159100000000000 C
   0.8397549999999999    0.2293133333333333    0.5116000000000001 C
   0.8408816666666666    0.2065100000000000    0.4281700000000000 C
   0.8321916666666667    0.1932766666666667    0.5841300000000000 C
   0.7543216666666667    0.2228333333333333    0.8282900000000000 C
   0.7456699999999999    0.1157066666666667    0.1717500000000000 C
   0.7640383333333333    0.0865100000000000    0.8583200000000000 C
   0.7359533333333332    0.2520266666666666    0.1417200000000000 C
   0.7433216666666667    0.2293100000000000    0.9872700000000000 C
   0.7424949999999999    0.2069966666666667    0.0712300000000000 C
   0.7508433333333333    0.1928433333333333    0.9153600000000000 C
   0.7566683333333333    0.1092266666666667    0.0127700000000000 C
   0.7574949999999999    0.1315400000000000    0.9288100000000000 C
   0.7491466666666666    0.1456966666666666    0.0846800000000000 C
   0.5047583333333333    0.1151233333333333    0.3293200000000000 C
   0.4952316666666666    0.2234133333333333    0.6707100000000000 C
   0.5141050000000000    0.2510766666666666    0.3568100000000000 C
   0.4858866666666666    0.0874633333333333    0.6432200000000000 C
   0.4935683333333333    0.1092233333333333    0.4884300000000000 C
   0.4924416666666667    0.1320300000000000    0.5718700000000000 C
   0.5011333333333333    0.1452600000000000    0.4159100000000000 C
   0.5064216666666667    0.2293133333333333    0.5116000000000001 C
   0.5075483333333334    0.2065100000000000    0.4281700000000000 C
   0.4988583333333333    0.1932766666666667    0.5841300000000000 C
   0.4209883333333333    0.2228333333333333    0.8282900000000000 C
   0.4123366666666666    0.1157066666666667    0.1717500000000000 C
   0.4307050000000000    0.0865100000000000    0.8583200000000000 C
   0.4026200000000000    0.2520266666666666    0.1417200000000000 C
   0.4099883333333333    0.2293100000000000    0.9872700000000000 C
   0.4091616666666666    0.2069966666666667    0.0712300000000000 C
   0.4175099999999999    0.1928433333333333    0.9153600000000000 C
   0.4233350000000000    0.1092266666666667    0.0127700000000000 C
   0.4241616666666667    0.1315400000000000    0.9288100000000000 C
   0.4158133333333333    0.1456966666666666    0.0846800000000000 C
   0.3380916666666666    0.1151233333333333    0.3293200000000000 C
   0.3285650000000000    0.2234133333333333    0.6707100000000000 C
   0.3474383333333333    0.2510766666666666    0.3568100000000000 C
   0.3192199999999999    0.0874633333333333    0.6432200000000000 C
   0.3269016666666666    0.1092233333333333    0.4884300000000000 C
   0.3257750000000000    0.1320300000000000    0.5718700000000000 C
   0.3344666666666666    0.1452600000000000    0.4159100000000000 C
   0.3397550000000000    0.2293133333333333    0.5116000000000001 C
   0.3408816666666666    0.2065100000000000    0.4281700000000000 C
   0.3321916666666667    0.1932766666666667    0.5841300000000000 C
   0.2543216666666667    0.2228333333333333    0.8282900000000000 C
   0.2456700000000000    0.1157066666666667    0.1717500000000000 C
   0.2640383333333333    0.0865100000000000    0.8583200000000000 C
   0.2359533333333333    0.2520266666666666    0.1417200000000000 C
   0.2433216666666667    0.2293100000000000    0.9872700000000000 C
   0.2424950000000000    0.2069966666666667    0.0712300000000000 C
   0.2508433333333333    0.1928433333333333    0.9153600000000000 C
   0.2566683333333333    0.1092266666666667    0.0127700000000000 C
   0.2574950000000000    0.1315400000000000    0.9288100000000000 C
   0.2491466666666667    0.1456966666666666    0.0846800000000000 C
   0.0047583333333333    0.1151233333333333    0.3293200000000000 C
   0.9952316666666665    0.2234133333333333    0.6707100000000000 C
   0.0141050000000000    0.2510766666666666    0.3568100000000000 C
   0.9858866666666666    0.0874633333333333    0.6432200000000000 C
   0.9935683333333333    0.1092233333333333    0.4884300000000000 C
   0.9924416666666666    0.1320300000000000    0.5718700000000000 C
   0.0011333333333333    0.1452600000000000    0.4159100000000000 C
   0.0064216666666667    0.2293133333333333    0.5116000000000001 C
   0.0075483333333333    0.2065100000000000    0.4281700000000000 C
   0.9988583333333332    0.1932766666666667    0.5841300000000000 C
   0.9209883333333333    0.2228333333333333    0.8282900000000000 C
   0.9123366666666666    0.1157066666666667    0.1717500000000000 C
   0.9307049999999999    0.0865100000000000    0.8583200000000000 C
   0.9026200000000000    0.2520266666666666    0.1417200000000000 C
   0.9099883333333333    0.2293100000000000    0.9872700000000000 C
   0.9091616666666666    0.2069966666666667    0.0712300000000000 C
   0.9175099999999999    0.1928433333333333    0.9153600000000000 C
   0.9233349999999999    0.1092266666666667    0.0127700000000000 C
   0.9241616666666665    0.1315400000000000    0.9288100000000000 C
   0.9158133333333333    0.1456966666666666    0.0846800000000000 C
   0.1714250000000000    0.1151233333333333    0.3293200000000000 C
   0.1618983333333333    0.2234133333333333    0.6707100000000000 C
   0.1807716666666667    0.2510766666666666    0.3568100000000000 C
   0.1525533333333333    0.0874633333333333    0.6432200000000000 C
   0.1602350000000000    0.1092233333333333    0.4884300000000000 C
   0.1591083333333333    0.1320300000000000    0.5718700000000000 C
   0.1678000000000000    0.1452600000000000    0.4159100000000000 C
   0.1730883333333333    0.2293133333333333    0.5116000000000001 C
   0.1742150000000000    0.2065100000000000    0.4281700000000000 C
   0.1655250000000000    0.1932766666666667    0.5841300000000000 C
   0.0876550000000000    0.2228333333333333    0.8282900000000000 C
   0.0790033333333333    0.1157066666666667    0.1717500000000000 C
   0.0973716666666667    0.0865100000000000    0.8583200000000000 C
   0.0692866666666667    0.2520266666666666    0.1417200000000000 C
   0.0766550000000000    0.2293100000000000    0.9872700000000000 C
   0.0758283333333333    0.2069966666666667    0.0712300000000000 C
   0.0841766666666666    0.1928433333333333    0.9153600000000000 C
   0.0900016666666667    0.1092266666666667    0.0127700000000000 C
   0.0908283333333333    0.1315400000000000    0.9288100000000000 C
   0.0824800000000000    0.1456966666666666    0.0846800000000000 C
   0.3380916666666666    0.7817900000000000    0.3293200000000000 C
   0.3285650000000000    0.8900800000000000    0.6707100000000000 C
   0.3474383333333333    0.9177433333333332    0.3568100000000000 C
   0.3192199999999999    0.7541300000000000    0.6432200000000000 C
   0.3269016666666666    0.7758900000000000    0.4884300000000000 C
   0.3257750000000000    0.7986966666666666    0.5718700000000000 C
   0.3344666666666666    0.8119266666666667    0.4159100000000000 C
   0.3397550000000000    0.8959800000000000    0.5116000000000001 C
   0.3408816666666666    0.8731766666666666    0.4281700000000000 C
   0.3321916666666667    0.8599433333333333    0.5841300000000000 C
   0.5047583333333333    0.7817900000000000    0.3293200000000000 C
   0.4952316666666666    0.8900800000000000    0.6707100000000000 C
   0.5141050000000000    0.9177433333333332    0.3568100000000000 C
   0.4858866666666666    0.7541300000000000    0.6432200000000000 C
   0.4935683333333333    0.7758900000000000    0.4884300000000000 C
   0.4924416666666667    0.7986966666666666    0.5718700000000000 C
   0.5011333333333333    0.8119266666666667    0.4159100000000000 C
   0.5064216666666667    0.8959800000000000    0.5116000000000001 C
   0.5075483333333334    0.8731766666666666    0.4281700000000000 C
   0.4988583333333333    0.8599433333333333    0.5841300000000000 C
   0.4209883333333333    0.8895000000000000    0.8282900000000000 C
   0.4123366666666666    0.7823733333333333    0.1717500000000000 C
   0.4307050000000000    0.7531766666666666    0.8583200000000000 C
   0.4026200000000000    0.9186933333333333    0.1417200000000000 C
   0.4099883333333333    0.8959766666666666    0.9872700000000000 C
   0.4091616666666666    0.8736633333333332    0.0712300000000000 C
   0.4175099999999999    0.8595100000000000    0.9153600000000000 C
   0.4233350000000000    0.7758933333333333    0.0127700000000000 C
   0.4241616666666667    0.7982066666666666    0.9288100000000000 C
   0.4158133333333333    0.8123633333333333    0.0846800000000000 C
   0.6714249999999999    0.7817900000000000    0.3293200000000000 C
   0.6618983333333333    0.8900800000000000    0.6707100000000000 C
   0.6807716666666667    0.9177433333333332    0.3568100000000000 C
   0.6525533333333333    0.7541300000000000    0.6432200000000000 C
   0.6602350000000000    0.7758900000000000    0.4884300000000000 C
   0.6591083333333333    0.7986966666666666    0.5718700000000000 C
   0.6677999999999999    0.8119266666666667    0.4159100000000000 C
   0.6730883333333333    0.8959800000000000    0.5116000000000001 C
   0.6742150000000000    0.8731766666666666    0.4281700000000000 C
   0.6655249999999999    0.8599433333333333    0.5841300000000000 C
   0.5876550000000000    0.8895000000000000    0.8282900000000000 C
   0.5790033333333333    0.7823733333333333    0.1717500000000000 C