H2 C4 O4
1.0
   8.8982928972953541    0.0000000000000000    0.1982013217489531
   0.5976162034968390    9.8567065055917062    1.2767304868076752
   0.0000000000000000    0.0000000000000000   30.5189999999999984
H C O
2 4 4
direct
   0.8764500000000000    0.9147900000000000    0.6513433333333334 H
   0.1235600000000000    0.0852200000000000    0.6819833333333333 H
   0.0403000000000000    0.0067800000000000    0.6036266666666666 C
   0.9733400000000000    0.9769700000000000    0.6487766666666666 C
   0.9597100000000000    0.9932299999999999    0.7297000000000000 C
   0.0266700000000000    0.0230400000000000    0.6845500000000000 C
   0.9813400000000000    0.9562300000000000    0.5722866666666666 O
   0.1544300000000000    0.0806200000000000    0.5995933333333333 O
   0.0186700000000000    0.0437700000000000    0.7610399999999999 O
   0.8455800000000000    0.9194000000000000    0.7337333333333333 O
