H6 O4
1.0
   8.8982928972953541    0.0000000000000000    0.1982013217489531
   0.5976162034968390    9.8567065055917062    1.2767304868076752
   0.0000000000000000    0.0000000000000000   30.5189999999999984
H O
6 4
direct
   1.0883232141193369    0.9537069126307414    0.5779922649102035 H
   0.0603403718274488    0.1100094534061951    0.6130728353339920 H
   0.1039599569443845    0.1001029426424954    0.7559624648899154 H
   0.8021784030285816    0.8834681838552572    0.7091161065256908 H
   0.9586581429711714    0.9940866896212486    0.7270014945367248 H
   0.6181184957777754    0.0696843911140821    0.6243226358583707 H
   0.9813400000000000    0.9562300000000000    0.5722866666666666 O
   0.1544300000000000    0.0806200000000000    0.5995933333333333 O
   0.0186700000000000    0.0437700000000000    0.7610399999999999 O
   0.8455800000000000    0.9194000000000000    0.7337333333333333 O
