Zn15 H28 C44 O50
1.0
   8.8982928972953541    0.0000000000000000    0.1982013217489531
   0.5976162034968390    9.8567065055917062    1.2767304868076752
   0.0000000000000000    0.0000000000000000   30.5189999999999984
Zn H C O
15 28 44 50
direct
   0.7052000000000000    0.8882300000000000    0.1169733333333333 Zn
   0.2442500000000000    0.1618800000000000    0.1095666666666667 Zn
   0.2948100000000000    0.1117800000000000    0.2163533333333333 Zn
   0.0000000000000000    0.0000000000000000    0.1666633333333333 Zn
   0.7557600000000000    0.8381300000000000    0.2237600000000000 Zn
   0.7052000000000000    0.8882300000000000    0.4503066666666666 Zn
   0.2442500000000000    0.1618800000000000    0.4429000000000000 Zn
   0.2948100000000000    0.1117800000000000    0.5496866666666667 Zn
   0.0000000000000000    0.0000000000000000    0.4999966666666666 Zn
   0.7557600000000000    0.8381300000000000    0.5570933333333333 Zn
   0.7052000000000000    0.8882300000000000    0.7836400000000000 Zn
   0.2442500000000000    0.1618800000000000    0.7762333333333333 Zn
   0.2948100000000000    0.1117800000000000    0.8830199999999999 Zn
   0.0000000000000000    0.0000000000000000    0.8333299999999999 Zn
   0.7557600000000000    0.8381300000000000    0.8904266666666666 Zn
   0.8703200000000000    0.4360800000000000    0.1947933333333333 H
   0.8764500000000000    0.9147900000000000    0.3180100000000000 H
   0.4338900000000000    0.5285600000000000    0.2119866666666667 H
   0.3712400000000000    0.0866300000000000    0.3085400000000000 H
   0.1296900000000000    0.5639300000000000    0.1385333333333333 H
   0.1235600000000000    0.0852200000000000    0.0153166666666667 H
   0.5661400000000000    0.4714400000000000    0.1213400000000000 H
   0.6287600000000000    0.9133500000000000    0.0247866666666667 H
   0.7067600000000001    0.0589200000000000    0.1723366666666666 H
   0.2932600000000000    0.9410800000000000    0.1609933333333333 H
   0.8703200000000000    0.4360800000000000    0.5281266666666666 H
   0.4338900000000000    0.5285600000000000    0.5453200000000000 H
   0.3712400000000000    0.0866300000000000    0.6418733333333333 H
   0.1296900000000000    0.5639300000000000    0.4718666666666667 H
   0.1235600000000000    0.0852200000000000    0.3486500000000000 H
   0.5661400000000000    0.4714400000000000    0.4546733333333333 H
   0.6287600000000000    0.9133500000000000    0.3581200000000000 H
   0.7067600000000001    0.0589200000000000    0.5056700000000000 H
   0.2932600000000000    0.9410800000000000    0.4943266666666666 H
   0.8703200000000000    0.4360800000000000    0.8614599999999999 H
   0.8764500000000000    0.9147900000000000    0.9846766666666666 H
   0.4338900000000000    0.5285600000000000    0.8786533333333333 H
   0.3712400000000000    0.0866300000000000    0.9752066666666666 H
   0.1296900000000000    0.5639300000000000    0.8051999999999999 H
   0.5661400000000000    0.4714400000000000    0.7880066666666666 H
   0.6287600000000000    0.9133500000000000    0.6914533333333333 H
   0.7067600000000001    0.0589200000000000    0.8390033333333333 H
   0.2932600000000000    0.9410800000000000    0.8276600000000000 H
   0.0153600000000000    0.3131400000000000    0.1540333333333333 C
   0.9650600000000000    0.4420100000000000    0.1715033333333333 C
   0.0403000000000000    0.0067800000000000    0.2702933333333333 C
   0.9733400000000000    0.9769700000000000    0.3154433333333333 C
   0.5761700000000000    0.6735700000000000    0.1733800000000000 C
   0.4967300000000000    0.5459800000000000    0.1809233333333333 C
   0.5472300000000000    0.9758200000000000    0.2729800000000000 C
   0.4727800000000000    0.0197500000000000    0.3130666666666667 C
   0.9846600000000000    0.6868700000000000    0.1792933333333333 C
   0.0349600000000000    0.5579900000000000    0.1618233333333333 C
   0.9597100000000000    0.9932299999999999    0.0630333333333333 C
   0.0266700000000000    0.0230400000000000    0.0178833333333333 C
   0.4238500000000000    0.3264300000000000    0.1599466666666667 C
   0.5032900000000000    0.4540200000000000    0.1524066666666667 C
   0.4527900000000000    0.0241800000000000    0.0603500000000000 C
   0.5272300000000000    0.9802400000000000    0.0202633333333333 C
   0.0153600000000000    0.3131400000000000    0.4873666666666666 C
   0.9650600000000000    0.4420100000000000    0.5048366666666666 C
   0.5761700000000000    0.6735700000000000    0.5067133333333333 C
   0.4967300000000000    0.5459800000000000    0.5142566666666666 C
   0.5472300000000000    0.9758200000000000    0.6063133333333333 C
   0.4727800000000000    0.0197500000000000    0.6464000000000000 C
   0.9846600000000000    0.6868700000000000    0.5126266666666667 C
   0.0349600000000000    0.5579900000000000    0.4951566666666666 C
   0.9597100000000000    0.9932299999999999    0.3963666666666666 C
   0.0266700000000000    0.0230400000000000    0.3512166666666666 C
   0.4238500000000000    0.3264300000000000    0.4932799999999999 C
   0.5032900000000000    0.4540200000000000    0.4857399999999999 C
   0.4527900000000000    0.0241800000000000    0.3936833333333333 C
   0.5272300000000000    0.9802400000000000    0.3535966666666667 C
   0.0153600000000000    0.3131400000000000    0.8207000000000000 C
   0.9650600000000000    0.4420100000000000    0.8381700000000000 C
   0.0403000000000000    0.0067800000000000    0.9369600000000000 C
   0.9733400000000000    0.9769700000000000    0.9821099999999999 C
   0.5761700000000000    0.6735700000000000    0.8400466666666666 C
   0.4967300000000000    0.5459800000000000    0.8475900000000000 C
   0.5472300000000000    0.9758200000000000    0.9396466666666666 C
   0.4727800000000000    0.0197500000000000    0.9797333333333333 C
   0.9846600000000000    0.6868700000000000    0.8459599999999999 C
   0.0349600000000000    0.5579900000000000    0.8284899999999999 C
   0.4238500000000000    0.3264300000000000    0.8266133333333333 C
   0.5032900000000000    0.4540200000000000    0.8190733333333333 C
   0.4527900000000000    0.0241800000000000    0.7270166666666666 C
   0.5272300000000000    0.9802400000000000    0.6869299999999999 C
   0.9628200000000000    0.2057300000000000    0.1742366666666667 O
   0.1090900000000000    0.3186200000000000    0.1213966666666667 O
   0.9813400000000000    0.9562300000000000    0.2389533333333334 O
   0.1544300000000000    0.0806200000000000    0.2662600000000000 O
   0.5697000000000000    0.7452100000000000    0.2050200000000000 O
   0.6455600000000000    0.7024000000000000    0.1362066666666666 O
   0.6647300000000000    0.8948500000000000    0.2780333333333333 O
   0.4955700000000000    0.0213200000000000    0.2348700000000000 O
   0.0371900000000000    0.7942800000000000    0.1590900000000000 O
   0.8909300000000000    0.6813900000000001    0.2119300000000000 O
   0.0186700000000000    0.0437700000000000    0.0943733333333333 O
   0.8455800000000000    0.9194000000000000    0.0670666666666667 O
   0.4303200000000000    0.2548000000000000    0.1283033333333333 O
   0.3544700000000000    0.2976000000000000    0.1971200000000000 O
   0.3352800000000000    0.1051500000000000    0.0552933333333333 O
   0.5044400000000000    0.9786800000000000    0.0984600000000000 O
   0.7684200000000000    0.9765700000000000    0.1683866666666667 O
   0.2315900000000000    0.0234400000000000    0.1649400000000000 O
   0.9628200000000000    0.2057300000000000    0.5075700000000000 O
   0.1090900000000000    0.3186200000000000    0.4547300000000000 O
   0.5697000000000000    0.7452100000000000    0.5383533333333334 O
   0.6455600000000000    0.7024000000000000    0.4695400000000000 O
   0.6647300000000000    0.8948500000000000    0.6113666666666666 O
   0.4955700000000000    0.0213200000000000    0.5682033333333333 O
   0.0371900000000000    0.7942800000000000    0.4924233333333333 O
   0.8909300000000000    0.6813900000000001    0.5452633333333333 O
   0.0186700000000000    0.0437700000000000    0.4277066666666666 O
   0.8455800000000000    0.9194000000000000    0.4004000000000000 O
   0.4303200000000000    0.2548000000000000    0.4616366666666666 O
   0.3544700000000000    0.2976000000000000    0.5304533333333333 O
   0.3352800000000000    0.1051500000000000    0.3886266666666667 O
   0.5044400000000000    0.9786800000000000    0.4317933333333333 O
   0.7684200000000000    0.9765700000000000    0.5017199999999999 O
   0.2315900000000000    0.0234400000000000    0.4982733333333333 O
   0.9628200000000000    0.2057300000000000    0.8409033333333333 O
   0.1090900000000000    0.3186200000000000    0.7880633333333333 O
   0.9813400000000000    0.9562300000000000    0.9056200000000000 O
   0.1544300000000000    0.0806200000000000    0.9329266666666667 O
   0.5697000000000000    0.7452100000000000    0.8716866666666666 O
   0.6455600000000000    0.7024000000000000    0.8028733333333333 O
   0.6647300000000000    0.8948500000000000    0.9446999999999999 O
   0.4955700000000000    0.0213200000000000    0.9015366666666667 O
   0.0371900000000000    0.7942800000000000    0.8257566666666667 O
   0.8909300000000000    0.6813900000000001    0.8785966666666666 O
   0.4303200000000000    0.2548000000000000    0.7949700000000000 O
   0.3544700000000000    0.2976000000000000    0.8637866666666666 O
   0.3352800000000000    0.1051500000000000    0.7219599999999999 O
   0.5044400000000000    0.9786800000000000    0.7651266666666666 O
   0.7684200000000000    0.9765700000000000    0.8350533333333333 O
   0.2315900000000000    0.0234400000000000    0.8316066666666666 O
