H9 O6
1.0
  24.1649998675005619    0.0000000000000000   -0.0025305528778388
  -0.4640754549176737   15.3739775274723733    0.0246973058741599
   0.0000000000000000    0.0000000000000000   34.0859999999999985
H O
9 6
direct
   0.3459125788306825    0.6638730853825376    0.5014964410180210 H
   0.3905211271909237    0.4230812310303643    0.5364234296755692 H
   0.3689785055999592    0.5396348013836010    0.5161474379388378 H
   0.2569158321941944    0.3067279892224690    0.3988957547806316 H
   0.2314148307102509    0.5651433931736178    0.3932539848163265 H
   0.2479220408992270    0.4380500772688825    0.3954671958231605 H
   0.3512774439805537    0.6812428190911018    0.3592392411096098 H
   0.5032949029510984    0.6019683993787189    0.3917973664254684 H
   0.4253425659269455    0.6361763012465989    0.3773538464486919 H
   0.3541700000000000    0.6183400000000000    0.5201350000000000 O
   0.3793000000000000    0.4827200000000000    0.5394450000000000 O
   0.2362100000000000    0.3597300000000000    0.3999300000000000 O
   0.2222400000000000    0.5037900000000000    0.3967500000000000 O
   0.3914200000000000    0.6826600000000000    0.3600250000000000 O
   0.4770000000000000    0.6380000000000000    0.3783650000000000 O
