Cd48 H279 C279 O186
1.0
  24.1649998675005619    0.0000000000000000   -0.0025305528778388
  -0.4640754549176737   15.3739775274723733    0.0246973058741599
   0.0000000000000000    0.0000000000000000   34.0859999999999985
Cd H C O
48 279 279 186
direct
   0.6564600000000000    0.2977900000000000    0.4279150000000000 Cd
   0.2865700000000000    0.2268700000000000    0.4025100000000000 Cd
   0.7865500000000000    0.2268600000000000    0.4025150000000000 Cd
   0.3791600000000000    0.0000000000000000    0.3543000000000000 Cd
   0.8791500000000000    0.0000000000000000    0.3543000000000000 Cd
   0.0934200000000000    0.2023800000000000    0.1777600000000000 Cd
   0.5934199999999999    0.2023800000000000    0.1777500000000000 Cd
   0.4634600000000000    0.2734700000000000    0.1525900000000000 Cd
   0.9634400000000000    0.2734500000000000    0.1525950000000000 Cd
   0.3706400000000000    0.4924600000000000    0.1047300000000000 Cd
   0.8707600000000000    0.4923300000000000    0.1046800000000000 Cd
   0.3435500000000000    0.7022300000000000    0.0720900000000000 Cd
   0.8435400000000000    0.7022600000000000    0.0720900000000000 Cd
   0.2134600000000000    0.7731400000000000    0.0974850000000000 Cd
   0.7134400000000000    0.7731400000000000    0.0974900000000000 Cd
   0.1208400000000000    0.9919500000000000    0.1457000000000000 Cd
   0.6208399999999999    0.9919200000000000    0.1456900000000000 Cd
   0.4065800000000000    0.7976300000000000    0.3222450000000000 Cd
   0.9065800000000001    0.7976300000000000    0.3222400000000000 Cd
   0.0365600000000000    0.7265500000000000    0.3474050000000000 Cd
   0.5365500000000000    0.7265300000000000    0.3474050000000000 Cd
   0.1292600000000000    0.5076500000000000    0.3953100000000000 Cd
   0.6293700000000000    0.5075200000000000    0.3952500000000000 Cd
   0.1564600000000000    0.2977600000000000    0.4279100000000000 Cd
   0.6564600000000000    0.2977900000000000    0.9279150000000000 Cd
   0.2865700000000000    0.2268700000000000    0.9025099999999999 Cd
   0.7865500000000000    0.2268600000000000    0.9025150000000000 Cd
   0.3791600000000000    0.0000000000000000    0.8543000000000001 Cd
   0.8791500000000000    0.0000000000000000    0.8543000000000001 Cd
   0.0934200000000000    0.2023800000000000    0.6777600000000000 Cd
   0.5934199999999999    0.2023800000000000    0.6777500000000000 Cd
   0.4634600000000000    0.2734700000000000    0.6525900000000000 Cd
   0.9634400000000000    0.2734500000000000    0.6525950000000000 Cd
   0.3706400000000000    0.4924600000000000    0.6047300000000000 Cd
   0.8707600000000000    0.4923300000000000    0.6046800000000000 Cd
   0.3435500000000000    0.7022300000000000    0.5720900000000000 Cd
   0.8435400000000000    0.7022600000000000    0.5720900000000000 Cd
   0.2134600000000000    0.7731400000000000    0.5974850000000000 Cd
   0.7134400000000000    0.7731400000000000    0.5974900000000000 Cd
   0.1208400000000000    0.9919500000000000    0.6456999999999999 Cd
   0.6208399999999999    0.9919200000000000    0.6456900000000000 Cd
   0.4065800000000000    0.7976300000000000    0.8222450000000000 Cd
   0.9065800000000001    0.7976300000000000    0.8222400000000001 Cd
   0.0365600000000000    0.7265500000000000    0.8474050000000000 Cd
   0.5365500000000000    0.7265300000000000    0.8474050000000000 Cd
   0.1292600000000000    0.5076500000000000    0.8953100000000001 Cd
   0.6293700000000000    0.5075200000000000    0.8952500000000000 Cd
   0.1564600000000000    0.2977600000000000    0.9279100000000000 Cd
   0.8368100000000001    0.4009500000000000    0.4102350000000000 H
   0.7965600000000000    0.4335500000000000    0.4750750000000000 H
   0.7864500000000000    0.5432000000000000    0.4607050000000000 H
   0.4621000000000000    0.1594900000000000    0.3462550000000000 H
   0.9620800000000000    0.1595000000000000    0.3462500000000000 H
   0.4580500000000000    0.3565600000000000    0.3584250000000000 H
   0.9578800000000000    0.3565500000000000    0.3584350000000000 H
   0.4856600000000000    0.2810600000000000    0.3919950000000000 H
   0.9855400000000000    0.2810800000000000    0.3920000000000000 H
   0.0579000000000000    0.2420800000000000    0.3450000000000000 H
   0.5579300000000000    0.2418100000000000    0.3449500000000000 H
   0.0107400000000000    0.3824700000000000    0.2912050000000000 H
   0.5108800000000000    0.3823600000000000    0.2911900000000000 H
   0.0695200000000000    0.3212000000000000    0.2811950000000000 H
   0.5696000000000000    0.3209700000000000    0.2811600000000000 H
   0.8134400000000001    0.5897300000000000    0.3883500000000000 H
   0.8403000000000000    0.5105499999999999    0.3568100000000000 H
   0.9251700000000000    0.5016300000000000    0.3980250000000000 H
   0.8746200000000000    0.6440600000000000    0.4484950000000000 H
   0.9409700000000000    0.5997400000000001    0.4542400000000000 H
   0.8976499999999999    0.4545300000000000    0.4699350000000000 H
   0.4105500000000000    0.1849300000000000    0.2843600000000000 H
   0.9105600000000000    0.1849000000000000    0.2843400000000000 H
   0.4125300000000000    0.2983400000000000    0.2930300000000000 H
   0.9124700000000000    0.2983000000000000    0.2930150000000000 H
   0.0134400000000000    0.1849500000000000    0.2799500000000000 H
   0.5134200000000000    0.1848300000000000    0.2799000000000000 H
   0.4130400000000000    0.0985500000000000    0.1597300000000000 H
   0.9130500000000000    0.0985400000000000    0.1597200000000000 H
   0.4531500000000000    0.0668400000000000    0.2247450000000000 H
   0.9531400000000000    0.0668400000000000    0.2247400000000000 H
   0.4636500000000000    0.9571400000000000    0.2107650000000000 H
   0.9636500000000000    0.9571400000000000    0.2107650000000000 H
   0.2879500000000000    0.3405900000000000    0.0960000000000000 H
   0.7879600000000000    0.3405400000000000    0.0960550000000000 H
   0.2924700000000000    0.1436200000000000    0.1086900000000000 H
   0.7924500000000000    0.1435600000000000    0.1086700000000000 H
   0.2646800000000000    0.2191200000000000    0.1420750000000000 H
   0.7646800000000000    0.2190500000000000    0.1420650000000000 H
   0.1922100000000000    0.2575300000000000    0.0949800000000000 H
   0.6922100000000000    0.2575200000000000    0.0949500000000000 H
   0.2397200000000000    0.1170900000000000    0.0415300000000000 H
   0.7396900000000000    0.1170800000000000    0.0415200000000000 H
   0.1807400000000000    0.1779100000000000    0.0313600000000000 H
   0.6807299999999999    0.1779100000000000    0.0313550000000000 H
   0.4368800000000000    0.9097100000000000    0.1384950000000000 H
   0.9368800000000000    0.9096900000000000    0.1385000000000000 H
   0.4098200000000000    0.9883999999999999    0.1066800000000000 H
   0.9098500000000000    0.9883800000000000    0.1066750000000000 H
   0.3248800000000000    0.9971400000000000    0.1478650000000000 H
   0.8249000000000000    0.9971700000000000    0.1478500000000000 H
   0.3758500000000000    0.8555100000000000    0.1987650000000000 H
   0.8758500000000000    0.8555000000000000    0.1987400000000000 H
   0.3093200000000000    0.8992500000000000    0.2043300000000000 H
   0.8093200000000000    0.8992300000000000    0.2043100000000000 H
   0.3521400000000000    0.0449900000000000    0.2195650000000000 H
   0.8521300000000001    0.0449700000000000    0.2195500000000000 H
   0.3394300000000000    0.3151300000000000    0.0341850000000000 H
   0.8394100000000000    0.3151200000000000    0.0341850000000000 H
   0.3377300000000000    0.2017600000000000    0.0431150000000000 H
   0.8377100000000000    0.2017400000000000    0.0430950000000000 H
   0.2364800000000000    0.3145400000000000    0.0298950000000000 H
   0.7364700000000000    0.3145300000000000    0.0298500000000000 H
   0.1632000000000000    0.5990600000000000    0.0897650000000000 H
   0.6632400000000001    0.5990200000000000    0.0897600000000000 H
   0.2034500000000000    0.5664600000000000    0.0249200000000000 H
   0.7034800000000000    0.5664600000000000    0.0249050000000000 H
   0.2135500000000000    0.4568100000000000    0.0392900000000000 H
   0.7135700000000000    0.4568000000000000    0.0392600000000000 H
   0.0379300000000000    0.8405100000000000    0.1537450000000000 H
   0.5379000000000000    0.8405100000000000    0.1537400000000000 H
   0.0421400000000000    0.6434700000000000    0.1415600000000000 H
   0.5419700000000000    0.6434400000000000    0.1415700000000000 H
   0.0144800000000000    0.7189300000000000    0.1079950000000000 H
   0.5143500000000000    0.7189300000000000    0.1080000000000000 H
   0.4420600000000000    0.7581500000000000    0.1550100000000000 H
   0.9421000000000000    0.7578900000000000    0.1549550000000000 H
   0.4891400000000000    0.6176300000000000    0.2088100000000000 H
   0.9892800000000000    0.6175300000000000    0.2087900000000000 H
   0.4304000000000000    0.6790000000000000    0.2188350000000000 H
   0.9304900000000000    0.6787900000000000    0.2187900000000000 H
   0.1865600000000000    0.4102700000000000    0.1116000000000000 H
   0.6865800000000000    0.4102200000000000    0.1116100000000000 H
   0.1597000000000000    0.4894600000000000    0.1431900000000000 H
   0.6597600000000000    0.4894100000000000    0.1431500000000000 H
   0.0748300000000000    0.4983900000000000    0.1019750000000000 H
   0.5748900000000000    0.4984400000000000    0.1019750000000000 H
   0.1253700000000000    0.3559600000000000    0.0515000000000000 H
   0.6253600000000000    0.3559800000000000    0.0514800000000000 H
   0.0590200000000000    0.4002900000000000    0.0457600000000000 H
   0.5590200000000000    0.4003700000000000    0.0457500000000000 H
   0.1023500000000000    0.5454800000000000    0.0300600000000000 H
   0.6023800000000000    0.5455200000000000    0.0300350000000000 H
   0.0894300000000000    0.8151300000000000    0.2156600000000000 H
   0.5894300000000000    0.8150900000000000    0.2156350000000000 H
   0.0875400000000000    0.7017300000000000    0.2069850000000000 H
   0.5874800000000000    0.7016900000000000    0.2069700000000000 H
   0.4865700000000000    0.8151600000000000    0.2200550000000000 H
   0.9865500000000000    0.8150500000000001    0.2200250000000000 H
   0.0869600000000000    0.9014700000000000    0.3402800000000000 H
   0.5869600000000000    0.9014600000000000    0.3402500000000000 H
   0.0468600000000000    0.9331700000000001    0.2752600000000000 H
   0.5468400000000000    0.9331700000000001    0.2752550000000000 H
   0.0363400000000000    0.0428700000000000    0.2892350000000000 H
   0.5363400000000000    0.0428700000000000    0.2892400000000000 H
   0.2120400000000000    0.6594600000000000    0.4039450000000000 H
   0.7120500000000000    0.6594100000000001    0.4039550000000000 H
   0.2075400000000000    0.8564400000000000    0.3913350000000000 H
   0.7075200000000000    0.8563800000000000    0.3913150000000000 H
   0.2353200000000000    0.7809600000000000    0.3579350000000000 H
   0.7353100000000000    0.7808900000000000    0.3579250000000000 H
   0.3077800000000000    0.7424800000000000    0.4050250000000000 H
   0.8077800000000001    0.7424700000000000    0.4050200000000000 H
   0.2603000000000000    0.8829300000000000    0.4584800000000000 H
   0.7602700000000000    0.8829200000000000    0.4584650000000000 H
   0.3192700000000000    0.8221100000000000    0.4686450000000000 H
   0.8192500000000000    0.8221100000000000    0.4686350000000000 H
   0.0631100000000000    0.0903200000000000    0.3615000000000000 H
   0.5631200000000000    0.0903000000000000    0.3615050000000000 H
   0.0901500000000000    0.0000000000000000    0.3933250000000000 H
   0.5901800000000000    0.0000000000000000    0.3933200000000000 H
   0.1751000000000000    0.0000000000000000    0.3520000000000000 H
   0.6751100000000000    0.0000000000000000    0.3521000000000000 H
   0.1241400000000000    0.1445200000000000    0.3012600000000000 H
   0.6241400000000000    0.1445100000000000    0.3012400000000000 H
   0.1906700000000000    0.1007900000000000    0.2956900000000000 H
   0.6906700000000000    0.1007700000000000    0.2956500000000000 H
   0.1478600000000000    0.9550500000000000    0.2804500000000000 H
   0.6478500000000000    0.9550300000000000    0.2804400000000000 H
   0.1605800000000000    0.6848800000000000    0.4658150000000000 H
   0.6605600000000000    0.6848700000000000    0.4658150000000000 H
   0.1622800000000000    0.7982600000000000    0.4569050000000000 H
   0.6622700000000000    0.7982399999999999    0.4568850000000000 H
   0.2635300000000000    0.6854800000000000    0.4701050000000000 H
   0.7635100000000000    0.6854700000000000    0.4701050000000000 H
   0.3367700000000000    0.4009900000000000    0.9102399999999999 H
   0.8368100000000001    0.4009500000000000    0.9102350000000000 H
   0.2965200000000000    0.4335500000000000    0.9750900000000000 H
   0.7965600000000000    0.4335500000000000    0.9750750000000000 H
   0.2864300000000000    0.5432100000000000    0.9607000000000000 H
   0.7864500000000000    0.5432000000000000    0.9607049999999999 H
   0.4621000000000000    0.1594900000000000    0.8462550000000000 H
   0.9620800000000000    0.1595000000000000    0.8462499999999999 H
   0.4580500000000000    0.3565600000000000    0.8584250000000000 H
   0.9578800000000000    0.3565500000000000    0.8584350000000001 H
   0.4856600000000000    0.2810600000000000    0.8919950000000000 H
   0.9855400000000000    0.2810800000000000    0.8920000000000000 H
   0.0579000000000000    0.2420800000000000    0.8450000000000000 H
   0.5579300000000000    0.2418100000000000    0.8449500000000000 H
   0.0107400000000000    0.3824700000000000    0.7912049999999999 H
   0.5108800000000000    0.3823600000000000    0.7911900000000001 H
   0.0695200000000000    0.3212000000000000    0.7811950000000000 H
   0.5696000000000000    0.3209700000000000    0.7811600000000001 H
   0.3134100000000000    0.5897900000000000    0.8883850000000000 H
   0.8134400000000001    0.5897300000000000    0.8883500000000000 H
   0.3402400000000000    0.5106000000000001    0.8568249999999999 H
   0.8403000000000000    0.5105499999999999    0.8568100000000001 H
   0.4251200000000000    0.5015800000000000    0.8980250000000001 H
   0.9251700000000000    0.5016300000000000    0.8980250000000001 H
   0.3746300000000000    0.6440399999999999    0.9485150000000000 H
   0.8746200000000000    0.6440600000000000    0.9484950000000000 H
   0.4409800000000000    0.5996600000000000    0.9542500000000000 H
   0.9409700000000000    0.5997400000000001    0.9542400000000000 H
   0.3976200000000000    0.4545000000000000    0.9699550000000000 H
   0.8976499999999999    0.4545300000000000    0.9699350000000000 H
   0.4105500000000000    0.1849300000000000    0.7843599999999999 H
   0.9105600000000000    0.1849000000000000    0.7843400000000000 H
   0.4125300000000000    0.2983400000000000    0.7930300000000000 H
   0.9124700000000000    0.2983000000000000    0.7930150000000000 H
   0.0134400000000000    0.1849500000000000    0.7799499999999999 H
   0.5134200000000000    0.1848300000000000    0.7799000000000000 H
   0.4130400000000000    0.0985500000000000    0.6597300000000000 H
   0.9130500000000000    0.0985400000000000    0.6597200000000000 H
   0.4531500000000000    0.0668400000000000    0.7247450000000000 H
   0.9531400000000000    0.0668400000000000    0.7247399999999999 H
   0.4636500000000000    0.9571400000000000    0.7107650000000000 H
   0.9636500000000000    0.9571400000000000    0.7107650000000000 H
   0.2879500000000000    0.3405900000000000    0.5960000000000000 H
   0.7879600000000000    0.3405400000000000    0.5960550000000000 H
   0.2924700000000000    0.1436200000000000    0.6086900000000000 H
   0.7924500000000000    0.1435600000000000    0.6086700000000000 H
   0.2646800000000000    0.2191200000000000    0.6420750000000000 H
   0.7646800000000000    0.2190500000000000    0.6420650000000000 H
   0.1922100000000000    0.2575300000000000    0.5949800000000000 H
   0.6922100000000000    0.2575200000000000    0.5949500000000000 H
   0.2397200000000000    0.1170900000000000    0.5415300000000000 H
   0.7396900000000000    0.1170800000000000    0.5415200000000000 H
   0.1807400000000000    0.1779100000000000    0.5313600000000001 H
   0.6807299999999999    0.1779100000000000    0.5313550000000000 H
   0.4368800000000000    0.9097100000000000    0.6384950000000000 H
   0.9368800000000000    0.9096900000000000    0.6385000000000001 H
   0.4098200000000000    0.9883999999999999    0.6066800000000000 H
   0.9098500000000000    0.9883800000000000    0.6066750000000000 H
   0.3248800000000000    0.9971400000000000    0.6478650000000000 H
   0.8249000000000000    0.9971700000000000    0.6478500000000000 H
   0.3758500000000000    0.8555100000000000    0.6987650000000000 H
   0.8758500000000000    0.8555000000000000    0.6987400000000000 H
   0.3093200000000000    0.8992500000000000    0.7043300000000000 H
   0.8093200000000000    0.8992300000000000    0.7043100000000000 H
   0.3521400000000000    0.0449900000000000    0.7195650000000000 H
   0.8521300000000001    0.0449700000000000    0.7195500000000000 H
   0.3394300000000000    0.3151300000000000    0.5341850000000000 H
   0.8394100000000000    0.3151200000000000    0.5341850000000000 H
   0.3377300000000000    0.2017600000000000    0.5431150000000000 H
   0.8377100000000000    0.2017400000000000    0.5430950000000000 H
   0.2364800000000000    0.3145400000000000    0.5298950000000000 H
   0.7364700000000000    0.3145300000000000    0.5298500000000000 H
   0.1632000000000000    0.5990600000000000    0.5897650000000000 H
   0.6632400000000001    0.5990200000000000    0.5897600000000001 H
   0.2034500000000000    0.5664600000000000    0.5249200000000001 H
   0.7034800000000000    0.5664600000000000    0.5249050000000000 H
   0.2135500000000000    0.4568100000000000    0.5392900000000000 H
   0.7135700000000000    0.4568000000000000    0.5392600000000000 H
   0.0379300000000000    0.8405100000000000    0.6537450000000000 H
   0.5379000000000000    0.8405100000000000    0.6537400000000000 H
   0.0421400000000000    0.6434700000000000    0.6415600000000000 H
   0.5419700000000000    0.6434400000000000    0.6415700000000000 H
   0.0144800000000000    0.7189300000000000    0.6079950000000000 H
   0.5143500000000000    0.7189300000000000    0.6080000000000000 H
   0.4420600000000000    0.7581500000000000    0.6550100000000000 H
   0.9421000000000000    0.7578900000000000    0.6549550000000000 H
   0.4891400000000000    0.6176300000000000    0.7088099999999999 H
   0.9892800000000000    0.6175300000000000    0.7087900000000000 H
   0.4304000000000000    0.6790000000000000    0.7188350000000000 H
   0.9304900000000000    0.6787900000000000    0.7187900000000000 H
   0.1865600000000000    0.4102700000000000    0.6116000000000000 H
   0.6865800000000000    0.4102200000000000    0.6116100000000000 H
   0.1597000000000000    0.4894600000000000    0.6431900000000000 H
   0.6597600000000000    0.4894100000000000    0.6431500000000000 H
   0.0748300000000000    0.4983900000000000    0.6019750000000000 H
   0.5748900000000000    0.4984400000000000    0.6019750000000000 H
   0.1253700000000000    0.3559600000000000    0.5515000000000000 H
   0.6253600000000000    0.3559800000000000    0.5514800000000000 H
   0.0590200000000000    0.4002900000000000    0.5457600000000000 H
   0.5590200000000000    0.4003700000000000    0.5457500000000000 H
   0.1023500000000000    0.5454800000000000    0.5300600000000000 H
   0.6023800000000000    0.5455200000000000    0.5300350000000000 H
   0.0894300000000000    0.8151300000000000    0.7156600000000000 H
   0.5894300000000000    0.8150900000000000    0.7156350000000000 H
   0.0875400000000000    0.7017300000000000    0.7069850000000000 H
   0.5874800000000000    0.7016900000000000    0.7069700000000000 H
   0.4865700000000000    0.8151600000000000    0.7200550000000000 H
   0.9865500000000000    0.8150500000000001    0.7200250000000000 H
   0.0869600000000000    0.9014700000000000    0.8402800000000000 H
   0.5869600000000000    0.9014600000000000    0.8402499999999999 H
   0.0468600000000000    0.9331700000000001    0.7752600000000001 H
   0.5468400000000000    0.9331700000000001    0.7752550000000000 H
   0.0363400000000000    0.0428700000000000    0.7892350000000000 H
   0.5363400000000000    0.0428700000000000    0.7892399999999999 H
   0.2120400000000000    0.6594600000000000    0.9039450000000000 H
   0.7120500000000000    0.6594100000000001    0.9039550000000001 H
   0.2075400000000000    0.8564400000000000    0.8913350000000000 H
   0.7075200000000000    0.8563800000000000    0.8913150000000001 H
   0.2353200000000000    0.7809600000000000    0.8579350000000000 H
   0.7353100000000000    0.7808900000000000    0.8579250000000000 H
   0.3077800000000000    0.7424800000000000    0.9050250000000000 H
   0.8077800000000001    0.7424700000000000    0.9050199999999999 H
   0.2603000000000000    0.8829300000000000    0.9584800000000000 H
   0.7602700000000000    0.8829200000000000    0.9584650000000000 H
   0.3192700000000000    0.8221100000000000    0.9686450000000000 H
   0.8192500000000000    0.8221100000000000    0.9686350000000000 H
   0.0631100000000000    0.0903200000000000    0.8614999999999999 H
   0.5631200000000000    0.0903000000000000    0.8615050000000000 H
   0.0901500000000000    0.0000000000000000    0.8933249999999999 H
   0.5901800000000000    0.0000000000000000    0.8933200000000000 H
   0.1751000000000000    0.0000000000000000    0.8520000000000000 H
   0.6751100000000000    0.0000000000000000    0.8521000000000001 H
   0.1241400000000000    0.1445200000000000    0.8012600000000000 H
   0.6241400000000000    0.1445100000000000    0.8012400000000000 H
   0.1906700000000000    0.1007900000000000    0.7956900000000000 H
   0.6906700000000000    0.1007700000000000    0.7956500000000000 H
   0.1478600000000000    0.9550500000000000    0.7804500000000000 H
   0.6478500000000000    0.9550300000000000    0.7804400000000000 H
   0.1605800000000000    0.6848800000000000    0.9658150000000000 H
   0.6605600000000000    0.6848700000000000    0.9658150000000000 H
   0.1622800000000000    0.7982600000000000    0.9569050000000000 H
   0.6622700000000000    0.7982399999999999    0.9568850000000000 H
   0.2635300000000000    0.6854800000000000    0.9701050000000000 H
   0.7635100000000000    0.6854700000000000    0.9701050000000000 H
   0.5707500000000000    0.3735700000000000    0.3599550000000000 C
   0.4918700000000000    0.2470600000000000    0.2770950000000000 C
   0.9918500000000000    0.2471300000000000    0.2771100000000000 C
   0.4868500000000000    0.2610100000000000    0.2329600000000000 C
   0.1606400000000000    0.4677000000000000    0.1124850000000000 C
   0.6606900000000000    0.4676700000000000    0.1124650000000000 C
   0.1020600000000000    0.4426000000000000    0.0986850000000000 C
   0.6020900000000000    0.4426200000000000    0.0986750000000000 C
   0.0756500000000000    0.3680400000000000    0.1226000000000000 C
   0.7533100000000000    0.4399400000000000    0.4019700000000000 C
   0.8131699999999999    0.4604200000000000    0.4133300000000000 C
   0.8134000000000000    0.4873200000000000    0.4569600000000000 C
   0.3864400000000000    0.2186200000000000    0.3619000000000000 C
   0.8863900000000000    0.2185800000000000    0.3619150000000000 C
   0.4425900000000000    0.2225800000000000    0.3419250000000000 C
   0.9425400000000000    0.2225700000000000    0.3419200000000000 C
   0.4793900000000000    0.2944800000000000    0.3606700000000000 C
   0.9792800000000000    0.2945200000000000    0.3606750000000000 C
   0.0358900000000000    0.3029800000000000    0.3399200000000000 C
   0.5360000000000000    0.3028000000000000    0.3398950000000000 C
   0.0291000000000000    0.3186000000000000    0.2958550000000000 C
   0.5291900000000000    0.3184400000000000    0.2958350000000000 C
   0.8393600000000000    0.5323099999999999    0.3875100000000000 C
   0.8979400000000000    0.5574200000000000    0.4013100000000000 C
   0.9243600000000000    0.6319700000000000    0.3773700000000000 C
   0.8982500000000000    0.5844900000000000    0.4448750000000000 C
   0.8723200000000000    0.5128100000000000    0.4709200000000000 C
   0.3690000000000000    0.5404900000000000    0.0139650000000000 C
   0.8690099999999999    0.5404800000000000    0.0139500000000000 C
   0.4354100000000000    0.2382900000000000    0.2974500000000000 C
   0.9353800000000000    0.2382800000000000    0.2974850000000000 C
   0.0704500000000000    0.3739100000000000    0.3600100000000000 C
   0.9868600000000000    0.2610400000000000    0.2329650000000000 C
   0.9967000000000000    0.0600000000000000    0.1518400000000000 C
   0.4967000000000000    0.0600000000000000    0.1518350000000000 C
   0.4367900000000000    0.0392400000000000    0.1630650000000000 C
   0.9368000000000000    0.0392300000000000    0.1630600000000000 C
   0.4365400000000000    0.0127700000000000    0.2067900000000000 C
   0.9365300000000000    0.0127600000000000    0.2067850000000000 C
   0.3636800000000000    0.2817100000000000    0.1118500000000000 C
   0.8636800000000000    0.2816000000000000    0.1118850000000000 C
   0.3075600000000000    0.2775700000000000    0.0918500000000000 C
   0.8075599999999999    0.2775100000000000    0.0915000000000000 C
   0.2709500000000000    0.2055500000000000    0.1107800000000000 C
   0.7709400000000000    0.2054900000000000    0.1107700000000000 C
   0.2143400000000000    0.1967000000000000    0.0900450000000000 C
   0.7143300000000000    0.1966800000000000    0.0900400000000000 C
   0.2211700000000000    0.1808500000000000    0.0460150000000000 C
   0.7211600000000000    0.1808400000000000    0.0460100000000000 C
   0.4107900000000000    0.9669400000000000    0.1374550000000000 C
   0.9108100000000000    0.9669300000000000    0.1374500000000000 C
   0.3522500000000000    0.9415400000000000    0.1513100000000000 C
   0.8522500000000000    0.9415400000000000    0.1512950000000000 C
   0.3258900000000000    0.8666500000000000    0.1276400000000000 C
   0.8258900000000000    0.8666800000000000    0.1276150000000000 C
   0.3520000000000000    0.9148200000000000    0.1949400000000000 C
   0.8520000000000000    0.9148100000000000    0.1949250000000000 C
   0.3776500000000000    0.9869200000000000    0.2205000000000000 C
   0.8776400000000000    0.9869000000000000    0.2207350000000000 C
   0.3810100000000000    0.9595900000000001    0.2638350000000000 C
   0.8810000000000000    0.9595700000000000    0.2638250000000000 C
   0.3147100000000000    0.2617000000000000    0.0474500000000000 C
   0.8147000000000000    0.2616700000000000    0.0474400000000000 C
   0.1799400000000000    0.1258000000000000    0.1103900000000000 C
   0.6799200000000000    0.1257800000000000    0.1103850000000000 C
   0.2582300000000000    0.2525000000000000    0.0271050000000000 C
   0.7582200000000000    0.2524800000000000    0.0271000000000000 C
   0.2631800000000000    0.2386600000000000    0.4829650000000000 C
   0.7631700000000000    0.2386600000000000    0.4829600000000000 C
   0.2466900000000000    0.5600600000000000    0.0980300000000000 C
   0.7467400000000000    0.5600500000000000    0.0980200000000000 C
   0.1868300000000000    0.5395900000000000    0.0866700000000000 C
   0.6868800000000000    0.5395600000000000    0.0866550000000000 C
   0.1866100000000000    0.5126900000000000    0.0430350000000000 C
   0.6866400000000000    0.5126900000000000    0.0430000000000000 C
   0.1136200000000000    0.7814400000000000    0.1380850000000000 C
   0.6135699999999999    0.7813900000000000    0.1380750000000000 C
   0.0574700000000000    0.7774500000000000    0.1580800000000000 C
   0.5574100000000000    0.7774300000000000    0.1580700000000000 C
   0.0207400000000000    0.7054900000000000    0.1393200000000000 C
   0.5206200000000000    0.7055100000000000    0.1393000000000000 C
   0.4640100000000000    0.6971700000000000    0.1601000000000000 C
   0.9641300000000000    0.6970100000000000    0.1600700000000000 C
   0.4708200000000000    0.6815400000000000    0.2041600000000000 C
   0.9709200000000000    0.6814000000000000    0.2041350000000000 C
   0.5756500000000000    0.3680800000000000    0.1226200000000000 C
   0.1017500000000000    0.4155300000000000    0.0551200000000000 C
   0.6017500000000000    0.4155700000000000    0.0551050000000000 C
   0.1276800000000000    0.4872000000000000    0.0290750000000000 C
   0.6277000000000000    0.4872300000000000    0.0290600000000000 C
   0.1309900000000000    0.4595300000000000    0.4860450000000000 C
   0.6310100000000000    0.4595200000000000    0.4860300000000000 C
   0.0646200000000000    0.7617400000000000    0.2025150000000000 C
   0.5645800000000000    0.7617300000000000    0.2025050000000000 C
   0.4292800000000000    0.6263800000000000    0.1400400000000000 C
   0.9296100000000000    0.6260300000000000    0.1399800000000000 C
   0.0081500000000000    0.7528700000000000    0.2228850000000000 C
   0.5081300000000000    0.7529300000000000    0.2229000000000000 C
   0.0131400000000000    0.7389600000000000    0.2670300000000000 C
   0.5131400000000000    0.7389800000000000    0.2670400000000000 C
   0.5033100000000000    0.9399999999999999    0.3481650000000000 C
   0.0000000000000000    0.9399999999999999    0.3481600000000000 C
   0.0632000000000000    0.9607800000000000    0.3369400000000000 C
   0.5632100000000000    0.9607700000000000    0.3369350000000000 C
   0.0634700000000000    0.9872500000000000    0.2932150000000000 C
   0.5634600000000000    0.9872400000000000    0.2932100000000000 C
   0.1363100000000000    0.7183800000000000    0.3881200000000000 C
   0.6363100000000000    0.7182800000000000    0.3881100000000000 C
   0.1924300000000000    0.7224800000000000    0.4081550000000000 C