Zn80 Ni80 H1 C319 N319 O1
1.0
  37.2874941844880610    0.0000000000000000    0.0208252675521291
   0.8875228966238426   29.9438408219591352    0.7347488939373623
   0.0000000000000000    0.0000000000000000   26.1000000000000014
Zn Ni H C N O
80 80 1 319 319 1
direct
   0.7999060000000001    0.2536725000000000    0.8754000000000000 Zn
   0.8001040000000000    0.4963275000000000    0.1246150000000000 Zn
   0.7999060000000001    0.5036725000000000    0.3754000000000000 Zn
   0.8001040000000000    0.7463275000000000    0.6246150000000000 Zn
   0.1999060000000000    0.7536725000000000    0.8754000000000000 Zn
   0.2001040000000000    0.9963275000000000    0.1246150000000000 Zn
   0.9999060000000001    0.5036725000000000    0.3754000000000000 Zn
   0.0001040000000000    0.7463275000000000    0.6246150000000000 Zn
   0.3999060000000000    0.0036725000000000    0.3754000000000000 Zn
   0.4001040000000000    0.2463275000000000    0.6246150000000000 Zn
   0.5999060000000001    0.2536725000000000    0.8754000000000000 Zn
   0.6001040000000001    0.4963275000000000    0.1246150000000000 Zn
   0.5999060000000001    0.5036725000000000    0.3754000000000000 Zn
   0.6001040000000001    0.7463275000000000    0.6246150000000000 Zn
   0.3999060000000000    0.2536725000000000    0.8754000000000000 Zn
   0.4001040000000000    0.4963275000000000    0.1246150000000000 Zn
   0.9999060000000001    0.7536725000000000    0.8754000000000000 Zn
   0.0001040000000000    0.9963275000000000    0.1246150000000000 Zn
   0.1999060000000000    0.0036725000000000    0.3754000000000000 Zn
   0.2001040000000000    0.2463275000000000    0.6246150000000000 Zn
   0.5999060000000001    0.0036725000000000    0.3754000000000000 Zn
   0.6001040000000001    0.2463275000000000    0.6246150000000000 Zn
   0.3999060000000000    0.7536725000000000    0.8754000000000000 Zn
   0.4001040000000000    0.9963275000000000    0.1246150000000000 Zn
   0.1999060000000000    0.5036725000000000    0.3754000000000000 Zn
   0.2001040000000000    0.7463275000000000    0.6246150000000000 Zn
   0.9999060000000001    0.2536725000000000    0.8754000000000000 Zn
   0.0001040000000000    0.4963275000000000    0.1246150000000000 Zn
   0.7999060000000001    0.7536725000000000    0.8754000000000000 Zn
   0.8001040000000000    0.9963275000000000    0.1246150000000000 Zn
   0.7999060000000001    0.0036725000000000    0.3754000000000000 Zn
   0.8001040000000000    0.2463275000000000    0.6246150000000000 Zn
   0.1999060000000000    0.2536725000000000    0.8754000000000000 Zn
   0.2001040000000000    0.4963275000000000    0.1246150000000000 Zn
   0.9999060000000001    0.0036725000000000    0.3754000000000000 Zn
   0.0001040000000000    0.2463275000000000    0.6246150000000000 Zn
   0.3999060000000000    0.5036725000000000    0.3754000000000000 Zn
   0.4001040000000000    0.7463275000000000    0.6246150000000000 Zn
   0.5999060000000001    0.7536725000000000    0.8754000000000000 Zn
   0.6001040000000001    0.9963275000000000    0.1246150000000000 Zn
   0.9999060000000001    0.7536725000000000    0.3754000000000000 Zn
   0.0001040000000000    0.9963275000000000    0.6246150000000000 Zn
   0.1999060000000000    0.0036725000000000    0.8754000000000000 Zn
   0.2001040000000000    0.2463275000000000    0.1246150000000000 Zn
   0.5999060000000001    0.5036725000000000    0.8754000000000000 Zn
   0.6001040000000001    0.7463275000000000    0.1246150000000000 Zn
   0.3999060000000000    0.2536725000000000    0.3754000000000000 Zn
   0.4001040000000000    0.4963275000000000    0.6246150000000000 Zn
   0.7999060000000001    0.0036725000000000    0.8754000000000000 Zn
   0.8001040000000000    0.2463275000000000    0.1246150000000000 Zn
   0.3999060000000000    0.5036725000000000    0.8754000000000000 Zn
   0.4001040000000000    0.7463275000000000    0.1246150000000000 Zn
   0.5999060000000001    0.7536725000000000    0.3754000000000000 Zn
   0.6001040000000001    0.9963275000000000    0.6246150000000000 Zn
   0.7999060000000001    0.7536725000000000    0.3754000000000000 Zn
   0.8001040000000000    0.9963275000000000    0.6246150000000000 Zn
   0.1999060000000000    0.2536725000000000    0.3754000000000000 Zn
   0.2001040000000000    0.4963275000000000    0.6246150000000000 Zn
   0.9999060000000001    0.0036725000000000    0.8754000000000000 Zn
   0.0001040000000000    0.2463275000000000    0.1246150000000000 Zn
   0.9999060000000001    0.2536725000000000    0.3754000000000000 Zn
   0.0001040000000000    0.4963275000000000    0.6246150000000000 Zn
   0.1999060000000000    0.5036725000000000    0.8754000000000000 Zn
   0.2001040000000000    0.7463275000000000    0.1246150000000000 Zn
   0.5999060000000001    0.0036725000000000    0.8754000000000000 Zn
   0.6001040000000001    0.2463275000000000    0.1246150000000000 Zn
   0.3999060000000000    0.7536725000000000    0.3754000000000000 Zn
   0.4001040000000000    0.9963275000000000    0.6246150000000000 Zn
   0.7999060000000001    0.5036725000000000    0.8754000000000000 Zn
   0.8001040000000000    0.7463275000000000    0.1246150000000000 Zn
   0.7999060000000001    0.2536725000000000    0.3754000000000000 Zn
   0.8001040000000000    0.4963275000000000    0.6246150000000000 Zn
   0.5999060000000001    0.2536725000000000    0.3754000000000000 Zn
   0.6001040000000001    0.4963275000000000    0.6246150000000000 Zn
   0.9999060000000001    0.5036725000000000    0.8754000000000000 Zn
   0.0001040000000000    0.7463275000000000    0.1246150000000000 Zn
   0.3999060000000000    0.0036725000000000    0.8754000000000000 Zn
   0.4001040000000000    0.2463275000000000    0.1246150000000000 Zn
   0.1999060000000000    0.7536725000000000    0.3754000000000000 Zn
   0.2001040000000000    0.9963275000000000    0.6246150000000000 Zn
   0.6998920000000001    0.2509625000000000    0.7499800000000000 Ni
   0.7992420000000001    0.3749975000000000    0.0010550000000000 Ni
   0.6998920000000001    0.5009625000000000    0.2499800000000000 Ni
   0.7992420000000001    0.6249975000000000    0.5010550000000000 Ni
   0.0998920000000000    0.7509625000000000    0.7499800000000000 Ni
   0.1992420000000000    0.8749975000000000    0.0010550000000000 Ni
   0.8998920000000000    0.5009625000000000    0.2499800000000000 Ni
   0.9992420000000001    0.6249975000000000    0.5010550000000000 Ni
   0.2998920000000000    0.0009625000000000    0.2499800000000000 Ni
   0.3992420000000000    0.1249975000000000    0.5010550000000000 Ni
   0.4998920000000000    0.2509625000000000    0.7499800000000000 Ni
   0.5992420000000001    0.3749975000000000    0.0010550000000000 Ni
   0.4998920000000000    0.5009625000000000    0.2499800000000000 Ni
   0.5992420000000001    0.6249975000000000    0.5010550000000000 Ni
   0.2998920000000000    0.2509625000000000    0.7499800000000000 Ni
   0.3992420000000000    0.3749975000000000    0.0010550000000000 Ni
   0.8998920000000000    0.7509625000000000    0.7499800000000000 Ni
   0.9992420000000001    0.8749975000000000    0.0010550000000000 Ni
   0.0998920000000000    0.0009625000000000    0.2499800000000000 Ni
   0.1992420000000000    0.1249975000000000    0.5010550000000000 Ni
   0.4998920000000000    0.0009625000000000    0.2499800000000000 Ni
   0.5992420000000001    0.1249975000000000    0.5010550000000000 Ni
   0.2998920000000000    0.7509625000000000    0.7499800000000000 Ni
   0.3992420000000000    0.8749975000000000    0.0010550000000000 Ni
   0.0998920000000000    0.5009625000000000    0.2499800000000000 Ni
   0.1992420000000000    0.6249975000000000    0.5010550000000000 Ni
   0.8998920000000000    0.2509625000000000    0.7499800000000000 Ni
   0.9992420000000001    0.3749975000000000    0.0010550000000000 Ni
   0.6998920000000001    0.7509625000000000    0.7499800000000000 Ni
   0.7992420000000001    0.8749975000000000    0.0010550000000000 Ni
   0.6998920000000001    0.0009625000000000    0.2499800000000000 Ni
   0.7992420000000001    0.1249975000000000    0.5010550000000000 Ni
   0.0998920000000000    0.2509625000000000    0.7499800000000000 Ni
   0.1992420000000000    0.3749975000000000    0.0010550000000000 Ni
   0.8998920000000000    0.0009625000000000    0.2499800000000000 Ni
   0.9992420000000001    0.1249975000000000    0.5010550000000000 Ni
   0.2998920000000000    0.5009625000000000    0.2499800000000000 Ni
   0.3992420000000000    0.6249975000000000    0.5010550000000000 Ni
   0.4998920000000000    0.7509625000000000    0.7499800000000000 Ni
   0.5992420000000001    0.8749975000000000    0.0010550000000000 Ni
   0.8998920000000000    0.7509625000000000    0.2499800000000000 Ni
   0.9992420000000001    0.8749975000000000    0.5010550000000000 Ni
   0.0998920000000000    0.0009625000000000    0.7499800000000000 Ni
   0.1992420000000000    0.1249975000000000    0.0010550000000000 Ni
   0.4998920000000000    0.5009625000000000    0.7499800000000000 Ni
   0.5992420000000001    0.6249975000000000    0.0010550000000000 Ni
   0.2998920000000000    0.2509625000000000    0.2499800000000000 Ni
   0.3992420000000000    0.3749975000000000    0.5010550000000000 Ni
   0.6998920000000001    0.0009625000000000    0.7499800000000000 Ni
   0.7992420000000001    0.1249975000000000    0.0010550000000000 Ni
   0.2998920000000000    0.5009625000000000    0.7499800000000000 Ni
   0.3992420000000000    0.6249975000000000    0.0010550000000000 Ni
   0.4998920000000000    0.7509625000000000    0.2499800000000000 Ni
   0.5992420000000001    0.8749975000000000    0.5010550000000000 Ni
   0.6998920000000001    0.7509625000000000    0.2499800000000000 Ni
   0.7992420000000001    0.8749975000000000    0.5010550000000000 Ni
   0.0998920000000000    0.2509625000000000    0.2499800000000000 Ni
   0.1992420000000000    0.3749975000000000    0.5010550000000000 Ni
   0.8998920000000000    0.0009625000000000    0.7499800000000000 Ni
   0.9992420000000001    0.1249975000000000    0.0010550000000000 Ni
   0.8998920000000000    0.2509625000000000    0.2499800000000000 Ni
   0.9992420000000001    0.3749975000000000    0.5010550000000000 Ni
   0.0998920000000000    0.5009625000000000    0.7499800000000000 Ni
   0.1992420000000000    0.6249975000000000    0.0010550000000000 Ni
   0.4998920000000000    0.0009625000000000    0.7499800000000000 Ni
   0.5992420000000001    0.1249975000000000    0.0010550000000000 Ni
   0.2998920000000000    0.7509625000000000    0.2499800000000000 Ni
   0.3992420000000000    0.8749975000000000    0.5010550000000000 Ni
   0.6998920000000001    0.5009625000000000    0.7499800000000000 Ni
   0.7992420000000001    0.6249975000000000    0.0010550000000000 Ni
   0.6998920000000001    0.2509625000000000    0.2499800000000000 Ni
   0.7992420000000001    0.3749975000000000    0.5010550000000000 Ni
   0.4998920000000000    0.2509625000000000    0.2499800000000000 Ni
   0.5992420000000001    0.3749975000000000    0.5010550000000000 Ni
   0.8998920000000000    0.5009625000000000    0.7499800000000000 Ni
   0.9992420000000001    0.6249975000000000    0.0010550000000000 Ni
   0.2998920000000000    0.0009625000000000    0.7499800000000000 Ni
   0.3992420000000000    0.1249975000000000    0.0010550000000000 Ni
   0.0998920000000000    0.7509625000000000    0.2499800000000000 Ni
   0.1992420000000000    0.8749975000000000    0.5010550000000000 Ni
   0.5994248357769877    0.1746122475742864    0.4468260347896136 H
   0.7350680000000001    0.2516700000000000    0.7993700000000000 C
   0.7349340000000001    0.2496975000000000    0.7004500000000000 C
   0.6649420000000001    0.2483800000000000    0.7006550000000000 C
   0.6650800000000001    0.2503275000000000    0.7995450000000000 C
   0.7993860000000002    0.4198875000000000    0.9518599999999999 C
   0.7987880000000001    0.3328225000000000    0.9512200000000000 C
   0.8006220000000001    0.3300875000000000    0.0481600000000000 C
   0.8012320000000001    0.4171475000000000    0.0488350000000000 C
   0.7350680000000001    0.5016699999999999    0.2993700000000000 C
   0.7349340000000001    0.4996975000000000    0.2004500000000000 C
   0.6649420000000001    0.4983800000000000    0.2006550000000000 C
   0.6650800000000001    0.5003275000000000    0.2995450000000000 C
   0.7993860000000002    0.6698875000000000    0.4518600000000000 C
   0.7987880000000001    0.5828225000000000    0.4512200000000000 C
   0.8006220000000001    0.5800875000000000    0.5481600000000000 C
   0.8012320000000001    0.6671475000000000    0.5488350000000000 C
   0.1350680000000000    0.7516699999999999    0.7993700000000000 C
   0.1349340000000000    0.7496975000000000    0.7004500000000000 C
   0.0649420000000000    0.7483800000000000    0.7006550000000000 C
   0.0650800000000000    0.7503275000000000    0.7995450000000000 C
   0.1993860000000000    0.9198875000000000    0.9518599999999999 C
   0.1987880000000000    0.8328225000000000    0.9512200000000000 C
   0.2006220000000000    0.8300875000000000    0.0481600000000000 C
   0.2012320000000000    0.9171475000000000    0.0488350000000000 C
   0.9350680000000000    0.5016699999999999    0.2993700000000000 C
   0.9349340000000000    0.4996975000000000    0.2004500000000000 C
   0.8649420000000001    0.4983800000000000    0.2006550000000000 C
   0.8650800000000001    0.5003275000000000    0.2995450000000000 C
   0.9993860000000001    0.6698875000000000    0.4518600000000000 C
   0.9987880000000000    0.5828225000000000    0.4512200000000000 C
   0.0006220000000000    0.5800875000000000    0.5481600000000000 C
   0.0012320000000000    0.6671475000000000    0.5488350000000000 C
   0.3350680000000000    0.0016700000000000    0.2993700000000000 C
   0.3349340000000000    0.9996975000000000    0.2004500000000000 C
   0.2649420000000000    0.9983800000000000    0.2006550000000000 C
   0.2650800000000000    0.0003275000000000    0.2995450000000000 C
   0.3993860000000000    0.1698875000000000    0.4518600000000000 C
   0.3987880000000000    0.0828225000000000    0.4512200000000000 C
   0.4006220000000000    0.0800875000000000    0.5481600000000000 C
   0.4012320000000000    0.1671475000000000    0.5488350000000000 C
   0.5350680000000001    0.2516700000000000    0.7993700000000000 C
   0.5349340000000000    0.2496975000000000    0.7004500000000000 C
   0.4649420000000000    0.2483800000000000    0.7006550000000000 C
   0.4650800000000000    0.2503275000000000    0.7995450000000000 C
   0.5993860000000000    0.4198875000000000    0.9518599999999999 C
   0.5987880000000001    0.3328225000000000    0.9512200000000000 C
   0.6006220000000001    0.3300875000000000    0.0481600000000000 C
   0.6012320000000001    0.4171475000000000    0.0488350000000000 C
   0.5350680000000001    0.5016699999999999    0.2993700000000000 C
   0.5349340000000000    0.4996975000000000    0.2004500000000000 C
   0.4649420000000000    0.4983800000000000    0.2006550000000000 C
   0.4650800000000000    0.5003275000000000    0.2995450000000000 C
   0.5993860000000000    0.6698875000000000    0.4518600000000000 C
   0.5987880000000001    0.5828225000000000    0.4512200000000000 C
   0.6006220000000001    0.5800875000000000    0.5481600000000000 C
   0.6012320000000001    0.6671475000000000    0.5488350000000000 C
   0.3350680000000000    0.2516700000000000    0.7993700000000000 C
   0.3349340000000000    0.2496975000000000    0.7004500000000000 C
   0.2649420000000000    0.2483800000000000    0.7006550000000000 C
   0.2650800000000000    0.2503275000000000    0.7995450000000000 C
   0.3993860000000000    0.4198875000000000    0.9518599999999999 C
   0.3987880000000000    0.3328225000000000    0.9512200000000000 C
   0.4006220000000000    0.3300875000000000    0.0481600000000000 C
   0.4012320000000000    0.4171475000000000    0.0488350000000000 C
   0.9350680000000000    0.7516699999999999    0.7993700000000000 C
   0.9349340000000000    0.7496975000000000    0.7004500000000000 C
   0.8649420000000001    0.7483800000000000    0.7006550000000000 C
   0.8650800000000001    0.7503275000000000    0.7995450000000000 C
   0.9993860000000001    0.9198875000000000    0.9518599999999999 C
   0.9987880000000000    0.8328225000000000    0.9512200000000000 C
   0.0006220000000000    0.8300875000000000    0.0481600000000000 C
   0.0012320000000000    0.9171475000000000    0.0488350000000000 C
   0.1350680000000000    0.0016700000000000    0.2993700000000000 C
   0.1349340000000000    0.9996975000000000    0.2004500000000000 C
   0.0649420000000000    0.9983800000000000    0.2006550000000000 C
   0.0650800000000000    0.0003275000000000    0.2995450000000000 C
   0.1993860000000000    0.1698875000000000    0.4518600000000000 C
   0.1987880000000000    0.0828225000000000    0.4512200000000000 C
   0.2006220000000000    0.0800875000000000    0.5481600000000000 C
   0.2012320000000000    0.1671475000000000    0.5488350000000000 C
   0.5350680000000001    0.0016700000000000    0.2993700000000000 C
   0.5349340000000000    0.9996975000000000    0.2004500000000000 C
   0.4649420000000000    0.9983800000000000    0.2006550000000000 C
   0.4650800000000000    0.0003275000000000    0.2995450000000000 C
   0.5987880000000001    0.0828225000000000    0.4512200000000000 C
   0.6006220000000001    0.0800875000000000    0.5481600000000000 C
   0.6012320000000001    0.1671475000000000    0.5488350000000000 C
   0.3350680000000000    0.7516699999999999    0.7993700000000000 C
   0.3349340000000000    0.7496975000000000    0.7004500000000000 C
   0.2649420000000000    0.7483800000000000    0.7006550000000000 C
   0.2650800000000000    0.7503275000000000    0.7995450000000000 C
   0.3993860000000000    0.9198875000000000    0.9518599999999999 C
   0.3987880000000000    0.8328225000000000    0.9512200000000000 C
   0.4006220000000000    0.8300875000000000    0.0481600000000000 C
   0.4012320000000000    0.9171475000000000    0.0488350000000000 C
   0.1350680000000000    0.5016699999999999    0.2993700000000000 C
   0.1349340000000000    0.4996975000000000    0.2004500000000000 C
   0.0649420000000000    0.4983800000000000    0.2006550000000000 C
   0.0650800000000000    0.5003275000000000    0.2995450000000000 C
   0.1993860000000000    0.6698875000000000    0.4518600000000000 C
   0.1987880000000000    0.5828225000000000    0.4512200000000000 C
   0.2006220000000000    0.5800875000000000    0.5481600000000000 C
   0.2012320000000000    0.6671475000000000    0.5488350000000000 C
   0.9350680000000000    0.2516700000000000    0.7993700000000000 C
   0.9349340000000000    0.2496975000000000    0.7004500000000000 C
   0.8649420000000001    0.2483800000000000    0.7006550000000000 C
   0.8650800000000001    0.2503275000000000    0.7995450000000000 C
   0.9993860000000001    0.4198875000000000    0.9518599999999999 C
   0.9987880000000000    0.3328225000000000    0.9512200000000000 C
   0.0006220000000000    0.3300875000000000    0.0481600000000000 C
   0.0012320000000000    0.4171475000000000    0.0488350000000000 C
   0.7350680000000001    0.7516699999999999    0.7993700000000000 C
   0.7349340000000001    0.7496975000000000    0.7004500000000000 C
   0.6649420000000001    0.7483800000000000    0.7006550000000000 C
   0.6650800000000001    0.7503275000000000    0.7995450000000000 C
   0.7993860000000002    0.9198875000000000    0.9518599999999999 C
   0.7987880000000001    0.8328225000000000    0.9512200000000000 C
   0.8006220000000001    0.8300875000000000    0.0481600000000000 C
   0.8012320000000001    0.9171475000000000    0.0488350000000000 C
   0.7350680000000001    0.0016700000000000    0.2993700000000000 C
   0.7349340000000001    0.9996975000000000    0.2004500000000000 C
   0.6649420000000001    0.9983800000000000    0.2006550000000000 C
   0.6650800000000001    0.0003275000000000    0.2995450000000000 C
   0.7993860000000002    0.1698875000000000    0.4518600000000000 C
   0.7987880000000001    0.0828225000000000    0.4512200000000000 C
   0.8006220000000001    0.0800875000000000    0.5481600000000000 C
   0.8012320000000001    0.1671475000000000    0.5488350000000000 C
   0.1350680000000000    0.2516700000000000    0.7993700000000000 C
   0.1349340000000000    0.2496975000000000    0.7004500000000000 C
   0.0649420000000000    0.2483800000000000    0.7006550000000000 C
   0.0650800000000000    0.2503275000000000    0.7995450000000000 C
   0.1993860000000000    0.4198875000000000    0.9518599999999999 C
   0.1987880000000000    0.3328225000000000    0.9512200000000000 C
   0.2006220000000000    0.3300875000000000    0.0481600000000000 C
   0.2012320000000000    0.4171475000000000    0.0488350000000000 C
   0.9350680000000000    0.0016700000000000    0.2993700000000000 C
   0.9349340000000000    0.9996975000000000    0.2004500000000000 C
   0.8649420000000001    0.9983800000000000    0.2006550000000000 C
   0.8650800000000001    0.0003275000000000    0.2995450000000000 C
   0.9993860000000001    0.1698875000000000    0.4518600000000000 C
   0.9987880000000000    0.0828225000000000    0.4512200000000000 C
   0.0006220000000000    0.0800875000000000    0.5481600000000000 C
   0.0012320000000000    0.1671475000000000    0.5488350000000000 C
   0.3350680000000000    0.5016699999999999    0.2993700000000000 C
   0.3349340000000000    0.4996975000000000    0.2004500000000000 C
   0.2649420000000000    0.4983800000000000    0.2006550000000000 C
   0.2650800000000000    0.5003275000000000    0.2995450000000000 C
   0.3993860000000000    0.6698875000000000    0.4518600000000000 C
   0.3987880000000000    0.5828225000000000    0.4512200000000000 C
   0.4006220000000000    0.5800875000000000    0.5481600000000000 C
   0.4012320000000000    0.6671475000000000    0.5488350000000000 C
   0.5350680000000001    0.7516699999999999    0.7993700000000000 C
   0.5349340000000000    0.7496975000000000    0.7004500000000000 C
   0.4649420000000000    0.7483800000000000    0.7006550000000000 C
   0.4650800000000000    0.7503275000000000    0.7995450000000000 C
   0.5993860000000000    0.9198875000000000    0.9518599999999999 C
   0.5987880000000001    0.8328225000000000    0.9512200000000000 C
   0.6006220000000001    0.8300875000000000    0.0481600000000000 C
   0.6012320000000001    0.9171475000000000    0.0488350000000000 C
   0.9350680000000000    0.7516699999999999    0.2993700000000000 C
   0.9349340000000000    0.7496975000000000    0.2004500000000000 C
   0.8649420000000001    0.7483800000000000    0.2006550000000000 C
   0.8650800000000001    0.7503275000000000    0.2995450000000000 C
   0.9993860000000001    0.9198875000000000    0.4518600000000000 C
   0.9987880000000000    0.8328225000000000    0.4512200000000000 C
   0.0006220000000000    0.8300875000000000    0.5481600000000000 C
   0.0012320000000000    0.9171475000000000    0.5488350000000000 C
   0.1350680000000000    0.0016700000000000    0.7993700000000000 C
   0.1349340000000000    0.9996975000000000    0.7004500000000000 C
   0.0649420000000000    0.9983800000000000    0.7006550000000000 C
   0.0650800000000000    0.0003275000000000    0.7995450000000000 C
   0.1993860000000000    0.1698875000000000    0.9518599999999999 C
   0.1987880000000000    0.0828225000000000    0.9512200000000000 C
   0.2006220000000000    0.0800875000000000    0.0481600000000000 C
   0.2012320000000000    0.1671475000000000    0.0488350000000000 C
   0.5350680000000001    0.5016699999999999    0.7993700000000000 C
   0.5349340000000000    0.4996975000000000    0.7004500000000000 C
   0.4649420000000000    0.4983800000000000    0.7006550000000000 C
   0.4650800000000000    0.5003275000000000    0.7995450000000000 C
   0.5993860000000000    0.6698875000000000    0.9518599999999999 C
   0.5987880000000001    0.5828225000000000    0.9512200000000000 C
   0.6006220000000001    0.5800875000000000    0.0481600000000000 C
   0.6012320000000001    0.6671475000000000    0.0488350000000000 C
   0.3350680000000000    0.2516700000000000    0.2993700000000000 C
   0.3349340000000000    0.2496975000000000    0.2004500000000000 C
   0.2649420000000000    0.2483800000000000    0.2006550000000000 C
   0.2650800000000000    0.2503275000000000    0.2995450000000000 C
   0.3993860000000000    0.4198875000000000    0.4518600000000000 C
   0.3987880000000000    0.3328225000000000    0.4512200000000000 C
   0.4006220000000000    0.3300875000000000    0.5481600000000000 C
   0.4012320000000000    0.4171475000000000    0.5488350000000000 C
   0.7350680000000001    0.0016700000000000    0.7993700000000000 C
   0.7349340000000001    0.9996975000000000    0.7004500000000000 C
   0.6649420000000001    0.9983800000000000    0.7006550000000000 C
   0.6650800000000001    0.0003275000000000    0.7995450000000000 C
   0.7993860000000002    0.1698875000000000    0.9518599999999999 C
   0.7987880000000001    0.0828225000000000    0.9512200000000000 C
   0.8006220000000001    0.0800875000000000    0.0481600000000000 C
   0.8012320000000001    0.1671475000000000    0.0488350000000000 C
   0.3350680000000000    0.5016699999999999    0.7993700000000000 C
   0.3349340000000000    0.4996975000000000    0.7004500000000000 C
   0.2649420000000000    0.4983800000000000    0.7006550000000000 C
   0.2650800000000000    0.5003275000000000    0.7995450000000000 C
   0.3993860000000000    0.6698875000000000    0.9518599999999999 C
   0.3987880000000000    0.5828225000000000    0.9512200000000000 C
   0.4006220000000000    0.5800875000000000    0.0481600000000000 C
   0.4012320000000000    0.6671475000000000    0.0488350000000000 C
   0.5350680000000001    0.7516699999999999    0.2993700000000000 C
   0.5349340000000000    0.7496975000000000    0.2004500000000000 C
   0.4649420000000000    0.7483800000000000    0.2006550000000000 C
   0.4650800000000000    0.7503275000000000    0.2995450000000000 C
   0.5993860000000000    0.9198875000000000    0.4518600000000000 C
   0.5987880000000001    0.8328225000000000    0.4512200000000000 C
   0.6006220000000001    0.8300875000000000    0.5481600000000000 C
   0.6012320000000001    0.9171475000000000    0.5488350000000000 C
   0.7350680000000001    0.7516699999999999    0.2993700000000000 C
   0.7349340000000001    0.7496975000000000    0.2004500000000000 C
   0.6649420000000001    0.7483800000000000    0.2006550000000000 C
   0.6650800000000001    0.7503275000000000    0.2995450000000000 C
   0.7993860000000002    0.9198875000000000    0.4518600000000000 C
   0.7987880000000001    0.8328225000000000    0.4512200000000000 C
   0.8006220000000001    0.8300875000000000    0.5481600000000000 C
   0.8012320000000001    0.9171475000000000    0.5488350000000000 C
   0.1350680000000000    0.2516700000000000    0.2993700000000000 C
   0.1349340000000000    0.2496975000000000    0.2004500000000000 C
   0.0649420000000000    0.2483800000000000    0.2006550000000000 C
   0.0650800000000000    0.2503275000000000    0.2995450000000000 C
   0.1993860000000000    0.4198875000000000    0.4518600000000000 C
   0.1987880000000000    0.3328225000000000    0.4512200000000000 C
   0.2006220000000000    0.3300875000000000    0.5481600000000000 C
   0.2012320000000000    0.4171475000000000    0.5488350000000000 C
   0.9350680000000000    0.0016700000000000    0.7993700000000000 C
   0.9349340000000000    0.9996975000000000    0.7004500000000000 C
   0.8649420000000001    0.9983800000000000    0.7006550000000000 C
   0.8650800000000001    0.0003275000000000    0.7995450000000000 C
   0.9993860000000001    0.1698875000000000    0.9518599999999999 C
   0.9987880000000000    0.0828225000000000    0.9512200000000000 C
   0.0006220000000000    0.0800875000000000    0.0481600000000000 C
   0.0012320000000000    0.1671475000000000    0.0488350000000000 C
   0.9350680000000000    0.2516700000000000    0.2993700000000000 C
   0.9349340000000000    0.2496975000000000    0.2004500000000000 C
   0.8649420000000001    0.2483800000000000    0.2006550000000000 C
   0.8650800000000001    0.2503275000000000    0.2995450000000000 C
   0.9993860000000001    0.4198875000000000    0.4518600000000000 C
   0.9987880000000000    0.3328225000000000    0.4512200000000000 C
   0.0006220000000000    0.3300875000000000    0.5481600000000000 C
   0.0012320000000000    0.4171475000000000    0.5488350000000000 C
   0.1350680000000000    0.5016699999999999    0.7993700000000000 C
   0.1349340000000000    0.4996975000000000    0.7004500000000000 C
   0.0649420000000000    0.4983800000000000    0.7006550000000000 C
   0.0650800000000000    0.5003275000000000    0.7995450000000000 C
   0.1993860000000000    0.6698875000000000    0.9518599999999999 C
   0.1987880000000000    0.5828225000000000    0.9512200000000000 C
   0.2006220000000000    0.5800875000000000    0.0481600000000000 C
   0.2012320000000000    0.6671475000000000    0.0488350000000000 C
   0.5350680000000001    0.0016700000000000    0.7993700000000000 C
   0.5349340000000000    0.9996975000000000    0.7004500000000000 C
   0.4649420000000000    0.9983800000000000    0.7006550000000000 C
   0.4650800000000000    0.0003275000000000    0.7995450000000000 C
   0.5993860000000000    0.1698875000000000    0.9518599999999999 C
   0.5987880000000001    0.0828225000000000    0.9512200000000000 C
   0.6006220000000001    0.0800875000000000    0.0481600000000000 C
   0.6012320000000001    0.1671475000000000    0.0488350000000000 C
   0.3350680000000000    0.7516699999999999    0.2993700000000000 C
   0.3349340000000000    0.7496975000000000    0.2004500000000000 C
   0.2649420000000000    0.7483800000000000    0.2006550000000000 C
   0.2650800000000000    0.7503275000000000    0.2995450000000000 C
   0.3993860000000000    0.9198875000000000    0.4518600000000000 C
   0.3987880000000000    0.8328225000000000    0.4512200000000000 C
   0.4006220000000000    0.8300875000000000    0.5481600000000000 C
   0.4012320000000000    0.9171475000000000    0.5488350000000000 C
   0.7350680000000001    0.5016699999999999    0.7993700000000000 C
   0.7349340000000001    0.4996975000000000    0.7004500000000000 C