Zn16 H124 C230 S32 N14 O66
1.0
  26.7961176409323087    0.0000000000000000   -7.8347178234647563
  -4.8176866120591821   13.3260084152870881   -1.7840738279800636
   0.0000000000000000    0.0000000000000000   28.5880000000000010
Zn H C S N O
16 124 230 32 14 66
direct
   0.0694350000000000    0.6251300000000000    0.6689150000000000 Zn
   0.6802250000000000    0.6623800000000000    0.6871400000000000 Zn
   0.1802250000000000    0.6623800000000000    0.6871400000000000 Zn
   0.5694350000000000    0.6251300000000000    0.6689150000000000 Zn
   0.6802250000000000    0.6623800000000000    0.1871400000000000 Zn
   0.0694350000000000    0.6251300000000000    0.1689150000000000 Zn
   0.1802250000000000    0.6623800000000000    0.1871400000000000 Zn
   0.5694350000000000    0.6251300000000000    0.1689150000000000 Zn
   0.8197800000000000    0.3376100000000000    0.8128500000000001 Zn
   0.4305700000000000    0.3748700000000000    0.8310800000000000 Zn
   0.3197800000000000    0.3376100000000000    0.8128500000000001 Zn
   0.9305700000000000    0.3748700000000000    0.8310800000000000 Zn
   0.8197800000000000    0.3376100000000000    0.3128500000000000 Zn
   0.4305700000000000    0.3748700000000000    0.3310800000000000 Zn
   0.3197800000000000    0.3376100000000000    0.3128500000000000 Zn
   0.9305700000000000    0.3748700000000000    0.3310800000000000 Zn
   0.9845460546806647    0.6072941500516543    0.6981995421836990 H
   0.9715154855832698    0.6402781677499738    0.6427000290109360 H
   0.2354700000000000    0.6791800000000000    0.3623200000000000 H
   0.2172500000000000    0.6637500000000000    0.4471600000000000 H
   0.0094550000000000    0.5845100000000000    0.4927450000000000 H
   0.0253700000000000    0.5940600000000000    0.4070800000000000 H
   0.7785274385129277    0.7151884819413720    0.6795125200866393 H
   0.7649905901694978    0.6043728554836227    0.6964984671398275 H
   0.5138400000000000    0.2727200000000000    0.6603000000000000 H
   0.5325500000000000    0.1037800000000000    0.6687350000000000 H
   0.7408399999999999    0.0171400000000000    0.7082300000000000 H
   0.7246350000000000    0.1880100000000000    0.7032350000000001 H
   0.0138400000000000    0.2727200000000000    0.6603000000000000 H
   0.0325500000000000    0.1037800000000000    0.6687350000000000 H
   0.2408400000000000    0.0171400000000000    0.7082300000000000 H
   0.2246350000000000    0.1880100000000000    0.7032350000000001 H
   0.3899500000000000    0.6776400000000000    0.6047500000000000 H
   0.4237000000000000    0.5913600000000000    0.7470400000000000 H
   0.4756800000000000    0.6607499999999999    0.6008150000000000 H
   0.5085750000000000    0.5829500000000000    0.7380150000000000 H
   0.3605100000000000    0.7906600000000000    0.6606150000000000 H
   0.3254450000000000    0.5065499999999999    0.7050550000000000 H
   0.2747450000000000    0.7989200000000000    0.6688950000000000 H
   0.2405750000000000    0.5249100000000000    0.7089850000000000 H
   0.7354700000000001    0.6791800000000000    0.3623200000000000 H
   0.7172499999999999    0.6637500000000000    0.4471600000000000 H
   0.5094550000000000    0.5845100000000000    0.4927450000000000 H
   0.5253700000000000    0.5940600000000000    0.4070800000000000 H
   0.5138400000000000    0.2727200000000000    0.1603000000000000 H
   0.5325500000000000    0.1037800000000000    0.1687350000000000 H
   0.7408399999999999    0.0171400000000000    0.2082300000000000 H
   0.7246350000000000    0.1880100000000000    0.2032350000000000 H
   0.8899500000000000    0.6776400000000000    0.1047500000000000 H
   0.9237000000000000    0.5913600000000000    0.2470400000000000 H
   0.9756800000000000    0.6607499999999999    0.1008150000000000 H
   0.0085750000000000    0.5829500000000000    0.2380150000000000 H
   0.8605100000000000    0.7906600000000000    0.1606150000000000 H
   0.8254450000000000    0.5065499999999999    0.2050550000000000 H
   0.7747450000000000    0.7989200000000000    0.1688950000000000 H
   0.7405750000000000    0.5249100000000000    0.2089850000000000 H
   0.2354700000000000    0.6791800000000000    0.8623200000000000 H
   0.2172500000000000    0.6637500000000000    0.9471600000000000 H
   0.0094550000000000    0.5845100000000000    0.9927450000000000 H
   0.0253700000000000    0.5940600000000000    0.9070800000000000 H
   0.0138400000000000    0.2727200000000000    0.1603000000000000 H
   0.0325500000000000    0.1037800000000000    0.1687350000000000 H
   0.2408400000000000    0.0171400000000000    0.2082300000000000 H
   0.2246350000000000    0.1880100000000000    0.2032350000000000 H
   0.3899500000000000    0.6776400000000000    0.1047500000000000 H
   0.4237000000000000    0.5913600000000000    0.2470400000000000 H
   0.4756800000000000    0.6607499999999999    0.1008150000000000 H
   0.5085750000000000    0.5829500000000000    0.2380150000000000 H
   0.3605100000000000    0.7906600000000000    0.1606150000000000 H
   0.3254450000000000    0.5065499999999999    0.2050550000000000 H
   0.2747450000000000    0.7989200000000000    0.1688950000000000 H
   0.2405750000000000    0.5249100000000000    0.2089850000000000 H
   0.7354700000000001    0.6791800000000000    0.8623200000000000 H
   0.7172499999999999    0.6637500000000000    0.9471600000000000 H
   0.5094550000000000    0.5845100000000000    0.9927450000000000 H
   0.5253700000000000    0.5940600000000000    0.9070800000000000 H
   0.9861650000000000    0.7272800000000000    0.8396950000000001 H
   0.9674550000000000    0.8962200000000000    0.8312600000000000 H
   0.7591650000000000    0.9828600000000000    0.7917650000000001 H
   0.7753650000000001    0.8119800000000000    0.7967550000000000 H
   0.6100550000000000    0.3223600000000000    0.8952450000000001 H
   0.5763000000000000    0.4086300000000000    0.7529500000000000 H
   0.5243250000000000    0.3392600000000000    0.8991800000000000 H
   0.4914250000000000    0.4170500000000000    0.7619750000000001 H
   0.6395000000000000    0.2093500000000000    0.8393850000000000 H
   0.6745600000000000    0.4934400000000000    0.7949349999999999 H
   0.7252600000000000    0.2010900000000000    0.8311050000000000 H
   0.7594250000000000    0.4750900000000000    0.7909999999999999 H
   0.2645350000000000    0.3208100000000000    0.1376700000000000 H
   0.2827550000000000    0.3362300000000000    0.0528300000000000 H
   0.4905500000000000    0.4154900000000000    0.0072500000000000 H
   0.4746350000000000    0.4059400000000000    0.0929150000000000 H
   0.4861650000000000    0.7272800000000000    0.8396950000000001 H
   0.4674550000000000    0.8962200000000000    0.8312600000000000 H
   0.2591650000000000    0.9828600000000000    0.7917650000000001 H
   0.2753650000000000    0.8119800000000000    0.7967550000000000 H
   0.1100550000000000    0.3223600000000000    0.8952450000000001 H
   0.0763000000000000    0.4086300000000000    0.7529500000000000 H
   0.0243250000000000    0.3392600000000000    0.8991800000000000 H
   0.9914250000000000    0.4170500000000000    0.7619750000000001 H
   0.1395000000000000    0.2093500000000000    0.8393850000000000 H
   0.1745600000000000    0.4934400000000000    0.7949349999999999 H
   0.2252600000000000    0.2010900000000000    0.8311050000000000 H
   0.2594250000000000    0.4750900000000000    0.7909999999999999 H
   0.7645350000000000    0.3208100000000000    0.1376700000000000 H
   0.7827550000000000    0.3362300000000000    0.0528300000000000 H
   0.9905500000000000    0.4154900000000000    0.0072500000000000 H
   0.9746349999999999    0.4059400000000000    0.0929150000000000 H
   0.9861650000000000    0.7272800000000000    0.3396950000000000 H
   0.9674550000000000    0.8962200000000000    0.3312600000000000 H
   0.7591650000000000    0.9828600000000000    0.2917650000000000 H
   0.7753650000000001    0.8119800000000000    0.2967550000000000 H
   0.6100550000000000    0.3223600000000000    0.3952450000000000 H
   0.5763000000000000    0.4086300000000000    0.2529500000000000 H
   0.5243250000000000    0.3392600000000000    0.3991800000000000 H
   0.4914250000000000    0.4170500000000000    0.2619750000000000 H
   0.6395000000000000    0.2093500000000000    0.3393850000000000 H
   0.6745600000000000    0.4934400000000000    0.2949350000000000 H
   0.7252600000000000    0.2010900000000000    0.3311050000000000 H
   0.7594250000000000    0.4750900000000000    0.2910000000000000 H
   0.2645350000000000    0.3208100000000000    0.6376700000000000 H
   0.2827550000000000    0.3362300000000000    0.5528300000000000 H
   0.4905500000000000    0.4154900000000000    0.5072500000000000 H
   0.4746350000000000    0.4059400000000000    0.5929150000000000 H
   0.4861650000000000    0.7272800000000000    0.3396950000000000 H
   0.4674550000000000    0.8962200000000000    0.3312600000000000 H
   0.2591650000000000    0.9828600000000000    0.2917650000000000 H
   0.2753650000000000    0.8119800000000000    0.2967550000000000 H
   0.1100550000000000    0.3223600000000000    0.3952450000000000 H
   0.0763000000000000    0.4086300000000000    0.2529500000000000 H
   0.0243250000000000    0.3392600000000000    0.3991800000000000 H
   0.9914250000000000    0.4170500000000000    0.2619750000000000 H
   0.1395000000000000    0.2093500000000000    0.3393850000000000 H
   0.1745600000000000    0.4934400000000000    0.2949350000000000 H
   0.2252600000000000    0.2010900000000000    0.3311050000000000 H
   0.2594250000000000    0.4750900000000000    0.2910000000000000 H
   0.7645350000000000    0.3208100000000000    0.6376700000000000 H
   0.7827550000000000    0.3362300000000000    0.5528300000000000 H
   0.9905500000000000    0.4154900000000000    0.5072500000000000 H
   0.9746349999999999    0.4059400000000000    0.5929150000000000 H
   0.1020300000000000    0.6271800000000000    0.5815250000000000 C
   0.1463100000000000    0.6602400000000000    0.2755350000000000 C
   0.1973350000000000    0.6699600000000000    0.3674350000000000 C
   0.1526950000000000    0.6632200000000000    0.3286800000000000 C
   0.1874150000000000    0.6617200000000000    0.4126500000000000 C
   0.1348950000000000    0.6487800000000000    0.4088950000000000 C
   0.0483500000000000    0.6042400000000000    0.4884250000000000 C
   0.0946250000000000    0.6252600000000000    0.5281900000000000 C
   0.0572000000000000    0.6099900000000000    0.4425200000000000 C
   0.1107300000000000    0.6362000000000000    0.4472250000000000 C
   0.6481650000000000    0.8374800000000000    0.6868900000000000 C
   0.6028650000000000    0.4479700000000000    0.6689050000000000 C
   0.5520800000000000    0.2633200000000000    0.6648650000000000 C
   0.5966200000000000    0.3416500000000000    0.6678400000000000 C
   0.5622700000000000    0.1733200000000000    0.6694100000000001 C
   0.6148950000000000    0.1820000000000000    0.6757900000000000 C
   0.7018650000000000    0.0249000000000000    0.6983699999999999 C
   0.6556250000000000    0.9443900000000000    0.6878950000000000 C
   0.6928600000000000    0.1165000000000000    0.6953700000000000 C
   0.6392700000000000    0.1059800000000000    0.6822850000000000 C
   0.1481650000000000    0.8374800000000000    0.6868900000000000 C
   0.1028650000000000    0.4479700000000000    0.6689050000000000 C
   0.0520800000000000    0.2633200000000000    0.6648650000000000 C
   0.0966200000000000    0.3416500000000000    0.6678400000000000 C
   0.0622700000000000    0.1733200000000000    0.6694100000000001 C
   0.1148950000000000    0.1820000000000000    0.6757900000000000 C
   0.2018650000000000    0.0249000000000000    0.6983699999999999 C
   0.1556250000000000    0.9443900000000000    0.6878950000000000 C
   0.1928600000000000    0.1165000000000000    0.6953700000000000 C
   0.1392700000000000    0.1059800000000000    0.6822850000000000 C
   0.4151750000000000    0.6568500000000000    0.6352949999999999 C
   0.4333100000000000    0.6075900000000000    0.7139350000000000 C
   0.4625500000000000    0.6474000000000000    0.6326300000000000 C
   0.4805250000000000    0.6019300000000000    0.7091350000000000 C
   0.3998300000000000    0.6371599999999999    0.6768050000000000 C
   0.3349800000000000    0.7297200000000000    0.6712400000000001 C
   0.3161150000000000    0.5727100000000001    0.6965749999999999 C
   0.2875950000000000    0.7352800000000000    0.6758800000000000 C
   0.2689200000000000    0.5825300000000000    0.6992950000000000 C
   0.3499700000000000    0.6467300000000000    0.6815000000000000 C
   0.6020300000000000    0.6271800000000000    0.5815250000000000 C
   0.6463099999999999    0.6602400000000000    0.2755350000000000 C
   0.6973350000000000    0.6699600000000000    0.3674350000000000 C
   0.6526950000000000    0.6632200000000000    0.3286800000000000 C
   0.6874150000000000    0.6617200000000000    0.4126500000000000 C
   0.6348950000000000    0.6487800000000000    0.4088950000000000 C
   0.5483500000000000    0.6042400000000000    0.4884250000000000 C
   0.5946250000000000    0.6252600000000000    0.5281900000000000 C
   0.5572000000000000    0.6099900000000000    0.4425200000000000 C
   0.6107300000000000    0.6362000000000000    0.4472250000000000 C
   0.6481650000000000    0.8374800000000000    0.1868900000000000 C
   0.6028650000000000    0.4479700000000000    0.1689050000000000 C
   0.5520800000000000    0.2633200000000000    0.1648650000000000 C
   0.5966200000000000    0.3416500000000000    0.1678400000000000 C
   0.5622700000000000    0.1733200000000000    0.1694100000000000 C
   0.6148950000000000    0.1820000000000000    0.1757900000000000 C
   0.7018650000000000    0.0249000000000000    0.1983700000000000 C
   0.6556250000000000    0.9443900000000000    0.1878950000000000 C
   0.6928600000000000    0.1165000000000000    0.1953700000000000 C
   0.6392700000000000    0.1059800000000000    0.1822850000000000 C
   0.9151750000000001    0.6568500000000000    0.1352950000000000 C
   0.9333100000000000    0.6075900000000000    0.2139350000000000 C
   0.9625500000000000    0.6474000000000000    0.1326300000000000 C
   0.9805250000000000    0.6019300000000000    0.2091350000000000 C
   0.8998300000000000    0.6371599999999999    0.1768050000000000 C
   0.8349800000000001    0.7297200000000000    0.1712400000000000 C
   0.8161149999999999    0.5727100000000001    0.1965750000000000 C
   0.7875950000000000    0.7352800000000000    0.1758800000000000 C
   0.7689200000000000    0.5825300000000000    0.1992950000000000 C
   0.8499700000000000    0.6467300000000000    0.1815000000000000 C
   0.1020300000000000    0.6271800000000000    0.0815250000000000 C
   0.1463100000000000    0.6602400000000000    0.7755350000000000 C
   0.1973350000000000    0.6699600000000000    0.8674350000000000 C
   0.1526950000000000    0.6632200000000000    0.8286800000000001 C
   0.1874150000000000    0.6617200000000000    0.9126500000000000 C
   0.1348950000000000    0.6487800000000000    0.9088950000000000 C
   0.0483500000000000    0.6042400000000000    0.9884250000000000 C
   0.0946250000000000    0.6252600000000000    0.0281900000000000 C
   0.0572000000000000    0.6099900000000000    0.9425200000000000 C
   0.1107300000000000    0.6362000000000000    0.9472250000000000 C
   0.1481650000000000    0.8374800000000000    0.1868900000000000 C
   0.1028650000000000    0.4479700000000000    0.1689050000000000 C
   0.0520800000000000    0.2633200000000000    0.1648650000000000 C
   0.0966200000000000    0.3416500000000000    0.1678400000000000 C
   0.0622700000000000    0.1733200000000000    0.1694100000000000 C
   0.1148950000000000    0.1820000000000000    0.1757900000000000 C
   0.2018650000000000    0.0249000000000000    0.1983700000000000 C
   0.1556250000000000    0.9443900000000000    0.1878950000000000 C
   0.1928600000000000    0.1165000000000000    0.1953700000000000 C
   0.1392700000000000    0.1059800000000000    0.1822850000000000 C
   0.4151750000000000    0.6568500000000000    0.1352950000000000 C
   0.4333100000000000    0.6075900000000000    0.2139350000000000 C
   0.4625500000000000    0.6474000000000000    0.1326300000000000 C
   0.4805250000000000    0.6019300000000000    0.2091350000000000 C
   0.3998300000000000    0.6371599999999999    0.1768050000000000 C
   0.3349800000000000    0.7297200000000000    0.1712400000000000 C
   0.3161150000000000    0.5727100000000001    0.1965750000000000 C
   0.2875950000000000    0.7352800000000000    0.1758800000000000 C
   0.2689200000000000    0.5825300000000000    0.1992950000000000 C
   0.3499700000000000    0.6467300000000000    0.1815000000000000 C
   0.6020300000000000    0.6271800000000000    0.0815250000000000 C
   0.6463099999999999    0.6602400000000000    0.7755350000000000 C
   0.6973350000000000    0.6699600000000000    0.8674350000000000 C
   0.6526950000000000    0.6632200000000000    0.8286800000000001 C
   0.6874150000000000    0.6617200000000000    0.9126500000000000 C
   0.6348950000000000    0.6487800000000000    0.9088950000000000 C
   0.5483500000000000    0.6042400000000000    0.9884250000000000 C
   0.5946250000000000    0.6252600000000000    0.0281900000000000 C
   0.5572000000000000    0.6099900000000000    0.9425200000000000 C
   0.6107300000000000    0.6362000000000000    0.9472250000000000 C
   0.8518399999999999    0.1625200000000000    0.8130999999999999 C
   0.8971400000000000    0.5520200000000000    0.8310800000000000 C
   0.9479250000000000    0.7366700000000000    0.8351250000000000 C
   0.9033850000000000    0.6583500000000000    0.8321550000000000 C
   0.9377350000000000    0.8266700000000000    0.8305850000000000 C
   0.8851100000000001    0.8179999999999999    0.8242000000000000 C
   0.7981400000000001    0.9751000000000000    0.8016250000000000 C
   0.8443800000000000    0.0556100000000000    0.8120950000000000 C
   0.8071450000000000    0.8835000000000000    0.8046200000000000 C
   0.8607350000000000    0.8940200000000000    0.8177099999999999 C
   0.5848350000000000    0.3431800000000000    0.8647050000000001 C
   0.5667000000000000    0.3924300000000000    0.7860600000000000 C
   0.5374500000000000    0.3525900000000000    0.8673600000000000 C
   0.5194750000000000    0.3980600000000000    0.7908550000000000 C
   0.6001650000000001    0.3628100000000000    0.8231800000000000 C
   0.6650199999999999    0.2702700000000000    0.8287450000000001 C
   0.6838800000000000    0.4272700000000000    0.8034000000000000 C
   0.7124150000000000    0.2647300000000000    0.8241250000000000 C
   0.7310850000000000    0.4174700000000000    0.8006949999999999 C
   0.6500450000000000    0.3532900000000000    0.8185100000000001 C
   0.3979750000000000    0.3728200000000000    0.9184650000000000 C
   0.3536950000000000    0.3397700000000000    0.2244600000000000 C
   0.3026700000000000    0.3300300000000000    0.1325600000000000 C
   0.3473050000000000    0.3367700000000000    0.1713100000000000 C
   0.3125850000000000    0.3382700000000000    0.0873400000000000 C
   0.3651100000000000    0.3512100000000000    0.0910950000000000 C
   0.4516550000000000    0.3957500000000000    0.0115700000000000 C
   0.4053800000000000    0.3747300000000000    0.9718000000000000 C
   0.4428050000000000    0.3900100000000000    0.0574750000000000 C
   0.3892750000000000    0.3637900000000000    0.0527700000000000 C
   0.3518400000000000    0.1625200000000000    0.8130999999999999 C
   0.3971400000000000    0.5520200000000000    0.8310800000000000 C
   0.4479250000000000    0.7366700000000000    0.8351250000000000 C
   0.4033850000000000    0.6583500000000000    0.8321550000000000 C
   0.4377350000000000    0.8266700000000000    0.8305850000000000 C
   0.3851100000000000    0.8179999999999999    0.8242000000000000 C
   0.2981400000000000    0.9751000000000000    0.8016250000000000 C
   0.3443800000000000    0.0556100000000000    0.8120950000000000 C
   0.3071450000000000    0.8835000000000000    0.8046200000000000 C
   0.3607350000000000    0.8940200000000000    0.8177099999999999 C
   0.0848350000000000    0.3431800000000000    0.8647050000000001 C
   0.0667000000000000    0.3924300000000000    0.7860600000000000 C
   0.0374500000000000    0.3525900000000000    0.8673600000000000 C
   0.0194750000000000    0.3980600000000000    0.7908550000000000 C
   0.1001650000000000    0.3628100000000000    0.8231800000000000 C
   0.1650200000000000    0.2702700000000000    0.8287450000000001 C
   0.1838800000000000    0.4272700000000000    0.8034000000000000 C
   0.2124150000000000    0.2647300000000000    0.8241250000000000 C
   0.2310850000000000    0.4174700000000000    0.8006949999999999 C
   0.1500450000000000    0.3532900000000000    0.8185100000000001 C
   0.8979750000000000    0.3728200000000000    0.9184650000000000 C
   0.8536950000000000    0.3397700000000000    0.2244600000000000 C
   0.8026700000000000    0.3300300000000000    0.1325600000000000 C
   0.8473050000000000    0.3367700000000000    0.1713100000000000 C
   0.8125850000000000    0.3382700000000000    0.0873400000000000 C
   0.8651100000000000    0.3512100000000000    0.0910950000000000 C
   0.9516549999999999    0.3957500000000000    0.0115700000000000 C
   0.9053800000000001    0.3747300000000000    0.9718000000000000 C
   0.9428050000000000    0.3900100000000000    0.0574750000000000 C
   0.8892750000000000    0.3637900000000000    0.0527700000000000 C
   0.8518399999999999    0.1625200000000000    0.3131000000000000 C
   0.8971400000000000    0.5520200000000000    0.3310800000000000 C
   0.9479250000000000    0.7366700000000000    0.3351250000000000 C
   0.9033850000000000    0.6583500000000000    0.3321550000000000 C
   0.9377350000000000    0.8266700000000000    0.3305850000000000 C
   0.8851100000000001    0.8179999999999999    0.3242000000000000 C
   0.7981400000000001    0.9751000000000000    0.3016250000000000 C
   0.8443800000000000    0.0556100000000000    0.3120950000000000 C
   0.8071450000000000    0.8835000000000000    0.3046200000000000 C
   0.8607350000000000    0.8940200000000000    0.3177100000000000 C
   0.5848350000000000    0.3431800000000000    0.3647050000000000 C
   0.5667000000000000    0.3924300000000000    0.2860600000000000 C
   0.5374500000000000    0.3525900000000000    0.3673600000000000 C
   0.5194750000000000    0.3980600000000000    0.2908550000000000 C
   0.6001650000000001    0.3628100000000000    0.3231800000000000 C
   0.6650199999999999    0.2702700000000000    0.3287450000000000 C
   0.6838800000000000    0.4272700000000000    0.3034000000000000 C
   0.7124150000000000    0.2647300000000000    0.3241250000000000 C
   0.7310850000000000    0.4174700000000000    0.3006950000000000 C
   0.6500450000000000    0.3532900000000000    0.3185100000000000 C
   0.3979750000000000    0.3728200000000000    0.4184650000000000 C
   0.3536950000000000    0.3397700000000000    0.7244600000000000 C
   0.3026700000000000    0.3300300000000000    0.6325600000000000 C
   0.3473050000000000    0.3367700000000000    0.6713100000000000 C
   0.3125850000000000    0.3382700000000000    0.5873400000000000 C
   0.3651100000000000    0.3512100000000000    0.5910950000000000 C
   0.4516550000000000    0.3957500000000000    0.5115700000000000 C
   0.4053800000000000    0.3747300000000000    0.4718000000000000 C
   0.4428050000000000    0.3900100000000000    0.5574749999999999 C
   0.3892750000000000    0.3637900000000000    0.5527700000000000 C
   0.3518400000000000    0.1625200000000000    0.3131000000000000 C
   0.3971400000000000    0.5520200000000000    0.3310800000000000 C
   0.4479250000000000    0.7366700000000000    0.3351250000000000 C
   0.4033850000000000    0.6583500000000000    0.3321550000000000 C
   0.4377350000000000    0.8266700000000000    0.3305850000000000 C
   0.3851100000000000    0.8179999999999999    0.3242000000000000 C
   0.2981400000000000    0.9751000000000000    0.3016250000000000 C
   0.3443800000000000    0.0556100000000000    0.3120950000000000 C
   0.3071450000000000    0.8835000000000000    0.3046200000000000 C
   0.3607350000000000    0.8940200000000000    0.3177100000000000 C
   0.0848350000000000    0.3431800000000000    0.3647050000000000 C
   0.0667000000000000    0.3924300000000000    0.2860600000000000 C
   0.0374500000000000    0.3525900000000000    0.3673600000000000 C
   0.0194750000000000    0.3980600000000000    0.2908550000000000 C
   0.1001650000000000    0.3628100000000000    0.3231800000000000 C
   0.1650200000000000    0.2702700000000000    0.3287450000000000 C
   0.1838800000000000    0.4272700000000000    0.3034000000000000 C
   0.2124150000000000    0.2647300000000000    0.3241250000000000 C
   0.2310850000000000    0.4174700000000000    0.3006950000000000 C
   0.1500450000000000    0.3532900000000000    0.3185100000000000 C
   0.8979750000000000    0.3728200000000000    0.4184650000000000 C
   0.8536950000000000    0.3397700000000000    0.7244600000000000 C
   0.8026700000000000    0.3300300000000000    0.6325600000000000 C
   0.8473050000000000    0.3367700000000000    0.6713100000000000 C
   0.8125850000000000    0.3382700000000000    0.5873400000000000 C
   0.8651100000000000    0.3512100000000000    0.5910950000000000 C
   0.9516549999999999    0.3957500000000000    0.5115700000000000 C
   0.9053800000000001    0.3747300000000000    0.4718000000000000 C
   0.9428050000000000    0.3900100000000000    0.5574749999999999 C
   0.8892750000000000    0.3637900000000000    0.5527700000000000 C
   0.1497150000000000    0.6533600000000001    0.5090150000000000 S
   0.0983250000000000    0.6486100000000000    0.3486600000000000 S
   0.6004100000000000    0.9816100000000000    0.6738649999999999 S
   0.6512300000000000    0.3030100000000000    0.6752850000000000 S
   0.1004100000000000    0.9816100000000000    0.6738649999999999 S
   0.1512300000000000    0.3030100000000000    0.6752850000000000 S
   0.6497150000000000    0.6533600000000001    0.5090150000000000 S
   0.5983250000000000    0.6486100000000000    0.3486600000000000 S
   0.6004100000000000    0.9816100000000000    0.1738650000000000 S
   0.6512300000000000    0.3030100000000000    0.1752850000000000 S
   0.1497150000000000    0.6533600000000001    0.0090150000000000 S
   0.0983250000000000    0.6486100000000000    0.8486600000000000 S
   0.1004100000000000    0.9816100000000000    0.1738650000000000 S
   0.1512300000000000    0.3030100000000000    0.1752850000000000 S
   0.6497150000000000    0.6533600000000001    0.0090150000000000 S
   0.5983250000000000    0.6486100000000000    0.8486600000000000 S
   0.8995949999999999    0.0183900000000000    0.8261250000000000 S
   0.8487700000000000    0.6969900000000000    0.8247050000000000 S
   0.3502900000000000    0.3466400000000000    0.9909749999999999 S
   0.4016800000000000    0.3513900000000000    0.1513350000000000 S
   0.3995950000000000    0.0183900000000000    0.8261250000000000 S
   0.3487700000000000    0.6969900000000000    0.8247050000000000 S
   0.8502900000000000    0.3466400000000000    0.9909749999999999 S
   0.9016800000000000    0.3513900000000000    0.1513350000000000 S
   0.8995949999999999    0.0183900000000000    0.3261250000000000 S
   0.8487700000000000    0.6969900000000000    0.3247050000000000 S
   0.3502900000000000    0.3466400000000000    0.4909750000000000 S
   0.4016800000000000    0.3513900000000000    0.6513350000000000 S
   0.3995950000000000    0.0183900000000000    0.3261250000000000 S
   0.3487700000000000    0.6969900000000000    0.3247050000000000 S
   0.8502900000000000    0.3466400000000000    0.4909750000000000 S
   0.9016800000000000    0.3513900000000000    0.6513350000000000 S
   0.4951800000000000    0.6214800000000000    0.6692800000000000 N
   0.2545950000000000    0.6621600000000000    0.6891000000000000 N
   0.9951800000000000    0.6214800000000000    0.1692800000000000 N
   0.7545950000000000    0.6621600000000000    0.1891000000000000 N
   0.4951800000000000    0.6214800000000000    0.1692800000000000 N
   0.2545950000000000    0.6621600000000000    0.1891000000000000 N
   0.5048250000000000    0.3785300000000000    0.8307150000000000 N
   0.7454100000000000    0.3378300000000000    0.8108900000000000 N
   0.0048250000000000    0.3785300000000000    0.8307150000000000 N
   0.2454100000000000    0.3378300000000000    0.8108900000000000 N
   0.5048250000000000    0.3785300000000000    0.3307150000000000 N
   0.7454100000000000    0.3378300000000000    0.3108900000000000 N
   0.0048250000000000    0.3785300000000000    0.3307150000000000 N
   0.2454100000000000    0.3378300000000000    0.3108900000000000 N
   0.9951800000000000    0.6214800000000000    0.6692800000000000 O
   0.1498000000000000    0.6505100000000000    0.6104800000000000 O
   0.0604900000000000    0.6054800000000000    0.5942850000000000 O
   0.1870650000000000    0.6676400000000000    0.2623050000000000 O
   0.0996500000000000    0.6474500000000000    0.2466700000000000 O
   0.7545950000000000    0.6621600000000000    0.6891000000000000 O
   0.6003150000000000    0.7789800000000000    0.6753150000000000 O
   0.6896000000000000    0.8122200000000001    0.6974700000000000 O
   0.5620750000000000    0.4738500000000000    0.6652300000000000 O
   0.6495600000000000    0.5063100000000000    0.6750050000000000 O
   0.1003150000000000    0.7789800000000000    0.6753150000000000 O
   0.1896000000000000    0.8122200000000001    0.6974700000000000 O
   0.0620750000000000    0.4738500000000000    0.6652300000000000 O
   0.1495600000000000    0.5063100000000000    0.6750050000000000 O
   0.6497999999999999    0.6505100000000000    0.6104800000000000 O
   0.5604900000000000    0.6054800000000000    0.5942850000000000 O
   0.6870650000000000    0.6676400000000000    0.2623050000000000 O
   0.5996500000000000    0.6474500000000000    0.2466700000000000 O
   0.6003150000000000    0.7789800000000000    0.1753150000000000 O
   0.6896000000000000    0.8122200000000001    0.1974700000000000 O