H6 O4
1.0
  26.7961176409323087    0.0000000000000000   -7.8347178234647563
  -4.8176866120591821   13.3260084152870881   -1.7840738279800636
   0.0000000000000000    0.0000000000000000   28.5880000000000010
H O
6 4
direct
   0.8198319258943949    0.5142882192384929    0.8228310141708027 H
   0.9738361733318178    0.5689693239756192    0.8399413332931149 H
   0.8994025128248698    0.5520734869652064    0.8320478505050247 H
   0.9302692962144468    0.1991061420942684    0.8314923185140655 H
   0.7738598587567884    0.1436496363320827    0.7927371741981393 H
   0.8491626623451124    0.1600053285545577    0.8111542582544711 H
   0.8504450000000000    0.4936900000000000    0.8249900000000000 O
   0.9379299999999999    0.5261500000000000    0.8347650000000000 O
   0.8996900000000000    0.2210200000000000    0.8246800000000001 O
   0.8104050000000000    0.1877800000000000    0.8025200000000000 O
