H4 O2
1.0
  26.7961176409323087    0.0000000000000000   -7.8347178234647563
  -4.8176866120591821   13.3260084152870881   -1.7840738279800636
   0.0000000000000000    0.0000000000000000   28.5880000000000010
H O
4 2
direct
   0.7785274385129277    0.7151884819413720    0.6795125200866393 H
   0.7649905901694978    0.6043728554836227    0.6964984671398275 H
   0.9845460546806647    0.6072941500516543    0.6981995421836990 H
   0.9715154855832698    0.6402781677499738    0.6427000290109360 H
   0.7545950000000000    0.6621600000000000    0.6891000000000000 O
   0.9951800000000000    0.6214800000000000    0.6692800000000000 O
