H8 C10 N2
1.0
  26.7961176409323087    0.0000000000000000   -7.8347178234647563
  -4.8176866120591821   13.3260084152870881   -1.7840738279800636
   0.0000000000000000    0.0000000000000000   28.5880000000000010
H C N
8 10 2
direct
   0.0085750000000000    0.5829500000000000    0.7380150000000000 H
   0.8254450000000000    0.5065499999999999    0.7050550000000000 H
   0.7405750000000000    0.5249100000000000    0.7089850000000000 H
   0.8605100000000000    0.7906600000000000    0.6606150000000000 H
   0.7747450000000000    0.7989200000000000    0.6688950000000000 H
   0.9237000000000000    0.5913600000000000    0.7470400000000000 H
   0.8899500000000000    0.6776400000000000    0.6047500000000000 H
   0.9756800000000000    0.6607499999999999    0.6008150000000000 H
   0.8499700000000000    0.6467300000000000    0.6815000000000000 C
   0.8161149999999999    0.5727100000000001    0.6965749999999999 C
   0.7689200000000000    0.5825300000000000    0.6992950000000000 C
   0.8349800000000001    0.7297200000000000    0.6712400000000001 C
   0.7875950000000000    0.7352800000000000    0.6758800000000000 C
   0.8998300000000000    0.6371599999999999    0.6768050000000000 C
   0.9333100000000000    0.6075900000000000    0.7139350000000000 C
   0.9805250000000000    0.6019300000000000    0.7091350000000000 C
   0.9151750000000001    0.6568500000000000    0.6352949999999999 C
   0.9625500000000000    0.6474000000000000    0.6326300000000000 C
   0.7545950000000000    0.6621600000000000    0.6891000000000000 N
   0.9951800000000000    0.6214800000000000    0.6692800000000000 N
