Zn40 H58 C150 O144
1.0
  14.3569999650128608    0.0000000000000000   -0.0010023076820208
  -1.9761579199546899   15.1143590085190915    0.0007981216132787
   0.0000000000000000    0.0000000000000000   32.8100000000000023
Zn H C O
40 58 150 144
direct
   0.8475600000000000    0.1623100000000000    0.0033550000000000 Zn
   0.3433200000000000    0.9778800000000000    0.0624800000000000 Zn
   0.0934900000000000    0.4779600000000000    0.1875000000000000 Zn
   0.6524500000000000    0.8376300000000000    0.9966600000000000 Zn
   0.9022000000000000    0.3375800000000000    0.2533200000000000 Zn
   0.8433700000000000    0.9778400000000000    0.0624750000000000 Zn
   0.5935500000000000    0.4779400000000000    0.1874950000000000 Zn
   0.1524500000000000    0.8376900000000000    0.9966400000000000 Zn
   0.4022900000000000    0.3375900000000000    0.2532950000000000 Zn
   0.9065200000000000    0.5220399999999999    0.3124950000000000 Zn
   0.3475600000000000    0.1623800000000000    0.5033300000000001 Zn
   0.6566900000000000    0.0221200000000000    0.4375100000000000 Zn
   0.0978100000000000    0.6624200000000000    0.2466750000000000 Zn
   0.1566400000000000    0.0221500000000000    0.4375150000000000 Zn
   0.4064500000000000    0.5220500000000000    0.3125000000000000 Zn
   0.8475600000000000    0.1623100000000000    0.5033550000000000 Zn
   0.5977200000000000    0.6624100000000001    0.2465000000000000 Zn
   0.3433200000000000    0.9778800000000000    0.5624800000000000 Zn
   0.0934900000000000    0.4779600000000000    0.6875000000000000 Zn
   0.6524500000000000    0.8376300000000000    0.4966600000000000 Zn
   0.9022000000000000    0.3375800000000000    0.7533200000000000 Zn
   0.8433700000000000    0.9778400000000000    0.5624750000000001 Zn
   0.5935500000000000    0.4779400000000000    0.6874950000000000 Zn
   0.1524500000000000    0.8376900000000000    0.4966400000000000 Zn
   0.4022900000000000    0.3375900000000000    0.7532950000000000 Zn
   0.4064500000000000    0.5220500000000000    0.8125000000000000 Zn
   0.9065200000000000    0.5220399999999999    0.8124950000000000 Zn
   0.3475600000000000    0.1623800000000000    0.0033300000000000 Zn
   0.6566900000000000    0.0221200000000000    0.9375100000000001 Zn
   0.0978100000000000    0.6624200000000000    0.7466750000000000 Zn
   0.1566400000000000    0.0221500000000000    0.9375150000000000 Zn
   0.5977200000000000    0.6624100000000001    0.7464999999999999 Zn
   0.5000000000000000    0.0000000000000000    0.4999950000000000 Zn
   0.5000000000000000    0.0000000000000000    0.9999950000000000 Zn
   0.0000000000000000    0.0000000000000000    0.9999950000000000 Zn
   0.0000000000000000    0.0000000000000000    0.4999950000000000 Zn
   0.7500300000000000    0.5000000000000000    0.7499950000000000 Zn
   0.7500300000000000    0.5000000000000000    0.2499950000000000 Zn
   0.2499800000000000    0.5000000000000000    0.2500000000000000 Zn
   0.2499800000000000    0.5000000000000000    0.7500000000000000 Zn
   0.3303000000000000    0.0013000000000000    0.4819750000000000 H
   0.3303000000000000    0.0013000000000000    0.9819750000000000 H
   0.6697200000000000    0.9987100000000000    0.0180200000000000 H
   0.6697200000000000    0.9987100000000000    0.5180200000000000 H
   0.1696900000000000    0.9987600000000000    0.5180300000000000 H
   0.1696900000000000    0.9987600000000000    0.0180300000000000 H
   0.8303199999999999    0.0012400000000000    0.4819600000000000 H
   0.8303199999999999    0.0012400000000000    0.9819599999999999 H
   0.4195800000000000    0.4986800000000000    0.7319599999999999 H
   0.4195800000000000    0.4986800000000000    0.2319600000000000 H
   0.5804300000000000    0.5013100000000000    0.7680350000000000 H
   0.5804300000000000    0.5013100000000000    0.2680350000000000 H
   0.0804100000000000    0.5013400000000000    0.7680000000000000 H
   0.0804100000000000    0.5013400000000000    0.2680000000000000 H
   0.9196000000000000    0.4986500000000000    0.7319500000000000 H
   0.9196000000000000    0.4986500000000000    0.2319500000000000 H
   0.9353540983808837    0.2157877792725054    0.9408999584848908 H
   0.4546200000000000    0.1647100000000000    0.1465150000000000 H
   0.8000400000000000    0.2360800000000000    0.1373200000000000 H
   0.2047700000000000    0.6656900000000000    0.1036500000000000 H
   0.5503700000000000    0.7358200000000000    0.1125000000000000 H
   0.9544899999999999    0.1653200000000000    0.1463600000000000 H
   0.3000100000000000    0.2360800000000000    0.1373400000000000 H
   0.7050100000000000    0.6655000000000000    0.1036650000000000 H
   0.0505100000000000    0.7362400000000000    0.1125950000000000 H
   0.7952399999999999    0.3343300000000000    0.3963500000000000 H
   0.4496500000000000    0.2641800000000000    0.3874000000000000 H
   0.5453900000000000    0.8352800000000000    0.3534800000000000 H
   0.1999600000000000    0.7639200000000000    0.3626750000000000 H
   0.0455200000000000    0.8346600000000000    0.3536350000000000 H
   0.7000000000000000    0.7639300000000000    0.3626500000000000 H
   0.2950000000000000    0.3345000000000000    0.3963000000000000 H
   0.9495000000000000    0.2637500000000000    0.3874000000000000 H
   0.9577948958218472    0.2574126844212568    0.8141516393579022 H
   1.0685781532567731    0.4930696649996434    0.8425924992681321 H
   1.0252429139679067    0.3708031400530670    0.8333104004446021 H
   0.4546200000000000    0.1647100000000000    0.6465150000000000 H
   0.8000400000000000    0.2360800000000000    0.6373200000000000 H
   0.2047700000000000    0.6656900000000000    0.6036500000000000 H
   0.5503700000000000    0.7358200000000000    0.6125000000000000 H
   0.3320202468847404    0.1684613022206874    0.5833681627202439 H
   0.9544899999999999    0.1653200000000000    0.6463600000000000 H
   0.3000100000000000    0.2360800000000000    0.6373400000000000 H
   0.7050100000000000    0.6655000000000000    0.6036650000000000 H
   0.0505100000000000    0.7362400000000000    0.6125950000000000 H
   0.2790654464746831    0.2645919172516933    0.9499350319345484 H
   0.1435415995965191    0.3807616132770497    0.7880609116724013 H
   0.3307976185469861    0.4482669452876747    0.8747566742528353 H
   0.2317092637615509    0.4081250268251783    0.8352882885314785 H
   0.7952399999999999    0.3343300000000000    0.8963500000000000 H
   0.4496500000000000    0.2641800000000000    0.8874000000000000 H
   0.5453900000000000    0.8352800000000000    0.8534800000000000 H
   0.1999600000000000    0.7639200000000000    0.8626750000000001 H
   0.2488410146423358    0.1260688678986119    0.9185423845558449 H
   0.0435011988788041    0.0831138449074615    0.9293708906310624 H
   0.0455200000000000    0.8346600000000000    0.8536349999999999 H
   0.7000000000000000    0.7639300000000000    0.8626499999999999 H
  -0.0479023918303249    0.1101728861808241    0.8302463786010608 H
   0.7366100000000000    0.1250500000000000    0.0789050000000000 C
   0.5185300000000000    0.0858800000000000    0.0833500000000000 C
   0.7292600000000000    0.3194000000000000    0.2006500000000000 C
   0.5189600000000000    0.2846100000000000    0.2015650000000000 C
   0.5303300000000000    0.1823700000000000    0.1440600000000000 C
   0.5773000000000000    0.2436400000000000    0.1710500000000000 C
   0.5779400000000000    0.1432900000000000    0.1132200000000000 C
   0.7238100000000000    0.2218600000000000    0.1387250000000000 C
   0.6765400000000000    0.1646100000000000    0.1099750000000000 C
   0.6755700000000000    0.2618800000000000    0.1691650000000000 C
   0.4867200000000000    0.6253400000000000    0.1711500000000000 C
   0.2686100000000000    0.5865500000000000    0.1667350000000000 C
   0.4794800000000000    0.8192400000000000    0.0491650000000000 C
   0.2694200000000000    0.7850100000000000    0.0483650000000000 C
   0.2805300000000000    0.6830900000000000    0.1060300000000000 C
   0.3276300000000000    0.7440300000000000    0.0789450000000000 C
   0.3280900000000000    0.6439100000000000    0.1368700000000000 C
   0.4741100000000000    0.7218500000000000    0.1112000000000000 C
   0.4259300000000000    0.7618800000000000    0.0807450000000000 C
   0.4267300000000000    0.6648700000000000    0.1400300000000000 C
   0.2365100000000000    0.1252000000000000    0.0788750000000000 C
   0.0184700000000000    0.0860600000000000    0.0833000000000000 C
   0.2292000000000000    0.3194400000000000    0.2006900000000000 C
   0.0189500000000000    0.2849300000000000    0.2015250000000000 C
   0.0302300000000000    0.1828000000000000    0.1439550000000000 C
   0.0772400000000000    0.2439600000000000    0.1709850000000000 C
   0.0778500000000000    0.1435900000000000    0.1131600000000000 C
   0.2237600000000000    0.2219700000000000    0.1387200000000000 C
   0.1764600000000000    0.1647900000000000    0.1099500000000000 C
   0.1755300000000000    0.2619900000000000    0.1691600000000000 C
   0.9871500000000000    0.6256400000000000    0.1711400000000000 C
   0.7688300000000000    0.5866600000000000    0.1667850000000000 C
   0.9795600000000000    0.8192800000000000    0.0491450000000000 C
   0.7693800000000000    0.7848200000000000    0.0483700000000000 C
   0.7807400000000000    0.6830100000000000    0.1060500000000000 C
   0.8277200000000000    0.7439700000000000    0.0789000000000000 C
   0.8283600000000000    0.6440100000000000    0.1369250000000000 C
   0.9742700000000000    0.7221500000000000    0.1112350000000000 C
   0.9270000000000000    0.6651400000000000    0.1400800000000000 C
   0.9260100000000000    0.7619800000000000    0.0807400000000000 C
   0.5132900000000000    0.3746700000000000    0.3288450000000000 C
   0.7314000000000001    0.4134600000000000    0.3332650000000000 C
   0.5205300000000000    0.1807500000000000    0.4508200000000000 C
   0.7306000000000000    0.2150000000000000    0.4516300000000000 C
   0.7194900000000000    0.3169300000000000    0.3939650000000000 C
   0.6723900000000000    0.2559800000000000    0.4210500000000000 C
   0.6719200000000000    0.3561000000000000    0.3631250000000000 C
   0.5259000000000000    0.2781600000000000    0.3887900000000000 C
   0.5740900000000000    0.2381200000000000    0.4192450000000000 C
   0.5732800000000000    0.3351300000000000    0.3599500000000000 C
   0.2634000000000000    0.8749500000000000    0.4210850000000000 C
   0.4814800000000000    0.9141100000000000    0.4166450000000000 C
   0.2707400000000000    0.6806000000000000    0.2993200000000000 C
   0.4810400000000000    0.7153800000000000    0.2984300000000000 C
   0.4696800000000000    0.8176200000000000    0.3559350000000000 C
   0.4227100000000000    0.7563500000000000    0.3289400000000000 C
   0.4220700000000000    0.8567100000000000    0.3867750000000000 C
   0.2762000000000000    0.7781300000000000    0.3612650000000000 C
   0.3234700000000000    0.8353900000000000    0.3900000000000000 C
   0.3244300000000000    0.7381200000000000    0.3308000000000000 C
   0.7635100000000000    0.8748200000000000    0.4211150000000000 C
   0.9815400000000000    0.9139300000000000    0.4166700000000000 C
   0.7708100000000000    0.6805600000000001    0.2993000000000000 C
   0.9810600000000000    0.7150700000000000    0.2984700000000000 C
   0.9697800000000000    0.8171900000000000    0.3560350000000000 C
   0.9227700000000000    0.7560400000000000    0.3290100000000000 C
   0.9221700000000000    0.8564100000000000    0.3868350000000000 C
   0.7762500000000000    0.7780400000000000    0.3612700000000000 C
   0.8235500000000000    0.8352200000000000    0.3900400000000000 C
   0.8244700000000000    0.7380100000000001    0.3308350000000000 C
   0.0128600000000000    0.3743500000000000    0.3288550000000000 C
   0.2311800000000000    0.4133400000000000    0.3332100000000000 C
   0.0204500000000000    0.1807100000000000    0.4508500000000000 C
   0.2306400000000000    0.2151900000000000    0.4516200000000000 C
   0.2192700000000000    0.3169900000000000    0.3939000000000000 C
   0.1716500000000000    0.3559800000000000    0.3630700000000000 C
   0.1722900000000000    0.2560300000000000    0.4210550000000000 C
   0.0257400000000000    0.2778400000000000    0.3887600000000000 C
   0.0740000000000000    0.2380100000000000    0.4192500000000000 C
   0.0730100000000000    0.3348500000000000    0.3599100000000000 C
   0.7366100000000000    0.1250500000000000    0.5789050000000000 C
   0.5185300000000000    0.0858800000000000    0.5833500000000000 C
   0.7292600000000000    0.3194000000000000    0.7006500000000000 C
   0.5189600000000000    0.2846100000000000    0.7015650000000000 C
   0.5303300000000000    0.1823700000000000    0.6440600000000000 C
   0.5773000000000000    0.2436400000000000    0.6710500000000000 C
   0.5779400000000000    0.1432900000000000    0.6132200000000000 C
   0.7238100000000000    0.2218600000000000    0.6387250000000000 C
   0.6765400000000000    0.1646100000000000    0.6099750000000000 C
   0.6755700000000000    0.2618800000000000    0.6691650000000000 C
   0.4867200000000000    0.6253400000000000    0.6711500000000000 C
   0.2686100000000000    0.5865500000000000    0.6667350000000000 C
   0.4794800000000000    0.8192400000000000    0.5491650000000000 C
   0.2694200000000000    0.7850100000000000    0.5483650000000000 C
   0.2805300000000000    0.6830900000000000    0.6060300000000000 C
   0.3276300000000000    0.7440300000000000    0.5789450000000000 C
   0.3280900000000000    0.6439100000000000    0.6368700000000000 C
   0.4741100000000000    0.7218500000000000    0.6112000000000000 C
   0.4259300000000000    0.7618800000000000    0.5807450000000000 C
   0.4267300000000000    0.6648700000000000    0.6400300000000000 C
   0.2365100000000000    0.1252000000000000    0.5788750000000000 C
   0.0184700000000000    0.0860600000000000    0.5833000000000000 C
   0.2292000000000000    0.3194400000000000    0.7006900000000000 C
   0.0189500000000000    0.2849300000000000    0.7015250000000000 C
   0.0302300000000000    0.1828000000000000    0.6439550000000001 C
   0.0772400000000000    0.2439600000000000    0.6709849999999999 C
   0.0778500000000000    0.1435900000000000    0.6131600000000000 C
   0.2237600000000000    0.2219700000000000    0.6387200000000000 C
   0.1764600000000000    0.1647900000000000    0.6099500000000000 C
   0.1755300000000000    0.2619900000000000    0.6691600000000000 C
   0.9871500000000000    0.6256400000000000    0.6711400000000000 C
   0.7688300000000000    0.5866600000000000    0.6667850000000000 C
   0.9795600000000000    0.8192800000000000    0.5491450000000000 C
   0.7693800000000000    0.7848200000000000    0.5483700000000000 C
   0.7807400000000000    0.6830100000000000    0.6060500000000000 C
   0.8277200000000000    0.7439700000000000    0.5789000000000000 C
   0.8283600000000000    0.6440100000000000    0.6369250000000000 C
   0.9742700000000000    0.7221500000000000    0.6112350000000000 C
   0.9270000000000000    0.6651400000000000    0.6400800000000000 C
   0.9260100000000000    0.7619800000000000    0.5807400000000000 C
   0.5132900000000000    0.3746700000000000    0.8288450000000001 C
   0.7314000000000001    0.4134600000000000    0.8332649999999999 C
   0.5205300000000000    0.1807500000000000    0.9508200000000000 C
   0.7306000000000000    0.2150000000000000    0.9516300000000000 C
   0.7194900000000000    0.3169300000000000    0.8939650000000000 C
   0.6723900000000000    0.2559800000000000    0.9210499999999999 C
   0.6719200000000000    0.3561000000000000    0.8631249999999999 C
   0.5259000000000000    0.2781600000000000    0.8887900000000000 C
   0.5740900000000000    0.2381200000000000    0.9192450000000000 C
   0.5732800000000000    0.3351300000000000    0.8599500000000000 C
   0.2634000000000000    0.8749500000000000    0.9210849999999999 C
   0.4814800000000000    0.9141100000000000    0.9166449999999999 C
   0.2707400000000000    0.6806000000000000    0.7993200000000000 C
   0.4810400000000000    0.7153800000000000    0.7984300000000000 C
   0.4696800000000000    0.8176200000000000    0.8559350000000000 C
   0.4227100000000000    0.7563500000000000    0.8289400000000000 C
   0.4220700000000000    0.8567100000000000    0.8867750000000000 C
   0.2762000000000000    0.7781300000000000    0.8612649999999999 C
   0.3234700000000000    0.8353900000000000    0.8900000000000000 C
   0.3244300000000000    0.7381200000000000    0.8308000000000000 C
   0.7635100000000000    0.8748200000000000    0.9211150000000000 C
   0.9815400000000000    0.9139300000000000    0.9166700000000000 C
   0.7708100000000000    0.6805600000000001    0.7993000000000000 C
   0.9810600000000000    0.7150700000000000    0.7984700000000000 C
   0.9697800000000000    0.8171900000000000    0.8560350000000000 C
   0.9227700000000000    0.7560400000000000    0.8290100000000000 C
   0.9221700000000000    0.8564100000000000    0.8868350000000000 C
   0.7762500000000000    0.7780400000000000    0.8612700000000000 C
   0.8235500000000000    0.8352200000000000    0.8900399999999999 C
   0.8244700000000000    0.7380100000000001    0.8308350000000000 C
   0.3631000000000000    0.0322600000000000    0.5051500000000000 O
   0.3631000000000000    0.0322600000000000    0.0051500000000000 O
   0.6369100000000000    0.9677400000000000    0.9948100000000000 O
   0.6369100000000000    0.9677400000000000    0.4948100000000000 O
   0.1369200000000000    0.9677900000000000    0.4948200000000000 O
   0.1369200000000000    0.9677900000000000    0.9948200000000000 O
   0.8630800000000000    0.0322100000000000    0.5051750000000000 O
   0.8630800000000000    0.0322100000000000    0.0051750000000000 O
   0.3868000000000000    0.4676900000000000    0.7551600000000001 O
   0.3868000000000000    0.4676900000000000    0.2551600000000000 O
   0.6132100000000000    0.5323000000000000    0.7448350000000000 O
   0.6132100000000000    0.5323000000000000    0.2448350000000000 O
   0.1131700000000000    0.5323300000000000    0.7448350000000000 O
   0.1131700000000000    0.5323300000000000    0.2448350000000000 O
   0.8868400000000000    0.4676700000000000    0.7551550000000000 O
   0.8868400000000000    0.4676700000000000    0.2551550000000000 O
   0.9557700000000000    0.2144400000000000    0.9690500000000000 O
   0.7285000000000000    0.0409000000000000    0.0762550000000000 O
   0.7948300000000000    0.1796700000000000    0.0592000000000000 O
   0.5474300000000000    0.0853100000000000    0.0469100000000000 O
   0.4407000000000000    0.0457000000000000    0.0970700000000000 O
   0.7936100000000000    0.2855500000000000    0.2190450000000000 O
   0.7060600000000000    0.3963600000000000    0.2068550000000000 O
   0.4770800000000000    0.2380000000000000    0.2291300000000000 O
   0.5058500000000000    0.3670100000000000    0.1979150000000000 O
   0.4789400000000000    0.5411800000000000    0.1737000000000000 O
   0.5445300000000000    0.6800900000000000    0.1909900000000000 O
   0.2976900000000000    0.5854700000000000    0.2031400000000000 O
   0.1905500000000000    0.5468600000000000    0.1530150000000000 O
   0.5441800000000000    0.7855600000000000    0.0309600000000000 O
   0.4556700000000000    0.8958600000000000    0.0427300000000000 O
   0.2284300000000000    0.7386300000000000    0.0205200000000000 O
   0.2554100000000000    0.8671300000000000    0.0522500000000000 O
   0.2284700000000000    0.0410500000000000    0.0762600000000000 O
   0.2946200000000000    0.1798500000000000    0.0591250000000000 O
   0.0474200000000000    0.0853600000000000    0.0468950000000000 O
   0.9406600000000001    0.0458700000000000    0.0970600000000000 O
   0.2936100000000000    0.2856300000000000    0.2190400000000000 O
   0.2058600000000000    0.3963300000000000    0.2069250000000000 O
   0.9774100000000000    0.2383800000000000    0.2291500000000000 O
   0.0055000000000000    0.3672200000000000    0.1978000000000000 O
   0.9791400000000000    0.5414900000000000    0.1737500000000000 O
   0.0453100000000000    0.6803200000000000    0.1908600000000000 O
   0.7979400000000000    0.5854900000000000    0.2031800000000000 O
   0.6906800000000000    0.5471000000000000    0.1530800000000000 O
   0.0442400000000000    0.7855600000000000    0.0309450000000000 O
   0.9557600000000001    0.8959000000000000    0.0426900000000000 O
   0.7280300000000000    0.7382800000000000    0.0206600000000000 O
   0.7556100000000000    0.8670200000000000    0.0521600000000000 O
   0.5210800000000000    0.4588200000000000    0.3262850000000000 O
   0.4554900000000000    0.3199100000000000    0.3090050000000000 O
   0.7023200000000001    0.4145200000000000    0.2968550000000000 O
   0.8094500000000000    0.4531600000000000    0.3469800000000000 O
   0.4558500000000000    0.2144400000000000    0.4690400000000000 O
   0.5443100000000000    0.1041100000000000    0.4572000000000000 O
   0.7716100000000000    0.2613900000000000    0.4794650000000000 O
   0.7445900000000000    0.1328800000000000    0.4477500000000000 O
   0.2715200000000000    0.9591000000000000    0.4237400000000000 O
   0.2051700000000000    0.8203300000000000    0.4407950000000000 O
   0.4525800000000000    0.9146800000000000    0.4530850000000000 O
   0.5593300000000000    0.9542700000000000    0.4029000000000000 O
   0.2064000000000000    0.7144400000000000    0.2809450000000000 O
   0.2939400000000000    0.6036300000000000    0.2931400000000000 O
   0.5229300000000000    0.7619899999999999    0.2708600000000000 O
   0.4941500000000000    0.6329800000000000    0.3020500000000000 O
   0.7715600000000000    0.9589700000000000    0.4237350000000000 O
   0.7053900000000000    0.8201800000000000    0.4408650000000000 O
   0.9526000000000000    0.9146300000000001    0.4531000000000000 O
   0.0593500000000000    0.9541300000000000    0.4029000000000000 O
   0.7063900000000000    0.7143699999999999    0.2809550000000000 O
   0.7941600000000000    0.6036700000000000    0.2930500000000000 O
   0.0226000000000000    0.7616200000000000    0.2708000000000000 O
   0.9945100000000000    0.6327800000000000    0.3021950000000000 O
   0.0208700000000000    0.4585000000000000    0.3262450000000000 O
   0.9546900000000000    0.3196800000000000    0.3091350000000000 O
   0.2020600000000000    0.4145100000000000    0.2968150000000000 O
   0.3093300000000000    0.4528900000000000    0.3469000000000000 O
   0.9557700000000000    0.2144400000000000    0.4690500000000000 O
   0.0442400000000000    0.1040900000000000    0.4572950000000000 O
   0.2720000000000000    0.2617300000000000    0.4793250000000000 O
   0.2444000000000000    0.1329700000000000    0.4478400000000000 O
   0.9546900000000000    0.3196800000000000    0.8091349999999999 O
   1.0208699999999999    0.4585000000000000    0.8262450000000000 O
   0.7285000000000000    0.0409000000000000    0.5762550000000000 O
   0.7948300000000000    0.1796700000000000    0.5592000000000000 O
   0.5474300000000000    0.0853100000000000    0.5469100000000000 O
   0.4407000000000000    0.0457000000000000    0.5970700000000000 O
   0.7936100000000000    0.2855500000000000    0.7190449999999999 O
   0.7060600000000000    0.3963600000000000    0.7068550000000000 O
   0.4770800000000000    0.2380000000000000    0.7291300000000001 O
   0.5058500000000000    0.3670100000000000    0.6979150000000001 O
   0.4789400000000000    0.5411800000000000    0.6737000000000000 O
   0.5445300000000000    0.6800900000000000    0.6909900000000000 O
   0.2976900000000000    0.5854700000000000    0.7031400000000000 O
   0.1905500000000000    0.5468600000000000    0.6530150000000000 O
   0.5441800000000000    0.7855600000000000    0.5309600000000000 O
   0.4556700000000000    0.8958600000000000    0.5427300000000000 O
   0.2284300000000000    0.7386300000000000    0.5205200000000000 O
   0.2554100000000000    0.8671300000000000    0.5522500000000000 O
   0.2946200000000000    0.1798500000000000    0.5591250000000000 O
   0.2284700000000000    0.0410500000000000    0.5762600000000000 O
   0.0474200000000000    0.0853600000000000    0.5468950000000000 O
   0.9406600000000001    0.0458700000000000    0.5970600000000000 O
   0.2936100000000000    0.2856300000000000    0.7190400000000000 O
   0.2058600000000000    0.3963300000000000    0.7069250000000000 O
   0.9774100000000000    0.2383800000000000    0.7291500000000000 O
   0.0055000000000000    0.3672200000000000    0.6978000000000000 O
   0.9791400000000000    0.5414900000000000    0.6737500000000000 O
   0.0453100000000000    0.6803200000000000    0.6908600000000000 O
   0.7979400000000000    0.5854900000000000    0.7031800000000000 O
   0.6906800000000000    0.5471000000000000    0.6530800000000000 O
   0.0442400000000000    0.7855600000000000    0.5309450000000000 O
   0.9557600000000001    0.8959000000000000    0.5426900000000000 O
   0.7280300000000000    0.7382800000000000    0.5206600000000000 O
   0.7556100000000000    0.8670200000000000    0.5521600000000000 O
   0.2720000000000000    0.2617300000000000    0.9793250000000000 O
   0.2020600000000000    0.4145100000000000    0.7968150000000001 O
   0.3093300000000000    0.4528900000000000    0.8469000000000000 O
   0.5210800000000000    0.4588200000000000    0.8262849999999999 O
   0.4554900000000000    0.3199100000000000    0.8090050000000000 O
   0.7023200000000001    0.4145200000000000    0.7968550000000000 O
   0.8094500000000000    0.4531600000000000    0.8469800000000001 O
   0.4558500000000000    0.2144400000000000    0.9690400000000000 O
   0.5443100000000000    0.1041100000000000    0.9572000000000001 O
   0.7716100000000000    0.2613900000000000    0.9794650000000000 O
   0.7445900000000000    0.1328800000000000    0.9477500000000000 O
   0.2715200000000000    0.9591000000000000    0.9237400000000000 O
   0.2051700000000000    0.8203300000000000    0.9407950000000000 O
   0.4525800000000000    0.9146800000000000    0.9530850000000000 O
   0.5593300000000000    0.9542700000000000    0.9029000000000000 O
   0.2064000000000000    0.7144400000000000    0.7809450000000000 O
   0.2939400000000000    0.6036300000000000    0.7931400000000000 O
   0.5229300000000000    0.7619899999999999    0.7708600000000000 O
   0.4941500000000000    0.6329800000000000    0.8020499999999999 O
   0.2444000000000000    0.1329700000000000    0.9478400000000000 O
   0.0442400000000000    0.1040900000000000    0.9572950000000000 O
   0.7715600000000000    0.9589700000000000    0.9237350000000000 O
   0.7053900000000000    0.8201800000000000    0.9408650000000001 O
   0.9526000000000000    0.9146300000000001    0.9531000000000001 O
   0.0593500000000000    0.9541300000000000    0.9029000000000000 O
   0.7063900000000000    0.7143699999999999    0.7809550000000001 O
   0.7941600000000000    0.6036700000000000    0.7930500000000000 O
   0.0226000000000000    0.7616200000000000    0.7707999999999999 O
   0.9945100000000000    0.6327800000000000    0.8021950000000000 O
