H12 O8
1.0
  14.3569999650128608    0.0000000000000000   -0.0010023076820208
  -1.9761579199546899   15.1143590085190915    0.0007981216132787
   0.0000000000000000    0.0000000000000000   32.8100000000000023
H O
12 8
direct
   0.1435415995965191    0.3807616132770497    0.7880609116724013 H
   0.3307976185469861    0.4482669452876747    0.8747566742528353 H
   0.2317092637615509    0.4081250268251783    0.8352882885314785 H
   0.9577948958218472    0.2574126844212568    0.8141516393579022 H
   1.0685781532567731    0.4930696649996434    0.8425924992681321 H
   1.0252429139679067    0.3708031400530670    0.8333104004446021 H
  -0.0479023918303249    0.1101728861808241    0.8302463786010608 H
   0.2488410146423358    0.1260688678986119    0.9185423845558449 H
   0.2790654464746831    0.2645919172516933    0.9499350319345484 H
   0.0435011988788041    0.0831138449074615    0.9293708906310624 H
   0.9353540983808837    0.2157877792725054    0.9408999584848908 H
   0.3320202468847404    0.1684613022206874    0.5833681627202439 H
   0.2020600000000000    0.4145100000000000    0.7968150000000001 O
   0.3093300000000000    0.4528900000000000    0.8469000000000000 O
   0.9546900000000000    0.3196800000000000    0.8091349999999999 O
   1.0208699999999999    0.4585000000000000    0.8262450000000000 O
   0.2444000000000000    0.1329700000000000    0.9478400000000000 O
   0.2720000000000000    0.2617300000000000    0.9793250000000000 O
   0.0442400000000000    0.1040900000000000    0.9572950000000000 O
   0.9557700000000000    0.2144400000000000    0.9690500000000000 O
