H2 O2
1.0
  37.4639941569603963    0.0000000000000000    0.0209238437431570
  -0.0083282482253984   13.0436916723902385   -3.7498296222493868
   0.0000000000000000    0.0000000000000000   36.4380000000000024
H O
2 2
direct
   0.3750732087653224    0.5973753455243587    0.3224008715410194 H
   0.2915932368988880    0.4025962603957811    0.1776206605940266 H
   0.3656100000000000    0.6661400000000000    0.3339900000000000 O
   0.3010566666666666    0.3338300000000000    0.1660350000000000 O
