H4 O4
1.0
  16.0719970013157507    0.0000000000000000   -0.0098178254977196
   0.0384607703282853   18.8627208343520465   -0.0951445975710272
   0.0000000000000000    0.0000000000000000   36.7580000000000027
H O
4 4
direct
   0.4354589999050079    0.3580620407700396    0.3411280205836003 H
   0.3944679968439539    0.2713368430306686    0.3490456926234178 H
   0.0635179721205976    0.3565272603799940    0.1575774487628423 H
   0.1038099922208558    0.2689706242876576    0.1501905880816352 H
   0.4859400000000000    0.3686900000000000    0.3550000000000000 O
   0.4228900000000000    0.2404500000000000    0.3664050000000000 O
   0.0127300000000000    0.3668800000000000    0.1438850000000000 O
   0.0747300000000000    0.2376800000000000    0.1331200000000000 O
