H6 O4
1.0
  16.0719970013157507    0.0000000000000000   -0.0098178254977196
   0.0384607703282853   18.8627208343520465   -0.0951445975710272
   0.0000000000000000    0.0000000000000000   36.7580000000000027
H O
6 4
direct
   0.3299978370935234    0.2413672550181767    0.6008340877176329 H
   0.4246098382196184    0.4023343597434587    0.6600872787220976 H
   0.3768563957969867    0.3317835856004221    0.6321717830386357 H
  -0.0414189899115409    0.6962951122681516    0.4594018675238880 H
   0.1736818078485884    0.5944211981295504    0.4220800906471021 H
   0.0740235669934916    0.6370663605332748    0.4439449760818080 H
   0.3699900000000000    0.2629800000000000    0.6172350000000000 O
   0.4198900000000000    0.3550400000000000    0.6498200000000001 O
   0.0000000000000000    0.6882000000000000    0.4406450000000000 O
   0.1269100000000000    0.6267300000000000    0.4199950000000000 O
