Zn4 H32 C42 N6 O20
1.0
  13.7009842051528459    0.0000000000000000   -0.0208040897964782
   0.0011472440474456   13.0955789742113033   -4.4963903315911020
   0.0000000000000000    0.0000000000000000   14.0570000000000004
Zn H C N O
4 32 42 6 20
direct
   0.5582000000000000    0.4120400000000000    0.9629500000000000 Zn
   0.4418900000000000    0.5914100000000000    0.0373300000000000 Zn
   0.9419400000000000    0.4122000000000000    0.4627000000000000 Zn
   0.0582300000000000    0.5913900000000000    0.5374800000000000 Zn
   0.6877440199561523    0.2550231225117822    0.9074488620096552 H
   0.5759258219464993    0.2108761370155400    0.8646424825561988 H
   0.4989736299717152    0.6957963405453305   -0.0722346060712178 H
   0.6657733065118158    0.4466508675243029    0.8284748497854684 H
   0.5874873327083353    0.5747086182063743    0.8708563917837602 H
   0.4570500000000000    0.9742600000000000    0.2246400000000000 H
   0.1687300000000000    0.8633700000000000    0.1170100000000000 H
   0.2417800000000000    0.6867300000000000    0.0504200000000000 H
   0.5155500000000000    0.7948100000000000    0.1589200000000000 H
   0.3882100000000000    0.0869100000000000    0.1587500000000000 H
   0.2724500000000000    0.5096200000000000    0.2679000000000000 H
   0.4213100000000000    0.2298500000000000    0.1139700000000000 H
   0.1890600000000000    0.2320200000000000    0.3223600000000000 H
   0.9559299999999999    0.0295200000000000    0.2753300000000000 H
   0.6683900000000000    0.1410000000000000    0.3845000000000000 H
   0.7416400000000000    0.3176500000000000    0.4499000000000000 H
   0.0146800000000000    0.2090300000000000    0.3399500000000000 H
   0.8876900000000000    0.9174500000000000    0.3426100000000000 H
   0.7725700000000000    0.4945100000000000    0.2325300000000000 H
   0.9213000000000000    0.7742400000000000    0.3871100000000000 H
   0.6885000000000000    0.7723600000000000    0.1787300000000000 H
  -0.0601553599604785    0.6950218933744940    0.6628909790135926 H
   0.7817188804238342    0.4383457544406784    0.5723156526721093 H
  -0.1490112687360467    0.5667814073688483    0.6228378289327551 H
   0.0446200000000000    0.9737500000000000    0.7261500000000000 H
   0.3320600000000000    0.8624700000000000    0.6164100000000000 H
   0.2587900000000000    0.6858600000000000    0.5506799999999999 H
   0.9858400000000000    0.7942600000000000    0.6611000000000000 H
   0.1123000000000000    0.0858200000000000    0.6585200000000000 H
   0.2270800000000000    0.5088100000000000    0.7677200000000000 H
   0.0789500000000000    0.2286600000000000    0.6132300000000001 H
   0.3113100000000000    0.2314000000000000    0.8223000000000000 H
   0.4059600000000000    0.9140100000000000    0.1855800000000000 C
   0.2461300000000000    0.8507300000000000    0.1261400000000000 C
   0.2857600000000000    0.7532200000000000    0.0902500000000000 C
   0.4398300000000000    0.8139800000000000    0.1495100000000000 C
   0.3072600000000000    0.9336000000000000    0.1730600000000000 C
   0.4114200000000000    0.4249100000000000    0.1240400000000000 C
   0.1464500000000000    0.4312900000000000    0.3763000000000000 C
   0.2636500000000000    0.0392000000000000    0.2086600000000000 C
   0.2822900000000000    0.4282000000000000    0.2539800000000000 C
   0.2240400000000000    0.3765100000000000    0.3032700000000000 C
   0.3656500000000000    0.2698700000000000    0.1677700000000000 C
   0.3523200000000000    0.3741600000000000    0.1845900000000000 C
   0.2355200000000000    0.2714600000000000    0.2845500000000000 C
   0.3075200000000000    0.2183600000000000    0.2175100000000000 C
   0.9051100000000000    0.0899500000000000    0.3144600000000000 C
   0.7456600000000000    0.1535300000000000    0.3747700000000000 C
   0.7853599999999999    0.2510400000000000    0.4099500000000000 C
   0.9390500000000001    0.1899700000000000    0.3498500000000000 C
   0.8065700000000000    0.0705700000000000    0.3276900000000000 C
   0.9117200000000000    0.5789100000000000    0.3763000000000000 C
   0.6461900000000000    0.5727900000000000    0.1242900000000000 C
   0.7629800000000000    0.9650100000000000    0.2924000000000000 C
   0.7823000000000000    0.5759500000000000    0.2465900000000000 C
   0.7238300000000000    0.6277000000000000    0.1973900000000000 C
   0.8655700000000000    0.7342800000000000    0.3332100000000000 C
   0.8524100000000000    0.6299400000000001    0.3160600000000000 C
   0.7351100000000000    0.7328100000000000    0.2164200000000000 C
   0.8071600000000000    0.7858800000000000    0.2836200000000000 C
   0.0954100000000000    0.9133800000000000    0.6860000000000001 C
   0.2548000000000000    0.8499300000000000    0.6261900000000000 C
   0.2150800000000000    0.7524200000000000    0.5908000000000000 C
   0.0614500000000000    0.8133800000000000    0.6511700000000000 C
   0.1938900000000000    0.9328600000000000    0.6734000000000000 C
   0.0883600000000000    0.4239600000000000    0.6236000000000000 C
   0.3536000000000000    0.4309600000000000    0.8762700000000000 C
   0.2373000000000000    0.0385200000000000    0.7084000000000000 C
   0.2174800000000000    0.4273700000000000    0.7537900000000000 C
   0.2759700000000000    0.3758600000000000    0.8032200000000000 C
   0.1345100000000000    0.2688400000000000    0.6672400000000001 C
   0.1475400000000000    0.3731800000000000    0.6842100000000000 C
   0.2647300000000000    0.2707800000000000    0.7844500000000000 C
   0.1928200000000000    0.2175000000000000    0.7171000000000000 C
   0.3811900000000000    0.7350100000000001    0.1014300000000000 N
   0.3256100000000000    0.1130100000000000    0.1976800000000000 N
   0.8806300000000000    0.2690500000000000    0.3980100000000000 N
   0.8250100000000000    0.8912900000000000    0.3037000000000000 N
   0.1198100000000000    0.7343600000000000    0.6026800000000000 N
   0.1750000000000000    0.1121100000000000    0.6973500000000000 N
   0.6186000000000000    0.2682300000000000    0.8992000000000000 O
   0.5202900000000000    0.6291500000000000   -0.0717200000000000 O
   0.6153900000000000    0.4874700000000000    0.8715300000000000 O
   0.4797800000000000    0.3720400000000000    0.0708900000000000 O
   0.3869800000000000    0.5152200000000000    0.1291400000000000 O
   0.1622500000000000    0.5236600000000000    0.4293000000000000 O
   0.0707200000000000    0.3791100000000000    0.3792300000000000 O
   0.1799400000000000    0.0544200000000000    0.2426100000000000 O
   0.9804500000000000    0.6314600000000000    0.4293000000000000 O
   0.8870300000000000    0.4886900000000000    0.3711600000000000 O
   0.6618500000000000    0.4802800000000000    0.0716500000000000 O
   0.5706000000000000    0.6250700000000000    0.1208800000000000 O
   0.6792400000000000    0.9496900000000000    0.2583400000000000 O
  -0.0705500000000000    0.6248500000000000    0.6208000000000000 O
   0.8381500000000000    0.4801100000000000    0.5708500000000000 O
   0.0197900000000000    0.3712600000000000    0.5705000000000000 O
   0.1129100000000000    0.5142200000000000    0.6287500000000000 O
   0.3376200000000000    0.5232800000000000    0.9293100000000000 O
   0.4296300000000000    0.3790700000000000    0.8790000000000000 O
   0.3211300000000000    0.0541300000000000    0.7422000000000000 O
