H12 O8
1.0
  30.1762352371735076    0.0000000000000000    7.4488623903766689
   2.9143105305365924   14.7987764491931078    3.7242859367147099
   0.0000000000000000    0.0000000000000000   31.0659999999999989
H O
12 8
direct
   0.7493722944937142    0.6816806786169703    0.0280605072334282 H
   0.7335833732548445    0.6479405373158903    0.9101057840435950 H
   0.7408962977278909    0.6749492324107323    0.9667748552189396 H
   0.7493733310699359    0.0560419383585868    0.8408520042991821 H
   0.7335423486950161    0.8201678760382096    0.8239753860085930 H
   0.7408739443977984    0.9334714788241368    0.8374837575679056 H
   0.7506202558158306    0.3183086586201219    0.9719509197827517 H
   0.7664182109716389    0.3520475738199195    0.0898985977337054 H
   0.7591004827131586    0.3250399329099558    1.0332320403255981 H
   0.7506273560361704    0.9439592882444550    0.1591169559560326 H
   0.7664580140203694    0.1798239299233986    0.1760391993460231 H
   0.7591261752181206    0.0665163417935671    0.1625050957101585 H
   0.7475499999999999    0.6434299999999999    0.0083000000000000 O
   0.7384999999999999    0.6246500000000000    0.9407900000000000 O
   0.7475450000000000    0.0165300000000000    0.8217250000000000 O
   0.7384700000000000    0.8815200000000000    0.8123350000000000 O
   0.7524450000000000    0.3565600000000000    0.9917100000000000 O
   0.7615000000000001    0.3753400000000000    0.0592150000000000 O
   0.7524550000000000    0.9834600000000000    0.1782500000000000 O
   0.7615300000000000    0.1184700000000000    0.1876700000000000 O
