Zn24 H78 C198 O96
1.0
  30.1762352371735076    0.0000000000000000    7.4488623903766689
   2.9143105305365924   14.7987764491931078    3.7242859367147099
   0.0000000000000000    0.0000000000000000   31.0659999999999989
Zn H C O
24 78 198 96
direct
   0.7445850000000001    0.9243800000000000    0.7445900000000000 Zn
   0.7554149999999999    0.0756200000000000    0.2554000000000000 Zn
   0.4622200000000000    0.4891500000000000    0.2445850000000000 Zn
   0.2554150000000000    0.0756200000000000    0.7554000000000001 Zn
   0.2445850000000000    0.9243800000000000    0.2445900000000000 Zn
   0.2554050000000000    0.5108200000000001    0.5378250000000000 Zn
   0.2445950000000000    0.4891700000000000    0.4621850000000000 Zn
   0.5377700000000000    0.5108400000000000    0.2554250000000000 Zn
   0.9622200000000001    0.4891500000000000    0.2445850000000000 Zn
   0.7554149999999999    0.0756200000000000    0.7554000000000001 Zn
   0.7445850000000001    0.9243800000000000    0.2445900000000000 Zn
   0.7554050000000000    0.5108200000000001    0.5378250000000000 Zn
   0.7445950000000000    0.4891700000000000    0.4621850000000000 Zn
   0.0377700000000000    0.5108400000000000    0.2554250000000000 Zn
   0.4622200000000000    0.4891500000000000    0.7445850000000001 Zn
   0.2554150000000000    0.0756200000000000    0.2554000000000000 Zn
   0.2445850000000000    0.9243800000000000    0.7445900000000000 Zn
   0.2554050000000000    0.5108200000000001    0.0378250000000000 Zn
   0.2445950000000000    0.4891700000000000    0.9621850000000001 Zn
   0.5377700000000000    0.5108400000000000    0.7554250000000000 Zn
   0.9622200000000001    0.4891500000000000    0.7445850000000001 Zn
   0.7554050000000000    0.5108200000000001    0.0378250000000000 Zn
   0.7445950000000000    0.4891700000000000    0.9621850000000001 Zn
   0.0377700000000000    0.5108400000000000    0.7554250000000000 Zn
   0.6008300000000000    0.9759800000000000    0.7537650000000000 H
   0.6189350000000000    0.2376600000000000    0.7611350000000000 H
   0.4880650000000000    0.2016300000000000    0.7538700000000000 H
   0.5119350000000000    0.7983600000000000    0.7461400000000000 H
   0.3810600000000000    0.7623300000000000    0.7388700000000000 H
   0.3991700000000000    0.0240200000000000    0.7462000000000000 H
   0.6008300000000000    0.9759800000000000    0.2537650000000000 H
   0.6189350000000000    0.2376600000000000    0.2611350000000000 H
   0.4880650000000000    0.2016300000000000    0.2538700000000000 H
   0.5119350000000000    0.7983600000000000    0.2461400000000000 H
   0.3810600000000000    0.7623300000000000    0.2388700000000000 H
   0.3991700000000000    0.0240200000000000    0.2462000000000000 H
   0.1008300000000000    0.9759800000000000    0.7537650000000000 H
   0.1189350000000000    0.2376600000000000    0.7611350000000000 H
   0.9880650000000000    0.2016300000000000    0.7538700000000000 H
   0.0119350000000000    0.7983600000000000    0.7461400000000000 H
   0.8810600000000000    0.7623300000000000    0.7388700000000000 H
   0.8991700000000000    0.0240200000000000    0.7462000000000000 H
   0.1008300000000000    0.9759800000000000    0.2537650000000000 H
   0.1189350000000000    0.2376600000000000    0.2611350000000000 H
   0.9880650000000000    0.2016300000000000    0.2538700000000000 H
   0.0119350000000000    0.7983600000000000    0.2461400000000000 H
   0.8810600000000000    0.7623300000000000    0.2388700000000000 H
   0.8991700000000000    0.0240200000000000    0.2462000000000000 H
   0.7493733310699359    0.0560419383585868    0.8408520042991821 H
   0.7335423486950161    0.8201678760382096    0.8239753860085930 H
   0.7408739443977984    0.9334714788241368    0.8374837575679056 H
   0.7506273560361704    0.9439592882444550    0.1591169559560326 H
   0.7664580140203694    0.1798239299233986    0.1760391993460231 H
   0.7591261752181206    0.0665163417935671    0.1625050957101585 H
   0.6008400000000000    0.5075300000000000    0.4879750000000000 H
   0.6189400000000000    0.5223100000000001    0.6188250000000000 H
   0.4880650000000000    0.5077600000000000    0.6008200000000000 H
   0.5119350000000000    0.4922300000000000    0.3991900000000000 H
   0.3810600000000000    0.4776800000000000    0.3811850000000000 H
   0.3991600000000000    0.4924600000000000    0.5120350000000000 H
   0.2460950000000000    0.7983600000000000    0.5120000000000000 H
   0.2387000000000000    0.7622700000000000    0.3811650000000000 H
   0.2460950000000000    0.0240000000000000    0.3991950000000000 H
   0.2539000000000000    0.2016300000000000    0.4879750000000000 H
   0.2613000000000000    0.2377200000000000    0.6188400000000001 H
   0.2539050000000000    0.9759900000000000    0.6008100000000000 H
   0.1008400000000000    0.5075300000000000    0.4879750000000000 H
   0.1189400000000000    0.5223100000000001    0.6188250000000000 H
   0.9880650000000000    0.5077600000000000    0.6008200000000000 H
   0.0119350000000000    0.4922300000000000    0.3991900000000000 H
   0.8810600000000000    0.4776800000000000    0.3811850000000000 H
   0.8991600000000000    0.4924600000000000    0.5120350000000000 H
   0.7460950000000000    0.7983600000000000    0.5120000000000000 H
   0.7387000000000000    0.7622700000000000    0.3811650000000000 H
   0.7460950000000000    0.0240000000000000    0.3991950000000000 H
   0.7539000000000000    0.2016300000000000    0.4879750000000000 H
   0.7613000000000000    0.2377200000000000    0.6188400000000001 H
   0.7539050000000000    0.9759900000000000    0.6008100000000000 H
   0.6008400000000000    0.5075300000000000    0.9879750000000000 H
   0.6189400000000000    0.5223100000000001    0.1188250000000000 H
   0.4880650000000000    0.5077600000000000    0.1008200000000000 H
   0.5119350000000000    0.4922300000000000    0.8991899999999999 H
   0.3810600000000000    0.4776800000000000    0.8811850000000000 H
   0.3991600000000000    0.4924600000000000    0.0120350000000000 H
   0.2460950000000000    0.7983600000000000    0.0120000000000000 H
   0.2387000000000000    0.7622700000000000    0.8811650000000000 H
   0.2460950000000000    0.0240000000000000    0.8991950000000000 H
   0.2539000000000000    0.2016300000000000    0.9879750000000000 H
   0.2613000000000000    0.2377200000000000    0.1188400000000000 H
   0.2539050000000000    0.9759900000000000    0.1008100000000000 H
   0.1008400000000000    0.5075300000000000    0.9879750000000000 H
   0.1189400000000000    0.5223100000000001    0.1188250000000000 H
   0.9880650000000000    0.5077600000000000    0.1008200000000000 H
   0.0119350000000000    0.4922300000000000    0.8991899999999999 H
   0.8810600000000000    0.4776800000000000    0.8811850000000000 H
   0.8991600000000000    0.4924600000000000    0.0120350000000000 H
   0.7493722944937142    0.6816806786169703    0.0280605072334282 H
   0.7335833732548445    0.6479405373158903    0.9101057840435950 H
   0.7408962977278909    0.6749492324107323    0.9667748552189396 H
   0.7506202558158306    0.3183086586201219    0.9719509197827517 H
   0.7664182109716389    0.3520475738199195    0.0898985977337054 H
   0.7591004827131586    0.3250399329099558    1.0332320403255981 H
   0.4671800000000000    0.6724700000000000    0.7426250000000000 C
   0.5328150000000000    0.3275200000000000    0.7573850000000000 C
   0.3362100000000000    0.9345700000000000    0.7426900000000000 C
   0.6637900000000000    0.0654300000000000    0.7573200000000000 C
   0.5866450000000000    0.0466500000000000    0.7551850000000000 C
   0.6146500000000000    0.1027500000000000    0.7577550000000000 C
   0.5970750000000000    0.1940000000000000    0.7593400000000000 C
   0.5233950000000001    0.1732100000000000    0.7552500000000000 C
   0.5514650000000000    0.2292100000000000    0.7577950000000000 C
   0.5405900000000000    0.0811000000000000    0.7541000000000000 C
   0.4878050000000000    0.9756400000000000    0.7487050000000000 C
   0.5121950000000000    0.0243500000000000    0.7513000000000001 C
   0.4766050000000000    0.8267800000000000    0.7447500000000000 C
   0.4485350000000000    0.7707900000000000    0.7422100000000000 C
   0.4029250000000000    0.8060000000000000    0.7406500000000000 C
   0.4133550000000000    0.9533500000000000    0.7448000000000000 C
   0.3853500000000000    0.8972400000000000    0.7422500000000000 C
   0.4594100000000000    0.9189000000000001    0.7459050000000000 C
   0.4671800000000000    0.6724700000000000    0.2426250000000000 C
   0.5328150000000000    0.3275200000000000    0.2573850000000000 C
   0.3362100000000000    0.9345700000000000    0.2426900000000000 C
   0.6637900000000000    0.0654300000000000    0.2573200000000000 C
   0.5866450000000000    0.0466500000000000    0.2551850000000000 C
   0.6146500000000000    0.1027500000000000    0.2577550000000000 C
   0.5970750000000000    0.1940000000000000    0.2593400000000000 C
   0.5233950000000001    0.1732100000000000    0.2552500000000000 C
   0.5514650000000000    0.2292100000000000    0.2577950000000000 C
   0.5405900000000000    0.0811000000000000    0.2541000000000000 C
   0.4878050000000000    0.9756400000000000    0.2487050000000000 C
   0.5121950000000000    0.0243500000000000    0.2513000000000000 C
   0.4766050000000000    0.8267800000000000    0.2447500000000000 C
   0.4485350000000000    0.7707900000000000    0.2422100000000000 C
   0.4029250000000000    0.8060000000000000    0.2406500000000000 C
   0.4133550000000000    0.9533500000000000    0.2448000000000000 C
   0.3853500000000000    0.8972400000000000    0.2422500000000000 C
   0.4594100000000000    0.9189000000000001    0.2459050000000000 C
   0.9671799999999999    0.6724700000000000    0.7426250000000000 C
   0.0328150000000000    0.3275200000000000    0.7573850000000000 C
   0.8362100000000000    0.9345700000000000    0.7426900000000000 C
   0.1637900000000000    0.0654300000000000    0.7573200000000000 C
   0.0866450000000000    0.0466500000000000    0.7551850000000000 C
   0.1146500000000000    0.1027500000000000    0.7577550000000000 C
   0.0970750000000000    0.1940000000000000    0.7593400000000000 C
   0.0233950000000000    0.1732100000000000    0.7552500000000000 C
   0.0514650000000000    0.2292100000000000    0.7577950000000000 C
   0.0405900000000000    0.0811000000000000    0.7541000000000000 C
   0.0121950000000000    0.0243500000000000    0.7513000000000001 C
   0.9878050000000000    0.9756400000000000    0.7487050000000000 C
   0.9766049999999999    0.8267800000000000    0.7447500000000000 C
   0.9485350000000000    0.7707900000000000    0.7422100000000000 C
   0.9029250000000000    0.8060000000000000    0.7406500000000000 C
   0.9133549999999999    0.9533500000000000    0.7448000000000000 C
   0.8853500000000001    0.8972400000000000    0.7422500000000000 C
   0.9594100000000000    0.9189000000000001    0.7459050000000000 C
   0.9671799999999999    0.6724700000000000    0.2426250000000000 C
   0.0328150000000000    0.3275200000000000    0.2573850000000000 C
   0.8362100000000000    0.9345700000000000    0.2426900000000000 C
   0.1637900000000000    0.0654300000000000    0.2573200000000000 C
   0.0866450000000000    0.0466500000000000    0.2551850000000000 C
   0.1146500000000000    0.1027500000000000    0.2577550000000000 C
   0.0970750000000000    0.1940000000000000    0.2593400000000000 C
   0.0233950000000000    0.1732100000000000    0.2552500000000000 C
   0.0514650000000000    0.2292100000000000    0.2577950000000000 C
   0.0405900000000000    0.0811000000000000    0.2541000000000000 C
   0.0121950000000000    0.0243500000000000    0.2513000000000000 C
   0.9878050000000000    0.9756400000000000    0.2487050000000000 C
   0.9766049999999999    0.8267800000000000    0.2447500000000000 C
   0.9485350000000000    0.7707900000000000    0.2422100000000000 C
   0.9029250000000000    0.8060000000000000    0.2406500000000000 C
   0.9133549999999999    0.9533500000000000    0.2448000000000000 C
   0.8853500000000001    0.8972400000000000    0.2422500000000000 C
   0.9594100000000000    0.9189000000000001    0.2459050000000000 C
   0.4671800000000000    0.4851700000000000    0.3362450000000000 C
   0.3362100000000000    0.4853600000000000    0.4673150000000000 C
   0.6637900000000000    0.5146300000000000    0.5326950000000000 C
   0.5328150000000000    0.5148200000000001    0.6637500000000001 C
   0.5866450000000000    0.5103900000000000    0.5233000000000000 C
   0.6146500000000000    0.5155200000000000    0.5513600000000000 C
   0.5970750000000000    0.5187200000000000    0.5969900000000000 C
   0.5233950000000001    0.5105200000000000    0.5866000000000000 C
   0.5514650000000000    0.5156300000000000    0.6146000000000000 C
   0.5405950000000000    0.5082200000000000    0.5405350000000000 C
   0.4878050000000000    0.4973900000000000    0.4878350000000000 C
   0.5121950000000000    0.5026000000000000    0.5121700000000000 C
   0.4766050000000000    0.4894700000000000    0.4134050000000000 C
   0.4485350000000000    0.4843600000000000    0.3854100000000000 C
   0.4029200000000000    0.4812800000000000    0.4030200000000000 C
   0.4133550000000000    0.4896100000000000    0.4767050000000000 C
   0.3853500000000000    0.4844700000000000    0.4486500000000000 C
   0.4594050000000000    0.4917700000000000    0.4594700000000000 C
   0.2574650000000000    0.3275300000000000    0.5327100000000000 C
   0.2425300000000000    0.6724599999999999    0.4672950000000000 C
   0.2425200000000000    0.9345100000000000    0.3362450000000000 C
   0.2574800000000000    0.0654800000000000    0.6637600000000000 C
   0.2446850000000000    0.8267600000000001    0.4767000000000000 C
   0.2420950000000000    0.7707700000000000    0.4486400000000000 C
   0.2405100000000000    0.8059700000000000    0.4030000000000000 C
   0.2446800000000000    0.9533300000000000    0.4134050000000000 C
   0.2420950000000000    0.8972000000000000    0.3854050000000000 C
   0.2458100000000000    0.9188700000000000    0.4594700000000000 C
   0.2486750000000000    0.9756200000000000    0.4878350000000000 C
   0.2513200000000000    0.0243700000000000    0.5121750000000000 C
   0.2553100000000000    0.1732300000000000    0.5233050000000000 C
   0.2579000000000000    0.2292200000000000    0.5513650000000000 C
   0.2594900000000000    0.1940200000000000    0.5969949999999999 C
   0.2553200000000000    0.0466600000000000    0.5866050000000000 C
   0.2579050000000000    0.1027900000000000    0.6146000000000000 C
   0.2541850000000000    0.0811100000000000    0.5405000000000000 C
   0.9671799999999999    0.4851700000000000    0.3362450000000000 C
   0.8362100000000000    0.4853600000000000    0.4673150000000000 C
   0.1637900000000000    0.5146300000000000    0.5326950000000000 C
   0.0328150000000000    0.5148200000000001    0.6637500000000001 C
   0.0866450000000000    0.5103900000000000    0.5233000000000000 C
   0.1146500000000000    0.5155200000000000    0.5513600000000000 C
   0.0970750000000000    0.5187200000000000    0.5969900000000000 C
   0.0233950000000000    0.5105200000000000    0.5866000000000000 C
   0.0514650000000000    0.5156300000000000    0.6146000000000000 C
   0.0405950000000000    0.5082200000000000    0.5405350000000000 C
   0.9878050000000000    0.4973900000000000    0.4878350000000000 C
   0.0121950000000000    0.5026000000000000    0.5121700000000000 C
   0.9766049999999999    0.4894700000000000    0.4134050000000000 C
   0.9485350000000000    0.4843600000000000    0.3854100000000000 C
   0.9029199999999999    0.4812800000000000    0.4030200000000000 C
   0.9133549999999999    0.4896100000000000    0.4767050000000000 C
   0.8853500000000001    0.4844700000000000    0.4486500000000000 C
   0.9594050000000001    0.4917700000000000    0.4594700000000000 C
   0.7574650000000001    0.3275300000000000    0.5327100000000000 C
   0.7425300000000000    0.6724599999999999    0.4672950000000000 C
   0.7574799999999999    0.0654800000000000    0.6637600000000000 C
   0.7425200000000001    0.9345100000000000    0.3362450000000000 C
   0.7446850000000000    0.8267600000000001    0.4767000000000000 C
   0.7420949999999999    0.7707700000000000    0.4486400000000000 C
   0.7405100000000000    0.8059700000000000    0.4030000000000000 C
   0.7446800000000000    0.9533300000000000    0.4134050000000000 C
   0.7420949999999999    0.8972000000000000    0.3854050000000000 C
   0.7458100000000000    0.9188700000000000    0.4594700000000000 C
   0.7486750000000000    0.9756200000000000    0.4878350000000000 C
   0.7513200000000000    0.0243700000000000    0.5121750000000000 C
   0.7553099999999999    0.1732300000000000    0.5233050000000000 C
   0.7579000000000000    0.2292200000000000    0.5513650000000000 C
   0.7594900000000000    0.1940200000000000    0.5969949999999999 C
   0.7553200000000000    0.0466600000000000    0.5866050000000000 C
   0.7579050000000001    0.1027900000000000    0.6146000000000000 C
   0.7541850000000000    0.0811100000000000    0.5405000000000000 C
   0.4671800000000000    0.4851700000000000    0.8362450000000000 C
   0.3362100000000000    0.4853600000000000    0.9673149999999999 C
   0.6637900000000000    0.5146300000000000    0.0326950000000000 C
   0.5328150000000000    0.5148200000000001    0.1637500000000000 C
   0.5866450000000000    0.5103900000000000    0.0233000000000000 C
   0.6146500000000000    0.5155200000000000    0.0513600000000000 C
   0.5970750000000000    0.5187200000000000    0.0969900000000000 C
   0.5233950000000001    0.5105200000000000    0.0866000000000000 C
   0.5514650000000000    0.5156300000000000    0.1146000000000000 C
   0.5405950000000000    0.5082200000000000    0.0405350000000000 C
   0.5121950000000000    0.5026000000000000    0.0121700000000000 C
   0.4878050000000000    0.4973900000000000    0.9878350000000000 C
   0.4766050000000000    0.4894700000000000    0.9134050000000000 C
   0.4485350000000000    0.4843600000000000    0.8854100000000000 C
   0.4029200000000000    0.4812800000000000    0.9030199999999999 C
   0.4133550000000000    0.4896100000000000    0.9767049999999999 C
   0.3853500000000000    0.4844700000000000    0.9486500000000000 C
   0.4594050000000000    0.4917700000000000    0.9594700000000000 C
   0.2425300000000000    0.6724599999999999    0.9672950000000000 C
   0.2574650000000000    0.3275300000000000    0.0327100000000000 C
   0.2574800000000000    0.0654800000000000    0.1637600000000000 C
   0.2425200000000000    0.9345100000000000    0.8362450000000000 C
   0.2446850000000000    0.8267600000000001    0.9767000000000000 C
   0.2420950000000000    0.7707700000000000    0.9486399999999999 C
   0.2405100000000000    0.8059700000000000    0.9030000000000000 C
   0.2446800000000000    0.9533300000000000    0.9134050000000000 C
   0.2420950000000000    0.8972000000000000    0.8854050000000000 C
   0.2458100000000000    0.9188700000000000    0.9594700000000000 C
   0.2513200000000000    0.0243700000000000    0.0121750000000000 C
   0.2486750000000000    0.9756200000000000    0.9878350000000000 C
   0.2553100000000000    0.1732300000000000    0.0233050000000000 C
   0.2579000000000000    0.2292200000000000    0.0513650000000000 C
   0.2594900000000000    0.1940200000000000    0.0969950000000000 C
   0.2553200000000000    0.0466600000000000    0.0866050000000000 C
   0.2579050000000000    0.1027900000000000    0.1146000000000000 C
   0.2541850000000000    0.0811100000000000    0.0405000000000000 C
   0.9671799999999999    0.4851700000000000    0.8362450000000000 C
   0.8362100000000000    0.4853600000000000    0.9673149999999999 C
   0.1637900000000000    0.5146300000000000    0.0326950000000000 C
   0.0328150000000000    0.5148200000000001    0.1637500000000000 C
   0.0866450000000000    0.5103900000000000    0.0233000000000000 C
   0.1146500000000000    0.5155200000000000    0.0513600000000000 C
   0.0970750000000000    0.5187200000000000    0.0969900000000000 C
   0.0233950000000000    0.5105200000000000    0.0866000000000000 C
   0.0514650000000000    0.5156300000000000    0.1146000000000000 C
   0.0405950000000000    0.5082200000000000    0.0405350000000000 C
   0.0121950000000000    0.5026000000000000    0.0121700000000000 C
   0.9878050000000000    0.4973900000000000    0.9878350000000000 C
   0.9766049999999999    0.4894700000000000    0.9134050000000000 C
   0.9485350000000000    0.4843600000000000    0.8854100000000000 C
   0.9029199999999999    0.4812800000000000    0.9030199999999999 C
   0.9133549999999999    0.4896100000000000    0.9767049999999999 C
   0.8853500000000001    0.4844700000000000    0.9486500000000000 C
   0.9594050000000001    0.4917700000000000    0.9594700000000000 C
   0.4407200000000000    0.6246500000000000    0.7384999999999999 O
   0.5081750000000000    0.6434400000000000    0.7476550000000000 O
   0.5592800000000000    0.3753500000000000    0.7614750000000000 O
   0.4918200000000000    0.3565500000000000    0.7523550000000000 O
   0.3123050000000000    0.8815900000000000    0.7386300000000000 O
   0.3217050000000000    0.0165700000000000    0.7477250000000000 O
   0.6876900000000000    0.1184100000000000    0.7613750000000000 O
   0.6782950000000000    0.9834200000000000    0.7522850000000000 O
   0.4407200000000000    0.6246500000000000    0.2385000000000000 O
   0.5081750000000000    0.6434400000000000    0.2476550000000000 O
   0.5592800000000000    0.3753500000000000    0.2614750000000000 O
   0.4918200000000000    0.3565500000000000    0.2523550000000000 O
   0.3123050000000000    0.8815900000000000    0.2386300000000000 O
   0.3217050000000000    0.0165700000000000    0.2477250000000000 O
   0.6876900000000000    0.1184100000000000    0.2613750000000000 O
   0.6782950000000000    0.9834200000000000    0.2522850000000000 O
   0.9407200000000000    0.6246500000000000    0.7384999999999999 O
   0.0081750000000000    0.6434400000000000    0.7476550000000000 O
   0.0592800000000000    0.3753500000000000    0.7614750000000000 O
   0.9918199999999999    0.3565500000000000    0.7523550000000000 O
   0.8123050000000001    0.8815900000000000    0.7386300000000000 O
   0.8217050000000000    0.0165700000000000    0.7477250000000000 O
   0.1876900000000000    0.1184100000000000    0.7613750000000000 O
   0.1782950000000000    0.9834200000000000    0.7522850000000000 O
   0.9407200000000000    0.6246500000000000    0.2385000000000000 O
   0.0081750000000000    0.6434400000000000    0.2476550000000000 O
   0.0592800000000000    0.3753500000000000    0.2614750000000000 O
   0.9918199999999999    0.3565500000000000    0.2523550000000000 O
   0.8123050000000001    0.8815900000000000    0.2386300000000000 O
   0.8217050000000000    0.0165700000000000    0.2477250000000000 O
   0.1876900000000000    0.1184100000000000    0.2613750000000000 O
   0.1782950000000000    0.9834200000000000    0.2522850000000000 O
   0.7475450000000000    0.0165300000000000    0.8217250000000000 O
   0.7384700000000000    0.8815200000000000    0.8123350000000000 O
   0.7524550000000000    0.9834600000000000    0.1782500000000000 O
   0.7615300000000000    0.1184700000000000    0.1876700000000000 O
   0.4407150000000000    0.4769900000000000    0.3123000000000000 O
   0.5081750000000000    0.4952400000000000    0.3217250000000000 O
   0.3123100000000000    0.4772500000000000    0.4408150000000000 O
   0.3216900000000000    0.4954300000000000    0.5083000000000000 O
   0.6876900000000000    0.5227400000000000    0.5591950000000000 O
   0.6783049999999999    0.5045700000000000    0.4916950000000000 O
   0.5592800000000000    0.5230100000000000    0.6876750000000000 O
   0.4918250000000000    0.5047500000000000    0.6782850000000000 O
   0.2615000000000000    0.3753400000000000    0.5592150000000000 O
   0.2524450000000000    0.3565600000000000    0.4917100000000000 O
   0.2385000000000000    0.6246500000000000    0.4407900000000000 O
   0.2475500000000000    0.6434299999999999    0.5083000000000000 O
   0.2384700000000000    0.8815200000000000    0.3123350000000000 O
   0.2475450000000000    0.0165300000000000    0.3217250000000000 O
   0.2615300000000000    0.1184700000000000    0.6876700000000000 O
   0.2524550000000000    0.9834600000000000    0.6782500000000000 O
   0.9407150000000000    0.4769900000000000    0.3123000000000000 O
   0.0081750000000000    0.4952400000000000    0.3217250000000000 O
   0.8123100000000000    0.4772500000000000    0.4408150000000000 O
   0.8216900000000000    0.4954300000000000    0.5083000000000000 O
   0.1876900000000000    0.5227400000000000    0.5591950000000000 O
   0.1783050000000000    0.5045700000000000    0.4916950000000000 O
   0.0592800000000000    0.5230100000000000    0.6876750000000000 O
   0.9918250000000000    0.5047500000000000    0.6782850000000000 O
   0.7615000000000001    0.3753400000000000    0.5592150000000000 O
   0.7524450000000000    0.3565600000000000    0.4917100000000000 O
   0.7384999999999999    0.6246500000000000    0.4407900000000000 O
   0.7475499999999999    0.6434299999999999    0.5083000000000000 O
   0.7615300000000000    0.1184700000000000    0.6876700000000000 O
   0.7524550000000000    0.9834600000000000    0.6782500000000000 O
   0.7384700000000000    0.8815200000000000    0.3123350000000000 O
   0.7475450000000000    0.0165300000000000    0.3217250000000000 O
   0.4407150000000000    0.4769900000000000    0.8123000000000000 O
   0.5081750000000000    0.4952400000000000    0.8217250000000000 O
   0.3123100000000000    0.4772500000000000    0.9408150000000000 O
   0.3216900000000000    0.4954300000000000    0.0083000000000000 O
   0.6876900000000000    0.5227400000000000    0.0591950000000000 O
   0.6783049999999999    0.5045700000000000    0.9916950000000000 O
   0.5592800000000000    0.5230100000000000    0.1876750000000000 O
   0.4918250000000000    0.5047500000000000    0.1782850000000000 O
   0.2385000000000000    0.6246500000000000    0.9407900000000000 O
   0.2475500000000000    0.6434299999999999    0.0083000000000000 O
   0.2615000000000000    0.3753400000000000    0.0592150000000000 O
   0.2524450000000000    0.3565600000000000    0.9917100000000000 O
   0.2615300000000000    0.1184700000000000    0.1876700000000000 O
   0.2524550000000000    0.9834600000000000    0.1782500000000000 O
   0.2384700000000000    0.8815200000000000    0.8123350000000000 O
   0.2475450000000000    0.0165300000000000    0.8217250000000000 O
   0.9407150000000000    0.4769900000000000    0.8123000000000000 O
   0.0081750000000000    0.4952400000000000    0.8217250000000000 O
   0.8123100000000000    0.4772500000000000    0.9408150000000000 O
   0.8216900000000000    0.4954300000000000    0.0083000000000000 O
   0.1876900000000000    0.5227400000000000    0.0591950000000000 O
   0.1783050000000000    0.5045700000000000    0.9916950000000000 O
   0.0592800000000000    0.5230100000000000    0.1876750000000000 O
   0.9918250000000000    0.5047500000000000    0.1782850000000000 O
   0.7475499999999999    0.6434299999999999    0.0083000000000000 O
   0.7384999999999999    0.6246500000000000    0.9407900000000000 O
   0.7524450000000000    0.3565600000000000    0.9917100000000000 O
   0.7615000000000001    0.3753400000000000    0.0592150000000000 O
