Sc6 H26 C40 O26
1.0
  16.4009998401270316    0.0000000000000000    0.0022900115975146
  -8.1906426282469376   14.2370636800250487   -0.0040133845750239
   0.0000000000000000    0.0000000000000000   16.0790000000000006
Sc H C O
6 26 40 26
direct
   0.4716200000000000    0.7360400000000000    0.2500200000000000 Sc
   0.2645500000000000    0.5292700000000000    0.2500200000000000 Sc
   0.2641600000000000    0.7361600000000000    0.2499600000000000 Sc
   0.5283800000000000    0.2639800000000000    0.7500000000000000 Sc
   0.7354400000000000    0.4707600000000000    0.7500000000000000 Sc
   0.7358400000000000    0.2638600000000000    0.7500000000000000 Sc
   0.6010400000000000    0.9400400000000000    0.0571000000000000 H
   0.6608600000000000    0.0593700000000000    0.9428600000000000 H
   0.3989600000000000    0.0599800000000000    0.9429200000000000 H
   0.3391400000000000    0.9406500000000000    0.0571600000000000 H
   0.6014100000000000    0.6607800000000000    0.4433200000000000 H
   0.6607100000000000    0.6004400000000000    0.5575599999999999 H
   0.3392900000000000    0.3995900000000000    0.4424600000000000 H
   0.3985800000000000    0.3392500000000000    0.5567000000000000 H
   0.3080536909380154    0.4526458941004905    0.1383160682654344 H
   0.5488592398125375    0.6926538824170295    0.1382491586594503 H
   0.4323724388870299    0.5689000030914823    0.1311671183521076 H
   0.6919450526881871    0.5473715460079038    0.8617198452326528 H
   0.4511405490736693    0.3073656078432006    0.8617701846571422 H
   0.5676278621533160    0.4311196853294961    0.8688618076023870 H
   0.9393800000000000    0.6002700000000000    0.9425400000000000 H
   0.0589600000000000    0.6607300000000000    0.0567700000000000 H
   0.9410400000000000    0.3392900000000000    0.9432500000000000 H
   0.0606200000000000    0.3997500000000000    0.0574800000000000 H
   0.3391700000000000    0.9409200000000000    0.4428800000000000 H
   0.3992200000000000    0.0602900000000000    0.5571800000000000 H
   0.6608300000000000    0.0591100000000000    0.5571400000000000 H
   0.6007800000000000    0.9397400000000000    0.4428400000000000 H
   0.0608700000000000    0.4000000000000000    0.4424100000000000 H
   0.9413300000000000    0.3393200000000000    0.5567200000000000 H
   0.9391200000000000    0.6000300000000000    0.5576000000000000 H
   0.0586600000000000    0.6607100000000000    0.4433000000000000 H
   0.4313400000000000    0.8629800000000000    0.1315900000000000 C
   0.5686600000000001    0.1370500000000000    0.8684300000000000 C
   0.5575100000000000    0.9668900000000000    0.0316900000000000 C
   0.5905500000000000    0.0327900000000000    0.9682900000000000 C
   0.4424900000000000    0.0331300000000000    0.9683300000000000 C
   0.4094500000000000    0.9672400000000000    0.0317300000000000 C
   0.4665200000000000    0.9332200000000000    0.0643700000000000 C
   0.5334800000000000    0.0667900000000000    0.9356000000000000 C
   0.4318100000000000    0.5691800000000000    0.3684500000000000 C
   0.5681800000000000    0.4308500000000000    0.6315000000000000 C
   0.5577200000000000    0.5905100000000000    0.4685400000000000 C
   0.5904600000000000    0.5571900000000000    0.5319500000000000 C
   0.4095300000000000    0.4428400000000000    0.4680000000000000 C
   0.4422700000000000    0.4095200000000000    0.5314800000000000 C
   0.4668100000000000    0.5337700000000000    0.4356600000000000 C
   0.5331900000000001    0.4662600000000000    0.5643600000000000 C
   0.1372700000000000    0.5692700000000001    0.1315600000000000 C
   0.8627300000000000    0.4307500000000000    0.8684600000000000 C
   0.9665300000000000    0.5571100000000000    0.9681300000000000 C
   0.0325500000000000    0.5904800000000000    0.0315100000000000 C
   0.0669000000000000    0.5338300000000000    0.0643500000000000 C
   0.9674400000000000    0.4095400000000000    0.9685100000000000 C
   0.0334700000000000    0.4429200000000000    0.0318900000000000 C
   0.9330900000000000    0.4662000000000000    0.9356700000000000 C
   0.4311700000000000    0.8629700000000000    0.3684000000000000 C
   0.5688299999999999    0.1370600000000000    0.6316000000000001 C
   0.4094600000000000    0.9673900000000000    0.4683000000000000 C
   0.4426100000000000    0.0332800000000000    0.5317300000000000 C
   0.4664100000000000    0.9332300000000000    0.4356300000000000 C
   0.5905400000000000    0.0326400000000000    0.5317200000000000 C
   0.5573800000000000    0.9667400000000000    0.4682900000000000 C
   0.5335900000000000    0.0668100000000000    0.5643800000000000 C
   0.8627500000000000    0.4306100000000000    0.6316100000000000 C
   0.1372400000000000    0.5694200000000000    0.3684100000000000 C
   0.0336100000000000    0.4430500000000000    0.4680600000000000 C
   0.9675900000000000    0.4095600000000000    0.5315000000000000 C
   0.9663900000000000    0.5569700000000000    0.5319600000000000 C
   0.0324000000000000    0.5904700000000001    0.4685200000000000 C
   0.9331100000000000    0.4661000000000000    0.5643899999999999 C
   0.0668900000000000    0.5339300000000000    0.4356300000000000 C
   0.4852300000000000    0.8331100000000000    0.1596000000000000 O
   0.3476200000000000    0.8332700000000000    0.1595800000000000 O
   0.5147699999999999    0.1669100000000000    0.8404199999999999 O
   0.6523800000000000    0.1667500000000000    0.8404400000000000 O
   0.4857400000000000    0.6526999999999999    0.3404600000000000 O
   0.3481300000000000    0.5155600000000000    0.3404100000000000 O
   0.5142500000000000    0.3473200000000000    0.6595600000000000 O
   0.6518699999999999    0.4844600000000000    0.6596100000000000 O
   0.3481700000000000    0.5155900000000000    0.1596500000000000 O
   0.4858000000000000    0.6527300000000000    0.1595800000000000 O
   0.6518300000000000    0.4844300000000000    0.8403800000000000 O
   0.5142000000000000    0.3472900000000000    0.8404400000000000 O
   0.1673900000000000    0.5156700000000000    0.1596000000000000 O
   0.1667800000000000    0.6528200000000000    0.1595500000000000 O
   0.8326000000000000    0.4843600000000000    0.8404100000000000 O
   0.8332200000000000    0.3472000000000000    0.8404700000000001 O
   0.3474800000000000    0.8333100000000000    0.3404100000000000 O
   0.4850400000000000    0.8330500000000000    0.3404000000000000 O
   0.6525100000000000    0.1667200000000000    0.6596100000000000 O
   0.5149600000000000    0.1669800000000000    0.6596200000000000 O
   0.3334700000000000    0.6672200000000000    0.2500000000000000 O
   0.8332500000000000    0.3470900000000000    0.6595800000000001 O
   0.8325800000000000    0.4842100000000000    0.6596600000000000 O
   0.1667400000000000    0.6529400000000000    0.3404400000000000 O
   0.1674100000000000    0.5158199999999999    0.3403600000000000 O
   0.6665300000000000    0.3328100000000000    0.7500200000000000 O
