H9 O6
1.0
  30.9961109579685115    0.0000000000000000    2.6360518737886189
   2.2021343372861044    9.1783939319236545    3.8078042479849930
   0.0000000000000000    0.0000000000000000   26.8599999999999994
H O
9 6
direct
   0.0580957846644510    0.3111705149073509    0.8188110482361458 H
   0.1188131070215997   -0.1083393054179354    0.8540795081154401 H
   0.0899409351894446    0.0904784842900519    0.8427551182344035 H
   0.0649337037675208    0.5123064578981821    0.1397672362555911 H
   0.0256226058438362    0.6281325397237025    0.2731802249222958 H
   0.0454977046249491    0.5701800379385962    0.2068871354501974 H
   0.0644466397346649    0.0080861593313920    0.2450758872214065 H
   0.0108039016617931    0.3271840405159053    0.1093768106879760 H
   0.0373012804192127    0.1636142316239989    0.1743617290382967 H
   0.0704100000000000    0.2282600000000000    0.8082250000000000 O
   0.1050575000000000   -0.0112999999999999    0.8297600000000001 O
   0.0538550000000000    0.5410500000000000    0.1699300000000000 O
   0.0327900000000000    0.6031500000000000    0.2414850000000000 O
   0.0518550000000000    0.1073100000000000    0.2215850000000000 O
   0.0220800000000000    0.2835600000000000    0.1459650000000000 O
