H4 C12 N4
1.0
  21.8359980843317452    0.0000000000000000   -0.0091466420236929
  -0.0747496602121962   34.5939761208006189  -19.5357280294790883
   0.0000000000000000    0.0000000000000000   26.4800000000000004
H C N
4 12 4
direct
   0.5549800000000000    0.0623666666666667    0.3077200000000000 H
   0.4452700000000000    0.0625433333333333    0.2868600000000000 H
   0.4450400000000000    0.9376666666666666    0.1922950000000000 H
   0.5547500000000000    0.9374899999999999    0.2131500000000000 H
   0.5308800000000000    0.0350200000000000    0.2823800000000000 C
   0.6608400000000000    0.0340766666666667    0.3068000000000000 C
   0.4692700000000000    0.0351200000000000    0.2707600000000000 C
   0.3390500000000000    0.0345266666666667    0.2457350000000000 C
   0.3718900000000000    0.0001933333333333    0.2258100000000000 C
   0.4365300000000000    0.0001133333333333    0.2380700000000000 C
   0.4691500000000000    0.9650133333333333    0.2176350000000000 C
   0.3391800000000000    0.9659533333333332    0.1932050000000000 C
   0.5307500000000001    0.9649099999999999    0.2292550000000000 C
   0.6609699999999999    0.9655066666666666    0.2542800000000000 C
   0.6281300000000000    0.9998300000000000    0.2742000000000000 C
   0.5634900000000000    0.9999100000000000    0.2619450000000000 C
   0.6873300000000000    0.0631900000000000    0.3355450000000000 N
   0.3124300000000000    0.0637233333333333    0.2617050000000000 N
   0.3127000000000000    0.9368399999999999    0.1644500000000000 N
   0.6875900000000000    0.9363066666666666    0.2383100000000000 N
