Zn24 H278 C354 N44 O97
1.0
  36.9587643339698104    0.0000000000000000   -3.1762814588888628
  -2.0260132167910565   19.5955621828726798   -4.2960193415018679
   0.0000000000000000    0.0000000000000000   20.1799999999999997
Zn H C N O
24 278 354 44 97
direct
   0.3040566666666666    0.6058100000000000    0.3331700000000000 Zn
   0.6683433333333333    0.7553299999999999    0.4835000000000000 Zn
   0.9707233333333333    0.6058100000000000    0.3331700000000000 Zn
   0.3350100000000000    0.7553299999999999    0.4835000000000000 Zn
   0.6373899999999999    0.6058100000000000    0.3331700000000000 Zn
   0.0016766666666667    0.7553299999999999    0.4835000000000000 Zn
   0.8719266666666666    0.0729500000000000    0.5595100000000000 Zn
   0.2052600000000000    0.0729500000000000    0.5595100000000000 Zn
   0.5385933333333333    0.0729500000000000    0.5595100000000000 Zn
   0.4706700000000000    0.3332800000000000    0.6058300000000000 Zn
   0.8349633333333333    0.4836300000000000    0.7553000000000000 Zn
   0.8040033333333333    0.3332800000000000    0.6058300000000000 Zn
   0.1682966666666666    0.4836300000000000    0.7553000000000000 Zn
   0.1373366666666667    0.3332800000000000    0.6058300000000000 Zn
   0.5016300000000000    0.4836300000000000    0.7553000000000000 Zn
   0.7053300000000000    0.5604600000000000    0.0728600000000000 Zn
   0.0386633333333333    0.5604600000000000    0.0728600000000000 Zn
   0.3719966666666666    0.5604600000000000    0.0728600000000000 Zn
   0.2683900000000000    0.0164800000000000    0.5266500000000000 Zn
   0.6017233333333334    0.0164800000000000    0.5266500000000000 Zn
   0.9350566666666666    0.0164800000000000    0.5266500000000000 Zn
   0.4350700000000000    0.5259400000000000    0.0164300000000000 Zn
   0.1017366666666667    0.5259400000000000    0.0164300000000000 Zn
   0.7684033333333333    0.5259400000000000    0.0164300000000000 Zn
   0.1618771584676358    0.1693231425036453    0.5879135741420562 H
   0.1363540366528108    0.1000163964578990    0.5609227296309561 H
   0.8530700000000000    0.5505000000000000    0.0540600000000000 H
   0.8424366666666666    0.6020000000000000    0.9944900000000000 H
   0.8683766666666666    0.5821600000000000    0.8866600000000000 H
   0.8984099999999999    0.5168900000000000    0.8684100000000000 H
   0.8922999999999999    0.4632000000000000    0.0284200000000000 H
   0.9117299999999999    0.4480200000000000    0.9488600000000000 H
   0.8284466666666666    0.4320500000000000    0.0304100000000000 H
   0.8003899999999999    0.3954400000000000    0.9529400000000000 H
   0.8741099999999999    0.3978800000000000    0.8444900000000000 H
   0.8266833333333332    0.3755500000000000    0.8462800000000000 H
   0.8044966666666666    0.5523900000000000    0.8885600000000000 H
   0.7862600000000000    0.4651400000000000    0.8717100000000000 H
   0.5197366666666666    0.5505000000000000    0.0540600000000000 H
   0.5091033333333332    0.6020000000000000    0.9944900000000000 H
   0.5350433333333333    0.5821600000000000    0.8866600000000000 H
   0.5650766666666667    0.5168900000000000    0.8684100000000000 H
   0.5589666666666666    0.4632000000000000    0.0284200000000000 H
   0.5783966666666667    0.4480200000000000    0.9488600000000000 H
   0.4951133333333333    0.4320500000000000    0.0304100000000000 H
   0.4670566666666667    0.3954400000000000    0.9529400000000000 H
   0.5407766666666667    0.3978800000000000    0.8444900000000000 H
   0.4933500000000000    0.3755500000000000    0.8462800000000000 H
   0.4711633333333333    0.5523900000000000    0.8885600000000000 H
   0.4529266666666666    0.4651400000000000    0.8717100000000000 H
   0.1864033333333333    0.5505000000000000    0.0540600000000000 H
   0.1757700000000000    0.6020000000000000    0.9944900000000000 H
   0.2017100000000000    0.5821600000000000    0.8866600000000000 H
   0.2317433333333333    0.5168900000000000    0.8684100000000000 H
   0.2256333333333333    0.4632000000000000    0.0284200000000000 H
   0.2450633333333333    0.4480200000000000    0.9488600000000000 H
   0.1617800000000000    0.4320500000000000    0.0304100000000000 H
   0.1337233333333333    0.3954400000000000    0.9529400000000000 H
   0.2074433333333333    0.3978800000000000    0.8444900000000000 H
   0.1600166666666666    0.3755500000000000    0.8462800000000000 H
   0.1378300000000000    0.5523900000000000    0.8885600000000000 H
   0.1195933333333333    0.4651400000000000    0.8717100000000000 H
   0.2875533333333333    0.5484800000000000    0.0347800000000000 H
   0.2945500000000000    0.4933900000000000    0.0924300000000000 H
   0.2682133333333333    0.5151700000000000    0.1997500000000000 H
   0.2416033333333333    0.5857100000000000    0.2198200000000000 H
   0.2329100000000000    0.6593300000000000    0.1413000000000000 H
   0.2526233333333333    0.6422600000000001    0.0624200000000000 H
   0.3173000000000000    0.6633700000000000    0.0619600000000000 H
   0.3457900000000000    0.6940200000000000    0.1400900000000000 H
   0.2713533333333333    0.7011200000000000    0.2474300000000000 H
   0.3193800000000000    0.7158900000000000    0.2462300000000000 H
   0.3330233333333333    0.5348700000000000    0.1993400000000000 H
   0.3551533333333333    0.6196600000000000    0.2186200000000000 H
   0.9542200000000000    0.5484800000000000    0.0347800000000000 H
   0.9612166666666666    0.4933900000000000    0.0924300000000000 H
   0.9348799999999999    0.5151700000000000    0.1997500000000000 H
   0.9082699999999999    0.5857100000000000    0.2198200000000000 H
   0.8995766666666666    0.6593300000000000    0.1413000000000000 H
   0.9192899999999999    0.6422600000000001    0.0624200000000000 H
   0.9839666666666667    0.6633700000000000    0.0619600000000000 H
   0.0124566666666667    0.6940200000000000    0.1400900000000000 H
   0.9380200000000000    0.7011200000000000    0.2474300000000000 H
   0.9860466666666666    0.7158900000000000    0.2462300000000000 H
   0.9996900000000000    0.5348700000000000    0.1993400000000000 H
   0.0218200000000000    0.6196600000000000    0.2186200000000000 H
   0.6208866666666666    0.5484800000000000    0.0347800000000000 H
   0.6278833333333333    0.4933900000000000    0.0924300000000000 H
   0.6015466666666667    0.5151700000000000    0.1997500000000000 H
   0.5749366666666667    0.5857100000000000    0.2198200000000000 H
   0.5662433333333333    0.6593300000000000    0.1413000000000000 H
   0.5859566666666667    0.6422600000000001    0.0624200000000000 H
   0.6506333333333333    0.6633700000000000    0.0619600000000000 H
   0.6791233333333333    0.6940200000000000    0.1400900000000000 H
   0.6046866666666666    0.7011200000000000    0.2474300000000000 H
   0.6527133333333333    0.7158900000000000    0.2462300000000000 H
   0.6663566666666667    0.5348700000000000    0.1993400000000000 H
   0.6884866666666666    0.6196600000000000    0.2186200000000000 H
   0.6864600000000000    0.0540300000000000    0.5507900000000000 H
   0.6760400000000000    0.9943500000000000    0.6021600000000000 H
   0.7020099999999999    0.8863600000000000    0.5800000000000000 H
   0.7318700000000000    0.8680700000000000    0.5166300000000000 H
   0.7254633333333333    0.0283700000000000    0.4633400000000000 H
   0.7449166666666667    0.9487000000000000    0.4479200000000000 H
   0.6615266666666666    0.0306700000000000    0.4324700000000000 H
   0.6334500000000000    0.9533400000000000    0.3958500000000000 H
   0.7072799999999999    0.8444700000000001    0.3977700000000000 H
   0.6597966666666666    0.8464600000000000    0.3756100000000000 H
   0.6380600000000000    0.8885200000000000    0.5524700000000000 H
   0.6196100000000000    0.8719400000000000    0.4653300000000000 H
   0.3531266666666666    0.0540300000000000    0.5507900000000000 H
   0.3427066666666667    0.9943500000000000    0.6021600000000000 H
   0.3686766666666667    0.8863600000000000    0.5800000000000000 H
   0.3985366666666667    0.8680700000000000    0.5166300000000000 H
   0.3921300000000000    0.0283700000000000    0.4633400000000000 H
   0.4115833333333333    0.9487000000000000    0.4479200000000000 H
   0.3281933333333333    0.0306700000000000    0.4324700000000000 H
   0.3001166666666666    0.9533400000000000    0.3958500000000000 H
   0.3739466666666666    0.8444700000000001    0.3977700000000000 H
   0.3264633333333333    0.8464600000000000    0.3756100000000000 H
   0.3047266666666666    0.8885200000000000    0.5524700000000000 H
   0.2862766666666666    0.8719400000000000    0.4653300000000000 H
   0.0197933333333333    0.0540300000000000    0.5507900000000000 H
   0.0093733333333333    0.9943500000000000    0.6021600000000000 H
   0.0353433333333333    0.8863600000000000    0.5800000000000000 H
   0.0652033333333333    0.8680700000000000    0.5166300000000000 H
   0.0587966666666667    0.0283700000000000    0.4633400000000000 H
   0.0782500000000000    0.9487000000000000    0.4479200000000000 H
   0.9948600000000000    0.0306700000000000    0.4324700000000000 H
   0.9667833333333333    0.9533400000000000    0.3958500000000000 H
   0.0406133333333333    0.8444700000000001    0.3977700000000000 H
   0.9931300000000000    0.8464600000000000    0.3756100000000000 H
   0.9713933333333333    0.8885200000000000    0.5524700000000000 H
   0.9529433333333333    0.8719400000000000    0.4653300000000000 H
   0.7875233333333334    0.0348500000000000    0.5480200000000000 H
   0.7942766666666666    0.0926800000000000    0.4931000000000000 H
   0.7678966666666667    0.2001500000000000    0.5152600000000001 H
   0.7414700000000000    0.2201800000000000    0.5859000000000000 H
   0.7330766666666666    0.1414200000000000    0.6592600000000000 H
   0.7528300000000000    0.0624100000000000    0.6419300000000000 H
   0.8175366666666666    0.0616800000000000    0.6627200000000000 H
   0.8460133333333333    0.1397200000000000    0.6934600000000000 H
   0.7714966666666666    0.2474500000000000    0.7011500000000001 H
   0.8195533333333334    0.2460600000000000    0.7157300000000000 H
   0.8327500000000000    0.1995500000000000    0.5347300000000000 H
   0.8550633333333333    0.2185100000000000    0.6194000000000000 H
   0.4541900000000000    0.0348500000000000    0.5480200000000000 H
   0.4609433333333333    0.0926800000000000    0.4931000000000000 H
   0.4345633333333333    0.2001500000000000    0.5152600000000001 H
   0.4081366666666666    0.2201800000000000    0.5859000000000000 H
   0.3997433333333333    0.1414200000000000    0.6592600000000000 H
   0.4194966666666666    0.0624100000000000    0.6419300000000000 H
   0.4842033333333333    0.0616800000000000    0.6627200000000000 H
   0.5126800000000000    0.1397200000000000    0.6934600000000000 H
   0.4381633333333333    0.2474500000000000    0.7011500000000001 H
   0.4862200000000000    0.2460600000000000    0.7157300000000000 H
   0.4994166666666666    0.1995500000000000    0.5347300000000000 H
   0.5217300000000000    0.2185100000000000    0.6194000000000000 H
   0.5116300000000000    0.6575100000000000    0.1678000000000000 H
   0.5505433333333334    0.7448500000000000    0.2581400000000000 H
   0.4168733333333333    0.7566500000000000    0.2195500000000000 H
   0.4619833333333333    0.9525300000000000    0.3983600000000000 H
   0.4228866666666666    0.8649000000000000    0.3096500000000000 H
   0.5560666666666667    0.8491300000000001    0.3513100000000000 H
   0.1782966666666667    0.6575100000000000    0.1678000000000000 H
   0.2172100000000000    0.7448500000000000    0.2581400000000000 H
   0.0835400000000000    0.7566500000000000    0.2195500000000000 H
   0.1286500000000000    0.9525300000000000    0.3983600000000000 H
   0.0895533333333333    0.8649000000000000    0.3096500000000000 H
   0.2227333333333333    0.8491300000000001    0.3513100000000000 H
   0.8449633333333333    0.6575100000000000    0.1678000000000000 H
   0.8838766666666666    0.7448500000000000    0.2581400000000000 H
   0.7502066666666667    0.7566500000000000    0.2195500000000000 H
   0.7953166666666667    0.9525300000000000    0.3983600000000000 H
   0.7562200000000000    0.8649000000000000    0.3096500000000000 H
   0.8894000000000000    0.8491300000000001    0.3513100000000000 H
   0.6286666666666667    0.3988800000000000    0.9522300000000000 H
   0.5895733333333333    0.3099200000000000    0.8648700000000000 H
   0.7226466666666667    0.3513600000000000    0.8490799999999999 H
   0.6781866666666666    0.1676900000000000    0.6577700000000000 H
   0.7170933333333332    0.2580200000000000    0.7450000000000000 H
   0.5834999999999999    0.2195900000000000    0.7567300000000000 H
   0.9620000000000000    0.3988800000000000    0.9522300000000000 H
   0.9229066666666665    0.3099200000000000    0.8648700000000000 H
   0.0559800000000000    0.3513600000000000    0.8490799999999999 H
   0.0115200000000000    0.1676900000000000    0.6577700000000000 H
   0.0504266666666667    0.2580200000000000    0.7450000000000000 H
   0.9168333333333333    0.2195900000000000    0.7567300000000000 H
   0.2953333333333333    0.3988800000000000    0.9522300000000000 H
   0.2562400000000000    0.3099200000000000    0.8648700000000000 H
   0.3893133333333333    0.3513600000000000    0.8490799999999999 H
   0.3448533333333333    0.1676900000000000    0.6577700000000000 H
   0.3837600000000000    0.2580200000000000    0.7450000000000000 H
   0.2501666666666666    0.2195900000000000    0.7567300000000000 H
   0.2277333333333333    0.4630000000000000    0.4047500000000000 H
   0.2067233333333333    0.3617300000000000    0.4495200000000000 H
   0.2159500000000000    0.2471200000000000    0.4678800000000000 H
   0.3092100000000000    0.1497400000000000    0.3994600000000000 H
   0.3278700000000000    0.2468600000000000    0.3472100000000000 H
   0.3171633333333333    0.3612200000000000    0.3241000000000000 H
   0.4116833333333333    0.5780100000000000    0.2973900000000000 H
   0.4779233333333333    0.5731600000000000    0.2938000000000000 H
   0.4306666666666666    0.7570100000000000    0.4607500000000000 H
   0.5605833333333333    0.7972100000000000    0.5063000000000000 H
   0.4943400000000000    0.8023600000000000    0.5096900000000000 H
   0.5415333333333333    0.6233800000000000    0.3373400000000000 H
   0.6431766666666666    0.7324800000000000    0.8390500000000000 H
   0.6626466666666666    0.6811000000000000    0.9364200000000000 H
   0.6539400000000000    0.7572800000000000    0.7258800000000000 H
   0.7670933333333333    0.6391500000000000    0.7281800000000000 H
   0.7452766666666666    0.6828000000000000    0.6260000000000000 H
   0.7584166666666666    0.6210700000000000    0.8429100000000000 H
   0.8944000000000000    0.4630000000000000    0.4047500000000000 H
   0.8733899999999999    0.3617300000000000    0.4495200000000000 H
   0.8826166666666666    0.2471200000000000    0.4678800000000000 H
   0.9758766666666666    0.1497400000000000    0.3994600000000000 H
   0.9945366666666666    0.2468600000000000    0.3472100000000000 H
   0.9838300000000000    0.3612200000000000    0.3241000000000000 H
   0.0783500000000000    0.5780100000000000    0.2973900000000000 H
   0.1445900000000000    0.5731600000000000    0.2938000000000000 H
   0.0973333333333333    0.7570100000000000    0.4607500000000000 H
   0.2272500000000000    0.7972100000000000    0.5063000000000000 H
   0.1610066666666667    0.8023600000000000    0.5096900000000000 H
   0.2082000000000000    0.6233800000000000    0.3373400000000000 H
   0.3098433333333333    0.7324800000000000    0.8390500000000000 H
   0.3293133333333333    0.6811000000000000    0.9364200000000000 H
   0.3206066666666667    0.7572800000000000    0.7258800000000000 H
   0.4337600000000000    0.6391500000000000    0.7281800000000000 H
   0.4119433333333333    0.6828000000000000    0.6260000000000000 H
   0.4250833333333333    0.6210700000000000    0.8429100000000000 H
   0.5610666666666666    0.4630000000000000    0.4047500000000000 H
   0.5400566666666666    0.3617300000000000    0.4495200000000000 H
   0.5492833333333333    0.2471200000000000    0.4678800000000000 H
   0.6425433333333332    0.1497400000000000    0.3994600000000000 H
   0.6612033333333334    0.2468600000000000    0.3472100000000000 H
   0.6504966666666666    0.3612200000000000    0.3241000000000000 H
   0.7450166666666667    0.5780100000000000    0.2973900000000000 H
   0.8112566666666666    0.5731600000000000    0.2938000000000000 H
   0.7640000000000000    0.7570100000000000    0.4607500000000000 H
   0.8939166666666666    0.7972100000000000    0.5063000000000000 H
   0.8276733333333333    0.8023600000000000    0.5096900000000000 H
   0.8748666666666667    0.6233800000000000    0.3373400000000000 H
   0.9765100000000000    0.7324800000000000    0.8390500000000000 H
   0.9959800000000000    0.6811000000000000    0.9364200000000000 H
   0.9872733333333332    0.7572800000000000    0.7258800000000000 H
   0.1004266666666667    0.6391500000000000    0.7281800000000000 H
   0.0786100000000000    0.6828000000000000    0.6260000000000000 H
   0.0917500000000000    0.6210700000000000    0.8429100000000000 H
   0.3940833333333333    0.4048400000000000    0.4622100000000000 H
   0.3731333333333333    0.4494200000000000    0.3606400000000000 H
   0.3825533333333333    0.4676300000000000    0.2460700000000000 H
   0.4761866666666666    0.3991100000000000    0.1503200000000000 H
   0.4947000000000000    0.3469300000000000    0.2477200000000000 H
   0.4838133333333333    0.3241000000000000    0.3617000000000000 H
   0.7272066666666667    0.5068300000000000    0.7970500000000000 H
   0.6609633333333333    0.5101000000000000    0.8022600000000000 H
   0.7081366666666666    0.3374200000000000    0.6235900000000000 H
   0.5782800000000000    0.2972200000000000    0.5784000000000000 H
   0.6445233333333333    0.2938100000000000    0.5735100000000000 H
   0.5972800000000000    0.4610200000000000    0.7570300000000000 H
   0.9118166666666666    0.6258800000000000    0.6827600000000000 H
   0.9336166666666665    0.7274100000000000    0.6389600000000000 H
   0.9250299999999999    0.8423600000000000    0.6208100000000000 H
   0.8292900000000000    0.9366500000000000    0.6801500000000000 H
   0.8098533333333333    0.8395200000000000    0.7316800000000000 H
   0.8206033333333334    0.7262800000000000    0.7567700000000001 H
   0.7274166666666666    0.4048400000000000    0.4622100000000000 H
   0.7064666666666666    0.4494200000000000    0.3606400000000000 H
   0.7158866666666667    0.4676300000000000    0.2460700000000000 H
   0.8095200000000000    0.3991100000000000    0.1503200000000000 H
   0.8280333333333333    0.3469300000000000    0.2477200000000000 H
   0.8171466666666667    0.3241000000000000    0.3617000000000000 H
   0.0605400000000000    0.5068300000000000    0.7970500000000000 H
   0.9942966666666666    0.5101000000000000    0.8022600000000000 H
   0.0414700000000000    0.3374200000000000    0.6235900000000000 H
   0.9116133333333333    0.2972200000000000    0.5784000000000000 H
   0.9778566666666666    0.2938100000000000    0.5735100000000000 H
   0.9306133333333333    0.4610200000000000    0.7570300000000000 H
   0.2451500000000000    0.6258800000000000    0.6827600000000000 H
   0.2669500000000000    0.7274100000000000    0.6389600000000000 H
   0.2583633333333333    0.8423600000000000    0.6208100000000000 H
   0.1626233333333333    0.9366500000000000    0.6801500000000000 H
   0.1431866666666667    0.8395200000000000    0.7316800000000000 H
   0.1539366666666667    0.7262800000000000    0.7567700000000001 H
   0.0607500000000000    0.4048400000000000    0.4622100000000000 H
   0.0398000000000000    0.4494200000000000    0.3606400000000000 H
   0.0492200000000000    0.4676300000000000    0.2460700000000000 H
   0.1428533333333333    0.3991100000000000    0.1503200000000000 H
   0.1613666666666667    0.3469300000000000    0.2477200000000000 H
   0.1504800000000000    0.3241000000000000    0.3617000000000000 H
   0.3938733333333333    0.5068300000000000    0.7970500000000000 H
   0.3276300000000000    0.5101000000000000    0.8022600000000000 H
   0.3748033333333333    0.3374200000000000    0.6235900000000000 H
   0.2449466666666667    0.2972200000000000    0.5784000000000000 H
   0.3111900000000000    0.2938100000000000    0.5735100000000000 H
   0.2639466666666667    0.4610200000000000    0.7570300000000000 H
   0.5784833333333333    0.6258800000000000    0.6827600000000000 H
   0.6002833333333333    0.7274100000000000    0.6389600000000000 H
   0.5916966666666665    0.8423600000000000    0.6208100000000000 H
   0.4959566666666667    0.9366500000000000    0.6801500000000000 H
   0.4765199999999999    0.8395200000000000    0.7316800000000000 H
   0.4872700000000000    0.7262800000000000    0.7567700000000001 H
   0.8484866666666666    0.5508600000000000    0.9997300000000000 C
   0.8743799999999999    0.5316300000000000    0.8940000000000000 C
   0.8874733333333333    0.4624800000000000    0.9738100000000000 C
   0.8242366666666666    0.4314700000000000    0.9758300000000000 C
   0.8501700000000000    0.4120600000000000    0.8704300000000000 C
   0.8099299999999999    0.5013600000000000    0.8948199999999999 C
   0.5151533333333334    0.5508600000000000    0.9997300000000000 C
   0.5410466666666667    0.5316300000000000    0.8940000000000000 C
   0.5541400000000000    0.4624800000000000    0.9738100000000000 C
   0.4909033333333333    0.4314700000000000    0.9758300000000000 C
   0.5168366666666666    0.4120600000000000    0.8704300000000000 C
   0.4765966666666667    0.5013600000000000    0.8948199999999999 C
   0.1818200000000000    0.5508600000000000    0.9997300000000000 C
   0.2077133333333333    0.5316300000000000    0.8940000000000000 C
   0.2208066666666667    0.4624800000000000    0.9738100000000000 C
   0.1575700000000000    0.4314700000000000    0.9758300000000000 C
   0.1835033333333334    0.4120600000000000    0.8704300000000000 C
   0.1432633333333333    0.5013600000000000    0.8948199999999999 C
   0.2912166666666667    0.5461300000000000    0.0887000000000000 C
   0.2649700000000000    0.5673800000000000    0.1940200000000000 C
   0.2566000000000000    0.6410500000000000    0.1166800000000000 C
   0.3207100000000000    0.6621700000000000    0.1161800000000000 C
   0.2946233333333333    0.6834800000000000    0.2211600000000000 C
   0.3302933333333333    0.5873600000000000    0.1944500000000000 C
   0.9578833333333333    0.5461300000000000    0.0887000000000000 C
   0.9316366666666667    0.5673800000000000    0.1940200000000000 C
   0.9232666666666667    0.6410500000000000    0.1166800000000000 C
   0.9873766666666666    0.6621700000000000    0.1161800000000000 C
   0.9612900000000000    0.6834800000000000    0.2211600000000000 C
   0.9969600000000000    0.5873600000000000    0.1944500000000000 C
   0.6245499999999999    0.5461300000000000    0.0887000000000000 C
   0.5983033333333333    0.5673800000000000    0.1940200000000000 C
   0.5899333333333333    0.6410500000000000    0.1166800000000000 C
   0.6540433333333333    0.6621700000000000    0.1161800000000000 C
   0.6279566666666667    0.6834800000000000    0.2211600000000000 C
   0.6636266666666666    0.5873600000000000    0.1944500000000000 C
   0.6819366666666666    0.9996500000000000    0.5510400000000000 C
   0.7078700000000000    0.8937700000000000    0.5315000000000000 C
   0.7206866666666666    0.9737500000000000    0.4625000000000000 C
   0.6573666666666667    0.9760799999999999    0.4318100000000000 C
   0.6833533333333333    0.8705000000000001    0.4120000000000000 C
   0.6433466666666666    0.8949000000000000    0.5014900000000000 C
   0.3486033333333333    0.9996500000000000    0.5510400000000000 C
   0.3745366666666666    0.8937700000000000    0.5315000000000000 C
   0.3873533333333333    0.9737500000000000    0.4625000000000000 C
   0.3240333333333333    0.9760799999999999    0.4318100000000000 C
   0.3500200000000000    0.8705000000000001    0.4120000000000000 C
   0.3100133333333333    0.8949000000000000    0.5014900000000000 C
   0.0152700000000000    0.9996500000000000    0.5510400000000000 C
   0.0412033333333333    0.8937700000000000    0.5315000000000000 C
   0.0540200000000000    0.9737500000000000    0.4625000000000000 C
   0.9906999999999999    0.9760799999999999    0.4318100000000000 C
   0.0166866666666667    0.8705000000000001    0.4120000000000000 C
   0.9766800000000000    0.8949000000000000    0.5014900000000000 C
   0.7911066666666666    0.0888600000000000    0.5458000000000000 C
   0.7648033333333333    0.1943100000000000    0.5674200000000000 C
   0.7567366666666666    0.1167300000000000    0.6408500000000000 C
   0.8208866666666667    0.1159600000000000    0.6616800000000000 C
   0.7947433333333334    0.2211100000000000    0.6833800000000000 C
   0.8301600000000000    0.1944800000000000    0.5871499999999999 C
   0.4577733333333333    0.0888600000000000    0.5458000000000000 C
   0.4314700000000000    0.1943100000000000    0.5674200000000000 C
   0.4234033333333333    0.1167300000000000    0.6408500000000000 C
   0.4875533333333333    0.1159600000000000    0.6616800000000000 C
   0.4614100000000000    0.2211100000000000    0.6833800000000000 C
   0.4968266666666666    0.1944800000000000    0.5871499999999999 C
   0.5336333333333333    0.9569700000000000    0.4369200000000000 C
   0.4395666666666667    0.6480399999999999    0.1349400000000000 C
   0.5001300000000000    0.6996500000000000    0.1994000000000000 C
   0.5213800000000000    0.7478600000000000    0.2488900000000000 C
   0.4461633333333333    0.7548000000000000    0.2279500000000000 C
   0.4620100000000000    0.7024700000000000    0.1885100000000000 C
   0.4673600000000000    0.8059200000000000    0.2786300000000000 C
   0.4734166666666667    0.9095700000000000    0.3680100000000000 C
   0.4520066666666667    0.8611400000000000    0.3188600000000000 C
   0.5269933333333333    0.8524200000000000    0.3415200000000000 C
   0.5113400000000000    0.9053200000000000    0.3804900000000000 C
   0.5058566666666666    0.8022800000000000    0.2899000000000000 C
   0.2003000000000000    0.9569700000000000    0.4369200000000000 C
   0.1062333333333333    0.6480399999999999    0.1349400000000000 C
   0.1667966666666666    0.6996500000000000    0.1994000000000000 C
   0.1880466666666666    0.7478600000000000    0.2488900000000000 C
   0.1128300000000000    0.7548000000000000    0.2279500000000000 C
   0.1286766666666667    0.7024700000000000    0.1885100000000000 C
   0.1340266666666667    0.8059200000000000    0.2786300000000000 C
   0.1400833333333333    0.9095700000000000    0.3680100000000000 C
   0.1186733333333333    0.8611400000000000    0.3188600000000000 C
   0.1936600000000000    0.8524200000000000    0.3415200000000000 C
   0.1780066666666667    0.9053200000000000    0.3804900000000000 C
   0.1725233333333333    0.8022800000000000    0.2899000000000000 C
   0.8669666666666667    0.9569700000000000    0.4369200000000000 C
   0.7728999999999999    0.6480399999999999    0.1349400000000000 C
   0.8334633333333332    0.6996500000000000    0.1994000000000000 C
   0.8547133333333332    0.7478600000000000    0.2488900000000000 C
   0.7794966666666666    0.7548000000000000    0.2279500000000000 C
   0.7953433333333333    0.7024700000000000    0.1885100000000000 C
   0.8006933333333333    0.8059200000000000    0.2786300000000000 C
   0.8067500000000000    0.9095700000000000    0.3680100000000000 C
   0.7853399999999999    0.8611400000000000    0.3188600000000000 C
   0.8603266666666667    0.8524200000000000    0.3415200000000000 C
   0.8446733333333333    0.9053200000000000    0.3804900000000000 C
   0.8391899999999999    0.8022800000000000    0.2899000000000000 C
   0.7002966666666666    0.4373500000000000    0.9566100000000000 C
   0.6061666666666666    0.1348100000000000    0.6481900000000000 C
   0.6400766666666666    0.3684000000000000    0.9093599999999999 C
   0.6186600000000000    0.3191000000000000    0.8610700000000000 C
   0.6935966666666666    0.3416500000000000    0.8523500000000001 C
   0.6779766666666667    0.3808200000000000    0.9051000000000000 C
   0.6724533333333333    0.2899500000000000    0.8023100000000000 C
   0.6666666666666666    0.1993200000000000    0.6998000000000000 C
   0.6879500000000000    0.2488300000000000    0.7479800000000000 C
   0.6127700000000000    0.2279600000000000    0.7548800000000000 C
   0.6285900000000000    0.1884400000000000    0.7026200000000000 C
   0.6339733333333333    0.2787300000000000    0.8059300000000000 C
   0.0336300000000000    0.4373500000000000    0.9566100000000000 C
   0.9395000000000000    0.1348100000000000    0.6481900000000000 C
   0.9734099999999999    0.3684000000000000    0.9093599999999999 C
   0.9519933333333332    0.3191000000000000    0.8610700000000000 C
   0.0269300000000000    0.3416500000000000    0.8523500000000001 C
   0.0113100000000000    0.3808200000000000    0.9051000000000000 C
   0.0057866666666667    0.2899500000000000    0.8023100000000000 C
   0.0000000000000000    0.1993200000000000    0.6998000000000000 C
   0.0212833333333333    0.2488300000000000    0.7479800000000000 C
   0.9461033333333333    0.2279600000000000    0.7548800000000000 C
   0.9619233333333332    0.1884400000000000    0.7026200000000000 C
   0.9673066666666666    0.2787300000000000    0.8059300000000000 C
   0.3669633333333333    0.4373500000000000    0.9566100000000000 C
   0.2728333333333333    0.1348100000000000    0.6481900000000000 C
   0.3067433333333333    0.3684000000000000    0.9093599999999999 C
   0.2853266666666666    0.3191000000000000    0.8610700000000000 C
   0.3602633333333333    0.3416500000000000    0.8523500000000001 C
   0.3446433333333333    0.3808200000000000    0.9051000000000000 C
   0.3391200000000000    0.2899500000000000    0.8023100000000000 C
   0.3333333333333333    0.1993200000000000    0.6998000000000000 C
   0.3546166666666666    0.2488300000000000    0.7479800000000000 C