H6 O4
1.0
  36.9587643339698104    0.0000000000000000   -3.1762814588888628
  -2.0260132167910565   19.5955621828726798   -4.2960193415018679
   0.0000000000000000    0.0000000000000000   20.1799999999999997
H O
6 4
direct
   0.9267880921790519    0.7445157828641956    0.4942805050797457 H
   0.9156243826974618    0.6659459032426813    0.3364067964871066 H
   0.8910388710474239    0.6976092669836806    0.4126336076572659 H
   0.7123128349532726    0.5931201382694827    0.3464935180124408 H
   0.7228701822051474    0.7527467227089388    0.4221413608697604 H
   0.7479738302592878    0.6758014067743819    0.3917482145383287 H
   0.9484633333333332    0.7378100000000000    0.4710000000000000 O
   0.9394566666666666    0.6826300000000000    0.3606300000000000 O
   0.6905733333333333    0.6163900000000000    0.3528400000000000 O
   0.6990866666666666    0.7281300000000001    0.4060200000000000 O
