H12 C6 N4
1.0
  36.9587643339698104    0.0000000000000000   -3.1762814588888628
  -2.0260132167910565   19.5955621828726798   -4.2960193415018679
   0.0000000000000000    0.0000000000000000   20.1799999999999997
H C N
12 6 4
direct
   0.1660833333333333    0.1995500000000000    0.5347300000000000 H
   0.1883966666666667    0.2185100000000000    0.6194000000000000 H
   0.1793466666666667    0.1397200000000000    0.6934600000000000 H
   0.1508700000000000    0.0616800000000000    0.6627200000000000 H
   0.1208566666666667    0.0348500000000000    0.5480200000000000 H
   0.1276100000000000    0.0926800000000000    0.4931000000000000 H
   0.1048300000000000    0.2474500000000000    0.7011500000000001 H
   0.1528866666666667    0.2460600000000000    0.7157300000000000 H
   0.0664100000000000    0.1414200000000000    0.6592600000000000 H
   0.0861633333333333    0.0624100000000000    0.6419300000000000 H
   0.1012300000000000    0.2001500000000000    0.5152600000000001 H
   0.0748033333333333    0.2201800000000000    0.5859000000000000 H
   0.1634933333333333    0.1944800000000000    0.5871499999999999 C
   0.1542200000000000    0.1159600000000000    0.6616800000000000 C
   0.1244400000000000    0.0888600000000000    0.5458000000000000 C
   0.1280766666666667    0.2211100000000000    0.6833800000000000 C
   0.0900700000000000    0.1167300000000000    0.6408500000000000 C
   0.0981366666666667    0.1943100000000000    0.5674200000000000 C
   0.1587733333333333    0.1210100000000000    0.5893800000000000 N
   0.1318133333333333    0.2297000000000000    0.6119400000000000 N
   0.1229100000000000    0.1493300000000000    0.6860400000000000 N
   0.0927866666666667    0.1222300000000000    0.5694600000000000 N
