H9 C15 N6
1.0
  37.8459999769428919    0.0000000000000000    0.0013210746171501
   0.0003307224401436   18.9489999971139049    0.0000000000000012
   0.0000000000000000    0.0000000000000000   37.8939999999999984
H C N
9 15 6
direct
   0.0676450000000000    0.7175700000000000    0.2217650000000000 H
   0.2221550000000000    0.8638900000000000    0.1416850000000000 H
   0.1407950000000000    0.5569700000000000    0.0674500000000000 H
   0.1405750000000000    0.8652500000000000    0.2213350000000000 H
   0.0680100000000000    0.5556600000000000    0.1415800000000000 H
   0.2220800000000000    0.7168500000000000    0.0679500000000000 H
   0.1157700000000000    0.7682400000000000    0.1960100000000000 H
   0.1958400000000000    0.7687600000000000    0.1155900000000000 H
   0.1157850000000000    0.6079000000000000    0.1158300000000000 H
   0.0629600000000000    0.6725100000000001    0.2048250000000000 C
   0.2048650000000000    0.8737700000000000    0.1639000000000000 C
   0.1634400000000000    0.5906600000000000    0.0628450000000000 C
   0.1632750000000000    0.8744000000000000    0.2045500000000000 C
   0.0631350000000000    0.5899500000000000    0.1639150000000000 C
   0.2048850000000000    0.6722399999999999    0.0630500000000000 C
   0.1118350000000000    0.6847299999999999    0.1575900000000000 C
   0.0810400000000000    0.6515300000000001    0.1742000000000000 C
   0.1574900000000000    0.7763400000000000    0.1574950000000000 C
   0.1739550000000000    0.8380900000000000    0.1740400000000000 C
   0.1575150000000000    0.6849000000000000    0.1118050000000000 C
   0.1740050000000000    0.6518400000000000    0.0809300000000000 C
   0.1272400000000000    0.7453400000000000    0.1722700000000000 C
   0.1721900000000000    0.7455900000000000    0.1271700000000000 C
   0.1272550000000000    0.6553700000000000    0.1272900000000000 C
   0.0365400000000000    0.6269100000000000    0.2119550000000000 N
   0.2118000000000000    0.9267600000000000    0.1865000000000000 N
   0.1862450000000000    0.5763600000000000    0.0364400000000000 N
   0.1860550000000000    0.9272300000000000    0.2117250000000000 N
   0.0366600000000000    0.5758700000000000    0.1866900000000000 N
   0.2118750000000000    0.6267500000000000    0.0365950000000000 N
