Cu48 H286 C380 N190 O96
1.0
  32.1719996030938518    0.0000000000000000    0.0050535659217857
   0.0755838559512563   16.0967028008016158   -0.0620888346242592
   0.0000000000000000    0.0000000000000000   32.1899999999999977
Cu H C N O
48 286 380 190 96
direct
   0.6250550000000000    0.9998400000000000    0.3750050000000000 Cu
   0.7499800000000000    0.2497200000000000    0.3749800000000000 Cu
   0.8750500000000000    0.2501200000000000    0.2499450000000000 Cu
   0.8749750000000001    0.0000900000000000    0.1249600000000000 Cu
   0.0000450000000000    0.7495500000000000    0.1249400000000000 Cu
   0.6248350000000000    0.5000599999999999    0.3748500000000000 Cu
   0.4999850000000000    0.2502000000000000    0.3749750000000000 Cu
   0.1249500000000000    0.7497900000000000    0.2500350000000000 Cu
   0.8751650000000000    0.5002600000000000    0.6251300000000000 Cu
   0.8750100000000001    0.2497300000000000    0.5000900000000000 Cu
   0.6250000000000000    0.7501000000000000    0.5000800000000000 Cu
   0.7500450000000001    0.7502100000000000    0.6250150000000000 Cu
   0.1250550000000000    0.9998400000000000    0.3750050000000000 Cu
   0.2499800000000000    0.2497200000000000    0.3749800000000000 Cu
   0.3750500000000000    0.2501200000000000    0.2499450000000000 Cu
   0.3749750000000000    0.0000900000000000    0.1249600000000000 Cu
   0.5000450000000000    0.7495500000000000    0.1249400000000000 Cu
   0.1248350000000000    0.5000599999999999    0.3748500000000000 Cu
   0.9999850000000000    0.2502000000000000    0.3749750000000000 Cu
   0.6249500000000000    0.7497900000000000    0.2500350000000000 Cu
   0.3751650000000000    0.5002600000000000    0.6251300000000000 Cu
   0.3750100000000000    0.2497300000000000    0.5000900000000000 Cu
   0.1250000000000000    0.7501000000000000    0.5000800000000000 Cu
   0.2500450000000000    0.7502100000000000    0.6250150000000000 Cu
   0.6250550000000000    0.9998400000000000    0.8750050000000000 Cu
   0.7499800000000000    0.2497200000000000    0.8749800000000000 Cu
   0.8750500000000000    0.2501200000000000    0.7499450000000000 Cu
   0.8749750000000001    0.0000900000000000    0.6249600000000000 Cu
   0.0000450000000000    0.7495500000000000    0.6249400000000001 Cu
   0.6248350000000000    0.5000599999999999    0.8748500000000000 Cu
   0.4999850000000000    0.2502000000000000    0.8749750000000001 Cu
   0.1249500000000000    0.7497900000000000    0.7500350000000000 Cu
   0.8751650000000000    0.5002600000000000    0.1251300000000000 Cu
   0.8750100000000001    0.2497300000000000    0.0000900000000000 Cu
   0.6250000000000000    0.7501000000000000    0.0000800000000000 Cu
   0.7500450000000001    0.7502100000000000    0.1250150000000000 Cu
   0.1250550000000000    0.9998400000000000    0.8750050000000000 Cu
   0.2499800000000000    0.2497200000000000    0.8749800000000000 Cu
   0.3750500000000000    0.2501200000000000    0.7499450000000000 Cu
   0.3749750000000000    0.0000900000000000    0.6249600000000000 Cu
   0.5000450000000000    0.7495500000000000    0.6249400000000001 Cu
   0.1248350000000000    0.5000599999999999    0.8748500000000000 Cu
   0.9999850000000000    0.2502000000000000    0.8749750000000001 Cu
   0.6249500000000000    0.7497900000000000    0.7500350000000000 Cu
   0.3751650000000000    0.5002600000000000    0.1251300000000000 Cu
   0.3750100000000000    0.2497300000000000    0.0000900000000000 Cu
   0.1250000000000000    0.7501000000000000    0.0000800000000000 Cu
   0.2500450000000000    0.7502100000000000    0.1250150000000000 Cu
   0.3453550000000000    0.8087500000000000    0.4999150000000000 H
   0.3833100000000000    0.9231400000000000    0.5394450000000000 H
   0.2883500000000000    0.7328600000000000    0.5394250000000000 H
   0.8453550000000001    0.8087500000000000    0.9999150000000000 H
   0.8833100000000000    0.9231400000000000    0.0394450000000000 H
   0.7883500000000000    0.7328600000000000    0.0394250000000000 H
   0.3453550000000000    0.8087500000000000    0.9999150000000000 H
   0.3833100000000000    0.9231400000000000    0.0394450000000000 H
   0.2883500000000000    0.7328600000000000    0.0394250000000000 H
   0.8453550000000001    0.8087500000000000    0.4999150000000000 H
   0.8833100000000000    0.9231400000000000    0.5394450000000000 H
   0.7883500000000000    0.7328600000000000    0.5394250000000000 H
   0.5961650000000001    0.4991000000000000    0.0947550000000000 H
   0.5387550000000000    0.5778100000000000    0.1330500000000000 H
   0.6342600000000000    0.5784200000000000    0.0379700000000000 H
   0.0961650000000000    0.4991000000000000    0.0947550000000000 H
   0.0387550000000000    0.5778100000000000    0.1330500000000000 H
   0.1342600000000000    0.5784200000000000    0.0379700000000000 H
   0.5961650000000001    0.4991000000000000    0.5947550000000000 H
   0.5387550000000000    0.5778100000000000    0.6330500000000000 H
   0.6342600000000000    0.5784200000000000    0.5379699999999999 H
   0.0961650000000000    0.4991000000000000    0.5947550000000000 H
   0.0387550000000000    0.5778100000000000    0.6330500000000000 H
   0.1342600000000000    0.5784200000000000    0.5379699999999999 H
   0.2501850000000000    0.8083700000000000    0.4049050000000000 H
   0.2105750000000000    0.7325400000000000    0.4618550000000000 H
   0.2107000000000000    0.9228700000000000    0.3668900000000000 H
   0.7501850000000000    0.8083700000000000    0.4049050000000000 H
   0.7105750000000000    0.7325400000000000    0.4618550000000000 H
   0.7107000000000000    0.9228700000000000    0.3668900000000000 H
   0.9048700000000001    0.6890700000000000    0.4996950000000000 H
   0.9618400000000000    0.7656300000000000    0.5391800000000000 H
   0.8666950000000000    0.5756800000000000    0.5393050000000000 H
   0.4048700000000000    0.6890700000000000    0.4996950000000000 H
   0.4618400000000000    0.7656300000000000    0.5391800000000000 H
   0.3666950000000000    0.5756800000000000    0.5393050000000000 H
   0.0000000000000000    0.1899000000000000    0.1543500000000000 H
   0.9608900000000000    0.2667100000000000    0.2116250000000000 H
   0.9608350000000000    0.0758700000000000    0.1161400000000000 H
   0.4996850000000000    0.8099800000000000    0.3456950000000000 H
   0.5392399999999999    0.9239400000000000    0.3839000000000000 H
   0.5390950000000000    0.7333300000000000    0.2883450000000000 H
   0.7117450000000000    0.2669400000000000    0.4605600000000000 H
   0.6548000000000000    0.1909000000000000    0.5000000000000000 H
   0.6168350000000000    0.0765400000000000    0.4605550000000000 H
   0.8448300000000000    0.5000000000000000    0.3459650000000000 H
   0.8829950000000000    0.4212500000000000    0.2884850000000000 H
   0.7879600000000000    0.4207900000000000    0.3840400000000000 H
   0.6545750000000000    0.3080000000000000    0.2496700000000000 H
   0.6163200000000000    0.4228800000000000    0.2891150000000000 H
   0.7117750000000000    0.2317400000000000    0.2892400000000000 H
   0.0951700000000000    0.9995400000000000    0.1546650000000000 H
   0.0381300000000000    0.9205400000000000    0.1164800000000000 H
   0.1333400000000000    0.9207500000000000    0.2118000000000000 H
   0.9047149999999999    0.8103100000000000    0.2502450000000000 H
   0.9619200000000000    0.7334100000000000    0.2106850000000000 H
   0.8663550000000000    0.9243300000000000    0.2107150000000000 H
   0.7501150000000000    0.6891000000000000    0.3452800000000000 H
   0.7105000000000000    0.5756300000000000    0.3834000000000000 H
   0.7106600000000000    0.7655800000000000    0.2882000000000000 H
   0.5953600000000000    0.3105900000000000    0.4999400000000000 H
   0.5382950000000000    0.2342300000000000    0.4604700000000000 H
   0.6333700000000000    0.4243100000000000    0.4603750000000000 H
   0.4048600000000000    0.0001800000000000    0.3452400000000000 H
   0.4618800000000000    0.0791800000000000    0.3834650000000000 H
   0.3666900000000000    0.0790000000000000    0.2880850000000000 H
   0.5954500000000000    0.1897400000000000    0.2496900000000000 H
   0.5381899999999999    0.2666000000000000    0.2892000000000000 H
   0.6337650000000000    0.0756800000000000    0.2892350000000000 H
   0.7499700000000000    0.3111500000000000    0.6547000000000001 H
   0.7896150000000000    0.4247300000000000    0.6166550000000000 H
   0.7894399999999999    0.2346200000000000    0.7117450000000000 H
   0.0000000000000000    0.3083400000000000    0.5952850000000000 H
   0.9609150000000000    0.4231800000000000    0.6335000000000000 H
   0.9608300000000001    0.2319900000000000    0.5382100000000000 H
   0.8455600000000000    0.9990900000000000    0.4046450000000000 H
   0.7883599999999999    0.0782200000000000    0.3665100000000000 H
   0.8836450000000000    0.0782600000000000    0.4617850000000000 H
   0.7497199999999999    0.1914800000000000    0.5952300000000000 H
   0.7892850000000000    0.2674500000000000    0.5383050000000000 H
   0.7892150000000000    0.0769800000000000    0.6332150000000000 H
   0.9040600000000000    0.5003900000000000    0.4055500000000000 H
   0.9614450000000000    0.4216100000000000    0.3672050000000000 H
   0.8659950000000001    0.4209900000000000    0.4623500000000000 H
   0.6554250000000000    0.4995900000000000    0.6542300000000000 H
   0.6171050000000000    0.5784500000000000    0.7115700000000000 H
   0.7122200000000000    0.5788900000000000    0.6160900000000000 H
   0.4995350000000000    0.6917800000000000    0.4049650000000000 H
   0.5390050000000000    0.5769800000000000    0.3666800000000000 H
   0.5391950000000000    0.7680600000000000    0.4620250000000000 H
   0.6545900000000000    0.0000000000000000    0.5953600000000000 H
   0.6164050000000000    0.9219800000000000    0.5382900000000000 H
   0.7117150000000000    0.9219400000000000    0.6335500000000001 H
   0.8454999999999999    0.6922900000000000    0.7504200000000000 H
   0.7883150000000000    0.7685800000000000    0.7108750000000000 H
   0.8837850000000000    0.5774600000000000    0.7110000000000000 H
   0.5000000000000000    0.1899000000000000    0.1543500000000000 H
   0.4608900000000000    0.2667100000000000    0.2116250000000000 H
   0.4608350000000000    0.0758700000000000    0.1161400000000000 H
   0.9996849999999999    0.8099800000000000    0.3456950000000000 H
   0.0392400000000000    0.9239400000000000    0.3839000000000000 H
   0.0390950000000000    0.7333300000000000    0.2883450000000000 H
   0.2117450000000000    0.2669400000000000    0.4605600000000000 H
   0.1548000000000000    0.1909000000000000    0.5000000000000000 H
   0.1168350000000000    0.0765400000000000    0.4605550000000000 H
   0.3448300000000000    0.5000000000000000    0.3459650000000000 H
   0.3829950000000000    0.4212500000000000    0.2884850000000000 H
   0.2879600000000000    0.4207900000000000    0.3840400000000000 H
   0.1545750000000000    0.3080000000000000    0.2496700000000000 H
   0.1163200000000000    0.4228800000000000    0.2891150000000000 H
   0.2117750000000000    0.2317400000000000    0.2892400000000000 H
   0.5951700000000000    0.9995400000000000    0.1546650000000000 H
   0.5381300000000000    0.9205400000000000    0.1164800000000000 H
   0.6333400000000000    0.9207500000000000    0.2118000000000000 H
   0.4047150000000000    0.8103100000000000    0.2502450000000000 H
   0.4619200000000000    0.7334100000000000    0.2106850000000000 H
   0.3663550000000000    0.9243300000000000    0.2107150000000000 H
   0.2501150000000000    0.6891000000000000    0.3452800000000000 H
   0.2105000000000000    0.5756300000000000    0.3834000000000000 H
   0.2106600000000000    0.7655800000000000    0.2882000000000000 H
   0.0953600000000000    0.3105900000000000    0.4999400000000000 H
   0.0382950000000000    0.2342300000000000    0.4604700000000000 H
   0.1333700000000000    0.4243100000000000    0.4603750000000000 H
   0.9048600000000000    0.0001800000000000    0.3452400000000000 H
   0.9618800000000001    0.0791800000000000    0.3834650000000000 H
   0.8666900000000000    0.0790000000000000    0.2880850000000000 H
   0.0954500000000000    0.1897400000000000    0.2496900000000000 H
   0.0381900000000000    0.2666000000000000    0.2892000000000000 H
   0.1337650000000000    0.0756800000000000    0.2892350000000000 H
   0.2499700000000000    0.3111500000000000    0.6547000000000001 H
   0.2896150000000000    0.4247300000000000    0.6166550000000000 H
   0.2894400000000000    0.2346200000000000    0.7117450000000000 H
   0.5000000000000000    0.3083400000000000    0.5952850000000000 H
   0.4609150000000000    0.4231800000000000    0.6335000000000000 H
   0.4608300000000000    0.2319900000000000    0.5382100000000000 H
   0.3455600000000000    0.9990900000000000    0.4046450000000000 H
   0.2883600000000000    0.0782200000000000    0.3665100000000000 H
   0.3836450000000000    0.0782600000000000    0.4617850000000000 H
   0.2497200000000000    0.1914800000000000    0.5952300000000000 H
   0.2892850000000000    0.2674500000000000    0.5383050000000000 H
   0.2892150000000000    0.0769800000000000    0.6332150000000000 H
   0.4040600000000000    0.5003900000000000    0.4055500000000000 H
   0.4614450000000000    0.4216100000000000    0.3672050000000000 H
   0.3659950000000000    0.4209900000000000    0.4623500000000000 H
   0.1554250000000000    0.4995900000000000    0.6542300000000000 H
   0.1171050000000000    0.5784500000000000    0.7115700000000000 H
   0.2122200000000000    0.5788900000000000    0.6160900000000000 H
   0.9995350000000001    0.6917800000000000    0.4049650000000000 H
   0.0390050000000000    0.5769800000000000    0.3666800000000000 H
   0.0391950000000000    0.7680600000000000    0.4620250000000000 H
   0.1545900000000000    0.0000000000000000    0.5953600000000000 H
   0.1164050000000000    0.9219800000000000    0.5382900000000000 H
   0.2117150000000000    0.9219400000000000    0.6335500000000001 H
   0.3455000000000000    0.6922900000000000    0.7504200000000000 H
   0.2883150000000000    0.7685800000000000    0.7108750000000000 H
   0.3837850000000000    0.5774600000000000    0.7110000000000000 H
   0.2501850000000000    0.8083700000000000    0.9049050000000001 H
   0.2105750000000000    0.7325400000000000    0.9618550000000000 H
   0.2107000000000000    0.9228700000000000    0.8668899999999999 H
   0.7501850000000000    0.8083700000000000    0.9049050000000001 H
   0.7105750000000000    0.7325400000000000    0.9618550000000000 H
   0.7107000000000000    0.9228700000000000    0.8668899999999999 H
   0.9048700000000001    0.6890700000000000    0.9996950000000000 H
   0.9618400000000000    0.7656300000000000    0.0391800000000000 H
   0.8666950000000000    0.5756800000000000    0.0393050000000000 H
   0.4048700000000000    0.6890700000000000    0.9996950000000000 H
   0.4618400000000000    0.7656300000000000    0.0391800000000000 H
   0.3666950000000000    0.5756800000000000    0.0393050000000000 H
   0.0000000000000000    0.1899000000000000    0.6543500000000000 H
   0.9608900000000000    0.2667100000000000    0.7116250000000000 H
   0.9608350000000000    0.0758700000000000    0.6161400000000000 H
   0.4996850000000000    0.8099800000000000    0.8456950000000000 H
   0.5392399999999999    0.9239400000000000    0.8839000000000000 H
   0.5390950000000000    0.7333300000000000    0.7883450000000001 H
   0.7117450000000000    0.2669400000000000    0.9605600000000001 H
   0.6548000000000000    0.1909000000000000    0.0000000000000000 H
   0.6168350000000000    0.0765400000000000    0.9605550000000000 H
   0.8448300000000000    0.5000000000000000    0.8459650000000001 H
   0.8829950000000000    0.4212500000000000    0.7884850000000000 H
   0.7879600000000000    0.4207900000000000    0.8840399999999999 H
   0.6977082866754005    0.2902624787081960    0.8127921526699476 H
   0.0951700000000000    0.9995400000000000    0.6546650000000001 H
   0.0381300000000000    0.9205400000000000    0.6164800000000000 H
   0.1333400000000000    0.9207500000000000    0.7118000000000000 H
   0.9047149999999999    0.8103100000000000    0.7502450000000001 H
   0.9619200000000000    0.7334100000000000    0.7106850000000000 H
   0.8663550000000000    0.9243300000000000    0.7107150000000000 H
   0.7501150000000000    0.6891000000000000    0.8452800000000000 H
   0.7105000000000000    0.5756300000000000    0.8834000000000000 H
   0.7106600000000000    0.7655800000000000    0.7882000000000000 H
   0.5953600000000000    0.3105900000000000    0.9999400000000001 H
   0.5382950000000000    0.2342300000000000    0.9604699999999999 H
   0.6333700000000000    0.4243100000000000    0.9603750000000000 H
   0.4048600000000000    0.0001800000000000    0.8452400000000000 H
   0.4618800000000000    0.0791800000000000    0.8834649999999999 H
   0.3666900000000000    0.0790000000000000    0.7880849999999999 H
   0.5954500000000000    0.1897400000000000    0.7496900000000000 H
   0.5381899999999999    0.2666000000000000    0.7892000000000000 H
   0.6337650000000000    0.0756800000000000    0.7892350000000000 H
   0.7499700000000000    0.3111500000000000    0.1547000000000000 H
   0.7896150000000000    0.4247300000000000    0.1166550000000000 H
   0.7894399999999999    0.2346200000000000    0.2117450000000000 H
   0.0000000000000000    0.3083400000000000    0.0952850000000000 H
   0.9609150000000000    0.4231800000000000    0.1335000000000000 H
   0.9608300000000001    0.2319900000000000    0.0382100000000000 H
   0.8455600000000000    0.9990900000000000    0.9046449999999999 H
   0.7883599999999999    0.0782200000000000    0.8665100000000000 H
   0.8836450000000000    0.0782600000000000    0.9617850000000000 H
   0.7497199999999999    0.1914800000000000    0.0952300000000000 H
   0.7892850000000000    0.2674500000000000    0.0383050000000000 H
   0.7892150000000000    0.0769800000000000    0.1332150000000000 H
   0.9040600000000000    0.5003900000000000    0.9055500000000001 H
   0.9614450000000000    0.4216100000000000    0.8672050000000000 H
   0.8659950000000001    0.4209900000000000    0.9623500000000000 H
   0.6554250000000000    0.4995900000000000    0.1542300000000000 H
   0.6171050000000000    0.5784500000000000    0.2115700000000000 H
   0.7122200000000000    0.5788900000000000    0.1160900000000000 H
   0.4995350000000000    0.6917800000000000    0.9049650000000000 H
   0.5390050000000000    0.5769800000000000    0.8666800000000000 H
   0.5391950000000000    0.7680600000000000    0.9620250000000000 H
   0.6545900000000000    0.0000000000000000    0.0953600000000000 H
   0.6164050000000000    0.9219800000000000    0.0382900000000000 H
   0.7117150000000000    0.9219400000000000    0.1335500000000000 H
   0.8454999999999999    0.6922900000000000    0.2504200000000000 H
   0.7883150000000000    0.7685800000000000    0.2108750000000000 H
   0.8837850000000000    0.5774600000000000    0.2110000000000000 H
   0.5000000000000000    0.1899000000000000    0.6543500000000000 H
   0.4608900000000000    0.2667100000000000    0.7116250000000000 H
   0.4608350000000000    0.0758700000000000    0.6161400000000000 H
   0.9996849999999999    0.8099800000000000    0.8456950000000000 H
   0.0392400000000000    0.9239400000000000    0.8839000000000000 H
   0.0390950000000000    0.7333300000000000    0.7883450000000001 H
   0.2117450000000000    0.2669400000000000    0.9605600000000001 H
   0.1548000000000000    0.1909000000000000    0.0000000000000000 H
   0.1168350000000000    0.0765400000000000    0.9605550000000000 H
   0.3448300000000000    0.5000000000000000    0.8459650000000001 H
   0.3829950000000000    0.4212500000000000    0.7884850000000000 H
   0.2879600000000000    0.4207900000000000    0.8840399999999999 H
   0.1545750000000000    0.3080000000000000    0.7496700000000001 H
   0.1163200000000000    0.4228800000000000    0.7891150000000000 H
   0.2117750000000000    0.2317400000000000    0.7892399999999999 H
   0.5951700000000000    0.9995400000000000    0.6546650000000001 H
   0.5381300000000000    0.9205400000000000    0.6164800000000000 H
   0.6333400000000000    0.9207500000000000    0.7118000000000000 H
   0.4047150000000000    0.8103100000000000    0.7502450000000001 H
   0.4619200000000000    0.7334100000000000    0.7106850000000000 H
   0.3663550000000000    0.9243300000000000    0.7107150000000000 H
   0.2501150000000000    0.6891000000000000    0.8452800000000000 H
   0.2105000000000000    0.5756300000000000    0.8834000000000000 H
   0.2106600000000000    0.7655800000000000    0.7882000000000000 H
   0.0953600000000000    0.3105900000000000    0.9999400000000001 H
   0.0382950000000000    0.2342300000000000    0.9604699999999999 H
   0.1333700000000000    0.4243100000000000    0.9603750000000000 H
   0.9048600000000000    0.0001800000000000    0.8452400000000000 H
   0.9618800000000001    0.0791800000000000    0.8834649999999999 H
   0.8666900000000000    0.0790000000000000    0.7880849999999999 H
   0.0954500000000000    0.1897400000000000    0.7496900000000000 H
   0.0381900000000000    0.2666000000000000    0.7892000000000000 H
   0.1337650000000000    0.0756800000000000    0.7892350000000000 H
   0.2499700000000000    0.3111500000000000    0.1547000000000000 H
   0.2896150000000000    0.4247300000000000    0.1166550000000000 H
   0.2894400000000000    0.2346200000000000    0.2117450000000000 H
   0.5000000000000000    0.3083400000000000    0.0952850000000000 H
   0.4609150000000000    0.4231800000000000    0.1335000000000000 H
   0.4608300000000000    0.2319900000000000    0.0382100000000000 H
   0.3455600000000000    0.9990900000000000    0.9046449999999999 H
   0.2883600000000000    0.0782200000000000    0.8665100000000000 H
   0.3836450000000000    0.0782600000000000    0.9617850000000000 H
   0.2497200000000000    0.1914800000000000    0.0952300000000000 H
   0.2892850000000000    0.2674500000000000    0.0383050000000000 H
   0.2892150000000000    0.0769800000000000    0.1332150000000000 H
   0.4040600000000000    0.5003900000000000    0.9055500000000001 H
   0.4614450000000000    0.4216100000000000    0.8672050000000000 H
   0.3659950000000000    0.4209900000000000    0.9623500000000000 H
   0.1554250000000000    0.4995900000000000    0.1542300000000000 H
   0.1171050000000000    0.5784500000000000    0.2115700000000000 H
   0.2122200000000000    0.5788900000000000    0.1160900000000000 H
   0.9995350000000001    0.6917800000000000    0.9049650000000000 H
   0.0390050000000000    0.5769800000000000    0.8666800000000000 H
   0.0391950000000000    0.7680600000000000    0.9620250000000000 H
   0.1545900000000000    0.0000000000000000    0.0953600000000000 H
   0.1164050000000000    0.9219800000000000    0.0382900000000000 H
   0.2117150000000000    0.9219400000000000    0.1335500000000000 H
   0.3455000000000000    0.6922900000000000    0.2504200000000000 H
   0.2883150000000000    0.7685800000000000    0.2108750000000000 H
   0.3837850000000000    0.5774600000000000    0.2110000000000000 H
   0.3366050000000000    0.8264000000000000    0.5313450000000000 C
   0.3572150000000000    0.8892400000000000    0.5527700000000000 C
   0.3129750000000000    0.8740500000000000    0.6111850000000000 C
   0.3052950000000000    0.7851900000000001    0.5527600000000000 C
   0.8366050000000000    0.8264000000000000    0.0313450000000000 C
   0.8572150000000001    0.8892400000000000    0.0527700000000000 C
   0.8129750000000000    0.8740500000000000    0.1111850000000000 C
   0.8052950000000000    0.7851900000000001    0.0527600000000000 C
   0.3366050000000000    0.8264000000000000    0.0313450000000000 C
   0.3572150000000000    0.8892400000000000    0.0527700000000000 C
   0.3129750000000000    0.8740500000000000    0.1111850000000000 C
   0.3052950000000000    0.7851900000000001    0.0527600000000000 C
   0.8366050000000000    0.8264000000000000    0.5313450000000000 C
   0.8572150000000001    0.8892400000000000    0.5527700000000000 C
   0.8129750000000000    0.8740500000000000    0.6111850000000000 C
   0.8052950000000000    0.7851900000000001    0.5527600000000000 C
   0.5872550000000000    0.5619300000000000    0.0861850000000000 C
   0.5556900000000000    0.6045700000000001    0.1069800000000000 C
   0.5631850000000000    0.7212900000000000    0.0629650000000000 C
   0.6079400000000000    0.6048800000000000    0.0549500000000000 C
   0.0872550000000000    0.5619300000000000    0.0861850000000000 C
   0.0556900000000000    0.6045700000000001    0.1069800000000000 C
   0.0631850000000000    0.7212900000000000    0.0629650000000000 C
   0.1079400000000000    0.6048800000000000    0.0549500000000000 C
   0.5872550000000000    0.5619300000000000    0.5861850000000000 C
   0.5556900000000000    0.6045700000000001    0.6069800000000000 C
   0.5631850000000000    0.7212900000000000    0.5629649999999999 C
   0.6079400000000000    0.6048800000000000    0.5549500000000001 C
   0.0872550000000000    0.5619300000000000    0.5861850000000000 C
   0.0556900000000000    0.6045700000000001    0.6069800000000000 C
   0.0631850000000000    0.7212900000000000    0.5629649999999999 C
   0.1079400000000000    0.6048800000000000    0.5549500000000001 C
   0.2187300000000000    0.8260900000000000    0.4136000000000000 C
   0.1972650000000000    0.7849200000000000    0.4448900000000000 C
   0.1388300000000000    0.8739300000000000    0.4371150000000000 C
   0.1973250000000000    0.8889899999999999    0.3929650000000000 C
   0.7187300000000000    0.8260900000000000    0.4136000000000000 C
   0.6972650000000000    0.7849200000000000    0.4448900000000000 C
   0.6388300000000000    0.8739300000000000    0.4371150000000000 C
   0.6973250000000000    0.8889899999999999    0.3929650000000000 C
   0.9135400000000000    0.6720400000000000    0.5311600000000000 C
   0.9448500000000000    0.7136100000000000    0.5525600000000001 C
   0.9370250000000000    0.6258500000000000    0.6110100000000001 C
   0.8928050000000001    0.6097300000000000    0.5526250000000000 C
   0.4135400000000000    0.6720400000000000    0.5311600000000000 C
   0.4448500000000000    0.7136100000000000    0.5525600000000001 C
   0.4370250000000000    0.6258500000000000    0.6110100000000001 C
   0.3928050000000000    0.6097300000000000    0.5526250000000000 C
   0.9689600000000000    0.1726900000000000    0.1631450000000000 C
   0.9475850000000000    0.2143700000000000    0.1946200000000000 C
   0.8893000000000000    0.1260600000000000    0.1868750000000000 C
   0.9475600000000000    0.1100100000000000    0.1423900000000000 C
   0.5310700000000000    0.8272300000000000    0.3368900000000000 C
   0.5524900000000000    0.8898700000000000    0.3576550000000000 C
   0.6107050000000001    0.8739200000000000    0.3131050000000000 C
   0.5524150000000000    0.7856300000000001    0.3053650000000000 C
   0.6870650000000000    0.1258700000000000    0.3887550000000000 C
   0.6947950000000001    0.2146300000000000    0.4472150000000000 C
   0.6635100000000000    0.1733400000000000    0.4686000000000000 C
   0.6429000000000000    0.1105100000000000    0.4472100000000000 C
   0.8362149999999999    0.4372200000000000    0.3370700000000000 C
   0.8569350000000000    0.3945400000000000    0.3054950000000000 C
   0.8129200000000000    0.2777700000000000    0.3130800000000000 C
   0.8049750000000000    0.3943200000000000    0.3577450000000000 C
   0.6633150000000000    0.3257700000000000    0.2810550000000000 C
   0.6425500000000000    0.3888900000000000    0.3024000000000000 C
   0.6869250000000000    0.3737100000000000    0.3607500000000000 C
   0.6947500000000000    0.2843700000000000    0.3024850000000000 C
   0.0864750000000000    0.9368500000000000    0.1634000000000000 C
   0.0551400000000000    0.8940500000000000    0.1426650000000000 C
   0.0629800000000000    0.7776500000000000    0.1869900000000000 C
   0.1072000000000000    0.8941800000000000    0.1948050000000000 C
   0.9134100000000001    0.8274700000000000    0.2188200000000000 C
   0.9448400000000000    0.7857200000000000    0.1973900000000000 C
   0.9369550000000000    0.8739600000000000    0.1390600000000000 C
   0.8925850000000000    0.8901100000000000    0.1974150000000000 C
   0.7186600000000000    0.6720300000000000    0.3365700000000000 C
   0.6972000000000000    0.6096700000000000    0.3572650000000000 C
   0.6388250000000000    0.6257500000000000    0.3129800000000000 C
   0.6972800000000000    0.7135400000000000    0.3052100000000000 C
   0.5866100000000000    0.3277800000000000    0.4685150000000000 C
   0.5552550000000001    0.2863300000000000    0.4471250000000000 C
   0.5629450000000000    0.3743200000000000    0.3887200000000000 C
   0.6072500000000000    0.3902500000000000    0.4470800000000000 C
   0.4135450000000000    0.0628900000000000    0.3365250000000000 C
   0.4448750000000000    0.1056700000000000    0.3572750000000000 C
   0.4370150000000000    0.2221200000000000    0.3129850000000000 C
   0.3928200000000000    0.1055800000000000    0.3051250000000000 C
   0.5867200000000000    0.1725500000000000    0.2810950000000000 C
   0.5552550000000001    0.2142700000000000    0.3024950000000000 C
   0.5630950000000000    0.1260000000000000    0.3608150000000000 C
   0.6075200000000001    0.1098800000000000    0.3025100000000000 C
   0.7814250000000000    0.3282100000000000    0.6634249999999999 C
   0.8028950000000000    0.3906100000000000    0.6427499999999999 C
   0.8612949999999999    0.3744600000000000    0.6870499999999999 C
   0.8028150000000001    0.2866800000000000    0.6947700000000000 C
   0.9689900000000000    0.3260300000000000    0.5865899999999999 C
   0.9475850000000000    0.3891300000000000    0.6073300000000000 C
   0.8891750000000000    0.3738100000000000    0.5630700000000000 C
   0.9475450000000001    0.2845800000000000    0.5552300000000000 C
   0.8367750000000000    0.0620300000000000    0.4133850000000000 C
   0.8053550000000000    0.1049100000000000    0.3926800000000000 C