H1 O1
1.0
  32.1719996030938518    0.0000000000000000    0.0050535659217857
   0.0755838559512563   16.0967028008016158   -0.0620888346242592
   0.0000000000000000    0.0000000000000000   32.1899999999999977
H O
1 1
direct
   0.6977082866754005    0.2902624787081960    0.8127921526699476 H
   0.7058000000000000    0.3063800000000000    0.8409850000000000 O
