H6 O4
1.0
  34.0762254946218803    0.0000000000000000   11.1305866889253178
   2.1360389965497681   34.3806757346453722   10.3142734806861274
   0.0000000000000000    0.0000000000000000   27.5500000000000007
H O
6 4
direct
   0.5830424006518328    0.3467205847401070    0.6940943536043338 H
   0.6379713315650861    0.3627358944054024    0.5398263875975524 H
   0.6108025989750393    0.3589214708054757    0.6151603231230067 H
   0.6198320931860155    0.4541008231648950    0.5946496519479413 H
   0.6027255366884997    0.4413074832388236    0.6905777816836682 H
   0.6112106936906351    0.1058109260393396    0.6338939204542348 H
   0.5952700000000000    0.3372300000000000    0.6628350000000001 O
   0.6265100000000000    0.3467300000000000    0.5750050000000000 O
   0.6192650000000000    0.4801650000000000    0.5985350000000000 O
   0.6033150000000000    0.4687049999999999    0.6879900000000000 O
