H4 O2
1.0
  22.9149932430620211    0.0000000000000000    0.0175974549865074
  -5.7480929752011507   12.2183953505544594   -2.4699739282009352
   0.0000000000000000    0.0000000000000000   36.3560000000000016
H O
4 2
direct
   0.4196124851756404    0.6423033919284453    0.5335041371454601 H
   0.4008316280270214    0.5778277440113407    0.5698504747049987 H
   0.6572638753329075    0.5373785530625037    0.5592991929898384 H
   0.6873437857408730    0.6521749721253987    0.5419285399847075 H
   0.3882800000000000    0.6101500000000000    0.5511500000000000 O
   0.6935200000000000    0.5917700000000000    0.5492950000000000 O
