H8 C10 N2
1.0
  22.9149932430620211    0.0000000000000000    0.0175974549865074
  -5.7480929752011507   12.2183953505544594   -2.4699739282009352
   0.0000000000000000    0.0000000000000000   36.3560000000000016
H C N
8 10 2
direct
   0.4154800000000000    0.6895600000000000    0.5065650000000000 H
   0.5240300000000000    0.6887000000000000    0.5060100000000000 H
   0.4757000000000000    0.5229500000000000    0.6001450000000000 H
   0.3693600000000000    0.5315800000000001    0.5961650000000001 H
   0.6236000000000000    0.7536600000000000    0.5325350000000000 H
   0.7269600000000001    0.7370800000000000    0.5296950000000000 H
   0.6525800000000000    0.4523900000000000    0.5720250000000000 H
   0.5451000000000000    0.4565100000000000    0.5774200000000000 H
   0.4314100000000000    0.6544100000000000    0.5268600000000000 C
   0.4920100000000000    0.6543700000000000    0.5270899999999999 C
   0.5101200000000000    0.6068900000000000    0.5535050000000000 C
   0.4652300000000000    0.5621200000000000    0.5790500000000000 C
   0.4055800000000000    0.5656000000000000    0.5769250000000000 C
   0.5737200000000000    0.6032100000000000    0.5535850000000000 C
   0.6267700000000000    0.6834100000000000    0.5407150000000001 C
   0.6850100000000000    0.6750000000000000    0.5391450000000000 C
   0.6435800000000000    0.5168500000000000    0.5630750000000000 C
   0.5836500000000000    0.5195300000000000    0.5659100000000000 C
   0.3882800000000000    0.6101500000000000    0.5511500000000000 N
   0.6935200000000000    0.5917700000000000    0.5492950000000000 N
