H6 O4
1.0
  22.9149932430620211    0.0000000000000000    0.0175974549865074
  -5.7480929752011507   12.2183953505544594   -2.4699739282009352
   0.0000000000000000    0.0000000000000000   36.3560000000000016
H O
6 4
direct
   0.4415971843125046    0.4394964769716292    0.3214859353711159 H
   0.4678851455970358    0.2514795028036381    0.2374730724873052 H
   0.4501404164818373    0.3282774515539842    0.2821162683350137 H
   0.2225583177394522    0.5601250716809572    0.4284105733229510 H
   0.3425482257456294    0.7488283827053448    0.5124993891017530 H
   0.2866476640041094    0.6717430668398074    0.4678341399189234 H
   0.4579600000000000    0.4374600000000000    0.2968800000000000 O
   0.4731800000000000    0.3254100000000000    0.2474700000000000 O
   0.2397600000000000    0.5623200000000000    0.4530700000000000 O
   0.3108400000000000    0.6748300000000000    0.5025150000000000 O
