H9 O6
1.0
  28.5529685527971182    0.0000000000000000   -0.2426990378612282
  -0.0106699152827437   14.8639956609931261   -0.0038913860557935
   0.0000000000000000    0.0000000000000000   30.3039999999999985
H O
9 6
direct
   0.4966324344479290    0.0387477585057190    0.3718071124118208 H
   0.3793721400703074    0.1133911302797817    0.4248680825109905 H
   0.4320490535981076    0.0763485011370596    0.4060495612785646 H
   0.5022797308184832    0.7055325753261650    0.4911371261240354 H
   0.5463693003796981    0.8404427308717020    0.3885296157774544 H
   0.5228580937254845    0.7877753209768705    0.4379862558672437 H
   0.3561289950611418    1.0010541186323048    0.5185985045993593 H
   0.4153319519740170    0.7751741721602650    0.5530274955851006 H
   0.3932783487133253    0.8828900764549674    0.5339259367027899 H
   0.4673750000000000    0.0702800000000000    0.3665950000000000 O
   0.4011500000000000    0.1096500000000000    0.4005450000000000 O
   0.5205850000000000    0.7036500000000000    0.4643350000000000 O
   0.5448850000000000    0.7855100000000000    0.4057350000000000 O
   0.3524150000000000    0.9455100000000000    0.5350000000000000 O
   0.3887950000000000    0.8158400000000000    0.5537250000000000 O
