Zn32 H45 C135 O90
1.0
  28.5529685527971182    0.0000000000000000   -0.2426990378612282
  -0.0106699152827437   14.8639956609931261   -0.0038913860557935
   0.0000000000000000    0.0000000000000000   30.3039999999999985
Zn H C O
32 45 135 90
direct
   0.0288200000000000    0.5626800000000000    0.4540000000000000 Zn
   0.1583300000000000    0.3120400000000000    0.1502750000000000 Zn
   0.2204000000000000    0.4375400000000000    0.2057600000000000 Zn
   0.4093850000000000    0.1906500000000000    0.3500300000000000 Zn
   0.4710700000000000    0.0626700000000000    0.2959500000000000 Zn
   0.3416500000000000    0.8121200000000000    0.0997250000000000 Zn
   0.2795950000000000    0.9375100000000000    0.0442200000000000 Zn
   0.0905650000000000    0.6906900000000000    0.3999600000000000 Zn
   0.5288200000000000    0.5626800000000000    0.4540000000000000 Zn
   0.6583300000000000    0.3120400000000000    0.1502750000000000 Zn
   0.7204000000000000    0.4375400000000000    0.2057600000000000 Zn
   0.9093850000000000    0.1906500000000000    0.3500300000000000 Zn
   0.9710700000000000    0.0626700000000000    0.2959500000000000 Zn
   0.8416500000000000    0.8121200000000000    0.0997250000000000 Zn
   0.7795950000000000    0.9375100000000000    0.0442200000000000 Zn
   0.5905650000000000    0.6906900000000000    0.3999600000000000 Zn
   0.0288200000000000    0.5626800000000000    0.9540000000000000 Zn
   0.1583300000000000    0.3120400000000000    0.6502749999999999 Zn
   0.2204000000000000    0.4375400000000000    0.7057599999999999 Zn
   0.4093850000000000    0.1906500000000000    0.8500300000000001 Zn
   0.4710700000000000    0.0626700000000000    0.7959499999999999 Zn
   0.3416500000000000    0.8121200000000000    0.5997250000000000 Zn
   0.2795950000000000    0.9375100000000000    0.5442200000000000 Zn
   0.0905650000000000    0.6906900000000000    0.8999600000000000 Zn
   0.5288200000000000    0.5626800000000000    0.9540000000000000 Zn
   0.6583300000000000    0.3120400000000000    0.6502749999999999 Zn
   0.7204000000000000    0.4375400000000000    0.7057599999999999 Zn
   0.9093850000000000    0.1906500000000000    0.8500300000000001 Zn
   0.9710700000000000    0.0626700000000000    0.7959499999999999 Zn
   0.8416500000000000    0.8121200000000000    0.5997250000000000 Zn
   0.7795950000000000    0.9375100000000000    0.5442200000000000 Zn
   0.5905650000000000    0.6906900000000000    0.8999600000000000 Zn
   0.4543900000000000    0.7732000000000000    0.0000000000000000 H
   0.0000000000000000    0.9239000000000001    0.3920400000000000 H
   0.2952600000000000    0.2268400000000000    0.2554600000000000 H
   0.3659000000000000    0.9829300000000000    0.2178550000000000 H
   0.2480750000000000    0.0782900000000000    0.1414150000000000 H
   0.0455250000000000    0.2731900000000000    0.2449700000000000 H
   0.1160650000000000    0.5188700000000001    0.2814700000000000 H
   0.4994100000000000    0.4239400000000000    0.3579000000000000 H
   0.2046650000000000    0.7266500000000000    0.4945400000000000 H
   0.1340300000000000    0.4825200000000000    0.0320800000000000 H
   0.2519350000000000    0.5780999999999999    0.1084700000000000 H
   0.9543900000000001    0.7732000000000000    0.0000000000000000 H
   0.8838750000000000    0.0186400000000000    0.4684100000000000 H
   0.7952600000000001    0.2268400000000000    0.2554600000000000 H
   0.8659000000000000    0.9829300000000000    0.2178550000000000 H
   0.7480750000000000    0.0782900000000000    0.1414150000000000 H
   0.5455250000000000    0.2731900000000000    0.2449700000000000 H
   0.6160650000000000    0.5188700000000001    0.2814700000000000 H
   0.9994100000000000    0.4239400000000000    0.3579000000000000 H
   0.7046650000000000    0.7266500000000000    0.4945400000000000 H
   0.6340300000000000    0.4825200000000000    0.0320800000000000 H
   0.7519350000000000    0.5780999999999999    0.1084700000000000 H
   0.3838750000000000    0.0186400000000000    0.9684100000000000 H
   0.0000000000000000    0.9239000000000001    0.8920399999999999 H
   0.2952600000000000    0.2268400000000000    0.7554600000000000 H
   0.3659000000000000    0.9829300000000000    0.7178550000000000 H
   0.2480750000000000    0.0782900000000000    0.6414150000000001 H
   0.0455250000000000    0.2731900000000000    0.7449700000000000 H
   0.1160650000000000    0.5188700000000001    0.7814700000000000 H
   0.4994100000000000    0.4239400000000000    0.8579000000000000 H
   0.2046650000000000    0.7266500000000000    0.9945400000000000 H
   0.1340300000000000    0.4825200000000000    0.5320800000000000 H
   0.2519350000000000    0.5780999999999999    0.6084700000000000 H
   0.9543900000000001    0.7732000000000000    0.5000000000000000 H
   0.8838750000000000    0.0186400000000000    0.9684100000000000 H
   0.5000000000000000    0.9239000000000001    0.8920399999999999 H
   0.7952600000000001    0.2268400000000000    0.7554600000000000 H
   0.8659000000000000    0.9829300000000000    0.7178550000000000 H
   0.7480750000000000    0.0782900000000000    0.6414150000000001 H
   0.5455250000000000    0.2731900000000000    0.7449700000000000 H
   0.6160650000000000    0.5188700000000001    0.7814700000000000 H
   0.9994100000000000    0.4239400000000000    0.8579000000000000 H
   0.7046650000000000    0.7266500000000000    0.9945400000000000 H
   0.6340300000000000    0.4825200000000000    0.5320800000000000 H
   0.7519350000000000    0.5780999999999999    0.6084700000000000 H
   0.0177500000000000    0.7715000000000000    0.4390250000000000 C
   0.3834350000000000    0.8855400000000000    0.0288400000000000 C
   0.2678000000000000    0.1599100000000000    0.1975650000000000 C
   0.2986000000000000    0.1693500000000000    0.2334800000000000 C
   0.3337450000000000    0.1052900000000000    0.2409500000000000 C
   0.3382650000000000    0.0320900000000000    0.2122600000000000 C
   0.3073900000000000    0.0223700000000000    0.1764400000000000 C
   0.2720150000000000    0.0860000000000000    0.1692750000000000 C
   0.2310750000000000    0.2292300000000000    0.1891800000000000 C
   0.3670800000000000    0.1150300000000000    0.2788200000000000 C
   0.3123600000000000    0.9460300000000000    0.1452950000000000 C
   0.0187000000000000    0.3410900000000000    0.3024000000000000 C
   0.0490350000000000    0.3312100000000000    0.2666550000000000 C
   0.0838750000000000    0.3955700000000000    0.2589250000000000 C
   0.0886450000000000    0.4694900000000000    0.2872600000000000 C
   0.0582050000000000    0.4797600000000000    0.3228850000000000 C
   0.0230750000000000    0.4158300000000000    0.3302450000000000 C
   0.4822050000000000    0.2714700000000000    0.3109400000000000 C
   0.1165300000000000    0.3856000000000000    0.2211000000000000 C
   0.0632550000000000    0.5570800000000000    0.3535450000000000 C
   0.2321800000000000    0.6597300000000000    0.0523750000000000 C
   0.2013400000000000    0.6691200000000000    0.0164900000000000 C
   0.1661850000000000    0.6049900000000000    0.0090050000000000 C
   0.1616800000000000    0.5317300000000000    0.0376700000000000 C
   0.1925900000000000    0.5220700000000000    0.0734650000000000 C
   0.2279750000000000    0.5857800000000000    0.0806300000000000 C
   0.2689050000000000    0.7291500000000000    0.0607850000000000 C
   0.1327900000000000    0.6147300000000000    0.4711900000000000 C
   0.1876150000000000    0.4457800000000000    0.1046250000000000 C
   0.9812449999999999    0.8410600000000000    0.4475350000000000 C
   0.9508950000000000    0.8311700000000000    0.4832750000000000 C
   0.9160600000000000    0.8954700000000000    0.4909900000000000 C
   0.9112899999999999    0.9693200000000000    0.4626350000000000 C
   0.9417450000000001    0.9796000000000000    0.4270150000000000 C
   0.9768850000000000    0.9157500000000000    0.4196850000000000 C
   0.8834350000000000    0.8855400000000000    0.0288400000000000 C
   0.9367350000000000    0.0569100000000000    0.3963550000000000 C
   0.7678000000000000    0.1599100000000000    0.1975650000000000 C
   0.7986000000000000    0.1693500000000000    0.2334800000000000 C
   0.8337450000000000    0.1052900000000000    0.2409500000000000 C
   0.8382650000000000    0.0320900000000000    0.2122600000000000 C
   0.8073900000000001    0.0223700000000000    0.1764400000000000 C
   0.7720150000000000    0.0860000000000000    0.1692750000000000 C
   0.7310750000000000    0.2292300000000000    0.1891800000000000 C
   0.8670800000000001    0.1150300000000000    0.2788200000000000 C
   0.8123600000000000    0.9460300000000000    0.1452950000000000 C
   0.5187000000000000    0.3410900000000000    0.3024000000000000 C
   0.5490350000000001    0.3312100000000000    0.2666550000000000 C
   0.5838750000000000    0.3955700000000000    0.2589250000000000 C
   0.5886450000000000    0.4694900000000000    0.2872600000000000 C
   0.5582050000000000    0.4797600000000000    0.3228850000000000 C
   0.5230750000000000    0.4158300000000000    0.3302450000000000 C
   0.9822050000000000    0.2714700000000000    0.3109400000000000 C
   0.6165300000000000    0.3856000000000000    0.2211000000000000 C
   0.5632550000000001    0.5570800000000000    0.3535450000000000 C
   0.7321800000000001    0.6597300000000000    0.0523750000000000 C
   0.7013400000000000    0.6691200000000000    0.0164900000000000 C
   0.6661850000000000    0.6049900000000000    0.0090050000000000 C
   0.6616800000000000    0.5317300000000000    0.0376700000000000 C
   0.6925900000000000    0.5220700000000000    0.0734650000000000 C
   0.7279750000000000    0.5857800000000000    0.0806300000000000 C
   0.7689049999999999    0.7291500000000000    0.0607850000000000 C
   0.6327900000000000    0.6147300000000000    0.4711900000000000 C
   0.6876150000000000    0.4457800000000000    0.1046250000000000 C
   0.4812450000000000    0.8410600000000000    0.9475350000000000 C
   0.4508950000000000    0.8311700000000000    0.9832750000000000 C
   0.4160600000000000    0.8954700000000000    0.9909900000000000 C
   0.4112900000000000    0.9693200000000000    0.9626350000000000 C
   0.4417450000000000    0.9796000000000000    0.9270149999999999 C
   0.4768850000000000    0.9157500000000000    0.9196850000000000 C
   0.0177500000000000    0.7715000000000000    0.9390250000000000 C
   0.4367350000000000    0.0569100000000000    0.8963550000000000 C
   0.2678000000000000    0.1599100000000000    0.6975650000000000 C
   0.2986000000000000    0.1693500000000000    0.7334800000000000 C
   0.3337450000000000    0.1052900000000000    0.7409500000000000 C
   0.3382650000000000    0.0320900000000000    0.7122600000000000 C
   0.3073900000000000    0.0223700000000000    0.6764400000000000 C
   0.2720150000000000    0.0860000000000000    0.6692750000000001 C
   0.2310750000000000    0.2292300000000000    0.6891800000000000 C
   0.3670800000000000    0.1150300000000000    0.7788200000000001 C
   0.3123600000000000    0.9460300000000000    0.6452950000000000 C
   0.0187000000000000    0.3410900000000000    0.8024000000000000 C
   0.0490350000000000    0.3312100000000000    0.7666550000000000 C
   0.0838750000000000    0.3955700000000000    0.7589250000000001 C
   0.0886450000000000    0.4694900000000000    0.7872600000000001 C
   0.0582050000000000    0.4797600000000000    0.8228850000000000 C
   0.0230750000000000    0.4158300000000000    0.8302450000000000 C
   0.4822050000000000    0.2714700000000000    0.8109400000000000 C
   0.1165300000000000    0.3856000000000000    0.7211000000000000 C
   0.0632550000000000    0.5570800000000000    0.8535450000000000 C
   0.2321800000000000    0.6597300000000000    0.5523749999999999 C
   0.2013400000000000    0.6691200000000000    0.5164900000000000 C
   0.1661850000000000    0.6049900000000000    0.5090050000000000 C
   0.1616800000000000    0.5317300000000000    0.5376700000000000 C
   0.1925900000000000    0.5220700000000000    0.5734650000000000 C
   0.2279750000000000    0.5857800000000000    0.5806300000000000 C
   0.2689050000000000    0.7291500000000000    0.5607850000000000 C
   0.1327900000000000    0.6147300000000000    0.9711900000000000 C
   0.1876150000000000    0.4457800000000000    0.6046250000000000 C
   0.9812449999999999    0.8410600000000000    0.9475350000000000 C
   0.9508950000000000    0.8311700000000000    0.9832750000000000 C
   0.9160600000000000    0.8954700000000000    0.9909900000000000 C
   0.9112899999999999    0.9693200000000000    0.9626350000000000 C
   0.9417450000000001    0.9796000000000000    0.9270149999999999 C
   0.9768850000000000    0.9157500000000000    0.9196850000000000 C
   0.5177500000000000    0.7715000000000000    0.9390250000000000 C
   0.8834350000000000    0.8855400000000000    0.5288400000000000 C
   0.9367350000000000    0.0569100000000000    0.8963550000000000 C
   0.7678000000000000    0.1599100000000000    0.6975650000000000 C
   0.7986000000000000    0.1693500000000000    0.7334800000000000 C
   0.8337450000000000    0.1052900000000000    0.7409500000000000 C
   0.8382650000000000    0.0320900000000000    0.7122600000000000 C
   0.8073900000000001    0.0223700000000000    0.6764400000000000 C
   0.7720150000000000    0.0860000000000000    0.6692750000000001 C
   0.7310750000000000    0.2292300000000000    0.6891800000000000 C
   0.8670800000000001    0.1150300000000000    0.7788200000000001 C
   0.8123600000000000    0.9460300000000000    0.6452950000000000 C
   0.5187000000000000    0.3410900000000000    0.8024000000000000 C
   0.5490350000000001    0.3312100000000000    0.7666550000000000 C
   0.5838750000000000    0.3955700000000000    0.7589250000000001 C
   0.5886450000000000    0.4694900000000000    0.7872600000000001 C
   0.5582050000000000    0.4797600000000000    0.8228850000000000 C
   0.5230750000000000    0.4158300000000000    0.8302450000000000 C
   0.9822050000000000    0.2714700000000000    0.8109400000000000 C
   0.6165300000000000    0.3856000000000000    0.7211000000000000 C
   0.5632550000000001    0.5570800000000000    0.8535450000000000 C
   0.7321800000000001    0.6597300000000000    0.5523749999999999 C
   0.7013400000000000    0.6691200000000000    0.5164900000000000 C
   0.6661850000000000    0.6049900000000000    0.5090050000000000 C
   0.6616800000000000    0.5317300000000000    0.5376700000000000 C
   0.6925900000000000    0.5220700000000000    0.5734650000000000 C
   0.7279750000000000    0.5857800000000000    0.5806300000000000 C
   0.7689049999999999    0.7291500000000000    0.5607850000000000 C
   0.6327900000000000    0.6147300000000000    0.9711900000000000 C
   0.6876150000000000    0.4457800000000000    0.6046250000000000 C
   0.0448850000000000    0.7855100000000000    0.4057350000000000 O
   0.0205850000000000    0.7036500000000000    0.4643350000000000 O
   0.3887950000000000    0.8158400000000000    0.0537250000000000 O
   0.3524150000000000    0.9455100000000000    0.0350000000000000 O
   0.2036450000000000    0.2158000000000000    0.1556400000000000 O
   0.2283200000000000    0.2965300000000000    0.2148450000000000 O
   0.3621550000000000    0.1849700000000000    0.3035650000000000 O
   0.3980850000000000    0.0548800000000000    0.2849600000000000 O
   0.3481200000000000    0.8935700000000000    0.1499550000000000 O
   0.2817800000000000    0.9335500000000000    0.1149750000000000 O
   0.4551150000000000    0.2854700000000000    0.3442550000000000 O
   0.4793700000000000    0.2035600000000000    0.2856450000000000 O
   0.1111750000000000    0.3158000000000000    0.1962550000000000 O
   0.1475900000000000    0.4455700000000000    0.2149500000000000 O
   0.0988350000000000    0.6099000000000000    0.3493200000000000 O
   0.0326650000000000    0.5703400000000000    0.3833650000000000 O
   0.2963100000000000    0.7158000000000000    0.0943450000000000 O
   0.2716500000000000    0.7964599999999999    0.0351450000000000 O
   0.1378050000000000    0.6845400000000000    0.4463500000000000 O
   0.1016300000000000    0.5547500000000000    0.4651600000000000 O
   0.1518600000000000    0.3932100000000000    0.0999800000000000 O
   0.2181700000000000    0.4335200000000000    0.1349800000000000 O
   0.8887950000000000    0.8158400000000000    0.0537250000000000 O
   0.8524149999999999    0.9455100000000000    0.0350000000000000 O
   0.9011500000000000    0.1096500000000000    0.4005450000000000 O
   0.9673750000000000    0.0702800000000000    0.3665950000000000 O
   0.7036450000000000    0.2158000000000000    0.1556400000000000 O
   0.7283200000000000    0.2965300000000000    0.2148450000000000 O
   0.8621550000000000    0.1849700000000000    0.3035650000000000 O
   0.8980850000000000    0.0548800000000000    0.2849600000000000 O
   0.8481200000000000    0.8935700000000000    0.1499550000000000 O
   0.7817799999999999    0.9335500000000000    0.1149750000000000 O
   0.9551149999999999    0.2854700000000000    0.3442550000000000 O
   0.9793700000000001    0.2035600000000000    0.2856450000000000 O
   0.6111750000000000    0.3158000000000000    0.1962550000000000 O
   0.6475900000000000    0.4455700000000000    0.2149500000000000 O
   0.5988350000000000    0.6099000000000000    0.3493200000000000 O
   0.5326649999999999    0.5703400000000000    0.3833650000000000 O
   0.7963100000000001    0.7158000000000000    0.0943450000000000 O
   0.7716499999999999    0.7964599999999999    0.0351450000000000 O
   0.6378050000000000    0.6845400000000000    0.4463500000000000 O
   0.6016300000000000    0.5547500000000000    0.4651600000000000 O
   0.6518600000000000    0.3932100000000000    0.0999800000000000 O
   0.7181700000000000    0.4335200000000000    0.1349800000000000 O
   0.0448850000000000    0.7855100000000000    0.9057350000000000 O
   0.0205850000000000    0.7036500000000000    0.9643349999999999 O
   0.4011500000000000    0.1096500000000000    0.9005449999999999 O
   0.4673750000000000    0.0702800000000000    0.8665950000000000 O
   0.2036450000000000    0.2158000000000000    0.6556400000000000 O
   0.2283200000000000    0.2965300000000000    0.7148450000000000 O
   0.3621550000000000    0.1849700000000000    0.8035650000000000 O
   0.3980850000000000    0.0548800000000000    0.7849600000000000 O
   0.3481200000000000    0.8935700000000000    0.6499550000000001 O
   0.2817800000000000    0.9335500000000000    0.6149750000000000 O
   0.4551150000000000    0.2854700000000000    0.8442550000000000 O
   0.4793700000000000    0.2035600000000000    0.7856449999999999 O
   0.1111750000000000    0.3158000000000000    0.6962550000000001 O
   0.1475900000000000    0.4455700000000000    0.7149500000000000 O
   0.0988350000000000    0.6099000000000000    0.8493200000000001 O
   0.0326650000000000    0.5703400000000000    0.8833650000000000 O
   0.2963100000000000    0.7158000000000000    0.5943450000000000 O
   0.2716500000000000    0.7964599999999999    0.5351450000000000 O
   0.1378050000000000    0.6845400000000000    0.9463500000000000 O
   0.1016300000000000    0.5547500000000000    0.9651600000000000 O
   0.1518600000000000    0.3932100000000000    0.5999800000000000 O
   0.2181700000000000    0.4335200000000000    0.6349800000000000 O
   0.5448850000000000    0.7855100000000000    0.9057350000000000 O
   0.5205850000000000    0.7036500000000000    0.9643349999999999 O
   0.8887950000000000    0.8158400000000000    0.5537250000000000 O
   0.8524149999999999    0.9455100000000000    0.5350000000000000 O
   0.9011500000000000    0.1096500000000000    0.9005449999999999 O
   0.9673750000000000    0.0702800000000000    0.8665950000000000 O
   0.7036450000000000    0.2158000000000000    0.6556400000000000 O
   0.7283200000000000    0.2965300000000000    0.7148450000000000 O
   0.8621550000000000    0.1849700000000000    0.8035650000000000 O
   0.8980850000000000    0.0548800000000000    0.7849600000000000 O
   0.8481200000000000    0.8935700000000000    0.6499550000000001 O
   0.7817799999999999    0.9335500000000000    0.6149750000000000 O
   0.9551149999999999    0.2854700000000000    0.8442550000000000 O
   0.9793700000000001    0.2035600000000000    0.7856449999999999 O
   0.6111750000000000    0.3158000000000000    0.6962550000000001 O
   0.6475900000000000    0.4455700000000000    0.7149500000000000 O
   0.5988350000000000    0.6099000000000000    0.8493200000000001 O
   0.5326649999999999    0.5703400000000000    0.8833650000000000 O
   0.7963100000000001    0.7158000000000000    0.5943450000000000 O
   0.7716499999999999    0.7964599999999999    0.5351450000000000 O
   0.6378050000000000    0.6845400000000000    0.9463500000000000 O
   0.6016300000000000    0.5547500000000000    0.9651600000000000 O
   0.6518600000000000    0.3932100000000000    0.5999800000000000 O
   0.7181700000000000    0.4335200000000000    0.6349800000000000 O
