Zn10 H26 C50 N21 O24
1.0
  13.1225434985870244    0.0000000000000000    1.5856784439763933
   4.8677362273968052   12.1721850609601816    1.5437146310851855
   0.0000000000000000    0.0000000000000000   18.5169999999999995
Zn H C N O
10 26 50 21 24
direct
   0.0985100000000000    0.7161999999999999    0.5776400000000000 Zn
   0.0435600000000000    0.2934300000000000    0.7186700000000000 Zn
   0.2805900000000000    0.9016999999999999    0.9223400000000000 Zn
   0.2933800000000000    0.0436300000000000    0.2185000000000000 Zn
   0.9015100000000000    0.2837800000000000    0.4223700000000000 Zn
   0.9564700000000000    0.7065399999999999    0.2813300000000000 Zn
   0.7194500000000000    0.0982800000000000    0.0776700000000000 Zn
   0.8620200000000000    0.1378800000000000    0.7498600000000000 Zn
   0.1380000000000000    0.8621000000000000    0.2501500000000000 Zn
   0.7066400000000000    0.9563500000000000    0.7814800000000000 Zn
   0.6117700000000000    0.3804000000000000    0.6673000000000000 H
   0.4502700000000000    0.5437400000000000    0.6260900000000000 H
   0.4101200000000000    0.1869900000000000    0.7019000000000000 H
   0.0720700000000000    0.9450700000000000    0.6479600000000000 H
   0.8639800000000000    0.7655000000000000    0.6726300000000000 H
   0.6195400000000000    0.3882400000000000    0.8325700000000000 H
   0.4554400000000000    0.5497100000000000    0.8735400000000000 H
   0.8115300000000000    0.5912800000000000    0.7985200000000000 H
   0.8082000000000000    0.1826400000000000    0.5737900000000000 H
   0.0604100000000000    0.3110200000000000    0.5385300000000000 H
   0.0530100000000000    0.9280900000000000    0.8511900000000000 H
   0.2330200000000000    0.1357400000000000    0.8278200000000000 H
   0.3882500000000000    0.6195900000000000    0.3327100000000000 H
   0.5497500000000000    0.4562500000000000    0.3739200000000000 H
   0.5899000000000000    0.8129900000000000    0.2980300000000000 H
   0.1810100000000000    0.8083800000000000    0.0742500000000000 H
   0.3098500000000000    0.0604000000000000    0.0381300000000000 H
   0.9279600000000000    0.0549100000000000    0.3520000000000000 H
   0.1360300000000000    0.2344900000000000    0.3273700000000000 H
   0.3804800000000000    0.6117400000000000    0.1674200000000000 H
   0.5445800000000000    0.4502800000000000    0.1264600000000000 H
   0.1885100000000000    0.4086900000000000    0.2014700000000000 H
   0.1918100000000000    0.8173500000000000    0.4262200000000000 H
   0.9396300000000000    0.6889300000000000    0.4614700000000000 H
   0.9470499999999999    0.0718800000000000    0.1488200000000000 H
   0.7670100000000000    0.8642500000000000    0.1721800000000000 H
   0.6153800000000000    0.1763600000000000    0.7133000000000000 C
   0.5200100000000000    0.2739800000000000    0.6870400000000000 C
   0.5322900000000000    0.3743900000000000    0.6652200000000000 C
   0.4428600000000000    0.4647100000000000    0.6423700000000000 C
   0.3402100000000000    0.4566700000000000    0.6401000000000000 C
   0.3278200000000000    0.3555000000000000    0.6610000000000000 C
   0.4181000000000000    0.2655800000000000    0.6848600000000000 C
   0.2471500000000000    0.5564300000000000    0.6168600000000000 C
   0.2231100000000000    0.3358800000000000    0.6581000000000000 C
   0.0034200000000000    0.9190900000000000    0.6639000000000000 C
   0.8981900000000000    0.8275000000000000    0.6759600000000000 C
   0.8235100000000000    0.3851000000000000    0.7871200000000000 C
   0.7253900000000000    0.4806000000000000    0.8132500000000000 C
   0.6251000000000000    0.4680000000000000    0.8347700000000000 C
   0.5343300000000000    0.5574600000000000    0.8574800000000000 C
   0.5416900000000000    0.6605300000000000    0.8599100000000000 C
   0.6427100000000000    0.6732700000000000    0.8391999999999999 C
   0.7331000000000000    0.5829400000000000    0.8155100000000000 C
   0.4413800000000000    0.7535400000000000    0.8830100000000000 C
   0.6618200000000000    0.7784300000000000    0.8419400000000000 C
   0.8743200000000000    0.2089600000000000    0.5813000000000000 C
   0.0000000000000000    0.2753700000000000    0.5626400000000000 C
   0.0793000000000000    0.9966200000000000    0.8355000000000000 C
   0.1710700000000000    0.1016900000000000    0.8241100000000000 C
   0.3846400000000000    0.8236300000000000    0.2866500000000000 C
   0.4800100000000000    0.7260100000000000    0.3129800000000000 C
   0.4677300000000000    0.6255900000000000    0.3347900000000000 C
   0.5571600000000000    0.5352700000000000    0.3576400000000000 C
   0.6598100000000000    0.5433100000000000    0.3599100000000000 C
   0.6722000000000000    0.6444900000000000    0.3389800000000000 C
   0.5819200000000000    0.7344000000000001    0.3151500000000000 C
   0.7528700000000000    0.4435600000000000    0.3831500000000000 C
   0.7769100000000000    0.6641000000000000    0.3418700000000000 C
   0.2075000000000000    0.8745400000000000    0.0815600000000000 C
   0.2740400000000000    0.0000000000000000    0.0624000000000000 C
   0.9966000000000000    0.0808900000000000    0.3361100000000000 C
   0.1018300000000000    0.1724800000000000    0.3240400000000000 C
   0.1765100000000000    0.6148800000000000    0.2128500000000000 C
   0.2746300000000000    0.5193800000000000    0.1867400000000000 C
   0.3749300000000000    0.5319700000000001    0.1652200000000000 C
   0.4657000000000000    0.4425300000000000    0.1425100000000000 C
   0.4583400000000000    0.3394500000000000    0.1400800000000000 C
   0.3573300000000000    0.3267000000000000    0.1608000000000000 C
   0.2669300000000000    0.4170300000000000    0.1844800000000000 C
   0.5586600000000000    0.2464400000000000    0.1169800000000000 C
   0.3382200000000000    0.2215400000000000    0.1580600000000000 C
   0.1257000000000000    0.7910199999999999    0.4187100000000000 C
   0.9987300000000000    0.7245800000000000    0.4373700000000000 C
   0.9207500000000000    0.0033600000000000    0.1645100000000000 C
   0.8289600000000000    0.8983000000000000    0.1759000000000000 C
   0.9161400000000000    0.9737300000000000    0.7068800000000000 N
   0.8487700000000000    0.9147900000000000    0.7142700000000000 N
   0.9959900000000000    0.8267200000000000    0.6429000000000000 N
   0.9102100000000000    0.2050300000000000    0.6459200000000000 N
   0.9914200000000000    0.2478900000000000    0.6338100000000000 N
   0.9293300000000000    0.2520000000000000    0.5272000000000000 N
   0.0255800000000000    0.0838100000000000    0.7924000000000000 N
   0.0846100000000000    0.1510600000000000    0.7854300000000000 N
   0.1711500000000000    0.0000000000000000    0.8570200000000000 N
   0.2044500000000000    0.9103599999999999    0.1461500000000000 N
   0.2473600000000000    0.9915900000000000    0.1337600000000000 N
   0.2499700000000000    0.9296100000000000    0.0272700000000000 N
   0.0838800000000000    0.0262500000000000    0.2931000000000000 N
   0.1512400000000000    0.0851900000000000    0.2857300000000000 N
   0.0000000000000000    0.1732600000000000    0.3571100000000000 N
   0.0898300000000000    0.7949300000000000    0.3540900000000000 N
   0.0000000000000000    0.7520500000000000    0.3661900000000000 N
   0.0707000000000000    0.7479700000000000    0.4727400000000000 N
   0.9744500000000000    0.9161600000000000    0.2076200000000000 N
   0.9154200000000000    0.8489200000000000    0.2145000000000000 N
   0.8288900000000000    0.9959600000000000    0.1429900000000000 N
   0.7095300000000000    0.1823900000000000    0.7037700000000000 O
   0.5934100000000000    0.0935200000000000    0.7432299999999999 O
   0.1498700000000000    0.5556000000000000    0.6189000000000000 O
   0.2626200000000000    0.6461600000000000    0.5944199999999999 O
   0.1991900000000000    0.3155500000000000    0.6001600000000000 O
   0.1692500000000000    0.3338700000000000    0.7218200000000000 O
   0.8174700000000000    0.2908700000000000    0.7961600000000000 O
   0.9067600000000000    0.4069800000000000    0.7579900000000001 O
   0.4413100000000000    0.8512700000000000    0.8806900000000000 O
   0.3520200000000000    0.7374000000000001    0.9056200000000000 O
   0.6799900000000000    0.8042200000000000    0.8999900000000000 O
   0.6659900000000000    0.8307000000000000    0.7780000000000000 O
   0.2904900000000000    0.8175900000000000    0.2962400000000000 O
   0.4066100000000000    0.9064600000000000    0.2567800000000000 O
   0.8501500000000000    0.4443800000000000    0.3810400000000000 O
   0.7374000000000001    0.3538200000000000    0.4055900000000000 O
   0.8008300000000000    0.6844300000000000    0.3998500000000000 O
   0.8307700000000000    0.6661100000000000    0.2781900000000000 O
   0.1825700000000000    0.7091000000000000    0.2038500000000000 O
   0.0932100000000000    0.5930200000000000    0.2419100000000000 O
   0.5587400000000000    0.1487000000000000    0.1193300000000000 O
   0.6480200000000000    0.2625900000000000    0.0943700000000000 O
   0.3200400000000000    0.1957500000000000    0.1000200000000000 O
   0.3340300000000000    0.1692800000000000    0.2220100000000000 O
