H6 O5
1.0
  31.2637302741494949    0.0000000000000000    0.1298666440176127
   0.0006984446037999   10.6809939238069340    0.0113715335135009
   0.0000000000000000    0.0000000000000000   35.9099999999999966
H O
6 5
direct
   0.5569667905803611    0.5832658771115370    0.2477850787611881 H
   0.5824230007846273    0.7190136389816039    0.1049185975403022 H
   0.4961072676586377    0.5153041985935330    0.1553440384236111 H
   0.4483675178050294    0.4992980482116450    0.1049283836308445 H
   0.4880661333526179    0.8133883948111013    0.1300682989579906 H
   0.5201411577669752    0.0083908657845011    0.1374164132867874 H
   0.5554025000000000    0.6561700000000000    0.2642150000000000 O
   0.6018825000000000    0.6979600000000000    0.0844500000000000 O
   0.4814200000000000    0.4375600000000000    0.1498200000000000 O
   0.4404800000000000    0.5867200000000000    0.1074550000000000 O
   0.4836675000000000    0.8324400000000000    0.1037000000000000 O
