H6 O5
1.0
   7.8159325685373737    0.0000000000000000    0.0324666610044032
   0.0006984446037999   10.6809939238069340    0.0113715335135009
   0.0000000000000000    0.0000000000000000   17.9549999999999983
H O
6 5
direct
   0.7718322743329675    0.4146611723948612    0.5045197141279251 H
   0.6700023154589304    0.2823126265768680    0.7903619618880061 H
  -0.0342103932494944    0.5874513810625115    0.6794227230748862 H
  -0.0804423450112061    0.4889605947650821    0.7242246120067906 H
   0.1377938611174975    0.3654124976992170    0.8005808919231895 H
   0.0474377310008303    0.1856163635943235    0.7401330719861190 H
   0.7782600000000000    0.3416500000000000    0.4717500000000000 O
   0.5921000000000000    0.3038300000000000    0.8311900000000000 O
   0.0744800000000000    0.5612700000000000    0.7001600000000000 O
   0.2381000000000000    0.4122300000000000    0.7850000000000000 O
   0.0651600000000000    0.1663200000000000    0.7928300000000000 O
