Ca4 P3 H33 C21 O32
1.0
   7.8159325685373737    0.0000000000000000    0.0324666610044032
   0.0006984446037999   10.6809939238069340    0.0113715335135009
   0.0000000000000000    0.0000000000000000   17.9549999999999983
Ca P H C O
4 3 33 21 32
direct
   0.3097200000000000    0.2359900000000000    0.8544400000000000 Ca
   0.6899400000000000    0.7641100000000000    0.1459500000000000 Ca
   0.1934800000000000    0.7357300000000000    0.6455000000000000 Ca
   0.8063100000000000    0.2632000000000000    0.3544100000000000 Ca
   0.8425400000000000    0.5696500000000000    0.2930400000000000 P
   0.3457800000000000    0.9294000000000000    0.7928400000000000 P
   0.6538200000000000    0.0695900000000000    0.2071000000000000 P
   0.6700023154589304    0.2823126265768680    0.7903619618880061 H
   0.0474377310008303    0.1856163635943235    0.7401330719861190 H
   0.3967300000000000    0.1154500000000000    0.3129600000000000 H
   0.2743900000000000    0.0500300000000000    0.2417800000000000 H
   0.0677900000000000    0.3776100000000000    0.2580000000000000 H
   0.6469500000000000    0.4615500000000000    0.1931400000000000 H
   0.3189500000000000    0.2725900000000000    0.1143900000000000 H
   0.5063200000000000    0.1991600000000000    0.0827100000000000 H
   0.3492700000000000    0.9868700000000000    0.1164400000000000 H
   0.1603900000000000    0.0768800000000000    0.1204700000000000 H
   0.2352400000000000    0.9376300000000000    0.9309200000000000 H
   0.1377938611174975    0.3654124976992170    0.8005808919231895 H
   0.1768700000000000    0.7729300000000000    0.3859200000000000 H
   0.9900700000000000    0.6986200000000000    0.4176400000000000 H
   0.1498800000000000    0.4856400000000000    0.3838900000000000 H
   0.3364400000000000    0.5776400000000000    0.3790800000000000 H
   0.2685900000000000    0.4367600000000000    0.5689300000000000 H
   0.7237700000000000    0.9497000000000000    0.7582800000000000 H
   0.6022600000000000    0.8838500000000000    0.6869900000000000 H
  -0.0342103932494944    0.5874513810625115    0.6794227230748862 H
   0.9325599999999999    0.6227200000000001    0.7419200000000000 H
  -0.0804423450112061    0.4889605947650821    0.7242246120067906 H
   0.3532700000000000    0.5368200000000000    0.8066500000000000 H
   0.6810200000000000    0.7261300000000001    0.8853000000000000 H
   0.4930600000000000    0.7986200000000000    0.9170900000000000 H
   0.6525800000000000    0.0145600000000000    0.8835499999999999 H
   0.8383000000000000    0.9221700000000000    0.8799200000000000 H
   0.7683500000000000    0.0629000000000000    0.0688700000000000 H
   0.0993400000000000    0.6165600000000000    0.1872400000000000 H
   0.2218300000000000    0.5507500000000000    0.2583100000000000 H
   0.4286200000000000    0.8783000000000000    0.2422400000000000 H
   0.8497600000000000    0.9623500000000000    0.3070100000000000 H
   0.7718322743329675    0.4146611723948612    0.5045197141279251 H
   0.3340300000000000    0.1378700000000000    0.2599700000000000 C
   0.1877500000000000    0.2238700000000000    0.2791300000000000 C
   0.5390500000000000    0.3075000000000000    0.2255300000000000 C
   0.4654800000000000    0.1826000000000000    0.2014000000000000 C
   0.3966900000000000    0.1877200000000000    0.1204700000000000 C
   0.2910800000000000    0.0735200000000000    0.0969200000000000 C
   0.2697800000000000    0.0622200000000000    0.0137200000000000 C
   0.0996600000000000    0.6878500000000000    0.3797800000000000 C
   0.2062100000000000    0.5738700000000000    0.4031300000000000 C
   0.2296400000000000    0.5626100000000001    0.4862600000000000 C
   0.6650800000000000    0.8616000000000000    0.7399800000000000 C
   0.8123700000000000    0.7766300000000000    0.7207900000000000 C
   0.4607500000000000    0.6910500000000001    0.7742800000000000 C
   0.5338800000000000    0.8161300000000000    0.7984700000000000 C
   0.6026500000000000    0.8107200000000000    0.8793900000000000 C
   0.7073199999999999    0.9252000000000000    0.9032100000000000 C
   0.7277400000000001    0.9364400000000001    0.9864400000000000 C
   0.1621400000000000    0.6386900000000000    0.2402100000000000 C
   0.3084100000000000    0.7247700000000000    0.2210300000000000 C
   0.9571300000000000    0.8081199999999999    0.2747200000000000 C
   0.0306600000000000    0.6830400000000000    0.2988600000000000 C
   0.5921000000000000    0.3038300000000000    0.8311900000000000 O
   0.0651600000000000    0.1663200000000000    0.7928300000000000 O
   0.7192800000000000    0.5976700000000000    0.3564100000000000 O
   0.7619200000000000    0.5867200000000000    0.2149100000000000 O
   0.1709000000000000    0.3248200000000000    0.2375200000000000 O
   0.0885900000000000    0.1968500000000000    0.3312400000000000 O
   0.9256799999999999    0.4375600000000000    0.2996400000000000 O
   0.5849700000000000    0.3848300000000000    0.1718500000000000 O
   0.5616200000000000    0.3315700000000000    0.2928500000000000 O
   0.2447200000000000    0.9495600000000000    0.9906600000000000 O
   0.2817600000000000    0.1553800000000000    0.9713500000000000 O
   0.2228900000000000    0.9011800000000000    0.8563400000000000 O
   0.2650700000000000    0.9124600000000000    0.7147500000000000 O
   0.4290700000000000    0.0625200000000000    0.7995700000000000 O
   0.2381000000000000    0.4122300000000000    0.7850000000000000 O
   0.2585300000000000    0.4486800000000000    0.5091700000000000 O
   0.2216100000000000    0.6561700000000000    0.5284300000000000 O
   0.0744800000000000    0.5612700000000000    0.7001600000000000 O
   0.8297400000000000    0.6756200000000000    0.7623200000000000 O
   0.9116200000000000    0.8045099999999999    0.6688800000000000 O
   0.4152100000000000    0.6135800000000000    0.8279700000000000 O
   0.4382800000000000    0.6667900000000000    0.7069800000000001 O
   0.7613100000000000    0.0513700000000000    0.0091200000000000 O
   0.7184600000000000    0.8428500000000000    0.0286300000000000 O
   0.7768500000000000    0.0986000000000000    0.1438100000000000 O
   0.3253700000000000    0.8255700000000000    0.2626400000000000 O
   0.4075300000000000    0.6979600000000000    0.1689000000000000 O
   0.5710499999999999    0.9385300000000000    0.2006800000000000 O
   0.9114200000000000    0.8854200000000000    0.3283400000000000 O
   0.9346700000000000    0.8324400000000000    0.2074000000000000 O
   0.7342800000000000    0.0862100000000000    0.2852900000000000 O
   0.7782600000000000    0.3416500000000000    0.4717500000000000 O
