P1 H9 C7 O9
1.0
   7.8159325685373737    0.0000000000000000    0.0324666610044032
   0.0006984446037999   10.6809939238069340    0.0113715335135009
   0.0000000000000000    0.0000000000000000   17.9549999999999983
P H C O
1 9 7 9
direct
   0.1574600000000000    0.4291300000000000    0.7068500000000000 P
   0.9016100000000000    0.3833800000000000    0.8129800000000000 H
   0.7798700000000000    0.4498100000000000    0.7418600000000000 H
   0.0095400000000000    0.3001000000000000    0.5826400000000000 H
   0.8230300000000000    0.2256700000000000    0.6145400000000000 H
   0.6627600000000000    0.4205600000000000    0.6209400000000000 H
   0.8489900000000000    0.5129700000000000    0.6161100000000000 H
   0.5708400000000000    0.1229600000000000    0.7579000000000000 H
   0.1506900000000000    0.0371400000000000    0.6930800000000000 H
   0.7313100000000000    0.5611100000000000    0.4310100000000000 H
   0.6913000000000000    0.2764300000000000    0.7792000000000000 C
   0.8384800000000000    0.3615300000000000    0.7600300000000000 C
   0.9692300000000000    0.3161500000000000    0.7013900000000000 C
   0.8999900000000000    0.3109000000000000    0.6205100000000000 C
   0.7930600000000000    0.4245400000000000    0.5969800000000000 C
   0.7700100000000000    0.4353600000000000    0.5138100000000000 C
   0.0425300000000000    0.1909600000000000    0.7255400000000000 C
   0.5921000000000000    0.3038300000000000    0.8311900000000000 O
   0.6740400000000000    0.1757300000000000    0.7375500000000000 O
   0.7782600000000000    0.3416500000000000    0.4717500000000000 O
   0.7412500000000000    0.5492200000000000    0.4907500000000000 O
   0.0651600000000000    0.1663200000000000    0.7928300000000000 O
   0.0880900000000000    0.1138500000000000    0.6718100000000000 O
   0.2381000000000000    0.4122300000000000    0.7850000000000000 O
   0.0744800000000000    0.5612700000000000    0.7001600000000000 O
   0.2805800000000000    0.4003700000000000    0.6435400000000000 O
