Zn2 P2 H6 C6 O8
1.0
   9.2627924915496251    0.0000000000000000   -1.5219869442580374
  -1.8123302258589966   10.3802471012707311   -0.1909195354028790
   0.0000000000000000    0.0000000000000000   10.5694999999999997
Zn P H C O
2 2 6 6 8
direct
   0.2498600000000000    0.0203400000000000    0.9789800000000000 Zn
   0.7501200000000000    0.9796600000000000    0.0210300000000000 Zn
   0.5086000000000001    0.9594200000000001    0.2016500000000000 P
   0.4913800000000000    0.0405800000000000    0.7983700000000000 P
   0.5002100000000000    0.7501300000000000    0.1941500000000000 H
   0.7663200000000000    0.0440100000000000    0.3343900000000000 H
   0.2748300000000000    0.9203000000000000    0.3430500000000000 H
   0.4997800000000000    0.2498700000000000    0.8058700000000000 H
   0.2336700000000000    0.9560000000000000    0.6656300000000001 H
   0.7251600000000000    0.0797100000000000    0.6569600000000000 H
   0.6385100000000000    0.0296500000000000    0.4591200000000000 C
   0.5094900000000000    0.9833400000000000    0.3697900000000000 C
   0.3740000000000000    0.9549600000000000    0.4118500000000000 C
   0.3614800000000000    0.9703500000000000    0.5409000000000000 C
   0.4905000000000000    0.0166600000000000    0.6302200000000000 C
   0.6259900000000000    0.0450400000000000    0.5881700000000000 C
   0.4372100000000000    0.8109600000000000    0.1605500000000000 O
   0.6698300000000000    0.9838800000000000    0.1833600000000000 O
   0.4072400000000000    0.0381200000000000    0.1250300000000000 O
   0.7748000000000000    0.0609200000000000    0.4280600000000000 O
   0.5627799999999999    0.1890400000000000    0.8394700000000000 O
   0.3301600000000000    0.0161200000000000    0.8166500000000000 O
   0.5927500000000000    0.9618800000000000    0.8749800000000000 O
   0.2251900000000000    0.9390900000000000    0.5719600000000000 O
