Ag24 H138 C132 S44 O48
1.0
  13.1439910132668540    0.0000000000000000    0.0153702036481610
   0.0075061918276076   39.3779723613095172    0.0460474649465372
   0.0000000000000000    0.0000000000000000   13.6600000000000001
Ag H C S O
24 138 132 44 48
direct
   0.1741600000000000    0.5556800000000000    0.2495200000000000 Ag
   0.1741600000000000    0.8890133333333332    0.2495200000000000 Ag
   0.1741600000000000    0.2223466666666666    0.2495200000000000 Ag
   0.8258000000000000    0.7776400000000000    0.7504400000000000 Ag
   0.8258000000000000    0.4443066666666666    0.7504400000000000 Ag
   0.8258000000000000    0.1109733333333333    0.7504400000000000 Ag
   0.6755400000000000    0.3895066666666667    0.7513700000000000 Ag
   0.6755400000000000    0.0561733333333333    0.7513700000000000 Ag
   0.6755400000000000    0.7228399999999999    0.7513700000000000 Ag
   0.3244200000000000    0.9438166666666666    0.2485700000000000 Ag
   0.3244200000000000    0.2771500000000000    0.2485700000000000 Ag
   0.3244200000000000    0.6104833333333333    0.2485700000000000 Ag
   0.8311500000000001    0.3914066666666667    0.2510200000000000 Ag
   0.8311500000000001    0.0580733333333333    0.2510200000000000 Ag
   0.8311500000000001    0.7247399999999999    0.2510200000000000 Ag
   0.1688500000000000    0.9419266666666666    0.7489700000000000 Ag
   0.1688500000000000    0.2752599999999999    0.7489700000000000 Ag
   0.1688500000000000    0.6085933333333333    0.7489700000000000 Ag
   0.6674300000000000    0.7750333333333332    0.2507000000000000 Ag
   0.6674300000000000    0.1083666666666667    0.2507000000000000 Ag
   0.6674300000000000    0.4417000000000000    0.2507000000000000 Ag
   0.3324900000000000    0.2249433333333333    0.7492500000000000 Ag
   0.3324900000000000    0.8916100000000000    0.7492500000000000 Ag
   0.3324900000000000    0.5582766666666666    0.7492500000000000 Ag
   0.2106800000000000    0.5016800000000000    0.6059600000000001 H
   0.2060500000000000    0.5133966666666666    0.4772900000000000 H
   0.1439000000000000    0.5390033333333333    0.5687100000000000 H
   0.7892900000000000    0.4983100000000000    0.3939500000000000 H
   0.7939400000000000    0.4866000000000000    0.5226200000000000 H
   0.8560600000000000    0.4609866666666667    0.4312100000000000 H
   0.3114900000000000    0.4722700000000000    0.7057400000000000 H
   0.4218200000000000    0.4469966666666667    0.7344000000000001 H
   0.3568400000000000    0.4711900000000000    0.8285000000000000 H
   0.6884800000000000    0.5277066666666667    0.2942000000000000 H
   0.5781700000000000    0.5529866666666666    0.2655400000000000 H
   0.6431300000000000    0.5287866666666666    0.1714300000000000 H
   0.5055900000000000    0.7629999999999999    0.8945500000000000 H
   0.5402000000000000    0.7645700000000000    0.0232900000000000 H
   0.6170400000000000    0.7854000000000000    0.9319499999999999 H
   0.4944000000000000    0.5703000000000000    0.1054400000000000 H
   0.4598000000000000    0.5687200000000000    0.9767000000000000 H
   0.3829400000000000    0.5479000000000001    0.0680500000000000 H
   0.4172400000000000    0.7295133333333332    0.7928400000000000 H
   0.3423500000000000    0.6925366666666666    0.7639899999999999 H
   0.4156500000000000    0.7141799999999999    0.6702500000000000 H
   0.5827900000000000    0.6037933333333333    0.2071400000000000 H
   0.6576700000000000    0.6407733333333333    0.2360000000000000 H
   0.5843400000000000    0.6191300000000000    0.3297200000000000 H
   0.2106800000000000    0.1683466666666667    0.6059600000000001 H
   0.2060500000000000    0.1800633333333333    0.4772900000000000 H
   0.1439000000000000    0.2056700000000000    0.5687100000000000 H
   0.7892900000000000    0.1649766666666667    0.3939500000000000 H
   0.7939400000000000    0.1532666666666667    0.5226200000000000 H
   0.8560600000000000    0.1276533333333333    0.4312100000000000 H
   0.3114900000000000    0.1389366666666667    0.7057400000000000 H
   0.4218200000000000    0.1136633333333333    0.7344000000000001 H
   0.3568400000000000    0.1378566666666667    0.8285000000000000 H
   0.6884800000000000    0.1943733333333333    0.2942000000000000 H
   0.5781700000000000    0.2196533333333333    0.2655400000000000 H
   0.6431300000000000    0.1954533333333333    0.1714300000000000 H
   0.5055900000000000    0.4296666666666666    0.8945500000000000 H
   0.5402000000000000    0.4312366666666667    0.0232900000000000 H
   0.6170400000000000    0.4520666666666666    0.9319499999999999 H
   0.4944000000000000    0.2369666666666667    0.1054400000000000 H
   0.4598000000000000    0.2353866666666667    0.9767000000000000 H
   0.3829400000000000    0.2145666666666667    0.0680500000000000 H
   0.4172400000000000    0.3961800000000000    0.7928400000000000 H
   0.3423500000000000    0.3592033333333333    0.7639899999999999 H
   0.4156500000000000    0.3808466666666667    0.6702500000000000 H
   0.5827900000000000    0.2704600000000000    0.2071400000000000 H
   0.6576700000000000    0.3074400000000000    0.2360000000000000 H
   0.5843400000000000    0.2857966666666666    0.3297200000000000 H
   0.5055900000000000    0.0963333333333333    0.8945500000000000 H
   0.5402000000000000    0.0979033333333333    0.0232900000000000 H
   0.6170400000000000    0.1187333333333333    0.9319499999999999 H
   0.4944000000000000    0.9036333333333333    0.1054400000000000 H
   0.4598000000000000    0.9020533333333333    0.9767000000000000 H
   0.3829400000000000    0.8812333333333333    0.0680500000000000 H
   0.4172400000000000    0.0628466666666667    0.7928400000000000 H
   0.3423500000000000    0.0258700000000000    0.7639899999999999 H
   0.4156500000000000    0.0475133333333333    0.6702500000000000 H
   0.5827900000000000    0.9371266666666667    0.2071400000000000 H
   0.6576700000000000    0.9741066666666667    0.2360000000000000 H
   0.5843400000000000    0.9524633333333332    0.3297200000000000 H
   0.0225170323751530    0.9151981955142463    0.8491993108142750 H
   0.2402513100561504    0.8389928475229387    0.8429009547331821 H
   0.1287031804663425    0.8761184414273493    0.8483269760925531 H
   0.9774880803154570    0.7514710797131581    0.1507896189774845 H
   0.7596568592663878    0.8276436573940799    0.1570138939006035 H
   0.8712551319936929    0.7905321869005093    0.1516261880527328 H
   0.2106800000000000    0.8350133333333333    0.6059600000000001 H
   0.2060500000000000    0.8467300000000000    0.4772900000000000 H
   0.1439000000000000    0.8723366666666665    0.5687100000000000 H
   0.7892900000000000    0.8316433333333333    0.3939500000000000 H
   0.7939400000000000    0.8199333333333333    0.5226200000000000 H
   0.8560600000000000    0.7943199999999999    0.4312100000000000 H
   0.3114900000000000    0.8056033333333332    0.7057400000000000 H
   0.4218200000000000    0.7803300000000000    0.7344000000000001 H
   0.3568400000000000    0.8045233333333333    0.8285000000000000 H
   0.6884800000000000    0.8610399999999999    0.2942000000000000 H
   0.5781700000000000    0.8863200000000000    0.2655400000000000 H
   0.6431300000000000    0.8621200000000000    0.1714300000000000 H
   0.2895200000000000    0.9981933333333333    0.6035000000000000 H
   0.2929200000000000    0.9863066666666667    0.4750000000000000 H
   0.3558700000000000    0.9607966666666666    0.5661400000000000 H
   0.7104700000000000    0.0017966666666667    0.3964800000000000 H
   0.7070900000000000    0.0136800000000000    0.5249900000000000 H
   0.6441200000000000    0.0391933333333333    0.4338000000000000 H
   0.1896700000000000    0.0277266666666667    0.7052700000000000 H
   0.0795800000000000    0.0530933333333333    0.7342300000000000 H
   0.1443300000000000    0.0287266666666667    0.8281300000000000 H
   0.8103300000000000    0.9722733333333333    0.2946800000000000 H
   0.9204300000000000    0.9469066666666666    0.2657200000000000 H
   0.8556900000000000    0.9712766666666666    0.1718300000000000 H
   0.0058100000000000    0.5965499999999999    0.1058200000000000 H
   0.0409700000000000    0.5979533333333333    0.9770000000000000 H
   0.1178600000000000    0.6186566666666666    0.0682900000000000 H
   0.9941800000000000    0.4034566666666666    0.8941600000000000 H
   0.9590000000000000    0.4020500000000000    0.0228900000000000 H
   0.8821500000000000    0.3813400000000000    0.9316800000000000 H
   0.0828100000000000    0.4370966666666666    0.7943200000000000 H
   0.1590800000000000    0.4737900000000000    0.7654600000000000 H
   0.0861900000000000    0.4522566666666666    0.6714900000000000 H
   0.9171700000000000    0.5629100000000000    0.2056600000000000 H
   0.8408600000000001    0.5262266666666666    0.2345200000000000 H
   0.9137900000000000    0.5477533333333333    0.3284800000000000 H
   0.2895200000000000    0.6648600000000000    0.6035000000000000 H
   0.2929200000000000    0.6529733333333333    0.4750000000000000 H
   0.3558700000000000    0.6274633333333333    0.5661400000000000 H
   0.7104700000000000    0.6684633333333333    0.3964800000000000 H
   0.7070900000000000    0.6803466666666667    0.5249900000000000 H
   0.6441200000000000    0.7058599999999999    0.4338000000000000 H
   0.1896700000000000    0.6943933333333333    0.7052700000000000 H
   0.0795800000000000    0.7197600000000000    0.7342300000000000 H
   0.1443300000000000    0.6953933333333333    0.8281300000000000 H
   0.8103300000000000    0.6389400000000000    0.2946800000000000 H
   0.9204300000000000    0.6135733333333333    0.2657200000000000 H
   0.8556900000000000    0.6379433333333333    0.1718300000000000 H
   0.0058100000000000    0.2632166666666667    0.1058200000000000 H
   0.0409700000000000    0.2646200000000000    0.9770000000000000 H
   0.1178600000000000    0.2853233333333333    0.0682900000000000 H
   0.9941800000000000    0.0701233333333333    0.8941600000000000 H
   0.9590000000000000    0.0687166666666667    0.0228900000000000 H
   0.8821500000000000    0.0480066666666667    0.9316800000000000 H
   0.0828100000000000    0.1037633333333333    0.7943200000000000 H
   0.1590800000000000    0.1404566666666667    0.7654600000000000 H
   0.0861900000000000    0.1189233333333333    0.6714900000000000 H
   0.9171700000000000    0.2295766666666667    0.2056600000000000 H
   0.8408600000000001    0.1928933333333333    0.2345200000000000 H
   0.9137900000000000    0.2144200000000000    0.3284800000000000 H
   0.2895200000000000    0.3315266666666666    0.6035000000000000 H
   0.2929200000000000    0.3196400000000000    0.4750000000000000 H
   0.3558700000000000    0.2941300000000000    0.5661400000000000 H
   0.7104700000000000    0.3351300000000000    0.3964800000000000 H
   0.7070900000000000    0.3470133333333333    0.5249900000000000 H
   0.6441200000000000    0.3725266666666667    0.4338000000000000 H
   0.1896700000000000    0.3610600000000000    0.7052700000000000 H
   0.0795800000000000    0.3864266666666666    0.7342300000000000 H
   0.1443300000000000    0.3620600000000000    0.8281300000000000 H
   0.8103300000000000    0.3056066666666666    0.2946800000000000 H
   0.9204300000000000    0.2802400000000000    0.2657200000000000 H
   0.8556900000000000    0.3046100000000000    0.1718300000000000 H
   0.2091700000000000    0.5225133333333334    0.5529800000000000 C
   0.7907900000000000    0.4774800000000000    0.4469400000000000 C
   0.3796100000000000    0.4702366666666666    0.7512900000000000 C
   0.6203600000000000    0.5297433333333333    0.2486600000000000 C
   0.6210100000000000    0.4602433333333333    0.6395100000000000 C
   0.3789800000000000    0.5397600000000000    0.3604600000000000 C
   0.4416100000000000    0.5185833333333333    0.4319800000000000 C
   0.5196300000000000    0.4970066666666667    0.3984500000000000 C
   0.4213400000000000    0.5213166666666667    0.5330700000000000 C
   0.5583500000000000    0.4814066666666666    0.5679700000000000 C
   0.4803400000000000    0.5029900000000000    0.6015100000000000 C
   0.5786400000000000    0.4786800000000000    0.4668800000000000 C
   0.5678000000000000    0.7635600000000000    0.9476100000000000 C
   0.4321900000000000    0.5697333333333333    0.0523800000000000 C
   0.4119800000000000    0.7066966666666666    0.7475000000000001 C
   0.5880300000000001    0.6266133333333332    0.2524200000000000 C
   0.6194000000000000    0.7066166666666667    0.1397800000000000 C
   0.3806000000000000    0.6266966666666667    0.8601600000000000 C
   0.4907200000000000    0.6599800000000000    0.1015000000000000 C
   0.5558900000000000    0.6859000000000000    0.0681000000000000 C
   0.5644000000000000    0.6928066666666667    0.9670900000000000 C
   0.4441400000000000    0.6473966666666666    0.9318300000000000 C
   0.5093100000000000    0.6733166666666667    0.8984700000000000 C
   0.4356200000000000    0.6405033333333333    0.0328700000000000 C
   0.2091700000000000    0.1891800000000000    0.5529800000000000 C
   0.7907900000000000    0.1441466666666666    0.4469400000000000 C
   0.3796100000000000    0.1369033333333333    0.7512900000000000 C
   0.6203600000000000    0.1964100000000000    0.2486600000000000 C
   0.6210100000000000    0.1269100000000000    0.6395100000000000 C
   0.3789800000000000    0.2064266666666667    0.3604600000000000 C
   0.4416100000000000    0.1852500000000000    0.4319800000000000 C
   0.5196300000000000    0.1636733333333333    0.3984500000000000 C
   0.4213400000000000    0.1879833333333333    0.5330700000000000 C
   0.5583500000000000    0.1480733333333333    0.5679700000000000 C
   0.4803400000000000    0.1696566666666667    0.6015100000000000 C
   0.5786400000000000    0.1453466666666667    0.4668800000000000 C
   0.5678000000000000    0.4302266666666666    0.9476100000000000 C
   0.4321900000000000    0.2364000000000000    0.0523800000000000 C
   0.4119800000000000    0.3733633333333333    0.7475000000000001 C
   0.5880300000000001    0.2932800000000000    0.2524200000000000 C
   0.6194000000000000    0.3732833333333333    0.1397800000000000 C
   0.3806000000000000    0.2933633333333333    0.8601600000000000 C
   0.4907200000000000    0.3266466666666666    0.1015000000000000 C
   0.5558900000000000    0.3525666666666666    0.0681000000000000 C
   0.5644000000000000    0.3594733333333333    0.9670900000000000 C
   0.4441400000000000    0.3140633333333333    0.9318300000000000 C
   0.5093100000000000    0.3399833333333333    0.8984700000000000 C
   0.4356200000000000    0.3071700000000000    0.0328700000000000 C
   0.5678000000000000    0.0968933333333333    0.9476100000000000 C
   0.4321900000000000    0.9030666666666667    0.0523800000000000 C
   0.4119800000000000    0.0400300000000000    0.7475000000000001 C
   0.5880300000000001    0.9599466666666666    0.2524200000000000 C
   0.6194000000000000    0.0399500000000000    0.1397800000000000 C
   0.3806000000000000    0.9600299999999999    0.8601600000000000 C
   0.5558900000000000    0.0192333333333333    0.0681000000000000 C
   0.4907200000000000    0.9933133333333333    0.1015000000000000 C
   0.5644000000000000    0.0261400000000000    0.9670900000000000 C
   0.5093100000000000    0.0066500000000000    0.8984700000000000 C
   0.4441400000000000    0.9807299999999999    0.9318300000000000 C
   0.4356200000000000    0.9738366666666667    0.0328700000000000 C
   0.2091700000000000    0.8558466666666666    0.5529800000000000 C
   0.7907900000000000    0.8108133333333333    0.4469400000000000 C
   0.3796100000000000    0.8035699999999999    0.7512900000000000 C
   0.6203600000000000    0.8630766666666666    0.2486600000000000 C
   0.6210100000000000    0.7935766666666666    0.6395100000000000 C
   0.3789800000000000    0.8730933333333333    0.3604600000000000 C
   0.4416100000000000    0.8519166666666667    0.4319800000000000 C
   0.5196300000000000    0.8303400000000000    0.3984500000000000 C
   0.4213400000000000    0.8546499999999999    0.5330700000000000 C
   0.5583500000000000    0.8147400000000000    0.5679700000000000 C
   0.4803400000000000    0.8363233333333333    0.6015100000000000 C
   0.5786400000000000    0.8120133333333333    0.4668800000000000 C
   0.2904900000000000    0.9772900000000000    0.5508700000000000 C
   0.7095100000000000    0.0227000000000000    0.4491200000000000 C
   0.1215600000000000    0.0297900000000000    0.7509500000000000 C
   0.8784500000000000    0.9702100000000000    0.2490000000000000 C
   0.1192800000000000    0.9596966666666666    0.3603000000000000 C
   0.8807199999999999    0.0403033333333333    0.6395800000000000 C
   0.9426700000000000    0.0189100000000000    0.5680400000000000 C
   0.0202800000000000    0.9971566666666666    0.6014400000000000 C
   0.9216299999999999    0.0214466666666667    0.4670800000000000 C
   0.9797300000000000    0.0028400000000000    0.3985400000000000 C
   0.0573300000000000    0.9810866666666667    0.4319300000000000 C
   0.0783600000000000    0.9785499999999999    0.5329000000000000 C
   0.0682200000000000    0.5969233333333333    0.0528300000000000 C
   0.9317600000000000    0.4030800000000000    0.9471500000000000 C
   0.0892300000000000    0.4598366666666667    0.7486800000000000 C
   0.9107300000000000    0.5401733333333333    0.2510000000000000 C
   0.8793000000000000    0.4598266666666666    0.1392200000000000 C
   0.1206500000000000    0.5401666666666667    0.8607500000000000 C
   0.0564300000000000    0.5193733333333332    0.9321000000000000 C
   0.9913700000000000    0.4934933333333333    0.8984300000000000 C
   0.0640900000000000    0.5261100000000000    0.0332300000000000 C
   0.9434700000000000    0.4806366666666667    0.0678600000000000 C
   0.0085400000000000    0.5065066666666667    0.1015400000000000 C
   0.9358300000000001    0.4738833333333333    0.9667300000000000 C
   0.2904900000000000    0.6439566666666666    0.5508700000000000 C
   0.7095100000000000    0.6893666666666667    0.4491200000000000 C
   0.1215600000000000    0.6964566666666666    0.7509500000000000 C
   0.8784500000000000    0.6368766666666666    0.2490000000000000 C
   0.1192800000000000    0.6263633333333334    0.3603000000000000 C
   0.8807199999999999    0.7069700000000000    0.6395800000000000 C
   0.0202800000000000    0.6638233333333332    0.6014400000000000 C
   0.9426700000000000    0.6855766666666666    0.5680400000000000 C
   0.9216299999999999    0.6881133333333332    0.4670800000000000 C
   0.0573300000000000    0.6477533333333333    0.4319300000000000 C
   0.9797300000000000    0.6695066666666666    0.3985400000000000 C
   0.0783600000000000    0.6452166666666665    0.5329000000000000 C
   0.0682200000000000    0.2635900000000000    0.0528300000000000 C
   0.9317600000000000    0.0697466666666667    0.9471500000000000 C
   0.0892300000000000    0.1265033333333333    0.7486800000000000 C
   0.9107300000000000    0.2068400000000000    0.2510000000000000 C
   0.8793000000000000    0.1264933333333333    0.1392200000000000 C
   0.1206500000000000    0.2068333333333333    0.8607500000000000 C
   0.0564300000000000    0.1860400000000000    0.9321000000000000 C
   0.9913700000000000    0.1601600000000000    0.8984300000000000 C
   0.0640900000000000    0.1927766666666667    0.0332300000000000 C
   0.9434700000000000    0.1473033333333333    0.0678600000000000 C
   0.0085400000000000    0.1731733333333333    0.1015400000000000 C
   0.9358300000000001    0.1405500000000000    0.9667300000000000 C
   0.2904900000000000    0.3106233333333333    0.5508700000000000 C
   0.7095100000000000    0.3560333333333333    0.4491200000000000 C
   0.1215600000000000    0.3631233333333333    0.7509500000000000 C
   0.8784500000000000    0.3035433333333333    0.2490000000000000 C
   0.1192800000000000    0.2930300000000000    0.3603000000000000 C
   0.8807199999999999    0.3736366666666666    0.6395800000000000 C
   0.0202800000000000    0.3304900000000000    0.6014400000000000 C
   0.9426700000000000    0.3522433333333333    0.5680400000000000 C
   0.9216299999999999    0.3547800000000000    0.4670800000000000 C
   0.0573300000000000    0.3144200000000000    0.4319300000000000 C
   0.9797300000000000    0.3361733333333333    0.3985400000000000 C
   0.0783600000000000    0.3118833333333333    0.5329000000000000 C
   0.3205000000000000    0.5495666666666666    0.5662600000000000 S
   0.6794700000000000    0.4504200000000000    0.4337000000000000 S
   0.5369200000000000    0.4936233333333333    0.2689000000000000 S
   0.4630300000000000    0.5063633333333333    0.7310600000000000 S
   0.3507900000000000    0.6068333333333333    0.0656000000000000 S
   0.6492500000000000    0.7264733333333333    0.9343500000000000 S
   0.4796000000000000    0.6542566666666667    0.2310100000000000 S
   0.5204000000000000    0.6790499999999999    0.7689600000000000 S
   0.3205000000000000    0.2162333333333333    0.5662600000000000 S
   0.6794700000000000    0.1170866666666667    0.4337000000000000 S
   0.5369200000000000    0.1602900000000000    0.2689000000000000 S
   0.4630300000000000    0.1730300000000000    0.7310600000000000 S
   0.3507900000000000    0.2735000000000000    0.0656000000000000 S
   0.6492500000000000    0.3931400000000000    0.9343500000000000 S
   0.4796000000000000    0.3209233333333333    0.2310100000000000 S
   0.5204000000000000    0.3457166666666667    0.7689600000000000 S
   0.3507900000000000    0.9401666666666666    0.0656000000000000 S
   0.6492500000000000    0.0598066666666667    0.9343500000000000 S
   0.4796000000000000    0.9875900000000000    0.2310100000000000 S
   0.5204000000000000    0.0123833333333333    0.7689600000000000 S
   0.3205000000000000    0.8829000000000000    0.5662600000000000 S
   0.6794700000000000    0.7837533333333333    0.4337000000000000 S
   0.5369200000000000    0.8269566666666666    0.2689000000000000 S
   0.4630300000000000    0.8396966666666666    0.7310600000000000 S
   0.8207600000000000    0.0497233333333333    0.4341800000000000 S
   0.1792300000000000    0.9502699999999999    0.5658000000000000 S
   0.0378600000000000    0.9937633333333333    0.7309400000000000 S
   0.9621400000000000    0.0062366666666667    0.2690400000000000 S
   0.1489100000000000    0.5596700000000000    0.0665800000000000 S
   0.8510200000000000    0.4403200000000000    0.9333800000000000 S
   0.9814000000000001    0.4878433333333333    0.7688600000000000 S
   0.0185300000000000    0.5121533333333333    0.2311100000000000 S
   0.8207600000000000    0.7163900000000000    0.4341800000000000 S
   0.1792300000000000    0.6169366666666667    0.5658000000000000 S
   0.0378600000000000    0.6604300000000000    0.7309400000000000 S
   0.9621400000000000    0.6729033333333333    0.2690400000000000 S
   0.1489100000000000    0.2263366666666667    0.0665800000000000 S
   0.8510200000000000    0.1069866666666667    0.9333800000000000 S
   0.9814000000000001    0.1545100000000000    0.7688600000000000 S
   0.0185300000000000    0.1788200000000000    0.2311100000000000 S
   0.8207600000000000    0.3830566666666667    0.4341800000000000 S
   0.1792300000000000    0.2836033333333333    0.5658000000000000 S
   0.0378600000000000    0.3270966666666666    0.7309400000000000 S
   0.9621400000000000    0.3395700000000000    0.2690400000000000 S
   0.5816900000000000    0.4324433333333333    0.6664700000000000 O
   0.7066900000000000    0.4726766666666666    0.6623300000000000 O
   0.4183100000000000    0.5675600000000000    0.3334900000000000 O
   0.2933000000000000    0.5273266666666667    0.3376300000000000 O
   0.7024800000000000    0.6933333333333332    0.1666200000000000 O
   0.5822900000000000    0.7352200000000000    0.1628500000000000 O
   0.2975300000000000    0.6399933333333333    0.8333400000000000 O
   0.4176700000000000    0.5980866666666667    0.8371000000000000 O
   0.5816900000000000    0.0991100000000000    0.6664700000000000 O
   0.7066900000000000    0.1393433333333333    0.6623300000000000 O
   0.4183100000000000    0.2342266666666666    0.3334900000000000 O
   0.2933000000000000    0.1939933333333334    0.3376300000000000 O
   0.7024800000000000    0.3600000000000000    0.1666200000000000 O
   0.5822900000000000    0.4018866666666666    0.1628500000000000 O
   0.2975300000000000    0.3066600000000000    0.8333400000000000 O
   0.4176700000000000    0.2647533333333333    0.8371000000000000 O
   0.7024800000000000    0.0266666666666667    0.1666200000000000 O
   0.5822900000000000    0.0685533333333333    0.1628500000000000 O
   0.2975300000000000    0.9733266666666667    0.8333400000000000 O
   0.4176700000000000    0.9314199999999999    0.8371000000000000 O
   0.0840300000000000    0.9021866666666666    0.8376400000000001 O
   0.2038800000000000    0.8602166666666666    0.8342000000000001 O
   0.9159600000000000    0.7644766666666667    0.1623300000000000 O
   0.7960600000000000    0.8064266666666666    0.1657300000000000 O
   0.5816900000000000    0.7657766666666667    0.6664700000000000 O
   0.7066900000000000    0.8060099999999999    0.6623300000000000 O
   0.4183100000000000    0.9008933333333333    0.3334900000000000 O
   0.2933000000000000    0.8606600000000000    0.3376300000000000 O
   0.0795600000000000    0.9319366666666666    0.3338800000000000 O
   0.2050600000000000    0.9719933333333333    0.3370500000000000 O
   0.9204400000000000    0.0680666666666667    0.6660700000000001 O
   0.7949400000000000    0.0280100000000000    0.6629100000000000 O
   0.7960600000000000    0.4730933333333333    0.1657300000000000 O
   0.9159600000000000    0.4311433333333333    0.1623300000000000 O
   0.2038800000000000    0.5268833333333334    0.8342000000000001 O
   0.0840300000000000    0.5688533333333333    0.8376400000000001 O
   0.0795600000000000    0.5986033333333334    0.3338800000000000 O
   0.2050600000000000    0.6386600000000000    0.3370500000000000 O
   0.9204400000000000    0.7347333333333332    0.6660700000000001 O
   0.7949400000000000    0.6946766666666666    0.6629100000000000 O
   0.7960600000000000    0.1397600000000000    0.1657300000000000 O
   0.9159600000000000    0.0978100000000000    0.1623300000000000 O
   0.2038800000000000    0.1935500000000000    0.8342000000000001 O
   0.0840300000000000    0.2355200000000000    0.8376400000000001 O
   0.0795600000000000    0.2652700000000000    0.3338800000000000 O
   0.2050600000000000    0.3053266666666666    0.3370500000000000 O
   0.9204400000000000    0.4014000000000000    0.6660700000000001 O
   0.7949400000000000    0.3613433333333333    0.6629100000000000 O
