H12 C12 S4 O4
1.0
  13.1439910132668540    0.0000000000000000    0.0153702036481610
   0.0075061918276076   39.3779723613095172    0.0460474649465372
   0.0000000000000000    0.0000000000000000   13.6600000000000001
H C S O
12 12 4 4
direct
   0.0828100000000000    0.7704299999999999    0.7943200000000000 H
   0.0861900000000000    0.7855900000000000    0.6714900000000000 H
   0.1590800000000000    0.8071233333333333    0.7654600000000000 H
   0.0409700000000000    0.9312866666666666    0.9770000000000000 H
   0.1178600000000000    0.9519899999999999    0.0682900000000000 H
   0.0058100000000000    0.9298833333333333    0.1058200000000000 H
   0.9171700000000000    0.8962433333333333    0.2056600000000000 H
   0.9137900000000000    0.8810866666666666    0.3284800000000000 H
   0.8408600000000001    0.8595599999999999    0.2345200000000000 H
   0.9590000000000000    0.7353833333333333    0.0228900000000000 H
   0.8821500000000000    0.7146733333333333    0.9316800000000000 H
   0.9941800000000000    0.7367899999999999    0.8941600000000000 H
   0.1206500000000000    0.8734999999999999    0.8607500000000000 C
   0.0564300000000000    0.8527066666666666    0.9321000000000000 C
   0.9913700000000000    0.8268266666666666    0.8984300000000000 C
   0.0640900000000000    0.8594433333333333    0.0332300000000000 C
   0.0892300000000000    0.7931699999999999    0.7486800000000000 C
   0.0682200000000000    0.9302566666666666    0.0528300000000000 C
   0.8793000000000000    0.7931600000000000    0.1392200000000000 C
   0.9434700000000000    0.8139700000000000    0.0678600000000000 C
   0.0085400000000000    0.8398399999999999    0.1015400000000000 C
   0.9358300000000001    0.8072166666666667    0.9667300000000000 C
   0.9107300000000000    0.8735066666666667    0.2510000000000000 C
   0.9317600000000000    0.7364133333333333    0.9471500000000000 C
   0.9814000000000001    0.8211766666666667    0.7688600000000000 S
   0.1489100000000000    0.8930033333333333    0.0665800000000000 S
   0.0185300000000000    0.8454866666666666    0.2311100000000000 S
   0.8510200000000000    0.7736533333333333    0.9333800000000000 S
   0.0840300000000000    0.9021866666666666    0.8376400000000001 O
   0.2038800000000000    0.8602166666666666    0.8342000000000001 O
   0.9159600000000000    0.7644766666666667    0.1623300000000000 O
   0.7960600000000000    0.8064266666666666    0.1657300000000000 O
