H6 O4
1.0
  13.1439910132668540    0.0000000000000000    0.0153702036481610
   0.0075061918276076   39.3779723613095172    0.0460474649465372
   0.0000000000000000    0.0000000000000000   13.6600000000000001
H O
6 4
direct
   0.9774880803154570    0.7514710797131581    0.1507896189774845 H
   0.7596568592663878    0.8276436573940799    0.1570138939006035 H
   0.8712551319936929    0.7905321869005093    0.1516261880527328 H
   0.0225170323751530    0.9151981955142463    0.8491993108142750 H
   0.2402513100561504    0.8389928475229387    0.8429009547331821 H
   0.1287031804663425    0.8761184414273493    0.8483269760925531 H
   0.9159600000000000    0.7644766666666667    0.1623300000000000 O
   0.7960600000000000    0.8064266666666666    0.1657300000000000 O
   0.0840300000000000    0.9021866666666666    0.8376400000000001 O
   0.2038800000000000    0.8602166666666666    0.8342000000000001 O
