H14 C10 N4
1.0
  34.4719999947496163    0.0000000000000000   -0.0006016498997209
   0.4838533116143453   33.8885241878178292    0.0384492461081647
   0.0000000000000000    0.0000000000000000   35.7060000000000031
H C N
14 10 4
direct
   0.3842450000000000    0.7135199999999999    0.6999100000000000 H
   0.3188500000000000    0.7344600000000000    0.9023300000000001 H
   0.3542700000000000    0.8319550000000000    0.7725050000000000 H
   0.4055350000000000    0.8327350000000000    0.7686150000000000 H
   0.3835600000000000    0.8154600000000001    0.8107050000000000 H
   0.3812000000000000    0.6504200000000000    0.7371750000000000 H
   0.3543500000000000    0.6572800000000000    0.7793850000000000 H
   0.4057300000000000    0.6555800000000001    0.7807200000000001 H
   0.2945050000000000    0.7953950000000001    0.8441300000000000 H
   0.2741200000000000    0.7493000000000000    0.8318300000000001 H
   0.3038250000000000    0.7744900000000000    0.7993950000000001 H
   0.4481300000000000    0.6988250000000000    0.8760350000000000 H
   0.4487900000000000    0.7118400000000000    0.8274699999999999 H
   0.4298750000000000    0.6659050000000000    0.8422650000000000 H
   0.3811500000000000    0.8160849999999999    0.7800750000000001 C
   0.3814100000000000    0.7750800000000000    0.7651500000000000 C
   0.3780300000000000    0.7395350000000001    0.7855799999999999 C
   0.3813000000000000    0.7092200000000000    0.7591650000000000 C
   0.3806450000000000    0.6657600000000000    0.7641500000000000 C
   0.3001050000000000    0.7675650000000001    0.8291500000000001 C
   0.3353900000000000    0.7469550000000000    0.8438099999999999 C
   0.3697350000000000    0.7349300000000000    0.8255300000000000 C
   0.3928550000000000    0.7161550000000000    0.8531900000000000 C
   0.4320350000000000    0.6973400000000000    0.8495699999999999 C
   0.3857850000000000    0.7672500000000000    0.7283050000000000 N
   0.3859500000000000    0.7270050000000000    0.7254200000000000 N
   0.3736900000000000    0.7169200000000000    0.8861399999999999 N
   0.3390650000000000    0.7358500000000000    0.8799800000000000 N
