H4 C8 O4
1.0
  34.4719999947496163    0.0000000000000000   -0.0006016498997209
   0.4838533116143453   33.8885241878178292    0.0384492461081647
   0.0000000000000000    0.0000000000000000   35.7060000000000031
H C O
4 8 4
direct
   0.4922100000000000    0.8366750000000001    0.2268500000000000 H
   0.4415250000000000    0.9528799999999999    0.2189500000000000 H
   0.4900650000000000    0.9774300000000000    0.2647750000000000 H
   0.5441900000000000    0.8629100000000001    0.2689150000000000 H
   0.4926600000000000    0.8677699999999999    0.2344950000000000 C
   0.4634700000000000    0.9329650000000000    0.2304700000000000 C
   0.4909400000000000    0.9469150000000000    0.2555100000000000 C
   0.4307100000000000    0.8774250000000000    0.1968700000000000 C
   0.4635050000000000    0.8930350000000000    0.2202800000000000 C
   0.5509300000000000    0.9383000000000000    0.2946000000000000 C
   0.5203900000000000    0.9219300000000000    0.2692500000000000 C
   0.5212650000000000    0.8822150000000000    0.2581400000000000 C
   0.4301350000000000    0.8388150000000000    0.1952700000000000 O
   0.4062350000000000    0.9001700000000000    0.1825000000000000 O
   0.5819000000000000    0.9167000000000001    0.2984050000000000 O
   0.5450800000000000    0.9716350000000000    0.3095600000000000 O
