Cd6 H10 C35 O30
1.0
   6.5067145173078567    0.0000000000000000   -2.3022315674699616
  -2.4298853860033405    7.4940805173075189   -0.5303114283128935
   0.0000000000000000    0.0000000000000000   30.2789999999999999
Cd H C O
6 10 35 30
direct
   0.4805000000000000    0.0200700000000000    0.1786466666666666 Cd
   0.4805000000000000    0.0200600000000000    0.0119866666666667 Cd
   0.4805000000000000    0.0200700000000000    0.5119800000000000 Cd
   0.4805000000000000    0.0200600000000000    0.3453200000000000 Cd
   0.4805000000000000    0.0200700000000000    0.8453133333333332 Cd
   0.4805000000000000    0.0200600000000000    0.6786533333333333 Cd
   0.4451800000000000    0.6020200000000000    0.0993966666666667 H
   0.9413600000000000    0.4931000000000000    0.1599633333333333 H
   0.9413600000000000    0.4931000000000000    0.0000000000000000 H
   0.4451700000000000    0.6020200000000000    0.5993900000000000 H
   0.4451800000000000    0.6020200000000000    0.4327299999999999 H
   0.9413600000000000    0.4931000000000000    0.4932966666666666 H
   0.4451700000000000    0.6020200000000000    0.9327233333333333 H
   0.4451800000000000    0.6020200000000000    0.7660633333333333 H
   0.9413600000000000    0.4931000000000000    0.8266300000000000 H
   0.9413600000000000    0.4931000000000000    0.6666666666666666 H
   0.2317500000000000    0.3395200000000000    0.0849233333333333 C
   0.3328100000000000    0.2554400000000000    0.0557900000000000 C
   0.3070800000000000    0.5153700000000000    0.1051666666666667 C
   0.2068800000000000    0.5825600000000000    0.1341933333333333 C
   0.0265600000000000    0.4530100000000000    0.1388000000000000 C
   0.9623699999999999    0.2803000000000000    0.1173466666666667 C
   0.7751500000000000    0.1387700000000000    0.1212733333333333 C
   0.2317400000000000    0.3395300000000000    0.5849166666666666 C
   0.2317500000000000    0.3395200000000000    0.4182566666666666 C
   0.3328000000000000    0.2554500000000000    0.5557866666666667 C
   0.3328100000000000    0.2554400000000000    0.3891233333333333 C
   0.3070700000000000    0.5153700000000000    0.6051633333333333 C
   0.3070800000000000    0.5153700000000000    0.4385000000000000 C
   0.2068700000000000    0.5825600000000000    0.6341900000000000 C
   0.2068800000000000    0.5825600000000000    0.4675266666666666 C
   0.0265700000000000    0.4530100000000000    0.6387966666666667 C
   0.0265600000000000    0.4530100000000000    0.4721333333333333 C
   0.9623699999999999    0.2803000000000000    0.6173433333333334 C
   0.9623699999999999    0.2803000000000000    0.4506800000000000 C
   0.7751400000000001    0.1387700000000000    0.6212700000000000 C
   0.7751500000000000    0.1387700000000000    0.4546066666666666 C
   0.2317400000000000    0.3395300000000000    0.9182500000000000 C
   0.2317500000000000    0.3395200000000000    0.7515900000000000 C
   0.3328000000000000    0.2554500000000000    0.8891199999999999 C
   0.3328100000000000    0.2554400000000000    0.7224566666666666 C
   0.3070700000000000    0.5153700000000000    0.9384966666666666 C
   0.3070800000000000    0.5153700000000000    0.7718333333333333 C
   0.2068700000000000    0.5825600000000000    0.9675233333333333 C
   0.2068800000000000    0.5825600000000000    0.8008599999999999 C
   0.0265700000000000    0.4530100000000000    0.9721299999999999 C
   0.0265600000000000    0.4530100000000000    0.8054666666666666 C
   0.9623699999999999    0.2803000000000000    0.9506766666666666 C
   0.9623699999999999    0.2803000000000000    0.7840133333333333 C
   0.7751400000000001    0.1387700000000000    0.9546033333333332 C
   0.7751500000000000    0.1387700000000000    0.7879400000000000 C
   0.0612000000000000    0.2215000000000000    0.0904766666666667 O
   0.2329200000000000    0.0914800000000000    0.0360933333333333 O
   0.5066400000000000    0.3484500000000000    0.0537566666666667 O
   0.2662000000000000    0.7415800000000000    0.1557233333333333 O
   0.2662200000000000    0.7415800000000000    0.0000000000000000 O
   0.6728499999999999    0.0015100000000000    0.0897900000000000 O
   0.7377500000000000    0.1781400000000000    0.1585400000000000 O
   0.0611900000000000    0.2215000000000000    0.5904733333333333 O
   0.0612000000000000    0.2215000000000000    0.4238100000000000 O
   0.2329100000000000    0.0914800000000000    0.5360866666666666 O
   0.2329200000000000    0.0914800000000000    0.3694266666666666 O
   0.5066400000000000    0.3484500000000000    0.5537533333333333 O
   0.5066400000000000    0.3484500000000000    0.3870900000000000 O
   0.2662000000000000    0.7415800000000000    0.4890566666666666 O
   0.6728499999999999    0.0015000000000000    0.5897866666666667 O
   0.6728499999999999    0.0015100000000000    0.4231233333333333 O
   0.7377400000000000    0.1781400000000000    0.6585366666666665 O
   0.7377500000000000    0.1781400000000000    0.4918733333333333 O
   0.0611900000000000    0.2215000000000000    0.9238066666666667 O
   0.0612000000000000    0.2215000000000000    0.7571433333333333 O
   0.2329100000000000    0.0914800000000000    0.8694200000000000 O
   0.2329200000000000    0.0914800000000000    0.7027599999999999 O
   0.5066400000000000    0.3484500000000000    0.8870866666666666 O
   0.5066400000000000    0.3484500000000000    0.7204233333333333 O
   0.2662000000000000    0.7415800000000000    0.8223900000000000 O
   0.2662200000000000    0.7415800000000000    0.6666666666666666 O
   0.6728499999999999    0.0015000000000000    0.9231199999999999 O
   0.6728499999999999    0.0015100000000000    0.7564566666666667 O
   0.7377400000000000    0.1781400000000000    0.9918699999999999 O
   0.7377500000000000    0.1781400000000000    0.8252066666666666 O
