H10 C10 S1 N1 O2
1.0
  23.0199985975414130    0.0000000000000000    0.0080354957129993
  -0.0041824752446088   14.9799992700967639   -0.0020916025687908
   0.0000000000000000    0.0000000000000000   14.9819999999999993
H C S N O
10 10 1 1 2
direct
   0.5889100000000000    0.4093500000000000    0.8732900000000000 H
   0.6591500000000000    0.4547900000000000    0.8989300000000000 H
   0.6416800000000000    0.4281600000000000    0.7876300000000001 H
   0.8228600000000000    0.2024200000000000    0.8074900000000000 H
   0.8312300000000000    0.2498700000000000    0.9144900000000000 H
   0.8202199999999999    0.1319600000000000    0.9034300000000000 H
   0.7033800000000000    0.2684000000000000    0.7018000000000000 H
   0.7036600000000000    0.2785500000000000    0.5366000000000000 H
   0.8218700000000000    0.4868100000000000    0.5384100000000001 H
   0.8270999999999999    0.4870100000000000    0.7034000000000000 H
   0.6353200000000000    0.4069200000000000    0.8572300000000000 C
   0.6565100000000000    0.3121100000000000    0.8705900000000000 C
   0.7174400000000000    0.2931600000000000    0.8654300000000000 C
   0.7429900000000000    0.2076400000000000    0.8821300000000000 C
   0.8082800000000000    0.1975700000000000    0.8772400000000000 C
   0.7641200000000000    0.3786100000000000    0.7178000000000000 C
   0.7299300000000000    0.3185500000000000    0.6685600000000000 C
   0.7301299999999999    0.3237800000000000    0.5762600000000000 C
   0.7958700000000000    0.4398900000000000    0.5771500000000001 C
   0.7985400000000000    0.4397400000000000    0.6696700000000000 C
   0.7646900000000000    0.3815900000000000    0.8352500000000000 S
   0.7617600000000000    0.3837600000000000    0.5298500000000000 N
   0.6174800000000000    0.2542400000000000    0.8857600000000000 O
   0.7148700000000000    0.1372600000000000    0.9019300000000000 O
