H6 O4
1.0
  27.3206250925619827    0.0000000000000000   -7.1786453145194846
  -4.6991874869358261   12.8320709481273720   -3.6325187053683963
   0.0000000000000000    0.0000000000000000   28.2439999999999998
H O
6 4
direct
   0.0815595568194036    0.4040810464781994    0.7697611310542041 H
   0.1001650151583148    0.4377841372808868    0.9090350445940686 H
   0.0968863402052630    0.4473005623853043    0.8497895078288284 H
   0.2235827989685106    0.6618496920107952    0.8993464785169544 H
   0.1205797476616154    0.6280967706953061    0.8804437030805269 H
   0.1879659161234303    0.7088251488889075    0.7787592009768595 H
   0.0740500000000000    0.3570200000000000    0.7886700000000000 O
   0.0871700000000000    0.3864100000000000    0.8742550000000000 O
   0.2112600000000000    0.6430100000000000    0.9258700000000000 O
   0.1257000000000000    0.6136300000000000    0.9127799999999999 O
