H4 O4
1.0
   7.4645385374896813    0.0000000000000000    0.9519923436306650
   1.4971345200064763   12.4250712237226164    1.0746693977336244
   0.0000000000000000    0.0000000000000000   37.7010000000000005
H O
4 4
direct
   0.8125421718050441    0.3582064116626412    0.0517823006072138 H
   0.9932845793704946    0.3463542843840599    0.2391144724921316 H
   0.8050538678551574    0.1652147244874081    0.1592648616427612 H
   0.6933399183272623    1.0340021600292684    0.1383819541694261 H
   0.7892200000000000    0.3399600000000000    0.0282133333333333 O
   0.9921300000000000    0.3256300000000000    0.2647533333333333 O
   0.7582500000000000    0.0960900000000000    0.1656466666666667 O
   0.6486600000000000    0.9856700000000000    0.1234500000000000 O
