Cu12 H11 C66 N99
1.0
   7.4645385374896813    0.0000000000000000    0.9519923436306650
   1.4971345200064763   12.4250712237226164    1.0746693977336244
   0.0000000000000000    0.0000000000000000   37.7010000000000005
Cu H C N
12 11 66 99
direct
   0.4065800000000000    0.9405400000000000    0.1187400000000000 Cu
   0.5933500000000000    0.0594900000000000    0.2145900000000000 Cu
   0.0941600000000000    0.6437800000000000    0.0197933333333333 Cu
   0.9061500000000000    0.3562100000000000    0.3135233333333333 Cu
   0.4065800000000000    0.9405400000000000    0.4520733333333333 Cu
   0.5933500000000000    0.0594900000000000    0.5479233333333333 Cu
   0.0941600000000000    0.6437800000000000    0.3531266666666666 Cu
   0.9061500000000000    0.3562100000000000    0.6468566666666666 Cu
   0.4065800000000000    0.9405400000000000    0.7854066666666666 Cu
   0.5933500000000000    0.0594900000000000    0.8812566666666666 Cu
   0.0941600000000000    0.6437800000000000    0.6864600000000000 Cu
   0.9061500000000000    0.3562100000000000    0.9801899999999999 Cu
   0.4476700000000000    0.4168600000000000    0.1560000000000000 H
   0.0526700000000000    0.5321100000000000    0.1943700000000000 H
   0.5524300000000000    0.5831700000000000    0.1773466666666667 H
   0.4476700000000000    0.4168600000000000    0.4893333333333333 H
   0.9473700000000000    0.4678700000000000    0.4722900000000000 H
   0.0526700000000000    0.5321100000000000    0.5277033333333333 H
   0.5524300000000000    0.5831700000000000    0.5106800000000000 H
   0.4476700000000000    0.4168600000000000    0.8226666666666667 H
   0.9473700000000000    0.4678700000000000    0.8056233333333334 H
   0.0526700000000000    0.5321100000000000    0.8610366666666667 H
   0.5524300000000000    0.5831700000000000    0.8440133333333333 H
   0.4360500000000000    0.5292500000000000    0.1113466666666667 C
   0.3619500000000000    0.3503500000000000    0.1125800000000000 C
   0.3245400000000000    0.4697700000000000    0.0642966666666667 C
   0.4941200000000000    0.7014300000000000    0.1167933333333333 C
   0.3172400000000000    0.1706100000000000    0.1208366666666667 C
   0.2029000000000000    0.4241300000000000    0.0146733333333333 C
   0.0646800000000000    0.6658400000000000    0.1568233333333333 C
   0.1384300000000000    0.6624200000000000    0.2164866666666667 C
   0.1761500000000000    0.8070300000000000    0.1766166666666667 C
   0.0064800000000000    0.6494600000000000    0.0994733333333333 C
   0.1826400000000000    0.6378000000000000    0.2764466666666666 C
   0.2973400000000000    0.9559800000000001    0.1918366666666667 C
   0.5640500000000001    0.4707500000000000    0.2219900000000000 C
   0.6381300000000000    0.6496600000000000    0.2207700000000000 C
   0.6756000000000000    0.5302000000000000    0.2690433333333333 C
   0.5058800000000000    0.2986000000000000    0.2165366666666667 C
   0.6827800000000001    0.8294200000000000    0.2125166666666666 C
   0.7971400000000000    0.5758100000000000    0.3186833333333333 C
   0.4360500000000000    0.5292500000000000    0.4446800000000000 C
   0.3619500000000000    0.3503500000000000    0.4459133333333333 C
   0.3245400000000000    0.4697700000000000    0.3976300000000000 C
   0.4941200000000000    0.7014300000000000    0.4501266666666667 C
   0.3172400000000000    0.1706100000000000    0.4541700000000000 C
   0.2029000000000000    0.4241300000000000    0.3480066666666666 C
   0.9353500000000000    0.3341300000000000    0.5098300000000000 C
   0.8616500000000000    0.3375600000000000    0.4501633333333333 C
   0.8238400000000000    0.1929600000000000    0.4900366666666666 C
   0.9935200000000000    0.3505800000000000    0.5672199999999999 C
   0.8175700000000000    0.3621400000000000    0.3901966666666666 C
   0.7026100000000000    0.0440300000000000    0.4748133333333333 C
   0.0646800000000000    0.6658400000000000    0.4901566666666666 C
   0.1384300000000000    0.6624200000000000    0.5498200000000000 C
   0.1761500000000000    0.8070300000000000    0.5099500000000000 C
   0.0064800000000000    0.6494600000000000    0.4328066666666667 C
   0.1826400000000000    0.6378000000000000    0.6097800000000000 C
   0.2973400000000000    0.9559800000000001    0.5251699999999999 C
   0.5640500000000001    0.4707500000000000    0.5553233333333333 C
   0.6381300000000000    0.6496600000000000    0.5541033333333333 C
   0.6756000000000000    0.5302000000000000    0.6023766666666666 C
   0.5058800000000000    0.2986000000000000    0.5498700000000000 C
   0.6827800000000001    0.8294200000000000    0.5458499999999999 C
   0.7971400000000000    0.5758100000000000    0.6520166666666667 C
   0.4360500000000000    0.5292500000000000    0.7780133333333333 C
   0.3619500000000000    0.3503500000000000    0.7792466666666666 C
   0.3245400000000000    0.4697700000000000    0.7309633333333333 C
   0.4941200000000000    0.7014300000000000    0.7834599999999999 C
   0.3172400000000000    0.1706100000000000    0.7875033333333333 C
   0.2029000000000000    0.4241300000000000    0.6813399999999999 C
   0.9353500000000000    0.3341300000000000    0.8431633333333333 C
   0.8616500000000000    0.3375600000000000    0.7834966666666666 C
   0.8238400000000000    0.1929600000000000    0.8233699999999999 C
   0.9935200000000000    0.3505800000000000    0.9005533333333333 C
   0.8175700000000000    0.3621400000000000    0.7235300000000000 C
   0.7026100000000000    0.0440300000000000    0.8081466666666666 C
   0.0646800000000000    0.6658400000000000    0.8234899999999999 C
   0.1384300000000000    0.6624200000000000    0.8831533333333332 C
   0.1761500000000000    0.8070300000000000    0.8432833333333333 C
   0.0064800000000000    0.6494600000000000    0.7661399999999999 C
   0.1826400000000000    0.6378000000000000    0.9431133333333332 C
   0.2973400000000000    0.9559800000000001    0.8585033333333333 C
   0.5640500000000001    0.4707500000000000    0.8886566666666667 C
   0.6381300000000000    0.6496600000000000    0.8874366666666667 C
   0.6756000000000000    0.5302000000000000    0.9357099999999999 C
   0.5058800000000000    0.2986000000000000    0.8832033333333333 C
   0.6827800000000001    0.8294200000000000    0.8791833333333332 C
   0.7971400000000000    0.5758100000000000    0.9853499999999999 C
   0.4200600000000000    0.4305500000000000    0.1293800000000000 N
   0.3159600000000000    0.3683900000000000    0.0794100000000000 N
   0.3881700000000000    0.5506100000000000    0.0784733333333333 N
   0.5001500000000000    0.6017800000000000    0.1295566666666667 N
   0.4928700000000000    0.7940700000000001    0.1084866666666667 N
   0.3461800000000000    0.2580600000000000    0.1330266666666667 N
   0.2887400000000000    0.0847100000000000    0.1134200000000000 N
   0.2589400000000000    0.4965900000000000    0.0319833333333333 N
   0.1485200000000000    0.3700800000000000    0.3285900000000000 N
   0.0805300000000000    0.6118900000000000    0.1897500000000000 N
   0.1844700000000000    0.7618800000000000    0.2104366666666667 N
   0.1125600000000000    0.7644100000000000    0.1496766666666667 N
   0.0005100000000000    0.6112100000000000    0.1326733333333333 N
   0.0078200000000000    0.6744200000000000    0.0686066666666667 N
   0.1538000000000000    0.6012500000000000    0.2472900000000000 N
   0.2110700000000000    0.6599400000000000    0.3050966666666667 N
   0.2416800000000000    0.9039199999999999    0.1676700000000000 N
   0.3513100000000000    0.0143400000000000    0.2098633333333333 N
   0.5800600000000000    0.5694600000000000    0.2039633333333333 N
   0.6841500000000000    0.6316000000000001    0.2539400000000000 N
   0.6119800000000000    0.4493700000000000    0.2548600000000000 N
   0.4999200000000000    0.3982400000000000    0.2037800000000000 N
   0.5070700000000000    0.2059600000000000    0.2248400000000000 N
   0.6539100000000000    0.7419500000000000    0.2003266666666667 N
   0.7112300000000000    0.9153400000000000    0.2199300000000000 N
   0.7411900000000000    0.5033600000000000    0.3013600000000000 N
   0.8514000000000000    0.6298700000000000    0.0047833333333333 N
   0.4200600000000000    0.4305500000000000    0.4627133333333333 N
   0.3159600000000000    0.3683900000000000    0.4127433333333333 N
   0.3881700000000000    0.5506100000000000    0.4118066666666667 N
   0.5001500000000000    0.6017800000000000    0.4628900000000000 N
   0.4928700000000000    0.7940700000000001    0.4418200000000000 N
   0.3461800000000000    0.2580600000000000    0.4663600000000000 N
   0.2887400000000000    0.0847100000000000    0.4467533333333333 N
   0.2589400000000000    0.4965900000000000    0.3653166666666666 N
   0.1485200000000000    0.3700800000000000    0.6619233333333333 N
   0.9194800000000000    0.3881000000000000    0.4769033333333333 N
   0.8155700000000000    0.2381000000000000    0.4562133333333333 N
   0.8873900000000000    0.2355800000000000    0.5169800000000000 N
   0.9995500000000000    0.3888000000000000    0.5340166666666666 N
   0.9921300000000000    0.3256300000000000    0.5980866666666667 N
   0.8462900000000000    0.3987200000000000    0.4193566666666667 N
   0.7892200000000000    0.3399600000000000    0.3615466666666666 N
   0.7582500000000000    0.0960900000000000    0.4989800000000000 N
   0.6486600000000000    0.9856700000000000    0.4567833333333333 N
   0.0805300000000000    0.6118900000000000    0.5230833333333333 N
   0.1844700000000000    0.7618800000000000    0.5437700000000000 N
   0.1125600000000000    0.7644100000000000    0.4830099999999999 N
   0.0005100000000000    0.6112100000000000    0.4660066666666666 N
   0.0078200000000000    0.6744200000000000    0.4019400000000000 N
   0.1538000000000000    0.6012500000000000    0.5806233333333333 N
   0.2110700000000000    0.6599400000000000    0.6384300000000001 N
   0.2416800000000000    0.9039199999999999    0.5010033333333332 N
   0.3513100000000000    0.0143400000000000    0.5431966666666667 N
   0.5800600000000000    0.5694600000000000    0.5372966666666666 N
   0.6841500000000000    0.6316000000000001    0.5872733333333333 N
   0.6119800000000000    0.4493700000000000    0.5881933333333333 N
   0.4999200000000000    0.3982400000000000    0.5371133333333333 N
   0.5070700000000000    0.2059600000000000    0.5581733333333333 N
   0.6539100000000000    0.7419500000000000    0.5336600000000000 N
   0.7112300000000000    0.9153400000000000    0.5532633333333333 N
   0.7411900000000000    0.5033600000000000    0.6346933333333333 N
   0.8514000000000000    0.6298700000000000    0.3381166666666666 N
   0.4200600000000000    0.4305500000000000    0.7960466666666666 N
   0.3159600000000000    0.3683900000000000    0.7460766666666666 N
   0.3881700000000000    0.5506100000000000    0.7451399999999999 N
   0.5001500000000000    0.6017800000000000    0.7962233333333333 N
   0.4928700000000000    0.7940700000000001    0.7751533333333334 N
   0.3461800000000000    0.2580600000000000    0.7996933333333333 N
   0.2887400000000000    0.0847100000000000    0.7800866666666666 N
   0.2589400000000000    0.4965900000000000    0.6986500000000000 N
   0.1485200000000000    0.3700800000000000    0.9952566666666667 N
   0.9194800000000000    0.3881000000000000    0.8102366666666666 N
   0.8155700000000000    0.2381000000000000    0.7895466666666666 N
   0.8873900000000000    0.2355800000000000    0.8503133333333333 N
   0.9995500000000000    0.3888000000000000    0.8673500000000000 N
   0.9921300000000000    0.3256300000000000    0.9314199999999999 N
   0.8462900000000000    0.3987200000000000    0.7526900000000000 N
   0.7892200000000000    0.3399600000000000    0.6948799999999999 N
   0.7582500000000000    0.0960900000000000    0.8323133333333332 N
   0.6486600000000000    0.9856700000000000    0.7901166666666666 N
   0.0805300000000000    0.6118900000000000    0.8564166666666666 N
   0.1844700000000000    0.7618800000000000    0.8771033333333333 N
   0.1125600000000000    0.7644100000000000    0.8163433333333333 N
   0.0005100000000000    0.6112100000000000    0.7993399999999999 N
   0.0078200000000000    0.6744200000000000    0.7352733333333333 N
   0.1538000000000000    0.6012500000000000    0.9139566666666666 N
   0.2110700000000000    0.6599400000000000    0.9717633333333333 N
   0.2416800000000000    0.9039199999999999    0.8343366666666666 N
   0.3513100000000000    0.0143400000000000    0.8765299999999999 N
   0.5800600000000000    0.5694600000000000    0.8706300000000000 N
   0.6841500000000000    0.6316000000000001    0.9206066666666666 N
   0.6119800000000000    0.4493700000000000    0.9215266666666666 N
   0.4999200000000000    0.3982400000000000    0.8704466666666666 N
   0.5070700000000000    0.2059600000000000    0.8915066666666667 N
   0.6539100000000000    0.7419500000000000    0.8669933333333333 N
   0.7112300000000000    0.9153400000000000    0.8865966666666666 N
   0.7411900000000000    0.5033600000000000    0.9680266666666666 N
   0.8514000000000000    0.6298700000000000    0.6714500000000000 N
