H1 C10 O8
1.0
  29.0877320593715005    0.0000000000000000   -8.7732415698082509
  -7.0269796526866504   28.3648672436937765   -8.9698655067038686
   0.0000000000000000    0.0000000000000000   22.5799999999999983
H C O
1 10 8
direct
   0.6364050000000000    0.8321050000000000    0.9999400000000001 H
   0.6053550000000000    0.7675149999999999    0.8766000000000000 C
   0.6131200000000000    0.7582550000000000    0.9400400000000000 C
   0.5825200000000000    0.6708300000000000    0.8767500000000000 C
   0.6066450000000000    0.7118700000000000    0.9400700000000000 C
   0.6445050000000000    0.7326000000000000    0.1233300000000000 C
   0.6368549999999999    0.7418899999999999    0.0599200000000000 C
   0.6674750000000000    0.8293050000000000    0.1232400000000000 C
   0.6433550000000000    0.7882750000000001    0.0599000000000000 C
   0.6309899999999999    0.7961400000000001    0.9999500000000000 C
   0.6190000000000000    0.7040000000000000    0.0000000000000000 C
   0.5831000000000000    0.7989750000000000    0.8686500000000000 O
   0.6241250000000000    0.7443250000000000    0.8378800000000000 O
   0.6006350000000000    0.6352750000000000    0.8687200000000000 O
   0.5444900000000000    0.6747650000000001    0.8381500000000000 O
   0.6668200000000000    0.7012050000000000    0.1313700000000000 O
   0.6255650000000000    0.7556900000000000    0.1618900000000000 O
   0.6493550000000000    0.8648650000000000    0.1312300000000000 O
   0.7054800000000000    0.8253900000000001    0.1618800000000000 O
