C5 O4
1.0
  29.0877320593715005    0.0000000000000000   -8.7732415698082509
  -7.0269796526866504   28.3648672436937765   -8.9698655067038686
   0.0000000000000000    0.0000000000000000   22.5799999999999983
C O
5 4
direct
   0.3554300000000000    0.7675400000000000    0.8766600000000000 C
   0.3631850000000000    0.7582949999999999    0.9401200000000000 C
   0.3325550000000000    0.6708800000000000    0.8768200000000000 C
   0.3567150000000000    0.7119100000000000    0.9401500000000000 C
   0.3690950000000000    0.7040500000000001    0.9000000000000000 C
   0.3331400000000000    0.7989649999999999    0.8686700000000001 O
   0.3742400000000000    0.7443700000000000    0.8379799999999999 O
   0.3506200000000000    0.6353000000000000    0.8687800000000000 O
   0.2945500000000000    0.6748700000000000    0.8382300000000000 O
