H6 O4
1.0
  29.0877320593715005    0.0000000000000000   -8.7732415698082509
  -7.0269796526866504   28.3648672436937765   -8.9698655067038686
   0.0000000000000000    0.0000000000000000   22.5799999999999983
H O
6 4
direct
   0.2816627185806641    0.7025352062309247    0.8456494653577148 H
   0.3796725908828219    0.6331441489268461    0.8988771521001139 H
   0.3335346917826336    0.6719771361602432    0.8786163532478181 H
   0.3909126562822750    0.7204627438049659    0.8453169286603961 H
   0.3189748893587646    0.8160454903668924    0.8987581317279172 H
   0.3552176358445761    0.7673074352196307    0.8783854308491363 H
   0.2945500000000000    0.6748700000000000    0.8382300000000000 O
   0.3506200000000000    0.6353000000000000    0.8687800000000000 O
   0.3742400000000000    0.7443700000000000    0.8379799999999999 O
   0.3331400000000000    0.7989649999999999    0.8686700000000001 O
