Ga128 H44 C315 O252
1.0
  29.0877320593715005    0.0000000000000000   -8.7732415698082509
  -7.0269796526866504   28.3648672436937765   -8.9698655067038686
   0.0000000000000000    0.0000000000000000   22.5799999999999983
Ga H C O
128 44 315 252
direct
   0.0722550000000000    0.0723700000000000    0.7897400000000000 Ga
   0.0722050000000000    0.3223950000000000    0.2897600000000000 Ga
   0.0722150000000000    0.3224000000000000    0.7897600000000000 Ga
   0.3222000000000000    0.0724000000000000    0.2897600000000000 Ga
   0.3222100000000000    0.0724000000000000    0.7897000000000000 Ga
   0.3223000000000000    0.3223300000000000    0.2897300000000000 Ga
   0.3222550000000000    0.3223600000000000    0.7897500000000000 Ga
   0.1776400000000000    0.1777550000000000    0.2102200000000000 Ga
   0.1776500000000000    0.1777550000000000    0.7102300000000000 Ga
   0.1777400000000000    0.4276950000000000    0.2102000000000000 Ga
   0.1776950000000000    0.4277200000000000    0.7102100000000000 Ga
   0.4277400000000000    0.1776950000000000    0.2102100000000000 Ga
   0.4276900000000000    0.1777300000000000    0.7102100000000000 Ga
   0.4276350000000000    0.4277500000000000    0.2102200000000000 Ga
   0.4276500000000000    0.4277550000000000    0.7102000000000001 Ga
   0.0000000000000000    0.1250000000000000    0.2500200000000000 Ga
   0.0000400000000000    0.1251800000000000    0.7500800000000000 Ga
   0.0000900000000000    0.3753500000000000    0.2501400000000000 Ga
   0.0000850000000000    0.3753350000000000    0.7501600000000000 Ga
   0.2500900000000000    0.1253700000000000    0.2501400000000000 Ga
   0.2500750000000000    0.1253300000000000    0.7501600000000000 Ga
   0.2500100000000000    0.3750350000000000    0.2500300000000000 Ga
   0.2500350000000000    0.3751600000000000    0.7500700000000000 Ga
   0.1251650000000000    0.0000800000000000    0.2500000000000000 Ga
   0.1249500000000000    0.0000350000000000    0.7499800000000000 Ga
   0.1247000000000000    0.2499650000000000    0.2498200000000000 Ga
   0.1247500000000000    0.2499850000000000    0.7498000000000000 Ga
   0.3746950000000000    0.4999650000000000    0.2498200000000000 Ga
   0.3747450000000000    0.4999900000000000    0.7498500000000000 Ga
   0.3751650000000000    0.2500750000000000    0.2500800000000000 Ga
   0.3749450000000000    0.2500300000000000    0.7499000000000000 Ga
   0.0723050000000000    0.0723300000000000    0.2897400000000000 Ga
   0.5722550000000000    0.0723700000000000    0.7897400000000000 Ga
   0.5722050000000000    0.3223950000000000    0.2897600000000000 Ga
   0.5722150000000000    0.3224000000000000    0.7897600000000000 Ga
   0.8222000000000000    0.0724000000000000    0.2897600000000000 Ga
   0.8222100000000000    0.0724000000000000    0.7897000000000000 Ga
   0.8223000000000000    0.3223300000000000    0.2897300000000000 Ga
   0.8222550000000000    0.3223600000000000    0.7897500000000000 Ga
   0.6776400000000000    0.1777550000000000    0.2102200000000000 Ga
   0.6776500000000000    0.1777550000000000    0.7102300000000000 Ga
   0.6777400000000000    0.4276950000000000    0.2102000000000000 Ga
   0.6776949999999999    0.4277200000000000    0.7102100000000000 Ga
   0.9277400000000000    0.1776950000000000    0.2102100000000000 Ga
   0.9276900000000000    0.1777300000000000    0.7102100000000000 Ga
   0.9276350000000000    0.4277500000000000    0.2102200000000000 Ga
   0.9276500000000000    0.4277550000000000    0.7102000000000001 Ga
   0.5000000000000000    0.1250000000000000    0.2500200000000000 Ga
   0.5000400000000000    0.1251800000000000    0.7500800000000000 Ga
   0.5000900000000000    0.3753500000000000    0.2501400000000000 Ga
   0.5000850000000000    0.3753350000000000    0.7501600000000000 Ga
   0.7500899999999999    0.1253700000000000    0.2501400000000000 Ga
   0.7500750000000000    0.1253300000000000    0.7501600000000000 Ga
   0.7500100000000001    0.3750350000000000    0.2500300000000000 Ga
   0.7500350000000000    0.3751600000000000    0.7500700000000000 Ga
   0.6251650000000000    0.0000800000000000    0.2500000000000000 Ga
   0.6249500000000000    0.0000350000000000    0.7499800000000000 Ga
   0.6247000000000000    0.2499650000000000    0.2498200000000000 Ga
   0.6247500000000000    0.2499850000000000    0.7498000000000000 Ga
   0.8746950000000000    0.4999650000000000    0.2498200000000000 Ga
   0.8747450000000000    0.4999900000000000    0.7498500000000000 Ga
   0.8751650000000000    0.2500750000000000    0.2500800000000000 Ga
   0.8749450000000000    0.2500300000000000    0.7499000000000000 Ga
   0.5723050000000000    0.0723300000000000    0.2897400000000000 Ga
   0.0722550000000000    0.5723700000000000    0.7897400000000000 Ga
   0.0722050000000000    0.8223950000000000    0.2897600000000000 Ga
   0.0722150000000000    0.8224000000000000    0.7897600000000000 Ga
   0.3222000000000000    0.5724000000000000    0.2897600000000000 Ga
   0.3222100000000000    0.5724000000000000    0.7897000000000000 Ga
   0.3223000000000000    0.8223300000000000    0.2897300000000000 Ga
   0.3222550000000000    0.8223600000000000    0.7897500000000000 Ga
   0.1776400000000000    0.6777550000000000    0.2102200000000000 Ga
   0.1776500000000000    0.6777550000000000    0.7102300000000000 Ga
   0.1777400000000000    0.9276949999999999    0.2102000000000000 Ga
   0.1776950000000000    0.9277200000000000    0.7102100000000000 Ga
   0.4277400000000000    0.6776949999999999    0.2102100000000000 Ga
   0.4276900000000000    0.6777299999999999    0.7102100000000000 Ga
   0.4276350000000000    0.9277500000000001    0.2102200000000000 Ga
   0.4276500000000000    0.9277550000000000    0.7102000000000001 Ga
   0.0000000000000000    0.6250000000000000    0.2500200000000000 Ga
   0.0000400000000000    0.6251800000000001    0.7500800000000000 Ga
   0.0000900000000000    0.8753500000000001    0.2501400000000000 Ga
   0.0000850000000000    0.8753350000000000    0.7501600000000000 Ga
   0.2500900000000000    0.6253700000000000    0.2501400000000000 Ga
   0.2500750000000000    0.6253299999999999    0.7501600000000000 Ga
   0.2500100000000000    0.8750350000000000    0.2500300000000000 Ga
   0.2500350000000000    0.8751599999999999    0.7500700000000000 Ga
   0.1251650000000000    0.5000800000000000    0.2500000000000000 Ga
   0.1249500000000000    0.5000350000000000    0.7499800000000000 Ga
   0.1247000000000000    0.7499650000000000    0.2498200000000000 Ga
   0.1247500000000000    0.7499850000000000    0.7498000000000000 Ga
   0.3746950000000000    0.9999650000000000    0.2498200000000000 Ga
   0.3747450000000000    0.9999899999999999    0.7498500000000000 Ga
   0.3751650000000000    0.7500750000000000    0.2500800000000000 Ga
   0.3749450000000000    0.7500300000000000    0.7499000000000000 Ga
   0.0723050000000000    0.5723300000000000    0.2897400000000000 Ga
   0.5722550000000000    0.5723700000000000    0.7897400000000000 Ga
   0.5722050000000000    0.8223950000000000    0.2897600000000000 Ga
   0.5722150000000000    0.8224000000000000    0.7897600000000000 Ga
   0.8222000000000000    0.5724000000000000    0.2897600000000000 Ga
   0.8222100000000000    0.5724000000000000    0.7897000000000000 Ga
   0.8223000000000000    0.8223300000000000    0.2897300000000000 Ga
   0.8222550000000000    0.8223600000000000    0.7897500000000000 Ga
   0.6776400000000000    0.6777550000000000    0.2102200000000000 Ga
   0.6776500000000000    0.6777550000000000    0.7102300000000000 Ga
   0.6777400000000000    0.9276949999999999    0.2102000000000000 Ga
   0.6776949999999999    0.9277200000000000    0.7102100000000000 Ga
   0.9277400000000000    0.6776949999999999    0.2102100000000000 Ga
   0.9276900000000000    0.6777299999999999    0.7102100000000000 Ga
   0.9276350000000000    0.9277500000000001    0.2102200000000000 Ga
   0.9276500000000000    0.9277550000000000    0.7102000000000001 Ga
   0.5000000000000000    0.6250000000000000    0.2500200000000000 Ga
   0.5000400000000000    0.6251800000000001    0.7500800000000000 Ga
   0.5000900000000000    0.8753500000000001    0.2501400000000000 Ga
   0.5000850000000000    0.8753350000000000    0.7501600000000000 Ga
   0.7500899999999999    0.6253700000000000    0.2501400000000000 Ga
   0.7500750000000000    0.6253299999999999    0.7501600000000000 Ga
   0.7500100000000001    0.8750350000000000    0.2500300000000000 Ga
   0.7500350000000000    0.8751599999999999    0.7500700000000000 Ga
   0.6251650000000000    0.5000800000000000    0.2500000000000000 Ga
   0.6249500000000000    0.5000350000000000    0.7499800000000000 Ga
   0.6247000000000000    0.7499650000000000    0.2498200000000000 Ga
   0.6247500000000000    0.7499850000000000    0.7498000000000000 Ga
   0.8746950000000000    0.9999650000000000    0.2498200000000000 Ga
   0.8747450000000000    0.9999899999999999    0.7498500000000000 Ga
   0.8751650000000000    0.7500750000000000    0.2500800000000000 Ga
   0.8749450000000000    0.7500300000000000    0.7499000000000000 Ga
   0.5723050000000000    0.5723300000000000    0.2897400000000000 Ga
   0.1365050000000000    0.0821550000000000    0.5000100000000000 H
   0.1364050000000000    0.3321050000000000    0.9999400000000001 H
   0.1363900000000000    0.3320850000000000    0.4999000000000000 H
   0.3864050000000000    0.0821000000000000    0.9999400000000001 H
   0.3863800000000000    0.0821000000000000    0.4999100000000000 H
   0.3865100000000000    0.3321600000000000    0.5000100000000000 H
   0.1135950000000000    0.1680350000000000    0.5000599999999999 H
   0.1136950000000000    0.4180900000000000    0.0001000000000000 H
   0.1136500000000000    0.4180800000000000    0.5001100000000001 H
   0.3636550000000000    0.1680900000000000    0.5001100000000001 H
   0.3636000000000000    0.4180400000000000    0.5000599999999999 H
   0.6365050000000000    0.0821550000000000    0.5000100000000000 H
   0.6364050000000000    0.3321050000000000    0.9999400000000001 H
   0.6363900000000000    0.3320850000000000    0.4999000000000000 H
   0.8864050000000000    0.0821000000000000    0.9999400000000001 H
   0.8863799999999999    0.0821000000000000    0.4999100000000000 H
   0.8865100000000000    0.3321600000000000    0.5000100000000000 H
   0.6135950000000000    0.1680350000000000    0.5000599999999999 H
   0.6136950000000000    0.4180900000000000    0.0001000000000000 H
   0.6136500000000000    0.4180800000000000    0.5001100000000001 H
   0.8636550000000001    0.1680900000000000    0.5001100000000001 H
   0.8635999999999999    0.4180400000000000    0.5000599999999999 H
   0.1365050000000000    0.5821550000000000    0.5000100000000000 H
   0.1364050000000000    0.8321050000000000    0.9999400000000001 H
   0.1363900000000000    0.8320850000000000    0.4999000000000000 H
   0.3864050000000000    0.5821000000000001    0.9999400000000001 H
   0.3863800000000000    0.5821000000000001    0.4999100000000000 H
   0.3865100000000000    0.8321600000000000    0.5000100000000000 H
   0.1135950000000000    0.6680349999999999    0.5000599999999999 H
   0.1136950000000000    0.9180900000000001    0.0001000000000000 H
   0.1136500000000000    0.9180800000000000    0.5001100000000001 H
   0.3636550000000000    0.6680900000000000    0.5001100000000001 H
   0.3636000000000000    0.9180400000000000    0.5000599999999999 H
   0.6365050000000000    0.5821550000000000    0.5000100000000000 H
   0.6364050000000000    0.8321050000000000    0.9999400000000001 H
   0.6363900000000000    0.8320850000000000    0.4999000000000000 H
   0.8864050000000000    0.5821000000000001    0.9999400000000001 H
   0.8863799999999999    0.5821000000000001    0.4999100000000000 H
   0.8865100000000000    0.8321600000000000    0.5000100000000000 H
   0.6135950000000000    0.6680349999999999    0.5000599999999999 H
   0.6136950000000000    0.9180900000000001    0.0001000000000000 H
   0.6136500000000000    0.9180800000000000    0.5001100000000001 H
   0.8636550000000001    0.6680900000000000    0.5001100000000001 H
   0.8635999999999999    0.9180400000000000    0.5000599999999999 H
   0.1055000000000000    0.0175450000000000    0.3766700000000000 C
   0.1054350000000000    0.0175500000000000    0.8766600000000000 C
   0.1053250000000000    0.2674850000000000    0.3765800000000000 C
   0.1053550000000000    0.2675150000000000    0.8766000000000000 C
   0.3553200000000000    0.0175000000000000    0.3765800000000000 C
   0.3553500000000000    0.0175100000000000    0.8766000000000000 C
   0.3555050000000000    0.2675500000000000    0.3766700000000000 C
   0.3554300000000000    0.2675400000000000    0.8766600000000000 C
   0.1132050000000000    0.0082950000000000    0.4401000000000000 C
   0.1131950000000000    0.0083050000000000    0.9401200000000000 C
   0.1130800000000000    0.2582250000000000    0.4400200000000000 C
   0.1131200000000000    0.2582550000000000    0.9400400000000000 C
   0.3630800000000000    0.0082400000000000    0.4400000000000000 C
   0.3631000000000000    0.0082450000000000    0.9400400000000000 C
   0.3632150000000000    0.2583050000000000    0.4401200000000000 C
   0.3631850000000000    0.2582950000000000    0.9401200000000000 C
   0.0825050000000000    0.1707750000000000    0.3767400000000000 C
   0.0825200000000000    0.1708300000000000    0.8767500000000000 C
   0.0825650000000000    0.4208800000000000    0.3768200000000000 C
   0.0825650000000000    0.4208900000000000    0.8768200000000000 C
   0.3325650000000000    0.1708950000000000    0.3768200000000000 C
   0.3325550000000000    0.1708800000000000    0.8768200000000000 C
   0.3325100000000000    0.4207850000000000    0.3767000000000000 C
   0.3325100000000000    0.4208150000000000    0.8767000000000000 C
   0.1066400000000000    0.2118400000000000    0.4400000000000000 C
   0.1066450000000000    0.2118700000000000    0.9400700000000000 C
   0.1067350000000000    0.4619050000000000    0.4401400000000000 C
   0.1067250000000000    0.4619200000000000    0.9401500000000000 C
   0.3567350000000000    0.2119200000000000    0.4401000000000000 C
   0.3567150000000000    0.2119100000000000    0.9401500000000000 C
   0.3566400000000000    0.4618450000000000    0.4400600000000000 C
   0.3566450000000000    0.4618550000000000    0.9399999999999999 C
   0.1445050000000000    0.2326000000000000    0.1233300000000000 C
   0.1445350000000000    0.2326100000000000    0.6233500000000000 C
   0.1446900000000000    0.4826500000000000    0.1234200000000000 C
   0.1446200000000000    0.4826400000000000    0.6234100000000000 C
   0.3946850000000000    0.2326450000000000    0.1234200000000000 C
   0.3946150000000000    0.2326500000000000    0.6234100000000000 C
   0.3945000000000000    0.4825900000000000    0.1233300000000000 C
   0.3945300000000000    0.4826150000000000    0.6233500000000000 C
   0.1368550000000000    0.2418900000000000    0.0599200000000000 C
   0.1368850000000000    0.2418950000000000    0.5599400000000000 C
   0.1369850000000000    0.4919450000000000    0.0600100000000000 C
   0.1369650000000000    0.4919400000000000    0.5600100000000000 C
   0.3869750000000000    0.2419400000000000    0.0600100000000000 C
   0.3869600000000000    0.2419550000000000    0.5600000000000001 C
   0.3868550000000000    0.4918750000000000    0.0599200000000000 C
   0.3868800000000000    0.4919000000000000    0.5599400000000000 C
   0.1675300000000000    0.0794000000000000    0.1233200000000000 C
   0.1675250000000000    0.0793950000000000    0.6233200000000000 C
   0.1674750000000000    0.3293050000000000    0.1232400000000000 C
   0.1674850000000000    0.3293350000000000    0.6232400000000000 C
   0.4174700000000000    0.0792950000000000    0.1232300000000000 C
   0.4174800000000000    0.0793450000000000    0.6232400000000000 C
   0.4175250000000000    0.3293900000000000    0.1233100000000000 C
   0.4175250000000000    0.3294000000000000    0.6233200000000000 C
   0.1434450000000000    0.0383400000000000    0.0599900000000000 C
   0.1434250000000000    0.0383350000000000    0.5599900000000000 C
   0.1433550000000000    0.2882750000000000    0.0599000000000000 C
   0.1433550000000000    0.2882800000000000    0.5599100000000000 C
   0.3933400000000000    0.0382650000000000    0.0599000000000000 C
   0.3933500000000000    0.0382900000000000    0.5599100000000000 C
   0.3934350000000000    0.2883250000000000    0.0599900000000000 C
   0.3934300000000000    0.2883400000000000    0.5600000000000001 C
   0.1310700000000000    0.0461950000000000    0.4000000000000000 C
   0.1310950000000000    0.0461900000000000    0.5000300000000000 C
   0.1309900000000000    0.2961400000000000    0.9999500000000000 C
   0.1309900000000000    0.2961200000000000    0.4999400000000000 C
   0.3809900000000000    0.0461350000000000    0.9999500000000000 C
   0.3809800000000000    0.0461350000000000    0.4999500000000000 C
   0.3810600000000000    0.2961800000000000    0.2000000000000000 C
   0.3810950000000000    0.2961950000000000    0.5000400000000000 C
   0.1190000000000000    0.2040000000000000    0.0000000000000000 C
   0.1190000000000000    0.2039950000000000    0.5000200000000000 C
   0.1191050000000000    0.4540550000000000    0.0000000000000000 C
   0.1190750000000000    0.4540450000000000    0.5000900000000000 C
   0.3690950000000000    0.2040500000000000    0.9000000000000000 C
   0.3690800000000000    0.2040600000000000    0.5000900000000000 C
   0.3689850000000000    0.4539850000000000    0.0000000000000000 C
   0.3690050000000000    0.4540050000000000    0.5000200000000000 C
   0.6055000000000000    0.0175450000000000    0.3766700000000000 C
   0.6054349999999999    0.0175500000000000    0.8766600000000000 C
   0.6053250000000000    0.2674850000000000    0.3765800000000000 C
   0.6053550000000000    0.2675150000000000    0.8766000000000000 C
   0.8553200000000001    0.0175000000000000    0.3765800000000000 C
   0.8553500000000001    0.0175100000000000    0.8766000000000000 C
   0.8555050000000000    0.2675500000000000    0.3766700000000000 C
   0.8554300000000000    0.2675400000000000    0.8766600000000000 C
   0.6132050000000000    0.0082950000000000    0.4401000000000000 C
   0.6131950000000000    0.0083050000000000    0.9401200000000000 C
   0.6130800000000000    0.2582250000000000    0.4400200000000000 C
   0.6131200000000000    0.2582550000000000    0.9400400000000000 C
   0.8630800000000001    0.0082400000000000    0.4400000000000000 C
   0.8631000000000000    0.0082450000000000    0.9400400000000000 C
   0.8632150000000001    0.2583050000000000    0.4401200000000000 C
   0.8631850000000000    0.2582950000000000    0.9401200000000000 C
   0.5825050000000001    0.1707750000000000    0.3767400000000000 C
   0.5825200000000000    0.1708300000000000    0.8767500000000000 C
   0.5825650000000000    0.4208800000000000    0.3768200000000000 C
   0.5825650000000000    0.4208900000000000    0.8768200000000000 C
   0.8325650000000000    0.1708950000000000    0.3768200000000000 C
   0.8325549999999999    0.1708800000000000    0.8768200000000000 C
   0.8325100000000000    0.4207850000000000    0.3767000000000000 C
   0.8325100000000000    0.4208150000000000    0.8767000000000000 C
   0.6066400000000000    0.2118400000000000    0.4400000000000000 C
   0.6066450000000000    0.2118700000000000    0.9400700000000000 C
   0.6067350000000000    0.4619050000000000    0.4401400000000000 C
   0.6067250000000000    0.4619200000000000    0.9401500000000000 C
   0.8567350000000000    0.2119200000000000    0.4401000000000000 C
   0.8567150000000000    0.2119100000000000    0.9401500000000000 C
   0.8566400000000001    0.4618450000000000    0.4400600000000000 C
   0.8566450000000000    0.4618550000000000    0.9399999999999999 C
   0.6445050000000000    0.2326000000000000    0.1233300000000000 C
   0.6445350000000000    0.2326100000000000    0.6233500000000000 C
   0.6446900000000000    0.4826500000000000    0.1234200000000000 C
   0.6446200000000000    0.4826400000000000    0.6234100000000000 C
   0.8946850000000000    0.2326450000000000    0.1234200000000000 C
   0.8946149999999999    0.2326500000000000    0.6234100000000000 C
   0.8945000000000001    0.4825900000000000    0.1233300000000000 C
   0.8945300000000000    0.4826150000000000    0.6233500000000000 C
   0.6368549999999999    0.2418900000000000    0.0599200000000000 C
   0.6368850000000000    0.2418950000000000    0.5599400000000000 C
   0.6369850000000000    0.4919450000000000    0.0600100000000000 C
   0.6369650000000000    0.4919400000000000    0.5600100000000000 C
   0.8869750000000001    0.2419400000000000    0.0600100000000000 C
   0.8869600000000000    0.2419550000000000    0.5600000000000001 C
   0.8868549999999999    0.4918750000000000    0.0599200000000000 C
   0.8868800000000000    0.4919000000000000    0.5599400000000000 C
   0.6675300000000000    0.0794000000000000    0.1233200000000000 C
   0.6675250000000000    0.0793950000000000    0.6233200000000000 C
   0.6674750000000000    0.3293050000000000    0.1232400000000000 C
   0.6674850000000000    0.3293350000000000    0.6232400000000000 C
   0.9174700000000000    0.0792950000000000    0.1232300000000000 C
   0.9174800000000001    0.0793450000000000    0.6232400000000000 C
   0.9175249999999999    0.3293900000000000    0.1233100000000000 C
   0.9175249999999999    0.3294000000000000    0.6233200000000000 C
   0.6434450000000000    0.0383400000000000    0.0599900000000000 C
   0.6434250000000000    0.0383350000000000    0.5599900000000000 C
   0.6433550000000000    0.2882750000000000    0.0599000000000000 C
   0.6433550000000000    0.2882800000000000    0.5599100000000000 C
   0.8933400000000000    0.0382650000000000    0.0599000000000000 C
   0.8933500000000000    0.0382900000000000    0.5599100000000000 C
   0.8934350000000000    0.2883250000000000    0.0599900000000000 C
   0.8934299999999999    0.2883400000000000    0.5600000000000001 C
   0.6310700000000000    0.0461950000000000    0.4000000000000000 C
   0.6310950000000000    0.0461900000000000    0.5000300000000000 C
   0.6309899999999999    0.2961400000000000    0.9999500000000000 C
   0.6309899999999999    0.2961200000000000    0.4999400000000000 C
   0.8809899999999999    0.0461350000000000    0.9999500000000000 C
   0.8809800000000000    0.0461350000000000    0.4999500000000000 C
   0.8810600000000000    0.2961800000000000    0.2000000000000000 C
   0.8810950000000000    0.2961950000000000    0.5000400000000000 C
   0.6190000000000000    0.2040000000000000    0.0000000000000000 C
   0.6190000000000000    0.2039950000000000    0.5000200000000000 C
   0.6191050000000000    0.4540550000000000    0.0000000000000000 C
   0.6190750000000000    0.4540450000000000    0.5000900000000000 C
   0.8690950000000000    0.2040500000000000    0.9000000000000000 C
   0.8690800000000001    0.2040600000000000    0.5000900000000000 C
   0.8689850000000000    0.4539850000000000    0.0000000000000000 C
   0.8690050000000000    0.4540050000000000    0.5000200000000000 C
   0.1055000000000000    0.5175450000000000    0.3766700000000000 C
   0.1054350000000000    0.5175500000000000    0.8766600000000000 C
   0.1053250000000000    0.7674850000000000    0.3765800000000000 C
   0.1053550000000000    0.7675149999999999    0.8766000000000000 C
   0.3553200000000000    0.5175000000000000    0.3765800000000000 C
   0.3553500000000000    0.5175100000000000    0.8766000000000000 C
   0.3555050000000000    0.7675500000000000    0.3766700000000000 C
   0.1132050000000000    0.5082950000000001    0.4401000000000000 C
   0.1131950000000000    0.5083050000000000    0.9401200000000000 C
   0.1130800000000000    0.7582249999999999    0.4400200000000000 C
   0.1131200000000000    0.7582550000000000    0.9400400000000000 C
   0.3630800000000000    0.5082400000000000    0.4400000000000000 C
   0.3631000000000000    0.5082449999999999    0.9400400000000000 C
   0.3632150000000000    0.7583050000000000    0.4401200000000000 C
   0.0825050000000000    0.6707750000000000    0.3767400000000000 C
   0.0825200000000000    0.6708300000000000    0.8767500000000000 C
   0.0825650000000000    0.9208799999999999    0.3768200000000000 C
   0.0825650000000000    0.9208900000000000    0.8768200000000000 C
   0.3325650000000000    0.6708950000000000    0.3768200000000000 C
   0.3325100000000000    0.9207850000000000    0.3767000000000000 C
   0.3325100000000000    0.9208149999999999    0.8767000000000000 C
   0.1066400000000000    0.7118400000000000    0.4400000000000000 C
   0.1066450000000000    0.7118700000000000    0.9400700000000000 C
   0.1067350000000000    0.9619050000000000    0.4401400000000000 C
   0.1067250000000000    0.9619200000000000    0.9401500000000000 C
   0.3567350000000000    0.7119200000000000    0.4401000000000000 C
   0.3566400000000000    0.9618450000000001    0.4400600000000000 C
   0.3566450000000000    0.9618550000000000    0.9399999999999999 C
   0.1445050000000000    0.7326000000000000    0.1233300000000000 C
   0.1445350000000000    0.7326100000000000    0.6233500000000000 C
   0.1446900000000000    0.9826500000000000    0.1234200000000000 C
   0.1446200000000000    0.9826400000000000    0.6234100000000000 C
   0.3946850000000000    0.7326450000000000    0.1234200000000000 C
   0.3946150000000000    0.7326500000000000    0.6234100000000000 C
   0.3945000000000000    0.9825900000000001    0.1233300000000000 C
   0.3945300000000000    0.9826150000000000    0.6233500000000000 C
   0.1368550000000000    0.7418899999999999    0.0599200000000000 C
   0.1368850000000000    0.7418950000000000    0.5599400000000000 C
   0.1369850000000000    0.9919450000000001    0.0600100000000000 C
   0.1369650000000000    0.9919400000000000    0.5600100000000000 C
   0.3869750000000000    0.7419400000000000    0.0600100000000000 C
   0.3869600000000000    0.7419550000000000    0.5600000000000001 C
   0.3868550000000000    0.9918750000000001    0.0599200000000000 C
   0.3868800000000000    0.9919000000000000    0.5599400000000000 C
   0.1675300000000000    0.5794000000000000    0.1233200000000000 C
   0.1675250000000000    0.5793950000000000    0.6233200000000000 C
   0.1674750000000000    0.8293050000000000    0.1232400000000000 C
   0.1674850000000000    0.8293349999999999    0.6232400000000000 C
   0.4174700000000000    0.5792950000000000    0.1232300000000000 C
   0.4174800000000000    0.5793450000000000    0.6232400000000000 C
   0.4175250000000000    0.8293900000000001    0.1233100000000000 C
   0.4175250000000000    0.8294000000000000    0.6233200000000000 C
   0.1434450000000000    0.5383400000000000    0.0599900000000000 C
   0.1434250000000000    0.5383350000000000    0.5599900000000000 C
   0.1433550000000000    0.7882750000000001    0.0599000000000000 C
   0.1433550000000000    0.7882800000000000    0.5599100000000000 C
   0.3933400000000000    0.5382650000000000    0.0599000000000000 C
   0.3933500000000000    0.5382900000000000    0.5599100000000000 C
   0.3934350000000000    0.7883249999999999    0.0599900000000000 C
   0.3934300000000000    0.7883400000000000    0.5600000000000001 C
   0.1310700000000000    0.5461950000000000    0.4000000000000000 C
   0.1310950000000000    0.5461900000000000    0.5000300000000000 C
   0.1309900000000000    0.7961400000000001    0.9999500000000000 C
   0.1309900000000000    0.7961199999999999    0.4999400000000000 C
   0.3809900000000000    0.5461350000000000    0.9999500000000000 C
   0.3809800000000000    0.5461350000000000    0.4999500000000000 C
   0.3810600000000000    0.7961800000000000    0.2000000000000000 C
   0.3810950000000000    0.7961950000000000    0.5000400000000000 C
   0.1190000000000000    0.7040000000000000    0.0000000000000000 C
   0.1190000000000000    0.7039950000000000    0.5000200000000000 C
   0.1191050000000000    0.9540550000000000    0.0000000000000000 C
   0.1190750000000000    0.9540450000000000    0.5000900000000000 C
   0.3690800000000000    0.7040600000000000    0.5000900000000000 C
   0.3689850000000000    0.9539850000000001    0.0000000000000000 C
   0.3690050000000000    0.9540050000000000    0.5000200000000000 C
   0.6055000000000000    0.5175450000000000    0.3766700000000000 C
   0.6054349999999999    0.5175500000000000    0.8766600000000000 C
   0.6053250000000000    0.7674850000000000    0.3765800000000000 C
   0.6053550000000000    0.7675149999999999    0.8766000000000000 C
   0.8553200000000001    0.5175000000000000    0.3765800000000000 C
   0.8553500000000001    0.5175100000000000    0.8766000000000000 C
   0.8555050000000000    0.7675500000000000    0.3766700000000000 C
   0.8554300000000000    0.7675400000000000    0.8766600000000000 C
   0.6132050000000000    0.5082950000000001    0.4401000000000000 C
   0.6131950000000000    0.5083050000000000    0.9401200000000000 C
   0.6130800000000000    0.7582249999999999    0.4400200000000000 C
   0.6131200000000000    0.7582550000000000    0.9400400000000000 C
   0.8630800000000001    0.5082400000000000    0.4400000000000000 C
   0.8631000000000000    0.5082449999999999    0.9400400000000000 C
   0.8632150000000001    0.7583050000000000    0.4401200000000000 C
   0.8631850000000000    0.7582949999999999    0.9401200000000000 C
   0.5825050000000001    0.6707750000000000    0.3767400000000000 C
   0.5825200000000000    0.6708300000000000    0.8767500000000000 C
   0.5825650000000000    0.9208799999999999    0.3768200000000000 C
   0.5825650000000000    0.9208900000000000    0.8768200000000000 C
   0.8325650000000000    0.6708950000000000    0.3768200000000000 C
   0.8325549999999999    0.6708800000000000    0.8768200000000000 C
   0.8325100000000000    0.9207850000000000    0.3767000000000000 C
   0.8325100000000000    0.9208149999999999    0.8767000000000000 C
   0.6066400000000000    0.7118400000000000    0.4400000000000000 C
   0.6066450000000000    0.7118700000000000    0.9400700000000000 C
   0.6067350000000000    0.9619050000000000    0.4401400000000000 C
   0.6067250000000000    0.9619200000000000    0.9401500000000000 C