H4 C8 O4
1.0
  17.3829967567117762    0.0000000000000000   -0.0106186697751904
  -0.0023570329798244   18.6445500177923442   -0.1295147807585997
   0.0000000000000000    0.0000000000000000   18.1840000000000011
H C O
4 8 4
direct
   0.3282600000000000    0.9692200000000000    0.7830400000000000 H
   0.1436200000000000    0.0771900000000000    0.6721900000000000 H
   0.1463900000000000    0.1745000000000000    0.7676300000000000 H
   0.3310100000000000    0.0668600000000000    0.8786200000000000 H
   0.2398100000000000    0.1839600000000000    0.8866600000000000 C
   0.2388300000000000    0.1263300000000000    0.8288100000000000 C
   0.2358000000000000    0.0173100000000000    0.7219300000000000 C
   0.2340200000000000    0.9585500000000000    0.6654000000000000 C
   0.2887900000000000    0.0144300000000000    0.7801000000000000 C
   0.1845800000000000    0.0753100000000000    0.7174100000000000 C
   0.1860800000000000    0.1294400000000000    0.7704600000000000 C
   0.2903400000000000    0.0685500000000000    0.8331200000000000 C
   0.1865400000000000    0.9657600000000000    0.6121700000000000 O
   0.2903000000000000    0.1779500000000000   -0.0626500000000000 O
   0.2800700000000000    0.9061600000000000    0.6750100000000000 O
   0.1901400000000000    0.2339700000000000    0.8806200000000000 O
