H6 O4
1.0
  17.3829967567117762    0.0000000000000000   -0.0106186697751904
  -0.0023570329798244   18.6445500177923442   -0.1295147807585997
   0.0000000000000000    0.0000000000000000   18.1840000000000011
H O
6 4
direct
   0.5602589015731625    0.1721893728102338    0.5791664987864008 H
   0.5598745631957177    0.1834813840419948    0.3641990022661587 H
   0.5483412330695789    0.1776929091883380    0.4715588023969579 H
   0.9729849191854179    0.2807769937747496    0.4498309382804321 H
   0.9731432476974085    0.0756043188661240    0.4928985349720220 H
   0.9850669705884171    0.1778355299918075    0.4712352719188448 H
   0.5901400000000000    0.1749300000000000    0.5342400000000000 O
   0.5898500000000000    0.1815000000000000    0.4091500000000000 O
   0.9427200000000000    0.2381200000000000    0.4593000000000000 O
   0.9429900000000000    0.1185300000000000    0.4844000000000000 O
