H6 O4
1.0
  17.3829967567117762    0.0000000000000000   -0.0106186697751904
  -0.0023570329798244   18.6445500177923442   -0.1295147807585997
   0.0000000000000000    0.0000000000000000   18.1840000000000011
H O
6 4
direct
   0.3138090829355960    0.9047978705706906    0.7174856254199781 H
   0.1529487695282493    1.0071855892494206    0.6092932383525370 H
   0.2332713379240674    0.9638733414094603    0.6710021505011303 H
   0.3262571534348676    0.1381694985906586   -0.0628719853316137 H
   0.1542818284280466    0.2343654718442557    0.8397319908644019 H
   0.2402771889256023    0.1785016905208273    0.8803104727030189 H
   0.2800700000000000    0.9061600000000000    0.6750100000000000 O
   0.1865400000000000    0.9657600000000000    0.6121700000000000 O
   0.2903000000000000    0.1779500000000000   -0.0626500000000000 O
   0.1901400000000000    0.2339700000000000    0.8806200000000000 O
