Cd72 H284 C568 N568
1.0
  39.1763391109087777    0.0000000000000000    0.7747966617629223
   4.6094472061486531   31.4410170017794748   14.2378891464831305
   0.0000000000000000    0.0000000000000000   27.5799999999999983
Cd H C N
72 284 568 568
direct
   0.2076675000000000    0.0438033333333333    0.2548350000000000 Cd
   0.1249850000000000    0.0000066666666667    0.2499950000000000 Cd
   0.0423075000000000    0.2895400000000000    0.2451550000000000 Cd
   0.4576675000000000    0.0438033333333333    0.2548350000000000 Cd
   0.3749850000000000    0.0000066666666667    0.2499950000000000 Cd
   0.2923075000000000    0.2895400000000000    0.2451550000000000 Cd
   0.7076675000000000    0.0438033333333333    0.2548350000000000 Cd
   0.6249850000000000    0.0000066666666667    0.2499950000000000 Cd
   0.5423074999999999    0.2895400000000000    0.2451550000000000 Cd
   0.9576675000000000    0.0438033333333333    0.2548350000000000 Cd
   0.8749850000000000    0.0000066666666667    0.2499950000000000 Cd
   0.7923074999999999    0.2895400000000000    0.2451550000000000 Cd
   0.2076675000000000    0.3771366666666667    0.2548350000000000 Cd
   0.1249850000000000    0.3333400000000000    0.2499950000000000 Cd
   0.0423075000000000    0.6228733333333333    0.2451550000000000 Cd
   0.4576675000000000    0.3771366666666667    0.2548350000000000 Cd
   0.3749850000000000    0.3333400000000000    0.2499950000000000 Cd
   0.2923075000000000    0.6228733333333333    0.2451550000000000 Cd
   0.7076675000000000    0.3771366666666667    0.2548350000000000 Cd
   0.6249850000000000    0.3333400000000000    0.2499950000000000 Cd
   0.5423074999999999    0.6228733333333333    0.2451550000000000 Cd
   0.9576675000000000    0.3771366666666667    0.2548350000000000 Cd
   0.8749850000000000    0.3333400000000000    0.2499950000000000 Cd
   0.7923074999999999    0.6228733333333333    0.2451550000000000 Cd
   0.2076675000000000    0.7104699999999999    0.2548350000000000 Cd
   0.1249850000000000    0.6666733333333333    0.2499950000000000 Cd
   0.0423075000000000    0.9562066666666666    0.2451550000000000 Cd
   0.4576675000000000    0.7104699999999999    0.2548350000000000 Cd
   0.3749850000000000    0.6666733333333333    0.2499950000000000 Cd
   0.2923075000000000    0.9562066666666666    0.2451550000000000 Cd
   0.7076675000000000    0.7104699999999999    0.2548350000000000 Cd
   0.6249850000000000    0.6666733333333333    0.2499950000000000 Cd
   0.5423074999999999    0.9562066666666666    0.2451550000000000 Cd
   0.9576675000000000    0.7104699999999999    0.2548350000000000 Cd
   0.8749850000000000    0.6666733333333333    0.2499950000000000 Cd
   0.7923074999999999    0.9562066666666666    0.2451550000000000 Cd
   0.2076675000000000    0.0438033333333333    0.7548349999999999 Cd
   0.1249850000000000    0.0000066666666667    0.7499950000000000 Cd
   0.0423075000000000    0.2895400000000000    0.7451550000000000 Cd
   0.4576675000000000    0.0438033333333333    0.7548349999999999 Cd
   0.3749850000000000    0.0000066666666667    0.7499950000000000 Cd
   0.2923075000000000    0.2895400000000000    0.7451550000000000 Cd
   0.7076675000000000    0.0438033333333333    0.7548349999999999 Cd
   0.6249850000000000    0.0000066666666667    0.7499950000000000 Cd
   0.5423074999999999    0.2895400000000000    0.7451550000000000 Cd
   0.9576675000000000    0.0438033333333333    0.7548349999999999 Cd
   0.8749850000000000    0.0000066666666667    0.7499950000000000 Cd
   0.7923074999999999    0.2895400000000000    0.7451550000000000 Cd
   0.2076675000000000    0.3771366666666667    0.7548349999999999 Cd
   0.1249850000000000    0.3333400000000000    0.7499950000000000 Cd
   0.0423075000000000    0.6228733333333333    0.7451550000000000 Cd
   0.4576675000000000    0.3771366666666667    0.7548349999999999 Cd
   0.3749850000000000    0.3333400000000000    0.7499950000000000 Cd
   0.2923075000000000    0.6228733333333333    0.7451550000000000 Cd
   0.7076675000000000    0.3771366666666667    0.7548349999999999 Cd
   0.6249850000000000    0.3333400000000000    0.7499950000000000 Cd
   0.5423074999999999    0.6228733333333333    0.7451550000000000 Cd
   0.9576675000000000    0.3771366666666667    0.7548349999999999 Cd
   0.8749850000000000    0.3333400000000000    0.7499950000000000 Cd
   0.7923074999999999    0.6228733333333333    0.7451550000000000 Cd
   0.2076675000000000    0.7104699999999999    0.7548349999999999 Cd
   0.1249850000000000    0.6666733333333333    0.7499950000000000 Cd
   0.0423075000000000    0.9562066666666666    0.7451550000000000 Cd
   0.4576675000000000    0.7104699999999999    0.7548349999999999 Cd
   0.3749850000000000    0.6666733333333333    0.7499950000000000 Cd
   0.2923075000000000    0.9562066666666666    0.7451550000000000 Cd
   0.7076675000000000    0.7104699999999999    0.7548349999999999 Cd
   0.6249850000000000    0.6666733333333333    0.7499950000000000 Cd
   0.5423074999999999    0.9562066666666666    0.7451550000000000 Cd
   0.9576675000000000    0.7104699999999999    0.7548349999999999 Cd
   0.8749850000000000    0.6666733333333333    0.7499950000000000 Cd
   0.7923074999999999    0.9562066666666666    0.7451550000000000 Cd
   0.0754875000000000    0.1539233333333333    0.4561250000000000 H
   0.1566875000000000    0.2270533333333333    0.4498200000000000 H
   0.1577725000000000    0.0213466666666667    0.0587500000000000 H
   0.0733200000000000    0.2974100000000000    0.0331250000000000 H
   0.0328000000000000    0.1977000000000000    0.2980950000000000 H
   0.1929300000000000    0.2038766666666667    0.2054000000000000 H
   0.1744800000000000    0.1794300000000000    0.0438750000000000 H
   0.0932775000000000    0.1063033333333333    0.0501800000000000 H
   0.0921625000000000    0.3120466666666666    0.4412200000000000 H
   0.1766200000000000    0.0359866666666667    0.4668450000000000 H
   0.2171725000000000    0.1356533333333333    0.2018750000000000 H
   0.0570425000000000    0.1294766666666667    0.2945700000000000 H
   0.3254875000000000    0.1539233333333333    0.4561250000000000 H
   0.4066875000000000    0.2270533333333333    0.4498200000000000 H
   0.4077725000000000    0.0213466666666667    0.0587500000000000 H
   0.3233200000000000    0.2974100000000000    0.0331250000000000 H
   0.2828000000000000    0.1977000000000000    0.2980950000000000 H
   0.4429300000000000    0.2038766666666667    0.2054000000000000 H
   0.4244800000000000    0.1794300000000000    0.0438750000000000 H
   0.3432775000000000    0.1063033333333333    0.0501800000000000 H
   0.3421625000000000    0.3120466666666666    0.4412200000000000 H
   0.4266200000000000    0.0359866666666667    0.4668450000000000 H
   0.4671725000000000    0.1356533333333333    0.2018750000000000 H
   0.3070425000000000    0.1294766666666667    0.2945700000000000 H
   0.5754875000000000    0.1539233333333333    0.4561250000000000 H
   0.6566875000000000    0.2270533333333333    0.4498200000000000 H
   0.6577725000000000    0.0213466666666667    0.0587500000000000 H
   0.5733200000000001    0.2974100000000000    0.0331250000000000 H
   0.5328000000000001    0.1977000000000000    0.2980950000000000 H
   0.6929300000000000    0.2038766666666667    0.2054000000000000 H
   0.6744800000000000    0.1794300000000000    0.0438750000000000 H
   0.5932775000000000    0.1063033333333333    0.0501800000000000 H
   0.5921625000000000    0.3120466666666666    0.4412200000000000 H
   0.6766200000000000    0.0359866666666667    0.4668450000000000 H
   0.7171725000000000    0.1356533333333333    0.2018750000000000 H
   0.5570425000000000    0.1294766666666667    0.2945700000000000 H
   0.8254875000000000    0.1539233333333333    0.4561250000000000 H
   0.9066875000000000    0.2270533333333333    0.4498200000000000 H
   0.9077725000000000    0.0213466666666667    0.0587500000000000 H
   0.8233200000000001    0.2974100000000000    0.0331250000000000 H
   0.7828000000000001    0.1977000000000000    0.2980950000000000 H
   0.9429300000000000    0.2038766666666667    0.2054000000000000 H
   0.9244800000000000    0.1794300000000000    0.0438750000000000 H
   0.8432775000000000    0.1063033333333333    0.0501800000000000 H
   0.8421625000000000    0.3120466666666666    0.4412200000000000 H
   0.9266200000000000    0.0359866666666667    0.4668450000000000 H
   0.9671725000000000    0.1356533333333333    0.2018750000000000 H
   0.8070425000000000    0.1294766666666667    0.2945700000000000 H
   0.0754875000000000    0.4872566666666667    0.4561250000000000 H
   0.1566875000000000    0.5603866666666666    0.4498200000000000 H
   0.1577725000000000    0.3546800000000000    0.0587500000000000 H
   0.0733200000000000    0.6307433333333332    0.0331250000000000 H
   0.0328000000000000    0.5310333333333332    0.2980950000000000 H
   0.1929300000000000    0.5372100000000000    0.2054000000000000 H
   0.1744800000000000    0.5127633333333333    0.0438750000000000 H
   0.0932775000000000    0.4396366666666667    0.0501800000000000 H
   0.0921625000000000    0.6453800000000000    0.4412200000000000 H
   0.1766200000000000    0.3693200000000000    0.4668450000000000 H
   0.2171725000000000    0.4689866666666667    0.2018750000000000 H
   0.0570425000000000    0.4628099999999999    0.2945700000000000 H
   0.3254875000000000    0.4872566666666667    0.4561250000000000 H
   0.4066875000000000    0.5603866666666666    0.4498200000000000 H
   0.4077725000000000    0.3546800000000000    0.0587500000000000 H
   0.3233200000000000    0.6307433333333332    0.0331250000000000 H
   0.2828000000000000    0.5310333333333332    0.2980950000000000 H
   0.4429300000000000    0.5372100000000000    0.2054000000000000 H
   0.4244800000000000    0.5127633333333333    0.0438750000000000 H
   0.3432775000000000    0.4396366666666667    0.0501800000000000 H
   0.3421625000000000    0.6453800000000000    0.4412200000000000 H
   0.4266200000000000    0.3693200000000000    0.4668450000000000 H
   0.4671725000000000    0.4689866666666667    0.2018750000000000 H
   0.3070425000000000    0.4628099999999999    0.2945700000000000 H
   0.5754875000000000    0.4872566666666667    0.4561250000000000 H
   0.6566875000000000    0.5603866666666666    0.4498200000000000 H
   0.6577725000000000    0.3546800000000000    0.0587500000000000 H
   0.5733200000000001    0.6307433333333332    0.0331250000000000 H
   0.5328000000000001    0.5310333333333332    0.2980950000000000 H
   0.6929300000000000    0.5372100000000000    0.2054000000000000 H
   0.6744800000000000    0.5127633333333333    0.0438750000000000 H
   0.5932775000000000    0.4396366666666667    0.0501800000000000 H
   0.5921625000000000    0.6453800000000000    0.4412200000000000 H
   0.6766200000000000    0.3693200000000000    0.4668450000000000 H
   0.7171725000000000    0.4689866666666667    0.2018750000000000 H
   0.5570425000000000    0.4628099999999999    0.2945700000000000 H
   0.8254875000000000    0.4872566666666667    0.4561250000000000 H
   0.9066875000000000    0.5603866666666666    0.4498200000000000 H
   0.9077725000000000    0.3546800000000000    0.0587500000000000 H
   0.8233200000000001    0.6307433333333332    0.0331250000000000 H
   0.7828000000000001    0.5310333333333332    0.2980950000000000 H
   0.9429300000000000    0.5372100000000000    0.2054000000000000 H
   0.8421625000000000    0.6453800000000000    0.4412200000000000 H
   0.9266200000000000    0.3693200000000000    0.4668450000000000 H
   0.9671725000000000    0.4689866666666667    0.2018750000000000 H
   0.8070425000000000    0.4628099999999999    0.2945700000000000 H
   0.0754875000000000    0.8205899999999999    0.4561250000000000 H
   0.1566875000000000    0.8937200000000000    0.4498200000000000 H
   0.1577725000000000    0.6880133333333333    0.0587500000000000 H
   0.0733200000000000    0.9640766666666666    0.0331250000000000 H
   0.0328000000000000    0.8643666666666666    0.2980950000000000 H
   0.1929300000000000    0.8705433333333332    0.2054000000000000 H
   0.1744800000000000    0.8460966666666666    0.0438750000000000 H
   0.0932775000000000    0.7729699999999999    0.0501800000000000 H
   0.0921625000000000    0.9787133333333333    0.4412200000000000 H
   0.1766200000000000    0.7026533333333334    0.4668450000000000 H
   0.2171725000000000    0.8023199999999999    0.2018750000000000 H
   0.0570425000000000    0.7961433333333333    0.2945700000000000 H
   0.3254875000000000    0.8205899999999999    0.4561250000000000 H
   0.4066875000000000    0.8937200000000000    0.4498200000000000 H
   0.4077725000000000    0.6880133333333333    0.0587500000000000 H
   0.3233200000000000    0.9640766666666666    0.0331250000000000 H
   0.2828000000000000    0.8643666666666666    0.2980950000000000 H
   0.4429300000000000    0.8705433333333332    0.2054000000000000 H
   0.4244800000000000    0.8460966666666666    0.0438750000000000 H
   0.3432775000000000    0.7729699999999999    0.0501800000000000 H
   0.3421625000000000    0.9787133333333333    0.4412200000000000 H
   0.4266200000000000    0.7026533333333334    0.4668450000000000 H
   0.4671725000000000    0.8023199999999999    0.2018750000000000 H
   0.3070425000000000    0.7961433333333333    0.2945700000000000 H
   0.5754875000000000    0.8205899999999999    0.4561250000000000 H
   0.6566875000000000    0.8937200000000000    0.4498200000000000 H
   0.6577725000000000    0.6880133333333333    0.0587500000000000 H
   0.5733200000000001    0.9640766666666666    0.0331250000000000 H
   0.5328000000000001    0.8643666666666666    0.2980950000000000 H
   0.6929300000000000    0.8705433333333332    0.2054000000000000 H
   0.6744800000000000    0.8460966666666666    0.0438750000000000 H
   0.5932775000000000    0.7729699999999999    0.0501800000000000 H
   0.5921625000000000    0.9787133333333333    0.4412200000000000 H
   0.6766200000000000    0.7026533333333334    0.4668450000000000 H
   0.7171725000000000    0.8023199999999999    0.2018750000000000 H
   0.5570425000000000    0.7961433333333333    0.2945700000000000 H
   0.8254875000000000    0.8205899999999999    0.4561250000000000 H
   0.9066875000000000    0.8937200000000000    0.4498200000000000 H
   0.9077725000000000    0.6880133333333333    0.0587500000000000 H
   0.8233200000000001    0.9640766666666666    0.0331250000000000 H
   0.7828000000000001    0.8643666666666666    0.2980950000000000 H
   0.9429300000000000    0.8705433333333332    0.2054000000000000 H
   0.9244800000000000    0.8460966666666666    0.0438750000000000 H
   0.8432775000000000    0.7729699999999999    0.0501800000000000 H
   0.8421625000000000    0.9787133333333333    0.4412200000000000 H
   0.9266200000000000    0.7026533333333334    0.4668450000000000 H
   0.9671725000000000    0.8023199999999999    0.2018750000000000 H
   0.8070425000000000    0.7961433333333333    0.2945700000000000 H
   0.0754875000000000    0.1539233333333333    0.9561250000000000 H
   0.1566875000000000    0.2270533333333333    0.9498200000000000 H
   0.1577725000000000    0.0213466666666667    0.5587500000000000 H
   0.0733200000000000    0.2974100000000000    0.5331250000000000 H
   0.0328000000000000    0.1977000000000000    0.7980950000000000 H
   0.1929300000000000    0.2038766666666667    0.7054000000000000 H
   0.1744800000000000    0.1794300000000000    0.5438750000000000 H
   0.0932775000000000    0.1063033333333333    0.5501800000000000 H
   0.0921625000000000    0.3120466666666666    0.9412199999999999 H
   0.1766200000000000    0.0359866666666667    0.9668450000000000 H
   0.2171725000000000    0.1356533333333333    0.7018750000000000 H
   0.0570425000000000    0.1294766666666667    0.7945700000000000 H
   0.3254875000000000    0.1539233333333333    0.9561250000000000 H
   0.4066875000000000    0.2270533333333333    0.9498200000000000 H
   0.4077725000000000    0.0213466666666667    0.5587500000000000 H
   0.3233200000000000    0.2974100000000000    0.5331250000000000 H
   0.2828000000000000    0.1977000000000000    0.7980950000000000 H
   0.4429300000000000    0.2038766666666667    0.7054000000000000 H
   0.4244800000000000    0.1794300000000000    0.5438750000000000 H
   0.3432775000000000    0.1063033333333333    0.5501800000000000 H
   0.3421625000000000    0.3120466666666666    0.9412199999999999 H
   0.4266200000000000    0.0359866666666667    0.9668450000000000 H
   0.4671725000000000    0.1356533333333333    0.7018750000000000 H
   0.3070425000000000    0.1294766666666667    0.7945700000000000 H
   0.5754875000000000    0.1539233333333333    0.9561250000000000 H
   0.6566875000000000    0.2270533333333333    0.9498200000000000 H
   0.6577725000000000    0.0213466666666667    0.5587500000000000 H
   0.5733200000000001    0.2974100000000000    0.5331250000000000 H
   0.5328000000000001    0.1977000000000000    0.7980950000000000 H
   0.6929300000000000    0.2038766666666667    0.7054000000000000 H
   0.6744800000000000    0.1794300000000000    0.5438750000000000 H
   0.5932775000000000    0.1063033333333333    0.5501800000000000 H
   0.5921625000000000    0.3120466666666666    0.9412199999999999 H
   0.6766200000000000    0.0359866666666667    0.9668450000000000 H
   0.7171725000000000    0.1356533333333333    0.7018750000000000 H
   0.5570425000000000    0.1294766666666667    0.7945700000000000 H
   0.8254875000000000    0.1539233333333333    0.9561250000000000 H
   0.9066875000000000    0.2270533333333333    0.9498200000000000 H
   0.9077725000000000    0.0213466666666667    0.5587500000000000 H
   0.8233200000000001    0.2974100000000000    0.5331250000000000 H
   0.7828000000000001    0.1977000000000000    0.7980950000000000 H
   0.9429300000000000    0.2038766666666667    0.7054000000000000 H
   0.9244800000000000    0.1794300000000000    0.5438750000000000 H
   0.8432775000000000    0.1063033333333333    0.5501800000000000 H
   0.8421625000000000    0.3120466666666666    0.9412199999999999 H
   0.9266200000000000    0.0359866666666667    0.9668450000000000 H
   0.9671725000000000    0.1356533333333333    0.7018750000000000 H
   0.8070425000000000    0.1294766666666667    0.7945700000000000 H
   0.0754875000000000    0.4872566666666667    0.9561250000000000 H
   0.1566875000000000    0.5603866666666666    0.9498200000000000 H
   0.1577725000000000    0.3546800000000000    0.5587500000000000 H
   0.0733200000000000    0.6307433333333332    0.5331250000000000 H
   0.0328000000000000    0.5310333333333332    0.7980950000000000 H
   0.1929300000000000    0.5372100000000000    0.7054000000000000 H
   0.1744800000000000    0.5127633333333333    0.5438750000000000 H
   0.0932775000000000    0.4396366666666667    0.5501800000000000 H
   0.0921625000000000    0.6453800000000000    0.9412199999999999 H
   0.1766200000000000    0.3693200000000000    0.9668450000000000 H
   0.2171725000000000    0.4689866666666667    0.7018750000000000 H
   0.0570425000000000    0.4628099999999999    0.7945700000000000 H
   0.3254875000000000    0.4872566666666667    0.9561250000000000 H
   0.4066875000000000    0.5603866666666666    0.9498200000000000 H
   0.4077725000000000    0.3546800000000000    0.5587500000000000 H
   0.3233200000000000    0.6307433333333332    0.5331250000000000 H
   0.2828000000000000    0.5310333333333332    0.7980950000000000 H
   0.4429300000000000    0.5372100000000000    0.7054000000000000 H
   0.4244800000000000    0.5127633333333333    0.5438750000000000 H
   0.3432775000000000    0.4396366666666667    0.5501800000000000 H
   0.3421625000000000    0.6453800000000000    0.9412199999999999 H
   0.4266200000000000    0.3693200000000000    0.9668450000000000 H
   0.4671725000000000    0.4689866666666667    0.7018750000000000 H
   0.3070425000000000    0.4628099999999999    0.7945700000000000 H
   0.5754875000000000    0.4872566666666667    0.9561250000000000 H
   0.6566875000000000    0.5603866666666666    0.9498200000000000 H
   0.6577725000000000    0.3546800000000000    0.5587500000000000 H
   0.5733200000000001    0.6307433333333332    0.5331250000000000 H
   0.5328000000000001    0.5310333333333332    0.7980950000000000 H
   0.6929300000000000    0.5372100000000000    0.7054000000000000 H
   0.6744800000000000    0.5127633333333333    0.5438750000000000 H
   0.5932775000000000    0.4396366666666667    0.5501800000000000 H
   0.5921625000000000    0.6453800000000000    0.9412199999999999 H
   0.6766200000000000    0.3693200000000000    0.9668450000000000 H
   0.7171725000000000    0.4689866666666667    0.7018750000000000 H
   0.5570425000000000    0.4628099999999999    0.7945700000000000 H
   0.9077725000000000    0.3546800000000000    0.5587500000000000 H
   0.8233200000000001    0.6307433333333332    0.5331250000000000 H
   0.7828000000000001    0.5310333333333332    0.7980950000000000 H
   0.9429300000000000    0.5372100000000000    0.7054000000000000 H
   0.9244800000000000    0.5127633333333333    0.5438750000000000 H
   0.8432775000000000    0.4396366666666667    0.5501800000000000 H
   0.8421625000000000    0.6453800000000000    0.9412199999999999 H
   0.9266200000000000    0.3693200000000000    0.9668450000000000 H
   0.9671725000000000    0.4689866666666667    0.7018750000000000 H
   0.8070425000000000    0.4628099999999999    0.7945700000000000 H
   0.0754875000000000    0.8205899999999999    0.9561250000000000 H
   0.1566875000000000    0.8937200000000000    0.9498200000000000 H
   0.1577725000000000    0.6880133333333333    0.5587500000000000 H
   0.0733200000000000    0.9640766666666666    0.5331250000000000 H
   0.0328000000000000    0.8643666666666666    0.7980950000000000 H
   0.1929300000000000    0.8705433333333332    0.7054000000000000 H
   0.1744800000000000    0.8460966666666666    0.5438750000000000 H
   0.0932775000000000    0.7729699999999999    0.5501800000000000 H
   0.0921625000000000    0.9787133333333333    0.9412199999999999 H
   0.1766200000000000    0.7026533333333334    0.9668450000000000 H
   0.2171725000000000    0.8023199999999999    0.7018750000000000 H
   0.0570425000000000    0.7961433333333333    0.7945700000000000 H
   0.3254875000000000    0.8205899999999999    0.9561250000000000 H
   0.4066875000000000    0.8937200000000000    0.9498200000000000 H
   0.4077725000000000    0.6880133333333333    0.5587500000000000 H
   0.3233200000000000    0.9640766666666666    0.5331250000000000 H
   0.2828000000000000    0.8643666666666666    0.7980950000000000 H
   0.4429300000000000    0.8705433333333332    0.7054000000000000 H
   0.4244800000000000    0.8460966666666666    0.5438750000000000 H
   0.3432775000000000    0.7729699999999999    0.5501800000000000 H
   0.3421625000000000    0.9787133333333333    0.9412199999999999 H
   0.4266200000000000    0.7026533333333334    0.9668450000000000 H
   0.4671725000000000    0.8023199999999999    0.7018750000000000 H
   0.3070425000000000    0.7961433333333333    0.7945700000000000 H
   0.5754875000000000    0.8205899999999999    0.9561250000000000 H
   0.6566875000000000    0.8937200000000000    0.9498200000000000 H
   0.6577725000000000    0.6880133333333333    0.5587500000000000 H
   0.5733200000000001    0.9640766666666666    0.5331250000000000 H
   0.5328000000000001    0.8643666666666666    0.7980950000000000 H
   0.6929300000000000    0.8705433333333332    0.7054000000000000 H
   0.6744800000000000    0.8460966666666666    0.5438750000000000 H
   0.5932775000000000    0.7729699999999999    0.5501800000000000 H
   0.5921625000000000    0.9787133333333333    0.9412199999999999 H
   0.6766200000000000    0.7026533333333334    0.9668450000000000 H
   0.7171725000000000    0.8023199999999999    0.7018750000000000 H
   0.5570425000000000    0.7961433333333333    0.7945700000000000 H
   0.8254875000000000    0.8205899999999999    0.9561250000000000 H
   0.9066875000000000    0.8937200000000000    0.9498200000000000 H
   0.9077725000000000    0.6880133333333333    0.5587500000000000 H
   0.8233200000000001    0.9640766666666666    0.5331250000000000 H
   0.7828000000000001    0.8643666666666666    0.7980950000000000 H
   0.9429300000000000    0.8705433333333332    0.7054000000000000 H
   0.9244800000000000    0.8460966666666666    0.5438750000000000 H
   0.8432775000000000    0.7729699999999999    0.5501800000000000 H
   0.8421625000000000    0.9787133333333333    0.9412199999999999 H
   0.9266200000000000    0.7026533333333334    0.9668450000000000 H
   0.9671725000000000    0.8023199999999999    0.7018750000000000 H
   0.8070425000000000    0.7961433333333333    0.7945700000000000 H
   0.1052200000000000    0.2222833333333333    0.3914550000000000 C
   0.1150050000000000    0.1935866666666667    0.4467200000000000 C
   0.0970875000000000    0.1595133333333333    0.4754500000000000 C
   0.1429775000000000    0.2004200000000000    0.4719900000000000 C
   0.1041800000000000    0.3169833333333333    0.1061250000000000 C
   0.1144250000000000    0.3250033333333333    0.0519650000000000 C
   0.1436200000000000    0.0119033333333333    0.0328350000000000 C
   0.0958400000000000    0.3132666666666666    0.0184500000000000 C
   0.2209275000000000    0.2464033333333333    0.2513600000000000 C
   0.2364125000000000    0.2059266666666666    0.2506850000000000 C
   0.0186750000000000    0.1848833333333333    0.2757850000000000 C
   0.2178100000000000    0.1872766666666667    0.2251150000000000 C
   0.1447475000000000    0.1110700000000000    0.1085450000000000 C
   0.1349625000000000    0.1397666666666667    0.0532800000000000 C
   0.1528800000000000    0.1738400000000000    0.0245500000000000 C
   0.1069900000000000    0.1329333333333333    0.0280100000000000 C
   0.1458000000000000    0.0163400000000000    0.3938750000000000 C
   0.1355500000000000    0.0083266666666667    0.4480300000000000 C
   0.1063325000000000    0.3214633333333333    0.4671500000000000 C
   0.1541175000000000    0.0200933333333333    0.4815300000000000 C
   0.0290450000000000    0.0869466666666667    0.2486150000000000 C
   0.0135600000000000    0.1274233333333333    0.2492850000000000 C
   0.2312975000000000    0.1484700000000000    0.2241850000000000 C
   0.0321625000000000    0.1460766666666667    0.2748500000000000 C
   0.3552200000000000    0.2222833333333333    0.3914550000000000 C
   0.3650050000000000    0.1935866666666667    0.4467200000000000 C
   0.3470875000000000    0.1595133333333333    0.4754500000000000 C
   0.3929775000000000    0.2004200000000000    0.4719900000000000 C
   0.3541800000000000    0.3169833333333333    0.1061250000000000 C
   0.3644250000000000    0.3250033333333333    0.0519650000000000 C
   0.3936200000000000    0.0119033333333333    0.0328350000000000 C
   0.3458400000000000    0.3132666666666666    0.0184500000000000 C
   0.4709275000000000    0.2464033333333333    0.2513600000000000 C
   0.4864125000000000    0.2059266666666666    0.2506850000000000 C
   0.2686750000000000    0.1848833333333333    0.2757850000000000 C
   0.4678100000000000    0.1872766666666667    0.2251150000000000 C
   0.3947475000000000    0.1110700000000000    0.1085450000000000 C
   0.3849625000000000    0.1397666666666667    0.0532800000000000 C
   0.4028800000000000    0.1738400000000000    0.0245500000000000 C
   0.3569900000000000    0.1329333333333333    0.0280100000000000 C
   0.3958000000000000    0.0163400000000000    0.3938750000000000 C
   0.3855500000000000    0.0083266666666667    0.4480300000000000 C
   0.3563325000000000    0.3214633333333333    0.4671500000000000 C
   0.4041175000000000    0.0200933333333333    0.4815300000000000 C
   0.2790450000000000    0.0869466666666667    0.2486150000000000 C
   0.2635600000000000    0.1274233333333333    0.2492850000000000 C
   0.4812975000000000    0.1484700000000000    0.2241850000000000 C
   0.2821625000000000    0.1460766666666667    0.2748500000000000 C
   0.6052200000000000    0.2222833333333333    0.3914550000000000 C
   0.6150050000000000    0.1935866666666667    0.4467200000000000 C
   0.5970875000000000    0.1595133333333333    0.4754500000000000 C
   0.6429775000000000    0.2004200000000000    0.4719900000000000 C
   0.6041799999999999    0.3169833333333333    0.1061250000000000 C
   0.6144250000000000    0.3250033333333333    0.0519650000000000 C
   0.6436200000000000    0.0119033333333333    0.0328350000000000 C
   0.5958400000000000    0.3132666666666666    0.0184500000000000 C
   0.7209274999999999    0.2464033333333333    0.2513600000000000 C
   0.7364125000000000    0.2059266666666666    0.2506850000000000 C
   0.5186750000000000    0.1848833333333333    0.2757850000000000 C
   0.7178100000000001    0.1872766666666667    0.2251150000000000 C
   0.6447475000000000    0.1110700000000000    0.1085450000000000 C
   0.6349625000000000    0.1397666666666667    0.0532800000000000 C
   0.6528800000000000    0.1738400000000000    0.0245500000000000 C
   0.6069900000000000    0.1329333333333333    0.0280100000000000 C
   0.6458000000000000    0.0163400000000000    0.3938750000000000 C
   0.6355500000000001    0.0083266666666667    0.4480300000000000 C
   0.6063324999999999    0.3214633333333333    0.4671500000000000 C
   0.6541175000000000    0.0200933333333333    0.4815300000000000 C
   0.5290450000000000    0.0869466666666667    0.2486150000000000 C
   0.5135600000000000    0.1274233333333333    0.2492850000000000 C
   0.7312974999999999    0.1484700000000000    0.2241850000000000 C
   0.5321625000000000    0.1460766666666667    0.2748500000000000 C
   0.8552200000000000    0.2222833333333333    0.3914550000000000 C
   0.8650050000000000    0.1935866666666667    0.4467200000000000 C
   0.8470875000000000    0.1595133333333333    0.4754500000000000 C
   0.8929775000000000    0.2004200000000000    0.4719900000000000 C
   0.8541799999999999    0.3169833333333333    0.1061250000000000 C
   0.8644250000000000    0.3250033333333333    0.0519650000000000 C
   0.8936200000000000    0.0119033333333333    0.0328350000000000 C
   0.8458400000000000    0.3132666666666666    0.0184500000000000 C