H3 C8 S1 O7
1.0
  20.6208562319002020    0.0000000000000000    1.1337514115989660
   7.2276696109302181   38.1186532873199013    7.2587123208136344
   0.0000000000000000    0.0000000000000000   17.9939999999999998
H C S O
3 8 1 7
direct
   0.2233400000000000    0.6380466666666667    0.8006100000000000 H
   0.2899700000000000    0.7326433333333333    0.6943900000000000 H
   0.0825000000000000    0.7286566666666666    0.7048800000000000 H
   0.3343100000000000    0.6655833333333333    0.7666300000000000 C
   0.2126500000000000    0.6651266666666666    0.7712000000000000 C
   0.0924000000000000    0.6608033333333333    0.7779800000000000 C
   0.1848100000000000    0.7344066666666667    0.6948299999999999 C
   0.2499800000000000    0.7183666666666666    0.7115300000000000 C
   0.2642400000000000    0.6834766666666666    0.7496900000000000 C
   0.1471300000000000    0.6812800000000000    0.7554400000000000 C
   0.1333700000000000    0.7161099999999999    0.7172700000000000 C
   0.1654300000000000    0.7785066666666667    0.6428700000000001 S
   0.3468800000000000    0.6326233333333333    0.7904000000000000 O
   0.1051800000000000    0.6301666666666665    0.8154700000000000 O
   0.2277100000000000    0.7838633333333334    0.5998000000000000 O
   0.1470100000000000    0.8019600000000000    0.6983000000000000 O
   0.1114500000000000    0.7778866666666666    0.5924000000000000 O
   0.3793600000000000    0.6843733333333333    0.7562900000000000 O
   0.0339100000000000    0.6766599999999999    0.7562000000000000 O
