H4 O2
1.0
  20.6208562319002020    0.0000000000000000    1.1337514115989660
   7.2276696109302181   38.1186532873199013    7.2587123208136344
   0.0000000000000000    0.0000000000000000   17.9939999999999998
H O
4 2
direct
   0.8641939932191707    0.1075827130323975    0.5369231600683300 H
   0.8999873872233641    0.1393102502199288    0.5082887941003964 H
   0.1000026127766359    0.8606897497800711    0.4917112058996035 H
   0.1357911531884258    0.8924089081581633    0.4630192497917801 H
   0.8569000000000000    0.1322066666666666    0.5121500000000000 O
   0.1430900000000000    0.8677933333333333    0.4878500000000000 O
