H5 O4
1.0
  20.6208562319002020    0.0000000000000000    1.1337514115989660
   7.2276696109302181   38.1186532873199013    7.2587123208136344
   0.0000000000000000    0.0000000000000000   17.9939999999999998
H O
5 4
direct
   0.0781414637677200    0.6646688292504106    0.7726705296779097 H
   0.1869429788335957    0.7803569854948399    0.6279926076049620 H
   0.3620987885912276    0.6529602713786938    0.8010882077276856 H
   0.3944843029432665    0.7061921043263180    0.7559455177981173 H
   0.4253827883078267    0.7458737996076675    0.7886119629928295 H
   0.0339100000000000    0.6766599999999999    0.7562000000000000 O
   0.2277100000000000    0.7838633333333334    0.5998000000000000 O
   0.3468800000000000    0.6326233333333333    0.7904000000000000 O
   0.3793600000000000    0.6843733333333333    0.7562900000000000 O
