H12 C12 N4
1.0
  34.3851296611040880    0.0000000000000000   17.1685278107664061
  11.3888327825139051   25.5653274596452000    5.6905289501985452
   0.0000000000000000    0.0000000000000000   28.3799999999999990
H C N
12 12 4
direct
   0.2395533333333333    0.2052050000000000    0.1294850000000000 H
   0.2611800000000000    0.1846750000000000    0.0639700000000000 H
   0.2397033333333333    0.1279200000000000    0.2056200000000000 H
   0.2617200000000000    0.0633550000000000    0.1834400000000000 H
   0.2234866666666666    0.1303300000000000    0.1299550000000000 H
   0.2772666666666667    0.0925350000000000    0.0912400000000000 H
   0.4527666666666667    0.1207200000000000    0.0434000000000000 H
   0.4309766666666667    0.1852850000000000    0.0655000000000000 H
   0.4528833333333333    0.0435250000000000    0.1197000000000000 H
   0.4314000000000000    0.0641600000000000    0.1851600000000000 H
   0.4692433333333333    0.1182350000000000    0.1189050000000000 H
   0.4155300000000000    0.1562000000000000    0.1577000000000000 H
   0.3069266666666667    0.1650050000000000    0.0958500000000000 C
   0.2640166666666667    0.1724900000000000    0.1018500000000000 C
   0.3070633333333333    0.0954650000000000    0.1648450000000000 C
   0.2642533333333333    0.1012350000000000    0.1721000000000000 C
   0.3262966666666667    0.1272600000000000    0.1274100000000000 C
   0.2562066666666666    0.1226350000000000    0.1222300000000000 C
   0.3854400000000000    0.1534200000000000    0.0843650000000000 C
   0.4283366666666666    0.1474750000000000    0.0769450000000000 C
   0.3855666666666667    0.0838800000000000    0.1533650000000000 C
   0.4285233333333333    0.0763100000000000    0.1473050000000000 C
   0.3662000000000000    0.1216400000000000    0.1218300000000000 C
   0.4364733333333333    0.1260550000000000    0.1267500000000000 C
   0.3262266666666667    0.1944350000000000    0.0613000000000000 N
   0.3264133333333333    0.0607400000000000    0.1941850000000000 N
   0.3660133333333333    0.1883050000000000    0.0551750000000000 N
   0.3661733333333333    0.0546350000000000    0.1881350000000000 N
