H3 O2
1.0
  10.1354996526618937    0.0000000000000000   -0.0026534676647265
  -0.0016777501544457   11.5635095531572976   -0.2399999983215475
   0.0000000000000000    0.0000000000000000   14.8010000000000002
H O
3 2
direct
   0.3489270426327532    0.6040685935493484    0.2736059218178325 H
   0.3220805213916597    0.4265621355431712    0.3402628654585574 H
   0.3625719014569386    0.4009936921695351    0.3906387996529841 H
   0.4121300000000000    0.6499200000000001    0.3081100000000000 O
   0.3938800000000000    0.4786500000000000    0.3794600000000000 O
