Cu6 H33 C42 N35 Cl4 O3
1.0
  12.4159996804100263    0.0000000000000000    0.0028171010148898
  -0.0090222767294857   15.6619957887356822    0.0071071899097106
   0.0000000000000000    0.0000000000000000   15.4830000000000005
Cu H C N Cl O
6 33 42 35 4 3
direct
   0.1569000000000000    0.9999700000000000    0.1849000000000000 Cu
   0.9999800000000000    0.0000200000000000    0.0000000000000000 Cu
   0.8431100000000000    0.0000000000000000    0.8150800000000000 Cu
   0.6568700000000000    0.4999300000000000    0.3150900000000000 Cu
   0.3431100000000000    0.5000500000000000    0.6849200000000000 Cu
   0.4999800000000000    0.4999700000000000    0.5000000000000000 Cu
   0.6893389880589658    0.8820046911930596    0.7983182072455767 H
   0.7612543238382974    0.8824181973709893    0.7061598761670337 H
   0.9576000000000000    0.7215000000000000    0.3244000000000000 H
   0.7727100000000000    0.7213000000000001    0.0885000000000000 H
   0.6675300000000000    0.5982000000000000    0.1482600000000000 H
   0.8428400000000000    0.5983900000000000    0.3756600000000000 H
   0.9575100000000000    0.2782300000000000    0.3242100000000000 H
   0.7725600000000000    0.2785500000000000    0.0883200000000000 H
   0.6676800000000001    0.4016300000000000    0.1480100000000000 H
   0.8430299999999999    0.4013100000000000    0.3753700000000000 H
   0.0425100000000000    0.7218400000000000    0.6757700000000000 H
   0.2273300000000000    0.7214800000000000    0.9117100000000000 H
   0.1569300000000000    0.5987100000000000    0.6246600000000000 H
   0.3321700000000000    0.5983500000000000    0.8520799999999999 H
   0.0424000000000000    0.2785400000000000    0.6756400000000000 H
   0.2272700000000000    0.2788100000000000    0.9115000000000000 H
   0.3325100000000000    0.4018300000000000    0.8517300000000000 H
   0.1572200000000000    0.4016000000000000    0.6243300000000001 H
   0.5425100000000000    0.2216400000000000    0.8244100000000000 H
   0.7273300000000000    0.2213000000000000    0.5884200000000001 H
   0.8322500000000000    0.0982100000000000    0.6481700000000000 H
   0.6570000000000000    0.0985200000000000    0.8756500000000000 H
   0.4574000000000000    0.7783300000000000    0.1755500000000000 H
   0.2727100000000000    0.7785100000000000    0.4116000000000000 H
   0.1677400000000000    0.9016600000000000    0.3520000000000000 H
   0.3428800000000000    0.9014900000000000    0.1244400000000000 H
   0.4576900000000000    0.2216700000000000    0.1758500000000000 H
   0.2724400000000000    0.2212000000000000    0.4116600000000000 H
   0.1673900000000000    0.0981900000000000    0.3518100000000000 H
   0.3430400000000000    0.0986400000000000    0.1245300000000000 H
   0.4752068860454758    0.5902536243262322    0.6462483525618535 H
   0.5011331139545242    0.5911463756737678    0.6126016474381464 H
   0.4818026335124874    0.6368391569609007    0.7038813562157360 H
   0.9334000000000000    0.8053200000000000    0.1712900000000000 C
   0.8942700000000000    0.6954399999999999    0.2835400000000000 C
   0.7913300000000000    0.6950300000000000    0.1518800000000000 C
   0.7334600000000000    0.6266300000000000    0.1846800000000000 C
   0.8325700000000000    0.6271000000000000    0.3119300000000000 C
   0.8736699999999999    0.7313000000000000    0.2021200000000000 C
   0.9332000000000000    0.1944000000000000    0.1710400000000000 C
   0.8942400000000000    0.3042900000000000    0.2832900000000000 C
   0.7912800000000000    0.3047600000000000    0.1516800000000000 C
   0.7334800000000000    0.3731200000000000    0.1844900000000000 C
   0.8325700000000000    0.3725900000000000    0.3116800000000000 C
   0.8734499999999999    0.2683300000000000    0.2019600000000000 C
   0.0667200000000000    0.8056000000000000    0.8290000000000000 C
   0.1057400000000000    0.6957500000000000    0.7167000000000000 C
   0.2086400000000000    0.6952600000000000    0.8483000000000001 C
   0.1674000000000000    0.6274300000000000    0.6883000000000000 C
   0.2664300000000000    0.6268899999999999    0.8155600000000000 C
   0.1265000000000000    0.7317000000000000    0.7980500000000000 C
   0.0666200000000000    0.1947000000000000    0.8287099999999999 C
   0.1057100000000000    0.3046300000000000    0.7165100000000000 C
   0.2086300000000000    0.3050600000000000    0.8481700000000000 C
   0.2665700000000000    0.3734000000000000    0.8153200000000000 C
   0.1674700000000000    0.3729100000000000    0.6880700000000000 C
   0.1263500000000000    0.2687300000000000    0.7979100000000000 C
   0.5668500000000000    0.3054700000000000    0.6713300000000000 C
   0.6058100000000000    0.1955700000000000    0.7835500000000000 C
   0.7087000000000000    0.1951100000000000    0.6518400000000000 C
   0.7664200000000000    0.1266900000000000    0.6846300000000000 C
   0.6673800000000000    0.1272100000000000    0.8119100000000000 C
   0.6264500000000000    0.2314300000000000    0.7021100000000000 C
   0.4332100000000000    0.6944800000000000    0.3286700000000000 C
   0.3941400000000000    0.8043900000000000    0.2164700000000000 C
   0.2913200000000000    0.8047800000000001    0.3482000000000000 C
   0.2335500000000000    0.8732000000000000    0.3154800000000000 C
   0.3325400000000000    0.8727600000000000    0.1881600000000000 C
   0.3735400000000000    0.7684800000000001    0.2978800000000000 C
   0.4332900000000000    0.3054100000000000    0.3290300000000000 C
   0.3943500000000000    0.1955600000000000    0.2167000000000000 C
   0.2912200000000000    0.1950100000000000    0.3483000000000000 C
   0.2333100000000000    0.1267200000000000    0.3154000000000000 C
   0.3325800000000000    0.1273200000000000    0.1882300000000000 C
   0.3735000000000000    0.2314800000000000    0.2980700000000000 C
   0.9835500000000000    0.9081399999999999    0.0927400000000000 N
   0.9158600000000000    0.8428099999999999    0.0938600000000000 N
   0.0401800000000000    0.9101800000000000    0.1667100000000000 N
   0.0103100000000000    0.8461200000000000    0.2175600000000000 N
   0.7529300000000000    0.5931300000000000    0.2635200000000000 N
   0.9832800000000000    0.0916400000000000    0.0925000000000000 N
   0.9155799999999999    0.1569200000000000    0.0936000000000000 N
   0.0400100000000000    0.0896200000000000    0.1664700000000000 N
   0.0100300000000000    0.1535400000000000    0.2173400000000000 N
   0.7530100000000000    0.4066600000000000    0.2632700000000000 N
   0.0166600000000000    0.9083599999999999    0.9075400000000000 N
   0.0844200000000000    0.8431100000000000    0.9063800000000000 N
   0.9597700000000000    0.9102500000000000    0.8336800000000000 N
   0.9897400000000000    0.8463500000000000    0.7827900000000000 N
   0.2469200000000000    0.5933500000000000    0.7367800000000000 N
   0.0165100000000000    0.0918300000000000    0.9071700000000000 N
   0.0840100000000000    0.1572800000000000    0.9061900000000001 N
   0.9599600000000000    0.0897300000000000    0.8331499999999999 N
   0.9899400000000000    0.1537700000000000    0.7823000000000000 N
   0.2470900000000000    0.4068900000000000    0.7364800000000000 N
   0.5166700000000000    0.4082200000000000    0.5928000000000000 N
   0.5842300000000000    0.3428600000000000    0.5938099999999999 N
   0.4600700000000000    0.4102600000000000    0.6668200000000000 N
   0.4900000000000000    0.3462600000000000    0.7176800000000000 N
   0.7469700000000000    0.0932100000000000    0.7634900000000000 N
   0.4833600000000000    0.5917200000000000    0.4072100000000000 N
   0.4157800000000000    0.6570600000000000    0.4061600000000000 N
   0.5399900000000000    0.5897100000000000    0.3332000000000000 N
   0.5100200000000000    0.6536800000000000    0.2823200000000000 N
   0.2530000000000000    0.9067499999999999    0.2366400000000000 N
   0.4833000000000000    0.4082500000000000    0.4075200000000000 N
   0.4156200000000000    0.3429000000000000    0.4064200000000000 N
   0.5402000000000000    0.4102200000000000    0.3336300000000000 N
   0.5102100000000001    0.3463000000000000    0.2827000000000000 N
   0.2529300000000000    0.0932300000000000    0.2366100000000000 N
   0.7165000000000000    0.4998600000000000    0.4630900000000000 Cl
   0.2165800000000000    0.0002200000000000    0.0368900000000000 Cl
   0.2834600000000000    0.5001000000000000    0.5369200000000000 Cl
   0.7834100000000001    0.9998600000000000    0.9630900000000000 Cl
   0.7471000000000000    0.9066900000000000    0.7632700000000000 O
   0.4597100000000000    0.5897200000000000    0.6663600000000000 O
   0.5166300000000000    0.5916800000000000    0.5924900000000000 O
