H5 O3
1.0
  12.4159996804100263    0.0000000000000000    0.0028171010148898
  -0.0090222767294857   15.6619957887356822    0.0071071899097106
   0.0000000000000000    0.0000000000000000   15.4830000000000005
H O
5 3
direct
   0.6893389880589658    0.8820046911930596    0.7983182072455767 H
   0.7612543238382974    0.8824181973709893    0.7061598761670337 H
   0.4752068860454758    0.5902536243262322    0.6462483525618535 H
   0.5011331139545242    0.5911463756737678    0.6126016474381464 H
   0.4818026335124874    0.6368391569609007    0.7038813562157360 H
   0.7471000000000000    0.9066900000000000    0.7632700000000000 O
   0.4597100000000000    0.5897200000000000    0.6663600000000000 O
   0.5166300000000000    0.5916800000000000    0.5924900000000000 O
