H12 C12 N2
1.0
  14.9172629725060268    0.0000000000000000    2.2365870001188592
   3.2055343119470341   11.3170562097614855    4.0958287952536852
   0.0000000000000000    0.0000000000000000   25.5410000000000004
H C N
12 12 2
direct
   0.2406200000000000    0.6261000000000000    0.6013100000000000 H
   0.0844800000000000    0.7749300000000000    0.5995100000000000 H
   0.1831700000000000    0.9965600000000000    0.4471800000000000 H
   0.3317100000000000    0.8362100000000000    0.4535500000000000 H
   0.0447600000000000    0.0812700000000000    0.5144700000000000 H
   0.9922600000000000    0.9765600000000000    0.5624800000000000 H
   0.7597200000000000    0.3751100000000000    0.3966200000000000 H
   0.9158700000000000    0.2263000000000000    0.3985400000000000 H
   0.8171700000000000    0.0051400000000000    0.5510200000000000 H
   0.6686100000000000    0.1654700000000000    0.5445000000000000 H
   0.9555900000000001    0.9201700000000000    0.4837000000000000 H
   0.0081100000000000    0.0248500000000000    0.4357100000000000 H
   0.2229500000000000    0.7087800000000000    0.5676300000000000 C
   0.1376000000000000    0.7931000000000000    0.5664700000000000 C
   0.1211000000000000    0.9003500000000000    0.5236700000000000 C
   0.1920000000000000    0.9156000000000000    0.4819600000000000 C
   0.2751100000000000    0.8273500000000000    0.4851100000000000 C
   0.0309000000000000    0.9953700000000000    0.5219900000000000 C
   0.7773800000000000    0.2925300000000000    0.4303000000000000 C
   0.8627500000000000    0.2082200000000000    0.4315900000000000 C
   0.8792500000000000    0.1011000000000000    0.4744700000000000 C
   0.8083399999999999    0.0860000000000000    0.5161800000000000 C
   0.7252200000000000    0.1742400000000000    0.5129600000000000 C
   0.9694600000000000    0.0060600000000000    0.4761900000000000 C
   0.2913400000000000    0.7259400000000000    0.5277600000000000 N
   0.7089800000000001    0.2755100000000000    0.4702400000000000 N
