H4 O3
1.0
  14.9172629725060268    0.0000000000000000    2.2365870001188592
   3.2055343119470341   11.3170562097614855    4.0958287952536852
   0.0000000000000000    0.0000000000000000   25.5410000000000004
H O
4 3
direct
   0.0319834735768880    0.9792273848841181    0.8628409389205280 H
   0.3289475693135452    0.4859627195392597    0.5177045001693412 H
   0.5290110709613742    0.2174442738043625    0.5376994749949163 H
   0.4265796466695640    0.3206795813156239    0.5324901158654450 H
   0.0632000000000000    0.9472200000000000    0.8978699999999999 O
   0.3960800000000000    0.4721000000000000    0.5132200000000000 O
   0.5117600000000000    0.3030900000000000    0.5268000000000000 O
