H6 O4
1.0
  32.6387446067298299    0.0000000000000000   -1.3822353260802729
  -0.7107620346546060   16.3146321353586181   -0.6490336031497282
   0.0000000000000000    0.0000000000000000   32.6880000000000024
H O
6 4
direct
   0.5075450611782997    0.4575510317580790    0.3830384125475614 H
   0.5645804628049305    0.6723161810001190    0.4224521773044679 H
   0.5326957511515735    0.5688153818523277    0.4031381342436059 H
   0.1979086327659223    0.5829753297344953    0.4613801084041256 H
   0.2434850310919404    0.5321949255068015    0.3504874792830754 H
   0.2245723752633047    0.5579889507720525    0.4067621993958881 H
   0.5313200000000000    0.4933200000000000    0.3906400000000000 O
   0.5635400000000000    0.6152200000000000    0.4130000000000000 O
   0.1958550000000000    0.5695200000000000    0.4321750000000000 O
   0.2219550000000000    0.5408400000000000    0.3695400000000000 O
