H8 C14 O5
1.0
  32.6387446067298299    0.0000000000000000   -1.3822353260802729
  -0.7107620346546060   16.3146321353586181   -0.6490336031497282
   0.0000000000000000    0.0000000000000000   32.6880000000000024
H C O
8 14 5
direct
   0.2498350000000000    0.6124300000000000    0.4856450000000000 H
   0.3623000000000000    0.6364100000000000    0.3879850000000000 H
   0.2918950000000000    0.5882500000000001    0.3629800000000000 H
   0.4498900000000000    0.7644600000000000    0.4639100000000000 H
   0.3940850000000000    0.5247400000000000    0.4347000000000000 H
   0.4602200000000000    0.4786100000000000    0.4085350000000000 H
   0.5169100000000000    0.7163000000000000    0.4387550000000000 H
   0.3208950000000000    0.6571800000000000    0.5111450000000000 H
   0.2249050000000000    0.5675400000000000    0.4072850000000000 C
   0.2665300000000000    0.5969500000000000    0.4226750000000000 C
   0.2745600000000000    0.6172100000000000    0.4640000000000000 C
   0.3139450000000000    0.6422099999999999    0.4787800000000000 C
   0.3453350000000000    0.6484700000000000    0.4511850000000000 C
   0.3376400000000000    0.6305900000000000    0.4092100000000000 C
   0.2984200000000000    0.6040200000000000    0.3953300000000000 C
   0.4925600000000000    0.5946600000000000    0.4219800000000000 C
   0.4897450000000000    0.6752100000000000    0.4378000000000000 C
   0.4527950000000000    0.7020400000000000    0.4517550000000000 C
   0.4185000000000000    0.6477300000000000    0.4504000000000000 C
   0.4208500000000000    0.5668100000000000    0.4351500000000000 C
   0.4577700000000000    0.5410800000000000    0.4207350000000000 C
   0.5322300000000000    0.5655600000000000    0.4074850000000000 C
   0.2219550000000000    0.5408400000000000    0.3695400000000000 O
   0.1958550000000000    0.5695200000000000    0.4321750000000000 O
   0.3834000000000000    0.6769700000000000    0.4670400000000000 O
   0.5313200000000000    0.4933200000000000    0.3906400000000000 O
   0.5635400000000000    0.6152200000000000    0.4130000000000000 O
