H12 O8
1.0
  24.3880000000000017    0.0000000000000000    0.0000000000000015
  -0.0004252320189347   24.3639999962891523    0.0000000000000015
   0.0000000000000000    0.0000000000000000   23.1690000000000005
H O
12 8
direct
   0.1853009725030141    0.5915109199531968    0.5493931767627460 H
   0.3146756783549003    0.5915106953544509    0.5493932467601272 H
   0.2499898041543388    0.6461791356639413    0.5323555396258521 H
   0.1853014710086939    0.9084881904208025    0.5493931751926171 H
   0.3146746962426726    0.9084893330961479    0.5493935313041550 H
   0.2499898042186902    0.8538160819116030    0.5323547672799829 H
   0.0716119801689859    0.8311918982864930   -0.0748546405932343 H
   0.0716036013360908    0.6688196837140943   -0.0749846909852146 H
   0.0767230222743283    0.7499949760880228   -0.0802714871142959 H
   0.1072884823042345    0.7500043939428319   -0.0145502204926935 H
   0.4034942872854065    0.8022431970457266   -0.0547206010041070 H
   0.4034890241280408    0.6977622890184666   -0.0547206443446636 H
   0.2032450000000000    0.5574450000000000    0.5600100000000000 O
   0.2967300000000000    0.5574450000000000    0.5600100000000000 O
   0.2032450000000000    0.9425550000000000    0.5600100000000000 O
   0.2967300000000000    0.9425550000000000    0.5600100000000000 O
   0.0574050000000000    0.7967850000000001   -0.0600200000000000 O
   0.0574050000000000    0.7032100000000000   -0.0601000000000000 O
   0.4425700000000000    0.7967900000000000   -0.0600200000000000 O
   0.4425650000000000    0.7032150000000000   -0.0600200000000000 O
