H24 C33 O12
1.0
  26.5954512818283320    0.0000000000000000   -4.2061201975093025
   2.0213038348030530   13.0607389171363284   -0.4534376978274069
   0.0000000000000000    0.0000000000000000   26.4759999999999991
H C O
24 33 12
direct
   0.0000000000000000    0.0591900000000000    0.2053800000000000 H
   0.7467600000000000    0.0000000000000000    0.1055200000000000 H
   0.7250000000000000    0.9231000000000000    0.0652500000000000 H
   0.8144500000000000    0.8840700000000000    0.0058750000000000 H
   0.7877250000000000    0.7862100000000000    0.0328500000000000 H
   0.7994850000000000    0.8935400000000000    0.1657950000000000 H
   0.8482000000000001    0.8017700000000000    0.1443750000000000 H
   0.8506950000000000    0.0000000000000000    0.0660550000000000 H
   0.8862900000000000    0.9219400000000000    0.1070500000000000 H
   0.6603100000000000    0.0541100000000000    0.0553750000000000 H
   0.5842950000000000    0.1498000000000000    0.0000000000000000 H
   0.9521200000000001    0.6638500000000001    0.0648950000000000 H
   0.9861800000000001    0.5321500000000000    0.0035650000000000 H
   0.7252750000000000    0.6164300000000000    0.1146050000000000 H
   0.8313550000000001    0.7657000000000000    0.2193900000000000 H
   0.7284800000000000    0.4833500000000000    0.1807150000000000 H
   0.8344750000000001    0.6329200000000000    0.2832600000000000 H
   0.9429300000000000    0.9946800000000000    0.1398650000000000 H
   0.8229600000000000    0.1497100000000000    0.2183250000000000 H
   0.8878250000000000    0.2181500000000000    0.2822950000000000 H
   0.7534700000000000    0.1251000000000000    0.9461600000000000 H
   0.6780400000000000    0.2232000000000000    0.8952000000000000 H
   0.8129350000000000    0.7311299999999999    0.9583900000000001 H
   0.8449850000000000    0.5967800000000000    0.9002450000000000 H
   0.8072150000000000    0.9062800000000000    0.0862200000000000 C
   0.7547750000000000    0.9724500000000000    0.0732350000000000 C
   0.8168100000000000    0.8371700000000000    0.0399450000000000 C
   0.8091650000000000    0.8424400000000000    0.1339450000000000 C
   0.8497600000000001    0.9728700000000000    0.0986850000000000 C
   0.7117700000000000    0.0826100000000000    0.0035800000000000 C
   0.6641600000000000    0.0891700000000000    0.0198500000000000 C
   0.8807900000000000    0.7053800000000000    0.0157000000000000 C
   0.9296050000000000    0.6487100000000000    0.0283400000000000 C
   0.7779650000000000    0.6991900000000000    0.1624900000000000 C
   0.7486550000000000    0.6197700000000000    0.1519800000000000 C
   0.8086150000000000    0.7046500000000000    0.2101550000000000 C
   0.7506650000000000    0.5458400000000000    0.1886550000000000 C
   0.8103250000000000    0.6300300000000000    0.2463950000000000 C
   0.7817600000000000    0.5498000000000000    0.2363350000000000 C
   0.7858900000000000    0.4706800000000000    0.2761150000000000 C
   0.8785400000000000    0.0680500000000000    0.1752050000000000 C
   0.9303800000000000    0.0421500000000000    0.1712400000000000 C
   0.8633800000000000    0.1307700000000000    0.2155000000000000 C
   0.9665000000000000    0.0789600000000000    0.2079050000000000 C
   0.8996200000000000    0.1685100000000000    0.2513050000000000 C
   0.9517550000000000    0.1432300000000000    0.2478750000000000 C
   0.9900249999999999    0.1897900000000000    0.2839650000000000 C
   0.7164349999999999    0.1309400000000000    0.9585600000000001 C
   0.6215750000000000    0.1432400000000000    0.9903050000000000 C
   0.6738400000000000    0.1850800000000000    0.9297150000000001 C
   0.6256699999999999    0.1914900000000000    0.9450100000000000 C
   0.5798800000000000    0.2492100000000000    0.9150700000000001 C
   0.8504650000000000    0.6869100000000000    0.9693100000000000 C
   0.8687900000000000    0.6102900000000000    0.9363500000000000 C
   0.9480800000000000    0.5754600000000000    0.9944400000000000 C
   0.9175900000000000    0.5543200000000000    0.9483050000000000 C
   0.9382550000000001    0.4750700000000000    0.9128350000000001 C
   0.0373950000000000    0.1562400000000000    0.2823500000000000 O
   0.7561249999999999    0.0307400000000000    0.0288250000000000 O
   0.8664700000000001    0.7775400000000000    0.0511000000000000 O
   0.7746950000000000    0.7688600000000000    0.1242300000000000 O
   0.8394650000000000    0.0359800000000000    0.1421850000000000 O
   0.7613950000000000    0.3956100000000000    0.2663550000000000 O
   0.8149850000000001    0.4848600000000000    0.3181500000000000 O
   0.9731250000000000    0.2612000000000000    0.3133300000000000 O
   0.5366950000000000    0.2568200000000000    0.9278000000000000 O
   0.5852349999999999    0.2981900000000000    0.8734999999999999 O
   0.9108750000000000    0.4122600000000000    0.8887200000000000 O
   0.9845699999999999    0.4708400000000000    0.9070050000000001 O
