Zn4 H28 C50 S8 N2 O18
1.0
  13.3980588204661544    0.0000000000000000   -3.9173589117323782
  -4.8176866120591821   13.3260084152870881   -1.7840738279800636
   0.0000000000000000    0.0000000000000000   14.2940000000000005
Zn H C S N O
4 28 50 8 2 18
direct
   0.6395600000000000    0.3376100000000000    0.6257000000000000 Zn
   0.8611400000000000    0.3748700000000000    0.6621600000000000 Zn
   0.1388700000000000    0.6251300000000000    0.3378300000000000 Zn
   0.3604500000000000    0.6623800000000000    0.3742800000000000 Zn
   0.9723300000000000    0.7272800000000000    0.6793900000000000 H
   0.9349100000000000    0.8962200000000000    0.6625200000000000 H
   0.5183300000000000    0.9828600000000000    0.5835300000000000 H
   0.5507300000000001    0.8119800000000000    0.5935100000000000 H
   0.2201100000000000    0.3223600000000000    0.7904900000000000 H
   0.1526000000000000    0.4086300000000000    0.5059000000000000 H
   0.0486500000000000    0.3392600000000000    0.7983600000000000 H
   0.9828500000000000    0.4170500000000000    0.5239500000000000 H
   0.2790000000000000    0.2093500000000000    0.6787700000000000 H
   0.3491200000000000    0.4934400000000000    0.5898700000000000 H
   0.4505200000000000    0.2010900000000000    0.6622100000000000 H
   0.5188500000000000    0.4750900000000000    0.5820000000000000 H
   0.5290700000000000    0.3208100000000000    0.2753400000000000 H
   0.5655100000000000    0.3362300000000000    0.1056600000000000 H
   0.9811000000000000    0.4154900000000000    0.0145000000000000 H
   0.9492699999999999    0.4059400000000000    0.1858300000000000 H
   0.9430309711665399    0.6402781677499737    0.2854000580218721 H
   0.9690921093613294    0.6072941500516544    0.3963990843673978 H
   0.4709400000000000    0.6791800000000000    0.7246400000000000 H
   0.4345000000000000    0.6637500000000000    0.8943200000000000 H
   0.0189100000000000    0.5845100000000000    0.9854900000000000 H
   0.0507400000000000    0.5940600000000000    0.8141600000000000 H
   0.5299811803389954    0.6043728554836229    0.3929969342796550 H
   0.5570548770258555    0.7151884819413722    0.3590250401732785 H
   0.0276800000000000    0.2727200000000000    0.3206000000000000 H
   0.0651000000000000    0.1037800000000000    0.3374700000000000 H
   0.4816800000000000    0.0171400000000000    0.4164600000000000 H
   0.4492700000000000    0.1880100000000000    0.4064700000000000 H
   0.7036800000000000    0.1625200000000000    0.6262000000000000 C
   0.7942800000000000    0.5520200000000000    0.6621600000000000 C
   0.8958500000000000    0.7366700000000000    0.6702500000000000 C
   0.8067700000000000    0.6583500000000000    0.6643100000000000 C
   0.8754700000000000    0.8266700000000000    0.6611700000000000 C
   0.7702200000000000    0.8179999999999999    0.6484000000000000 C
   0.5962800000000000    0.9751000000000000    0.6032500000000000 C
   0.6887600000000000    0.0556100000000000    0.6241900000000000 C
   0.6142900000000000    0.8835000000000000    0.6092400000000000 C
   0.7214699999999999    0.8940200000000000    0.6354200000000000 C
   0.1696700000000000    0.3431800000000000    0.7294100000000000 C
   0.1334000000000000    0.3924300000000000    0.5721200000000000 C
   0.0749000000000000    0.3525900000000000    0.7347200000000000 C
   0.0389500000000000    0.3980600000000000    0.5817099999999999 C
   0.2003300000000000    0.3628100000000000    0.6463600000000000 C
   0.3300400000000000    0.2702700000000000    0.6574900000000000 C
   0.3677600000000000    0.4272700000000000    0.6068000000000000 C
   0.4248300000000000    0.2647300000000000    0.6482500000000000 C
   0.4621700000000000    0.4174700000000000    0.6013900000000000 C
   0.3000900000000000    0.3532900000000000    0.6370200000000000 C
   0.7959500000000000    0.3728200000000000    0.8369300000000000 C
   0.7073900000000000    0.3397700000000000    0.4489200000000000 C
   0.6053400000000000    0.3300300000000000    0.2651200000000000 C
   0.6946099999999999    0.3367700000000000    0.3426200000000000 C
   0.6251700000000000    0.3382700000000000    0.1746800000000000 C
   0.7302200000000000    0.3512100000000000    0.1821900000000000 C
   0.9033099999999999    0.3957500000000000    0.0231400000000000 C
   0.8107600000000000    0.3747300000000000    0.9436000000000000 C
   0.8856100000000000    0.3900100000000000    0.1149500000000000 C
   0.7785500000000000    0.3637900000000000    0.1055400000000000 C
   0.2040600000000000    0.6271800000000000    0.1630500000000000 C
   0.2926200000000000    0.6602400000000000    0.5510699999999999 C
   0.3946700000000000    0.6699600000000000    0.7348700000000000 C
   0.3053900000000000    0.6632200000000000    0.6573600000000001 C
   0.3748300000000000    0.6617200000000000    0.8253000000000000 C
   0.2697900000000000    0.6487800000000000    0.8177900000000000 C
   0.0967000000000000    0.6042400000000000    0.9768500000000000 C
   0.1892500000000000    0.6252600000000000    0.0563800000000000 C
   0.1144000000000000    0.6099900000000000    0.8850400000000000 C
   0.2214600000000000    0.6362000000000000    0.8944500000000000 C
   0.2963300000000000    0.8374800000000000    0.3737800000000000 C
   0.2057300000000000    0.4479700000000000    0.3378100000000000 C
   0.1041600000000000    0.2633200000000000    0.3297300000000000 C
   0.1932400000000000    0.3416500000000000    0.3356800000000000 C
   0.1245400000000000    0.1733200000000000    0.3388200000000000 C
   0.2297900000000000    0.1820000000000000    0.3515800000000000 C
   0.4037300000000000    0.0249000000000000    0.3967400000000000 C
   0.3112500000000000    0.9443900000000000    0.3757900000000000 C
   0.3857200000000000    0.1165000000000000    0.3907400000000000 C
   0.2785400000000000    0.1059800000000000    0.3645700000000000 C
   0.7991900000000000    0.0183900000000000    0.6522500000000000 S
   0.6975400000000000    0.6969900000000000    0.6494100000000000 S
   0.7005800000000000    0.3466400000000000    0.9819500000000000 S
   0.8033600000000000    0.3513900000000000    0.3026700000000000 S
   0.2994300000000000    0.6533600000000001    0.0180300000000000 S
   0.1966500000000000    0.6486100000000000    0.6973200000000001 S
   0.2008200000000000    0.9816100000000000    0.3477300000000000 S
   0.3024600000000000    0.3030100000000000    0.3505700000000000 S
   0.0096500000000000    0.3785300000000000    0.6614300000000000 N
   0.4908200000000000    0.3378300000000000    0.6217800000000000 N
   0.7993800000000000    0.2210200000000000    0.6493600000000000 O
   0.6208100000000000    0.1877800000000000    0.6050400000000000 O
   0.8758600000000000    0.5261500000000000    0.6695300000000000 O
   0.7008900000000000    0.4936900000000000    0.6499800000000000 O
   0.7004100000000000    0.3494900000000000    0.7790200000000000 O
   0.8790200000000000    0.3945200000000000    0.8114100000000000 O
   0.6258800000000000    0.3323500000000000    0.4753700000000000 O
   0.8007100000000000    0.3525500000000000    0.5066400000000000 O
   0.9903600000000001    0.6214800000000000    0.3385600000000000 O
   0.2996000000000000    0.6505100000000000    0.2209600000000000 O
   0.1209800000000000    0.6054800000000000    0.1885700000000000 O
   0.3741300000000000    0.6676400000000000    0.5246100000000000 O
   0.1993000000000000    0.6474500000000000    0.4933400000000000 O
   0.5091900000000000    0.6621600000000000    0.3782000000000000 O
   0.2006300000000000    0.7789800000000000    0.3506300000000000 O
   0.3792000000000000    0.8122200000000001    0.3949400000000000 O
   0.1241500000000000    0.4738500000000000    0.3304600000000000 O
   0.2991200000000000    0.5063100000000000    0.3500100000000000 O
