H8 C10 N2
1.0
  13.3980588204661544    0.0000000000000000   -3.9173589117323782
  -4.8176866120591821   13.3260084152870881   -1.7840738279800636
   0.0000000000000000    0.0000000000000000   14.2940000000000005
H C N
8 10 2
direct
   0.6508900000000000    0.5065499999999999    0.4101100000000000 H
   0.4811500000000000    0.5249100000000000    0.4179700000000000 H
   0.7210200000000000    0.7906600000000000    0.3212300000000000 H
   0.5494900000000000    0.7989200000000000    0.3377900000000000 H
   0.8474000000000000    0.5913600000000000    0.4940800000000000 H
   0.0171500000000000    0.5829500000000000    0.4760300000000000 H
   0.7799000000000000    0.6776400000000000    0.2095000000000000 H
   0.9513600000000000    0.6607499999999999    0.2016300000000000 H
   0.6999400000000000    0.6467300000000000    0.3630000000000000 C
   0.6322300000000000    0.5727100000000001    0.3931500000000000 C
   0.5378400000000000    0.5825300000000000    0.3985900000000000 C
   0.6699600000000000    0.7297200000000000    0.3424800000000000 C
   0.5751900000000000    0.7352800000000000    0.3517600000000000 C
   0.7996600000000000    0.6371599999999999    0.3536100000000000 C
   0.8666199999999999    0.6075900000000000    0.4278700000000000 C
   0.9610500000000000    0.6019300000000000    0.4182700000000000 C
   0.8303500000000000    0.6568500000000000    0.2705900000000000 C
   0.9251000000000000    0.6474000000000000    0.2652600000000000 C
   0.5091900000000000    0.6621600000000000    0.3782000000000000 N
   0.9903600000000000    0.6214800000000000    0.3385600000000000 N
