H4 C10 S2 O4
1.0
  13.3980588204661544    0.0000000000000000   -3.9173589117323782
  -4.8176866120591821   13.3260084152870881   -1.7840738279800636
   0.0000000000000000    0.0000000000000000   14.2940000000000005
H C S O
4 10 2 4
direct
   0.5290700000000000    0.3208100000000000    0.2753400000000000 H
   0.5655100000000000    0.3362300000000000    0.1056600000000000 H
   0.9811000000000000    0.4154900000000000    0.0145000000000000 H
   0.9492699999999999    0.4059400000000000    0.1858300000000000 H
   0.6946099999999999    0.3367700000000000    0.3426200000000000 C
   0.7073900000000000    0.3397700000000000    0.4489200000000000 C
   0.7302200000000000    0.3512100000000000    0.1821900000000000 C
   0.6053400000000000    0.3300300000000000    0.2651200000000000 C
   0.6251700000000000    0.3382700000000000    0.1746800000000000 C
   0.7959500000000000    0.3728200000000000    0.8369300000000000 C
   0.7785500000000000    0.3637900000000000    0.1055400000000000 C
   0.8107600000000000    0.3747300000000000    0.9436000000000000 C
   0.9033099999999999    0.3957500000000000    0.0231400000000000 C
   0.8856100000000000    0.3900100000000000    0.1149500000000000 C
   0.8033600000000000    0.3513900000000000    0.3026700000000000 S
   0.7005800000000000    0.3466400000000000    0.9819500000000000 S
   0.6258800000000000    0.3323500000000000    0.4753700000000000 O
   0.8007100000000000    0.3525500000000000    0.5066400000000000 O
   0.8790200000000000    0.3945200000000000    0.8114100000000000 O
   0.7004100000000000    0.3494900000000000    0.7790200000000000 O
