H6 O4
1.0
  13.3980588204661544    0.0000000000000000   -3.9173589117323782
  -4.8176866120591821   13.3260084152870881   -1.7840738279800636
   0.0000000000000000    0.0000000000000000   14.2940000000000005
H O
6 4
direct
   0.8620231405952434    0.3575607869128651    0.4857059083280617 H
   0.5542627232967550    0.3221586139275251    0.4330712247880801 H
   0.7031166362151723    0.3386621269304338    0.4489991632223778 H
   0.6390777064337119    0.3353720684068950    0.8010869991776725 H
   0.9519999562471868    0.4141543436313059    0.8551273432358243 H
   0.8012132708391934    0.3766098581171061    0.8394044043924136 H
   0.8007100000000000    0.3525500000000000    0.5066400000000000 O
   0.6258800000000000    0.3323500000000000    0.4753700000000000 O
   0.7004100000000000    0.3494900000000000    0.7790200000000000 O
   0.8790200000000000    0.3945200000000000    0.8114100000000000 O
