H7 C15 O6
1.0
   7.7490277394921279    0.0000000000000000    0.6590129684471547
   2.2021343372861044    9.1783939319236545    3.8078042479849930
   0.0000000000000000    0.0000000000000000   13.4299999999999997
H C O
7 15 6
direct
   0.1514300000000000    0.8650300000000000    0.4486800000000000 H
   0.2205300000000000    0.7421200000000000    0.1729000000000000 H
   0.1838900000000000    0.1887800000000000    0.1358300000000000 H
   0.3965700000000000    0.7898600000000000    0.0412900000000000 H
   0.4445200000000000    0.8439300000000000    0.8469600000000000 H
   0.1559700000000000    0.2868100000000000    0.7779800000000000 H
   0.0948900000000000    0.2318100000000000    0.9715300000000000 H
   0.1659900000000000    0.0381000000000000    0.2960700000000000 C
   0.1666500000000000    0.8941900000000000    0.3623300000000000 C
   0.1846100000000000    0.7886900000000000    0.3165700000000000 C
   0.2072300000000000    0.8269500000000000    0.2056700000000000 C
   0.2086000000000000    0.9703400000000000    0.1379400000000000 C
   0.1835300000000000    0.0760100000000000    0.1847400000000000 C
   0.2396700000000000    0.0060100000000000    0.0214700000000000 C
   0.3387500000000000    0.8980700000000000    0.9840200000000000 C
   0.3685300000000000    0.9282400000000000    0.8752000000000000 C
   0.3030400000000000    0.0685300000000000    0.7998800000000000 C
   0.2068900000000000    0.1777700000000000    0.8362300000000000 C
   0.1746600000000000    0.1464500000000000    0.9453400000000000 C
   0.1515500000000000    0.1514100000000000    0.3434600000000000 C
   0.1762400000000000    0.6358200000000001    0.3842800000000000 C
   0.3353600000000000    0.0994200000000000    0.6828500000000000 C
   0.0883200000000000    0.2835600000000000    0.2919300000000000 O
   0.2074200000000000    0.1073100000000000    0.4431700000000000 O
   1.1311599999999999    0.6031500000000000    0.4829700000000000 O
   0.2154200000000000    0.5410500000000000    0.3398600000000000 O
   0.4202300000000000   -0.0112999999999999    0.6595200000000000 O
   0.2816400000000000    0.2282600000000000    0.6164500000000001 O
