V8 H28 C56 O28
1.0
  13.7159999916437343    0.0000000000000000   -0.0004787787203078
  -0.0007441909398712   14.2129999805171252    0.0000000000000009
   0.0000000000000000    0.0000000000000000   15.9840000000000000
V H C O
8 28 56 28
direct
   0.9690800000000001    0.7639800000000000    0.9991000000000000 V
   0.2808900000000000    0.2360500000000000    0.4991000000000000 V
   0.7809000000000000    0.2360500000000000    0.4991000000000000 V
   0.0307500000000000    0.2636300000000000    0.4986900000000000 V
   0.5307500000000001    0.2636300000000000    0.4986900000000000 V
   0.2192200000000000    0.7364000000000001    0.9986900000000000 V
   0.7192300000000000    0.7364100000000000    0.9986900000000000 V
   0.4690800000000000    0.7639800000000000    0.9991000000000000 V
   0.2750900000000000    0.9268600000000000    0.8059900000000000 H
   0.7751000000000000    0.9268100000000000    0.8059500000000001 H
   0.2852400000000000    0.0434100000000000    0.6881699999999999 H
   0.7852400000000000    0.0433700000000000    0.6881300000000000 H
   0.4747400000000000    0.0817200000000000    0.6980000000000000 H
   0.9747400000000001    0.0816900000000000    0.6983000000000000 H
   0.4645600000000000    0.9649500000000000    0.8160400000000000 H
   0.9645700000000000    0.9649300000000000    0.8160200000000000 H
   0.9748400000000000    0.0730300000000000    0.3060500000000000 H
   0.9647300000000000    0.9564700000000000    0.1882200000000000 H
   0.2752700000000000    0.9185200000000000    0.1982600000000000 H
   0.2854100000000000    0.0352900000000000    0.3159000000000000 H
   0.2247000000000000    0.4259400000000000    0.6925200000000000 H
   0.7247100000000000    0.4259300000000000    0.6925200000000000 H
   0.2144100000000000    0.5427400000000000    0.8101100000000000 H
   0.7144200000000001    0.5427400000000000    0.8101200000000000 H
   0.0249300000000000    0.5810600000000000    0.8000900000000000 H
   0.5249400000000000    0.5810600000000000    0.8000800000000000 H
   0.0351700000000000    0.4644700000000000    0.6823100000000000 H
   0.5351800000000000    0.4644700000000000    0.6823000000000000 H
   0.0253000000000000    0.5738700000000000    0.1923600000000000 H
   0.5253000000000000    0.5738700000000000    0.1923600000000000 H
   0.0355700000000000    0.4570600000000000    0.3099600000000000 H
   0.5355700000000000    0.4570600000000000    0.3099600000000000 H
   0.2249800000000000    0.4192100000000000    0.3002600000000000 H
   0.7249800000000000    0.4192300000000000    0.3002700000000000 H
   0.2147500000000000    0.5358100000000000    0.1824800000000000 H
   0.7147600000000000    0.5358200000000000    0.1824900000000000 H
   0.1132500000000000    0.8689800000000000    0.8863900000000000 C
   0.6132600000000000    0.8689800000000000    0.8863900000000000 C
   0.1192600000000000    0.9390800000000000    0.8175000000000000 C
   0.6192700000000000    0.9390700000000000    0.8169999999999999 C
   0.2100000000000000    0.9613400000000000    0.7819199999999999 C
   0.7100000000000000    0.9613100000000000    0.7818900000000000 C
   0.2155600000000000    0.0258800000000000    0.7168300000000000 C
   0.7155700000000000    0.0258500000000000    0.7168099999999999 C
   0.1305200000000000    0.0691900000000000    0.6866200000000000 C
   0.6305300000000000    0.0691800000000000    0.6866100000000001 C
   0.0398400000000000    0.0472700000000000    0.7224900000000000 C
   0.5398500000000001    0.0472800000000000    0.7225000000000000 C
   0.0342600000000000    0.9826400000000000    0.7875000000000000 C
   0.5342700000000000    0.9826500000000000    0.7875100000000000 C
   0.1362800000000000    0.1375700000000000    0.6163000000000000 C
   0.6362900000000000    0.1375700000000000    0.6163800000000000 C
   0.1366800000000000    0.1310600000000000    0.3863700000000000 C
   0.1306800000000000    0.0609700000000000    0.3174800000000000 C
   0.0399300000000000    0.0386200000000000    0.2819400000000000 C
   0.0343900000000000    0.9740799999999999    0.2168500000000000 C
   0.1194500000000000    0.9308600000000000    0.1865900000000000 C
   0.2101500000000000    0.9528700000000000    0.2224100000000000 C
   0.2157000000000000    0.0175000000000000    0.2874200000000000 C
   0.1137000000000000    0.8624600000000000    0.1163700000000000 C
   0.3864300000000000    0.3685600000000000    0.6116000000000000 C
   0.8864400000000000    0.3685600000000000    0.6116900000000000 C
   0.3804900000000000    0.4384300000000000    0.6808000000000000 C
   0.8804999999999999    0.4384300000000000    0.6808100000000000 C
   0.2897700000000000    0.4605600000000000    0.7160000000000000 C
   0.7897700000000000    0.4605500000000000    0.7165000000000000 C
   0.2841300000000000    0.5252100000000000    0.7815200000000000 C
   0.7841399999999999    0.5252000000000000    0.7815200000000000 C
   0.3691200000000000    0.5686600000000001    0.8117100000000000 C
   0.8691300000000000    0.5686600000000001    0.8117100000000000 C
   0.4598300000000000    0.5466400000000000    0.7759000000000000 C
   0.9598400000000000    0.5466400000000000    0.7759500000000000 C
   0.4654500000000000    0.4820800000000000    0.7108400000000000 C
   0.9654600000000000    0.4820700000000000    0.7108500000000000 C
   0.3632200000000000    0.6373700000000000    0.8817100000000000 C
   0.8632300000000001    0.6373700000000000    0.8817100000000000 C
   0.3635400000000000    0.6314700000000000    0.1116800000000000 C
   0.8635500000000000    0.6314700000000000    0.1116000000000000 C
   0.3694700000000000    0.5616100000000001    0.1808100000000000 C
   0.8694800000000000    0.5616200000000000    0.1808000000000000 C
   0.4602200000000000    0.5393600000000000    0.2164200000000000 C
   0.9602200000000000    0.5393600000000000    0.2164200000000000 C
   0.4658500000000000    0.4747000000000000    0.2814300000000000 C
   0.9658500000000000    0.4747000000000000    0.2814400000000000 C
   0.3808300000000000    0.4313800000000000    0.3117200000000000 C
   0.8808400000000000    0.4313900000000000    0.3117200000000000 C
   0.2901000000000000    0.4535300000000000    0.2760400000000000 C
   0.7901100000000000    0.4535400000000000    0.2760500000000000 C
   0.2844900000000000    0.5181000000000000    0.2109500000000000 C
   0.7845000000000000    0.5181100000000000    0.2109600000000000 C
   0.3867300000000000    0.3626600000000000    0.3817100000000000 C
   0.8867400000000000    0.3626600000000000    0.3817100000000000 C
   0.0285000000000000    0.8475300000000000    0.9133900000000000 O
   0.5285100000000000    0.8475300000000000    0.9133900000000000 O
   0.2207300000000000    0.1564900000000000    0.5872300000000000 O
   0.7207400000000000    0.1564900000000000    0.5872300000000000 O
   0.1937100000000000    0.8349000000000000    0.9133599999999999 O
   0.6937200000000000    0.8348900000000000    0.9133599999999999 O
   0.0558600000000000    0.1725200000000000    0.5901300000000000 O
   0.5558700000000000    0.1725200000000000    0.5901000000000000 O
   0.2214400000000000    0.1525000000000000    0.4133800000000000 O
   0.0292500000000000    0.8435400000000000    0.0872200000000000 O
   0.0562200000000000    0.1651400000000000    0.4133400000000000 O
   0.1941100000000000    0.8275100000000000    0.0901300000000000 O
   0.4709700000000000    0.3488500000000000    0.5831300000000000 O
   0.9709800000000000    0.3488400000000000    0.5831300000000000 O
   0.2785600000000000    0.6581600000000000    0.9093100000000000 O
   0.7785700000000000    0.6581500000000000    0.9093100000000000 O
   0.3060800000000000    0.3329200000000000    0.5860500000000000 O
   0.8060900000000000    0.3329200000000000    0.5860500000000000 O
   0.4436700000000000    0.6708400000000000    0.9093000000000000 O
   0.9436800000000000    0.6708400000000000    0.9093000000000000 O
   0.2790100000000000    0.6511900000000000    0.0831200000000000 O
   0.7790200000000000    0.6511900000000000    0.0831200000000000 O
   0.4713900000000000    0.3418700000000000    0.4093000000000000 O
   0.9714000000000000    0.3418700000000000    0.4093000000000000 O
   0.4438900000000000    0.6671000000000000    0.0860400000000000 O
   0.9439000000000000    0.6671000000000000    0.0860000000000000 O
   0.3062700000000000    0.3291900000000000    0.4093000000000000 O
   0.8062800000000000    0.3291900000000000    0.4093000000000000 O
