H4 O3
1.0
  11.7359733949341845    0.0000000000000000    0.0249894657203087
   5.8541560154578720   12.5511135102154174    3.2654016598829618
   0.0000000000000000    0.0000000000000000   14.3499999999999996
H O
4 3
direct
   0.1506218431047930    0.3852734771196864    0.8343990850233201 H
   0.3765148169490105    0.4358710312915169    0.9302468386048304 H
   0.2142645429467471    0.3966705423630104    0.1196130475670933 H
   0.2706107297252578    0.4038623231704322    0.0116599173546854 H
   0.1095500000000000    0.4530500000000000    0.7858700000000000 O
   0.4146500000000000    0.4782300000000000    0.9510100000000000 O
   0.2760600000000000    0.4085000000000000    0.0783700000000000 O
