H2 O2
1.0
  11.7359733949341845    0.0000000000000000    0.0249894657203087
   5.8541560154578720   12.5511135102154174    3.2654016598829618
   0.0000000000000000    0.0000000000000000   14.3499999999999996
H O
2 2
direct
   0.8454879343109563    0.3449505081889828    0.3886245248625274 H
   0.8079010414204070    0.7717089090650426    0.3661503746488866 H
   0.9189200000000000    0.3612100000000000    0.3840400000000000 O
   0.8895900000000000    0.7109799999999999    0.3719500000000000 O
