H2 C6 N2 O4
1.0
  11.7359733949341845    0.0000000000000000    0.0249894657203087
   5.8541560154578720   12.5511135102154174    3.2654016598829618
   0.0000000000000000    0.0000000000000000   14.3499999999999996
H C N O
2 6 2 4
direct
   0.1984700000000000    0.3970500000000000    0.2094400000000000 H
   0.0242200000000000    0.3635900000000000    0.1432100000000000 H
   0.1751800000000000    0.3768000000000000    0.9513100000000000 C
   0.2685400000000000    0.4021000000000000    0.9863100000000000 C
   0.1911200000000000    0.3922400000000000    0.1350600000000000 C
   0.0964000000000000    0.3715600000000000    0.0981700000000000 C
   0.1635800000000000    0.3638900000000000    0.8497100000000000 C
   0.3642700000000000    0.4222700000000000    0.9235800000000000 C
   0.0882400000000000    0.3627900000000000    0.0076300000000000 N
   0.2760600000000000    0.4085000000000000    0.0783700000000000 N
   0.1095500000000000    0.4530500000000000    0.7858700000000000 O
   0.1998900000000000    0.2715900000000000    0.8400100000000000 O
   0.3876700000000000    0.3839200000000000    0.8524200000000000 O
   0.4146500000000000    0.4782300000000000    0.9510100000000000 O
