H10 C12 N2
1.0
  11.7359733949341845    0.0000000000000000    0.0249894657203087
   5.8541560154578720   12.5511135102154174    3.2654016598829618
   0.0000000000000000    0.0000000000000000   14.3499999999999996
H C N
10 12 2
direct
   0.0828800000000000    0.6592300000000000    0.3851000000000000 H
   0.0774600000000000    0.8352200000000000    0.3830700000000000 H
   0.6714300000000000    0.9604600000000000    0.3590900000000000 H
   0.6947900000000000    0.7786900000000000    0.3569700000000000 H
   0.1349800000000000    0.1216900000000000    0.3664900000000000 H
   0.1099500000000000    0.3038600000000000    0.3684400000000000 H
   0.7289099999999999    0.4016600000000000    0.3991900000000000 H
   0.7348300000000000    0.2302900000000000    0.3920000000000000 H
   0.7602500000000000    0.0806200000000000    0.3682200000000000 H
   0.0491900000000000    0.0000000000000000    0.3795800000000000 H
   0.9936000000000000    0.7286300000000000    0.3780800000000000 C
   0.9893000000000000    0.8276300000000000    0.3773500000000000 C
   0.8724200000000000    0.9150700000000001    0.3714600000000000 C
   0.7647200000000000    0.8958199999999999    0.3643600000000000 C
   0.7771900000000000    0.7945400000000000    0.3639700000000000 C
   0.9373100000000000    0.1582600000000000    0.3787200000000000 C
   0.0425700000000000    0.1822300000000000    0.3725700000000000 C
   0.0298800000000000    0.2832300000000000    0.3745600000000000 C
   0.8175300000000000    0.3387600000000000    0.3903700000000000 C
   0.8219000000000000    0.2405900000000000    0.3874000000000000 C
   0.8574200000000000    0.0216500000000000    0.3725100000000000 C
   0.9520600000000000    0.0518400000000000    0.3771600000000000 C
   0.8895900000000000    0.7109799999999999    0.3719500000000000 N
   0.9189200000000000    0.3612100000000000    0.3840400000000000 N
