Cd4 H46 C66 N14 O12
1.0
  11.7359733949341845    0.0000000000000000    0.0249894657203087
   5.8541560154578720   12.5511135102154174    3.2654016598829618
   0.0000000000000000    0.0000000000000000   14.3499999999999996
Cd H C N O
4 46 66 14 12
direct
   0.4398700000000000    0.4625400000000000    0.1258900000000000 Cd
   0.0971200000000000    0.4625900000000000    0.6258899999999999 Cd
   0.5601500000000000    0.5374100000000001    0.8740599999999999 Cd
   0.9028900000000000    0.5373599999999999    0.3740700000000000 Cd
   0.8015600000000001    0.6029000000000000    0.7905100000000000 H
   0.9758300000000000    0.6363300000000000    0.8567500000000000 H
   0.0828800000000000    0.6592300000000000    0.3851000000000000 H
   0.0774600000000000    0.8352200000000000    0.3830700000000000 H
   0.6714300000000000    0.9604600000000000    0.3590900000000000 H
   0.6947900000000000    0.7786900000000000    0.3569700000000000 H
   0.1349800000000000    0.1216900000000000    0.3664900000000000 H
   0.1099500000000000    0.3038600000000000    0.3684400000000000 H
   0.7289099999999999    0.4016600000000000    0.3991900000000000 H
   0.7348300000000000    0.2302900000000000    0.3920000000000000 H
   0.7602500000000000    0.0806200000000000    0.3682200000000000 H
   0.0491900000000000    0.0000000000000000    0.3795800000000000 H
   0.4032200000000000    0.3972400000000000    0.7091700000000000 H
   0.6112900000000000    0.3635400000000000    0.6430100000000000 H
   0.7414500000000001    0.3408900000000000    0.1148100000000000 H
   0.9123200000000000    0.1650500000000000    0.1171400000000000 H
   0.6320500000000000    0.0390100000000000    0.1407100000000000 H
   0.4732200000000000    0.2207300000000000    0.1424300000000000 H
   0.2566200000000000    0.8784500000000000    0.1332000000000000 H
   0.4134300000000000    0.6962000000000000    0.1312800000000000 H
   0.1301500000000000    0.5984200000000000    0.1010800000000000 H
   0.9649600000000000    0.7698500000000000    0.1083100000000000 H
   0.8410900000000000    0.9192000000000000    0.1320300000000000 H
   0.0428200000000000    0.0066100000000000    0.1202500000000000 H
   0.9171600000000000    0.3407200000000000    0.6148600000000000 H
   0.9225700000000000    0.1647300000000000    0.6168900000000000 H
   0.3285900000000000    0.0394900000000000    0.6408500000000000 H
   0.3052300000000000    0.2212600000000000    0.6429700000000000 H
   0.8650500000000000    0.8782700000000000    0.6334500000000000 H
   0.8900800000000000    0.6961000000000001    0.6315100000000000 H
   0.2711100000000000    0.5982800000000000    0.6007800000000000 H
   0.2651900000000000    0.7696499999999999    0.6079599999999999 H
   0.2397700000000000    0.9193300000000000    0.6317300000000000 H
   0.9508400000000000    0.0063300000000000    0.6203700000000000 H
   0.5968200000000000    0.6027000000000000    0.2907800000000000 H
   0.3887400000000000    0.6363900000000000    0.3569300000000000 H
   0.2585700000000000    0.6590600000000000    0.8851400000000000 H
   0.0877000000000000    0.8349000000000000    0.8828100000000000 H
   0.3679700000000000    0.9609500000000000    0.8592300000000000 H
   0.5268000000000000    0.7792200000000000    0.8575199999999999 H
   0.7433999999999999    0.1215000000000000    0.8667400000000000 H
   0.5865899999999999    0.3037500000000000    0.8686700000000001 H
   0.8698700000000000    0.4015300000000000    0.8988699999999999 H
   0.0350700000000000    0.2301100000000000    0.8916300000000000 H
   0.1589400000000000    0.0807500000000000    0.8679200000000000 H
   0.9572000000000001    0.0000000000000000    0.8797000000000000 H
   0.8248300000000000    0.6231500000000000    0.0486400000000000 C
   0.7314800000000000    0.5978500000000000    0.0136400000000000 C
   0.8089100000000000    0.6077000000000000    0.8649000000000000 C
   0.9036300000000000    0.6283800000000000    0.9017900000000000 C
   0.8364300000000000    0.6360600000000000    0.1502400000000000 C
   0.6357400000000000    0.5776800000000000    0.0763700000000000 C
   0.9936000000000000    0.7286300000000000    0.3780800000000000 C
   0.9893000000000000    0.8276300000000000    0.3773500000000000 C
   0.8724200000000000    0.9150700000000001    0.3714600000000000 C
   0.7647200000000000    0.8958199999999999    0.3643600000000000 C
   0.7771900000000000    0.7945400000000000    0.3639700000000000 C
   0.9373100000000000    0.1582600000000000    0.3787200000000000 C
   0.0425700000000000    0.1822300000000000    0.3725700000000000 C
   0.0298800000000000    0.2832300000000000    0.3745600000000000 C
   0.8175300000000000    0.3387600000000000    0.3903700000000000 C
   0.8219000000000000    0.2405900000000000    0.3874000000000000 C
   0.8574200000000000    0.0216500000000000    0.3725100000000000 C
   0.9520600000000000    0.0518400000000000    0.3771600000000000 C
   0.4480800000000000    0.3768600000000000    0.4511400000000000 C
   0.3292600000000000    0.4021500000000000    0.4861200000000000 C
   0.4157500000000000    0.3923700000000000    0.6348000000000000 C
   0.5313600000000001    0.3715900000000000    0.5979500000000000 C
   0.4729500000000000    0.3641400000000000    0.3495200000000000 C
   0.2138400000000000    0.4219700000000000    0.4234100000000000 C
   0.7217200000000000    0.2713600000000000    0.1218400000000000 C
   0.8166099999999999    0.1724400000000000    0.1227300000000000 C
   0.7874200000000000    0.0848200000000000    0.1285800000000000 C
   0.6605100000000000    0.1038100000000000    0.1355000000000000 C
   0.5715000000000000    0.2050500000000000    0.1356800000000000 C
   0.0955300000000000    0.8418400000000000    0.1213100000000000 C
   0.2246500000000000    0.8178800000000001    0.1273100000000000 C
   0.3127700000000000    0.7168600000000001    0.1252900000000000 C
   0.1559500000000000    0.6613200000000000    0.1098000000000000 C
   0.0623200000000000    0.7595000000000000    0.1128300000000000 C
   0.8791800000000000    0.9783200000000000    0.1276100000000000 C
   0.0039600000000000    0.9482900000000000    0.1228400000000000 C
   0.0064400000000000    0.2713200000000000    0.6218800000000000 C
   0.0107300000000000    0.1723200000000000    0.6226000000000000 C
   0.1276000000000000    0.0848800000000000    0.6284800000000000 C
   0.2352900000000000    0.1041300000000000    0.6355900000000000 C
   0.2228300000000000    0.2054100000000000    0.6359800000000000 C
   0.0627100000000000    0.8416800000000000    0.6212299999999999 C
   0.9574600000000000    0.8177300000000000    0.6273800000000000 C
   0.9701500000000000    0.7167300000000000    0.6253900000000000 C
   0.1824900000000000    0.6611900000000001    0.6096000000000000 C
   0.1781200000000000    0.7593600000000000    0.6125600000000000 C
   0.1426000000000000    0.9782999999999999    0.6274300000000000 C
   0.0479600000000000    0.9481100000000000    0.6227900000000000 C
   0.5519400000000000    0.6230800000000000    0.5488100000000000 C
   0.6707600000000000    0.5978000000000000    0.5138400000000000 C
   0.5842800000000000    0.6075700000000001    0.3651500000000000 C
   0.4686700000000000    0.6283500000000000    0.4020000000000000 C
   0.5270600000000000    0.6358000000000000    0.6504300000000000 C
   0.7861700000000000    0.5779900000000000    0.5765400000000001 C
   0.2783000000000000    0.7286000000000000    0.8781099999999999 C
   0.1834100000000000    0.8275100000000000    0.8772200000000000 C
   0.2126000000000000    0.9151300000000000    0.8713600000000000 C
   0.3395200000000000    0.8961400000000000    0.8644400000000000 C
   0.4285200000000000    0.7949100000000000    0.8642600000000000 C
   0.9044900000000000    0.1581100000000000    0.8786400000000000 C
   0.7753700000000000    0.1820600000000000    0.8726400000000000 C
   0.6872400000000000    0.2830900000000000    0.8746500000000000 C
   0.8440700000000000    0.3386200000000000    0.8901500000000000 C
   0.9377000000000000    0.2404500000000000    0.8871200000000000 C
   0.1208500000000000    0.0216300000000000    0.8723300000000000 C
   0.9960599999999999    0.0516600000000000    0.8771000000000000 C
   0.9118000000000001    0.6371500000000000    0.9923300000000000 N
   0.7239700000000000    0.5914400000000000    0.9215800000000000 N
   0.8895900000000000    0.7109799999999999    0.3719500000000000 N
   0.9189200000000000    0.3612100000000000    0.3840400000000000 N
   0.5487600000000000    0.3628200000000000    0.5074100000000000 N
   0.3148700000000000    0.4085900000000000    0.5781300000000000 N
   0.6001300000000001    0.2887700000000000    0.1277400000000000 N
   0.2797400000000000    0.6388700000000000    0.1159000000000000 N
   0.1104300000000000    0.2889600000000000    0.6280000000000000 N
   0.0810900000000000    0.6387400000000000    0.6159100000000000 N
   0.4512700000000000    0.6371200000000000    0.4925400000000000 N
   0.6851500000000000    0.5913600000000000    0.4218200000000000 N
   0.3998900000000000    0.7111800000000000    0.8722100000000000 N
   0.7202800000000000    0.3610800000000000    0.8840500000000000 N
   0.8904500000000000    0.5469000000000001    0.2140800000000000 O
   0.8001100000000000    0.7283600000000000    0.1599400000000000 O
   0.6123400000000000    0.6160400000000000    0.1475200000000000 O
   0.5853500000000000    0.5217300000000000    0.0489300000000000 O
   0.4370600000000000    0.4534400000000000    0.2857000000000000 O
   0.5297500000000001    0.2719500000000000    0.3397700000000000 O
   0.2294200000000000    0.3830300000000000    0.3526000000000000 O
   0.1073600000000000    0.4781400000000000    0.4506100000000000 O
   0.5630100000000000    0.5465000000000000    0.7142500000000001 O
   0.4702400000000000    0.7279900000000000    0.6601900000000001 O
   0.7705800000000000    0.6169600000000000    0.6473300000000000 O
   0.8926500000000001    0.5218200000000000    0.5493500000000000 O
