H14 C28 O8
1.0
  17.6143617387249449    0.0000000000000000   -2.0991382844735811
  -2.3109108898179667   17.4441034849232253   -2.0798811183839852
   0.0000000000000000    0.0000000000000000   35.4260000000000019
H C O
14 28 8
direct
   0.4787700000000000    0.8225300000000000    0.1038050000000000 H
   0.6115900000000000    0.8222100000000000    0.0885100000000000 H
   0.5659400000000000    0.9499800000000000    0.2146950000000000 H
   0.6986700000000000    0.9447200000000000    0.1998850000000000 H
   0.3867500000000000    0.8938100000000000    0.1115400000000000 H
   0.3046500000000000    0.8901400000000000    0.0702450000000000 H
   0.2121100000000000    0.8173800000000000    0.2388250000000000 H
   0.1816600000000000    0.8173400000000000    0.3053550000000000 H
   0.4316700000000000    0.9486400000000000    0.2822950000000000 H
   0.4023000000000000    0.9437000000000000    0.3487850000000000 H
   0.2248700000000000    0.8900700000000000    0.1930450000000000 H
   0.1420600000000000    0.8915600000000000    0.1522500000000000 H
   0.4620800000000000    0.8792900000000000    0.2296550000000000 H
   0.0642600000000000    0.8706199999999999    0.0319050000000000 H
   0.6634100000000001    0.8831599999999999    0.1432950000000000 C
   0.5265800000000000    0.8508900000000000    0.1247700000000000 C
   0.6009100000000001    0.8497300000000000    0.1161500000000000 C
   0.5122800000000000    0.8864000000000000    0.1604350000000000 C
   0.5755000000000000    0.9204300000000000    0.1872500000000000 C
   0.6499700000000000    0.9184400000000000    0.1789500000000000 C
   0.7431700000000000    0.8812000000000000    0.1343650000000000 C
   0.2052400000000000    0.8799500000000000    0.0076050000000000 C
   0.4330900000000000    0.8877000000000000    0.1695200000000000 C
   0.3729200000000000    0.8903799999999999    0.1404350000000000 C
   0.1870400000000000    0.8812800000000000    0.0477900000000000 C
   0.2469500000000000    0.8873700000000000    0.0775000000000000 C
   0.2899900000000000    0.8805800000000000    0.3312000000000000 C
   0.2535400000000000    0.8466900000000001    0.2627300000000000 C
   0.2364100000000000    0.8456900000000001    0.2999650000000000 C
   0.3240400000000000    0.8835300000000000    0.2554500000000000 C
   0.3772800000000000    0.9183800000000000    0.2871200000000000 C
   0.3608800000000000    0.9165500000000000    0.3244450000000000 C
   0.2716000000000000    0.8798300000000000    0.3711550000000000 C
   0.0164500000000000    0.8801000000000000    0.1025500000000000 C
   0.3414500000000000    0.8859800000000000    0.2157500000000000 C
   0.2826700000000000    0.8884100000000000    0.1859000000000000 C
   0.0966500000000000    0.8816500000000000    0.0933500000000000 C
   0.1569800000000000    0.8879700000000000    0.1232650000000000 C
   0.4165200000000000    0.8851400000000000    0.2071250000000000 C
   0.2968600000000000    0.8898500000000000    0.1478200000000000 C
   0.2333400000000000    0.8890900000000000    0.1162250000000000 C
   0.1111200000000000    0.8766900000000000    0.0552500000000000 C
   0.7973600000000000    0.9033800000000000    0.1620800000000000 O
   0.2748800000000000    0.9017400000000000    0.0036500000000000 O
   0.7514500000000000    0.8576200000000000    0.0997050000000000 O
   0.3263700000000000    0.9032100000000000    0.3984500000000000 O
   0.9625200000000000    0.8566500000000000    0.0750000000000000 O
   1.0084700000000000    0.9026800000000000    0.1373450000000000 O
   0.2023700000000000    0.8560700000000000    0.3751350000000000 O
   0.1501600000000000    0.8573400000000000    0.9805300000000000 O
