H12 O8
1.0
  17.6143617387249449    0.0000000000000000   -2.0991382844735811
  -2.3109108898179667   17.4441034849232253   -2.0798811183839852
   0.0000000000000000    0.0000000000000000   35.4260000000000019
H O
12 8
direct
   0.1630703111604704    0.8387458787724594    0.3534041890495285 H
   0.3780622804246642    0.9205002013058057    0.3939644321200189 H
   0.2731049341996108    0.8797296497894228    0.3689970167995729 H
   0.1468808418823624    0.8557573766886023    0.9529154935842559 H
   0.2806274016697938    0.9033576783060652   -0.0231451721074972 H
   1.0515406362326136    0.9196530054206634    0.1572473908950426 H
   0.9716325662418646    0.8397733685218732    0.0490747554266825 H
   1.0209015138255033    0.8796566197600414    0.1019773518766753 H
   0.7082970066698570    0.8409961540031502    0.0798105276988858 H
   0.7880051369961590    0.9203410884546634    0.1879540476256217 H
   0.7386792342890003    0.8807743836365232    0.1350268855355118 H
   0.2286700113331250    0.8794376276653875    0.6145055968529481 H
   0.2023700000000000    0.8560700000000000    0.3751350000000000 O
   0.3263700000000000    0.9032100000000000    0.3984500000000000 O
   0.1501600000000000    0.8573400000000000    0.9805300000000000 O
   0.2748800000000000    0.9017400000000000    0.0036500000000000 O
   1.0084700000000000    0.9026800000000000    0.1373450000000000 O
   0.9625200000000000    0.8566500000000000    0.0750000000000000 O
   0.7514500000000000    0.8576200000000000    0.0997050000000000 O
   0.7973600000000000    0.9033800000000000    0.1620800000000000 O
