C5 N5
1.0
  37.2874941844880610    0.0000000000000000    0.0208252675521291
   1.1094036207798033   37.4298010274489172    0.9184361174217028
   0.0000000000000000    0.0000000000000000   39.1500000000000057
C N
5 5
direct
   0.0649420000000000    0.5987040000000000    0.1337700000000000 C
   0.5993860000000000    0.5359100000000000    0.3012400000000000 C
   0.9987880000000000    0.8662580000000001    0.6341466666666666 C
   0.7993860000000002    0.1359100000000000    0.9679066666666666 C
   0.5350680000000001    0.8013360000000000    0.8662466666666666 C
   0.0424320000000000    0.5972120000000001    0.1131100000000000 N
   0.5996240000000000    0.5590740000000001    0.2806733333333333 N
   0.9986900000000001    0.8444140000000000    0.6133166666666666 N
   0.7996240000000001    0.1590740000000000    0.9473400000000000 N
   0.5575640000000001    0.8028400000000000    0.8869199999999999 N
