H6 C16 O8
1.0
  13.5751360375096475    0.0000000000000000    0.6354380875481634
   0.5709741157569139   13.5683114912220333    0.6527846783647084
   0.0000000000000000    0.0000000000000000   27.2079999999999984
H C O
6 16 8
direct
   0.9983500000000000    0.4357300000000000    0.3325000000000000 H
   0.0011000000000000    0.3363000000000000    0.2828500000000000 H
   0.9982300000000000    0.5675600000000000    0.1675800000000000 H
   0.0000000000000000    0.6666666666666666    0.2172250000000000 H
   0.0164300000000000    0.7375500000000000    0.3682750000000000 H
   0.9834000000000001    0.2653900000000000    0.1319950000000000 H
   0.0064500000000000    0.5514800000000000    0.4084600000000000 C
   0.0023000000000000    0.5122800000000000    0.3194500000000000 C
   0.0075800000000000    0.5827500000000000    0.3549800000000000 C
   0.9931700000000000    0.1848000000000000    0.2248400000000000 C
   0.9972600000000000    0.3627500000000000    0.2446250000000000 C
   0.9920200000000000    0.2918200000000000    0.2093500000000000 C
   0.9911700000000000    0.4513600000000000    0.0918200000000000 C
   0.9958100000000000    0.4908900000000000    0.1807450000000000 C
   0.9908500000000000    0.4203000000000000    0.1452800000000000 C
   0.0089900000000000    0.8181800000000000    0.2752200000000000 C
   0.0040300000000000    0.6402900000000000    0.2555250000000000 C
   0.0090500000000000    0.7111900000000000    0.2908300000000000 C
   0.0017800000000000    0.5392700000000000    0.2689500000000000 C
   0.0121100000000000    0.6826600000000000    0.3407500000000000 C
   0.9978900000000001    0.4638600000000000    0.2312150000000000 C
   0.9876500000000000    0.3203200000000000    0.1594600000000000 C
   0.0245000000000000    0.6173600000000000    0.4384000000000000 O
   0.9868700000000000    0.4619500000000000    0.4200550000000000 O
   0.9752300000000000    1.1248800000000001    0.1918750000000000 O
   0.0128100000000000    0.1616800000000000    0.2695450000000000 O
   0.9747700000000000    0.3848500000000000    0.0619000000000000 O
   0.0087400000000000    0.5413700000000000    0.0802350000000000 O
   0.0253000000000000   -0.1217600000000000    0.3083750000000000 O
   0.9917100000000000    0.8412300000000000    0.2302200000000000 O
