Cu12 H30 C80 O40
1.0
  13.5751360375096475    0.0000000000000000    0.6354380875481634
   0.5709741157569139   13.5683114912220333    0.6527846783647084
   0.0000000000000000    0.0000000000000000   27.2079999999999984
Cu H C O
12 30 80 40
direct
   0.0212000000000000    0.0210900000000000    0.2918850000000000 Cu
   0.5838700000000000    0.0215600000000000    0.0096350000000000 Cu
   0.4161900000000000    0.9819099999999999    0.4901800000000000 Cu
   0.9818200000000000    0.9818700000000000    0.2081800000000000 Cu
   0.9786200000000000    0.4171900000000000    0.4903500000000000 Cu
   0.0183600000000000    0.5848100000000001    0.0098800000000000 Cu
   0.0212000000000000    0.0210900000000000    0.7918850000000000 Cu
   0.5838700000000000    0.0215600000000000    0.5096349999999999 Cu
   0.4161900000000000    0.9819099999999999    0.9901800000000001 Cu
   0.9818200000000000    0.9818700000000000    0.7081800000000000 Cu
   0.9786200000000000    0.4171900000000000    0.9903500000000001 Cu
   0.0183600000000000    0.5848100000000001    0.5098800000000000 Cu
   0.6669600000000000    0.0000000000000000    0.2173600000000000 H
   0.4329400000000000    0.6666666666666666    0.0000000000000000 H
   0.5673899999999999    0.0015800000000000    0.1673750000000000 H
   0.3330500000000000    0.5666000000000000    0.0003550000000000 H
   0.3364200000000000    0.0014400000000000    0.2827250000000000 H
   0.5643300000000000    0.3367900000000000    0.4998150000000000 H
   0.4354000000000000    0.0000000000000000    0.3323800000000000 H
   0.6634200000000000    0.4360500000000000    0.0000000000000000 H
   0.7375000000000000    0.0157600000000000    0.3684700000000000 H
   0.7354500000000000    0.7380600000000000    0.0079450000000000 H
   0.2649400000000000    0.9876900000000000    0.1317150000000000 H
   0.2623100000000000    0.2642400000000000    0.4918500000000000 H
   0.9983500000000000    0.4357300000000000    0.8325000000000000 H
   0.6669600000000000    0.0000000000000000    0.7173600000000000 H
   0.4329400000000000    0.6666666666666666    0.5000000000000000 H
   0.5673899999999999    0.0015800000000000    0.6673750000000001 H
   0.0011000000000000    0.3363000000000000    0.7828500000000000 H
   0.3330500000000000    0.5666000000000000    0.5003550000000000 H
   0.9982300000000000    0.5675600000000000    0.6675800000000001 H
   0.3364200000000000    0.0014400000000000    0.7827250000000000 H
   0.5643300000000000    0.3367900000000000    0.9998150000000000 H
   0.4354000000000000    0.0000000000000000    0.8323800000000000 H
   0.0000000000000000    0.6666666666666666    0.7172250000000000 H
   0.6634200000000000    0.4360500000000000    0.5000000000000000 H
   0.0164300000000000    0.7375500000000000    0.8682750000000000 H
   0.7375000000000000    0.0157600000000000    0.8684700000000001 H
   0.7354500000000000    0.7380600000000000    0.5079450000000000 H
   0.2649400000000000    0.9876900000000000    0.6317150000000000 H
   0.9834000000000001    0.2653900000000000    0.6319950000000000 H
   0.2623100000000000    0.2642400000000000    0.9918500000000000 H
   0.8183400000000000    0.0072900000000000    0.2755250000000000 C
   0.6404300000000001    0.0034300000000000    0.2556000000000000 C
   0.7113000000000000    0.0080000000000000    0.2910150000000000 C
   0.5495600000000000    0.8184000000000000    0.0040100000000000 C
   0.5095100000000000    0.6404100000000000    0.0018150000000000 C
   0.5803800000000000    0.7114300000000000    0.0042500000000000 C
   0.4507600000000000    0.9953200000000000    0.0915800000000000 C
   0.4907500000000000    0.9988300000000000    0.1805350000000000 C
   0.4199700000000000    0.9946300000000000    0.1450550000000000 C
   0.1815600000000000    0.4499200000000000    0.4965300000000000 C
   0.3595200000000000    0.4901400000000000    0.4986000000000000 C
   0.2886200000000000    0.4192000000000000    0.4960800000000000 C
   0.1847300000000000    0.9953400000000000    0.2247400000000000 C
   0.3627700000000000    0.9987900000000000    0.2444500000000000 C
   0.2916700000000000    0.9946100000000000    0.2091500000000000 C
   0.4487800000000000    0.1847500000000000    0.4960700000000000 C
   0.4876900000000000    0.3628300000000000    0.4983550000000000 C
   0.4172300000000000    0.2915200000000000    0.4958250000000000 C
   0.5510400000000000    0.0078600000000000    0.4083500000000000 C
   0.5121000000000000    0.0037200000000000    0.3193350000000000 C
   0.5825600000000000    0.0082700000000000    0.3549400000000000 C
   0.8153400000000000    0.5518999999999999    0.0036500000000000 C
   0.6372100000000001    0.5125900000000000    0.0016150000000000 C
   0.7084400000000000    0.5831700000000000    0.0040350000000000 C
   0.5392700000000000    0.0026100000000000    0.2688750000000000 C
   0.6826300000000000    0.0117200000000000    0.3409050000000000 C
   0.5361900000000001    0.5394200000000000    0.0010550000000000 C
   0.6803000000000000    0.6830600000000000    0.0059350000000000 C
   0.4638500000000000    0.9997200000000001    0.2310000000000000 C
   0.3199800000000000    0.9913200000000000    0.1592200000000000 C
   0.4606400000000000    0.4637200000000000    0.4991650000000000 C
   0.3172100000000000    0.3194400000000000    0.4940250000000000 C
   0.0064500000000000    0.5514800000000000    0.9084600000000000 C
   0.0023000000000000    0.5122800000000000    0.8194500000000000 C
   0.0075800000000000    0.5827500000000000    0.8549800000000001 C
   0.8183400000000000    0.0072900000000000    0.7755250000000000 C
   0.6404300000000001    0.0034300000000000    0.7556000000000000 C
   0.7113000000000000    0.0080000000000000    0.7910150000000000 C
   0.5495600000000000    0.8184000000000000    0.5040100000000000 C
   0.5095100000000000    0.6404100000000000    0.5018150000000000 C
   0.5803800000000000    0.7114300000000000    0.5042500000000000 C
   0.4507600000000000    0.9953200000000000    0.5915800000000000 C
   0.4907500000000000    0.9988300000000000    0.6805350000000000 C
   0.4199700000000000    0.9946300000000000    0.6450549999999999 C
   0.9931700000000000    0.1848000000000000    0.7248400000000000 C
   0.9972600000000000    0.3627500000000000    0.7446250000000000 C
   0.9920200000000000    0.2918200000000000    0.7093500000000000 C
   0.1815600000000000    0.4499200000000000    0.9965300000000000 C
   0.3595200000000000    0.4901400000000000    0.9985999999999999 C
   0.2886200000000000    0.4192000000000000    0.9960800000000001 C
   0.9911700000000000    0.4513600000000000    0.5918200000000000 C
   0.9958100000000000    0.4908900000000000    0.6807449999999999 C
   0.9908500000000000    0.4203000000000000    0.6452800000000000 C
   0.1847300000000000    0.9953400000000000    0.7247399999999999 C
   0.3627700000000000    0.9987900000000000    0.7444500000000001 C
   0.2916700000000000    0.9946100000000000    0.7091499999999999 C
   0.4487800000000000    0.1847500000000000    0.9960700000000000 C
   0.4876900000000000    0.3628300000000000    0.9983550000000000 C
   0.4172300000000000    0.2915200000000000    0.9958250000000000 C
   0.5510400000000000    0.0078600000000000    0.9083500000000000 C
   0.5121000000000000    0.0037200000000000    0.8193349999999999 C
   0.5825600000000000    0.0082700000000000    0.8549400000000000 C
   0.0089900000000000    0.8181800000000000    0.7752200000000000 C
   0.0040300000000000    0.6402900000000000    0.7555250000000000 C
   0.0090500000000000    0.7111900000000000    0.7908299999999999 C
   0.8153400000000000    0.5518999999999999    0.5036500000000000 C
   0.6372100000000001    0.5125900000000000    0.5016150000000000 C
   0.7084400000000000    0.5831700000000000    0.5040350000000000 C
   0.0017800000000000    0.5392700000000000    0.7689500000000000 C
   0.0121100000000000    0.6826600000000000    0.8407500000000000 C
   0.5392700000000000    0.0026100000000000    0.7688750000000000 C
   0.6826300000000000    0.0117200000000000    0.8409050000000000 C
   0.5361900000000001    0.5394200000000000    0.5010550000000000 C
   0.6803000000000000    0.6830600000000000    0.5059350000000000 C
   0.4638500000000000    0.9997200000000001    0.7310000000000000 C
   0.3199800000000000    0.9913200000000000    0.6592200000000000 C
   0.9978900000000001    0.4638600000000000    0.7312149999999999 C
   0.9876500000000000    0.3203200000000000    0.6594599999999999 C
   0.4606400000000000    0.4637200000000000    0.9991650000000001 C
   0.3172100000000000    0.3194400000000000    0.9940249999999999 C
   0.8783400000000000    0.0254100000000000    0.3084400000000000 O
   0.8414500000000000    0.9879100000000000    0.2308150000000000 O
   0.6162200000000000    0.8784700000000000    0.0119550000000000 O
   0.4594800000000000    0.8413800000000000    0.4954200000000000 O
   0.3839900000000000    0.9791400000000000    0.0617400000000000 O
   0.5407900000000000    0.0127300000000000    0.0799150000000000 O
   0.1214800000000000    0.3838900000000000    0.4876100000000000 O
   0.1585600000000000    0.5393900000000000    0.0062300000000000 O
   0.1246000000000000    0.9791900000000000    0.1915650000000000 O
   0.1618600000000000    0.0127200000000000    0.2697150000000000 O
   0.3830000000000000    0.1244800000000000    0.4870750000000000 O
   0.5383800000000000    0.1620800000000000    0.0057300000000000 O
   0.6168700000000000    0.0263000000000000    0.4383000000000000 O
   0.4614800000000000    0.9883800000000000    0.4199000000000000 O
   0.8756400000000000    0.6181500000000000    0.0118500000000000 O
   0.8380400000000000    0.4619800000000000    0.4947600000000000 O
   0.0245000000000000    0.6173600000000000    0.9384000000000000 O
   0.9868700000000000    0.4619500000000000    0.9200550000000001 O
   0.8783400000000000    0.0254100000000000    0.8084400000000000 O
   0.8414500000000000    0.9879100000000000    0.7308150000000000 O
   0.6162200000000000    0.8784700000000000    0.5119550000000000 O
   0.4594800000000000    0.8413800000000000    0.9954200000000000 O
   0.3839900000000000    0.9791400000000000    0.5617400000000000 O
   0.5407900000000000    0.0127300000000000    0.5799150000000000 O
   0.9752300000000000    0.1248800000000000    0.6918750000000000 O
   0.0128100000000000    0.1616800000000000    0.7695449999999999 O
   0.1214800000000000    0.3838900000000000    0.9876100000000000 O
   0.1585600000000000    0.5393900000000000    0.5062300000000000 O
   0.9747700000000000    0.3848500000000000    0.5619000000000000 O
   0.0087400000000000    0.5413700000000000    0.5802350000000001 O
   0.1246000000000000    0.9791900000000000    0.6915650000000000 O
   0.1618600000000000    0.0127200000000000    0.7697149999999999 O
   0.3830000000000000    0.1244800000000000    0.9870749999999999 O
   0.5383800000000000    0.1620800000000000    0.5057300000000000 O
   0.6168700000000000    0.0263000000000000    0.9383000000000000 O
   0.4614800000000000    0.9883800000000000    0.9198999999999999 O
   0.0253000000000000    0.8782400000000000    0.8083750000000001 O
   0.9917100000000000    0.8412300000000000    0.7302200000000000 O
   0.8756400000000000    0.6181500000000000    0.5118500000000000 O
   0.8380400000000000    0.4619800000000000    0.9947600000000000 O
