H10 C12 N2
1.0
  12.9172795861919685    0.0000000000000000   -1.4642022032998880
  -0.0460895389794587   18.3428535775433588   -0.0569858508888306
   0.0000000000000000    0.0000000000000000   37.5020000000000024
H C N
10 12 2
direct
   0.4781600000000000    0.6119900000000000    0.6728800000000000 H
   0.3347500000000000    0.6010900000000000    0.7108750000000000 H
   0.4282000000000000    0.3771100000000000    0.7309150000000000 H
   0.5654000000000000    0.3966700000000000    0.6904000000000000 H
   0.2938900000000000    0.4256600000000000    0.7634500000000000 H
   0.0215800000000000    0.3879100000000000    0.8276100000000000 H
   0.1634400000000000    0.3986900000000000    0.7889650000000000 H
   0.0716300000000000    0.6233400000000000    0.7701000000000000 H
   0.9358900000000000    0.6038100000000000    0.8111450000000000 H
   0.2048000000000000    0.5745500000000000    0.7368749999999999 H
   0.4627100000000000    0.5606200000000000    0.6857650000000000 C
   0.3837100000000000    0.5541600000000000    0.7073400000000000 C
   0.3678600000000000    0.4873100000000000    0.7243400000000000 C
   0.4353800000000000    0.4299300000000000    0.7181900000000000 C
   0.5122700000000000    0.4401700000000000    0.6958450000000000 C
   0.2878100000000000    0.4762200000000000    0.7480000000000000 C
   0.0371400000000000    0.4394100000000000    0.8148650000000000 C
   0.1152400000000000    0.4458200000000000    0.7929150000000000 C
   0.1312200000000000    0.5128300000000000    0.7761000000000000 C
   0.0644600000000000    0.5703900000000000    0.7826949999999999 C
   0.9884200000000000    0.5601900000000000    0.8053750000000000 C
   0.2109000000000000    0.5239400000000000    0.7522900000000000 C
   0.5263800000000000    0.5046800000000000    0.6797100000000000 N
   0.9744100000000000    0.4955600000000000    0.8214250000000001 N
