H8 C10 O4
1.0
  12.9172795861919685    0.0000000000000000   -1.4642022032998880
  -0.0460895389794587   18.3428535775433588   -0.0569858508888306
   0.0000000000000000    0.0000000000000000   37.5020000000000024
H C O
8 10 4
direct
   0.5775800000000000    0.7814400000000000    0.8852650000000000 H
   0.4772400000000000    0.7296300000000000    0.9014800000000001 H
   0.5782100000000000    0.8116700000000000    0.8241100000000000 H
   0.5045700000000000    0.7978800000000000    0.7604750000000000 H
   0.3274000000000000    0.7438399999999999    0.7458700000000000 H
   0.2289300000000000    0.7038300000000000    0.7953450000000000 H
   0.2019600000000000    0.7072800000000000    0.8563149999999999 H
   0.2943600000000000    0.7431300000000000    0.8905799999999999 H
   0.4533900000000000    0.8455200000000000    0.9011650000000000 C
   0.4929800000000000    0.7758100000000000    0.8843700000000000 C
   0.4467600000000000    0.7647200000000000    0.8458850000000000 C
   0.5017000000000000    0.7872300000000000    0.8177000000000000 C
   0.4602200000000000    0.7798800000000000    0.7818700000000001 C
   0.3614700000000000    0.7497500000000000    0.7736850000000000 C
   0.3059700000000000    0.7274600000000000    0.8015200000000000 C
   0.3468100000000000    0.7344800000000000    0.8376250000000001 C
   0.2845700000000000    0.7078800000000000    0.8667650000000000 C
   0.3126800000000000    0.6295800000000000    0.8788000000000000 C
   0.4219800000000000    0.8440700000000000    0.9313199999999999 O
   0.4575100000000000    0.9031900000000000    0.8811650000000000 O
   0.3378000000000000    0.6154300000000000    0.9110250000000000 O
   0.3062100000000000    0.5826200000000000    0.8524499999999999 O
