H6 O4
1.0
  15.1349999792532692    0.0000000000000000   -0.0007924667465063
  -0.0132753202508479   14.3519888238972637    0.0120235019973940
   0.0000000000000000    0.0000000000000000   21.1060000000000016
H O
6 4
direct
   0.7471189343466369    0.0436331590454571    0.2126963066124126 H
   0.7531677955803596    0.2996318150739936    0.1383273449723105 H
   0.7501585213539197    0.1750477306903574    0.1803540243796228 H
   0.7529533823238718    0.2238263284072796    0.4844598499195316 H
   0.7467756004074211    0.4861059748998626    0.4118074817982311 H
   0.7497742151977831    0.3570623384365210    0.4440915260983667 H
   0.7484200000000000    0.0885800000000000    0.1783600000000000 O
   0.7518100000000000    0.2321000000000000    0.1367700000000000 O
   0.7515600000000000    0.2913300000000000    0.4824000000000000 O
   0.7481700000000000    0.4347800000000000    0.4417200000000000 O
