H4 C4 N2
1.0
  15.1349999792532692    0.0000000000000000   -0.0007924667465063
  -0.0132753202508479   14.3519888238972637    0.0120235019973940
   0.0000000000000000    0.0000000000000000   21.1060000000000016
H C N
4 4 2
direct
   0.4149700000000000    0.0308100000000000    0.8865300000000000 H
   0.4155000000000000    0.7795200000000000    0.9842300000000000 H
   0.5834200000000000    0.0312900000000000    0.8862100000000001 H
   0.5844800000000000    0.7799400000000000    0.9838700000000000 H
   0.4533700000000000    0.9753800000000000    0.9086500000000000 C
   0.4537800000000000    0.8357900000000000    0.9628300000000000 C
   0.5454200000000000    0.9756200000000000    0.9084900000000000 C
   0.5458200000000000    0.8359900000000000    0.9626300000000000 C
   0.4079500000000000    0.9060100000000000    0.9364600000000000 N
   0.5912600000000000    0.9064800000000000    0.9361000000000000 N
