H3 C8 N1 O6
1.0
  15.1349999792532692    0.0000000000000000   -0.0007924667465063
  -0.0132753202508479   14.3519888238972637    0.0120235019973940
   0.0000000000000000    0.0000000000000000   21.1060000000000016
H C N O
3 8 1 6
direct
   0.7499600000000000    0.1638800000000000    0.4074000000000000 H
   0.7496800000000000    0.4345400000000000    0.3184400000000000 H
   0.7500700000000000    0.3584600000000000    0.2129000000000000 H
   0.7499300000000000    0.2191200000000000    0.2493100000000000 C
   0.7498000000000000    0.1659600000000000    0.3051200000000000 C
   0.7498700000000000    0.2064600000000000    0.3647800000000000 C
   0.7498400000000000    0.3038800000000000    0.3700900000000000 C
   0.7497700000000000    0.3588100000000000    0.3151100000000000 C
   0.7499500000000000    0.3163800000000000    0.2557800000000000 C
   0.7500800000000000    0.1774200000000000    0.1840100000000000 C
   0.7499100000000000    0.3463000000000000    0.4349200000000000 C
   0.7496900000000000    0.0627900000000000    0.3040300000000000 N
   0.8226100000000000    0.0236500000000000    0.3054100000000000 O
   0.6767300000000001    0.0236400000000000    0.3055900000000000 O
   0.7484200000000000    0.0885800000000000    0.1783600000000000 O
   0.7518100000000000    0.2321000000000000    0.1367700000000000 O
   0.7481700000000000    0.4347800000000000    0.4417200000000000 O
   0.7515600000000000    0.2913300000000000    0.4824000000000000 O
