H4 C8 O4
1.0
  31.3783682284274548    0.0000000000000000   -7.6776574110346072
   0.0098388913548943   32.7719205315204078    0.0714973560908822
   0.0000000000000000    0.0000000000000000   34.5940000000000012
H C O
4 8 4
direct
   0.4571750000000000    0.5780850000000000    0.7821850000000000 H
   0.3915950000000000    0.7164500000000000    0.7741850000000000 H
   0.3462300000000000    0.6538450000000000    0.7692099999999999 H
   0.5000000000000000    0.6406200000000000    0.7896150000000000 H
   0.3723500000000000    0.5749450000000000    0.7745649999999999 C
   0.3990500000000000    0.6123950000000000    0.7755950000000000 C
   0.4433250000000000    0.6085000000000000    0.7809250000000000 C
   0.4688250000000000    0.6431600000000000    0.7849650000000000 C
   0.4503850000000000    0.6822250000000000    0.7827500000000001 C
   0.4788800000000000    0.7187450000000000    0.7870400000000000 C
   0.4059800000000000    0.6861699999999999    0.7763300000000000 C
   0.3806100000000000    0.6514000000000000    0.7732450000000000 C
   0.3887700000000000    0.5398650000000000    0.7766050000000000 O
   0.3322300000000000    0.5798650000000000    0.7736050000000000 O
   0.4640250000000000    0.7535499999999999    0.7732200000000000 O
   0.5177350000000001    0.7136250000000000    0.8052049999999999 O
