Zn80 H953 C1400 N64 O376
1.0
  31.3783682284274548    0.0000000000000000   -7.6776574110346072
   0.0098388913548943   32.7719205315204078    0.0714973560908822
   0.0000000000000000    0.0000000000000000   34.5940000000000012
Zn H C N O
80 953 1400 64 376
direct
   0.6824050000000000    0.9792500000000000    0.7198200000000000 Zn
   0.5675650000000000    0.2291850000000000    0.7799400000000001 Zn
   0.6824050000000000    0.4792500000000000    0.7198200000000000 Zn
   0.5675650000000000    0.7291850000000000    0.7799400000000001 Zn
   0.1824050000000000    0.9792500000000000    0.7198200000000000 Zn
   0.0675650000000000    0.2291850000000000    0.7799400000000001 Zn
   0.1824050000000000    0.4792500000000000    0.7198200000000000 Zn
   0.0675650000000000    0.7291850000000000    0.7799400000000001 Zn
   0.3176250000000000    0.0207350000000000    0.7799499999999999 Zn
   0.4322900000000000    0.7708550000000001    0.7184550000000001 Zn
   0.3176250000000000    0.5207349999999999    0.7799499999999999 Zn
   0.4322900000000000    0.2708550000000000    0.7184550000000001 Zn
   0.7240300000000000    0.2550950000000000    0.0869900000000000 Zn
   0.7754799999999999    0.2448500000000000    0.4117950000000000 Zn
   0.4742900000000000    0.4947500000000000    0.5871700000000000 Zn
   0.5246850000000000    0.5052100000000000    0.9116500000000001 Zn
   0.2240300000000000    0.2550950000000000    0.0869900000000000 Zn
   0.2754800000000000    0.2448500000000000    0.4117950000000000 Zn
   0.9742900000000000    0.4947500000000000    0.5871700000000000 Zn
   0.0246850000000000    0.5052100000000000    0.9116500000000001 Zn
   0.7240300000000000    0.7550950000000001    0.0869900000000000 Zn
   0.7754799999999999    0.7448500000000000    0.4117950000000000 Zn
   0.4742900000000000    0.9947500000000000    0.5871700000000000 Zn
   0.5246850000000000    0.0052100000000000    0.9116500000000001 Zn
   0.2240300000000000    0.7550950000000001    0.0869900000000000 Zn
   0.2754800000000000    0.7448500000000000    0.4117950000000000 Zn
   0.9742900000000000    0.9947500000000000    0.5871700000000000 Zn
   0.0246850000000000    0.0052100000000000    0.9116500000000001 Zn
   0.8176250000000000    0.0207350000000000    0.7799499999999999 Zn
   0.9322900000000001    0.7708550000000001    0.7184550000000001 Zn
   0.8176250000000000    0.5207349999999999    0.7799499999999999 Zn
   0.9322900000000001    0.2708550000000000    0.7184550000000001 Zn
   0.6824050000000000    0.9792500000000000    0.2198200000000000 Zn
   0.5675650000000000    0.2291850000000000    0.2799400000000000 Zn
   0.6824050000000000    0.4792500000000000    0.2198200000000000 Zn
   0.5675650000000000    0.7291850000000000    0.2799400000000000 Zn
   0.1824050000000000    0.9792500000000000    0.2198200000000000 Zn
   0.0675650000000000    0.2291850000000000    0.2799400000000000 Zn
   0.1824050000000000    0.4792500000000000    0.2198200000000000 Zn
   0.0675650000000000    0.7291850000000000    0.2799400000000000 Zn
   0.8176250000000000    0.0207350000000000    0.2799500000000000 Zn
   0.9322900000000001    0.7708550000000001    0.2184550000000000 Zn
   0.8176250000000000    0.5207349999999999    0.2799500000000000 Zn
   0.9322900000000001    0.2708550000000000    0.2184550000000000 Zn
   0.7240300000000000    0.2550950000000000    0.5869900000000000 Zn
   0.7754799999999999    0.2448500000000000    0.9117950000000000 Zn
   0.4742900000000000    0.4947500000000000    0.0871700000000000 Zn
   0.5246850000000000    0.5052100000000000    0.4116500000000000 Zn
   0.2240300000000000    0.2550950000000000    0.5869900000000000 Zn
   0.2754800000000000    0.2448500000000000    0.9117950000000000 Zn
   0.9742900000000000    0.4947500000000000    0.0871700000000000 Zn
   0.0246850000000000    0.5052100000000000    0.4116500000000000 Zn
   0.7240300000000000    0.7550950000000001    0.5869900000000000 Zn
   0.7754799999999999    0.7448500000000000    0.9117950000000000 Zn
   0.4742900000000000    0.9947500000000000    0.0871700000000000 Zn
   0.5246850000000000    0.0052100000000000    0.4116500000000000 Zn
   0.2240300000000000    0.7550950000000001    0.5869900000000000 Zn
   0.2754800000000000    0.7448500000000000    0.9117950000000000 Zn
   0.9742900000000000    0.9947500000000000    0.0871700000000000 Zn
   0.0246850000000000    0.0052100000000000    0.4116500000000000 Zn
   0.3176250000000000    0.0207350000000000    0.2799500000000000 Zn
   0.4322900000000000    0.7708550000000001    0.2184550000000000 Zn
   0.3176250000000000    0.5207349999999999    0.2799500000000000 Zn
   0.4322900000000000    0.2708550000000000    0.2184550000000000 Zn
   0.5000050000000000    0.0001400000000000    0.9998350000000000 Zn
   0.5000050000000000    0.0001400000000000    0.4998350000000000 Zn
   0.0000050000000000    0.0001400000000000    0.9998350000000000 Zn
   0.0000050000000000    0.0001400000000000    0.4998350000000000 Zn
   0.0000050000000000    0.5001400000000000    0.9998350000000000 Zn
   0.0000050000000000    0.5001400000000000    0.4998350000000000 Zn
   0.5000050000000000    0.5001400000000000    0.9998350000000000 Zn
   0.5000050000000000    0.5001400000000000    0.4998350000000000 Zn
   0.7499800000000000    0.7500249999999999    0.4997850000000000 Zn
   0.7499800000000000    0.2500250000000000    0.4997850000000000 Zn
   0.2499800000000000    0.7500249999999999    0.4997850000000000 Zn
   0.7499800000000000    0.2500250000000000    0.9997849999999999 Zn
   0.2499800000000000    0.2500250000000000    0.9997849999999999 Zn
   0.2499800000000000    0.2500250000000000    0.4997850000000000 Zn
   0.7499800000000000    0.7500249999999999    0.9997849999999999 Zn
   0.2499800000000000    0.7500249999999999    0.9997849999999999 Zn
   0.7074650000000000    0.1720200000000000    0.7813850000000000 H
   0.7536650000000000    0.1095150000000000    0.7892300000000000 H
   0.5967900000000000    0.0962550000000000    0.7703750000000000 H
   0.6421650000000000    0.0336750000000000    0.7755600000000000 H
   0.5425650000000000    0.4219050000000000    0.7171000000000000 H
   0.4964350000000000    0.3593550000000000    0.7092499999999999 H
   0.6535000000000000    0.3462200000000000    0.7296199999999999 H
   0.6081550000000000    0.2835850000000000    0.7243600000000000 H
   0.7074650000000000    0.6720200000000001    0.7813850000000000 H
   0.7536650000000000    0.6095150000000000    0.7892300000000000 H
   0.5967900000000000    0.5962550000000000    0.7703750000000000 H
   0.6421650000000000    0.5336750000000000    0.7755600000000000 H
   0.5425650000000000    0.9219050000000000    0.7171000000000000 H
   0.4964350000000000    0.8593550000000000    0.7092499999999999 H
   0.6535000000000000    0.8462200000000000    0.7296199999999999 H
   0.6081550000000000    0.7835850000000000    0.7243600000000000 H
   0.2074650000000000    0.1720200000000000    0.7813850000000000 H
   0.2536650000000000    0.1095150000000000    0.7892300000000000 H
   0.0967900000000000    0.0962550000000000    0.7703750000000000 H
   0.1421650000000000    0.0336750000000000    0.7755600000000000 H
   0.0425650000000000    0.4219050000000000    0.7171000000000000 H
   0.9964350000000000    0.3593550000000000    0.7092499999999999 H
   0.1535000000000000    0.3462200000000000    0.7296199999999999 H
   0.1081550000000000    0.2835850000000000    0.7243600000000000 H
   0.2074650000000000    0.6720200000000001    0.7813850000000000 H
   0.2536650000000000    0.6095150000000000    0.7892300000000000 H
   0.0967900000000000    0.5962550000000000    0.7703750000000000 H
   0.1421650000000000    0.5336750000000000    0.7755600000000000 H
   0.0425650000000000    0.9219050000000000    0.7171000000000000 H
   0.9964350000000000    0.8593550000000000    0.7092499999999999 H
   0.1535000000000000    0.8462200000000000    0.7296199999999999 H
   0.1081550000000000    0.7835850000000000    0.7243600000000000 H
   0.2925200000000000    0.8279449999999999    0.7175549999999999 H
   0.2463300000000000    0.8904449999999999    0.7101300000000000 H
   0.4031500000000000    0.9037750000000000    0.7286000000000000 H
   0.3578000000000000    0.9663300000000000    0.7238950000000000 H
   0.5000000000000000    0.6406200000000000    0.7896150000000000 H
   0.4571750000000000    0.5780850000000000    0.7821850000000000 H
   0.3462300000000000    0.6538450000000000    0.7692099999999999 H
   0.3915950000000000    0.7164500000000000    0.7741850000000000 H
   0.2925200000000000    0.3279450000000000    0.7175549999999999 H
   0.2463300000000000    0.3904450000000000    0.7101300000000000 H
   0.4031500000000000    0.4037750000000000    0.7286000000000000 H
   0.3578000000000000    0.4663300000000000    0.7238950000000000 H
   0.5000000000000000    0.1406200000000000    0.7896150000000000 H
   0.4571750000000000    0.0780850000000000    0.7821850000000000 H
   0.3462300000000000    0.1538450000000000    0.7692099999999999 H
   0.3915950000000000    0.2164500000000000    0.7741850000000000 H
   0.7326350000000000    0.3513350000000000    0.3238650000000000 H
   0.7355500000000000    0.3998850000000000    0.3009750000000000 H
   0.7751749999999999    0.4520300000000000    0.3062100000000000 H
   0.9022399999999999    0.4844300000000000    0.3209750000000000 H
   0.9272800000000000    0.4182450000000000    0.3537100000000000 H
   0.8726900000000000    0.3643050000000000    0.3586800000000000 H
   0.7620150000000000    0.3521500000000000    0.4032700000000000 H
   0.7443900000000000    0.3826050000000000    0.4623900000000000 H
   0.6911950000000000    0.4875200000000000    0.3922950000000000 H
   0.7079350000000000    0.4562550000000000    0.3330350000000000 H
   0.7582200000000000    0.4277000000000000    0.5103450000000000 H
   0.7402350000000000    0.4578650000000000    0.5692699999999999 H
   0.6512150000000000    0.4901350000000000    0.4349750000000000 H
   0.6351599999999999    0.5219700000000000    0.4933100000000000 H
   0.5490000000000000    0.4382250000000000    0.6206900000000000 H
   0.6249450000000000    0.4163600000000000    0.6470800000000000 H
   0.7036750000000001    0.5000000000000000    0.5973200000000000 H
   0.6832199999999999    0.4521250000000000    0.6240300000000000 H
   0.5945650000000000    0.5272200000000000    0.5485750000000000 H
   0.6658400000000000    0.5432200000000000    0.5655000000000000 H
   0.2326350000000000    0.3513350000000000    0.3238650000000000 H
   0.2355500000000000    0.3998850000000000    0.3009750000000000 H
   0.2751750000000000    0.4520300000000000    0.3062100000000000 H
   0.4022400000000000    0.4844300000000000    0.3209750000000000 H
   0.4272800000000000    0.4182450000000000    0.3537100000000000 H
   0.3726900000000000    0.3643050000000000    0.3586800000000000 H
   0.2620150000000000    0.3521500000000000    0.4032700000000000 H
   0.2443900000000000    0.3826050000000000    0.4623900000000000 H
   0.1911950000000000    0.4875200000000000    0.3922950000000000 H
   0.2079350000000000    0.4562550000000000    0.3330350000000000 H
   0.2582200000000000    0.4277000000000000    0.5103450000000000 H
   0.2402350000000000    0.4578650000000000    0.5692699999999999 H
   0.1512150000000000    0.4901350000000000    0.4349750000000000 H
   0.1351600000000000    0.5219700000000000    0.4933100000000000 H
   0.0490000000000000    0.4382250000000000    0.6206900000000000 H
   0.1249450000000000    0.4163600000000000    0.6470800000000000 H
   0.2036750000000000    0.5000000000000000    0.5973200000000000 H
   0.1832200000000000    0.4521250000000000    0.6240300000000000 H
   0.0945650000000000    0.5272200000000000    0.5485750000000000 H
   0.1658400000000000    0.5432200000000000    0.5655000000000000 H
   0.7326350000000000    0.8513350000000000    0.3238650000000000 H
   0.7355500000000000    0.8998850000000000    0.3009750000000000 H
   0.7751749999999999    0.9520299999999999    0.3062100000000000 H
   0.9022399999999999    0.9844300000000000    0.3209750000000000 H
   0.9272800000000000    0.9182450000000000    0.3537100000000000 H
   0.8726900000000000    0.8643050000000000    0.3586800000000000 H
   0.7620150000000000    0.8521500000000000    0.4032700000000000 H
   0.7443900000000000    0.8826050000000000    0.4623900000000000 H
   0.6911950000000000    0.9875200000000000    0.3922950000000000 H
   0.7079350000000000    0.9562550000000001    0.3330350000000000 H
   0.7582200000000000    0.9277000000000000    0.5103450000000000 H
   0.7402350000000000    0.9578650000000000    0.5692699999999999 H
   0.6512150000000000    0.9901350000000000    0.4349750000000000 H
   0.6351599999999999    0.0219700000000000    0.4933100000000000 H
   0.5490000000000000    0.9382250000000000    0.6206900000000000 H
   0.6249450000000000    0.9163600000000001    0.6470800000000000 H
   0.7036750000000001    0.0000000000000000    0.5973200000000000 H
   0.6832199999999999    0.9521250000000000    0.6240300000000000 H
   0.5945650000000000    0.0272200000000000    0.5485750000000000 H
   0.6658400000000000    0.0432200000000000    0.5655000000000000 H
   0.2326350000000000    0.8513350000000000    0.3238650000000000 H
   0.2355500000000000    0.8998850000000000    0.3009750000000000 H
   0.2751750000000000    0.9520299999999999    0.3062100000000000 H
   0.4022400000000000    0.9844300000000000    0.3209750000000000 H
   0.4272800000000000    0.9182450000000000    0.3537100000000000 H
   0.3726900000000000    0.8643050000000000    0.3586800000000000 H
   0.2620150000000000    0.8521500000000000    0.4032700000000000 H
   0.2443900000000000    0.8826050000000000    0.4623900000000000 H
   0.1911950000000000    0.9875200000000000    0.3922950000000000 H
   0.2079350000000000    0.9562550000000001    0.3330350000000000 H
   0.2582200000000000    0.9277000000000000    0.5103450000000000 H
   0.2402350000000000    0.9578650000000000    0.5692699999999999 H
   0.1512150000000000    0.9901350000000000    0.4349750000000000 H
   0.1351600000000000    0.0219700000000000    0.4933100000000000 H
   0.0490000000000000    0.9382250000000000    0.6206900000000000 H
   0.1249450000000000    0.9163600000000001    0.6470800000000000 H
   0.2036750000000000    0.0000000000000000    0.5973200000000000 H
   0.1832200000000000    0.9521250000000000    0.6240300000000000 H
   0.0945650000000000    0.0272200000000000    0.5485750000000000 H
   0.1658400000000000    0.0432200000000000    0.5655000000000000 H
   0.0463150000000000    0.2608950000000000    0.4019750000000000 H
   0.0840950000000000    0.2929950000000000    0.4332250000000000 H
   0.2011000000000000    0.1882750000000000    0.3787900000000000 H
   0.1252100000000000    0.1663000000000000    0.3525100000000000 H
   0.0668750000000000    0.2018500000000000    0.3755500000000000 H
   0.1554200000000000    0.2770200000000000    0.4507050000000000 H
   0.0170600000000000    0.1011000000000000    0.6759150000000000 H
   0.0142000000000000    0.1496050000000000    0.6987000000000000 H
   0.9746049999999999    0.2020200000000000    0.6927000000000000 H
   0.8475650000000000    0.2346050000000000    0.6779650000000000 H
   0.8224500000000000    0.1683150000000000    0.6458699999999999 H
   0.8769750000000001    0.1142050000000000    0.6413000000000000 H
   0.0984050000000000    0.2402700000000000    0.5644700000000000 H
   0.1145650000000000    0.2720350000000000    0.5000000000000000 H
   0.9917650000000000    0.1774950000000000    0.4892650000000000 H
   0.0098900000000000    0.2075250000000000    0.4302450000000000 H
   0.0052600000000000    0.1326400000000000    0.5373400000000000 H
   0.9875849999999999    0.1021150000000000    0.5965150000000000 H
   0.0586550000000000    0.2373350000000000    0.6072150000000001 H
   0.0418950000000000    0.2059900000000000    0.6665300000000001 H
   0.0463150000000000    0.7608950000000000    0.4019750000000000 H
   0.0840950000000000    0.7929950000000000    0.4332250000000000 H
   0.2011000000000000    0.6882750000000000    0.3787900000000000 H
   0.1252100000000000    0.6663000000000000    0.3525100000000000 H
   0.0668750000000000    0.7018500000000000    0.3755500000000000 H
   0.1554200000000000    0.7770200000000000    0.4507050000000000 H
   0.0170600000000000    0.6011000000000000    0.6759150000000000 H
   0.0142000000000000    0.6496050000000000    0.6987000000000000 H
   0.9746049999999999    0.7020200000000000    0.6927000000000000 H
   0.8475650000000000    0.7346050000000000    0.6779650000000000 H
   0.8224500000000000    0.6683150000000000    0.6458699999999999 H
   0.8769750000000001    0.6142050000000000    0.6413000000000000 H
   0.0984050000000000    0.7402700000000000    0.5644700000000000 H
   0.1145650000000000    0.7720350000000000    0.5000000000000000 H
   0.9917650000000000    0.6774950000000000    0.4892650000000000 H
   0.0098900000000000    0.7075250000000000    0.4302450000000000 H
   0.0052600000000000    0.6326400000000000    0.5373400000000000 H
   0.9875849999999999    0.6021150000000000    0.5965150000000000 H
   0.0586550000000000    0.7373350000000000    0.6072150000000001 H
   0.0418950000000000    0.7059900000000000    0.6665300000000001 H
   0.5463150000000000    0.7608950000000000    0.4019750000000000 H
   0.5840950000000000    0.7929950000000000    0.4332250000000000 H
   0.7011000000000001    0.6882750000000000    0.3787900000000000 H
   0.6252100000000000    0.6663000000000000    0.3525100000000000 H
   0.5668750000000000    0.7018500000000000    0.3755500000000000 H
   0.6554200000000000    0.7770200000000000    0.4507050000000000 H
   0.5170600000000000    0.6011000000000000    0.6759150000000000 H
   0.5142000000000000    0.6496050000000000    0.6987000000000000 H
   0.4746050000000000    0.7020200000000000    0.6927000000000000 H
   0.3475650000000000    0.7346050000000000    0.6779650000000000 H
   0.3224500000000000    0.6683150000000000    0.6458699999999999 H
   0.3769750000000000    0.6142050000000000    0.6413000000000000 H
   0.5984050000000000    0.7402700000000000    0.5644700000000000 H
   0.6145650000000000    0.7720350000000000    0.5000000000000000 H
   0.4917650000000000    0.6774950000000000    0.4892650000000000 H
   0.5098900000000000    0.7075250000000000    0.4302450000000000 H
   0.5052600000000000    0.6326400000000000    0.5373400000000000 H
   0.4875850000000000    0.6021150000000000    0.5965150000000000 H
   0.5586550000000000    0.7373350000000000    0.6072150000000001 H
   0.5418950000000000    0.7059900000000000    0.6665300000000001 H
   0.5463150000000000    0.2608950000000000    0.4019750000000000 H
   0.5840950000000000    0.2929950000000000    0.4332250000000000 H
   0.7011000000000001    0.1882750000000000    0.3787900000000000 H
   0.6252100000000000    0.1663000000000000    0.3525100000000000 H
   0.5668750000000000    0.2018500000000000    0.3755500000000000 H
   0.6554200000000000    0.2770200000000000    0.4507050000000000 H
   0.5170600000000000    0.1011000000000000    0.6759150000000000 H
   0.5142000000000000    0.1496050000000000    0.6987000000000000 H
   0.4746050000000000    0.2020200000000000    0.6927000000000000 H
   0.3475650000000000    0.2346050000000000    0.6779650000000000 H
   0.3224500000000000    0.1683150000000000    0.6458699999999999 H
   0.3769750000000000    0.1142050000000000    0.6413000000000000 H
   0.5984050000000000    0.2402700000000000    0.5644700000000000 H
   0.6145650000000000    0.2720350000000000    0.5000000000000000 H
   0.4917650000000000    0.1774950000000000    0.4892650000000000 H
   0.5098900000000000    0.2075250000000000    0.4302450000000000 H
   0.5052600000000000    0.1326400000000000    0.5373400000000000 H
   0.4875850000000000    0.1021150000000000    0.5965150000000000 H
   0.5586550000000000    0.2373350000000000    0.6072150000000001 H
   0.5418950000000000    0.2059900000000000    0.6665300000000001 H
   0.5616365496154797    0.5608013163517797    0.9682683905826264 H
   0.5816307770666957    0.5680639031816337    0.9332837457223601 H
   0.9534400000000001    0.7390200000000000    0.0976150000000000 H
   0.9156450000000000    0.7068650000000000    0.0664450000000000 H
   0.7986350000000000    0.8121600000000000    0.1202050000000000 H
   0.8745300000000000    0.8342600000000000    0.1463150000000000 H
   0.9328799999999999    0.7984450000000001    0.1235450000000000 H
   0.8443800000000000    0.7227550000000000    0.0489750000000000 H
   0.9830000000000000    0.8986850000000000    0.8238050000000000 H
   0.9858050000000000    0.8502600000000000    0.8008350000000000 H
   0.0252450000000000    0.7979300000000000    0.8060849999999999 H
   0.1522050000000000    0.7652450000000000    0.8206400000000000 H
   0.1774600000000000    0.8311700000000000    0.8535100000000000 H
   0.1230400000000000    0.8851850000000000    0.8586250000000000 H
   0.8851100000000001    0.7278050000000000    0.9936199999999999 H
   0.9012899999999999    0.7594400000000000    0.9350650000000000 H
   0.0000000000000000    0.8219350000000001    0.0101500000000000 H
   0.9900850000000000    0.7920350000000000    0.0692250000000000 H
   0.9945750000000000    0.8668650000000000    0.9622050000000000 H
   0.0122850000000000    0.8974750000000000    0.9030950000000000 H
   0.9411400000000000    0.7622800000000001    0.8921950000000001 H
   0.9579599999999999    0.7937000000000001    0.8329150000000001 H
   0.9534400000000001    0.2390200000000000    0.0976150000000000 H
   0.9156450000000000    0.2068650000000000    0.0664450000000000 H
   0.7986350000000000    0.3121600000000000    0.1202050000000000 H
   0.8745300000000000    0.3342600000000000    0.1463150000000000 H
   0.9328799999999999    0.2984450000000000    0.1235450000000000 H
   0.8443800000000000    0.2227550000000000    0.0489750000000000 H
   0.9830000000000000    0.3986850000000000    0.8238050000000000 H
   0.9858050000000000    0.3502600000000000    0.8008350000000000 H
   0.0252450000000000    0.2979300000000000    0.8060849999999999 H
   0.1522050000000000    0.2652450000000000    0.8206400000000000 H
   0.1774600000000000    0.3311700000000000    0.8535100000000000 H
   0.1230400000000000    0.3851850000000000    0.8586250000000000 H
   0.8851100000000001    0.2278050000000000    0.9936199999999999 H
   0.9012899999999999    0.2594400000000000    0.9350650000000000 H
   0.0000000000000000    0.3219350000000000    0.0101500000000000 H
   0.9900850000000000    0.2920350000000000    0.0692250000000000 H
   0.9945750000000000    0.3668650000000000    0.9622050000000000 H
   0.0122850000000000    0.3974750000000000    0.9030950000000000 H
   0.9411400000000000    0.2622800000000000    0.8921950000000001 H
   0.9579599999999999    0.2937000000000000    0.8329150000000001 H
   0.4534400000000000    0.2390200000000000    0.0976150000000000 H
   0.4156450000000000    0.2068650000000000    0.0664450000000000 H
   0.2986350000000000    0.3121600000000000    0.1202050000000000 H
   0.3745300000000000    0.3342600000000000    0.1463150000000000 H
   0.4328800000000000    0.2984450000000000    0.1235450000000000 H
   0.3443800000000000    0.2227550000000000    0.0489750000000000 H
   0.4830000000000000    0.3986850000000000    0.8238050000000000 H
   0.4858050000000000    0.3502600000000000    0.8008350000000000 H
   0.5252450000000000    0.2979300000000000    0.8060849999999999 H
   0.6522050000000000    0.2652450000000000    0.8206400000000000 H
   0.6774600000000000    0.3311700000000000    0.8535100000000000 H
   0.6230400000000000    0.3851850000000000    0.8586250000000000 H
   0.3851100000000000    0.2278050000000000    0.9936199999999999 H
   0.4012900000000000    0.2594400000000000    0.9350650000000000 H
   0.5000000000000000    0.3219350000000000    0.0101500000000000 H
   0.4900850000000000    0.2920350000000000    0.0692250000000000 H
   0.4945750000000000    0.3668650000000000    0.9622050000000000 H
   0.5122850000000000    0.3974750000000000    0.9030950000000000 H
   0.4411400000000000    0.2622800000000000    0.8921950000000001 H
   0.4579600000000000    0.2937000000000000    0.8329150000000001 H
   0.4534400000000000    0.7390200000000000    0.0976150000000000 H
   0.4156450000000000    0.7068650000000000    0.0664450000000000 H
   0.2986350000000000    0.8121600000000000    0.1202050000000000 H
   0.3745300000000000    0.8342600000000000    0.1463150000000000 H
   0.4328800000000000    0.7984450000000001    0.1235450000000000 H
   0.3443800000000000    0.7227550000000000    0.0489750000000000 H
   0.4830000000000000    0.8986850000000000    0.8238050000000000 H
   0.4858050000000000    0.8502600000000000    0.8008350000000000 H
   0.5252450000000000    0.7979300000000000    0.8060849999999999 H
   0.6522050000000000    0.7652450000000000    0.8206400000000000 H
   0.6774600000000000    0.8311700000000000    0.8535100000000000 H
   0.6230400000000000    0.8851850000000000    0.8586250000000000 H
   0.3851100000000000    0.7278050000000000    0.9936199999999999 H
   0.4012900000000000    0.7594400000000000    0.9350650000000000 H
   0.5000000000000000    0.8219350000000001    0.0101500000000000 H
   0.4900850000000000    0.7920350000000000    0.0692250000000000 H
   0.4945750000000000    0.8668650000000000    0.9622050000000000 H
   0.5122850000000000    0.8974750000000000    0.9030950000000000 H
   0.4411400000000000    0.7622800000000001    0.8921950000000001 H
   0.4579600000000000    0.7937000000000001    0.8329150000000001 H
   0.2961550000000000    0.4883600000000000    0.9027950000000000 H
   0.3344900000000000    0.4567850000000000    0.9342300000000000 H
   0.4497000000000000    0.5626599999999999    0.8782950000000000 H
   0.3734900000000000    0.5837600000000001    0.8521200000000000 H
   0.3157900000000000    0.5475900000000000    0.8756850000000000 H
   0.4055700000000000    0.4735650000000000    0.9512450000000000 H
   0.2670100000000000    0.6488250000000000    0.1758050000000000 H
   0.2642300000000000    0.6003600000000000    0.1988750000000000 H
   0.2246700000000000    0.5481000000000000    0.1936450000000000 H
   0.0976750000000000    0.5153450000000001    0.1786750000000000 H
   0.0724950000000000    0.5813850000000000    0.1457300000000000 H
   0.1269550000000000    0.6355000000000000    0.1408000000000000 H
   0.3485600000000000    0.5098050000000000    0.0650500000000000 H
   0.3647300000000000    0.4779350000000000    0.0000000000000000 H
   0.2414800000000000    0.5720149999999999    0.9895499999999999 H
   0.2595900000000000    0.5418700000000000    0.9306950000000001 H
   0.2549950000000000    0.6170650000000000    0.0373450000000000 H
   0.2373350000000000    0.6476649999999999    0.0963500000000000 H
   0.3087300000000000    0.5125550000000000    0.1078000000000000 H
   0.2919550000000000    0.5439650000000000    0.1669500000000000 H
   0.2961550000000000    0.9883600000000000    0.9027950000000000 H
   0.3344900000000000    0.9567850000000000    0.9342300000000000 H
   0.4497000000000000    0.0626600000000000    0.8782950000000000 H
   0.3734900000000000    0.0837600000000000    0.8521200000000000 H
   0.3157900000000000    0.0475900000000000    0.8756850000000000 H
   0.4055700000000000    0.9735650000000000    0.9512450000000000 H
   0.2670100000000000    0.1488250000000000    0.1758050000000000 H
   0.2642300000000000    0.1003600000000000    0.1988750000000000 H
   0.2246700000000000    0.0481000000000000    0.1936450000000000 H
   0.0976750000000000    0.0153450000000000    0.1786750000000000 H
   0.0724950000000000    0.0813850000000000    0.1457300000000000 H
   0.1269550000000000    0.1355000000000000    0.1408000000000000 H
   0.3485600000000000    0.0098050000000000    0.0650500000000000 H
   0.3647300000000000    0.9779350000000000    0.0000000000000000 H
   0.2414800000000000    0.0720150000000000    0.9895499999999999 H
   0.2595900000000000    0.0418700000000000    0.9306950000000001 H
   0.2549950000000000    0.1170650000000000    0.0373450000000000 H
   0.2373350000000000    0.1476650000000000    0.0963500000000000 H
   0.3087300000000000    0.0125550000000000    0.1078000000000000 H
   0.2919550000000000    0.0439650000000000    0.1669500000000000 H
   0.7961549999999999    0.4883600000000000    0.9027950000000000 H
   0.8344900000000000    0.4567850000000000    0.9342300000000000 H
   0.9497000000000000    0.5626599999999999    0.8782950000000000 H
   0.8734900000000000    0.5837600000000001    0.8521200000000000 H
   0.8157900000000000    0.5475900000000000    0.8756850000000000 H
   0.9055700000000000    0.4735650000000000    0.9512450000000000 H
   0.7670100000000000    0.6488250000000000    0.1758050000000000 H
   0.7642300000000000    0.6003600000000000    0.1988750000000000 H
   0.7246700000000000    0.5481000000000000    0.1936450000000000 H
   0.5976750000000000    0.5153450000000001    0.1786750000000000 H
   0.5724950000000000    0.5813850000000000    0.1457300000000000 H
   0.6269550000000000    0.6355000000000000    0.1408000000000000 H
   0.8485600000000000    0.5098050000000000    0.0650500000000000 H
   0.8647300000000000    0.4779350000000000    0.0000000000000000 H
   0.7414800000000000    0.5720149999999999    0.9895499999999999 H
   0.7595900000000000    0.5418700000000000    0.9306950000000001 H
   0.7549950000000001    0.6170650000000000    0.0373450000000000 H
   0.7373350000000000    0.6476649999999999    0.0963500000000000 H
   0.8087299999999999    0.5125550000000000    0.1078000000000000 H
   0.7919550000000000    0.5439650000000000    0.1669500000000000 H
   0.7961549999999999    0.9883600000000000    0.9027950000000000 H
   0.8344900000000000    0.9567850000000000    0.9342300000000000 H
   0.9497000000000000    0.0626600000000000    0.8782950000000000 H
   0.8734900000000000    0.0837600000000000    0.8521200000000000 H
   0.8157900000000000    0.0475900000000000    0.8756850000000000 H
   0.9055700000000000    0.9735650000000000    0.9512450000000000 H