H6 O4
1.0
  31.3783682284274548    0.0000000000000000   -7.6776574110346072
   0.0098388913548943   32.7719205315204078    0.0714973560908822
   0.0000000000000000    0.0000000000000000   34.5940000000000012
H O
6 4
direct
   0.3222274264750248    0.6078709385896498    0.7709289845424534 H
   0.4185120679965014    0.5361922428801061    0.7764028103904593 H
   0.3764331981761226    0.5744064820905348    0.7733045021536253 H
   0.4384026429379447    0.7604449655983733    0.7817850555717452 H
   0.5289540434000530    0.6968325004674104    0.8284586497972751 H
   0.4847727048146909    0.7224951398858697    0.8162236541133071 H
   0.3322300000000000    0.5798650000000000    0.7736050000000000 O
   0.3887700000000000    0.5398650000000000    0.7766050000000000 O
   0.4640250000000000    0.7535499999999999    0.7732200000000000 O
   0.5177350000000001    0.7136250000000000    0.8052049999999999 O
