H5 O3
1.0
  31.3783682284274548    0.0000000000000000   -7.6776574110346072
   0.0098388913548943   32.7719205315204078    0.0714973560908822
   0.0000000000000000    0.0000000000000000   34.5940000000000012
H O
5 3
direct
   0.5616365496154797    0.5608013163517797    0.9682683905826264 H
   0.5816307770666957    0.5680639031816337    0.9332837457223601 H
   0.7079078572741473    0.7161258415725560    0.0323803712275634 H
   0.6941466923434549    0.7090090873740951    0.0950513602530490 H
   0.7248433658222414    0.7390736243859561    0.2163471393702066 H
   0.5605450000000000    0.5504450000000000    0.9415350000000000 O
   0.7015450000000000    0.7097300000000000    0.0042200000000000 O
   0.6910350000000001    0.7050900000000000    0.0667200000000000 O
