H20 C24 N2 O2
1.0
  31.3783682284274548    0.0000000000000000   -7.6776574110346072
   0.0098388913548943   32.7719205315204078    0.0714973560908822
   0.0000000000000000    0.0000000000000000   34.5940000000000012
H C N O
20 24 2 2
direct
   0.2595900000000000    0.0418700000000000    0.4306950000000000 H
   0.2414800000000000    0.0720150000000000    0.4895500000000000 H
   0.4497000000000000    0.0626600000000000    0.3782950000000000 H
   0.3734900000000000    0.0837600000000000    0.3521200000000000 H
   0.3157900000000000    0.0475900000000000    0.3756850000000000 H
   0.3344900000000000    0.9567850000000000    0.4342300000000000 H
   0.2961550000000000    0.9883600000000000    0.4027950000000000 H
   0.4055700000000000    0.9735650000000000    0.4512450000000000 H
   0.0976750000000000    0.0153450000000000    0.6786750000000000 H
   0.0724950000000000    0.0813850000000000    0.6457300000000000 H
   0.1269550000000000    0.1355000000000000    0.6408000000000000 H
   0.2246700000000000    0.0481000000000000    0.6936450000000001 H
   0.2670100000000000    0.1488250000000000    0.6758050000000000 H
   0.2642300000000000    0.1003600000000000    0.6988750000000000 H
   0.2919550000000000    0.0439650000000000    0.6669499999999999 H
   0.3087300000000000    0.0125550000000000    0.6078000000000000 H
   0.2549950000000000    0.1170650000000000    0.5373450000000000 H
   0.2373350000000000    0.1476650000000000    0.5963500000000000 H
   0.3485600000000000    0.0098050000000000    0.5650500000000001 H
   0.3647300000000000    0.9779350000000000    0.5000000000000000 H
   0.3137700000000000    0.0079900000000000    0.4641750000000000 C
   0.2793900000000000    0.0349700000000000    0.4602050000000000 C
   0.2693000000000000    0.0522400000000000    0.4935500000000000 C
   0.4343900000000000    0.0170650000000000    0.4182300000000000 C
   0.4241750000000000    0.0480850000000000    0.3890000000000000 C
   0.3819150000000000    0.0596700000000000    0.3743050000000000 C
   0.3493050000000000    0.0404750000000000    0.3871800000000000 C
   0.3240250000000000    0.9884800000000000    0.4281050000000000 C
   0.3997950000000000    0.9982350000000000    0.4296600000000000 C
   0.1200700000000000    0.0385900000000000    0.6741850000000000 C
   0.1065050000000000    0.0760400000000000    0.6564850000000000 C
   0.1364150000000000    0.1054300000000000    0.6533900000000000 C
   0.1800400000000000    0.0964900000000000    0.6671199999999999 C
   0.1916300000000000    0.0576950000000000    0.6830650000000000 C
   0.2529100000000000    0.1181950000000000    0.6714249999999999 C
   0.2631700000000000    0.0979250000000000    0.6357650000000000 C
   0.2836400000000000    0.0599800000000000    0.6384700000000000 C
   0.2933400000000000    0.0423900000000000    0.6049500000000000 C
   0.2829550000000000    0.0620350000000000    0.5676550000000000 C
   0.2624200000000000    0.1002450000000000    0.5653700000000000 C
   0.2527400000000000    0.1178500000000000    0.5987350000000000 C
   0.2935150000000000    0.0435000000000000    0.5321600000000000 C
   0.3281650000000000    0.0165650000000000    0.5358350000000000 C
   0.3378950000000000    0.9989350000000000    0.5000000000000000 C
   0.3591000000000000    0.0098400000000000    0.4143300000000000 N
   0.1618500000000000    0.0299200000000000    0.6870450000000000 N
   0.4734200000000000    0.0051400000000000    0.4349750000000000 O
   0.2075100000000000    0.1270550000000000    0.6647200000000000 O
