H4 C8 O3
1.0
  31.3783682284274548    0.0000000000000000   -7.6776574110346072
   0.0098388913548943   32.7719205315204078    0.0714973560908822
   0.0000000000000000    0.0000000000000000   34.5940000000000012
H C O
4 8 3
direct
   0.5835850000000000    0.5987750000000001    0.0501850000000000 H
   0.6379600000000000    0.6533500000000000    0.0737600000000000 H
   0.6110250000000000    0.6026200000000000    0.9347099999999999 H
   0.6644850000000000    0.6582800000000000    0.9581750000000000 H
   0.6019400000000000    0.6113500000000001    0.0303050000000000 C
   0.6542850000000000    0.6592200000000000    0.0173150000000000 C
   0.6319450000000000    0.6419100000000000    0.0434250000000000 C
   0.6847900000000000    0.6939150000000001    0.0303000000000000 C
   0.5619700000000000    0.5639650000000000    0.9764349999999999 C
   0.5941149999999999    0.5972100000000000    0.9909600000000001 C
   0.6171450000000001    0.6140150000000000    0.9650950000000000 C
   0.6468050000000000    0.6447700000000001    0.9781250000000000 C
   0.7015450000000000    0.7097300000000000    0.0042200000000000 O
   0.6910350000000001    0.7050900000000000    0.0667200000000000 O
   0.5605450000000000    0.5504450000000000    0.9415350000000000 O
