Ca6 Si4 H64 C105 O31
1.0
  13.9679999468137996    0.0000000000000000   -0.0012189379480448
  -6.6044412149136313   12.9781806025534667    0.0053372516396859
   0.0000000000000000    0.0000000000000000   24.1649999999999991
Ca Si H C O
6 4 64 105 31
direct
   0.9763800000000000    0.4786700000000000    0.1488000000000000 Ca
   0.0000100000000000    0.4999900000000000    0.0000000000000000 Ca
   0.9762600000000000    0.9791900000000000    0.3512700000000000 Ca
   0.0000300000000000    0.0000200000000000    0.5000400000000000 Ca
   0.0238300000000000    0.0208200000000000    0.6488000000000000 Ca
   0.0236900000000000    0.5212900000000000    0.8512900000000000 Ca
   0.7121700000000000    0.3857000000000000    0.5039400000000001 Si
   0.2880700000000000    0.1139600000000000    0.0039100000000000 Si
   0.2879100000000000    0.6143200000000000    0.4961400000000000 Si
   0.7120000000000000    0.8859900000000001    0.9961700000000000 Si
   0.8133042358522450    0.4118885882999261    0.2477014451105358 H
   0.8115500000000000    0.0965200000000000    0.5079600000000000 H
   0.7287800000000000    0.2004700000000000    0.4682000000000000 H
   0.8534900000000000    0.4142800000000000    0.6040000000000000 H
   0.9338100000000000    0.3068600000000000    0.6445400000000000 H
   0.2671400000000000    0.1313500000000000    0.6777900000000000 H
   0.0641200000000000    0.0455900000000000    0.8330600000000000 H
   0.0972700000000000    0.0563100000000000    0.9340300000000000 H
   0.4029300000000000    0.1654000000000000    0.8024100000000000 H
   0.4372900000000000    0.1726400000000000    0.9030800000000000 H
   0.3192700000000000    0.3009900000000000    0.4994000000000000 H
   0.5106500000000000    0.4040600000000000    0.4743700000000000 H
   0.4045800000000000    0.1213300000000000    0.6123200000000000 H
   0.5939600000000000    0.2142400000000000    0.5821600000000000 H
   0.7663700000000000    0.6546100000000000    0.6474900000000000 H
   0.6747100000000000    0.4791300000000000    0.6058200000000000 H
   0.9711100000000000    0.7635300000000000    0.5051000000000000 H
   0.8827900000000000    0.5909900000000000    0.4630700000000000 H
   0.1883100000000000    0.4029400000000000    0.0077100000000000 H
   0.2711000000000000    0.2990400000000000    0.9680400000000000 H
   0.0664900000000000    0.1928200000000000    0.1444000000000000 H
   0.1468700000000000    0.0854500000000000    0.1044900000000000 H
   0.6810000000000000    0.1988400000000000    0.9994200000000000 H
   0.4896600000000000    0.0957700000000000    0.9743700000000000 H
   0.5954700000000001    0.3782100000000000    0.1123600000000000 H
   0.4061400000000000    0.2853000000000000    0.0821600000000000 H
   0.2342700000000000    0.8448600000000001    0.1474300000000000 H
   0.3258500000000000    0.0204000000000000    0.1057300000000000 H
   0.0288700000000000    0.7362000000000000    0.0053000000000000 H
   0.1171300000000000    0.9087499999999999    0.9632300000000000 H
   0.1884900000000000    0.9034900000000000    0.4921100000000000 H
   0.2712600000000000    0.7995500000000000    0.5318400000000000 H
   0.0662800000000000    0.6931500000000000    0.3555400000000000 H
   0.1466000000000000    0.5857400000000000    0.3955900000000000 H
   0.7329900000000000    0.8687000000000000    0.3223100000000000 H
   0.9359400000000000    0.9543300000000000    0.1670200000000000 H
   0.9027800000000000    0.9436000000000000    0.0660500000000000 H
   0.5971400000000000    0.8345900000000001    0.1976800000000000 H
   0.5627600000000000    0.8273300000000000    0.0970100000000000 H
   0.6807900000000000    0.6990200000000000    0.5007000000000000 H
   0.4894100000000000    0.5959500000000000    0.5257100000000000 H
   0.4061200000000000    0.7857800000000000    0.4179200000000000 H
   0.5955000000000000    0.8786900000000000    0.3877000000000000 H
   0.3253500000000000    0.5208800000000000    0.3942600000000000 H
   0.2336700000000000    0.3454100000000000    0.3520000000000000 H
   0.0289600000000000    0.2364800000000000    0.4949900000000000 H
   0.1172900000000000    0.4090200000000000    0.5370200000000001 H
   0.8117900000000000    0.5970200000000000    0.9923800000000000 H
   0.7289900000000000    0.7009200000000000    0.0320500000000000 H
   0.9335700000000000    0.8071400000000000    0.8556100000000000 H
   0.8531800000000000    0.9144900000000000    0.8955900000000000 H
   0.2669600000000000    0.6316700000000000    0.8222600000000000 H
   0.0639300000000000    0.5460900000000000    0.6669900000000000 H
   0.0970900000000000    0.5567800000000001    0.5660200000000000 H
   0.4027100000000000    0.6657400000000000    0.6976400000000000 H
   0.4370900000000000    0.6729700000000000    0.5969700000000000 H
   0.3190900000000000    0.8011400000000000    0.0000000000000000 H
   0.5104400000000000    0.9042200000000000    0.0257000000000000 H
   0.4045600000000000    0.6217500000000000    0.8877400000000000 H
   0.5939100000000000    0.7146500000000000    0.9179200000000000 H
   0.7658500000000000    0.1551100000000000    0.8526700000000000 H
   0.6742600000000000    0.9795700000000001    0.8943000000000000 H
   0.9711800000000000    0.2637700000000000    0.9948200000000000 H
   0.8829100000000000    0.0912000000000000    0.0368800000000000 H
   0.9266600000000000    0.1322200000000000    0.6026600000000000 C
   0.8198100000000000    0.1659100000000000    0.5289600000000000 C
   0.7736400000000000    0.2248300000000000    0.5069500000000000 C
   0.8434199999999999    0.3443500000000000    0.5832000000000001 C
   0.8889200000000000    0.2850300000000000    0.6058000000000000 C
   0.8773600000000000    0.1954100000000000    0.5787700000000000 C
   0.7843000000000000    0.3149500000000000    0.5336400000000000 C
   0.2074100000000000    0.0969700000000000    0.7514800000000000 C
   0.1453600000000000    0.0727100000000000    0.8490400000000000 C
   0.1649200000000000    0.0781400000000000    0.9056500000000000 C
   0.3363100000000000    0.1402200000000000    0.8315000000000000 C
   0.3549000000000000    0.1437600000000000    0.8883900000000000 C
   0.2311200000000000    0.1036600000000000    0.8115000000000000 C
   0.2698900000000000    0.1122800000000000    0.9265800000000000 C
   0.2336500000000000    0.1416800000000000    0.5711400000000000 C
   0.3805200000000000    0.2840600000000000    0.5181200000000000 C
   0.4882700000000000    0.3403600000000000    0.5035800000000000 C
   0.4280600000000000    0.1824500000000000    0.5815100000000000 C
   0.5349000000000000    0.2355600000000000    0.5645800000000000 C
   0.3498000000000000    0.2047400000000000    0.5574400000000000 C
   0.5673200000000000    0.3154300000000000    0.5253100000000001 C
   0.9294400000000000    0.8246900000000000    0.6038000000000000 C
   0.7906900000000000    0.6389899999999999    0.6071000000000000 C
   0.7403600000000000    0.5410199999999999    0.5835600000000000 C
   0.9062300000000000    0.7009200000000000    0.5269200000000001 C
   0.8562000000000000    0.6029400000000000    0.5036400000000000 C
   0.8744499999999999    0.7196200000000000    0.5789000000000000 C
   0.7728500000000000    0.5208300000000000    0.5316300000000000 C
   0.0734600000000000    0.3673600000000000    0.1025200000000000 C
   0.1801500000000000    0.3336100000000000    0.0287000000000000 C
   0.2263400000000000    0.2747100000000000    0.0067000000000000 C
   0.1113000000000000    0.2146200000000000    0.1057400000000000 C
   0.1568300000000000    0.1553200000000000    0.0831400000000000 C
   0.1227200000000000    0.3041700000000000    0.0786200000000000 C
   0.2158500000000000    0.1846800000000000    0.0335400000000000 C
   0.7665100000000000    0.3580300000000000    0.0711800000000000 C
   0.6197200000000000    0.2157000000000000    0.0181400000000000 C
   0.5119800000000000    0.1594000000000000    0.0035800000000000 C
   0.5720499999999999    0.3171500000000000    0.0815400000000000 C
   0.4652400000000000    0.2640400000000000    0.0645900000000000 C
   0.6503600000000000    0.2949500000000000    0.0574800000000000 C
   0.4328900000000000    0.1842500000000000    0.0253000000000000 C
   0.0709300000000000    0.6748600000000000    0.1039000000000000 C
   0.2098000000000000    0.8605400000000000    0.1071300000000000 C
   0.2600800000000000    0.9585300000000000    0.0835300000000000 C
   0.0938800000000000    0.7987500000000000    0.0270600000000000 C
   0.1438800000000000    0.8967400000000000    0.0037500000000000 C
   0.1258600000000000    0.7799800000000000    0.0790100000000000 C
   0.2274000000000000    0.9787900000000000    0.0316500000000000 C
   0.0734100000000000    0.8677800000000000    0.3974000000000000 C
   0.1802400000000000    0.8341000000000000    0.4711100000000000 C
   0.2264100000000000    0.7751900000000000    0.4931300000000000 C
   0.1111600000000000    0.7149900000000000    0.3942400000000000 C
   0.1566700000000000    0.6556700000000000    0.4168800000000000 C
   0.1227100000000000    0.8046000000000000    0.4213000000000000 C
   0.2157700000000000    0.6850700000000000    0.4664500000000000 C
   0.7926800000000001    0.9030100000000000    0.2486000000000000 C
   0.8546899999999999    0.9272300000000000    0.1510400000000000 C
   0.8351300000000000    0.9217800000000000    0.0944300000000000 C
   0.6637500000000000    0.8597500000000000    0.1685500000000000 C
   0.6451500000000000    0.8562000000000000    0.1117000000000000 C
   0.7689400000000000    0.8963000000000000    0.1885800000000000 C
   0.7301600000000000    0.8876600000000000    0.0735000000000000 C
   0.7664400000000000    0.8583300000000000    0.4289600000000000 C
   0.6195500000000000    0.7159400000000000    0.4819700000000000 C
   0.5117900000000000    0.6596500000000000    0.4965100000000000 C
   0.4651800000000000    0.7644500000000000    0.4355000000000000 C
   0.5720200000000000    0.8175600000000000    0.4185700000000000 C
   0.6502700000000000    0.7952700000000000    0.4426500000000000 C
   0.4327500000000000    0.6845800000000000    0.4747700000000000 C
   0.0706200000000000    0.1753200000000000    0.3962000000000000 C
   0.2597000000000000    0.4590000000000000    0.4165200000000000 C
   0.2093700000000000    0.3610300000000000    0.3929400000000000 C
   0.0938300000000000    0.2990900000000000    0.4731600000000000 C
   0.1438700000000000    0.3970700000000000    0.4964000000000000 C
   0.1256000000000000    0.2804000000000000    0.4211500000000000 C
   0.2272200000000000    0.4791800000000000    0.4684600000000000 C
   0.9266300000000000    0.6326100000000000    0.8975500000000000 C
   0.8199300000000000    0.6663500000000000    0.9713200000000000 C
   0.7737400000000000    0.7252400000000000    0.9933100000000000 C
   0.8887699999999999    0.7853400000000000    0.8943400000000000 C
   0.8432300000000000    0.8446300000000000    0.9169500000000000 C
   0.8773700000000000    0.6958000000000000    0.9214700000000000 C
   0.7842200000000000    0.8152700000000001    0.9665500000000000 C
   0.2072100000000000    0.5973100000000000    0.7485700000000000 C
   0.1451700000000000    0.5731500000000000    0.6510100000000000 C
   0.1647300000000000    0.5785800000000000    0.5944000000000000 C
   0.3361100000000000    0.6405900000000000    0.6685000000000000 C
   0.3547100000000000    0.6441300000000000    0.6116600000000000 C
   0.2309100000000000    0.6040600000000000    0.6885500000000000 C
   0.2697000000000000    0.6126700000000000    0.5734700000000000 C
   0.2335500000000000    0.6419400000000000    0.9289400000000000 C
   0.3803700000000000    0.7842800000000000    0.9819600000000001 C
   0.4881000000000000    0.8405800000000000    0.9965100000000000 C
   0.4280000000000000    0.6828100000000000    0.9185600000000000 C
   0.5348200000000000    0.7359200000000000    0.9355000000000000 C
   0.3497000000000000    0.7050200000000000    0.9426000000000000 C
   0.5671900000000000    0.8157200000000000    0.9747800000000000 C
   0.9291700000000001    0.3251100000000000    0.8962100000000000 C
   0.7903100000000000    0.1394200000000000    0.8929000000000000 C
   0.7400300000000000    0.0414300000000000    0.9165600000000000 C
   0.9061900000000001    0.2012100000000000    0.9730600000000000 C
   0.8561800000000001    0.1032100000000000    0.9963500000000000 C
   0.8742300000000000    0.2199900000000000    0.9211000000000000 C
   0.7726800000000000    0.0211600000000000    0.9684400000000000 C
   0.8872300000000000    0.4452100000000000    0.2339500000000000 O
   0.9611400000000000    0.1472300000000000    0.6520300000000000 O
   0.9329200000000000    0.0624300000000000    0.5719300000000000 O
   0.2921900000000000    0.1385800000000000    0.7185100000000000 O
   0.1129900000000000    0.0545200000000000    0.7339500000000000 O
   0.1657400000000000    0.1228200000000000    0.5330100000000000 O
   0.2072300000000000    0.1078800000000000    0.6211900000000000 O
   0.9057100000000000    0.8410200000000000    0.6522700000000000 O
   0.0000000000000000    0.8980800000000000    0.5747300000000000 O
   0.0672600000000000    0.4372800000000000    0.0718500000000000 O
   0.0000000000000000    0.3522100000000000    0.1519000000000000 O
   0.8344200000000001    0.3770500000000000    0.0330400000000000 O
   0.7929100000000000    0.3917000000000000    0.1212400000000000 O
   0.0949000000000000    0.6583700000000000    0.1522600000000000 O
   0.9980200000000000    0.6015900000000000    0.0748600000000000 O
   0.0671300000000000    0.9375800000000000    0.4281200000000000 O
   0.0000000000000000    0.8527700000000000    0.3480300000000000 O
   0.7079200000000000    0.8614700000000000    0.2815900000000000 O
   0.8871200000000000    0.9454300000000000    0.2661100000000000 O
   0.8343200000000000    0.8771900000000000    0.4671000000000000 O
   0.7928700000000000    0.8921300000000000    0.3789100000000000 O
   0.0943300000000000    0.1590100000000000    0.3478100000000000 O
   0.9979700000000000    0.1019300000000000    0.4253600000000000 O
   0.9611800000000000    0.6478100000000000    0.8481900000000000 O
   0.9327900000000000    0.5626500000000000    0.9282100000000000 O
   0.2919900000000000    0.6389100000000000    0.7815400000000000 O
   0.1127900000000000    0.5547600000000000    0.7661100000000000 O
   0.1656600000000000    0.6229400000000000    0.9670000000000000 O
   0.2071300000000000    0.6082700000000000    0.8788800000000000 O
   0.9052300000000000    0.3416000000000000    0.8478500000000000 O
   0.0000000000000000    0.3983800000000000    0.9252600000000000 O
