H6 O4
1.0
  39.5009978280989884    0.0000000000000000    0.0130990274087021
  -5.7359524738003502   25.8881645398010605    0.0064790809979477
   0.0000000000000000    0.0000000000000000   22.4070000000000000
H O
6 4
direct
   0.6455660616725634    0.9439143109181596    0.4901040080873888 H
   0.6555382565637683    0.9439635726348380    0.3131298171016009 H
   0.6543241510166496    0.9445379295557006    0.4022110262843373 H
   0.8628030962133317    0.9410826387170257    0.2971745203890080 H
   0.8492307623206485    0.9061957937383108    0.4698551472199389 H
   0.8521214156952899    0.9228491688765470    0.3839801753322890 H
   0.6360699999999999    0.9420750000000000    0.4500500000000000 O
   0.6417633333333332    0.9421050000000000    0.3492300000000000 O
   0.8716933333333332    0.9353250000000000    0.3363600000000000 O
   0.8636466666666667    0.9153850000000000    0.4347800000000000 O
