H5 O3
1.0
   9.3202074577808016    0.0000000000000000    4.0017723503376796
   4.6452164197209331   11.7786647855139304    1.9836522589529451
   0.0000000000000000    0.0000000000000000   25.6520000000000010
H O
5 3
direct
   0.1107172037349086    0.2243895851104420    0.1937700498135681 H
   0.2774042494230179    0.2244805237508023    0.1931547528681662 H
   0.5271356397504103    0.8915438731449531    0.2232584402567096 H
   0.1369144734470712    0.8903747823066366    0.2214628921020343 H
   0.3269744643069248    0.9012864651116259    0.2222094979169246 H
   0.1772600000000000    0.2659300000000000    0.1894800000000000 O
   0.4593900000000000    0.8551000000000000    0.2233950000000000 O
   0.2399100000000000    0.8544500000000000    0.2223850000000000 O
