H6 O4
1.0
  15.2812937816838303    0.0000000000000000   -1.6948998076202320
  -1.3407215849856127   15.2478391882915894   -1.4690114769983862
   0.0000000000000000    0.0000000000000000   35.9720000000000013
H O
6 4
direct
   0.8004603373991488    0.5210887174989380    0.3886342066883619 H
   0.7295921968952674    0.4905442713783756    0.2775486035332155 H
   0.7645840801034059    0.4964665710712619    0.3322211395351854 H
   0.7603690619905065    0.8177654783382837    0.2837284590318071 H
   0.7787285476573576    0.8459422267648156    0.3958902493391370 H
   0.7699061977179481    0.8413003986604192    0.3406865084002804 H
   0.7848700000000000    0.5437700000000000    0.3647650000000000 O
   0.7446000000000000    0.5255400000000000    0.3016250000000000 O
   0.7636400000000000    0.7943200000000000    0.3078900000000000 O
   0.7741000000000000    0.8112400000000000    0.3716650000000000 O
