H4 C8 O4
1.0
  10.3734999936801024    0.0000000000000000   -0.0003621034598361
  -0.0705694957595073   13.1703099668124164   -0.0050571088366811
   0.0000000000000000    0.0000000000000000   19.9939999999999998
H C O
4 8 4
direct
   0.9577500000000000    0.9736200000000000    0.7990800000000000 H
   0.5686400000000000    0.0829800000000000    0.7923100000000000 H
   0.5507300000000001    0.0264300000000000    0.6726700000000000 H
   0.9403000000000000    0.9181900000000000    0.6794500000000000 H
   0.7748200000000000    0.0668700000000000    0.8737200000000001 C
   0.7640100000000000    0.0314600000000000    0.8027400000000000 C
   0.8690400000000000    0.9849100000000000    0.7710500000000000 C
   0.6491700000000000    0.0465900000000000    0.7671000000000000 C
   0.7333600000000000    0.9336000000000000    0.5981600000000000 C
   0.7444499999999999    0.9689200000000000    0.6691500000000000 C
   0.6394200000000000    0.0154700000000000    0.7008000000000000 C
   0.8594600000000000    0.9541200000000000    0.7046800000000000 C
   0.8828000000000000    0.0493300000000000    0.9031200000000000 O
   0.6782400000000000    0.1112800000000000    0.8989800000000000 O
   0.6237800000000000    0.9465400000000000    0.5698299999999999 O
   0.8323400000000000    0.8929800000000000    0.5720499999999999 O
