H6 O4
1.0
  22.3415147422479450    0.0000000000000000   -6.4574186035843937
  -4.1392704667194566   12.2525976893914930   -1.3387657992578004
   0.0000000000000000    0.0000000000000000   26.0060000000000002
H O
6 4
direct
   0.9751510911046071    0.1008306259269070    0.9231685196293486 H
   0.7924849200094157   -0.0296081348098480    0.8561507015884849 H
   0.8841607230175206    0.0204182707969834    0.8894242651129844 H
   0.7746152160307436    0.3361840191473277    0.8600010502230244 H
   0.9574331956281315    0.4653703108002392    0.9246299881825583 H
   0.8655472763767619    0.4161719643716534    0.8925338555023802 H
   0.9346600000000000    0.1124100000000000    0.9092600000000000 O
   0.8286600000000000    0.0362900000000000    0.8703600000000000 O
   0.8150250000000000    0.3240200000000000    0.8732850000000000 O
   0.9212650000000000    0.3994000000000000    0.9108499999999999 O
