H2 O2
1.0
  22.3415147422479450    0.0000000000000000   -6.4574186035843937
  -4.1392704667194566   12.2525976893914930   -1.3387657992578004
   0.0000000000000000    0.0000000000000000   26.0060000000000002
H O
2 2
direct
   0.3048576840802547    0.8921946451997943    0.6376978747744889 H
   0.6951002253015626    0.1077585700991284    0.8622983654656237 H
   0.2786200000000000    0.8826800000000000    0.6615750000000000 O
   0.7213550000000000    0.1172300000000000    0.8384350000000000 O
