H9 O6
1.0
   7.6877034811175120    0.0000000000000000    0.7162794052698249
   2.0406884582853224    9.2141387981716445    3.7846348336727353
   0.0000000000000000    0.0000000000000000   26.9259999999999984
H O
9 6
direct
   0.7718647505626579    0.5692280896198297    0.4451146739506393 H
   0.5995670445350803    0.8051472946611824    0.3575997773406018 H
   0.7388375110289673    0.6838176208649815    0.3338047186527058 H
   0.5772070862448593    0.1016499709168981    0.4609307562254387 H
   0.7076781276682527    1.0271204776594778    0.3874050431057470 H
   0.5748928544526064    0.0317557176886232    0.3379754439292473 H
   0.9367991688172761    0.4522060413605670    0.1169300051326119 H
   0.7504032063887617    0.7851295473177161    0.0826726642546983 H
   0.8350609683040527    0.6386288161583491    0.1450776153554177 H
   0.7111100000000000    0.6109700000000000    0.4707400000000000 O
   0.5918300000000000    0.7848200000000000    0.3958100000000000 O
   0.6307800000000000    0.1057900000000000    0.4913600000000000 O
   0.7196200000000000    1.0429400000000000    0.4201800000000000 O
   0.9119200000000000    0.4932800000000000    0.0788900000000000 O
   0.7784500000000000    0.7320900000000000    0.0585200000000000 O
