Cd6 H21 C45 O18
1.0
   7.6877034811175120    0.0000000000000000    0.7162794052698249
   2.0406884582853224    9.2141387981716445    3.7846348336727353
   0.0000000000000000    0.0000000000000000   26.9259999999999984
Cd H C O
6 21 45 18
direct
   0.6454200000000000    0.8406400000000001    0.4766300000000000 Cd
   0.9999800000000000    0.4999700000000000    0.0000200000000000 Cd
   0.3545700000000000    0.1592400000000000    0.0234100000000000 Cd
   0.6454200000000000    0.8406400000000001    0.9766300000000000 Cd
   0.9999800000000000    0.4999700000000000    0.5000200000000000 Cd
   0.3545700000000000    0.1592400000000000    0.5234100000000000 Cd
   0.2795300000000000    0.7561900000000000    0.1634550000000000 H
   0.3455100000000000    0.6323900000000000    0.0260200000000000 H
   0.4009300000000000    0.2667100000000000    0.2631650000000000 H
   0.3132300000000000    0.3097100000000000    0.1823100000000000 H
   0.0673200000000000    0.6524700000000000    0.3281950000000000 H
   0.1121000000000000    0.7078300000000000    0.2310550000000000 H
   0.3428100000000000    0.2106800000000000    0.3600400000000000 H
   0.2795300000000000    0.7561900000000000    0.6634550000000000 H
   0.3455100000000000    0.6323900000000000    0.5260200000000000 H
   0.4009300000000000    0.2667100000000000    0.7631650000000000 H
   0.3132300000000000    0.3097100000000000    0.6823100000000000 H
   0.0673200000000000    0.6524700000000000    0.8281950000000000 H
   0.1121000000000000    0.7078300000000000    0.7310550000000000 H
   0.3428100000000000    0.2106800000000000    0.8600400000000000 H
   0.7203800000000000    0.2437100000000000    0.8365800000000000 H
   0.6543900000000000    0.3675400000000000    0.9740100000000000 H
   0.5990200000000000    0.7331800000000001    0.7368650000000000 H
   0.6867400000000000    0.6901900000000000    0.8177200000000000 H
   0.9326400000000000    0.3474200000000000    0.6718350000000000 H
   0.8878300000000000    0.2920500000000000    0.7689750000000000 H
   0.6571600000000000    0.7892100000000000    0.6399900000000001 H
   0.3219300000000000    0.8618800000000000    0.0578800000000000 C
   0.3133300000000000    0.7091100000000000    0.0918550000000000 C
   0.2918700000000000    0.6711300000000000    0.1472450000000000 C
   0.3305600000000000    0.4598200000000000    0.1022900000000000 C
   0.3447100000000000    0.3461400000000000    0.0787900000000000 C
   0.3304400000000000    0.6034400000000000    0.0691250000000000 C
   0.3244900000000000    0.3516700000000000    0.2768550000000000 C
   0.3138700000000000    0.4223400000000000    0.1578450000000000 C
   0.1396500000000000    0.5686000000000000    0.3134700000000000 C
   0.2019900000000000    0.4282600000000000    0.3504100000000000 C
   0.2905400000000000    0.5279199999999999    0.1812000000000000 C
   0.1676400000000000    0.5994200000000000    0.2590100000000000 C
   0.2618400000000000    0.4920400000000000    0.2394800000000000 C
   0.2939900000000000    0.3197300000000000    0.3314700000000000 C
   0.1700900000000000    0.3965800000000000    0.4089400000000000 C
   0.3219300000000000    0.8618800000000000    0.5578800000000000 C
   0.3133300000000000    0.7091100000000000    0.5918550000000000 C
   0.2918700000000000    0.6711300000000000    0.6472450000000000 C
   0.3305600000000000    0.4598200000000000    0.6022900000000000 C
   0.3447100000000000    0.3461400000000000    0.5787900000000000 C
   0.3304400000000000    0.6034400000000000    0.5691250000000000 C
   0.3244900000000000    0.3516700000000000    0.7768550000000001 C
   0.3138700000000000    0.4223400000000000    0.6578450000000000 C
   0.1396500000000000    0.5686000000000000    0.8134700000000000 C
   0.2019900000000000    0.4282600000000000    0.8504100000000000 C
   0.2905400000000000    0.5279199999999999    0.6812000000000000 C
   0.1676400000000000    0.5994200000000000    0.7590100000000000 C
   0.2618400000000000    0.4920400000000000    0.7394800000000000 C
   0.2939900000000000    0.3197300000000000    0.8314699999999999 C
   0.1700900000000000    0.3965800000000000    0.9089400000000001 C
   0.6780400000000000    0.1380300000000000    0.9421649999999999 C
   0.6865400000000000    0.2908100000000000    0.9081750000000000 C
   0.7080700000000000    0.3287700000000000    0.8527850000000000 C
   0.6693300000000000    0.5401000000000000    0.8977349999999999 C
   0.6552900000000000    0.6537900000000000    0.9212250000000000 C
   0.6695200000000000    0.3964800000000000    0.9309050000000000 C
   0.6754700000000000    0.6482200000000000    0.7231750000000000 C
   0.6861100000000000    0.5775600000000000    0.8421799999999999 C
   0.8603000000000000    0.4312900000000000    0.6865600000000001 C
   0.7979900000000000    0.5716300000000000    0.6496200000000000 C
   0.7093400000000000    0.4719800000000000    0.8188299999999999 C
   0.8323100000000000    0.4004700000000000    0.7410200000000000 C
   0.7381000000000000    0.5078400000000000    0.7605500000000001 C
   0.7059700000000000    0.6801600000000000    0.6685600000000000 C
   0.8298900000000000    0.6033100000000000    0.5910900000000000 C
   0.2803400000000000    0.9569600000000000    0.0798650000000000 O
   0.3691800000000000    0.8941200000000000    0.0086750000000000 O
   0.2888700000000000    0.3889600000000000    0.0292800000000000 O
   0.4081900000000000    0.2151000000000000    0.1042000000000000 O
   0.0880700000000000    0.5066200000000000    0.4211350000000000 O
   0.2215700000000000    0.2678100000000000    0.4415100000000000 O
   0.2803400000000000    0.9569600000000000    0.5798650000000000 O
   0.3691800000000000    0.8941200000000000    0.5086750000000000 O
   0.2888700000000000    0.3889600000000000    0.5292800000000000 O
   0.4081900000000000    0.2151000000000000    0.6042000000000000 O
   0.0880700000000000    0.5066200000000000    0.9211350000000000 O
   0.2215700000000000    0.2678100000000000    0.9415100000000001 O
   0.7196200000000000    0.0429400000000000    0.9201800000000000 O
   0.6307800000000000    0.1057900000000000    0.9913600000000000 O
   0.7111100000000000    0.6109700000000000    0.9707399999999999 O
   0.5918300000000000    0.7848200000000000    0.8958100000000000 O
   0.9119200000000000    0.4932800000000000    0.5788900000000000 O
   0.7784500000000000    0.7320900000000000    0.5585200000000000 O
