H6 O4
1.0
  17.5782352393951591    0.0000000000000000    6.0921639725541086
  -8.7761515781894737   15.6472363001281227    6.4126331288009233
   0.0000000000000000    0.0000000000000000   19.0590000000000011
H O
6 4
direct
   0.5646212010560648    0.0221982462002719    0.3146680914686639 H
   0.5254098081293030    0.8349936457882278    0.5240374977140267 H
   0.5475011196697398   -0.0760591362284366    0.4152992709412407 H
   0.6206760010108862    0.6611047348110555    0.3155731111775119 H
   0.4501025087580147    0.6413951463346820    0.5242814063532085 H
   0.5368115986439331    0.6599617471393123    0.4160519641772194 H
   0.5479700000000000   -0.0056500000000000    0.3747600000000000 O
   0.5257600000000000    0.8875800000000000    0.4937600000000000 O
   0.5770500000000000    0.6293700000000000    0.3756200000000000 O
   0.4800200000000000    0.6186500000000000    0.4942200000000000 O
