C8 O4 F4
1.0
  24.6611206442229616    0.0000000000000000   -6.7756736617903934
  -0.0825326939154021   38.3094437830532186    0.1892231157129573
   0.0000000000000000    0.0000000000000000   35.4299999999999997
C O F
8 4 4
direct
   0.5298900000000000    0.1949266666666666    0.3295700000000000 C
   0.5133900000000000    0.1802233333333333    0.2886000000000000 C
   0.4718400000000000    0.1556566666666667    0.2765500000000000 C
   0.4586600000000000    0.1424733333333333    0.2385300000000000 C
   0.4700700000000000    0.1384000000000000    0.1704400000000000 C
   0.4865800000000000    0.1531066666666667    0.2113850000000000 C
   0.5281300000000000    0.1776733333333333    0.2234500000000000 C
   0.5413100000000000    0.1908566666666667    0.2614750000000000 C
   0.4280500000000000    0.1495966666666667    0.1457000000000000 O
   0.5719100000000000    0.1837266666666666    0.3543000000000000 O
   0.5017600000000000    0.2197933333333333    0.3376450000000000 O
   0.4981800000000000    0.1135200000000000    0.1623650000000000 O
   0.4445500000000000    0.1438233333333333    0.3016500000000000 F
   0.4183100000000000    0.1187133333333333    0.2280500000000000 F
   0.5554300000000000    0.1895000000000000    0.1983500000000000 F
   0.5816600000000000    0.2146133333333333    0.2719200000000000 F
