Cu32 H496 C496 S62 I32
1.0
  29.5979999954919641    0.0000000000000000   -0.0005165825519825
  -0.0251950105688803   25.7779876873941092    0.0000000000000016
   0.0000000000000000    0.0000000000000000   20.8500000000000014
Cu H C S I
32 496 496 62 32
direct
   0.0604250000000000    0.3310150000000000    0.7500100000000000 Cu
   0.1854100000000000    0.4197100000000000    0.7500100000000000 Cu
   0.1895800000000000    0.1689900000000000    0.2500200000000000 Cu
   0.0645600000000000    0.0803400000000000    0.2500200000000000 Cu
   0.3104250000000000    0.3310150000000000    0.7500100000000000 Cu
   0.4354100000000000    0.4197100000000000    0.7500100000000000 Cu
   0.4395800000000000    0.1689900000000000    0.2500200000000000 Cu
   0.3145600000000000    0.0803400000000000    0.2500200000000000 Cu
   0.5604250000000000    0.3310150000000000    0.7500100000000000 Cu
   0.6854100000000000    0.4197100000000000    0.7500100000000000 Cu
   0.6895800000000000    0.1689900000000000    0.2500200000000000 Cu
   0.5645600000000000    0.0803400000000000    0.2500200000000000 Cu
   0.8104250000000000    0.3310150000000000    0.7500100000000000 Cu
   0.9354100000000000    0.4197100000000000    0.7500100000000000 Cu
   0.9395800000000000    0.1689900000000000    0.2500200000000000 Cu
   0.8145600000000000    0.0803400000000000    0.2500200000000000 Cu
   0.0604250000000000    0.8310150000000001    0.7500100000000000 Cu
   0.1854100000000000    0.9197100000000000    0.7500100000000000 Cu
   0.1895800000000000    0.6689900000000000    0.2500200000000000 Cu
   0.0645600000000000    0.5803400000000000    0.2500200000000000 Cu
   0.3104250000000000    0.8310150000000001    0.7500100000000000 Cu
   0.4354100000000000    0.9197100000000000    0.7500100000000000 Cu
   0.4395800000000000    0.6689900000000000    0.2500200000000000 Cu
   0.3145600000000000    0.5803400000000000    0.2500200000000000 Cu
   0.5604250000000000    0.8310150000000001    0.7500100000000000 Cu
   0.6854100000000000    0.9197100000000000    0.7500100000000000 Cu
   0.6895800000000000    0.6689900000000000    0.2500200000000000 Cu
   0.5645600000000000    0.5803400000000000    0.2500200000000000 Cu
   0.8104250000000000    0.8310150000000001    0.7500100000000000 Cu
   0.9354100000000000    0.9197100000000000    0.7500100000000000 Cu
   0.9395800000000000    0.6689900000000000    0.2500200000000000 Cu
   0.8145600000000000    0.5803400000000000    0.2500200000000000 Cu
   0.0953775000000000    0.4186750000000000    0.1085300000000000 H
   0.1301850000000000    0.3779950000000000    0.0131700000000000 H
   0.0703500000000000    0.4945550000000000    0.8925800000000000 H
   0.0370700000000000    0.0365500000000000    0.9883000000000000 H
   0.0256875000000000    0.0429200000000000    0.0996400000000000 H
   0.0305750000000000    0.4869350000000000    0.1478700000000000 H
   0.0956200000000000    0.1157950000000000    0.0957900000000000 H
   0.1438575000000000    0.1073800000000000    0.1448300000000000 H
   0.0294775000000000    0.1687950000000000    0.8913400000000000 H
   0.2447575000000000    0.1279250000000000    0.9866300000000000 H
   0.0546450000000000    0.2445050000000000    0.1073700000000000 H
   0.0879050000000000    0.2866250000000000    0.0117000000000000 H
   0.0992700000000000    0.2931200000000000    0.9003400000000000 H
   0.0942900000000000    0.2371900000000000    0.8520300000000000 H
   0.0293775000000000    0.3660000000000000    0.9042900000000000 H
   0.2311250000000000    0.3575300000000000    0.8553700000000000 H
   0.1546125000000000    0.0813300000000000    0.6085600000000000 H
   0.1198200000000000    0.1220250000000000    0.5132000000000000 H
   0.1796025000000000    0.0054100000000000    0.3926400000000000 H
   0.2129175000000000    0.4634550000000000    0.4883600000000000 H
   0.2242175000000000    0.4570350000000000    0.5997400000000001 H
   0.2194200000000000    0.0130700000000000    0.6479000000000000 H
   0.1543925000000000    0.3843050000000000    0.5959100000000001 H
   0.1061075000000000    0.3926800000000000    0.6448700000000001 H
   0.2204900000000000    0.3312350000000000    0.3913300000000000 H
   0.0052675000000000    0.3720600000000000    0.4866400000000000 H
   0.1953625000000000    0.2554850000000000    0.6073300000000000 H
   0.1620700000000000    0.2133900000000000    0.5116500000000000 H
   0.1506375000000000    0.2069450000000000    0.4003800000000000 H
   0.1556750000000000    0.2628350000000000    0.3520200000000000 H
   0.2206300000000000    0.1339950000000000    0.4044100000000000 H
   0.0188675000000000    0.1424850000000000    0.3554000000000000 H
   0.1546200000000000    0.0813400000000000    0.8914800000000001 H
   0.1198075000000000    0.1220250000000000    0.9868200000000000 H
   0.1796150000000000    0.0054550000000000    0.1074300000000000 H
   0.2129200000000000    0.4634750000000000    0.0117200000000000 H
   0.2242900000000000    0.4570850000000000    0.9003700000000000 H
   0.2194225000000000    0.0130750000000000    0.8521500000000000 H
   0.1543400000000000    0.3842150000000000    0.9041800000000000 H
   0.1061025000000000    0.3926750000000000    0.8551600000000000 H
   0.2204775000000000    0.3312350000000000    0.1087200000000000 H
   0.0052700000000000    0.3720750000000000    0.0133800000000000 H
   0.1953425000000000    0.2555200000000000    0.8926900000000000 H
   0.1620650000000000    0.2134050000000000    0.9883600000000000 H
   0.1506975000000000    0.2069100000000000    0.0997100000000000 H
   0.1557025000000000    0.2628200000000000    0.1480500000000000 H
   0.2205775000000000    0.1340450000000000    0.0956500000000000 H
   0.0188900000000000    0.1424700000000000    0.1446900000000000 H
   0.0953925000000000    0.4186650000000000    0.3915000000000000 H
   0.1301900000000000    0.3779950000000000    0.4868700000000000 H
   0.0703400000000000    0.4945600000000000    0.6074200000000000 H
   0.0370700000000000    0.0365500000000000    0.5116900000000000 H
   0.0256825000000000    0.0429150000000000    0.4004300000000000 H
   0.0305600000000000    0.4869500000000000    0.3521600000000000 H
   0.0956400000000000    0.1158000000000000    0.4042800000000000 H
   0.1438675000000000    0.1073700000000000    0.3552300000000000 H
   0.0294800000000000    0.1687850000000000    0.6087200000000000 H
   0.2447025000000000    0.1279800000000000    0.5133700000000000 H
   0.0546175000000000    0.2445400000000000    0.3927200000000000 H
   0.0879075000000000    0.2866300000000000    0.4883900000000000 H
   0.0993300000000000    0.2930950000000000    0.5996300000000000 H
   0.0943225000000000    0.2372150000000000    0.6480300000000000 H
   0.0293700000000000    0.3660350000000000    0.5956200000000000 H
   0.2311325000000000    0.3575450000000000    0.6446200000000000 H
   0.3453775000000000    0.4186750000000000    0.1085300000000000 H
   0.3801850000000000    0.3779950000000000    0.0131700000000000 H
   0.3203500000000000    0.4945550000000000    0.8925800000000000 H
   0.2870700000000000    0.0365500000000000    0.9883000000000000 H
   0.2756875000000000    0.0429200000000000    0.0996400000000000 H
   0.2805750000000000    0.4869350000000000    0.1478700000000000 H
   0.3456200000000000    0.1157950000000000    0.0957900000000000 H
   0.3938575000000000    0.1073800000000000    0.1448300000000000 H
   0.2794775000000000    0.1687950000000000    0.8913400000000000 H
   0.4947575000000000    0.1279250000000000    0.9866300000000000 H
   0.3046450000000000    0.2445050000000000    0.1073700000000000 H
   0.3379050000000000    0.2866250000000000    0.0117000000000000 H
   0.3492700000000000    0.2931200000000000    0.9003400000000000 H
   0.3442900000000000    0.2371900000000000    0.8520300000000000 H
   0.2793775000000000    0.3660000000000000    0.9042900000000000 H
   0.4811250000000000    0.3575300000000000    0.8553700000000000 H
   0.4046125000000000    0.0813300000000000    0.6085600000000000 H
   0.3698200000000000    0.1220250000000000    0.5132000000000000 H
   0.4296025000000000    0.0054100000000000    0.3926400000000000 H
   0.4629175000000000    0.4634550000000000    0.4883600000000000 H
   0.4742175000000000    0.4570350000000000    0.5997400000000001 H
   0.4694200000000000    0.0130700000000000    0.6479000000000000 H
   0.4043925000000000    0.3843050000000000    0.5959100000000001 H
   0.3561075000000000    0.3926800000000000    0.6448700000000001 H
   0.4704900000000000    0.3312350000000000    0.3913300000000000 H
   0.2552675000000000    0.3720600000000000    0.4866400000000000 H
   0.4453625000000000    0.2554850000000000    0.6073300000000000 H
   0.4120700000000000    0.2133900000000000    0.5116500000000000 H
   0.4006375000000000    0.2069450000000000    0.4003800000000000 H
   0.4056750000000000    0.2628350000000000    0.3520200000000000 H
   0.4706300000000000    0.1339950000000000    0.4044100000000000 H
   0.2688675000000000    0.1424850000000000    0.3554000000000000 H
   0.4046200000000000    0.0813400000000000    0.8914800000000001 H
   0.3698075000000000    0.1220250000000000    0.9868200000000000 H
   0.4296150000000000    0.0054550000000000    0.1074300000000000 H
   0.4629200000000000    0.4634750000000000    0.0117200000000000 H
   0.4742900000000000    0.4570850000000000    0.9003700000000000 H
   0.4694225000000000    0.0130750000000000    0.8521500000000000 H
   0.4043400000000000    0.3842150000000000    0.9041800000000000 H
   0.3561025000000000    0.3926750000000000    0.8551600000000000 H
   0.4704775000000000    0.3312350000000000    0.1087200000000000 H
   0.2552700000000000    0.3720750000000000    0.0133800000000000 H
   0.4453425000000000    0.2555200000000000    0.8926900000000000 H
   0.4120650000000000    0.2134050000000000    0.9883600000000000 H
   0.4006975000000000    0.2069100000000000    0.0997100000000000 H
   0.4057025000000000    0.2628200000000000    0.1480500000000000 H
   0.4705775000000000    0.1340450000000000    0.0956500000000000 H
   0.2688900000000000    0.1424700000000000    0.1446900000000000 H
   0.3453925000000000    0.4186650000000000    0.3915000000000000 H
   0.3801900000000000    0.3779950000000000    0.4868700000000000 H
   0.3203400000000000    0.4945600000000000    0.6074200000000000 H
   0.2870700000000000    0.0365500000000000    0.5116900000000000 H
   0.2756825000000000    0.0429150000000000    0.4004300000000000 H
   0.2805600000000000    0.4869500000000000    0.3521600000000000 H
   0.3456400000000000    0.1158000000000000    0.4042800000000000 H
   0.3938675000000000    0.1073700000000000    0.3552300000000000 H
   0.2794800000000000    0.1687850000000000    0.6087200000000000 H
   0.4947025000000000    0.1279800000000000    0.5133700000000000 H
   0.3046175000000000    0.2445400000000000    0.3927200000000000 H
   0.3379075000000000    0.2866300000000000    0.4883900000000000 H
   0.3493300000000000    0.2930950000000000    0.5996300000000000 H
   0.3443225000000000    0.2372150000000000    0.6480300000000000 H
   0.2793700000000000    0.3660350000000000    0.5956200000000000 H
   0.4811325000000000    0.3575450000000000    0.6446200000000000 H
   0.5953775000000000    0.4186750000000000    0.1085300000000000 H
   0.6301850000000000    0.3779950000000000    0.0131700000000000 H
   0.5703500000000000    0.4945550000000000    0.8925800000000000 H
   0.5370700000000000    0.0365500000000000    0.9883000000000000 H
   0.5256875000000000    0.0429200000000000    0.0996400000000000 H
   0.5305750000000000    0.4869350000000000    0.1478700000000000 H
   0.5956200000000000    0.1157950000000000    0.0957900000000000 H
   0.6438575000000000    0.1073800000000000    0.1448300000000000 H
   0.5294775000000000    0.1687950000000000    0.8913400000000000 H
   0.7447575000000000    0.1279250000000000    0.9866300000000000 H
   0.5546450000000001    0.2445050000000000    0.1073700000000000 H
   0.5879050000000000    0.2866250000000000    0.0117000000000000 H
   0.5992700000000000    0.2931200000000000    0.9003400000000000 H
   0.5942900000000000    0.2371900000000000    0.8520300000000000 H
   0.5293775000000001    0.3660000000000000    0.9042900000000000 H
   0.7311250000000000    0.3575300000000000    0.8553700000000000 H
   0.6546125000000000    0.0813300000000000    0.6085600000000000 H
   0.6198200000000000    0.1220250000000000    0.5132000000000000 H
   0.6796025000000000    0.0054100000000000    0.3926400000000000 H
   0.7129175000000000    0.4634550000000000    0.4883600000000000 H
   0.7242175000000000    0.4570350000000000    0.5997400000000001 H
   0.7194199999999999    0.0130700000000000    0.6479000000000000 H
   0.6543924999999999    0.3843050000000000    0.5959100000000001 H
   0.6061075000000000    0.3926800000000000    0.6448700000000001 H
   0.7204900000000000    0.3312350000000000    0.3913300000000000 H
   0.5052675000000000    0.3720600000000000    0.4866400000000000 H
   0.6953625000000000    0.2554850000000000    0.6073300000000000 H
   0.6620699999999999    0.2133900000000000    0.5116500000000000 H
   0.6506375000000000    0.2069450000000000    0.4003800000000000 H
   0.6556750000000000    0.2628350000000000    0.3520200000000000 H
   0.7206300000000000    0.1339950000000000    0.4044100000000000 H
   0.5188675000000000    0.1424850000000000    0.3554000000000000 H
   0.6546200000000000    0.0813400000000000    0.8914800000000001 H
   0.6198075000000000    0.1220250000000000    0.9868200000000000 H
   0.6796150000000000    0.0054550000000000    0.1074300000000000 H
   0.7129200000000000    0.4634750000000000    0.0117200000000000 H
   0.7242900000000000    0.4570850000000000    0.9003700000000000 H
   0.7194225000000000    0.0130750000000000    0.8521500000000000 H
   0.6543400000000000    0.3842150000000000    0.9041800000000000 H
   0.6061025000000000    0.3926750000000000    0.8551600000000000 H
   0.7204775000000000    0.3312350000000000    0.1087200000000000 H
   0.5052700000000000    0.3720750000000000    0.0133800000000000 H
   0.6953425000000000    0.2555200000000000    0.8926900000000000 H
   0.6620650000000000    0.2134050000000000    0.9883600000000000 H
   0.6506975000000000    0.2069100000000000    0.0997100000000000 H
   0.6557025000000000    0.2628200000000000    0.1480500000000000 H
   0.7205775000000000    0.1340450000000000    0.0956500000000000 H
   0.5188900000000000    0.1424700000000000    0.1446900000000000 H
   0.5953925000000000    0.4186650000000000    0.3915000000000000 H
   0.6301900000000000    0.3779950000000000    0.4868700000000000 H
   0.5703400000000000    0.4945600000000000    0.6074200000000000 H
   0.5370700000000000    0.0365500000000000    0.5116900000000000 H
   0.5256825000000001    0.0429150000000000    0.4004300000000000 H
   0.5305600000000000    0.4869500000000000    0.3521600000000000 H
   0.5956399999999999    0.1158000000000000    0.4042800000000000 H
   0.6438675000000000    0.1073700000000000    0.3552300000000000 H
   0.5294800000000000    0.1687850000000000    0.6087200000000000 H
   0.7447025000000000    0.1279800000000000    0.5133700000000000 H
   0.5546175000000000    0.2445400000000000    0.3927200000000000 H
   0.5879075000000000    0.2866300000000000    0.4883900000000000 H
   0.5993300000000000    0.2930950000000000    0.5996300000000000 H
   0.5943225000000000    0.2372150000000000    0.6480300000000000 H
   0.5293700000000000    0.3660350000000000    0.5956200000000000 H
   0.7311325000000000    0.3575450000000000    0.6446200000000000 H
   0.8453775000000000    0.4186750000000000    0.1085300000000000 H
   0.8801850000000000    0.3779950000000000    0.0131700000000000 H
   0.8203500000000000    0.4945550000000000    0.8925800000000000 H
   0.7870700000000000    0.0365500000000000    0.9883000000000000 H
   0.7756875000000000    0.0429200000000000    0.0996400000000000 H
   0.7805750000000000    0.4869350000000000    0.1478700000000000 H
   0.8456200000000000    0.1157950000000000    0.0957900000000000 H
   0.8938575000000000    0.1073800000000000    0.1448300000000000 H
   0.7794775000000000    0.1687950000000000    0.8913400000000000 H
   0.9947575000000000    0.1279250000000000    0.9866300000000000 H
   0.8046450000000001    0.2445050000000000    0.1073700000000000 H
   0.8379050000000000    0.2866250000000000    0.0117000000000000 H
   0.8492700000000000    0.2931200000000000    0.9003400000000000 H
   0.8442900000000000    0.2371900000000000    0.8520300000000000 H
   0.7793775000000001    0.3660000000000000    0.9042900000000000 H
   0.9811250000000000    0.3575300000000000    0.8553700000000000 H
   0.9046125000000000    0.0813300000000000    0.6085600000000000 H
   0.8698200000000000    0.1220250000000000    0.5132000000000000 H
   0.9296025000000000    0.0054100000000000    0.3926400000000000 H
   0.9629175000000000    0.4634550000000000    0.4883600000000000 H
   0.9742175000000000    0.4570350000000000    0.5997400000000001 H
   0.9694199999999999    0.0130700000000000    0.6479000000000000 H
   0.9043924999999999    0.3843050000000000    0.5959100000000001 H
   0.8561075000000000    0.3926800000000000    0.6448700000000001 H
   0.9704900000000000    0.3312350000000000    0.3913300000000000 H
   0.7552675000000000    0.3720600000000000    0.4866400000000000 H
   0.9453625000000000    0.2554850000000000    0.6073300000000000 H
   0.9120699999999999    0.2133900000000000    0.5116500000000000 H
   0.9006375000000000    0.2069450000000000    0.4003800000000000 H
   0.9056750000000000    0.2628350000000000    0.3520200000000000 H
   0.9706300000000000    0.1339950000000000    0.4044100000000000 H
   0.7688675000000000    0.1424850000000000    0.3554000000000000 H
   0.9046200000000000    0.0813400000000000    0.8914800000000001 H
   0.8698075000000000    0.1220250000000000    0.9868200000000000 H
   0.9296150000000000    0.0054550000000000    0.1074300000000000 H
   0.9629200000000000    0.4634750000000000    0.0117200000000000 H
   0.9742900000000000    0.4570850000000000    0.9003700000000000 H
   0.9694225000000000    0.0130750000000000    0.8521500000000000 H
   0.9043400000000000    0.3842150000000000    0.9041800000000000 H
   0.8561025000000000    0.3926750000000000    0.8551600000000000 H
   0.9704775000000000    0.3312350000000000    0.1087200000000000 H
   0.7552700000000000    0.3720750000000000    0.0133800000000000 H
   0.9453425000000000    0.2555200000000000    0.8926900000000000 H
   0.9120650000000000    0.2134050000000000    0.9883600000000000 H
   0.9006975000000000    0.2069100000000000    0.0997100000000000 H
   0.9057025000000000    0.2628200000000000    0.1480500000000000 H
   0.9705775000000000    0.1340450000000000    0.0956500000000000 H
   0.7688900000000000    0.1424700000000000    0.1446900000000000 H
   0.8453925000000000    0.4186650000000000    0.3915000000000000 H
   0.8801900000000000    0.3779950000000000    0.4868700000000000 H
   0.8203400000000000    0.4945600000000000    0.6074200000000000 H
   0.7870700000000000    0.0365500000000000    0.5116900000000000 H
   0.7756825000000001    0.0429150000000000    0.4004300000000000 H
   0.7805600000000000    0.4869500000000000    0.3521600000000000 H
   0.8456399999999999    0.1158000000000000    0.4042800000000000 H
   0.8938675000000000    0.1073700000000000    0.3552300000000000 H
   0.7794800000000000    0.1687850000000000    0.6087200000000000 H
   0.9947025000000000    0.1279800000000000    0.5133700000000000 H
   0.8046175000000000    0.2445400000000000    0.3927200000000000 H
   0.8379075000000000    0.2866300000000000    0.4883900000000000 H
   0.8493300000000000    0.2930950000000000    0.5996300000000000 H
   0.8443225000000000    0.2372150000000000    0.6480300000000000 H
   0.7793700000000000    0.3660350000000000    0.5956200000000000 H
   0.9811325000000000    0.3575450000000000    0.6446200000000000 H
   0.0953775000000000    0.9186750000000000    0.1085300000000000 H
   0.1301850000000000    0.8779950000000001    0.0131700000000000 H
   0.0703500000000000    0.9945550000000001    0.8925800000000000 H
   0.0370700000000000    0.5365500000000000    0.9883000000000000 H
   0.0256875000000000    0.5429200000000000    0.0996400000000000 H
   0.0305750000000000    0.9869350000000000    0.1478700000000000 H
   0.0956200000000000    0.6157950000000000    0.0957900000000000 H
   0.1438575000000000    0.6073800000000000    0.1448300000000000 H
   0.0294775000000000    0.6687950000000000    0.8913400000000000 H
   0.2447575000000000    0.6279250000000001    0.9866300000000000 H
   0.0546450000000000    0.7445050000000000    0.1073700000000000 H
   0.0879050000000000    0.7866250000000000    0.0117000000000000 H
   0.0992700000000000    0.7931200000000000    0.9003400000000000 H
   0.0942900000000000    0.7371900000000000    0.8520300000000000 H
   0.0293775000000000    0.8660000000000000    0.9042900000000000 H
   0.2311250000000000    0.8575300000000000    0.8553700000000000 H
   0.1546125000000000    0.5813300000000000    0.6085600000000000 H
   0.1198200000000000    0.6220250000000001    0.5132000000000000 H
   0.1796025000000000    0.5054100000000000    0.3926400000000000 H
   0.2129175000000000    0.9634550000000000    0.4883600000000000 H
   0.2242175000000000    0.9570350000000001    0.5997400000000001 H
   0.2194200000000000    0.5130700000000000    0.6479000000000000 H
   0.1543925000000000    0.8843050000000000    0.5959100000000001 H
   0.1061075000000000    0.8926799999999999    0.6448700000000001 H
   0.2204900000000000    0.8312349999999999    0.3913300000000000 H
   0.0052675000000000    0.8720600000000001    0.4866400000000000 H
   0.1953625000000000    0.7554850000000000    0.6073300000000000 H
   0.1620700000000000    0.7133900000000000    0.5116500000000000 H
   0.1506375000000000    0.7069449999999999    0.4003800000000000 H
   0.1556750000000000    0.7628349999999999    0.3520200000000000 H
   0.2206300000000000    0.6339950000000000    0.4044100000000000 H
   0.0188675000000000    0.6424850000000000    0.3554000000000000 H
   0.1546200000000000    0.5813400000000000    0.8914800000000001 H
   0.1198075000000000    0.6220250000000001    0.9868200000000000 H
   0.1796150000000000    0.5054550000000000    0.1074300000000000 H
   0.2129200000000000    0.9634750000000001    0.0117200000000000 H
   0.2242900000000000    0.9570850000000000    0.9003700000000000 H
   0.2194225000000000    0.5130749999999999    0.8521500000000000 H
   0.1543400000000000    0.8842150000000000    0.9041800000000000 H
   0.1061025000000000    0.8926750000000000    0.8551600000000000 H
   0.2204775000000000    0.8312349999999999    0.1087200000000000 H
   0.0052700000000000    0.8720749999999999    0.0133800000000000 H
   0.1953425000000000    0.7555200000000000    0.8926900000000000 H
   0.1620650000000000    0.7134050000000001    0.9883600000000000 H
   0.1506975000000000    0.7069100000000000    0.0997100000000000 H
   0.1557025000000000    0.7628200000000001    0.1480500000000000 H
   0.2205775000000000    0.6340450000000000    0.0956500000000000 H
   0.0188900000000000    0.6424700000000000    0.1446900000000000 H
   0.0953925000000000    0.9186650000000001    0.3915000000000000 H
   0.1301900000000000    0.8779950000000001    0.4868700000000000 H
   0.0703400000000000    0.9945600000000000    0.6074200000000000 H
   0.0370700000000000    0.5365500000000000    0.5116900000000000 H
   0.0256825000000000    0.5429150000000000    0.4004300000000000 H
   0.0305600000000000    0.9869500000000000    0.3521600000000000 H
   0.0956400000000000    0.6158000000000000    0.4042800000000000 H
   0.1438675000000000    0.6073700000000000    0.3552300000000000 H
   0.0294800000000000    0.6687850000000000    0.6087200000000000 H
   0.2447025000000000    0.6279800000000000    0.5133700000000000 H
   0.0546175000000000    0.7445400000000000    0.3927200000000000 H
   0.0879075000000000    0.7866299999999999    0.4883900000000000 H
   0.0993300000000000    0.7930950000000000    0.5996300000000000 H
   0.0943225000000000    0.7372150000000000    0.6480300000000000 H
   0.0293700000000000    0.8660350000000000    0.5956200000000000 H
   0.2311325000000000    0.8575450000000000    0.6446200000000000 H
   0.3453775000000000    0.9186750000000000    0.1085300000000000 H
   0.3801850000000000    0.8779950000000001    0.0131700000000000 H
   0.3203500000000000    0.9945550000000001    0.8925800000000000 H
   0.2870700000000000    0.5365500000000000    0.9883000000000000 H
   0.2756875000000000    0.5429200000000000    0.0996400000000000 H
   0.2805750000000000    0.9869350000000000    0.1478700000000000 H
   0.3456200000000000    0.6157950000000000    0.0957900000000000 H
   0.3938575000000000    0.6073800000000000    0.1448300000000000 H
   0.2794775000000000    0.6687950000000000    0.8913400000000000 H
   0.3046450000000000    0.7445050000000000    0.1073700000000000 H
   0.3379050000000000    0.7866250000000000    0.0117000000000000 H
   0.3492700000000000    0.7931200000000000    0.9003400000000000 H
   0.3442900000000000    0.7371900000000000    0.8520300000000000 H
   0.2793775000000000    0.8660000000000000    0.9042900000000000 H
   0.4046125000000000    0.5813300000000000    0.6085600000000000 H
   0.3698200000000000    0.6220250000000001    0.5132000000000000 H
   0.4296025000000000    0.5054100000000000    0.3926400000000000 H
   0.4629175000000000    0.9634550000000000    0.4883600000000000 H
   0.4742175000000000    0.9570350000000001    0.5997400000000001 H
   0.4694200000000000    0.5130700000000000    0.6479000000000000 H
   0.4043925000000000    0.8843050000000000    0.5959100000000001 H
   0.3561075000000000    0.8926799999999999    0.6448700000000001 H
   0.4704900000000000    0.8312349999999999    0.3913300000000000 H
   0.2552675000000000    0.8720600000000001    0.4866400000000000 H
   0.4453625000000000    0.7554850000000000    0.6073300000000000 H
   0.4120700000000000    0.7133900000000000    0.5116500000000000 H
   0.4006375000000000    0.7069449999999999    0.4003800000000000 H
   0.4056750000000000    0.7628349999999999    0.3520200000000000 H
   0.4706300000000000    0.6339950000000000    0.4044100000000000 H
   0.2688675000000000    0.6424850000000000    0.3554000000000000 H
   0.4046200000000000    0.5813400000000000    0.8914800000000001 H
   0.3698075000000000    0.6220250000000001    0.9868200000000000 H
   0.4296150000000000    0.5054550000000000    0.1074300000000000 H
   0.4629200000000000    0.9634750000000001    0.0117200000000000 H
   0.4742900000000000    0.9570850000000000    0.9003700000000000 H
   0.4694225000000000    0.5130749999999999    0.8521500000000000 H
   0.4043400000000000    0.8842150000000000    0.9041800000000000 H
   0.3561025000000000    0.8926750000000000    0.8551600000000000 H
   0.2552700000000000    0.8720749999999999    0.0133800000000000 H
   0.2688900000000000    0.6424700000000000    0.1446900000000000 H
   0.3453925000000000    0.9186650000000001    0.3915000000000000 H
   0.3801900000000000    0.8779950000000001    0.4868700000000000 H
   0.3203400000000000    0.9945600000000000    0.6074200000000000 H
   0.2870700000000000    0.5365500000000000    0.5116900000000000 H
   0.2756825000000000    0.5429150000000000    0.4004300000000000 H
   0.2805600000000000    0.9869500000000000    0.3521600000000000 H
   0.3456400000000000    0.6158000000000000    0.4042800000000000 H
   0.3938675000000000    0.6073700000000000    0.3552300000000000 H
   0.2794800000000000    0.6687850000000000    0.6087200000000000 H
   0.4947025000000000    0.6279800000000000    0.5133700000000000 H
   0.3046175000000000    0.7445400000000000    0.3927200000000000 H
   0.3379075000000000    0.7866299999999999    0.4883900000000000 H
   0.3493300000000000    0.7930950000000000    0.5996300000000000 H
   0.3443225000000000    0.7372150000000000    0.6480300000000000 H
   0.2793700000000000    0.8660350000000000    0.5956200000000000 H
   0.4811325000000000    0.8575450000000000    0.6446200000000000 H
   0.5953775000000000    0.9186750000000000    0.1085300000000000 H
   0.6301850000000000    0.8779950000000001    0.0131700000000000 H
   0.5703500000000000    0.9945550000000001    0.8925800000000000 H
   0.5370700000000000    0.5365500000000000    0.9883000000000000 H
   0.5256875000000000    0.5429200000000000    0.0996400000000000 H
   0.5305750000000000    0.9869350000000000    0.1478700000000000 H
   0.5956200000000000    0.6157950000000000    0.0957900000000000 H
   0.6438575000000000    0.6073800000000000    0.1448300000000000 H
   0.7447575000000000    0.6279250000000001    0.9866300000000000 H
   0.7311250000000000    0.8575300000000000    0.8553700000000000 H
   0.6546125000000000    0.5813300000000000    0.6085600000000000 H
   0.6198200000000000    0.6220250000000001    0.5132000000000000 H
   0.6796025000000000    0.5054100000000000    0.3926400000000000 H
   0.7129175000000000    0.9634550000000000    0.4883600000000000 H
   0.7242175000000000    0.9570350000000001    0.5997400000000001 H
   0.7194199999999999    0.5130700000000000    0.6479000000000000 H
   0.6543924999999999    0.8843050000000000    0.5959100000000001 H
   0.6061075000000000    0.8926799999999999    0.6448700000000001 H
   0.7204900000000000    0.8312349999999999    0.3913300000000000 H
   0.5052675000000000    0.8720600000000001    0.4866400000000000 H
   0.6953625000000000    0.7554850000000000    0.6073300000000000 H
   0.6620699999999999    0.7133900000000000    0.5116500000000000 H
   0.6506375000000000    0.7069449999999999    0.4003800000000000 H
   0.6556750000000000    0.7628349999999999    0.3520200000000000 H
   0.7206300000000000    0.6339950000000000    0.4044100000000000 H
   0.5188675000000000    0.6424850000000000    0.3554000000000000 H
   0.6546200000000000    0.5813400000000000    0.8914800000000001 H
   0.6198075000000000    0.6220250000000001    0.9868200000000000 H