Sr8 Cd4 H31 C57 N8 O56
1.0
  10.8779255362299683    0.0000000000000000   -0.0402495743576482
  -0.1348545538455943   18.0654014814939607   -0.0586477769652553
   0.0000000000000000    0.0000000000000000   18.0670000000000002
Sr Cd H C N O
8 4 31 57 8 56
direct
   0.5635599999999999    0.4089700000000000    0.8285100000000000 Sr
   0.4364700000000000    0.1708400000000000    0.5887300000000000 Sr
   0.9389000000000000    0.8294000000000000    0.4073300000000000 Sr
   0.6898500000000000    0.9102800000000000    0.6691100000000000 Sr
   0.8155200000000000    0.6723900000000000    0.9074400000000000 Sr
   0.0654900000000000    0.5907200000000000    0.1689900000000000 Sr
   0.3141800000000000    0.3280800000000000    0.0892100000000000 Sr
   0.1860000000000000    0.0904200000000000    0.3266400000000000 Sr
   0.4986500000000000    0.3666000000000000    0.6322700000000000 Cd
   0.2472700000000000    0.1329900000000000    0.1308900000000000 Cd
   0.0025000000000000    0.6333200000000000    0.3654300000000000 Cd
   0.7536200000000000    0.8690099999999999    0.8657800000000000 Cd
   0.5604600000000000    0.3216400000000000    0.1848500000000000 H
   0.6441200000000000    0.4295600000000000    0.3922400000000000 H
   0.6604000000000000    0.4241500000000000    0.2544000000000000 H
   0.4277100000000000    0.2296100000000000    0.3893700000000000 H
   0.4437600000000000    0.8145500000000000    0.6759700000000000 H
   0.3558500000000000    0.6064800000000000    0.5704399999999999 H
   0.3422700000000000    0.7444700000000000    0.5744899999999999 H
   0.5717700000000000    0.6102800000000000    0.7700500000000000 H
   0.6355335403282321    0.1724249713926344    0.6373744640826536 H
   0.6672579938834257    0.3660050213495065    0.7548557359516772 H
   0.6569482460277875    0.2753980305975772    0.7019749847967605 H
   0.3130000000000000    0.6866500000000000    0.1779700000000000 H
   0.3968800000000000    0.8931700000000000    0.0699000000000000 H
   0.4141200000000000    0.7554400000000000    0.0763100000000000 H
   0.1780000000000000    0.8916700000000000    0.2673900000000000 H
   0.1898000000000000    0.1760500000000000    0.6833399999999999 H
   0.1025600000000000    0.0694200000000000    0.8897699999999999 H
   0.0885500000000000    0.0740300000000000    0.7518200000000000 H
   0.3195000000000000    0.2692300000000000    0.8891800000000000 H
   0.9392900000000000    0.1858000000000000    0.3193000000000000 H
   0.8550100000000000    0.3931000000000000    0.4255200000000000 H
   0.8383900000000000    0.2551300000000000    0.4205200000000000 H
   0.0722700000000000    0.3907900000000000    0.2273700000000000 H
   0.0614400000000000    0.6809400000000000    0.8134500000000000 H
   0.1448500000000000    0.5727700000000000    0.6069500000000000 H
   0.1609400000000000    0.5788700000000000    0.7448800000000000 H
   0.9304300000000000    0.7715600000000000    0.6078400000000000 H
   0.6916000000000000    0.8191600000000000    0.3130200000000000 H
   0.6087200000000000    0.9284600000000000    0.1073500000000000 H
   0.5914500000000000    0.9212900000000001    0.2450800000000000 H
   0.8253600000000000    0.7305100000000000    0.1072200000000000 H
   0.4108800000000000    0.2118500000000000    0.2424100000000000 C
   0.5287900000000000    0.3305400000000000    0.4816500000000000 C
   0.5514500000000000    0.3244700000000000    0.2447700000000000 C
   0.6012400000000000    0.3845700000000000    0.3610100000000000 C
   0.6092100000000000    0.3815800000000000    0.2840500000000000 C
   0.4791300000000000    0.2719600000000000    0.3597800000000000 C
   0.5376000000000000    0.3288600000000000    0.3992600000000000 C
   0.4838200000000000    0.2699300000000000    0.2824700000000000 C
   0.5922900000000000    0.7573299999999999    0.7859300000000000 C
   0.4694200000000000    0.5174600000000000    0.6703000000000000 C
   0.4515400000000000    0.7545600000000000    0.6737500000000000 C
   0.3992600000000000    0.6379400000000000    0.6150400000000000 C
   0.3928600000000000    0.7149799999999999    0.6172299999999999 C
   0.5212200000000000    0.6397100000000000    0.7274100000000000 C
   0.4619400000000000    0.5999200000000000    0.6710800000000000 C
   0.5184200000000000    0.7170700000000000    0.7285100000000000 C
   0.1622900000000000    0.7449200000000000    0.2858600000000000 C
   0.2791500000000000    0.9832200000000000    0.1668100000000000 C
   0.3037600000000000    0.7465100000000000    0.1747000000000000 C
   0.3536400000000000    0.8622600000000000    0.1145600000000000 C
   0.3621100000000000    0.7853700000000000    0.1180700000000000 C
   0.2301000000000000    0.8618500000000000    0.2257500000000000 C
   0.2889200000000000    0.9009100000000000    0.1692600000000000 C
   0.2353200000000000    0.7846100000000000    0.2282700000000000 C
   0.2168500000000000    0.1690800000000000    0.0000000000000000 C
   0.3387100000000000    0.2859900000000000    0.7424700000000000 C
   0.1978800000000000    0.1735500000000000    0.7433400000000000 C
   0.1460800000000000    0.1142100000000000    0.8590500000000000 C
   0.1393600000000000    0.1167300000000000    0.7820100000000000 C
   0.2684800000000000    0.2267100000000000    0.8590900000000000 C
   0.2091700000000000    0.1701500000000000    0.8979600000000000 C
   0.2650600000000000    0.2282500000000000    0.7817600000000000 C
   0.0889800000000000    0.2437200000000000    0.2107100000000000 C
   0.9711900000000000    0.4828700000000000    0.3274200000000000 C
   0.9480400000000000    0.2458000000000000    0.3219200000000000 C
   0.8979600000000000    0.3619600000000000    0.3810100000000000 C
   0.8898600000000000    0.2849400000000000    0.3782900000000000 C
   0.0206600000000000    0.3610900000000000    0.2694700000000000 C
   0.9619600000000000    0.4004300000000000    0.3257100000000000 C
   0.0159300000000000    0.2837500000000000    0.2678200000000000 C
   0.9126900000000000    0.7894099999999999    0.7547199999999999 C
   0.0310300000000000    0.6710800000000000    0.5164900000000000 C
   0.0525600000000000    0.6778200000000000    0.7534999999999999 C
   0.1023200000000000    0.6176400000000000    0.6377699999999999 C
   0.1101300000000000    0.6209700000000000    0.7147600000000000 C
   0.9811700000000000    0.7295300000000000    0.6378800000000000 C
   0.0393900000000000    0.6728800000000000    0.5989400000000000 C
   0.9854000000000001    0.7317600000000000    0.7152100000000000 C
   0.8420900000000000    0.7118000000000000    0.2541200000000000 C
   0.7244400000000000    0.8313400000000000    0.0164200000000000 C
   0.7008799999999999    0.8227300000000000    0.2531800000000000 C
   0.6514600000000000    0.8835499999999999    0.1378900000000000 C
   0.6429900000000000    0.8796100000000000    0.2147700000000000 C
   0.7738600000000000    0.7721200000000000    0.1374300000000000 C
   0.7153500000000000    0.8288500000000000    0.0988000000000000 C
   0.7689800000000000    0.7693200000000000    0.2146900000000000 C
   0.7832700000000000    0.0000000000000000    0.8276900000000000 C
   0.2986700000000000    0.4912300000000000    0.1452500000000000 N
   0.9516100000000000    0.9919000000000000    0.3497400000000000 N
   0.7988300000000000    0.5091700000000000    0.8517100000000000 N
   0.5487000000000000    0.3527100000000000    0.0000000000000000 N
   0.4550900000000000    0.0000000000000000    0.6441200000000000 N
   0.7059100000000000    0.8527800000000000    0.5062400000000000 N
   0.0493100000000000    0.6473700000000000    0.0063700000000000 N
   0.2013000000000000    0.1470200000000000    0.4900600000000000 N
   0.2973600000000000    0.5556500000000000    0.1721300000000000 O
   0.3958600000000000    0.4533200000000000    0.1436100000000000 O
   0.1975300000000000    0.4626200000000000    0.1190600000000000 O
   0.9526000000000000    0.0557100000000000    0.3219700000000000 O
   0.8544300000000000    0.9533400000000000    0.3532100000000000 O
   0.0535900000000000    0.9645200000000000    0.3751800000000000 O
   0.7965700000000000    0.4447400000000000    0.8248900000000000 O
   0.8964500000000000    0.5475100000000001    0.8534200000000000 O
   0.6982200000000000    0.5373100000000000    0.8778200000000000 O
   0.6462400000000000    0.3561800000000000    0.0000000000000000 O
   0.5470500000000000    0.3250500000000000    0.0548400000000000 O
   0.4473800000000000    0.3779600000000000    0.9626100000000000 O
   0.3566500000000000    0.0000000000000000    0.6405900000000000 O
   0.4578000000000000    0.9440000000000000    0.6717700000000000 O
   0.5559700000000000    0.0372600000000000    0.6190300000000000 O
   0.7070400000000000    0.8247100000000001    0.4423500000000000 O
   0.6083900000000000    0.8561900000000000    0.5438700000000000 O
   0.8076100000000001    0.8784700000000000    0.5345299999999999 O
   0.0477100000000000    0.6754500000000000    0.9426700000000000 O
   0.1472000000000000    0.6437500000000000    0.0440500000000000 O
   0.9477100000000001    0.6219500000000000    0.0344600000000000 O
   0.3691600000000000    0.1568800000000000    0.2777200000000000 O
   0.3894900000000000    0.2219300000000000    0.1726100000000000 O
   0.5833500000000000    0.3818300000000000    0.5174400000000000 O
   0.4639100000000000    0.2804800000000000    0.5137699999999999 O
   0.6345300000000000    0.7222000000000000    0.8407100000000000 O
   0.6139200000000000    0.8271300000000000    0.7756500000000000 O
   0.4164200000000000    0.4814900000000000    0.6185100000000000 O
   0.5316800000000000    0.4856200000000000    0.7213700000000000 O
   0.6191700000000000    0.2217900000000000    0.6559800000000000 O
   0.6398200000000001    0.3270700000000000    0.7214500000000000 O
   0.2029700000000000    0.1746800000000000    0.5541100000000000 O
   0.1038200000000000    0.1436700000000000    0.4518700000000000 O
   0.3026500000000000    0.1217500000000000    0.4620700000000000 O
   0.1203900000000000    0.7805600000000000    0.3404400000000000 O
   0.1411100000000000    0.6749600000000000    0.2757800000000000 O
   0.3332900000000000    0.0185900000000000    0.1156000000000000 O
   0.2137400000000000    0.0157100000000000    0.2160900000000000 O
   0.1614900000000000    0.1182000000000000    0.0157800000000000 O
   0.2818000000000000    0.2191800000000000    0.0130400000000000 O
   0.3811100000000000    0.3408200000000000    0.7781900000000000 O
   0.3599000000000000    0.2758500000000000    0.6726799999999999 O
   0.1312800000000000    0.2786400000000000    0.1557700000000000 O
   0.1098600000000000    0.1741000000000000    0.2214100000000000 O
   0.9166800000000001    0.5183200000000000    0.3783900000000000 O
   0.0364200000000000    0.5153799999999999    0.2779700000000000 O
   0.8707200000000000    0.8438000000000000    0.7190400000000000 O
   0.8917600000000000    0.7795800000000001    0.8245300000000000 O
   0.0833400000000000    0.6191000000000000    0.4812600000000000 O
   0.9690200000000000    0.7216300000000000    0.4838900000000000 O
   0.8840900000000000    0.6573300000000000    0.2184400000000000 O
   0.8633700000000000    0.7219300000000000    0.3240400000000000 O
   0.6723200000000000    0.8834700000000000    0.9814300000000000 O
   0.7869600000000000    0.7810900000000000    0.9836400000000000 O
   0.8382800000000000    0.9845699999999999    0.8787000000000000 O
   0.7185400000000000    0.9869800000000000    0.7777200000000000 O
