H6 O4
1.0
  10.8779255362299683    0.0000000000000000   -0.0402495743576482
  -0.1348545538455943   18.0654014814939607   -0.0586477769652553
   0.0000000000000000    0.0000000000000000   18.0670000000000002
H O
6 4
direct
   0.6392266666680841    0.4199697990148360    0.4999296004344815 H
   0.4217823523909744    0.2365417272484809    0.4954932177546310 H
   0.5283465467877144    0.3244625259851667    0.4935771404728303 H
   0.3860365058918790    0.1386187567145943    0.3271256624115154 H
   0.4171416319589433    0.2552334863816354    0.1339902358448993 H
   0.4072313538323209    0.2027329469713648    0.2245474889434117 H
   0.5833500000000000    0.3818300000000000    0.5174400000000000 O
   0.4639100000000000    0.2804800000000000    0.5137699999999999 O
   0.3691600000000000    0.1568800000000000    0.2777200000000000 O
   0.3894900000000000    0.2219300000000000    0.1726100000000000 O
