H4 C8 O4
1.0
  10.8779255362299683    0.0000000000000000   -0.0402495743576482
  -0.1348545538455943   18.0654014814939607   -0.0586477769652553
   0.0000000000000000    0.0000000000000000   18.0670000000000002
H C O
4 8 4
direct
   0.6441200000000000    0.4295600000000000    0.3922400000000000 H
   0.6604000000000000    0.4241500000000000    0.2544000000000000 H
   0.5604600000000000    0.3216400000000000    0.1848500000000000 H
   0.4277100000000000    0.2296100000000000    0.3893700000000000 H
   0.5287900000000000    0.3305400000000000    0.4816500000000000 C
   0.4108800000000000    0.2118500000000000    0.2424100000000000 C
   0.5376000000000000    0.3288600000000000    0.3992600000000000 C
   0.6012400000000000    0.3845700000000000    0.3610100000000000 C
   0.6092100000000000    0.3815800000000000    0.2840500000000000 C
   0.5514500000000000    0.3244700000000000    0.2447700000000000 C
   0.4838200000000000    0.2699300000000000    0.2824700000000000 C
   0.4791300000000000    0.2719600000000000    0.3597800000000000 C
   0.5833500000000000    0.3818300000000000    0.5174400000000000 O
   0.4639100000000000    0.2804800000000000    0.5137699999999999 O
   0.3894900000000000    0.2219300000000000    0.1726100000000000 O
   0.3691600000000000    0.1568800000000000    0.2777200000000000 O
