H4 C6 N5
1.0
  11.4459983246642416    0.0000000000000000    0.0061928816695358
   0.4506610103132906   10.5543815573691742    0.0055312972126813
   0.0000000000000000    0.0000000000000000   32.5300000000000011
H C N
4 6 5
direct
   0.1276000000000000    0.2146700000000000    0.3245050000000000 H
   0.0459350000000000    0.0835700000000000    0.3805250000000000 H
   0.3898350000000000    0.3302600000000000    0.4104100000000000 H
   0.2955800000000000    0.1973100000000000    0.4634450000000000 H
   0.3265950000000000    0.3521300000000000    0.3307150000000000 C
   0.2667350000000000    0.2831300000000000    0.3627250000000000 C
   0.1675950000000000    0.2134300000000000    0.3548200000000000 C
   0.1215200000000000    0.1407200000000000    0.3860000000000000 C
   0.3128100000000000    0.2779800000000000    0.4028100000000000 C
   0.2609100000000000    0.2039600000000000    0.4322550000000000 C
   0.2815750000000000    0.3916800000000000    0.2939900000000000 N
   0.3728900000000000    0.4399600000000000    0.2736200000000000 N
   0.4682550000000000    0.4302600000000000    0.2978600000000000 N
   0.4407900000000000    0.3770200000000000    0.3338100000000000 N
   0.1670150000000000    0.1338900000000000    0.4243550000000000 N
