Zn32 H191 C312 O112
1.0
  20.6359991953811139    0.0000000000000000    0.0057626582361720
  -0.0081457758437623   30.9978062833904922    0.1092852402339066
   0.0000000000000000    0.0000000000000000   23.7220000000000013
Zn H C O
32 191 312 112
direct
   0.2053400000000000    0.5685950000000000    0.9801600000000000 Zn
   0.0471500000000000    0.4315850000000000    0.4810700000000000 Zn
   0.0551600000000000    0.5982250000000000    0.9801400000000000 Zn
   0.1973300000000000    0.4020000000000000    0.4810000000000000 Zn
   0.9553800000000000    0.6814150000000000    0.0198000000000000 Zn
   0.7971400000000000    0.8184150000000000    0.5189000000000000 Zn
   0.8051900000000000    0.6517750000000000    0.0198900000000000 Zn
   0.9473400000000000    0.8480000000000000    0.5189800000000000 Zn
   0.4553600000000000    0.6814150000000000    0.0198300000000000 Zn
   0.2971300000000000    0.8184150000000000    0.5189700000000000 Zn
   0.3051800000000000    0.6517750000000000    0.0198900000000000 Zn
   0.4473300000000000    0.8480000000000000    0.5189800000000000 Zn
   0.7053500000000000    0.0685950000000000    0.9801600000000000 Zn
   0.5471600000000000    0.9315850000000000    0.4810700000000000 Zn
   0.5551800000000000    0.0982250000000000    0.9801400000000000 Zn
   0.6973400000000000    0.9020000000000000    0.4810300000000000 Zn
   0.2053400000000000    0.0685950000000000    0.9801600000000000 Zn
   0.0471500000000000    0.9315850000000000    0.4810700000000000 Zn
   0.0551600000000000    0.0982250000000000    0.9801400000000000 Zn
   0.9553800000000000    0.1814150000000000    0.0198000000000000 Zn
   0.7971400000000000    0.3184150000000000    0.5189000000000000 Zn
   0.8051900000000000    0.1517750000000000    0.0198900000000000 Zn
   0.9473400000000000    0.3480000000000000    0.5189800000000000 Zn
   0.1973300000000000    0.9020000000000000    0.4810000000000000 Zn
   0.4553600000000000    0.1814150000000000    0.0198300000000000 Zn
   0.2971300000000000    0.3184150000000000    0.5189700000000000 Zn
   0.3051800000000000    0.1517750000000000    0.0198900000000000 Zn
   0.4473300000000000    0.3480000000000000    0.5189800000000000 Zn
   0.7053500000000000    0.5685950000000000    0.9801600000000000 Zn
   0.5471600000000000    0.4315850000000000    0.4810700000000000 Zn
   0.5551800000000000    0.5982250000000000    0.9801400000000000 Zn
   0.6973400000000000    0.4020000000000000    0.4810300000000000 Zn
   0.1878503377166774    0.2056001052009244    0.0347329066921305 H
   0.2238493119882439    0.1996770233058413    0.0512177852271444 H
   0.2157500000000000    0.5189000000000000    0.8163000000000000 H
   0.2457300000000000    0.4607350000000000    0.6302100000000000 H
   0.2615500000000000    0.4867650000000000    0.7286700000000000 H
   0.0144000000000000    0.5544600000000000    0.8220000000000000 H
   0.9986300000000000    0.5282350000000000    0.7241200000000000 H
   0.0440900000000000    0.4945150000000000    0.6373600000000000 H
   0.3913700000000000    0.5069450000000000    0.8954100000000000 H
   0.3884400000000000    0.5045700000000000    0.7909600000000000 H
   0.3384000000000000    0.5652000000000000    0.7366600000000000 H
   0.2935400000000000    0.6295550000000000    0.8924900000000000 H
   0.2914000000000000    0.6277950000000000    0.7880700000000000 H
   0.3504600000000000    0.5367750000000000    0.9812000000000000 H
   0.0355600000000000    0.4822800000000000    0.3165200000000000 H
   0.0064000000000000    0.5393500000000000    0.1292000000000000 H
   0.9901300000000000    0.5138350000000000    0.2280400000000000 H
   0.2369300000000000    0.4468950000000000    0.3236500000000000 H
   0.2531400000000000    0.4726400000000000    0.2251700000000000 H
   0.2081300000000000    0.5059300000000000    0.1377200000000000 H
   0.8604900000000000    0.4932650000000000    0.3946600000000000 H
   0.9591700000000000    0.3709800000000000    0.3920500000000000 H
   0.9610000000000000    0.3730150000000000    0.2876100000000000 H
   0.8630500000000000    0.4959250000000000    0.2901800000000000 H
   0.9133800000000000    0.4355900000000000    0.2360300000000000 H
   0.9019600000000000    0.4632450000000000    0.4805400000000000 H
   0.9657800000000000    0.7310950000000001    0.1837100000000000 H
   0.7644100000000000    0.6955300000000000    0.1778700000000000 H
   0.7486300000000000    0.7217550000000000    0.2759500000000000 H
   0.9957600000000000    0.7892550000000000    0.3697900000000000 H
   0.0115500000000000    0.7632300000000001    0.2713300000000000 H
   0.7940900000000000    0.7554600000000000    0.3627100000000000 H
   0.1413600000000000    0.7430700000000000    0.1045900000000000 H
   0.1384400000000000    0.7454300000000000    0.2090400000000000 H
   0.0884000000000000    0.6847750000000000    0.2633500000000000 H
   0.0435100000000000    0.6204350000000000    0.1075300000000000 H
   0.0413800000000000    0.6221750000000000    0.2119500000000000 H
   0.1005100000000000    0.7132250000000000    0.0188100000000000 H
   0.7855500000000000    0.7676900000000000    0.6835599999999999 H
   0.7564000000000000    0.7106450000000000    0.8709100000000000 H
   0.7401000000000000    0.7361300000000000    0.7720700000000000 H
   0.0000000000000000    0.7773650000000000    0.7747700000000000 H
   0.9869400000000000    0.8030950000000000    0.6763000000000000 H
   0.9581400000000000    0.7440900000000000    0.8622600000000000 H
   0.6633800000000000    0.8144050000000000    0.7640000000000000 H
   0.7091200000000000    0.8790450000000001    0.6079700000000000 H
   0.7109700000000000    0.8770050000000000    0.7124100000000000 H
   0.6104500000000000    0.7567250000000000    0.6054000000000000 H
   0.6130400000000000    0.7540549999999999    0.7098800000000000 H
   0.6518900000000000    0.7867600000000000    0.5195100000000000 H
   0.4957500000000000    0.7892600000000001    0.3697800000000000 H
   0.5115600000000000    0.7632350000000000    0.2713200000000000 H
   0.2940800000000000    0.7554600000000000    0.3627100000000000 H
   0.2643900000000000    0.6955300000000000    0.1778700000000000 H
   0.2486200000000000    0.7217500000000000    0.2759500000000000 H
   0.4657600000000000    0.7311000000000000    0.1837100000000000 H
   0.6413700000000000    0.7430700000000000    0.1045900000000000 H
   0.6384500000000000    0.7454350000000000    0.2090400000000000 H
   0.5884100000000000    0.6847750000000000    0.2633500000000000 H
   0.5435200000000000    0.6204350000000000    0.1075300000000000 H
   0.5413900000000000    0.6221800000000000    0.2119500000000000 H
   0.6005300000000000    0.7132250000000000    0.0188100000000000 H
   0.2563900000000000    0.7106399999999999    0.8709000000000000 H
   0.2400900000000000    0.7361300000000000    0.7720700000000000 H
   0.2855400000000000    0.7676850000000000    0.6835599999999999 H
   0.4869200000000000    0.8030999999999999    0.6763000000000000 H
   0.5031400000000000    0.7773700000000000    0.7747700000000000 H
   0.4581300000000000    0.7440900000000000    0.8622600000000000 H
   0.1104400000000000    0.7567250000000000    0.6054000000000000 H
   0.1130300000000000    0.7540549999999999    0.7098000000000000 H
   0.1633700000000000    0.8144050000000000    0.7640000000000000 H
   0.2091100000000000    0.8790450000000001    0.6079700000000000 H
   0.2109600000000000    0.8770050000000000    0.7124100000000000 H
   0.1518800000000000    0.7867600000000000    0.5195100000000000 H
   0.7157600000000000    0.0189000000000000    0.8163000000000000 H
   0.7457500000000000    0.9607350000000000    0.6302000000000000 H
   0.7615600000000000    0.9867650000000000    0.7286700000000000 H
   0.5144200000000000    0.0544600000000000    0.8220000000000000 H
   0.4986500000000000    0.0282350000000000    0.7241200000000000 H
   0.5441000000000000    0.9945200000000001    0.6373600000000000 H
   0.8913800000000000    0.0069450000000000    0.8954100000000000 H
   0.8884500000000000    0.0045700000000000    0.7909600000000000 H
   0.8384100000000000    0.0652050000000000    0.7366600000000000 H
   0.7935500000000000    0.1295550000000000    0.8924900000000000 H
   0.7914099999999999    0.1277950000000000    0.7880700000000000 H
   0.8504699999999999    0.0367750000000000    0.9812000000000000 H
   0.5064100000000000    0.0393500000000000    0.1292100000000000 H
   0.4901200000000000    0.0138350000000000    0.2280400000000000 H
   0.7081400000000000    0.0059300000000000    0.1377200000000000 H
   0.7369400000000000    0.9468950000000000    0.3236500000000000 H
   0.7531500000000000    0.9726399999999999    0.2251700000000000 H
   0.5355700000000000    0.9822800000000000    0.3165200000000000 H
   0.3604700000000000    0.9932650000000001    0.3946600000000000 H
   0.3630400000000000    0.9959249999999999    0.2901800000000000 H
   0.4133700000000000    0.9355899999999999    0.2360300000000000 H
   0.4591600000000000    0.8709850000000000    0.3920500000000000 H
   0.4609800000000000    0.8730200000000000    0.2876000000000000 H
   0.4019500000000000    0.9632450000000000    0.4805400000000000 H
   0.2157500000000000    0.0189000000000000    0.8163000000000000 H
   0.2457300000000000    0.9607350000000000    0.6302100000000000 H
   0.2615500000000000    0.9867650000000000    0.7286700000000000 H
   0.0144000000000000    0.0544600000000000    0.8220000000000000 H
   0.9986300000000000    0.0282350000000000    0.7241200000000000 H
   0.0440900000000000    0.9945150000000000    0.6373600000000000 H
   0.3913700000000000    0.0069450000000000    0.8954100000000000 H
   0.3884400000000000    0.0045700000000000    0.7909600000000000 H
   0.3384000000000000    0.0652000000000000    0.7366600000000000 H
   0.2935400000000000    0.1295550000000000    0.8924900000000000 H
   0.2914000000000000    0.1277950000000000    0.7880700000000000 H
   0.3504600000000000    0.0367750000000000    0.9812000000000000 H
   0.0355600000000000    0.9822800000000000    0.3165200000000000 H
   0.0064000000000000    0.0393500000000000    0.1292000000000000 H
   0.9901300000000000    0.0138350000000000    0.2280400000000000 H
   0.2369300000000000    0.9468950000000000    0.3236500000000000 H
   0.2531400000000000    0.9726399999999999    0.2251700000000000 H
   0.2081300000000000    0.0059300000000000    0.1377200000000000 H
   0.8604900000000000    0.9932650000000001    0.3946600000000000 H
   0.9591700000000000    0.8709800000000000    0.3920500000000000 H
   0.9610000000000000    0.8730150000000000    0.2876100000000000 H
   0.8630500000000000    0.9959249999999999    0.2901800000000000 H
   0.9133800000000000    0.9355899999999999    0.2360300000000000 H
   0.9019600000000000    0.9632450000000000    0.4805400000000000 H
   0.9657800000000000    0.2310950000000000    0.1837100000000000 H
   0.7644100000000000    0.1955300000000000    0.1778700000000000 H
   0.7486300000000000    0.2217550000000000    0.2759500000000000 H
   0.9957600000000000    0.2892550000000000    0.3697900000000000 H
   0.0115500000000000    0.2632300000000000    0.2713300000000000 H
   0.7940900000000000    0.2554600000000000    0.3627100000000000 H
   0.1323244119421154    0.1523327786960876    0.9855222633922173 H
   0.0803344648564353    0.1466558287705449   -0.0067342334847620 H
   0.0793103958921352    0.1734163449272182    0.0272178420841655 H
   0.7855500000000000    0.2676900000000000    0.6835599999999999 H
   0.7564000000000000    0.2106450000000000    0.8709100000000000 H
   0.7401000000000000    0.2361300000000000    0.7720700000000000 H
   0.0000000000000000    0.2773650000000000    0.7747700000000000 H
   0.9869400000000000    0.3030950000000000    0.6763000000000000 H
   0.9581400000000000    0.2440900000000000    0.8622600000000000 H
   0.6633800000000000    0.3144050000000000    0.7640000000000000 H
   0.7091200000000000    0.3790450000000000    0.6079700000000000 H
   0.7109700000000000    0.3770050000000000    0.7124100000000000 H
   0.6104500000000000    0.2567250000000000    0.6054000000000000 H
   0.6130400000000000    0.2540550000000000    0.7098800000000000 H
   0.6518900000000000    0.2867600000000000    0.5195100000000000 H
   0.4957500000000000    0.2892600000000000    0.3697800000000000 H
   0.5115600000000000    0.2632350000000000    0.2713200000000000 H
   0.2940800000000000    0.2554600000000000    0.3627100000000000 H
   0.2643900000000000    0.1955300000000000    0.1778700000000000 H
   0.2486200000000000    0.2217500000000000    0.2759500000000000 H
   0.4657600000000000    0.2311000000000000    0.1837100000000000 H
   0.6413700000000000    0.2430700000000000    0.1045900000000000 H
   0.6384500000000000    0.2454350000000000    0.2090400000000000 H
   0.5884100000000000    0.1847750000000000    0.2633500000000000 H
   0.5435200000000000    0.1204350000000000    0.1075300000000000 H
   0.5413900000000000    0.1221800000000000    0.2119500000000000 H
   0.6005300000000000    0.2132250000000000    0.0188100000000000 H
   0.2563900000000000    0.2106400000000000    0.8709000000000000 H
   0.2400900000000000    0.2361300000000000    0.7720700000000000 H
   0.2855400000000000    0.2676850000000000    0.6835599999999999 H
   0.4869200000000000    0.3031000000000000    0.6763000000000000 H
   0.5031400000000000    0.2773700000000000    0.7747700000000000 H
   0.4581300000000000    0.2440900000000000    0.8622600000000000 H
   0.1104400000000000    0.2567250000000000    0.6054000000000000 H
   0.1130300000000000    0.2540550000000000    0.7098000000000000 H
   0.1633700000000000    0.3144050000000000    0.7640000000000000 H
   0.2091100000000000    0.3790450000000000    0.6079700000000000 H
   0.2109600000000000    0.3770050000000000    0.7124100000000000 H
   0.1518800000000000    0.2867600000000000    0.5195100000000000 H
   0.7157600000000000    0.5189000000000000    0.8163000000000000 H
   0.7457500000000000    0.4607350000000000    0.6302000000000000 H
   0.7615600000000000    0.4867650000000000    0.7286700000000000 H
   0.5144200000000000    0.5544600000000000    0.8220000000000000 H
   0.4986500000000000    0.5282350000000000    0.7241200000000000 H
   0.5441000000000000    0.4945200000000000    0.6373600000000000 H
   0.8913800000000000    0.5069450000000000    0.8954100000000000 H
   0.8884500000000000    0.5045700000000000    0.7909600000000000 H
   0.8384100000000000    0.5652050000000000    0.7366600000000000 H
   0.7935500000000000    0.6295550000000000    0.8924900000000000 H
   0.7914099999999999    0.6277950000000000    0.7880700000000000 H
   0.8504699999999999    0.5367750000000000    0.9812000000000000 H
   0.5064100000000000    0.5393500000000000    0.1292100000000000 H
   0.4901200000000000    0.5138350000000000    0.2280400000000000 H
   0.7081400000000000    0.5059300000000000    0.1377200000000000 H
   0.7369400000000000    0.4468950000000000    0.3236500000000000 H
   0.7531500000000000    0.4726400000000000    0.2251700000000000 H
   0.5355700000000000    0.4822800000000000    0.3165200000000000 H
   0.3604700000000000    0.4932650000000000    0.3946600000000000 H
   0.3630400000000000    0.4959250000000000    0.2901800000000000 H
   0.4133700000000000    0.4355900000000000    0.2360300000000000 H
   0.4591600000000000    0.3709850000000000    0.3920500000000000 H
   0.4609800000000000    0.3730200000000000    0.2876000000000000 H
   0.4019500000000000    0.4632450000000000    0.4805400000000000 H
   0.1339500000000000    0.4586750000000000    0.5704000000000000 C
   0.1243900000000000    0.5539000000000001    0.8834800000000000 C
   0.1685800000000000    0.5206050000000000    0.7957600000000000 C
   0.1163100000000000    0.5377750000000000    0.8246700000000000 C
   0.1613800000000000    0.5058600000000000    0.7397300000000000 C
   0.2055400000000000    0.4740600000000000    0.6542600000000000 C
   0.2140800000000000    0.4884600000000000    0.7085500000000000 C
   0.0545200000000000    0.5407350000000000    0.7984400000000000 C
   0.0460800000000000    0.5262000000000000    0.7442000000000000 C
   0.0914100000000000    0.4932100000000000    0.6576800000000000 C
   0.1434800000000000    0.4761700000000000    0.6283900000000000 C
   0.0987500000000000    0.5084900000000000    0.7134000000000000 C
   0.4093100000000000    0.5927700000000000    0.9826300000000000 C
   0.3690700000000000    0.5333150000000000    0.8718200000000000 C
   0.3676200000000000    0.5321200000000000    0.8129900000000000 C
   0.3397400000000000    0.5660800000000000    0.7826100000000000 C
   0.3144300000000000    0.6022300000000000    0.8702000000000000 C
   0.3130800000000000    0.6010850000000000    0.8113899999999999 C
   0.3425600000000000    0.5683900000000000    0.9008000000000000 C
   0.3460400000000000    0.5701500000000000    0.9649700000000000 C
   0.1184200000000000    0.5413150000000000    0.0697300000000000 C
   0.1268600000000000    0.4476300000000000    0.3846000000000000 C
   0.0828400000000000    0.4805400000000000    0.2961800000000000 C
   0.1350300000000000    0.4635950000000000    0.3255600000000000 C
   0.0902800000000000    0.4949700000000000    0.2398800000000000 C
   0.0465100000000000    0.5262150000000000    0.1536400000000000 C
   0.0377100000000000    0.5121100000000000    0.2081600000000000 C
   0.1969300000000000    0.4605200000000000    0.2995000000000000 C
   0.2056000000000000    0.4747750000000000    0.2451300000000000 C
   0.1606800000000000    0.5072700000000000    0.1578200000000000 C
   0.1087200000000000    0.5240700000000000    0.1280100000000000 C
   0.1530500000000000    0.4922800000000000    0.2137900000000000 C
   0.8430200000000000    0.4072350000000000    0.4818700000000000 C
   0.8829100000000000    0.4670400000000000    0.3711100000000000 C
   0.9380500000000001    0.3982950000000000    0.3696700000000000 C
   0.9392000000000000    0.3995950000000000    0.3108600000000000 C
   0.8841500000000000    0.4683800000000000    0.3122000000000000 C
   0.9122000000000000    0.4345900000000000    0.2819800000000000 C
   0.9097700000000000    0.4319750000000000    0.4001500000000000 C
   0.9063300000000000    0.4299600000000000    0.4643000000000000 C
   0.8744100000000000    0.6960999999999999    0.1165000000000000 C
   0.8839700000000000    0.7913150000000000    0.4296400000000000 C
   0.9186000000000000    0.7293900000000000    0.2042600000000000 C
   0.8663300000000000    0.7122200000000000    0.1753600000000000 C
   0.9114000000000000    0.7441300000000000    0.2603000000000000 C
   0.8045300000000000    0.7092600000000000    0.2016100000000000 C
   0.7960900000000000    0.7237899999999999    0.2558000000000000 C
   0.9555600000000000    0.7759250000000000    0.3457500000000000 C
   0.9641000000000000    0.7615300000000000    0.2914600000000000 C
   0.8414199999999999    0.7567699999999999    0.3423700000000000 C
   0.8935000000000000    0.7738149999999999    0.3716400000000000 C
   0.8487600000000000    0.7415000000000000    0.2866500000000000 C
   0.1593100000000000    0.6572300000000000    0.0173800000000000 C
   0.1190600000000000    0.7166900000000000    0.1281000000000000 C
   0.1176100000000000    0.7178750000000000    0.1870100000000000 C
   0.0897300000000000    0.6839050000000000    0.2174000000000000 C
   0.0644100000000000    0.6477600000000000    0.1298100000000000 C
   0.0630600000000000    0.6489000000000000    0.1886200000000000 C
   0.0925500000000000    0.6816100000000000    0.0992100000000000 C
   0.0960500000000000    0.6798500000000001    0.0350400000000000 C
   0.8684500000000001    0.7086950000000000    0.9303100000000000 C
   0.8768400000000000    0.8023700000000000    0.6154300000000000 C
   0.8328400000000000    0.7694350000000000    0.7038700000000000 C
   0.8850300000000000    0.7863899999999999    0.6744500000000000 C
   0.8402900000000000    0.7550049999999999    0.7601700000000000 C
   0.7965200000000000    0.7237750000000001    0.8464500000000000 C
   0.7877100000000000    0.7378700000000000    0.7919200000000000 C
   0.9556100000000000    0.7752200000000000    0.7548400000000000 C
   0.9469300000000000    0.7894700000000000    0.7004200000000000 C
   0.9106900000000000    0.7427400000000000    0.8421900000000000 C
   0.8587399999999999    0.7259350000000000    0.8720000000000000 C
   0.9030600000000000    0.7577100000000000    0.7862100000000000 C
   0.5930000000000000    0.8427650000000000    0.5181600000000000 C
   0.6621800000000000    0.8154049999999999    0.7180600000000000 C
   0.6879999999999999    0.8517200000000000    0.6303600000000000 C
   0.6891699999999999    0.8504149999999999    0.6891699999999999 C
   0.6328600000000000    0.7829550000000001    0.6289000000000000 C
   0.6341300000000000    0.7816100000000000    0.6877799999999999 C
   0.6597100000000000    0.8180350000000001    0.5998000000000000 C
   0.6562800000000000    0.8200499999999999    0.5357400000000000 C
   0.3744000000000000    0.6961050000000000    0.1165400000000000 C
   0.3839500000000000    0.7913100000000000    0.4296000000000000 C
   0.4555500000000000    0.7759300000000000    0.3457500000000000 C
   0.4640900000000000    0.7615350000000001    0.2914000000000000 C
   0.3414100000000000    0.7567699999999999    0.3423700000000000 C
   0.3934900000000000    0.7738149999999999    0.3716400000000000 C
   0.3487500000000000    0.7415000000000000    0.2866500000000000 C
   0.3045200000000000    0.7092600000000000    0.2016100000000000 C
   0.2960800000000000    0.7237899999999999    0.2558000000000000 C
   0.4185900000000000    0.7293950000000000    0.2042600000000000 C
   0.3663100000000000    0.7122250000000000    0.1753600000000000 C
   0.4113900000000000    0.7441350000000000    0.2602900000000000 C
   0.6593300000000000    0.6572300000000000    0.0173800000000000 C
   0.6190700000000000    0.7166900000000000    0.1281000000000000 C
   0.6176199999999999    0.7178750000000000    0.1870100000000000 C
   0.5897400000000000    0.6839050000000000    0.2174000000000000 C
   0.5644200000000000    0.6477650000000000    0.1298100000000000 C
   0.5630700000000000    0.6489000000000000    0.1886200000000000 C
   0.5925600000000000    0.6816100000000000    0.0992100000000000 C
   0.5960600000000000    0.6798500000000001    0.0350000000000000 C
   0.3684300000000000    0.7087000000000000    0.9303100000000000 C
   0.3768300000000000    0.8023700000000000    0.6154200000000000 C
   0.2965100000000000    0.7237750000000001    0.8464000000000000 C
   0.2877000000000000    0.7378700000000000    0.7919200000000000 C
   0.3328300000000000    0.7694350000000000    0.7038000000000000 C
   0.3850200000000000    0.7863899999999999    0.6744400000000000 C
   0.3402700000000000    0.7550049999999999    0.7601000000000000 C
   0.4469200000000000    0.7894749999999999    0.7004000000000000 C
   0.4555900000000000    0.7752250000000001    0.7548400000000000 C
   0.4106800000000000    0.7427400000000000    0.8421900000000000 C
   0.3587200000000000    0.7259350000000000    0.8720300000000000 C
   0.4030500000000000    0.7577150000000000    0.7862100000000000 C
   0.0929900000000000    0.8427650000000000    0.5181600000000000 C
   0.1328500000000000    0.7829550000000001    0.6289400000000001 C
   0.1341200000000000    0.7816100000000000    0.6877000000000000 C
   0.1621700000000000    0.8154049999999999    0.7180500000000000 C
   0.1879900000000000    0.8517200000000000    0.6303500000000000 C
   0.1891600000000000    0.8504149999999999    0.6891600000000000 C
   0.1597000000000000    0.8180350000000001    0.5998800000000000 C
   0.1562700000000000    0.8200499999999999    0.5357400000000000 C
   0.6339600000000000    0.9586749999999999    0.5704000000000000 C
   0.6244000000000000    0.0539000000000000    0.8834800000000000 C
   0.6685900000000000    0.0206050000000000    0.7957600000000000 C
   0.6163200000000000    0.0377750000000000    0.8246700000000000 C
   0.6613900000000000    0.0058600000000000    0.7397300000000000 C
   0.7055500000000000    0.9740599999999999    0.6542600000000000 C
   0.7140900000000000    0.9884600000000000    0.7085500000000000 C
   0.5545300000000000    0.0407350000000000    0.7984400000000000 C
   0.5461000000000000    0.0262000000000000    0.7442000000000000 C
   0.5914199999999999    0.9932099999999999    0.6576800000000000 C
   0.6434900000000000    0.9761700000000000    0.6283900000000000 C
   0.5987700000000000    0.0084900000000000    0.7134000000000000 C
   0.9093200000000000    0.0927700000000000    0.9826300000000000 C
   0.8690900000000000    0.0333150000000000    0.8718200000000000 C
   0.8676300000000000    0.0321250000000000    0.8129900000000000 C
   0.8397500000000000    0.0660800000000000    0.7826000000000000 C
   0.8144500000000000    0.1022300000000000    0.8702000000000000 C
   0.8130900000000000    0.1010850000000000    0.8113899999999999 C
   0.8425700000000000    0.0683900000000000    0.9008000000000000 C
   0.8460500000000000    0.0701500000000000    0.9649700000000000 C
   0.6268700000000000    0.9476300000000000    0.3846000000000000 C
   0.6184300000000000    0.0413150000000000    0.0697300000000000 C
   0.5465300000000000    0.0262150000000000    0.1536400000000000 C
   0.5377200000000000    0.0121100000000000    0.2081600000000000 C
   0.6606900000000000    0.0072700000000000    0.1578200000000000 C
   0.6087399999999999    0.0240700000000000    0.1280100000000000 C
   0.6530600000000000    0.9922800000000001    0.2137900000000000 C
   0.6969400000000000    0.9605200000000000    0.2995000000000000 C
   0.7056100000000000    0.9747700000000000    0.2451300000000000 C
   0.5828600000000000    0.9805349999999999    0.2961800000000000 C
   0.6350500000000000    0.9635899999999999    0.3255000000000000 C
   0.5903000000000000    0.9949700000000000    0.2398800000000000 C
   0.3430100000000000    0.9072350000000000    0.4818700000000000 C
   0.3828900000000000    0.9670449999999999    0.3711100000000000 C
   0.3841400000000000    0.9683800000000000    0.3122700000000000 C
   0.4121800000000000    0.9345950000000001    0.2819800000000000 C
   0.4380300000000000    0.8983000000000000    0.3696700000000000 C
   0.4391800000000000    0.8995949999999999    0.3108500000000000 C
   0.4097500000000000    0.9319750000000000    0.4001500000000000 C
   0.4063100000000000    0.9299600000000000    0.4640000000000000 C
   0.1339500000000000    0.9586749999999999    0.5704000000000000 C
   0.1243900000000000    0.0539000000000000    0.8834800000000000 C
   0.1685800000000000    0.0206050000000000    0.7957600000000000 C
   0.1163100000000000    0.0377750000000000    0.8246700000000000 C
   0.1613800000000000    0.0058600000000000    0.7397300000000000 C
   0.2055400000000000    0.9740599999999999    0.6542600000000000 C
   0.2140800000000000    0.9884600000000000    0.7085500000000000 C
   0.0545200000000000    0.0407350000000000    0.7984400000000000 C
   0.0460800000000000    0.0262000000000000    0.7442000000000000 C
   0.0914100000000000    0.9932099999999999    0.6576800000000000 C
   0.1434800000000000    0.9761700000000000    0.6283900000000000 C
   0.0987500000000000    0.0084900000000000    0.7134000000000000 C
   0.4093100000000000    0.0927700000000000    0.9826300000000000 C
   0.3690700000000000    0.0333150000000000    0.8718200000000000 C
   0.3676200000000000    0.0321200000000000    0.8129900000000000 C
   0.3397400000000000    0.0660800000000000    0.7826100000000000 C
   0.3144300000000000    0.1022300000000000    0.8702000000000000 C
   0.3130800000000000    0.1010850000000000    0.8113899999999999 C
   0.3425600000000000    0.0683900000000000    0.9008000000000000 C
   0.3460400000000000    0.0701500000000000    0.9649700000000000 C
   0.1184200000000000    0.0413150000000000    0.0697300000000000 C
   0.1268600000000000    0.9476300000000000    0.3846000000000000 C
   0.0828400000000000    0.9805400000000000    0.2961800000000000 C
   0.1350300000000000    0.9635950000000000    0.3255600000000000 C
   0.0902800000000000    0.9949700000000000    0.2398800000000000 C
   0.0465100000000000    0.0262150000000000    0.1536400000000000 C
   0.0377100000000000    0.0121100000000000    0.2081600000000000 C
   0.1969300000000000    0.9605200000000000    0.2995000000000000 C
   0.2056000000000000    0.9747749999999999    0.2451300000000000 C
   0.1606800000000000    0.0072700000000000    0.1578200000000000 C
   0.1087200000000000    0.0240700000000000    0.1280100000000000 C
   0.1530500000000000    0.9922800000000001    0.2137900000000000 C
   0.8430200000000000    0.9072350000000000    0.4818700000000000 C
   0.8829100000000000    0.9670400000000000    0.3711100000000000 C
   0.9380500000000001    0.8982950000000001    0.3696700000000000 C
   0.9392000000000000    0.8995949999999999    0.3108600000000000 C
   0.8841500000000000    0.9683800000000000    0.3122000000000000 C
   0.9122000000000000    0.9345900000000000    0.2819800000000000 C
   0.9097700000000000    0.9319750000000000    0.4001500000000000 C
   0.9063300000000000    0.9299600000000000    0.4643000000000000 C
   0.8744100000000000    0.1961000000000000    0.1165000000000000 C
   0.8839700000000000    0.2913150000000000    0.4296400000000000 C
   0.9186000000000000    0.2293900000000000    0.2042600000000000 C
   0.8663300000000000    0.2122200000000000    0.1753600000000000 C
   0.9114000000000000    0.2441300000000000    0.2603000000000000 C
   0.8045300000000000    0.2092600000000000    0.2016100000000000 C
   0.7960900000000000    0.2237900000000000    0.2558000000000000 C
   0.9555600000000000    0.2759250000000000    0.3457500000000000 C
   0.9641000000000000    0.2615300000000000    0.2914600000000000 C
   0.8414199999999999    0.2567700000000000    0.3423700000000000 C
   0.8935000000000000    0.2738150000000000    0.3716400000000000 C
   0.8487600000000000    0.2415000000000000    0.2866500000000000 C
   0.8684500000000001    0.2086950000000000    0.9303100000000000 C