H6 C8 O3
1.0
  20.6359991953811139    0.0000000000000000    0.0057626582361720
  -0.0081457758437623   30.9978062833904922    0.1092852402339066
   0.0000000000000000    0.0000000000000000   23.7220000000000013
H C O
6 8 3
direct
   0.1005100000000000    0.2132250000000000    0.0188100000000000 H
   0.0435100000000000    0.1204350000000000    0.1075300000000000 H
   0.0413800000000000    0.1221750000000000    0.2119500000000000 H
   0.0884000000000000    0.1847750000000000    0.2633500000000000 H
   0.1384400000000000    0.2454300000000000    0.2090400000000000 H
   0.1413600000000000    0.2430700000000000    0.1045900000000000 H
   0.1593100000000000    0.1572300000000000    0.0173800000000000 C
   0.0960500000000000    0.1798500000000000    0.0350400000000000 C
   0.0925500000000000    0.1816100000000000    0.0992100000000000 C
   0.0644100000000000    0.1477600000000000    0.1298100000000000 C
   0.0630600000000000    0.1489000000000000    0.1886200000000000 C
   0.0897300000000000    0.1839050000000000    0.2174000000000000 C
   0.1176100000000000    0.2178750000000000    0.1870100000000000 C
   0.1190600000000000    0.2166900000000000    0.1281000000000000 C
   0.0421000000000000    0.1591150000000000    0.0098300000000000 O
   0.1527400000000000    0.1241500000000000    0.9854100000000000 O
   0.2120200000000000    0.1722350000000000    0.0346000000000000 O
