H5 O3
1.0
  20.6359991953811139    0.0000000000000000    0.0057626582361720
  -0.0081457758437623   30.9978062833904922    0.1092852402339066
   0.0000000000000000    0.0000000000000000   23.7220000000000013
H O
5 3
direct
   0.1878503377166774    0.2056001052009244    0.0347329066921305 H
   0.2238493119882439    0.1996770233058413    0.0512177852271444 H
   0.1323244119421154    0.1523327786960876    0.9855222633922173 H
   0.0803344648564353    0.1466558287705449   -0.0067342334847620 H
   0.0793103958921352    0.1734163449272182    0.0272178420841655 H
   0.2120200000000000    0.1722350000000000    0.0346000000000000 O
   0.1527400000000000    0.1241500000000000    0.9854100000000000 O
   0.0421000000000000    0.1591150000000000    0.0098300000000000 O
