Sr8 H48 C84 O32
1.0
  13.6419999979222037    0.0000000000000000   -0.0002380978165466
   0.0000000000000024   14.7880000000000003    0.0000000000000009
   0.0000000000000000    0.0000000000000000   15.1370000000000005
Sr H C O
8 48 84 32
direct
   0.6706000000000000    0.1938300000000000    0.4604100000000000 Sr
   0.1706100000000000    0.1937900000000000    0.4604900000000000 Sr
   0.9206000000000000    0.3061200000000000    0.5395799999999999 Sr
   0.4206100000000000    0.3061600000000000    0.5395900000000000 Sr
   0.5794000000000000    0.8061199999999999    0.9604200000000001 Sr
   0.3294100000000000    0.6938400000000000    0.0396000000000000 Sr
   0.8294000000000000    0.6937700000000000    0.0395100000000000 Sr
   0.0794000000000000    0.8061199999999999    0.9604600000000000 Sr
   0.8546300000000000    0.9668800000000000    0.6374800000000000 H
   0.8768000000000000    0.8512600000000000    0.7557600000000000 H
   0.7528500000000000    0.2348100000000000    0.7894099999999999 H
   0.7054600000000000    0.2711100000000000    0.9435400000000000 H
   0.7643900000000000    0.9967200000000001    0.0219500000000000 H
   0.7116900000000000    0.1516600000000000    0.0595300000000000 H
   0.3546100000000000    0.9668900000000000    0.6374900000000000 H
   0.3768100000000000    0.8512600000000000    0.7557700000000001 H
   0.2529100000000000    0.2348300000000000    0.7894600000000001 H
   0.2054900000000000    0.2711100000000000    0.9435800000000000 H
   0.2643800000000000    0.9967000000000000    0.0219600000000000 H
   0.2116900000000000    0.1516400000000000    0.0595500000000000 H
   0.6045900000000000    0.5330800000000000    0.3625400000000000 H
   0.6267800000000000    0.6487000000000001    0.2442600000000000 H
   0.5028400000000000    0.2651800000000000    0.2105800000000000 H
   0.4554200000000000    0.2288900000000000    0.0564600000000000 H
   0.5143600000000000    0.5032799999999999    0.9780600000000000 H
   0.4616500000000000    0.3483400000000000    0.9404700000000000 H
   0.1047400000000000    0.5330700000000000    0.3625600000000000 H
   0.1269400000000000    0.6486499999999999    0.2442500000000000 H
   0.0029400000000000    0.2651400000000000    0.2106600000000000 H
   0.9555500000000000    0.2288100000000000    0.0565400000000000 H
   0.0144400000000000    0.5032000000000000    0.9781000000000000 H
   0.9617599999999999    0.3482500000000000    0.9405400000000000 H
   0.6962724232412278    0.3418234955087507    0.5623698659456089 H
   0.8066248646653785    0.3712118594516763    0.5096793014984149 H
   0.5484447758164875    0.2996892979203059    0.6257695705708367 H
   0.3954200000000000    0.0330800000000000    0.1374700000000000 H
   0.3732400000000000    0.1487100000000000    0.2557400000000000 H
   0.4971800000000000    0.7651700000000000    0.2894500000000000 H
   0.5445600000000000    0.7288800000000000    0.4435000000000000 H
   0.4856000000000000    0.0000000000000000    0.5219900000000000 H
   0.5382900000000000    0.8483300000000000    0.5595800000000000 H
   0.1453400000000000    0.4668900000000000    0.8625600000000000 H
   0.1231500000000000    0.3512900000000000    0.7442000000000000 H
   0.2471200000000000    0.7348100000000000    0.7106300000000000 H
   0.2945300000000000    0.7711100000000000    0.5565099999999999 H
   0.2356300000000000    0.4967100000000000    0.4780700000000000 H
   0.2883200000000000    0.6516500000000000    0.4405000000000000 H
   0.7956354531790173    0.5617907431874449   -0.0749512486507012 H
   0.6123761679459143    0.7384073285229809    0.7977168124420654 H
   0.7037028194415165    0.6475473378052553   -0.1427519613836812 H
   0.8953200000000000    0.0330700000000000    0.1374500000000000 H
   0.8731100000000001    0.1486600000000000    0.2557000000000000 H
   0.0000000000000000    0.8482600000000000    0.5595200000000000 H
   0.9855500000000000    0.0000000000000000    0.5219400000000000 H
   0.0000000000000000    0.7288100000000000    0.4435100000000000 H
   0.9970900000000000    0.7651100000000000    0.2893800000000000 H
   0.7988800000000000    0.1375700000000000    0.6514000000000000 C
   0.8278600000000000    0.8597800000000000    0.9225400000000000 C
   0.8387200000000000    0.9840500000000000    0.7060100000000000 C
   0.8074900000000000    0.0707500000000000    0.7263900000000000 C
   0.8498599999999999    0.9185500000000000    0.7723600000000000 C
   0.8229500000000000    0.9366100000000001    0.8590400000000000 C
   0.7540100000000000    0.1826000000000000    0.8400800000000000 C
   0.7285000000000000    0.2028100000000000    0.9259700000000000 C
   0.7617900000000000    0.0484900000000000    0.9709500000000000 C
   0.7323200000000000    0.1351600000000000    0.9918100000000000 C
   0.7840800000000000    0.0939200000000000    0.8157000000000000 C
   0.7884900000000000    0.0249300000000000    0.8830200000000000 C
   0.2989000000000000    0.1375800000000000    0.6514000000000000 C
   0.3278600000000000    0.8597800000000000    0.9225500000000000 C
   0.3387500000000000    0.9840700000000000    0.7060300000000000 C
   0.3074800000000000    0.0707500000000000    0.7264200000000000 C
   0.3498400000000000    0.9185500000000000    0.7723700000000000 C
   0.3229900000000000    0.9366200000000000    0.8590600000000000 C
   0.2540300000000000    0.1826000000000000    0.8401100000000000 C
   0.2285600000000000    0.2028200000000000    0.9260100000000000 C
   0.2618200000000000    0.0484800000000000    0.9709800000000000 C
   0.2323100000000000    0.1351400000000000    0.9918000000000000 C
   0.2841600000000000    0.0939400000000000    0.8157000000000000 C
   0.2884700000000000    0.0249200000000000    0.8830300000000000 C
   0.5488700000000000    0.3624000000000000    0.3485500000000000 C
   0.5778700000000000    0.6401700000000000    0.0774600000000000 C
   0.5887100000000000    0.5159000000000000    0.2940000000000000 C
   0.5574500000000000    0.4292400000000000    0.2736000000000000 C
   0.5998200000000000    0.5814100000000000    0.2276600000000000 C
   0.5729600000000000    0.5633500000000000    0.1409000000000000 C
   0.5039800000000000    0.3174000000000000    0.1599200000000000 C
   0.4784900000000000    0.2971800000000000    0.0740200000000000 C
   0.5117900000000000    0.4515100000000000    0.0290500000000000 C
   0.4822900000000000    0.3648400000000000    0.0081900000000000 C
   0.5340900000000000    0.4060600000000000    0.1842800000000000 C
   0.5384500000000000    0.4750700000000000    0.1169900000000000 C
   0.0488600000000000    0.3624500000000000    0.3486700000000000 C
   0.0779100000000000    0.6401300000000000    0.0774800000000000 C
   0.0888400000000000    0.5158800000000000    0.2940300000000000 C
   0.0575300000000000    0.4292200000000000    0.2736800000000000 C
   0.0999500000000000    0.5813700000000001    0.2276700000000000 C
   0.0730500000000000    0.5633000000000000    0.1409800000000000 C
   0.0040800000000000    0.3173500000000000    0.1600000000000000 C
   0.9786000000000000    0.2971100000000000    0.0741000000000000 C
   0.0118800000000000    0.4514300000000000    0.0291000000000000 C
   0.9823900000000000    0.3647600000000000    0.0082600000000000 C
   0.0341800000000000    0.4060100000000000    0.1843500000000000 C
   0.0385400000000000    0.4750100000000000    0.1170400000000000 C
   0.4511100000000000    0.8623700000000000    0.1514800000000000 C
   0.4221400000000000    0.1401900000000000    0.4225400000000000 C
   0.4113100000000000    0.0159100000000000    0.2060100000000000 C
   0.4425600000000000    0.9292200000000000    0.2264100000000000 C
   0.4001900000000000    0.0814200000000000    0.2723500000000000 C
   0.4270500000000000    0.0633600000000000    0.3590400000000000 C
   0.4960200000000000    0.8173899999999999    0.3401000000000000 C
   0.5215000000000000    0.7971700000000000    0.4260100000000000 C
   0.4881900000000000    0.9515000000000000    0.4709700000000000 C
   0.5176800000000000    0.8648300000000000    0.4918400000000000 C
   0.4659200000000000    0.9060500000000000    0.3157400000000000 C
   0.4615400000000000    0.9750600000000000    0.3830000000000000 C
   0.2011300000000000    0.6375400000000000    0.8486100000000000 C
   0.1721300000000000    0.3598000000000000    0.5774899999999999 C
   0.1612300000000000    0.4840700000000000    0.7940000000000000 C
   0.1925200000000000    0.5707300000000000    0.7736499999999999 C
   0.1501200000000000    0.4185700000000000    0.7276700000000000 C
   0.1770100000000000    0.4366300000000000    0.6409899999999999 C
   0.2459800000000000    0.6825900000000000    0.6599699999999999 C
   0.2714700000000000    0.7028100000000000    0.5740700000000000 C
   0.2381900000000000    0.5484800000000000    0.5290899999999999 C
   0.2676900000000000    0.6351500000000000    0.5082400000000000 C
   0.2158800000000000    0.5939200000000000    0.6843200000000000 C
   0.2115200000000000    0.5249200000000001    0.6170300000000000 C
   0.9511400000000000    0.8624200000000000    0.1513600000000000 C
   0.9221000000000000    0.1401400000000000    0.4225300000000000 C
   0.9112000000000000    0.0158800000000000    0.2059800000000000 C
   0.9424900000000000    0.9292000000000000    0.2263500000000000 C
   0.9000800000000000    0.0813800000000000    0.2723400000000000 C
   0.9269800000000000    0.0633200000000000    0.3590200000000000 C
   0.0000000000000000    0.8647600000000000    0.4917800000000000 C
   0.9881300000000000    0.9514300000000000    0.4709200000000000 C
   0.0000000000000000    0.7971100000000000    0.4259400000000000 C
   0.9959300000000000    0.8173300000000000    0.3400400000000000 C
   0.9658300000000000    0.9060000000000000    0.3156800000000000 C
   0.9614700000000000    0.9750000000000000    0.3829800000000000 C
   0.7455700000000000    0.1138200000000000    0.5865600000000000 O
   0.8467100000000000    0.2112300000000000    0.6569400000000000 O
   0.9007900000000000    0.8054200000000000    0.9187700000000000 O
   0.7579500000000000    0.8469800000000000    0.9777400000000001 O
   0.2455800000000000    0.1138100000000000    0.5866000000000000 O
   0.3467400000000000    0.2112400000000000    0.6569000000000000 O
   0.4007900000000000    0.8054100000000000    0.9187600000000000 O
   0.2579700000000000    0.8469900000000000    0.9777600000000000 O
   0.4955800000000000    0.3861500000000000    0.4134400000000000 O
   0.5967200000000000    0.2887400000000000    0.3430600000000000 O
   0.6508100000000000    0.6945200000000000    0.0812400000000000 O
   0.5079700000000000    0.6529800000000000    0.0222600000000000 O
   0.9954800000000000    0.3862600000000000    0.4134800000000000 O
   0.0966900000000000    0.2887700000000000    0.3433000000000000 O
   0.1508100000000000    0.6945200000000000    0.0812600000000000 O
   0.0079900000000000    0.6529199999999999    0.0222800000000000 O
   0.7420400000000000    0.3469800000000000    0.5222500000000000 O
   0.5992200000000000    0.3054100000000000    0.5812600000000000 O
   0.5044000000000000    0.8860900000000000    0.0865700000000000 O
   0.4032700000000000    0.7887100000000000    0.1570300000000000 O
   0.3492000000000000    0.1945500000000000    0.4187600000000000 O
   0.4920300000000000    0.1529900000000000    0.4777500000000000 O
   0.2544600000000000    0.6137800000000000    0.9134800000000000 O
   0.1532900000000000    0.7112100000000000    0.8431600000000000 O
   0.0992100000000000    0.3054300000000000    0.5812700000000000 O
   0.2420400000000000    0.3470000000000000    0.5220000000000000 O
   0.7543800000000001    0.6138600000000000   -0.0866300000000000 O
   0.6532300000000000    0.7112500000000000    0.8429600000000000 O
   0.0045200000000000    0.8862300000000000    0.0865500000000000 O
   0.9033099999999999    0.7887400000000000    0.1567300000000000 O
   0.8492000000000000    0.1945300000000000    0.4187400000000000 O
   0.9920200000000000    0.1529400000000000    0.4777300000000000 O
