H6 C12 O4
1.0
  13.6419999979222037    0.0000000000000000   -0.0002380978165466
   0.0000000000000024   14.7880000000000003    0.0000000000000009
   0.0000000000000000    0.0000000000000000   15.1370000000000005
H C O
6 12 4
direct
   0.6232200000000000    0.3512800000000000    0.7442299999999999 H
   0.6454000000000000    0.4669200000000000    0.8625000000000000 H
   0.7356400000000000    0.4966800000000000    0.4780000000000000 H
   0.7945900000000000    0.7710700000000000    0.5564100000000000 H
   0.7471500000000000    0.7348000000000000    0.7105300000000000 H
   0.7883400000000000    0.6516100000000000    0.4404100000000000 H
   0.6770200000000000    0.4366300000000000    0.6409300000000000 C
   0.7115600000000000    0.5249000000000000    0.6169600000000000 C
   0.6501800000000000    0.4185600000000000    0.7276300000000000 C
   0.7158600000000001    0.5939300000000000    0.6842300000000000 C
   0.6721400000000000    0.3597900000000000    0.5774500000000000 C
   0.6612600000000000    0.4840900000000000    0.7939600000000000 C
   0.6925400000000000    0.5707400000000000    0.7735600000000000 C
   0.7010800000000000    0.6375999999999999    0.8484800000000000 C
   0.7381900000000000    0.5484599999999999    0.5290000000000000 C
   0.7715000000000000    0.7027900000000000    0.5739700000000000 C
   0.7460300000000000    0.6825700000000000    0.6598800000000000 C
   0.7677200000000000    0.6351100000000000    0.5081500000000000 C
   0.5992200000000000    0.3054100000000000    0.5812600000000000 O
   0.7420400000000000    0.3469800000000000    0.5222500000000000 O
   0.6532300000000000    0.7112500000000000    0.8429600000000000 O
   0.7543800000000001    0.6138600000000000   -0.0866300000000000 O
