Zn24 H69 C184 O115
1.0
  39.2607841296972708    0.0000000000000000    0.1301941677310818
  -0.0238076758920970   16.1953918993124404   -4.6072723407948928
   0.0000000000000000    0.0000000000000000   13.9600000000000009
Zn H C O
24 69 184 115
direct
   0.1478466666666667    0.3473200000000000    0.1056300000000000 Zn
   0.0013733333333333    0.1802900000000000    0.6873899999999999 Zn
   0.3141300000000000    0.6522200000000000    0.3950200000000000 Zn
   0.1674400000000000    0.1782900000000000    0.1868500000000000 Zn
   0.1865300000000000    0.6499900000000000    0.8912700000000000 Zn
   0.0000000000000000    0.8194100000000000    0.3124300000000000 Zn
   0.0194133333333333    0.3476800000000000    0.6046100000000000 Zn
   0.1671533333333333    0.8195700000000000    0.8128700000000000 Zn
   0.4811799999999999    0.3473200000000000    0.1056300000000000 Zn
   0.3347066666666667    0.1802900000000000    0.6873899999999999 Zn
   0.6474633333333333    0.6522200000000000    0.3950200000000000 Zn
   0.5007733333333333    0.1782900000000000    0.1868500000000000 Zn
   0.5198633333333333    0.6499900000000000    0.8912700000000000 Zn
   0.3333333333333333    0.8194100000000000    0.3124300000000000 Zn
   0.3527466666666667    0.3476800000000000    0.6046100000000000 Zn
   0.5004866666666666    0.8195700000000000    0.8128700000000000 Zn
   0.8145133333333333    0.3473200000000000    0.1056300000000000 Zn
   0.6680400000000000    0.1802900000000000    0.6873899999999999 Zn
   0.9807966666666665    0.6522200000000000    0.3950200000000000 Zn
   0.8341066666666666    0.1782900000000000    0.1868500000000000 Zn
   0.8531966666666666    0.6499900000000000    0.8912700000000000 Zn
   0.6666666666666666    0.8194100000000000    0.3124300000000000 Zn
   0.6860799999999999    0.3476800000000000    0.6046100000000000 Zn
   0.8338200000000000    0.8195700000000000    0.8128700000000000 Zn
   0.1165633333333333    0.4927400000000000    0.7207900000000000 H
   0.0246466666666667    0.4952900000000000    0.5484800000000000 H
   0.0898366666666667    0.7094100000000000    0.6287900000000000 H
   0.0822233333333333    0.0404200000000000    0.7570500000000000 H
   0.0962933333333333    0.2795400000000000    0.9637300000000000 H
   0.1517066666666667    0.0661200000000000    0.0000000000000000 H
   0.2836833333333333    0.5059399999999999    0.7762300000000000 H
   0.1914233333333333    0.5032900000000000    0.9488300000000000 H
   0.2570366666666666    0.2902900000000000    0.8712299999999999 H
   0.2488666666666667    0.9591100000000000    0.7446700000000001 H
   0.2627566666666666    0.7202200000000000    0.5374600000000000 H
   0.3193033333333333    0.9331199999999999    0.5005500000000001 H
   0.2520166666666667    0.9569400000000000    0.2428000000000000 H
   0.2380466666666667    0.7184600000000000    0.0347200000000000 H
   0.1822800000000000    0.9320600000000000    0.9985400000000000 H
   0.0511166666666667    0.4933500000000000    0.2253000000000000 H
   0.1422466666666667    0.4942600000000000    0.0474200000000000 H
   0.0768733333333333    0.7076300000000000    0.1263300000000000 H
   0.0847866666666666    0.0409000000000000    0.2538400000000000 H
   0.0714266666666667    0.2798200000000000    0.4617200000000000 H
   0.0150900000000000    0.0670200000000000    0.4996600000000000 H
   0.4498966666666666    0.4927400000000000    0.7207900000000000 H
   0.3579800000000000    0.4952900000000000    0.5484800000000000 H
   0.4231700000000000    0.7094100000000000    0.6287900000000000 H
   0.4155566666666666    0.0404200000000000    0.7570500000000000 H
   0.4296266666666667    0.2795400000000000    0.9637300000000000 H
   0.4850400000000000    0.0661200000000000    0.0000000000000000 H
   0.6170166666666665    0.5059399999999999    0.7762300000000000 H
   0.5247566666666666    0.5032900000000000    0.9488300000000000 H
   0.5903700000000000    0.2902900000000000    0.8712299999999999 H
   0.5822000000000001    0.9591100000000000    0.7446700000000001 H
   0.5960900000000000    0.7202200000000000    0.5374600000000000 H
   0.6526366666666666    0.9331199999999999    0.5005500000000001 H
   0.5508400000000000    0.5063200000000000    0.2757300000000000 H
   0.6421033333333332    0.5049700000000000    0.4511600000000000 H
   0.5764933333333333    0.2915500000000000    0.3729000000000000 H
   0.5853500000000000    0.9569400000000000    0.2428000000000000 H
   0.5713800000000000    0.7184600000000000    0.0347200000000000 H
   0.5156133333333333    0.9320600000000000    0.9985400000000000 H
   0.3844500000000000    0.4933500000000000    0.2253000000000000 H
   0.4755800000000000    0.4942600000000000    0.0474200000000000 H
   0.4102066666666666    0.7076300000000000    0.1263300000000000 H
   0.4181199999999999    0.0409000000000000    0.2538400000000000 H
   0.4047600000000000    0.2798200000000000    0.4617200000000000 H
   0.3484233333333333    0.0670200000000000    0.4996600000000000 H
   0.7832300000000000    0.4927400000000000    0.7207900000000000 H
   0.6913133333333333    0.4952900000000000    0.5484800000000000 H
   0.7565033333333333    0.7094100000000000    0.6287900000000000 H
   0.7488899999999999    0.0404200000000000    0.7570500000000000 H
   0.7629600000000000    0.2795400000000000    0.9637300000000000 H
   0.8183733333333333    0.0661200000000000    0.0000000000000000 H
   0.9503499999999999    0.5059399999999999    0.7762300000000000 H
   0.8580899999999999    0.5032900000000000    0.9488300000000000 H
   0.9237033333333333    0.2902900000000000    0.8712299999999999 H
   0.9155333333333333    0.9591100000000000    0.7446700000000001 H
   0.9294233333333333    0.7202200000000000    0.5374600000000000 H
   0.9859700000000000    0.9331199999999999    0.5005500000000001 H
   0.8841733333333333    0.5063200000000000    0.2757300000000000 H
   0.9754366666666666    0.5049700000000000    0.4511600000000000 H
   0.9098266666666666    0.2915500000000000    0.3729000000000000 H
   0.9186833333333333    0.9569400000000000    0.2428000000000000 H
   0.9047133333333333    0.7184600000000000    0.0347200000000000 H
   0.8489466666666666    0.9320600000000000    0.9985400000000000 H
   0.7177833333333333    0.4933500000000000    0.2253000000000000 H
   0.8089133333333333    0.4942600000000000    0.0474200000000000 H
   0.7435400000000000    0.7076300000000000    0.1263300000000000 H
   0.7514533333333333    0.0409000000000000    0.2538400000000000 H
   0.7380933333333333    0.2798200000000000    0.4617200000000000 H
   0.6817566666666667    0.0670200000000000    0.4996600000000000 H
   0.1357833333333333    0.6523800000000000    0.7400200000000000 C
   0.1061800000000000    0.6060300000000000    0.6823900000000001 C
   0.0997233333333333    0.5253000000000000    0.6826400000000000 C
   0.0697366666666667    0.4833900000000000    0.6343000000000000 C
   0.0473400000000000    0.5266800000000000    0.5849100000000000 C
   0.0548200000000000    0.6060900000000000    0.5821499999999999 C
   0.0332066666666667    0.6477100000000000    0.5210100000000000 C
   0.0841900000000000    0.6465200000000000    0.6308500000000000 C
   0.1293700000000000    0.9565100000000000    0.8315000000000000 C
   0.1182100000000000    0.0441500000000000    0.8758300000000000 C
   0.0943300000000000    0.0791400000000000    0.8235700000000000 C
   0.0861400000000000    0.1640500000000000    0.8566000000000000 C
   0.0590466666666667    0.1994400000000000    0.8035000000000000 C
   0.1022933333333333    0.2138500000000000    0.9394100000000000 C
   0.1261233333333333    0.1787600000000000    0.9937700000000000 C
   0.1334733333333333    0.0925400000000000    0.9607800000000000 C
   0.3030433333333333    0.3470900000000000    0.7589399999999999 C
   0.2733533333333333    0.3932200000000000    0.8162700000000001 C
   0.2668166666666666    0.4735700000000000    0.8149500000000000 C
   0.2367200000000000    0.5152700000000000    0.8628500000000000 C
   0.2142366666666667    0.4721300000000000    0.9127800000000000 C
   0.2218166666666667    0.3930900000000000    0.9166000000000000 C
   0.2002766666666667    0.3515100000000000    0.9784600000000000 C
   0.2513233333333333    0.3528800000000000    0.8683600000000000 C
   0.2966333333333333    0.0428600000000000    0.6710800000000000 C
   0.2853766666666666    0.9552800000000000    0.6264400000000000 C
   0.2611100000000000    0.9204100000000000    0.6782500000000000 C
   0.2526700000000000    0.8356300000000000    0.6440000000000000 C
   0.2251433333333333    0.8003900000000000    0.6970900000000000 C
   0.2689700000000000    0.7858300000000000    0.5620800000000000 C
   0.2931466666666667    0.8208299999999999    0.5081200000000000 C
   0.3008100000000000    0.9068800000000000    0.5415800000000000 C
   0.2048300000000000    0.0415500000000000    0.1686900000000000 C
   0.2159500000000000    0.9537900000000000    0.1243000000000000 C
   0.2399066666666667    0.9185100000000000    0.1761000000000000 C
   0.2482400000000000    0.8336700000000000    0.1420000000000000 C
   0.2756100000000000    0.7979200000000000    0.1942000000000000 C
   0.2319500000000000    0.7840800000000000    0.0595000000000000 C
   0.2078933333333333    0.8192800000000000    0.0000000000000000 C
   0.2005666666666667    0.9055299999999999    0.0394400000000000 C
   0.0315900000000000    0.6523099999999999    0.2418200000000000 C
   0.0610366666666667    0.6055300000000000    0.1835400000000000 C
   0.0676966666666667    0.5253400000000000    0.1853600000000000 C
   0.0975566666666667    0.4831900000000000    0.1361000000000000 C
   0.1196233333333333    0.5257500000000001    0.0843500000000000 C
   0.1119500000000000    0.6046400000000000    0.0802100000000000 C
   0.1332400000000000    0.6457700000000000    0.0172400000000000 C
   0.0826933333333333    0.6452200000000000    0.1296500000000000 C
   0.0373166666666667    0.9572600000000000    0.3287400000000000 C
   0.0486533333333333    0.0447900000000000    0.3729600000000000 C
   0.0727500000000000    0.0796300000000000    0.3206200000000000 C
   0.0812933333333333    0.1643800000000000    0.3541400000000000 C
   0.1088233333333333    0.1992800000000000    0.3014000000000000 C
   0.0651733333333333    0.2142400000000000    0.4370600000000000 C
   0.0411433333333333    0.1792800000000000    0.4914500000000000 C
   0.0334600000000000    0.0932200000000000    0.4582200000000000 C
   0.4691166666666666    0.6523800000000000    0.7400200000000000 C
   0.4395133333333333    0.6060300000000000    0.6823900000000001 C
   0.4330566666666666    0.5253000000000000    0.6826400000000000 C
   0.4030700000000000    0.4833900000000000    0.6343000000000000 C
   0.3806733333333333    0.5266800000000000    0.5849100000000000 C
   0.3881533333333333    0.6060900000000000    0.5821499999999999 C
   0.3665400000000000    0.6477100000000000    0.5210100000000000 C
   0.4175233333333333    0.6465200000000000    0.6308500000000000 C
   0.4627033333333333    0.9565100000000000    0.8315000000000000 C
   0.4515433333333333    0.0441500000000000    0.8758300000000000 C
   0.4276633333333333    0.0791400000000000    0.8235700000000000 C
   0.4194733333333333    0.1640500000000000    0.8566000000000000 C
   0.3923800000000000    0.1994400000000000    0.8035000000000000 C
   0.4356266666666666    0.2138500000000000    0.9394100000000000 C
   0.4594566666666666    0.1787600000000000    0.9937700000000000 C
   0.4668066666666666    0.0925400000000000    0.9607800000000000 C
   0.6363766666666666    0.3470900000000000    0.7589399999999999 C
   0.6066866666666666    0.3932200000000000    0.8162700000000001 C
   0.6001500000000000    0.4735700000000000    0.8149500000000000 C
   0.5700533333333333    0.5152700000000000    0.8628500000000000 C
   0.5475700000000000    0.4721300000000000    0.9127800000000000 C
   0.5551500000000000    0.3930900000000000    0.9166000000000000 C
   0.5336099999999999    0.3515100000000000    0.9784600000000000 C
   0.5846566666666666    0.3528800000000000    0.8683600000000000 C
   0.6299666666666666    0.0428600000000000    0.6710800000000000 C
   0.6187099999999999    0.9552800000000000    0.6264400000000000 C
   0.5944433333333332    0.9204100000000000    0.6782500000000000 C
   0.5860033333333332    0.8356300000000000    0.6440000000000000 C
   0.5584766666666666    0.8003900000000000    0.6970900000000000 C
   0.6023033333333333    0.7858300000000000    0.5620800000000000 C
   0.6264799999999999    0.8208299999999999    0.5081200000000000 C
   0.6341433333333333    0.9068800000000000    0.5415800000000000 C
   0.5314133333333333    0.3473000000000000    0.2583200000000000 C
   0.5607799999999999    0.3939300000000000    0.3165900000000000 C
   0.5674300000000000    0.4742700000000000    0.3151500000000000 C
   0.5972733333333333    0.5164500000000000    0.3640100000000000 C
   0.6194066666666667    0.4736100000000000    0.4147300000000000 C
   0.6116666666666666    0.3946100000000000    0.4186400000000000 C
   0.6328633333333333    0.3532900000000000    0.4809700000000000 C
   0.5823666666666667    0.3540600000000000    0.3697900000000000 C
   0.5381633333333333    0.0415500000000000    0.1686900000000000 C
   0.5492833333333333    0.9537900000000000    0.1243000000000000 C
   0.5732400000000000    0.9185100000000000    0.1761000000000000 C
   0.5815733333333333    0.8336700000000000    0.1420000000000000 C
   0.6089433333333333    0.7979200000000000    0.1942000000000000 C
   0.5652833333333334    0.7840800000000000    0.0595000000000000 C
   0.5412266666666666    0.8192800000000000    0.0000000000000000 C
   0.5339000000000000    0.9055299999999999    0.0394400000000000 C
   0.3649233333333333    0.6523099999999999    0.2418200000000000 C
   0.3943700000000000    0.6055300000000000    0.1835400000000000 C
   0.4010300000000000    0.5253400000000000    0.1853600000000000 C
   0.4308900000000000    0.4831900000000000    0.1361000000000000 C
   0.4529566666666667    0.5257500000000001    0.0843500000000000 C
   0.4452833333333333    0.6046400000000000    0.0802100000000000 C
   0.4665733333333333    0.6457700000000000    0.0172400000000000 C
   0.4160266666666667    0.6452200000000000    0.1296500000000000 C
   0.3706500000000000    0.9572600000000000    0.3287400000000000 C
   0.3819866666666666    0.0447900000000000    0.3729600000000000 C
   0.4060833333333333    0.0796300000000000    0.3206200000000000 C
   0.4146266666666666    0.1643800000000000    0.3541400000000000 C
   0.4421566666666666    0.1992800000000000    0.3014000000000000 C
   0.3985066666666667    0.2142400000000000    0.4370600000000000 C
   0.3744766666666666    0.1792800000000000    0.4914500000000000 C
   0.3667933333333333    0.0932200000000000    0.4582200000000000 C
   0.8024499999999999    0.6523800000000000    0.7400200000000000 C
   0.7728466666666667    0.6060300000000000    0.6823900000000001 C
   0.7663899999999999    0.5253000000000000    0.6826400000000000 C
   0.7364033333333333    0.4833900000000000    0.6343000000000000 C
   0.7140066666666667    0.5266800000000000    0.5849100000000000 C
   0.7214866666666666    0.6060900000000000    0.5821499999999999 C
   0.6998733333333333    0.6477100000000000    0.5210100000000000 C
   0.7508566666666666    0.6465200000000000    0.6308500000000000 C
   0.7960366666666666    0.9565100000000000    0.8315000000000000 C
   0.7848766666666667    0.0441500000000000    0.8758300000000000 C
   0.7609966666666667    0.0791400000000000    0.8235700000000000 C
   0.7528066666666666    0.1640500000000000    0.8566000000000000 C
   0.7257133333333333    0.1994400000000000    0.8035000000000000 C
   0.7689600000000000    0.2138500000000000    0.9394100000000000 C
   0.7927899999999999    0.1787600000000000    0.9937700000000000 C
   0.8001400000000000    0.0925400000000000    0.9607800000000000 C
   0.9697100000000000    0.3470900000000000    0.7589399999999999 C
   0.9400200000000000    0.3932200000000000    0.8162700000000001 C
   0.9334833333333332    0.4735700000000000    0.8149500000000000 C
   0.9033866666666666    0.5152700000000000    0.8628500000000000 C
   0.8809033333333333    0.4721300000000000    0.9127800000000000 C
   0.8884833333333333    0.3930900000000000    0.9166000000000000 C
   0.8669433333333333    0.3515100000000000    0.9784600000000000 C
   0.9179900000000000    0.3528800000000000    0.8683600000000000 C
   0.9632999999999999    0.0428600000000000    0.6710800000000000 C
   0.9520433333333332    0.9552800000000000    0.6264400000000000 C
   0.9277766666666666    0.9204100000000000    0.6782500000000000 C
   0.9193366666666666    0.8356300000000000    0.6440000000000000 C
   0.8918100000000000    0.8003900000000000    0.6970900000000000 C
   0.9356366666666667    0.7858300000000000    0.5620800000000000 C
   0.9598133333333333    0.8208299999999999    0.5081200000000000 C
   0.9674766666666665    0.9068800000000000    0.5415800000000000 C
   0.8647466666666666    0.3473000000000000    0.2583200000000000 C
   0.8941133333333333    0.3939300000000000    0.3165900000000000 C
   0.9007633333333332    0.4742700000000000    0.3151500000000000 C
   0.9306066666666666    0.5164500000000000    0.3640100000000000 C
   0.9527399999999999    0.4736100000000000    0.4147300000000000 C
   0.9450000000000000    0.3946100000000000    0.4186400000000000 C
   0.9661966666666666    0.3532900000000000    0.4809700000000000 C
   0.9157000000000000    0.3540600000000000    0.3697900000000000 C
   0.8714966666666666    0.0415500000000000    0.1686900000000000 C
   0.8826166666666666    0.9537900000000000    0.1243000000000000 C
   0.9065733333333332    0.9185100000000000    0.1761000000000000 C
   0.9149066666666666    0.8336700000000000    0.1420000000000000 C
   0.9422766666666667    0.7979200000000000    0.1942000000000000 C
   0.8986166666666666    0.7840800000000000    0.0595000000000000 C
   0.8745600000000000    0.8192800000000000    0.0000000000000000 C
   0.8672333333333333    0.9055299999999999    0.0394400000000000 C
   0.6982566666666666    0.6523099999999999    0.2418200000000000 C
   0.7277033333333333    0.6055300000000000    0.1835400000000000 C
   0.7343633333333333    0.5253400000000000    0.1853600000000000 C
   0.7642233333333333    0.4831900000000000    0.1361000000000000 C
   0.7862899999999999    0.5257500000000001    0.0843500000000000 C
   0.7786166666666666    0.6046400000000000    0.0802100000000000 C
   0.7999066666666667    0.6457700000000000    0.0172400000000000 C
   0.7493599999999999    0.6452200000000000    0.1296500000000000 C
   0.7039833333333333    0.9572600000000000    0.3287400000000000 C
   0.7153200000000000    0.0447900000000000    0.3729600000000000 C
   0.7394166666666666    0.0796300000000000    0.3206200000000000 C
   0.7479600000000000    0.1643800000000000    0.3541400000000000 C
   0.7754900000000000    0.1992800000000000    0.3014000000000000 C
   0.7318399999999999    0.2142400000000000    0.4370600000000000 C
   0.7078099999999999    0.1792800000000000    0.4914500000000000 C
   0.7001266666666667    0.0932200000000000    0.4582200000000000 C
   0.1570433333333333    0.6104500000000000    0.7746700000000000 O
   0.1362400000000000    0.7294400000000000    0.7498700000000000 O
   0.0637266666666667    0.4090200000000000    0.6384400000000000 O
   0.0021533333333333    0.6191200000000000    0.5046000000000000 O
   0.0459566666666667    0.7020100000000000    0.4870000000000000 O
   0.1435200000000000    0.9196200000000000    0.8914500000000000 O
   0.1259433333333333    0.9257800000000000    0.7401000000000000 O
   0.0413100000000000    0.1422300000000000    0.7417100000000000 O
   0.0548133333333333    0.2749100000000000    0.8211600000000000 O
   0.1410033333333333    0.2246100000000000    0.0741700000000000 O
   0.3242433333333333    0.3889500000000000    0.7233000000000001 O
   0.3036600000000000    0.2701900000000000    0.7500599999999999 O
   0.2307533333333333    0.5893400000000000    0.8575700000000001 O
   0.1690800000000000    0.3789800000000000    0.9944800000000000 O
   0.2132866666666667    0.2981700000000000    0.0000000000000000 O
   0.3106533333333333    0.0802000000000000    0.6111000000000000 O
   0.2933200000000000    0.0730300000000000    0.7626400000000000 O
   0.2072600000000000    0.8577100000000000    0.7583700000000000 O
   0.2207433333333333    0.7249200000000000    0.6794300000000000 O
   0.3080033333333333    0.7749400000000000    0.4274300000000000 O
   0.1912266666666667    0.0789100000000000    0.1082800000000000 O
   0.2077766666666667    0.0721300000000000    0.2602200000000000 O
   0.2932566666666667    0.8549800000000000    0.2566300000000000 O
   0.2799933333333333    0.7224400000000000    0.1752500000000000 O
   0.1927900000000000    0.7735600000000000    0.9258999999999999 O
   0.0104933333333333    0.6110100000000001    0.2785100000000000 O
   0.0310966666666667    0.7291700000000000    0.2500800000000000 O
   0.1037700000000000    0.4094000000000000    0.1418100000000000 O
   0.1643966666666667    0.6179600000000000    0.0007800000000000 O
   0.1201466666666667    0.6990400000000000    0.9830400000000000 O
   0.0237733333333333    0.9197800000000000    0.3893000000000000 O
   0.0401000000000000    0.9270400000000000    0.2370000000000000 O
   0.1273300000000000    0.1416500000000000    0.2427700000000000 O
   0.1126533333333333    0.2747100000000000    0.3165700000000000 O
   0.0264266666666667    0.2251700000000000    0.5724100000000000 O
   0.4903766666666666    0.6104500000000000    0.7746700000000000 O
   0.4695733333333333    0.7294400000000000    0.7498700000000000 O
   0.3970600000000000    0.4090200000000000    0.6384400000000000 O
   0.3354866666666667    0.6191200000000000    0.5046000000000000 O
   0.3792900000000000    0.7020100000000000    0.4870000000000000 O
   0.4768533333333333    0.9196200000000000    0.8914500000000000 O
   0.4592766666666667    0.9257800000000000    0.7401000000000000 O
   0.3746433333333333    0.1422300000000000    0.7417100000000000 O
   0.3881466666666666    0.2749100000000000    0.8211600000000000 O
   0.4743366666666666    0.2246100000000000    0.0741700000000000 O
   0.6575766666666667    0.3889500000000000    0.7233000000000001 O
   0.6369933333333333    0.2701900000000000    0.7500599999999999 O
   0.5640866666666666    0.5893400000000000    0.8575700000000001 O
   0.5024133333333334    0.3789800000000000    0.9944800000000000 O
   0.5466200000000000    0.2981700000000000    0.0000000000000000 O
   0.6439866666666667    0.0802000000000000    0.6111000000000000 O
   0.6266533333333333    0.0730300000000000    0.7626400000000000 O
   0.5405933333333333    0.8577100000000000    0.7583700000000000 O
   0.5540766666666667    0.7249200000000000    0.6794300000000000 O
   0.6413366666666667    0.7749400000000000    0.4274300000000000 O
   0.5107033333333333    0.3889100000000000    0.2214000000000000 O
   0.5306200000000000    0.2705200000000000    0.2501500000000000 O
   0.6033733333333333    0.5905100000000000    0.3587400000000000 O
   0.6642933333333333    0.3795800000000000    0.4951300000000000 O
   0.6194499999999999    0.3012600000000000    0.5170000000000000 O
   0.5245599999999999    0.0789100000000000    0.1082800000000000 O
   0.5411100000000000    0.0721300000000000    0.2602200000000000 O
   0.6265900000000000    0.8549800000000000    0.2566300000000000 O
   0.6133266666666666    0.7224400000000000    0.1752500000000000 O
   0.5261233333333333    0.7735600000000000    0.9258999999999999 O
   0.3438266666666667    0.6110100000000001    0.2785100000000000 O
   0.3644300000000000    0.7291700000000000    0.2500800000000000 O
   0.4371033333333333    0.4094000000000000    0.1418100000000000 O
   0.4977300000000000    0.6179600000000000    0.0007800000000000 O
   0.4534800000000000    0.6990400000000000    0.9830400000000000 O
   0.3571066666666666    0.9197800000000000    0.3893000000000000 O
   0.3734333333333333    0.9270400000000000    0.2370000000000000 O
   0.4606633333333333    0.1416500000000000    0.2427700000000000 O
   0.4459866666666666    0.2747100000000000    0.3165700000000000 O
   0.3597600000000000    0.2251700000000000    0.5724100000000000 O
   0.8237099999999999    0.6104500000000000    0.7746700000000000 O
   0.8029066666666667    0.7294400000000000    0.7498700000000000 O
   0.7303933333333332    0.4090200000000000    0.6384400000000000 O
   0.6688200000000000    0.6191200000000000    0.5046000000000000 O
   0.7126233333333333    0.7020100000000000    0.4870000000000000 O
   0.8101866666666666    0.9196200000000000    0.8914500000000000 O
   0.7926099999999999    0.9257800000000000    0.7401000000000000 O
   0.7079766666666666    0.1422300000000000    0.7417100000000000 O
   0.7214800000000000    0.2749100000000000    0.8211600000000000 O
   0.8076699999999999    0.2246100000000000    0.0741700000000000 O
   0.9909100000000000    0.3889500000000000    0.7233000000000001 O
   0.9703266666666666    0.2701900000000000    0.7500599999999999 O
   0.8974199999999999    0.5893400000000000    0.8575700000000001 O
   0.8357466666666666    0.3789800000000000    0.9944800000000000 O
   0.8799533333333333    0.2981700000000000    0.0000000000000000 O
   0.9773200000000000    0.0802000000000000    0.6111000000000000 O
   0.9599866666666665    0.0730300000000000    0.7626400000000000 O
   0.8739266666666666    0.8577100000000000    0.7583700000000000 O
   0.8874099999999999    0.7249200000000000    0.6794300000000000 O
   0.9746699999999999    0.7749400000000000    0.4274300000000000 O
   0.8440366666666665    0.3889100000000000    0.2214000000000000 O
   0.8639533333333334    0.2705200000000000    0.2501500000000000 O
   0.9367066666666666    0.5905100000000000    0.3587400000000000 O
   0.9976266666666667    0.3795800000000000    0.4951300000000000 O
   0.9527833333333333    0.3012600000000000    0.5170000000000000 O
   0.8578933333333333    0.0789100000000000    0.1082800000000000 O
   0.8744433333333332    0.0721300000000000    0.2602200000000000 O
   0.9599233333333332    0.8549800000000000    0.2566300000000000 O
   0.9466599999999999    0.7224400000000000    0.1752500000000000 O
   0.8594566666666666    0.7735600000000000    0.9258999999999999 O
   0.6771600000000000    0.6110100000000001    0.2785100000000000 O
   0.6977633333333333    0.7291700000000000    0.2500800000000000 O
   0.7704366666666667    0.4094000000000000    0.1418100000000000 O
   0.8310633333333333    0.6179600000000000    0.0007800000000000 O
   0.7868133333333333    0.6990400000000000    0.9830400000000000 O
   0.6904399999999999    0.9197800000000000    0.3893000000000000 O
   0.7067666666666667    0.9270400000000000    0.2370000000000000 O
   0.7939966666666667    0.1416500000000000    0.2427700000000000 O
   0.7793200000000000    0.2747100000000000    0.3165700000000000 O
   0.6930933333333333    0.2251700000000000    0.5724100000000000 O
