C1 O3
1.0
   8.6509999999999998    0.0000000000000000    0.0000000000000005
  -0.0002678207737052   15.3449999976628231    0.0000000000000009
   0.0000000000000000    0.0000000000000000   34.8419999999999987
C O
1 3
direct
   0.5500800000000000    0.7900199999999999    0.8749899999999999 C
   0.6073000000000000    0.8107900000000000    0.9079250000000000 O
   0.6073000000000000    0.8107900000000000    0.8420600000000000 O
   0.4204000000000000    0.7447500000000000    0.8749899999999999 O
