H6 O4
1.0
   8.6509999999999998    0.0000000000000000    0.0000000000000005
  -0.0002678207737052   15.3449999976628231    0.0000000000000009
   0.0000000000000000    0.0000000000000000   34.8419999999999987
H O
6 4
direct
   1.0183744212354842    0.3161137506250827    0.7571833276595802 H
   0.1606088774763100    0.3794748415411467    0.7655925460256745 H
   0.8056540300175760    0.2205951786619425    0.7407111222711398 H
   0.5980281004573393    0.5737723501645035    0.8084383387327967 H
   0.6231697072431380    0.6248210171351158    0.8261962725730603 H
   1.1127194395706730    0.5807503762666093    0.8187325061333658 H
   0.0862000000000000    0.3444600000000000    0.7515950000000000 O
   0.8926900000000000    0.2569700000000000    0.7335400000000000 O
   0.4885600000000000    0.5870800000000000    0.8098350000000001 O
   0.7347399999999999    0.6267000000000000    0.8235550000000000 O
