H2 C5 N2 O4
1.0
   8.6509999999999998    0.0000000000000000    0.0000000000000005
  -0.0002678207737052   15.3449999976628231    0.0000000000000009
   0.0000000000000000    0.0000000000000000   34.8419999999999987
H C N O
2 5 2 4
direct
   0.9480700000000000    0.4927700000000000    0.7992600000000001 H
   0.4805900000000000    0.4319600000000000    0.7768150000000000 H
   0.9449900000000000    0.3254100000000000    0.7514500000000000 C
   0.8278000000000000    0.3828600000000000    0.7691150000000000 C
   0.8430299999999999    0.4606900000000000    0.7900400000000001 C
   0.6925900000000000    0.4900300000000000    0.7955600000000000 C
   0.6337500000000000    0.5736700000000000    0.8113600000000001 C
   0.5984400000000000    0.4301500000000000    0.7781750000000001 N
   0.6772100000000000    0.3647500000000000    0.7617950000000000 N
   0.0862000000000000    0.3444600000000000    0.7515950000000000 O
   0.8926900000000000    0.2569700000000000    0.7335400000000000 O
   0.4885600000000000    0.5870800000000000    0.8098350000000001 O
   0.7347399999999999    0.6267000000000000    0.8235550000000000 O
