La16 H30 C83 N30 O84
1.0
   8.6509999999999998    0.0000000000000000    0.0000000000000005
  -0.0002678207737052   15.3449999976628231    0.0000000000000009
   0.0000000000000000    0.0000000000000000   34.8419999999999987
La H C N O
16 30 83 30 84
direct
   0.8558000000000000    0.7647600000000000    0.3055400000000000 La
   0.3557900000000000    0.7352400000000000    0.4444450000000000 La
   0.1442100000000000    0.2352600000000000    0.0555450000000000 La
   0.3557900000000000    0.7352400000000000    0.3055400000000000 La
   0.1442000000000000    0.2352600000000000    0.1944500000000000 La
   0.6442099999999999    0.2647800000000000    0.0555450000000000 La
   0.8557900000000001    0.7647600000000000    0.4444450000000000 La
   0.6442099999999999    0.2647800000000000    0.1944500000000000 La
   0.8558000000000000    0.7647600000000000    0.8055399999999999 La
   0.3557900000000000    0.7352400000000000    0.9444450000000000 La
   0.1442100000000000    0.2352600000000000    0.5555450000000000 La
   0.3557900000000000    0.7352400000000000    0.8055399999999999 La
   0.1442000000000000    0.2352600000000000    0.6944500000000000 La
   0.6442099999999999    0.2647800000000000    0.5555450000000000 La
   0.8557900000000001    0.7647600000000000    0.9444450000000000 La
   0.6442099999999999    0.2647800000000000    0.6944500000000000 La
   0.4480700000000000    0.0072600000000000    0.2992550000000000 H
   0.9805800000000000    0.0680600000000000    0.2768150000000000 H
   0.0519400000000000    0.5072500000000000    0.2007300000000000 H
   0.5194200000000000    0.5680600000000000    0.2231800000000000 H
   0.5519400000000000    0.9927600000000000    0.0492650000000000 H
   0.0194400000000000    0.9319600000000000    0.0268200000000000 H
   0.9480700000000000    0.4927700000000000    0.4507250000000000 H
   0.4805800000000000    0.4319700000000000    0.4731700000000000 H
   0.5519400000000000    0.9927700000000000    0.2007400000000000 H
   0.0194300000000000    0.9319700000000000    0.2231750000000000 H
   0.9480700000000000    0.4927700000000000    0.2992600000000000 H
   0.4805900000000000    0.4319600000000000    0.2768150000000000 H
   0.4480600000000000    0.0072600000000000    0.4507300000000000 H
   0.9805700000000001    0.0680600000000000    0.4731700000000000 H
   0.0519400000000000    0.5072500000000000    0.0492650000000000 H
   0.5194200000000000    0.5680500000000001    0.0268150000000000 H
   0.4480700000000000    0.0072600000000000    0.7992550000000000 H
   0.9805800000000000    0.0680600000000000    0.7768150000000000 H
   0.0519400000000000    0.5072500000000000    0.7007300000000000 H
   0.5194200000000000    0.5680600000000000    0.7231799999999999 H
   0.5519400000000000    0.9927600000000000    0.5492650000000000 H
   0.0194400000000000    0.9319600000000000    0.5268200000000000 H
   0.9480700000000000    0.4927700000000000    0.9507250000000000 H
   0.4805800000000000    0.4319700000000000    0.9731700000000000 H
   0.5519400000000000    0.9927700000000000    0.7007400000000000 H
   0.0194300000000000    0.9319700000000000    0.7231750000000000 H
   0.4480600000000000    0.0072600000000000    0.9507300000000001 H
   0.9805700000000001    0.0680600000000000    0.9731700000000000 H
   0.0519400000000000    0.5072500000000000    0.5492650000000000 H
   0.5194200000000000    0.5680500000000001    0.5268150000000000 H
   0.4449900000000000    0.1746300000000000    0.2514550000000000 C
   0.3277900000000000    0.1171700000000000    0.2691150000000000 C
   0.3430200000000000    0.0393400000000000    0.2900350000000000 C
   0.1925900000000000    0.0099900000000000    0.2955600000000000 C
   0.1337600000000000    0.9263300000000000    0.3113650000000000 C
   0.0550100000000000    0.6746100000000000    0.2485400000000000 C
   0.1722100000000000    0.6171500000000000    0.2308800000000000 C
   0.1569800000000000    0.5393300000000000    0.2099550000000000 C
   0.3074200000000000    0.5099900000000001    0.2044350000000000 C
   0.3662600000000000    0.4263500000000000    0.1886300000000000 C
   0.5550100000000000    0.8254000000000000    0.0000000000000000 C
   0.6722200000000000    0.8828500000000000    0.0191200000000000 C
   0.6569900000000000    0.9606800000000000    0.0400400000000000 C
   0.8074200000000000    0.9900300000000000    0.0455600000000000 C
   0.8662500000000000    0.0736900000000000    0.0613650000000000 C
   0.9450000000000000    0.3254100000000000    0.4985450000000000 C
   0.8277900000000000    0.3828700000000000    0.4808700000000000 C
   0.8430200000000000    0.4607000000000000    0.4599500000000000 C
   0.6925900000000000    0.4900400000000000    0.4544250000000000 C
   0.6337500000000000    0.5736700000000000    0.4386250000000000 C
   0.5550200000000000    0.8253900000000000    0.2485350000000000 C
   0.6722200000000000    0.8828600000000000    0.2308800000000000 C
   0.6569900000000000    0.9606900000000000    0.2099600000000000 C
   0.8074200000000000    0.9900300000000000    0.2044350000000000 C
   0.8662500000000000    0.0736900000000000    0.1886300000000000 C
   0.9449900000000000    0.3254100000000000    0.2514500000000000 C
   0.8278000000000000    0.3828600000000000    0.2691150000000000 C
   0.8430299999999999    0.4606900000000000    0.2900400000000000 C
   0.6925900000000000    0.4900300000000000    0.2955600000000000 C
   0.6337500000000000    0.5736700000000000    0.3113600000000000 C
   0.4449900000000000    0.1746200000000000    0.4985450000000000 C
   0.3277800000000000    0.1171700000000000    0.4808700000000000 C
   0.3430100000000000    0.0393400000000000    0.4599500000000000 C
   0.1925800000000000    0.0099900000000000    0.4544300000000000 C
   0.1337600000000000    0.9263300000000000    0.4386250000000000 C
   0.0550000000000000    0.6746100000000000    0.0000000000000000 C
   0.1722100000000000    0.6171600000000000    0.0191200000000000 C
   0.1569800000000000    0.5393300000000000    0.0400400000000000 C
   0.3074200000000000    0.5099900000000001    0.0455650000000000 C
   0.3662600000000000    0.4263500000000000    0.0613650000000000 C
   0.4499300000000000    0.2099900000000000    0.1250000000000000 C
   0.0500300000000000    0.7099400000000000    0.3749900000000000 C
   0.5500800000000000    0.7900199999999999    0.3749900000000000 C
   0.9499600000000000    0.2900700000000000    0.1249950000000000 C
   0.4449900000000000    0.1746300000000000    0.7514550000000000 C
   0.3277900000000000    0.1171700000000000    0.7691150000000000 C
   0.3430200000000000    0.0393400000000000    0.7900350000000000 C
   0.1925900000000000    0.0099900000000000    0.7955600000000000 C
   0.1337600000000000    0.9263300000000000    0.8113650000000000 C
   0.0550100000000000    0.6746100000000000    0.7485400000000000 C
   0.1722100000000000    0.6171500000000000    0.7308800000000000 C
   0.1569800000000000    0.5393300000000000    0.7099550000000000 C
   0.3074200000000000    0.5099900000000001    0.7044350000000000 C
   0.3662600000000000    0.4263500000000000    0.6886300000000000 C
   0.5550100000000000    0.8254000000000000    0.5000000000000000 C
   0.6722200000000000    0.8828500000000000    0.5191200000000000 C
   0.6569900000000000    0.9606800000000000    0.5400400000000000 C
   0.8074200000000000    0.9900300000000000    0.5455600000000000 C
   0.8662500000000000    0.0736900000000000    0.5613650000000000 C
   0.9450000000000000    0.3254100000000000    0.9985450000000000 C
   0.8277900000000000    0.3828700000000000    0.9808700000000000 C
   0.8430200000000000    0.4607000000000000    0.9599500000000001 C
   0.6925900000000000    0.4900400000000000    0.9544250000000001 C
   0.6337500000000000    0.5736700000000000    0.9386250000000000 C
   0.5550200000000000    0.8253900000000000    0.7485350000000000 C
   0.6722200000000000    0.8828600000000000    0.7308800000000000 C
   0.6569900000000000    0.9606900000000000    0.7099600000000000 C
   0.8074200000000000    0.9900300000000000    0.7044350000000000 C
   0.8662500000000000    0.0736900000000000    0.6886300000000000 C
   0.4449900000000000    0.1746200000000000    0.9985450000000000 C
   0.3277800000000000    0.1171700000000000    0.9808700000000000 C
   0.3430100000000000    0.0393400000000000    0.9599500000000001 C
   0.1925800000000000    0.0099900000000000    0.9544300000000000 C
   0.1337600000000000    0.9263300000000000    0.9386250000000000 C
   0.0550000000000000    0.6746100000000000    0.5000000000000000 C
   0.1722100000000000    0.6171600000000000    0.5191200000000000 C
   0.1569800000000000    0.5393300000000000    0.5400400000000000 C
   0.3074200000000000    0.5099900000000001    0.5455650000000000 C
   0.3662600000000000    0.4263500000000000    0.5613650000000000 C
   0.4499300000000000    0.2099900000000000    0.6250000000000000 C
   0.0500300000000000    0.7099400000000000    0.8749899999999999 C
   0.5500800000000000    0.7900199999999999    0.8749899999999999 C
   0.9499600000000000    0.2900700000000000    0.6249950000000000 C
   0.0984300000000000    0.0698700000000000    0.2781700000000000 N
   0.1771900000000000    0.1352800000000000    0.2618000000000000 N
   0.4015700000000000    0.5698700000000000    0.2218200000000000 N
   0.3228000000000000    0.6352700000000000    0.2381950000000000 N
   0.9015800000000000    0.9301500000000000    0.0281800000000000 N
   0.8228200000000000    0.8647400000000000    0.0118050000000000 N
   0.5984300000000000    0.4301500000000000    0.4718150000000000 N
   0.6772000000000000    0.3647500000000000    0.4881900000000000 N
   0.9015800000000000    0.9301500000000000    0.2218250000000000 N
   0.8228100000000000    0.8647400000000000    0.2381950000000000 N
   0.5984400000000000    0.4301500000000000    0.2781750000000000 N
   0.6772100000000000    0.3647500000000000    0.2617950000000000 N
   0.0984200000000000    0.0698700000000000    0.4718150000000000 N
   0.1771900000000000    0.1352800000000000    0.4881900000000000 N
   0.4015700000000000    0.5698700000000000    0.0281750000000000 N
   0.3228000000000000    0.6352700000000000    0.0118000000000000 N
   0.0984300000000000    0.0698700000000000    0.7781700000000000 N
   0.1771900000000000    0.1352800000000000    0.7618000000000000 N
   0.4015700000000000    0.5698700000000000    0.7218200000000000 N
   0.3228000000000000    0.6352700000000000    0.7381949999999999 N
   0.9015800000000000    0.9301500000000000    0.5281800000000000 N
   0.8228200000000000    0.8647400000000000    0.5118050000000000 N
   0.5984300000000000    0.4301500000000000    0.9718150000000000 N
   0.6772000000000000    0.3647500000000000    0.9881900000000000 N
   0.9015800000000000    0.9301500000000000    0.7218249999999999 N
   0.8228100000000000    0.8647400000000000    0.7381949999999999 N
   0.0984200000000000    0.0698700000000000    0.9718150000000000 N
   0.1771900000000000    0.1352800000000000    0.9881900000000000 N
   0.4015700000000000    0.5698700000000000    0.5281750000000000 N
   0.3228000000000000    0.6352700000000000    0.5118000000000000 N
   0.5862000000000001    0.1555700000000000    0.2515900000000000 O
   0.3926800000000000    0.2430600000000000    0.2335400000000000 O
   0.9885699999999999    0.9129000000000000    0.3098350000000000 O
   0.2347600000000000    0.8733100000000000    0.3235550000000000 O
   0.3926900000000000    0.1892400000000000    0.1579300000000000 O
   0.9137999999999999    0.6555600000000000    0.2483950000000000 O
   0.1073100000000000    0.7430500000000000    0.2664500000000000 O
   0.5114500000000000    0.4129300000000000    0.1901550000000000 O
   0.2652600000000000    0.3733200000000000    0.1764350000000000 O
   0.1073000000000000    0.6892300000000000    0.3420600000000000 O
   0.4138100000000000    0.8444500000000000    0.0016000000000000 O
   0.6073100000000000    0.7569600000000000    0.4835350000000000 O
   0.0114300000000000    0.0871300000000000    0.0598400000000000 O
   0.7652400000000000    0.1267100000000000    0.0735600000000000 O
   0.6073000000000000    0.8107900000000000    0.4079250000000000 O
   0.0861900000000000    0.3444600000000000    0.4983950000000000 O
   0.8927000000000000    0.2569700000000000    0.0164550000000000 O
   0.4885600000000000    0.5870900000000000    0.4401500000000000 O
   0.7347399999999999    0.6267000000000000    0.4264300000000000 O
   0.8927000000000000    0.3107900000000000    0.0920650000000000 O
   0.4138000000000000    0.8444500000000000    0.2484000000000000 O
   0.6073200000000000    0.7569600000000000    0.2664500000000000 O
   0.0114300000000000    0.0871300000000000    0.1901550000000000 O
   0.7652400000000000    0.1267100000000000    0.1764350000000000 O
   0.6073000000000000    0.8107900000000000    0.3420600000000000 O
   0.0862000000000000    0.3444600000000000    0.2515950000000000 O
   0.8926900000000000    0.2569700000000000    0.2335400000000000 O
   0.4885600000000000    0.5870800000000000    0.3098350000000000 O
   0.7347399999999999    0.6267000000000000    0.3235550000000000 O
   0.8927000000000000    0.3107900000000000    0.1579300000000000 O
   0.5861900000000000    0.1555800000000000    0.4983900000000000 O
   0.3926900000000000    0.2430600000000000    0.0164550000000000 O
   0.9885699999999999    0.9128900000000000    0.4401500000000000 O
   0.2347600000000000    0.8733100000000000    0.4264300000000000 O
   0.3926900000000000    0.1892400000000000    0.0920650000000000 O
   0.9138100000000000    0.6555600000000000    0.0015950000000000 O
   0.1073000000000000    0.7430500000000000    0.4835350000000000 O
   0.5114500000000000    0.4129300000000000    0.0598400000000000 O
   0.2652600000000000    0.3733200000000000    0.0735600000000000 O
   0.1073000000000000    0.6892300000000000    0.4079250000000000 O
   0.5795900000000000    0.2552800000000000    0.1249950000000000 O
   0.9204200000000000    0.7552700000000000    0.3749900000000000 O
   0.4204000000000000    0.7447500000000000    0.3749900000000000 O
   0.0795800000000000    0.2447600000000000    0.1249950000000000 O
   0.5862000000000001    0.1555700000000000    0.7515900000000000 O
   0.3926800000000000    0.2430600000000000    0.7335400000000000 O
   0.9885699999999999    0.9129000000000000    0.8098350000000001 O
   0.2347600000000000    0.8733100000000000    0.8235550000000000 O
   0.3926900000000000    0.1892400000000000    0.6579300000000000 O
   0.9137999999999999    0.6555600000000000    0.7483950000000000 O
   0.1073100000000000    0.7430500000000000    0.7664500000000001 O
   0.5114500000000000    0.4129300000000000    0.6901550000000000 O
   0.2652600000000000    0.3733200000000000    0.6764350000000000 O
   0.1073000000000000    0.6892300000000000    0.8420600000000000 O
   0.4138100000000000    0.8444500000000000    0.5016000000000000 O
   0.6073100000000000    0.7569600000000000    0.9835350000000000 O
   0.0114300000000000    0.0871300000000000    0.5598400000000000 O
   0.7652400000000000    0.1267100000000000    0.5735600000000000 O
   0.6073000000000000    0.8107900000000000    0.9079250000000000 O
   0.0861900000000000    0.3444600000000000    0.9983949999999999 O
   0.8927000000000000    0.2569700000000000    0.5164550000000000 O
   0.4885600000000000    0.5870900000000000    0.9401500000000000 O
   0.7347399999999999    0.6267000000000000    0.9264300000000000 O
   0.8927000000000000    0.3107900000000000    0.5920650000000000 O
   0.4138000000000000    0.8444500000000000    0.7484000000000000 O
   0.6073200000000000    0.7569600000000000    0.7664500000000001 O
   0.0114300000000000    0.0871300000000000    0.6901550000000000 O
   0.7652400000000000    0.1267100000000000    0.6764350000000000 O
   0.6073000000000000    0.8107900000000000    0.8420600000000000 O
   0.8927000000000000    0.3107900000000000    0.6579300000000000 O
   0.5861900000000000    0.1555800000000000    0.9983900000000000 O
   0.3926900000000000    0.2430600000000000    0.5164550000000000 O
   0.9885699999999999    0.9128900000000000    0.9401500000000000 O
   0.2347600000000000    0.8733100000000000    0.9264300000000000 O
   0.3926900000000000    0.1892400000000000    0.5920650000000000 O
   0.9138100000000000    0.6555600000000000    0.5015950000000000 O
   0.1073000000000000    0.7430500000000000    0.9835350000000000 O
   0.5114500000000000    0.4129300000000000    0.5598400000000000 O
   0.2652600000000000    0.3733200000000000    0.5735600000000000 O
   0.1073000000000000    0.6892300000000000    0.9079250000000000 O
   0.5795900000000000    0.2552800000000000    0.6249950000000000 O
   0.9204200000000000    0.7552700000000000    0.8749899999999999 O
   0.4204000000000000    0.7447500000000000    0.8749899999999999 O
   0.0795800000000000    0.2447600000000000    0.6249950000000000 O
