Al48 P47 O188
1.0
  19.1075995196612496    0.0000000000000000    5.3705441620231662
   1.1258513629456788   19.0599142236231671    5.3923768874848319
   0.0000000000000000    0.0000000000000000   15.5060000000000002
Al P O
48 47 188
direct
   0.4683600000000000    0.6589800000000000    0.1258000000000000 Al
   0.9683600000000000    0.1589900000000000    0.1258000000000000 Al
   0.9683600000000000    0.6589800000000000    0.1258000000000000 Al
   0.0168900000000000    0.4015500000000000    0.1680800000000000 Al
   0.0168900000000000    0.9015500000000000    0.1680800000000000 Al
   0.5168900000000000    0.4015500000000000    0.1680800000000000 Al
   0.5169000000000000    0.9015500000000000    0.1680800000000000 Al
   0.0593400000000000    0.1821600000000000    0.4197800000000000 Al
   0.0593400000000000    0.6821500000000000    0.4197800000000000 Al
   0.5593399999999999    0.1821600000000000    0.4197800000000000 Al
   0.5593500000000000    0.6821500000000000    0.4197800000000000 Al
   0.3408400000000000    0.0316800000000000    0.3740200000000000 Al
   0.3408400000000000    0.5316700000000000    0.3740200000000000 Al
   0.8408400000000000    0.0316800000000000    0.3740200000000000 Al
   0.8408400000000000    0.5316700000000000    0.3740200000000000 Al
   0.0986400000000000    0.4831700000000000    0.3317900000000000 Al
   0.0986400000000000    0.9831600000000000    0.3317900000000000 Al
   0.5986399999999999    0.4831700000000000    0.3317900000000000 Al
   0.5986399999999999    0.9831600000000000    0.3317900000000000 Al
   0.3177300000000000    0.4405500000000000    0.0803800000000000 Al
   0.3177300000000000    0.9405400000000000    0.0803800000000000 Al
   0.8177300000000000    0.4405500000000000    0.0803800000000000 Al
   0.8177400000000000    0.9405400000000000    0.0803800000000000 Al
   0.0316800000000000    0.3410200000000000    0.8741800000000000 Al
   0.0316800000000000    0.8410200000000000    0.8741800000000000 Al
   0.5316800000000000    0.3410200000000000    0.8741800000000000 Al
   0.5316800000000000    0.8410200000000000    0.8741800000000000 Al
   0.4831400000000000    0.0984500000000000    0.8319200000000000 Al
   0.4831400000000000    0.5984500000000000    0.8319200000000000 Al
   0.9831400000000000    0.0984500000000000    0.8319200000000000 Al
   0.9831400000000000    0.5984500000000000    0.8319200000000000 Al
   0.4406800000000000    0.3178600000000000    0.5802100000000000 Al
   0.4683600000000000    0.1589900000000000    0.1258000000000000 Al
   0.4406800000000000    0.8178500000000000    0.5802100000000000 Al
   0.9406800000000000    0.3178600000000000    0.5802100000000000 Al
   0.9406900000000000    0.8178500000000000    0.5802100000000000 Al
   0.1591900000000000    0.4683400000000000    0.6259700000000000 Al
   0.1591900000000000    0.9683300000000000    0.6259700000000000 Al
   0.6591900000000001    0.4683400000000000    0.6259700000000000 Al
   0.6591900000000001    0.9683300000000000    0.6259700000000000 Al
   0.4013900000000000    0.0168500000000000    0.6682000000000000 Al
   0.4013900000000000    0.5168400000000000    0.6682000000000000 Al
   0.9013900000000000    0.0168500000000000    0.6682000000000000 Al
   0.9014000000000000    0.5168400000000000    0.6682000000000000 Al
   0.1823000000000000    0.0594600000000000    0.9196100000000000 Al
   0.1823000000000000    0.5594600000000000    0.9196100000000000 Al
   0.6823000000000000    0.0594600000000000    0.9196100000000000 Al
   0.6823000000000000    0.5594500000000000    0.9196100000000000 Al
   0.1583100000000000    0.4684600000000000    0.1259500000000000 P
   0.1583100000000000    0.9684600000000000    0.1259500000000000 P
   0.6583100000000000    0.4684600000000000    0.1259500000000000 P
   0.6583100000000000    0.9684600000000000    0.1259500000000000 P
   0.4387700000000000    0.3226700000000000    0.0777900000000000 P
   0.4387800000000000    0.8226599999999999    0.0777900000000000 P
   0.9387799999999999    0.3226700000000000    0.0777900000000000 P
   0.9387799999999999    0.8226599999999999    0.0777900000000000 P
   0.4792800000000000    0.1050800000000000    0.3303400000000000 P
   0.4792900000000000    0.6050700000000000    0.3303400000000000 P
   0.9792900000000000    0.1050800000000000    0.3303400000000000 P
   0.9792900000000000    0.6050700000000000    0.3303400000000000 P
   0.0316200000000000    0.3417900000000000    0.3740300000000000 P
   0.0316200000000000    0.8417800000000000    0.3740300000000000 P
   0.5316200000000000    0.3417900000000000    0.3740300000000000 P
   0.5316300000000000    0.8417800000000000    0.3740300000000000 P
   0.1777400000000000    0.5613700000000000    0.4217300000000000 P
   0.6777400000000000    0.0613800000000000    0.4217300000000000 P
   0.6777400000000000    0.5613700000000000    0.4217300000000000 P
   0.3948300000000000    0.0206800000000000    0.1697700000000000 P
   0.3948300000000000    0.5206800000000000    0.1697700000000000 P
   0.8948300000000000    0.0206800000000000    0.1697700000000000 P
   0.8948400000000000    0.5206800000000000    0.1697700000000000 P
   0.3417200000000000    0.0315500000000000    0.8740400000000000 P
   0.3417300000000000    0.5315400000000000    0.8740400000000000 P
   0.8417300000000000    0.0315500000000000    0.8740400000000000 P
   0.8417300000000000    0.5315400000000000    0.8740400000000000 P
   0.0612600000000000    0.1773400000000000    0.9222000000000000 P
   0.0612600000000000    0.6773400000000001    0.9222000000000000 P
   0.5612600000000000    0.1773400000000000    0.9222000000000000 P
   0.5612700000000000    0.6773400000000001    0.9222000000000000 P
   0.0207400000000000    0.3949400000000000    0.6696500000000000 P
   0.0207400000000000    0.8949300000000000    0.6696500000000000 P
   0.5207400000000000    0.3949400000000000    0.6696500000000000 P
   0.5207500000000000    0.8949300000000000    0.6696500000000000 P
   0.4684100000000000    0.1582300000000000    0.6259700000000000 P
   0.4684100000000000    0.6582200000000000    0.6259700000000000 P
   0.9684100000000000    0.1582300000000000    0.6259700000000000 P
   0.9684100000000000    0.6582200000000000    0.6259700000000000 P
   0.3222900000000000    0.4386400000000000    0.5782600000000000 P
   0.3222900000000000    0.9386400000000000    0.5782600000000000 P
   0.8222900000000000    0.4386400000000000    0.5782600000000000 P
   0.8223000000000000    0.9386400000000000    0.5782600000000000 P
   0.1052000000000000    0.4793300000000000    0.8302200000000000 P
   0.1052000000000000    0.9793200000000000    0.8302200000000000 P
   0.6052000000000000    0.4793300000000000    0.8302200000000000 P
   0.6052000000000000    0.9793200000000000    0.8302200000000000 P
   0.1058800000000000    0.4191200000000000    0.1213000000000000 O
   0.1058800000000000    0.9191100000000000    0.1213000000000000 O
   0.6058800000000000    0.4191200000000000    0.1213000000000000 O
   0.6058900000000000    0.9191200000000000    0.1213000000000000 O
   0.7715800000000000    0.5744000000000000    0.8689800000000000 O
   0.3700600000000000    0.0010700000000000    0.7887200000000000 O
   0.3700700000000000    0.5010700000000000    0.7887200000000000 O
   0.8700700000000000    0.0010800000000000    0.7887200000000000 O
   0.2284600000000000    0.4256100000000000    0.1310000000000000 O
   0.2284600000000000    0.9256000000000000    0.1310000000000000 O
   0.7284600000000000    0.4256100000000000    0.1310000000000000 O
   0.7284700000000000    0.9256000000000000    0.1310000000000000 O
   0.1299700000000000    0.4989400000000000    0.2112700000000000 O
   0.1299700000000000    0.9989300000000000    0.2112700000000000 O
   0.6299700000000000    0.4989400000000000    0.2112700000000000 O
   0.6299800000000000    0.9989300000000000    0.2112700000000000 O
   0.4272900000000000    0.2437000000000000    0.1133500000000000 O
   0.4272900000000000    0.7436900000000000    0.1133500000000000 O
   0.9272899999999999    0.2437000000000000    0.1133500000000000 O
   0.9272899999999999    0.7436900000000000    0.1133500000000000 O
   0.0022900000000000    0.1338400000000000    0.2243700000000000 O
   0.0022900000000000    0.6338300000000000    0.2243700000000000 O
   0.5022900000000000    0.1338400000000000    0.2243700000000000 O
   0.5023000000000000    0.6338300000000000    0.2243700000000000 O
   0.4959200000000000    0.3400500000000000    0.1180700000000000 O
   0.4959200000000000    0.8400400000000000    0.1180700000000000 O
   0.9959200000000000    0.3400500000000000    0.1180700000000000 O
   0.9959300000000000    0.8400400000000000    0.1180700000000000 O
   0.4617900000000000    0.3436000000000000    0.9712100000000000 O
   0.4617900000000000    0.8435900000000000    0.9712100000000000 O
   0.9617900000000000    0.3436000000000000    0.9712100000000000 O
   0.9618000000000000    0.8435900000000000    0.9712100000000000 O
   0.4944200000000000    0.1581600000000000    0.3777200000000000 O
   0.4944200000000000    0.6581600000000000    0.3777200000000000 O
   0.9944200000000000    0.1581700000000000    0.3777200000000000 O
   0.9944300000000000    0.6581600000000000    0.3777200000000000 O
   0.1337200000000000    0.0026000000000000    0.7242200000000000 O
   0.1337200000000000    0.5025900000000000    0.7242200000000000 O
   0.6337200000000000    0.0026000000000000    0.7242200000000000 O
   0.6337200000000000    0.5025900000000000    0.7242200000000000 O
   0.3399700000000000    0.4959700000000000    0.6179800000000000 O
   0.1692500000000000    0.0309500000000000    0.0401300000000000 O
   0.1692500000000000    0.5309400000000000    0.0401300000000000 O
   0.6692500000000000    0.0309500000000000    0.0401300000000000 O
   0.6692500000000000    0.5309400000000000    0.0401300000000000 O
   0.3686400000000000    0.3626500000000000    0.1099600000000000 O
   0.3686500000000000    0.8626400000000000    0.1099600000000000 O
   0.8686400000000000    0.3626500000000000    0.1099600000000000 O
   0.8686500000000000    0.8626400000000000    0.1099600000000000 O
   0.0196500000000000    0.0338000000000000    0.3585300000000000 O
   0.0196500000000000    0.5338000000000001    0.3585300000000000 O
   0.5196499999999999    0.0338000000000000    0.3585300000000000 O
   0.5196600000000000    0.5338000000000001    0.3585300000000000 O
   0.3999100000000000    0.0945900000000000    0.3624700000000000 O
   0.3999100000000000    0.5945900000000000    0.3624700000000000 O
   0.8999100000000000    0.0945900000000000    0.3624700000000000 O
   0.8999100000000000    0.5945900000000000    0.3624700000000000 O
   0.0810900000000000    0.3941000000000000    0.3786500000000000 O
   0.0810900000000000    0.8941000000000000    0.3786500000000000 O
   0.5810900000000000    0.3941000000000000    0.3786500000000000 O
   0.5810900000000000    0.8941000000000000    0.3786500000000000 O
   0.0742700000000000    0.2715000000000000    0.3692500000000000 O
   0.0742700000000000    0.7714900000000000    0.3692500000000000 O
   0.5742699999999999    0.2715000000000000    0.3692500000000000 O
   0.5742699999999999    0.7714900000000000    0.3692500000000000 O
   0.0012200000000000    0.3702100000000000    0.2885900000000000 O
   0.0012300000000000    0.8702000000000000    0.2885900000000000 O
   0.5012300000000000    0.3702100000000000    0.2880000000000000 O
   0.5012300000000000    0.8702000000000000    0.2880000000000000 O
   0.2564900000000000    0.5734399999999999    0.3849400000000000 O
   0.7564900000000000    0.0734500000000000    0.3849400000000000 O
   0.7564900000000000    0.5734399999999999    0.3849400000000000 O
   0.3663100000000000    0.4974200000000000    0.2757700000000000 O
   0.3663100000000000    0.9974200000000000    0.2757700000000000 O
   0.8663100000000000    0.4974200000000000    0.2757700000000000 O
   0.8663100000000000    0.9974200000000000    0.2757700000000000 O
   0.1600600000000000    0.5040500000000000    0.3820100000000000 O
   0.6600600000000000    0.0040500000000000    0.3820100000000000 O
   0.6600700000000000    0.5040500000000000    0.3820100000000000 O
   0.1579700000000000    0.5381800000000000    0.5283000000000000 O
   0.6579700000000001    0.0381900000000000    0.5283000000000000 O
   0.6579800000000000    0.5381800000000000    0.5283000000000000 O
   0.3417700000000000    0.0055100000000000    0.1223600000000000 O
   0.3417700000000000    0.5054999999999999    0.1223600000000000 O
   0.8417700000000000    0.0055100000000000    0.1223600000000000 O
   0.8417800000000000    0.5054999999999999    0.1223600000000000 O
   0.4691200000000000    0.3310300000000000    0.4597000000000000 O
   0.4691300000000000    0.8310300000000000    0.4597000000000000 O
   0.9691300000000000    0.3310300000000000    0.4597000000000000 O
   0.9691300000000000    0.8310300000000000    0.4597000000000000 O
   0.1371700000000000    0.6313200000000000    0.3901800000000000 O
   0.6371800000000000    0.1313300000000000    0.3901800000000000 O
   0.6371800000000000    0.6313200000000000    0.3901800000000000 O
   0.4661400000000000    0.4805200000000000    0.1413800000000000 O
   0.4661400000000000    0.9805100000000000    0.1413800000000000 O
   0.9661400000000000    0.4805200000000000    0.1413800000000000 O
   0.9661500000000000    0.9805100000000000    0.1413800000000000 O
   0.4050700000000000    0.1001700000000000    0.1378000000000000 O
   0.4050700000000000    0.6001700000000000    0.1378000000000000 O
   0.9050700000000000    0.1001700000000000    0.1378500000000000 O
   0.9050700000000000    0.6001700000000000    0.1378500000000000 O
   0.3941500000000000    0.0808900000000000    0.8787000000000000 O
   0.3941500000000000    0.5808800000000000    0.8787000000000000 O
   0.8941500000000000    0.0808900000000000    0.8787000000000000 O
   0.8941500000000000    0.5808800000000000    0.8787000000000000 O
   0.2715700000000000    0.0744000000000000    0.8689800000000000 O
   0.2715700000000000    0.5744000000000000    0.8689800000000000 O
   0.7715700000000000    0.0744000000000000    0.8689800000000000 O
   0.8700700000000000    0.5010700000000000    0.7887200000000000 O
   0.0727400000000000    0.2563100000000000    0.8866200000000000 O
   0.0727400000000000    0.7563100000000000    0.8866200000000000 O
   0.5727400000000000    0.2563100000000000    0.8866200000000000 O
   0.5727500000000000    0.7563100000000000    0.8866200000000000 O
   0.4977300000000000    0.3661800000000000    0.7756300000000000 O
   0.4977300000000000    0.8661799999999999    0.7756300000000000 O
   0.9977300000000000    0.3661800000000000    0.7756300000000000 O
   0.9977300000000000    0.8661799999999999    0.7756300000000000 O
   0.0041100000000000    0.1599500000000000    0.8819399999999999 O
   0.0041100000000000    0.6599500000000000    0.8819399999999999 O
   0.5041099999999999    0.1599500000000000    0.8819399999999999 O
   0.5041200000000000    0.6599400000000000    0.8819399999999999 O
   0.0382500000000000    0.1564300000000000    0.0287800000000000 O
   0.0382500000000000    0.6564200000000000    0.0287800000000000 O
   0.5382500000000000    0.1564300000000000    0.0287800000000000 O
   0.5382600000000000    0.6564200000000000    0.0287800000000000 O
   0.0056000000000000    0.3418400000000000    0.6222800000000001 O
   0.0056000000000000    0.8418400000000000    0.6222800000000001 O
   0.5056000000000000    0.3418400000000000    0.6222800000000001 O
   0.5056100000000000    0.8418400000000000    0.6222800000000001 O
   0.3307700000000000    0.4690600000000000    0.9598600000000000 O
   0.3307800000000000    0.9690500000000000    0.9598600000000000 O
   0.8307800000000000    0.4690600000000000    0.9598600000000000 O
   0.8307800000000000    0.9690500000000000    0.9598600000000000 O
   0.1313900000000000    0.1373700000000000    0.8900000000000000 O
   0.1314000000000000    0.6373600000000000    0.8900000000000000 O
   0.6314000000000000    0.1373700000000000    0.8900300000000000 O
   0.6314000000000000    0.6373600000000000    0.8900300000000000 O
   0.4803800000000000    0.4662100000000000    0.6414500000000000 O
   0.4803800000000000    0.9662100000000000    0.6414500000000000 O
   0.9803800000000000    0.4662100000000000    0.6414500000000000 O
   0.9803800000000000    0.9662100000000000    0.6414500000000000 O
   0.1001200000000000    0.4054200000000000    0.6375200000000000 O
   0.1001200000000000    0.9054100000000000    0.6375200000000000 O
   0.6001200000000000    0.4054200000000000    0.6375200000000000 O
   0.6001200000000000    0.9054100000000000    0.6375200000000000 O
   0.4189400000000000    0.1059100000000000    0.6213500000000000 O
   0.4189400000000000    0.6059099999999999    0.6213500000000000 O
   0.9189400000000000    0.1059100000000000    0.6213000000000000 O
   0.9189500000000000    0.6059099999999999    0.6213000000000000 O
   0.4257600000000000    0.2285200000000000    0.6307500000000000 O
   0.4257600000000000    0.7285100000000000    0.6307500000000000 O
   0.9257600000000000    0.2285200000000000    0.6307500000000000 O
   0.9257600000000000    0.7285100000000000    0.6307500000000000 O
   0.4988000000000000    0.1298100000000000    0.7114000000000000 O
   0.4988100000000000    0.6298000000000000    0.7114000000000000 O
   0.9988000000000000    0.1298100000000000    0.7114000000000000 O
   0.9988100000000000    0.6298000000000000    0.7114000000000000 O
   0.2435400000000000    0.4265700000000000    0.6150000000000000 O
   0.2435400000000000    0.9265700000000000    0.6150000000000000 O
   0.7435400000000000    0.4265700000000000    0.6150000000000000 O
   0.7435400000000000    0.9265700000000000    0.6150000000000000 O
   0.3399700000000000    0.9959600000000000    0.6179800000000000 O
   0.8399700000000000    0.4959700000000000    0.6179800000000000 O
   0.8399700000000000    0.9959600000000000    0.6179800000000000 O
   0.3420500000000000    0.4618300000000000    0.4716600000000000 O
   0.3420500000000000    0.9618200000000000    0.4716600000000000 O
   0.8420500000000000    0.4618300000000000    0.4716600000000000 O
   0.8420600000000000    0.9618200000000000    0.4716600000000000 O
   0.1582500000000000    0.4945000000000000    0.8776400000000000 O
   0.1582600000000000    0.9944900000000000    0.8776400000000000 O
   0.6582500000000000    0.4945000000000000    0.8776400000000000 O
   0.6582600000000000    0.9944900000000000    0.8776400000000000 O
   0.0309000000000000    0.1689800000000000    0.5403000000000000 O
   0.0309000000000000    0.6689800000000000    0.5403000000000000 O
   0.5309000000000000    0.1689800000000000    0.5403000000000000 O
   0.5309100000000000    0.6689800000000000    0.5403000000000000 O
   0.3628500000000000    0.3686900000000000    0.6098100000000000 O
   0.3628600000000000    0.8686900000000000    0.6098100000000000 O
   0.8628600000000000    0.3686900000000000    0.6098100000000000 O
   0.8628600000000000    0.8686900000000000    0.6098100000000000 O
   0.0338800000000000    0.0194800000000000    0.8586100000000000 O
   0.0338800000000000    0.5194800000000001    0.8586100000000000 O
   0.5338800000000000    0.0194800000000000    0.8586100000000000 O
   0.5338900000000000    0.5194800000000001    0.8586100000000000 O
   0.0949700000000000    0.3998300000000000    0.8621300000000000 O
   0.0949800000000000    0.8998300000000000    0.8621300000000000 O
   0.5949800000000000    0.3998300000000000    0.8621300000000000 O
   0.5949800000000000    0.8998300000000000    0.8621300000000000 O
