H5 O3
1.0
  12.7719984748951454    0.0000000000000000   -0.0062415764093764
   0.0018345098579820   15.0999851694505978   -0.0210835705135033
   0.0000000000000000    0.0000000000000000   38.8900000000000006
H O
5 3
direct
   0.6100898927142553    0.9190888554363438    0.9032692216466897 H
   0.5326249750107024    0.8513684240835260    0.8800658012294685 H
   0.4588744930582482    0.1699096344579225    0.8993000647180126 H
   0.3237735974200100    0.0153529374654033    0.8274115372239580 H
   0.3936392572886945    0.0868639720223873    0.8642207616610744 H
   0.5934400000000000    0.8594400000000000    0.8950600000000000 O
   0.4179300000000000    0.1562500000000000    0.8789600000000000 O
   0.3428800000000000    0.0699300000000000    0.8390050000000000 O
