K48 V120 P94 H94 C47 O306
1.0
  32.5499971443944958    0.0000000000000000    0.0136345117178645
  -0.0007564432171247   14.4469999801963613    0.0000000000000009
   0.0000000000000000    0.0000000000000000   31.7139999999999986
K V P H C O
48 120 94 94 47 306
direct
   0.0000000000000000    0.4876500000000000    0.3750050000000000 K
   0.1107766666666667    0.0000000000000000    0.3749850000000000 K
   0.0000000000000000    0.0000000000000000    0.3750050000000000 K
   0.0575166666666667    0.5123200000000000    0.1249600000000000 K
   0.2241733333333333    0.5123100000000000    0.1249400000000000 K
   0.0575133333333333    0.9876700000000000    0.1249500000000000 K
   0.2241633333333333    0.9877000000000000    0.1249000000000000 K
   0.1107966666666667    0.4876600000000000    0.3749950000000000 K
   0.3333333333333333    0.4876500000000000    0.3750050000000000 K
   0.4441100000000000    0.0000000000000000    0.3749850000000000 K
   0.3333333333333333    0.0000000000000000    0.3750050000000000 K
   0.3908500000000000    0.5123200000000000    0.1249600000000000 K
   0.5575066666666666    0.5123100000000000    0.1249400000000000 K
   0.3908466666666667    0.9876700000000000    0.1249500000000000 K
   0.5574966666666666    0.9877000000000000    0.1249000000000000 K
   0.4441300000000000    0.4876600000000000    0.3749950000000000 K
   0.6666666666666666    0.4876500000000000    0.3750050000000000 K
   0.7774433333333333    0.0000000000000000    0.3749850000000000 K
   0.6666666666666666    0.0000000000000000    0.3750050000000000 K
   0.7241833333333333    0.5123200000000000    0.1249600000000000 K
   0.8908400000000000    0.5123100000000000    0.1249400000000000 K
   0.7241799999999999    0.9876700000000000    0.1249500000000000 K
   0.8908300000000000    0.9877000000000000    0.1249000000000000 K
   0.7774633333333333    0.4876600000000000    0.3749950000000000 K
   0.0000000000000000    0.4876500000000000    0.8750050000000000 K
   0.1107766666666667    0.0000000000000000    0.8749850000000000 K
   0.0000000000000000    0.0000000000000000    0.8750050000000000 K
   0.0575166666666667    0.5123200000000000    0.6249600000000000 K
   0.2241733333333333    0.5123100000000000    0.6249400000000001 K
   0.0575133333333333    0.9876700000000000    0.6249500000000000 K
   0.2241633333333333    0.9877000000000000    0.6249000000000000 K
   0.1107966666666667    0.4876600000000000    0.8749950000000000 K
   0.3333333333333333    0.4876500000000000    0.8750050000000000 K
   0.4441100000000000    0.0000000000000000    0.8749850000000000 K
   0.3333333333333333    0.0000000000000000    0.8750050000000000 K
   0.3908500000000000    0.5123200000000000    0.6249600000000000 K
   0.5575066666666666    0.5123100000000000    0.6249400000000001 K
   0.3908466666666667    0.9876700000000000    0.6249500000000000 K
   0.5574966666666666    0.9877000000000000    0.6249000000000000 K
   0.4441300000000000    0.4876600000000000    0.8749950000000000 K
   0.6666666666666666    0.4876500000000000    0.8750050000000000 K
   0.7774433333333333    0.0000000000000000    0.8749850000000000 K
   0.6666666666666666    0.0000000000000000    0.8750050000000000 K
   0.7241833333333333    0.5123200000000000    0.6249600000000000 K
   0.8908400000000000    0.5123100000000000    0.6249400000000001 K
   0.7241799999999999    0.9876700000000000    0.6249500000000000 K
   0.8908300000000000    0.9877000000000000    0.6249000000000000 K
   0.7774633333333333    0.4876600000000000    0.8749950000000000 K
   0.0223800000000000    0.4679800000000000    0.2735900000000000 V
   0.1890566666666667    0.4679600000000000    0.2735750000000000 V
   0.0223266666666667    0.0320500000000000    0.4763800000000000 V
   0.1890000000000000    0.0320100000000000    0.4762950000000000 V
   0.1459733333333333    0.5319700000000001    0.0236150000000000 V
   0.0000000000000000    0.5319500000000000    0.0236250000000000 V
   0.1460233333333333    0.9679200000000000    0.2263950000000000 V
   0.0000000000000000    0.9679200000000000    0.2263950000000000 V
   0.1460233333333333    0.5320900000000000    0.2264000000000000 V
   0.0000000000000000    0.5320800000000000    0.2263950000000000 V
   0.1459733333333333    0.9680700000000000    0.0236050000000000 V
   0.0000000000000000    0.9681000000000000    0.0236300000000000 V
   0.0223400000000000    0.4679500000000000    0.4763800000000000 V
   0.1890066666666667    0.4679700000000000    0.4763400000000000 V
   0.0223833333333333    0.0320100000000000    0.2735900000000000 V
   0.1890600000000000    0.0320300000000000    0.2735650000000000 V
   0.2946733333333333    0.7500100000000000    0.3750200000000000 V
   0.1280000000000000    0.7500200000000000    0.3750500000000000 V
   0.2069800000000000    0.2499800000000000    0.1249900000000000 V
   0.0403533333333333    0.2499900000000000    0.1250500000000000 V
   0.3557133333333333    0.4679800000000000    0.2735900000000000 V
   0.5223899999999999    0.4679600000000000    0.2735750000000000 V
   0.3556600000000000    0.0320500000000000    0.4763800000000000 V
   0.5223333333333333    0.0320100000000000    0.4762950000000000 V
   0.4793066666666667    0.5319700000000001    0.0236150000000000 V
   0.3333333333333333    0.5319500000000000    0.0236250000000000 V
   0.4793566666666667    0.9679200000000000    0.2263950000000000 V
   0.3333333333333333    0.9679200000000000    0.2263950000000000 V
   0.4793566666666667    0.5320900000000000    0.2264000000000000 V
   0.3333333333333333    0.5320800000000000    0.2263950000000000 V
   0.4793066666666667    0.9680700000000000    0.0236050000000000 V
   0.3333333333333333    0.9681000000000000    0.0236300000000000 V
   0.3556733333333333    0.4679500000000000    0.4763800000000000 V
   0.5223400000000000    0.4679700000000000    0.4763400000000000 V
   0.3557166666666666    0.0320100000000000    0.2735900000000000 V
   0.5223933333333333    0.0320300000000000    0.2735650000000000 V
   0.6280066666666666    0.7500100000000000    0.3750200000000000 V
   0.4613333333333333    0.7500200000000000    0.3750500000000000 V
   0.5403133333333333    0.2499800000000000    0.1249900000000000 V
   0.3736866666666667    0.2499900000000000    0.1250500000000000 V
   0.6890466666666666    0.4679800000000000    0.2735900000000000 V
   0.8557233333333333    0.4679600000000000    0.2735750000000000 V
   0.6889933333333333    0.0320500000000000    0.4763800000000000 V
   0.8556666666666666    0.0320100000000000    0.4762950000000000 V
   0.8126399999999999    0.5319700000000001    0.0236150000000000 V
   0.6666666666666666    0.5319500000000000    0.0236250000000000 V
   0.8126899999999999    0.9679200000000000    0.2263950000000000 V
   0.6666666666666666    0.9679200000000000    0.2263950000000000 V
   0.8126899999999999    0.5320900000000000    0.2264000000000000 V
   0.6666666666666666    0.5320800000000000    0.2263950000000000 V
   0.8126399999999999    0.9680700000000000    0.0236050000000000 V
   0.6666666666666666    0.9681000000000000    0.0236300000000000 V
   0.6890066666666667    0.4679500000000000    0.4763800000000000 V
   0.8556733333333333    0.4679700000000000    0.4763400000000000 V
   0.6890499999999999    0.0320100000000000    0.2735900000000000 V
   0.8557266666666666    0.0320300000000000    0.2735650000000000 V
   0.9613400000000000    0.7500100000000000    0.3750200000000000 V
   0.7946666666666666    0.7500200000000000    0.3750500000000000 V
   0.8736466666666667    0.2499800000000000    0.1249900000000000 V
   0.7070200000000000    0.2499900000000000    0.1250500000000000 V
   0.0223800000000000    0.4679800000000000    0.7735900000000000 V
   0.1890566666666667    0.4679600000000000    0.7735750000000000 V
   0.0223266666666667    0.0320500000000000    0.9763800000000000 V
   0.1890000000000000    0.0320100000000000    0.9762950000000000 V
   0.1459733333333333    0.5319700000000001    0.5236150000000001 V
   0.0000000000000000    0.5319500000000000    0.5236250000000000 V
   0.1460233333333333    0.9679200000000000    0.7263950000000000 V
   0.0000000000000000    0.9679200000000000    0.7263950000000000 V
   0.1460233333333333    0.5320900000000000    0.7263999999999999 V
   0.0000000000000000    0.5320800000000000    0.7263950000000000 V
   0.1459733333333333    0.9680700000000000    0.5236050000000000 V
   0.0000000000000000    0.9681000000000000    0.5236300000000000 V
   0.0223400000000000    0.4679500000000000    0.9763800000000000 V
   0.1890066666666667    0.4679700000000000    0.9763400000000000 V
   0.0223833333333333    0.0320100000000000    0.7735900000000000 V
   0.1890600000000000    0.0320300000000000    0.7735650000000001 V
   0.2946733333333333    0.7500100000000000    0.8750200000000000 V
   0.1280000000000000    0.7500200000000000    0.8750500000000000 V
   0.2069800000000000    0.2499800000000000    0.6249900000000000 V
   0.0403533333333333    0.2499900000000000    0.6250500000000000 V
   0.3557133333333333    0.4679800000000000    0.7735900000000000 V
   0.5223899999999999    0.4679600000000000    0.7735750000000000 V
   0.3556600000000000    0.0320500000000000    0.9763800000000000 V
   0.5223333333333333    0.0320100000000000    0.9762950000000000 V
   0.4793066666666667    0.5319700000000001    0.5236150000000001 V
   0.3333333333333333    0.5319500000000000    0.5236250000000000 V
   0.4793566666666667    0.9679200000000000    0.7263950000000000 V
   0.3333333333333333    0.9679200000000000    0.7263950000000000 V
   0.4793566666666667    0.5320900000000000    0.7263999999999999 V
   0.3333333333333333    0.5320800000000000    0.7263950000000000 V
   0.4793066666666667    0.9680700000000000    0.5236050000000000 V
   0.3333333333333333    0.9681000000000000    0.5236300000000000 V
   0.3556733333333333    0.4679500000000000    0.9763800000000000 V
   0.5223400000000000    0.4679700000000000    0.9763400000000000 V
   0.3557166666666666    0.0320100000000000    0.7735900000000000 V
   0.5223933333333333    0.0320300000000000    0.7735650000000001 V
   0.6280066666666666    0.7500100000000000    0.8750200000000000 V
   0.4613333333333333    0.7500200000000000    0.8750500000000000 V
   0.5403133333333333    0.2499800000000000    0.6249900000000000 V
   0.3736866666666667    0.2499900000000000    0.6250500000000000 V
   0.6890466666666666    0.4679800000000000    0.7735900000000000 V
   0.8557233333333333    0.4679600000000000    0.7735750000000000 V
   0.6889933333333333    0.0320500000000000    0.9763800000000000 V
   0.8556666666666666    0.0320100000000000    0.9762950000000000 V
   0.8126399999999999    0.5319700000000001    0.5236150000000001 V
   0.6666666666666666    0.5319500000000000    0.5236250000000000 V
   0.8126899999999999    0.9679200000000000    0.7263950000000000 V
   0.6666666666666666    0.9679200000000000    0.7263950000000000 V
   0.8126899999999999    0.5320900000000000    0.7263999999999999 V
   0.6666666666666666    0.5320800000000000    0.7263950000000000 V
   0.8126399999999999    0.9680700000000000    0.5236050000000000 V
   0.6666666666666666    0.9681000000000000    0.5236300000000000 V
   0.6890066666666667    0.4679500000000000    0.9763800000000000 V
   0.8556733333333333    0.4679700000000000    0.9763400000000000 V
   0.6890499999999999    0.0320100000000000    0.7735900000000000 V
   0.8557266666666666    0.0320300000000000    0.7735650000000001 V
   0.9613400000000000    0.7500100000000000    0.8750200000000000 V
   0.7946666666666666    0.7500200000000000    0.8750500000000000 V
   0.8736466666666667    0.2499800000000000    0.6249900000000000 V
   0.7070200000000000    0.2499900000000000    0.6250500000000000 V
   0.2535500000000000    0.6447900000000000    0.2917400000000000 P
   0.0868900000000000    0.6447900000000000    0.2917550000000000 P
   0.2535300000000000    0.8552100000000000    0.4582950000000000 P
   0.0868500000000000    0.8552300000000000    0.4583100000000000 P
   0.2480233333333333    0.3552200000000000    0.0416400000000000 P
   0.0814100000000000    0.3552100000000000    0.0416900000000000 P
   0.2482300000000000    0.1447800000000000    0.2081850000000000 P
   0.0815566666666667    0.1447800000000000    0.2082450000000000 P
   0.2482166666666667    0.3552000000000000    0.2082050000000000 P
   0.0815533333333333    0.3552200000000000    0.2082500000000000 P
   0.2479733333333333    0.1447800000000000    0.0415750000000000 P
   0.0814000000000000    0.1447900000000000    0.0416750000000000 P
   0.2535366666666666    0.6447800000000000    0.4582950000000000 P
   0.0868600000000000    0.6447800000000000    0.4583100000000000 P
   0.2535500000000000    0.8552200000000000    0.2917400000000000 P
   0.0868900000000000    0.8552100000000000    0.2917450000000000 P
   0.5868833333333333    0.6447900000000000    0.2917400000000000 P
   0.4202233333333333    0.6447900000000000    0.2917550000000000 P
   0.5868633333333333    0.8552100000000000    0.4582950000000000 P
   0.4201833333333333    0.8552300000000000    0.4583100000000000 P
   0.5813566666666666    0.3552200000000000    0.0416400000000000 P
   0.4147433333333333    0.3552100000000000    0.0416900000000000 P
   0.5815633333333333    0.1447800000000000    0.2081850000000000 P
   0.4148900000000000    0.1447800000000000    0.2082450000000000 P
   0.5815500000000000    0.3552000000000000    0.2082050000000000 P
   0.4148866666666666    0.3552200000000000    0.2082500000000000 P
   0.5813066666666666    0.1447800000000000    0.0415750000000000 P
   0.4147333333333333    0.1447900000000000    0.0416750000000000 P
   0.5868700000000000    0.6447800000000000    0.4582950000000000 P
   0.4201933333333333    0.6447800000000000    0.4583100000000000 P
   0.5868833333333333    0.8552200000000000    0.2917400000000000 P
   0.4202233333333333    0.8552100000000000    0.2917450000000000 P
   0.9202166666666667    0.6447900000000000    0.2917400000000000 P
   0.7535566666666667    0.6447900000000000    0.2917550000000000 P
   0.9201966666666666    0.8552100000000000    0.4582950000000000 P
   0.7535166666666666    0.8552300000000000    0.4583100000000000 P
   0.9146900000000000    0.3552200000000000    0.0416400000000000 P
   0.7480766666666666    0.3552100000000000    0.0416900000000000 P
   0.9148966666666666    0.1447800000000000    0.2081850000000000 P
   0.7482233333333332    0.1447800000000000    0.2082450000000000 P
   0.9148833333333333    0.3552000000000000    0.2082050000000000 P
   0.7482200000000000    0.3552200000000000    0.2082500000000000 P
   0.9146399999999999    0.1447800000000000    0.0415750000000000 P
   0.7480666666666667    0.1447900000000000    0.0416750000000000 P
   0.9202033333333333    0.6447800000000000    0.4582950000000000 P
   0.7535266666666667    0.6447800000000000    0.4583100000000000 P
   0.9202166666666667    0.8552200000000000    0.2917400000000000 P
   0.7535566666666667    0.8552100000000000    0.2917450000000000 P
   0.2535500000000000    0.6447900000000000    0.7917400000000000 P
   0.0868900000000000    0.6447900000000000    0.7917550000000000 P
   0.2535300000000000    0.8552100000000000    0.9582950000000000 P
   0.0868500000000000    0.8552300000000000    0.9583100000000000 P
   0.2480233333333333    0.3552200000000000    0.5416400000000000 P
   0.0814100000000000    0.3552100000000000    0.5416900000000000 P
   0.2482300000000000    0.1447800000000000    0.7081850000000001 P
   0.0815566666666667    0.1447800000000000    0.7082450000000000 P
   0.2482166666666667    0.3552000000000000    0.7082050000000000 P
   0.0815533333333333    0.3552200000000000    0.7082500000000000 P
   0.2479733333333333    0.1447800000000000    0.5415750000000000 P
   0.0814000000000000    0.1447900000000000    0.5416750000000000 P
   0.2535366666666666    0.6447800000000000    0.9582950000000000 P
   0.0868600000000000    0.6447800000000000    0.9583100000000000 P
   0.2535500000000000    0.8552200000000000    0.7917400000000000 P
   0.0868900000000000    0.8552100000000000    0.7917449999999999 P
   0.5868833333333333    0.6447900000000000    0.7917400000000000 P
   0.4202233333333333    0.6447900000000000    0.7917550000000000 P
   0.5868633333333333    0.8552100000000000    0.9582950000000000 P
   0.4201833333333333    0.8552300000000000    0.9583100000000000 P
   0.5813566666666666    0.3552200000000000    0.5416400000000000 P
   0.4147433333333333    0.3552100000000000    0.5416900000000000 P
   0.4148900000000000    0.1447800000000000    0.7082450000000000 P
   0.4148866666666666    0.3552200000000000    0.7082500000000000 P
   0.5813066666666666    0.1447800000000000    0.5415750000000000 P
   0.4147333333333333    0.1447900000000000    0.5416750000000000 P
   0.5868700000000000    0.6447800000000000    0.9582950000000000 P
   0.4201933333333333    0.6447800000000000    0.9583100000000000 P
   0.5868833333333333    0.8552200000000000    0.7917400000000000 P
   0.4202233333333333    0.8552100000000000    0.7917449999999999 P
   0.9202166666666667    0.6447900000000000    0.7917400000000000 P
   0.7535566666666667    0.6447900000000000    0.7917550000000000 P
   0.9201966666666666    0.8552100000000000    0.9582950000000000 P
   0.7535166666666666    0.8552300000000000    0.9583100000000000 P
   0.9146900000000000    0.3552200000000000    0.5416400000000000 P
   0.7480766666666666    0.3552100000000000    0.5416900000000000 P
   0.9148966666666666    0.1447800000000000    0.7081850000000001 P
   0.7482233333333332    0.1447800000000000    0.7082450000000000 P
   0.9148833333333333    0.3552000000000000    0.7082050000000000 P
   0.7482200000000000    0.3552200000000000    0.7082500000000000 P
   0.9146399999999999    0.1447800000000000    0.5415750000000000 P
   0.7480666666666667    0.1447900000000000    0.5416750000000000 P
   0.9202033333333333    0.6447800000000000    0.9582950000000000 P
   0.7535266666666667    0.6447800000000000    0.9583100000000000 P
   0.9202166666666667    0.8552200000000000    0.7917400000000000 P
   0.7535566666666667    0.8552100000000000    0.7917449999999999 P
   0.2113566666666667    0.7499900000000000    0.2510500000000000 H
   0.0447000000000000    0.7499900000000000    0.2510500000000000 H
   0.1991866666666667    0.7499900000000000    0.3060300000000000 H
   0.0325200000000000    0.7499900000000000    0.3060300000000000 H
   0.2113766666666667    0.7499800000000000    0.4990550000000000 H
   0.0446966666666667    0.7499900000000000    0.4990650000000000 H
   0.1991666666666667    0.7499800000000000    0.4440950000000000 H
   0.0324900000000000    0.7499900000000000    0.4441050000000000 H
   0.2904533333333333    0.2500100000000000    0.0000000000000000 H
   0.1237666666666667    0.2500100000000000    0.0000000000000000 H
   0.3022666666666667    0.2499300000000000    0.0562300000000000 H
   0.1357100000000000    0.2499900000000000    0.0561550000000000 H
   0.2902500000000000    0.2499800000000000    0.2490550000000000 H
   0.1235933333333333    0.2500000000000000    0.2490850000000000 H
   0.3026266666666667    0.2500200000000000    0.1941150000000000 H
   0.1359500000000000    0.2500200000000000    0.1941450000000000 H
   0.5446900000000000    0.7499900000000000    0.2510500000000000 H
   0.3780333333333333    0.7499900000000000    0.2510500000000000 H
   0.5325200000000000    0.7499900000000000    0.3060300000000000 H
   0.3658533333333333    0.7499900000000000    0.3060300000000000 H
   0.5447100000000000    0.7499800000000000    0.4990550000000000 H
   0.3780300000000000    0.7499900000000000    0.4990650000000000 H
   0.5325000000000000    0.7499800000000000    0.4440950000000000 H
   0.3658233333333333    0.7499900000000000    0.4441050000000000 H
   0.6237866666666667    0.2500100000000000    0.0000000000000000 H
   0.4571000000000000    0.2500100000000000    0.0000000000000000 H
   0.6355999999999999    0.2499300000000000    0.0562300000000000 H
   0.4690433333333333    0.2499900000000000    0.0561550000000000 H
   0.6235833333333334    0.2499800000000000    0.2490550000000000 H
   0.4569266666666666    0.2500000000000000    0.2490850000000000 H
   0.6359600000000000    0.2500200000000000    0.1941150000000000 H
   0.4692833333333333    0.2500200000000000    0.1941450000000000 H
   0.8780233333333333    0.7499900000000000    0.2510500000000000 H
   0.7113666666666666    0.7499900000000000    0.2510500000000000 H
   0.8658533333333333    0.7499900000000000    0.3060300000000000 H
   0.6991866666666666    0.7499900000000000    0.3060300000000000 H
   0.8780433333333333    0.7499800000000000    0.4990550000000000 H
   0.7113633333333333    0.7499900000000000    0.4990650000000000 H
   0.8658333333333332    0.7499800000000000    0.4440950000000000 H
   0.6991566666666666    0.7499900000000000    0.4441050000000000 H
   0.9571200000000000    0.2500100000000000    0.0000000000000000 H
   0.7904333333333333    0.2500100000000000    0.0000000000000000 H
   0.9689333333333333    0.2499300000000000    0.0562300000000000 H
   0.8023766666666666    0.2499900000000000    0.0561550000000000 H
   0.9569166666666666    0.2499800000000000    0.2490550000000000 H
   0.7902600000000000    0.2500000000000000    0.2490850000000000 H
   0.9692933333333333    0.2500200000000000    0.1941150000000000 H
   0.8026166666666666    0.2500200000000000    0.1941450000000000 H
   0.2113566666666667    0.7499900000000000    0.7510500000000000 H
   0.0447000000000000    0.7499900000000000    0.7510500000000000 H
   0.1991866666666667    0.7499900000000000    0.8060300000000000 H
   0.0325200000000000    0.7499900000000000    0.8060300000000000 H
   0.2113766666666667    0.7499800000000000    0.9990550000000000 H
   0.0446966666666667    0.7499900000000000    0.9990650000000000 H
   0.1991666666666667    0.7499800000000000    0.9440950000000000 H
   0.0324900000000000    0.7499900000000000    0.9441050000000000 H
   0.2904533333333333    0.2500100000000000    0.5000000000000000 H
   0.1237666666666667    0.2500100000000000    0.5000000000000000 H
   0.3022666666666667    0.2499300000000000    0.5562300000000000 H
   0.1357100000000000    0.2499900000000000    0.5561550000000000 H
   0.2902500000000000    0.2499800000000000    0.7490550000000000 H
   0.1235933333333333    0.2500000000000000    0.7490850000000000 H
   0.3026266666666667    0.2500200000000000    0.6941150000000000 H
   0.1359500000000000    0.2500200000000000    0.6941450000000000 H
   0.5446900000000000    0.7499900000000000    0.7510500000000000 H
   0.3780333333333333    0.7499900000000000    0.7510500000000000 H
   0.5325200000000000    0.7499900000000000    0.8060300000000000 H
   0.3658533333333333    0.7499900000000000    0.8060300000000000 H
   0.5447100000000000    0.7499800000000000    0.9990550000000000 H
   0.3780300000000000    0.7499900000000000    0.9990650000000000 H
   0.5325000000000000    0.7499800000000000    0.9440950000000000 H
   0.3658233333333333    0.7499900000000000    0.9441050000000000 H
   0.6237866666666667    0.2500100000000000    0.5000000000000000 H
   0.4571000000000000    0.2500100000000000    0.5000000000000000 H
   0.6355999999999999    0.2499300000000000    0.5562300000000000 H
   0.4690433333333333    0.2499900000000000    0.5561550000000000 H
   0.4569266666666666    0.2500000000000000    0.7490850000000000 H
   0.4692833333333333    0.2500200000000000    0.6941450000000000 H
   0.8780233333333333    0.7499900000000000    0.7510500000000000 H
   0.7113666666666666    0.7499900000000000    0.7510500000000000 H
   0.8658533333333333    0.7499900000000000    0.8060300000000000 H
   0.6991866666666666    0.7499900000000000    0.8060300000000000 H
   0.8780433333333333    0.7499800000000000    0.9990550000000000 H
   0.7113633333333333    0.7499900000000000    0.9990650000000000 H
   0.8658333333333332    0.7499800000000000    0.9440950000000000 H
   0.6991566666666666    0.7499900000000000    0.9441050000000000 H
   0.9571200000000000    0.2500100000000000    0.5000000000000000 H
   0.7904333333333333    0.2500100000000000    0.5000000000000000 H
   0.9689333333333333    0.2499300000000000    0.5562300000000000 H
   0.8023766666666666    0.2499900000000000    0.5561550000000000 H
   0.9569166666666666    0.2499800000000000    0.7490550000000000 H
   0.7902600000000000    0.2500000000000000    0.7490850000000000 H
   0.9692933333333333    0.2500200000000000    0.6941150000000000 H
   0.8026166666666666    0.2500200000000000    0.6941450000000000 H
   0.2244866666666666    0.7500000000000000    0.2829650000000000 C
   0.0578233333333333    0.7500000000000000    0.2829700000000000 C
   0.2244833333333333    0.7499800000000000    0.4671200000000000 C
   0.0578066666666667    0.7500000000000000    0.4671300000000000 C
   0.2771133333333333    0.2499900000000000    0.0330200000000000 C
   0.1105033333333333    0.2500000000000000    0.0330050000000000 C
   0.2772466666666666    0.2500000000000000    0.2170850000000000 C
   0.1105800000000000    0.2500100000000000    0.2171200000000000 C
   0.5578200000000000    0.7500000000000000    0.2829650000000000 C
   0.3911566666666667    0.7500000000000000    0.2829700000000000 C
   0.5578166666666666    0.7499800000000000    0.4671200000000000 C
   0.3911400000000000    0.7500000000000000    0.4671300000000000 C
   0.6104466666666666    0.2499900000000000    0.0330200000000000 C
   0.4438366666666667    0.2500000000000000    0.0330050000000000 C
   0.6105799999999999    0.2500000000000000    0.2170850000000000 C
   0.4439133333333333    0.2500100000000000    0.2171200000000000 C
   0.8911533333333332    0.7500000000000000    0.2829650000000000 C
   0.7244900000000000    0.7500000000000000    0.2829700000000000 C
   0.8911499999999999    0.7499800000000000    0.4671200000000000 C
   0.7244733333333333    0.7500000000000000    0.4671300000000000 C
   0.9437800000000000    0.2499900000000000    0.0330200000000000 C
   0.7771699999999999    0.2500000000000000    0.0330050000000000 C
   0.9439133333333333    0.2500000000000000    0.2170850000000000 C
   0.7772466666666666    0.2500100000000000    0.2171200000000000 C
   0.2244866666666666    0.7500000000000000    0.7829650000000000 C
   0.0578233333333333    0.7500000000000000    0.7829699999999999 C
   0.2244833333333333    0.7499800000000000    0.9671200000000000 C
   0.0578066666666667    0.7500000000000000    0.9671300000000000 C
   0.2771133333333333    0.2499900000000000    0.5330200000000000 C
   0.1105033333333333    0.2500000000000000    0.5330050000000000 C
   0.2772466666666666    0.2500000000000000    0.7170850000000000 C
   0.1105800000000000    0.2500100000000000    0.7171200000000000 C
   0.5578200000000000    0.7500000000000000    0.7829650000000000 C
   0.3911566666666667    0.7500000000000000    0.7829699999999999 C
   0.5578166666666666    0.7499800000000000    0.9671200000000000 C
   0.3911400000000000    0.7500000000000000    0.9671300000000000 C
   0.6104466666666666    0.2499900000000000    0.5330200000000000 C
   0.4438366666666667    0.2500000000000000    0.5330050000000000 C
   0.4439133333333333    0.2500100000000000    0.7171200000000000 C
   0.8911533333333332    0.7500000000000000    0.7829650000000000 C
   0.7244900000000000    0.7500000000000000    0.7829699999999999 C
   0.8911499999999999    0.7499800000000000    0.9671200000000000 C
   0.7244733333333333    0.7500000000000000    0.9671300000000000 C
   0.9437800000000000    0.2499900000000000    0.5330200000000000 C
   0.7771699999999999    0.2500000000000000    0.5330050000000000 C
   0.9439133333333333    0.2500000000000000    0.7170850000000000 C
   0.7772466666666666    0.2500100000000000    0.7171200000000000 C
   0.2780000000000000    0.6553200000000000    0.3330650000000000 O
   0.1113400000000000    0.6553400000000000    0.3330750000000000 O
   0.2235800000000000    0.5623200000000000    0.2980850000000000 O
   0.0569133333333333    0.5623300000000000    0.2980900000000000 O
   0.2814300000000000    0.6293100000000000    0.2529550000000000 O
   0.1147733333333333    0.6293100000000000    0.2529700000000000 O
   0.2780100000000000    0.8446800000000000    0.4169700000000000 O
   0.1113133333333333    0.8447200000000000    0.4169750000000000 O
   0.2235300000000000    0.9375800000000000    0.4519050000000000 O
   0.0568500000000000    0.9376100000000001    0.4519350000000000 O
   0.2813833333333333    0.8708000000000000    0.4970700000000000 O
   0.1147200000000000    0.8708100000000000    0.4970700000000000 O
   0.2233733333333333    0.3447200000000000    0.0828650000000000 O
   0.0568333333333333    0.3446900000000000    0.0829550000000000 O
   0.2780133333333333    0.4376200000000000    0.0480900000000000 O
   0.1113900000000000    0.4376400000000000    0.0480900000000000 O
   0.2203533333333333    0.3706900000000000    0.0027050000000000 O
   0.0536633333333333    0.3706900000000000    0.0028150000000000 O
   0.2238833333333333    0.1552900000000000    0.1667900000000000 O
   0.0571733333333333    0.1552900000000000    0.1668800000000000 O
   0.2782166666666667    0.0623400000000000    0.2019050000000000 O
   0.1115400000000000    0.0623500000000000    0.2019200000000000 O
   0.2202400000000000    0.1292300000000000    0.2468750000000000 O
   0.0536033333333333    0.1292300000000000    0.2469650000000000 O
   0.2238500000000000    0.3446500000000000    0.1668300000000000 O
   0.0571633333333333    0.3446900000000000    0.1668850000000000 O
   0.2782000000000000    0.4376600000000000    0.2019100000000000 O
   0.1115333333333333    0.4376600000000000    0.2019250000000000 O
   0.2202533333333333    0.3707500000000000    0.2469150000000000 O
   0.0536033333333333    0.3707600000000000    0.2469700000000000 O
   0.2231866666666667    0.1552800000000000    0.0827150000000000 O
   0.0568133333333333    0.1553000000000000    0.0829350000000000 O
   0.2779600000000000    0.0624000000000000    0.0480950000000000 O
   0.1113800000000000    0.0623700000000000    0.0480900000000000 O