H8 O5
1.0
  13.8039975695454089    0.0000000000000000    0.0081914580173875
  -0.0348009745658270   13.1055444292139462   -4.4484934647663099
   0.0000000000000000    0.0000000000000000   27.8440000000000012
H O
8 5
direct
   0.5592532627113740    0.8056136742143720    0.1687723196056969 H
   0.7174694074979125    0.0617339449366084    0.2133005122236576 H
   0.6480725666847609    0.9334327184969136    0.1883875880588506 H
   0.9229270363438882    0.2908530388879209    0.0673930525255735 H
   0.8116385792242699    0.2451545712761264    0.0473205584443152 H
   0.0058612118405269    0.8563070498881348    0.0649604584895057 H
   0.8832415510763324    0.0442365851503869    0.1010302925243895 H
   0.9674895843979082   -0.0284503141942222    0.1530320297392898 H
   0.5698299999999999    0.8758700000000000    0.1896650000000000 O
   0.6611500000000000    0.0203000000000000    0.2142200000000000 O
   0.8807199999999999    0.2329100000000000    0.0506300000000000 O
  -0.0209000000000001    0.8699500000000000    0.0355900000000000 O
   0.8868500000000000    0.0126600000000000    0.0645300000000000 O
