H6 O4
1.0
  15.9803544538114508    0.0000000000000000    9.1690810624919497
   5.3105635573748904   15.0787266278136975    9.1763504176085124
   0.0000000000000000    0.0000000000000000   18.4329999999999998
H O
6 4
direct
   0.2805797565574235    0.1129992495610957    0.1129877708650417 H
   0.4929003235641876    0.1133902596140588    0.1132928151252282 H
   0.3945028055184687    0.1054478342212737    0.1053896748285414 H
   0.7194374662944873    0.8869984946981452    0.8869984946981453 H
   0.5071404308127840    0.8865962317414355    0.8865962317414355 H
   0.6055218940710860    0.8945562248461413    0.8945562248461414 H
   0.3051400000000000    0.1329500000000000    0.1329300000000000 O
   0.4286300000000000    0.1331700000000000    0.1331000000000000 O
   0.6949000000000000    0.8670400000000000    0.8670400000000000 O
   0.5714100000000000    0.8668100000000000    0.8668100000000000 O
