H3 O2
1.0
   9.0204999876348939    0.0000000000000000    0.0004723122753120
   3.2666669034701989    8.4141287913221081    0.0001575334182772
   0.0000000000000000    0.0000000000000000   39.0339999999999989
H O
3 2
direct
   0.3659612386859468    0.5799240352192095    0.7477420516710930 H
   0.3782958428040944    0.7702726754717454    0.6717168148920438 H
   0.4244547135838006    0.5446815959360739    0.6920316327244844 H
   0.3330800000000000    0.6948100000000000    0.7481599999999999 O
   0.3435500000000000    0.8273600000000000    0.6930600000000000 O
