H3 O2
1.0
   9.0204999876348939    0.0000000000000000    0.0004723122753120
   3.2666669034701989    8.4141287913221081    0.0001575334182772
   0.0000000000000000    0.0000000000000000   39.0339999999999989
H O
3 2
direct
   0.4656226875346532    0.7984545078760024    0.0572819860971822 H
   0.4295899767524149    0.7830676373302350    0.0312836155519395 H
   0.3793289776389784    0.8980422448188806    0.1271164902336299 H
   0.3664000000000000    0.8242000000000000    0.0516400000000000 O
   0.2684200000000000    0.9268200000000000    0.1208100000000000 O
