P1 O5
1.0
   9.0204999876348939    0.0000000000000000    0.0004723122753120
   3.2666669034701989    8.4141287913221081    0.0001575334182772
   0.0000000000000000    0.0000000000000000   39.0339999999999989
P O
1 5
direct
   0.4913700000000000    0.7957100000000000    0.0796350000000000 P
   0.2684200000000000    0.9268200000000000    0.1208100000000000 O
   0.4163400000000000    0.7810800000000000    0.1165300000000000 O
   0.6224499999999999    0.6325499999999999    0.0761900000000000 O
   0.5541800000000000    0.9319700000000000    0.0793300000000000 O
   0.3664000000000000    0.8242000000000000    0.0516400000000000 O
