H8 C12 N5
1.0
  36.4294283114400343    0.0000000000000000    6.8939487162040587
  -4.5318462972539306   13.8318257604027242    7.3304279733127080
   0.0000000000000000    0.0000000000000000   32.6760000000000019
H C N
8 12 5
direct
   0.4779050000000000    0.0227700000000000    0.3267950000000000 H
   0.4372950000000000    0.9004900000000000    0.4131000000000000 H
   0.3669800000000000    0.8209200000000000    0.4292000000000000 H
   0.3400950000000000    0.8662200000000000    0.3601500000000000 H
   0.5535850000000000    0.2741800000000000    0.1794150000000000 H
   0.6068100000000000    0.4046800000000000    0.1075200000000000 H
   0.5569650000000000    0.3466200000000000    0.0157050000000000 H
   0.5002799999999999    0.2188800000000000    0.0841250000000000 H
   0.4504800000000000    0.0720500000000000    0.2492750000000000 C
   0.4881750000000000    0.1654600000000000    0.1790750000000000 C
   0.4302300000000000    0.0077100000000000    0.2998050000000000 C
   0.4471850000000000    0.9868600000000000    0.3365650000000000 C
   0.4246400000000000    0.9194000000000000    0.3838350000000000 C
   0.3856600000000000    0.8750100000000000    0.3928900000000000 C
   0.3703750000000000    0.8991900000000000    0.3546700000000000 C
   0.5217349999999999    0.2358500000000000    0.1380650000000000 C
   0.5532150000000000    0.2885400000000000    0.1436000000000000 C
   0.5831700000000000    0.3611800000000000    0.1034500000000000 C
   0.5551250000000000    0.3293300000000000    0.0524200000000000 C
   0.5237300000000000    0.2575600000000000    0.0907550000000000 C
   0.4294650000000000    0.0740600000000000    0.2190000000000000 N
   0.4537200000000000    0.1335000000000000    0.1734000000000000 N
   0.4873500000000000    0.1290200000000000    0.2258950000000000 N
   0.3918700000000000    0.9644500000000000    0.3085100000000000 N
   0.5846400000000000    0.3838600000000000    0.0575650000000000 N
