H4 C6 N5
1.0
  37.2479990412300808    0.0000000000000000    0.0084513030446694
  -0.0090222767294857   15.6619957887356822    0.0071071899097106
   0.0000000000000000    0.0000000000000000   15.4830000000000005
H C N
4 6 5
direct
   0.2575200000000000    0.2785500000000000    0.0883200000000000 H
   0.2225600000000000    0.4016300000000000    0.1480100000000000 H
   0.2810100000000000    0.4013100000000000    0.3753700000000000 H
   0.3191700000000000    0.2782300000000000    0.3242100000000000 H
   0.3110666666666667    0.1944000000000000    0.1710400000000000 C
   0.2911500000000000    0.2683300000000000    0.2019600000000000 C
   0.2637600000000000    0.3047600000000000    0.1516800000000000 C
   0.2444933333333333    0.3731200000000000    0.1844900000000000 C
   0.2775233333333333    0.3725900000000000    0.3116800000000000 C
   0.2980800000000000    0.3042900000000000    0.2832900000000000 C
   0.3277600000000000    0.0916400000000000    0.0925000000000000 N
   0.3051933333333333    0.1569200000000000    0.0936000000000000 N
   0.2510033333333333    0.4066600000000000    0.2632700000000000 N
   0.3466700000000000    0.0896200000000000    0.1664700000000000 N
   0.3366766666666666    0.1535400000000000    0.2173400000000000 N
