H8 C14 O4
1.0
  34.7659935134235525    0.0000000000000000   -0.0212373395503807
  -0.0023570329798244   18.6445500177923442   -0.1295147807585997
   0.0000000000000000    0.0000000000000000   36.3680000000000021
H C O
8 14 4
direct
   0.5351150000000000    0.0816200000000000    0.7686299999999999 H
   0.7318100000000000    0.1530000000000000    0.7938750000000000 H
   0.5357149999999999    0.2760600000000000    0.7057000000000000 H
   0.6072950000000000    0.2745400000000000    0.7050000000000000 H
   0.6063250000000000    0.0825500000000000    0.7704500000000001 H
   0.7301600000000000    0.1990600000000000    0.6783049999999999 H
   0.6585500000000000    0.2000500000000000    0.6791500000000000 H
   0.6602300000000000    0.1524500000000000    0.7949649999999999 H
   0.4881200000000000    0.1785600000000000    0.7362950000000000 C
   0.5511200000000001    0.1246300000000000    0.7554850000000000 C
   0.7154600000000000    0.1628100000000000    0.7688650000000000 C
   0.5515350000000000    0.2335400000000000    0.7195050000000001 C
   0.5915049999999999    0.2325500000000000    0.7192600000000000 C
   0.5910950000000000    0.1254500000000000    0.7564400000000000 C
   0.7145650000000000    0.1895200000000000    0.7037700000000000 C
   0.6745750000000000    0.1905300000000000    0.7044250000000000 C
   0.6754800000000000    0.1624000000000000    0.7693000000000000 C
   0.5309650000000000    0.1789300000000000    0.7371600000000000 C
   0.7782700000000000    0.1776200000000000    0.7358750000000001 C
   0.6119300000000000    0.1786300000000000    0.7378350000000000 C
   0.7354050000000000    0.1764300000000000    0.7360949999999999 C
   0.6543900000000000    0.1771500000000000    0.7372000000000000 C
   0.4714950000000000    0.1185300000000000    0.7422000000000000 O
   0.4713600000000000    0.2381200000000000    0.7296500000000000 O
   0.7949250000000000    0.1815000000000000    0.7045750000000000 O
   0.7950699999999999    0.1749300000000000    0.7671200000000000 O
