H6 O4
1.0
  34.7659935134235525    0.0000000000000000   -0.0212373395503807
  -0.0023570329798244   18.6445500177923442   -0.1295147807585997
   0.0000000000000000    0.0000000000000000   36.3680000000000021
H O
6 4
direct
   0.5796450201237763    0.4045448357705846    0.6085974952252079 H
   0.6600923736697852    0.5073724068407433    0.5548500383084826 H
   0.6199199844378461    0.4638857519821403    0.5855405615622526 H
   0.6583829895162411    0.7332023267224920    0.6698654317805925 H
   0.5717013449577109    0.6387579069305421    0.7182006820796890 H
   0.6148079963303132    0.6781275869182392    0.6899973259445797 H
   0.5965549999999999    0.4059700000000000    0.5874100000000000 O
   0.6433450000000001    0.4658600000000000    0.5561900000000000 O
   0.6405600000000000    0.7330600000000000    0.6903750000000000 O
   0.5900650000000001    0.6779300000000000    0.7184699999999999 O
