H4 C8 O4
1.0
  34.7659935134235525    0.0000000000000000   -0.0212373395503807
  -0.0023570329798244   18.6445500177923442   -0.1295147807585997
   0.0000000000000000    0.0000000000000000   36.3680000000000021
H C O
4 8 4
direct
   0.5711450000000000    0.4697100000000000    0.6403650000000000 H
   0.6650350000000000    0.5765700000000000    0.5868700000000000 H
   0.6630350000000000    0.6737800000000000    0.6346650000000000 H
   0.5691850000000001    0.5672199999999999    0.6882550000000001 H
   0.6154600000000000    0.6835000000000000    0.6932600000000000 C
   0.6160150000000000    0.6260900000000000    0.6642700000000000 C
   0.6181500000000000    0.5173700000000000    0.6108000000000000 C
   0.6194350000000000    0.4585700000000000    0.5826100000000000 C
   0.5910600000000000    0.5147100000000000    0.6393500000000000 C
   0.6440399999999999    0.5750000000000000    0.6090450000000001 C
   0.6429700000000000    0.6290100000000000    0.6356050000000000 C
   0.5899550000000000    0.5687400000000000    0.6658850000000001 C
   0.6433450000000001    0.4658600000000000    0.5561900000000000 O
   0.5900650000000001    0.6779300000000000    0.7184699999999999 O
   0.5965549999999999    0.4059700000000000    0.5874100000000000 O
   0.6405600000000000    0.7330600000000000    0.6903750000000000 O
