Cd96 H190 C190 N285 Cl96
1.0
  35.1099999946524406    0.0000000000000000    0.0006127851003447
  -0.7965054319384351   17.5269108543659975    0.0000000000000011
   0.0000000000000000    0.0000000000000000   31.8260000000000005
Cd H C N Cl
96 190 190 285 96
direct
   0.2324700000000000    0.5349600000000000    0.1603250000000000 Cd
   0.4824750000000000    0.0349700000000000    0.1603250000000000 Cd
   0.4824750000000000    0.5349600000000000    0.1603250000000000 Cd
   0.0865450000000000    0.3268100000000000    0.0936850000000000 Cd
   0.0865450000000000    0.8268000000000000    0.0936850000000000 Cd
   0.3365500000000000    0.3268100000000000    0.0936850000000000 Cd
   0.3365500000000000    0.8268000000000000    0.0936850000000000 Cd
   0.1601400000000000    0.1796900000000000    0.1353700000000000 Cd
   0.1601400000000000    0.6796800000000000    0.1353700000000000 Cd
   0.4101450000000000    0.1796900000000000    0.1353700000000000 Cd
   0.4101450000000000    0.6796800000000000    0.1353700000000000 Cd
   0.0175350000000000    0.4649900000000000    0.4103150000000000 Cd
   0.0175350000000000    0.9649799999999999    0.4103150000000000 Cd
   0.2675400000000000    0.4649900000000000    0.4103150000000000 Cd
   0.2675400000000000    0.9649799999999999    0.4103150000000000 Cd
   0.1634600000000000    0.1731600000000000    0.3436850000000000 Cd
   0.1634600000000000    0.6731500000000000    0.3436850000000000 Cd
   0.4134650000000000    0.1731600000000000    0.3436850000000000 Cd
   0.4134650000000000    0.6731500000000000    0.3436850000000000 Cd
   0.0898650000000000    0.3202800000000000    0.3853500000000000 Cd
   0.0898650000000000    0.8202700000000001    0.3853500000000000 Cd
   0.3398700000000000    0.3202800000000000    0.3853500000000000 Cd
   0.3398700000000000    0.8202700000000001    0.3853500000000000 Cd
   0.2324700000000000    0.0349700000000000    0.1603250000000000 Cd
   0.7324700000000000    0.5349600000000000    0.1603250000000000 Cd
   0.9824750000000000    0.0349700000000000    0.1603250000000000 Cd
   0.9824750000000000    0.5349600000000000    0.1603250000000000 Cd
   0.5865450000000000    0.3268100000000000    0.0936850000000000 Cd
   0.5865450000000000    0.8268000000000000    0.0936850000000000 Cd
   0.8365500000000000    0.3268100000000000    0.0936850000000000 Cd
   0.8365500000000000    0.8268000000000000    0.0936850000000000 Cd
   0.6601399999999999    0.1796900000000000    0.1353700000000000 Cd
   0.6601399999999999    0.6796800000000000    0.1353700000000000 Cd
   0.9101450000000000    0.1796900000000000    0.1353700000000000 Cd
   0.9101450000000000    0.6796800000000000    0.1353700000000000 Cd
   0.5175350000000000    0.4649900000000000    0.4103150000000000 Cd
   0.5175350000000000    0.9649799999999999    0.4103150000000000 Cd
   0.7675400000000000    0.4649900000000000    0.4103150000000000 Cd
   0.7675400000000000    0.9649799999999999    0.4103150000000000 Cd
   0.6634599999999999    0.1731600000000000    0.3436850000000000 Cd
   0.6634599999999999    0.6731500000000000    0.3436850000000000 Cd
   0.9134650000000000    0.1731600000000000    0.3436850000000000 Cd
   0.9134650000000000    0.6731500000000000    0.3436850000000000 Cd
   0.5898650000000000    0.3202800000000000    0.3853500000000000 Cd
   0.5898650000000000    0.8202700000000001    0.3853500000000000 Cd
   0.8398700000000000    0.3202800000000000    0.3853500000000000 Cd
   0.8398700000000000    0.8202700000000001    0.3853500000000000 Cd
   0.7324700000000000    0.0349700000000000    0.1603250000000000 Cd
   0.2324700000000000    0.5349600000000000    0.6603250000000001 Cd
   0.4824750000000000    0.0349700000000000    0.6603250000000001 Cd
   0.4824750000000000    0.5349600000000000    0.6603250000000001 Cd
   0.0865450000000000    0.3268100000000000    0.5936850000000000 Cd
   0.0865450000000000    0.8268000000000000    0.5936850000000000 Cd
   0.3365500000000000    0.3268100000000000    0.5936850000000000 Cd
   0.3365500000000000    0.8268000000000000    0.5936850000000000 Cd
   0.1601400000000000    0.1796900000000000    0.6353700000000000 Cd
   0.1601400000000000    0.6796800000000000    0.6353700000000000 Cd
   0.4101450000000000    0.1796900000000000    0.6353700000000000 Cd
   0.4101450000000000    0.6796800000000000    0.6353700000000000 Cd
   0.0175350000000000    0.4649900000000000    0.9103150000000000 Cd
   0.0175350000000000    0.9649799999999999    0.9103150000000000 Cd
   0.2675400000000000    0.4649900000000000    0.9103150000000000 Cd
   0.2675400000000000    0.9649799999999999    0.9103150000000000 Cd
   0.1634600000000000    0.1731600000000000    0.8436850000000000 Cd
   0.1634600000000000    0.6731500000000000    0.8436850000000000 Cd
   0.4134650000000000    0.1731600000000000    0.8436850000000000 Cd
   0.4134650000000000    0.6731500000000000    0.8436850000000000 Cd
   0.0898650000000000    0.3202800000000000    0.8853500000000001 Cd
   0.0898650000000000    0.8202700000000001    0.8853500000000001 Cd
   0.3398700000000000    0.3202800000000000    0.8853500000000001 Cd
   0.3398700000000000    0.8202700000000001    0.8853500000000001 Cd
   0.2324700000000000    0.0349700000000000    0.6603250000000001 Cd
   0.7324700000000000    0.5349600000000000    0.6603250000000001 Cd
   0.9824750000000000    0.0349700000000000    0.6603250000000001 Cd
   0.9824750000000000    0.5349600000000000    0.6603250000000001 Cd
   0.5865450000000000    0.3268100000000000    0.5936850000000000 Cd
   0.5865450000000000    0.8268000000000000    0.5936850000000000 Cd
   0.8365500000000000    0.3268100000000000    0.5936850000000000 Cd
   0.8365500000000000    0.8268000000000000    0.5936850000000000 Cd
   0.6601399999999999    0.1796900000000000    0.6353700000000000 Cd
   0.6601399999999999    0.6796800000000000    0.6353700000000000 Cd
   0.9101450000000000    0.1796900000000000    0.6353700000000000 Cd
   0.9101450000000000    0.6796800000000000    0.6353700000000000 Cd
   0.5175350000000000    0.4649900000000000    0.9103150000000000 Cd
   0.5175350000000000    0.9649799999999999    0.9103150000000000 Cd
   0.7675400000000000    0.4649900000000000    0.9103150000000000 Cd
   0.7675400000000000    0.9649799999999999    0.9103150000000000 Cd
   0.6634599999999999    0.1731600000000000    0.8436850000000000 Cd
   0.6634599999999999    0.6731500000000000    0.8436850000000000 Cd
   0.9134650000000000    0.1731600000000000    0.8436850000000000 Cd
   0.9134650000000000    0.6731500000000000    0.8436850000000000 Cd
   0.5898650000000000    0.3202800000000000    0.8853500000000001 Cd
   0.5898650000000000    0.8202700000000001    0.8853500000000001 Cd
   0.8398700000000000    0.3202800000000000    0.8853500000000001 Cd
   0.8398700000000000    0.8202700000000001    0.8853500000000001 Cd
   0.7324700000000000    0.0349700000000000    0.6603250000000001 Cd
   0.1737650000000000    0.3783200000000000    0.1288050000000000 H
   0.1737650000000000    0.8783100000000000    0.1288000000000000 H
   0.4237700000000000    0.3783200000000000    0.1288050000000000 H
   0.4237700000000000    0.8783100000000000    0.1288050000000000 H
   0.0924500000000000    0.0345100000000000    0.0939600000000000 H
   0.0924550000000000    0.5345000000000000    0.0939600000000000 H
   0.3424550000000000    0.0345100000000000    0.0939600000000000 H
   0.3424600000000000    0.5345000000000000    0.0939600000000000 H
   0.0762350000000000    0.1216500000000000    0.3787850000000000 H
   0.0762350000000000    0.6216400000000000    0.3787850000000000 H
   0.3262400000000000    0.1216500000000000    0.3787850000000000 H
   0.3262400000000000    0.6216400000000000    0.3787850000000000 H
   0.1575500000000000    0.4654700000000000    0.3439450000000000 H
   0.1575550000000000    0.9654600000000000    0.3439450000000000 H
   0.4075550000000000    0.4654700000000000    0.3439450000000000 H
   0.4075600000000000    0.9654600000000000    0.3439450000000000 H
   0.1893400000000000    0.3476900000000000    0.3787600000000000 H
   0.1893400000000000    0.8476800000000000    0.3787600000000000 H
   0.4393450000000000    0.3476900000000000    0.3787600000000000 H
   0.4393450000000000    0.8476800000000000    0.3787600000000000 H
   0.0172300000000000    0.1846200000000000    0.3440100000000000 H
   0.0172300000000000    0.6846100000000001    0.3440100000000000 H
   0.2672350000000000    0.1846200000000000    0.3440100000000000 H
   0.2672350000000000    0.6846100000000001    0.3440100000000000 H
   0.0606650000000000    0.1522900000000000    0.1287800000000000 H
   0.0606650000000000    0.6522800000000000    0.1287800000000000 H
   0.3106700000000000    0.1522900000000000    0.1287800000000000 H
   0.3106700000000000    0.6522800000000000    0.1287800000000000 H
   0.2327750000000000    0.3153500000000000    0.0940200000000000 H
   0.2327750000000000    0.8153500000000000    0.0940200000000000 H
   0.4827800000000000    0.3153600000000000    0.0940200000000000 H
   0.4827800000000000    0.8153500000000000    0.0940200000000000 H
   0.1444850000000000    0.2114300000000000    0.2421750000000000 H
   0.1444900000000000    0.7114200000000001    0.2421750000000000 H
   0.3944900000000000    0.2114300000000000    0.2421750000000000 H
   0.3944950000000000    0.7114200000000001    0.2421750000000000 H
   0.2241550000000000    0.0513300000000000    0.2771800000000000 H
   0.2241550000000000    0.5513200000000000    0.2771800000000000 H
   0.4741600000000000    0.0513300000000000    0.2771800000000000 H
   0.4741600000000000    0.5513200000000000    0.2771800000000000 H
   0.1055200000000000    0.2885400000000000    0.4921600000000000 H
   0.1055200000000000    0.7885300000000000    0.4921600000000000 H
   0.3555250000000000    0.2885400000000000    0.4921600000000000 H
   0.3555250000000000    0.7885300000000000    0.4921600000000000 H
   0.0258500000000000    0.4486400000000000    0.0271750000000000 H
   0.0258500000000000    0.9486300000000000    0.0271750000000000 H
   0.2758550000000000    0.4486400000000000    0.0271750000000000 H
   0.2758550000000000    0.9486300000000000    0.0271750000000000 H
   0.6737649999999999    0.3783200000000000    0.1288050000000000 H
   0.6737649999999999    0.8783100000000000    0.1288000000000000 H
   0.9237700000000000    0.3783200000000000    0.1288050000000000 H
   0.9237700000000000    0.8783100000000000    0.1288050000000000 H
   0.5924500000000000    0.0345100000000000    0.0939600000000000 H
   0.5924550000000000    0.5345000000000000    0.0939600000000000 H
   0.8424550000000000    0.0345100000000000    0.0939600000000000 H
   0.8424600000000000    0.5345000000000000    0.0939600000000000 H
   0.5762350000000001    0.1216500000000000    0.3787850000000000 H
   0.8262400000000000    0.1216500000000000    0.3787850000000000 H
   0.8262400000000000    0.6216400000000000    0.3787850000000000 H
   0.6575550000000000    0.9654600000000000    0.3439450000000000 H
   0.9075550000000000    0.4654700000000000    0.3439450000000000 H
   0.9075599999999999    0.9654600000000000    0.3439450000000000 H
   0.6893400000000001    0.3476900000000000    0.3787600000000000 H
   0.6893400000000001    0.8476800000000000    0.3787600000000000 H
   0.9393450000000000    0.3476900000000000    0.3787600000000000 H
   0.9393450000000000    0.8476800000000000    0.3787600000000000 H
   0.5172300000000000    0.1846200000000000    0.3440100000000000 H
   0.5172300000000000    0.6846100000000001    0.3440100000000000 H
   0.7672350000000000    0.1846200000000000    0.3440100000000000 H
   0.7672350000000000    0.6846100000000001    0.3440100000000000 H
   0.5606650000000000    0.1522900000000000    0.1287800000000000 H
   0.5606650000000000    0.6522800000000000    0.1287800000000000 H
   0.8106700000000000    0.1522900000000000    0.1287800000000000 H
   0.8106700000000000    0.6522800000000000    0.1287800000000000 H
   0.7327750000000000    0.3153500000000000    0.0940200000000000 H
   0.7327750000000000    0.8153500000000000    0.0940200000000000 H
   0.9827800000000000    0.3153600000000000    0.0940200000000000 H
   0.9827800000000000    0.8153500000000000    0.0940200000000000 H
   0.6444850000000000    0.2114300000000000    0.2421750000000000 H
   0.6444900000000000    0.7114200000000001    0.2421750000000000 H
   0.8944900000000000    0.2114300000000000    0.2421750000000000 H
   0.8944950000000000    0.7114200000000001    0.2421750000000000 H
   0.7241550000000000    0.0513300000000000    0.2771800000000000 H
   0.7241550000000000    0.5513200000000000    0.2771800000000000 H
   0.9741600000000000    0.0513300000000000    0.2771800000000000 H
   0.9741600000000000    0.5513200000000000    0.2771800000000000 H
   0.6055200000000001    0.2885400000000000    0.4921600000000000 H
   0.6055200000000001    0.7885300000000000    0.4921600000000000 H
   0.8555250000000000    0.2885400000000000    0.4921600000000000 H
   0.8555250000000000    0.7885300000000000    0.4921600000000000 H
   0.5258500000000000    0.4486400000000000    0.0271750000000000 H
   0.5258500000000000    0.9486300000000000    0.0271750000000000 H
   0.7758550000000000    0.4486400000000000    0.0271750000000000 H
   0.7758550000000000    0.9486300000000000    0.0271750000000000 H
   0.1737650000000000    0.3783200000000000    0.6288050000000001 H
   0.1737650000000000    0.8783100000000000    0.6288000000000000 H
   0.4237700000000000    0.3783200000000000    0.6288050000000001 H
   0.4237700000000000    0.8783100000000000    0.6288050000000001 H
   0.0924500000000000    0.0345100000000000    0.5939600000000000 H
   0.0924550000000000    0.5345000000000000    0.5939600000000000 H
   0.3424550000000000    0.0345100000000000    0.5939600000000000 H
   0.3424600000000000    0.5345000000000000    0.5939600000000000 H
   0.0762350000000000    0.1216500000000000    0.8787849999999999 H
   0.0762350000000000    0.6216400000000000    0.8787849999999999 H
   0.3262400000000000    0.1216500000000000    0.8787849999999999 H
   0.3262400000000000    0.6216400000000000    0.8787849999999999 H
   0.1575500000000000    0.4654700000000000    0.8439449999999999 H
   0.1575550000000000    0.9654600000000000    0.8439449999999999 H
   0.4075550000000000    0.4654700000000000    0.8439449999999999 H
   0.4075600000000000    0.9654600000000000    0.8439449999999999 H
   0.1893400000000000    0.3476900000000000    0.8787600000000000 H
   0.1893400000000000    0.8476800000000000    0.8787600000000000 H
   0.4393450000000000    0.3476900000000000    0.8787600000000000 H
   0.4393450000000000    0.8476800000000000    0.8787600000000000 H
   0.0172300000000000    0.1846200000000000    0.8440099999999999 H
   0.0172300000000000    0.6846100000000001    0.8440099999999999 H
   0.2672350000000000    0.1846200000000000    0.8440099999999999 H
   0.2672350000000000    0.6846100000000001    0.8440099999999999 H
   0.0606650000000000    0.1522900000000000    0.6287800000000000 H
   0.0606650000000000    0.6522800000000000    0.6287800000000000 H
   0.3106700000000000    0.1522900000000000    0.6287800000000000 H
   0.3106700000000000    0.6522800000000000    0.6287800000000000 H
   0.2327750000000000    0.3153500000000000    0.5940200000000000 H
   0.2327750000000000    0.8153500000000000    0.5940200000000000 H
   0.4827800000000000    0.3153600000000000    0.5940200000000000 H
   0.4827800000000000    0.8153500000000000    0.5940200000000000 H
   0.1444850000000000    0.2114300000000000    0.7421750000000000 H
   0.1444900000000000    0.7114200000000001    0.7421750000000000 H
   0.3944900000000000    0.2114300000000000    0.7421750000000000 H
   0.3944950000000000    0.7114200000000001    0.7421750000000000 H
   0.2241550000000000    0.0513300000000000    0.7771800000000000 H
   0.2241550000000000    0.5513200000000000    0.7771800000000000 H
   0.4741600000000000    0.0513300000000000    0.7771800000000000 H
   0.4741600000000000    0.5513200000000000    0.7771800000000000 H
   0.1055200000000000    0.2885400000000000    0.9921599999999999 H
   0.1055200000000000    0.7885300000000000    0.9921599999999999 H
   0.3555250000000000    0.2885400000000000    0.9921599999999999 H
   0.3555250000000000    0.7885300000000000    0.9921599999999999 H
   0.0258500000000000    0.4486400000000000    0.5271749999999999 H
   0.0258500000000000    0.9486300000000000    0.5271749999999999 H
   0.2758550000000000    0.4486400000000000    0.5271749999999999 H
   0.2758550000000000    0.9486300000000000    0.5271749999999999 H
   0.6737649999999999    0.3783200000000000    0.6288050000000001 H
   0.6737649999999999    0.8783100000000000    0.6288000000000000 H
   0.9237700000000000    0.3783200000000000    0.6288050000000001 H
   0.9237700000000000    0.8783100000000000    0.6288050000000001 H
   0.5924500000000000    0.0345100000000000    0.5939600000000000 H
   0.5924550000000000    0.5345000000000000    0.5939600000000000 H
   0.8424550000000000    0.0345100000000000    0.5939600000000000 H
   0.8424600000000000    0.5345000000000000    0.5939600000000000 H
   0.5762350000000001    0.1216500000000000    0.8787849999999999 H
   0.5762350000000001    0.6216400000000000    0.8787849999999999 H
   0.8262400000000000    0.1216500000000000    0.8787849999999999 H
   0.8262400000000000    0.6216400000000000    0.8787849999999999 H
   0.6575500000000000    0.4654700000000000    0.8439449999999999 H
   0.6575550000000000    0.9654600000000000    0.8439449999999999 H
   0.9075550000000000    0.4654700000000000    0.8439449999999999 H
   0.9075599999999999    0.9654600000000000    0.8439449999999999 H
   0.6893400000000001    0.3476900000000000    0.8787600000000000 H
   0.6893400000000001    0.8476800000000000    0.8787600000000000 H
   0.9393450000000000    0.3476900000000000    0.8787600000000000 H
   0.9393450000000000    0.8476800000000000    0.8787600000000000 H
   0.5172300000000000    0.1846200000000000    0.8440099999999999 H
   0.5172300000000000    0.6846100000000001    0.8440099999999999 H
   0.7672350000000000    0.1846200000000000    0.8440099999999999 H
   0.7672350000000000    0.6846100000000001    0.8440099999999999 H
   0.5606650000000000    0.1522900000000000    0.6287800000000000 H
   0.5606650000000000    0.6522800000000000    0.6287800000000000 H
   0.8106700000000000    0.1522900000000000    0.6287800000000000 H
   0.8106700000000000    0.6522800000000000    0.6287800000000000 H
   0.7327750000000000    0.3153500000000000    0.5940200000000000 H
   0.7327750000000000    0.8153500000000000    0.5940200000000000 H
   0.9827800000000000    0.3153600000000000    0.5940200000000000 H
   0.9827800000000000    0.8153500000000000    0.5940200000000000 H
   0.6444850000000000    0.2114300000000000    0.7421750000000000 H
   0.6444900000000000    0.7114200000000001    0.7421750000000000 H
   0.8944900000000000    0.2114300000000000    0.7421750000000000 H
   0.8944950000000000    0.7114200000000001    0.7421750000000000 H
   0.7241550000000000    0.0513300000000000    0.7771800000000000 H
   0.7241550000000000    0.5513200000000000    0.7771800000000000 H
   0.9741600000000000    0.0513300000000000    0.7771800000000000 H
   0.9741600000000000    0.5513200000000000    0.7771800000000000 H
   0.6055200000000001    0.2885400000000000    0.9921599999999999 H
   0.6055200000000001    0.7885300000000000    0.9921599999999999 H
   0.8555250000000000    0.2885400000000000    0.9921599999999999 H
   0.8555250000000000    0.7885300000000000    0.9921599999999999 H
   0.5258500000000000    0.4486400000000000    0.5271749999999999 H
   0.5258500000000000    0.9486300000000000    0.5271749999999999 H
   0.7758550000000000    0.4486400000000000    0.5271749999999999 H
   0.7758550000000000    0.9486300000000000    0.5271749999999999 H
   0.1598050000000000    0.4309300000000000    0.1225200000000000 C
   0.1598050000000000    0.9309200000000000    0.1225200000000000 C
   0.4098100000000000    0.4309300000000000    0.1225200000000000 C
   0.4098100000000000    0.9309200000000000    0.1225200000000000 C
   0.1184200000000000    0.0102500000000000    0.1051100000000000 C
   0.1184200000000000    0.5102400000000000    0.1051100000000000 C
   0.3684250000000000    0.0102500000000000    0.1051100000000000 C
   0.3684250000000000    0.5102400000000000    0.1051100000000000 C
   0.0901950000000000    0.0690400000000000    0.3725050000000000 C
   0.0901950000000000    0.5690300000000000    0.3725050000000000 C
   0.3402000000000000    0.0690400000000000    0.3725050000000000 C
   0.3402000000000000    0.5690300000000000    0.3725050000000000 C
   0.1315850000000000    0.4897300000000000    0.3550950000000000 C
   0.1315850000000000    0.9897200000000000    0.3550950000000000 C
   0.3815900000000000    0.4897300000000000    0.3550950000000000 C
   0.3815900000000000    0.9897200000000000    0.3550950000000000 C
   0.2156000000000000    0.3196400000000000    0.3724500000000000 C
   0.2156050000000000    0.8196300000000000    0.3724500000000000 C
   0.4656050000000000    0.3196400000000000    0.3724500000000000 C
   0.4656100000000000    0.8196300000000000    0.3724900000000000 C
   0.0051550000000000    0.2366500000000000    0.3551000000000000 C
   0.0051550000000000    0.7366400000000000    0.3551000000000000 C
   0.2551600000000000    0.2366500000000000    0.3551400000000000 C
   0.2551600000000000    0.7366400000000000    0.3551000000000000 C
   0.0344050000000000    0.1803400000000000    0.1225100000000000 C
   0.0344050000000000    0.6803300000000000    0.1225100000000000 C
   0.2844050000000000    0.1803400000000000    0.1225100000000000 C
   0.2844100000000000    0.6803300000000000    0.1225100000000000 C
   0.2448500000000000    0.2633200000000000    0.1051500000000000 C
   0.2448500000000000    0.7633200000000000    0.1051500000000000 C
   0.4948550000000000    0.2633300000000000    0.1051500000000000 C
   0.4948550000000000    0.7633200000000000    0.1051500000000000 C
   0.1658100000000000    0.1686000000000000    0.2409700000000000 C
   0.1658100000000000    0.6685900000000000    0.2409700000000000 C
   0.4158150000000000    0.1686000000000000    0.2409700000000000 C
   0.4158150000000000    0.6685900000000000    0.2409700000000000 C
   0.2061800000000000    0.0874700000000000    0.2588200000000000 C
   0.2061800000000000    0.5874600000000000    0.2588200000000000 C
   0.4561850000000000    0.0874700000000000    0.2588200000000000 C
   0.4561850000000000    0.5874600000000000    0.2588200000000000 C
   0.0841950000000000    0.3313700000000000    0.4909550000000000 C
   0.0842000000000000    0.8313600000000000    0.4909550000000000 C
   0.3342000000000000    0.3313700000000000    0.4909550000000000 C
   0.3342050000000000    0.8313600000000000    0.4909550000000000 C
   0.0438250000000000    0.4125000000000000    0.0088000000000000 C
   0.0438250000000000    0.9124900000000000    0.0088000000000000 C
   0.2938300000000000    0.4125000000000000    0.0088000000000000 C
   0.2938300000000000    0.9124900000000000    0.0088000000000000 C
   0.6598050000000000    0.4309300000000000    0.1225200000000000 C
   0.6598050000000000    0.9309200000000000    0.1225200000000000 C
   0.9098100000000000    0.4309300000000000    0.1225200000000000 C
   0.9098100000000000    0.9309200000000000    0.1225200000000000 C
   0.6184200000000000    0.0102500000000000    0.1051100000000000 C
   0.6184200000000000    0.5102400000000000    0.1051100000000000 C
   0.8684250000000000    0.0102500000000000    0.1051100000000000 C
   0.8684250000000000    0.5102400000000000    0.1051100000000000 C
   0.5901950000000000    0.0690400000000000    0.3725050000000000 C
   0.8402000000000001    0.0690400000000000    0.3725050000000000 C
   0.8402000000000001    0.5690300000000000    0.3725050000000000 C
   0.6315850000000001    0.9897200000000000    0.3550950000000000 C
   0.8815900000000000    0.4897300000000000    0.3550950000000000 C
   0.8815900000000000    0.9897200000000000    0.3550950000000000 C
   0.7156000000000000    0.3196400000000000    0.3724500000000000 C
   0.7156050000000000    0.8196300000000000    0.3724500000000000 C
   0.9656050000000000    0.3196400000000000    0.3724500000000000 C
   0.9656100000000001    0.8196300000000000    0.3724900000000000 C
   0.5051550000000000    0.2366500000000000    0.3551000000000000 C
   0.5051550000000000    0.7366400000000000    0.3551000000000000 C
   0.7551600000000001    0.2366500000000000    0.3551400000000000 C
   0.7551600000000001    0.7366400000000000    0.3551000000000000 C
   0.5344050000000000    0.1803400000000000    0.1225100000000000 C
   0.5344050000000000    0.6803300000000000    0.1225100000000000 C
   0.7844050000000000    0.1803400000000000    0.1225100000000000 C
   0.7844100000000001    0.6803300000000000    0.1225100000000000 C
   0.7448500000000000    0.2633200000000000    0.1051500000000000 C
   0.7448500000000000    0.7633200000000000    0.1051500000000000 C
   0.9948550000000000    0.2633300000000000    0.1051500000000000 C
   0.9948550000000000    0.7633200000000000    0.1051500000000000 C
   0.6658100000000000    0.1686000000000000    0.2409700000000000 C
   0.6658100000000000    0.6685900000000000    0.2409700000000000 C
   0.9158150000000000    0.1686000000000000    0.2409700000000000 C
   0.9158150000000000    0.6685900000000000    0.2409700000000000 C
   0.7061800000000000    0.0874700000000000    0.2588200000000000 C
   0.7061800000000000    0.5874600000000000    0.2588200000000000 C
   0.9561850000000001    0.0874700000000000    0.2588200000000000 C
   0.9561850000000001    0.5874600000000000    0.2588200000000000 C
   0.5841950000000000    0.3313700000000000    0.4909550000000000 C
   0.5842000000000001    0.8313600000000000    0.4909550000000000 C
   0.8342000000000001    0.3313700000000000    0.4909550000000000 C
   0.8342050000000000    0.8313600000000000    0.4909550000000000 C
   0.5438250000000000    0.4125000000000000    0.0088000000000000 C
   0.5438250000000000    0.9124900000000000    0.0088000000000000 C
   0.7938300000000000    0.4125000000000000    0.0088000000000000 C
   0.7938300000000000    0.9124900000000000    0.0088000000000000 C
   0.1598050000000000    0.4309300000000000    0.6225200000000000 C
   0.1598050000000000    0.9309200000000000    0.6225200000000000 C
   0.4098100000000000    0.4309300000000000    0.6225200000000000 C
   0.4098100000000000    0.9309200000000000    0.6225200000000000 C
   0.1184200000000000    0.0102500000000000    0.6051100000000000 C
   0.1184200000000000    0.5102400000000000    0.6051100000000000 C
   0.3684250000000000    0.0102500000000000    0.6051100000000000 C
   0.3684250000000000    0.5102400000000000    0.6051100000000000 C
   0.0901950000000000    0.0690400000000000    0.8725050000000000 C
   0.0901950000000000    0.5690300000000000    0.8725050000000000 C
   0.3402000000000000    0.0690400000000000    0.8725050000000000 C
   0.3402000000000000    0.5690300000000000    0.8725050000000000 C
   0.1315850000000000    0.4897300000000000    0.8550949999999999 C
   0.1315850000000000    0.9897200000000000    0.8550949999999999 C
   0.3815900000000000    0.4897300000000000    0.8550949999999999 C
   0.3815900000000000    0.9897200000000000    0.8550949999999999 C
   0.2156000000000000    0.3196400000000000    0.8724499999999999 C
   0.2156050000000000    0.8196300000000000    0.8724499999999999 C
   0.4656050000000000    0.3196400000000000    0.8724499999999999 C
   0.4656100000000000    0.8196300000000000    0.8724900000000000 C
   0.0051550000000000    0.2366500000000000    0.8551000000000000 C
   0.0051550000000000    0.7366400000000000    0.8551000000000000 C
   0.2551600000000000    0.2366500000000000    0.8551400000000000 C
   0.2551600000000000    0.7366400000000000    0.8551000000000000 C
   0.0344050000000000    0.1803400000000000    0.6225100000000000 C
   0.0344050000000000    0.6803300000000000    0.6225100000000000 C
   0.2844050000000000    0.1803400000000000    0.6225100000000000 C
   0.2844100000000000    0.6803300000000000    0.6225100000000000 C
   0.2448500000000000    0.2633200000000000    0.6051500000000000 C
   0.2448500000000000    0.7633200000000000    0.6051500000000000 C
   0.4948550000000000    0.2633300000000000    0.6051500000000000 C
   0.4948550000000000    0.7633200000000000    0.6051500000000000 C
   0.1658100000000000    0.1686000000000000    0.7409700000000000 C
   0.1658100000000000    0.6685900000000000    0.7409700000000000 C
   0.4158150000000000    0.1686000000000000    0.7409700000000000 C
   0.4158150000000000    0.6685900000000000    0.7409700000000000 C
   0.2061800000000000    0.0874700000000000    0.7588200000000001 C
   0.2061800000000000    0.5874600000000000    0.7588200000000001 C
   0.4561850000000000    0.0874700000000000    0.7588200000000001 C
   0.4561850000000000    0.5874600000000000    0.7588200000000001 C
   0.0841950000000000    0.3313700000000000    0.9909550000000000 C
   0.0842000000000000    0.8313600000000000    0.9909550000000000 C
   0.3342000000000000    0.3313700000000000    0.9909550000000000 C
   0.3342050000000000    0.8313600000000000    0.9909550000000000 C
   0.0438250000000000    0.4125000000000000    0.5088000000000000 C
   0.0438250000000000    0.9124900000000000    0.5088000000000000 C
   0.2938300000000000    0.4125000000000000    0.5088000000000000 C
   0.2938300000000000    0.9124900000000000    0.5088000000000000 C
   0.6598050000000000    0.4309300000000000    0.6225200000000000 C
   0.6598050000000000    0.9309200000000000    0.6225200000000000 C
   0.9098100000000000    0.4309300000000000    0.6225200000000000 C
   0.9098100000000000    0.9309200000000000    0.6225200000000000 C
   0.6184200000000000    0.0102500000000000    0.6051100000000000 C
   0.6184200000000000    0.5102400000000000    0.6051100000000000 C
   0.8684250000000000    0.0102500000000000    0.6051100000000000 C