H6 O4
1.0
  15.9944807576706971    0.0000000000000000    9.2247428848993795
   5.3209182223000813   15.0713464563093140    9.2285579190623075
   0.0000000000000000    0.0000000000000000   18.4540000000000006
H O
6 4
direct
   0.2915673377459940   -0.0877858526375503    0.2920982265904207 H
   0.2918696280544749    0.1244971197988636    0.2919190219562940 H
   0.2994622678853208    0.0106684555700181    0.2997718346141386 H
   0.5183321656770922    0.6861956691181611    0.5178270740819356 H
   0.5181642668586288    0.8983323270107988    0.5182952700687831 H
   0.5104723809109584    0.8002302689600574    0.5102772137621804 H
   0.2717800000000000   -0.0235100000000000    0.2721600000000000 O
   0.2719800000000000    0.0999400000000000    0.2720800000000000 O
   0.5382100000000000    0.7105800000000000    0.5378600000000000 O
   0.5380500000000000    0.8340600000000000    0.5380700000000000 O
