H4 C8 O4
1.0
  15.9944807576706971    0.0000000000000000    9.2247428848993795
   5.3209182223000813   15.0713464563093140    9.2285579190623075
   0.0000000000000000    0.0000000000000000   18.4540000000000006
H C O
4 8 4
direct
   0.3567400000000000    0.0694800000000000    0.3574800000000000 H
   0.4523700000000000    0.9742200000000000    0.4530200000000000 H
   0.3572300000000000    0.8367400000000000    0.3567900000000000 H
   0.4534600000000000    0.7408300000000000    0.4528200000000000 H
   0.2939300000000000    0.0161500000000000    0.2941600000000000 C
   0.3512900000000000    0.9587599999999999    0.3514600000000000 C
   0.3780400000000000    0.9976200000000000    0.3784900000000000 C
   0.4313600000000000    0.9445100000000000    0.4317400000000000 C
   0.3785100000000000    0.8659900000000000    0.3782900000000000 C
   0.4318200000000000    0.8128700000000000    0.4315000000000000 C
   0.4586300000000000    0.8517500000000000    0.4586200000000000 C
   0.5159700000000000    0.7944500000000000    0.5158700000000001 C
   0.5380500000000000    0.8340600000000000    0.5380700000000000 O
   0.5382100000000000    0.7105800000000000    0.5378600000000000 O
   0.2719800000000000    0.0999400000000000    0.2720800000000000 O
   0.2717800000000000   -0.0235100000000000    0.2721600000000000 O
