Zn16 H44 C88 O48
1.0
  15.9944807576706971    0.0000000000000000    9.2247428848993795
   5.3209182223000813   15.0713464563093140    9.2285579190623075
   0.0000000000000000    0.0000000000000000   18.4540000000000006
Zn H C O
16 44 88 48
direct
   0.1985100000000000    0.0243300000000000    0.1985500000000000 Zn
   0.6115000000000000    0.6115100000000000    0.7853700000000000 Zn
   0.1985200000000000    0.1985400000000000    0.0243100000000000 Zn
   0.7852000000000000    0.6115400000000000    0.6115400000000000 Zn
   0.0245100000000000    0.1985400000000000    0.1985500000000000 Zn
   0.6114300000000000    0.6112700000000000    0.6112600000000000 Zn
   0.1985500000000000    0.1986100000000000    0.1986200000000000 Zn
   0.2147400000000000    0.3884700000000000    0.3884000000000000 Zn
   0.9754300000000000    0.8014700000000000    0.8014600000000000 Zn
   0.3884400000000000    0.3885000000000000    0.2146400000000000 Zn
   0.8014200000000000    0.8014700000000000    0.9757100000000000 Zn
   0.3884200000000000    0.2146700000000000    0.3885000000000000 Zn
   0.8014300000000000    0.9756700000000000    0.8014700000000000 Zn
   0.3885100000000000    0.3887400000000000    0.3887600000000000 Zn
   0.8014000000000000    0.8014000000000000    0.8014000000000000 Zn
   0.6115200000000000    0.7853400000000000    0.6115200000000000 Zn
   0.3595400000000000    0.8365300000000000    0.0694100000000000 H
   0.4550900000000000    0.7406800000000000    0.9737000000000000 H
   0.0692400000000000    0.3592600000000000    0.8365200000000000 H
   0.9734100000000000    0.4548400000000000    0.7407000000000000 H
   0.8366900000000000    0.0694000000000000    0.3598400000000000 H
   0.7407800000000000    0.9736800000000000    0.4553700000000000 H
   0.8366900000000000    0.3598500000000000    0.0694000000000000 H
   0.7407700000000000    0.4553900000000000    0.9737500000000000 H
   0.3595100000000000    0.0693700000000000    0.8365200000000000 H
   0.4550600000000000    0.9736399999999999    0.7406700000000001 H
   0.0692500000000000    0.8365400000000000    0.3593000000000000 H
   0.9734400000000000    0.7407000000000000    0.4548700000000000 H
   0.3567300000000000    0.3574300000000000    0.0694900000000000 H
   0.4523700000000000    0.4529700000000000    0.9742600000000000 H
   0.3572200000000000    0.3568200000000000    0.8367000000000000 H
   0.4534500000000000    0.4528600000000000    0.7408100000000000 H
   0.0695000000000000    0.3571800000000000    0.3572500000000000 H
   0.9741500000000000    0.4527600000000000    0.4528200000000000 H
   0.8370400000000000    0.3569300000000000    0.3569000000000000 H
   0.7410700000000000    0.4530500000000000    0.4530000000000000 H
   0.1632500000000000    0.6401500000000000    0.9305800000000000 H
   0.2591700000000000    0.5446100000000000    0.0262700000000000 H
   0.6404300000000001    0.9306300000000000    0.1635000000000000 H
   0.5448900000000000    0.0263700000000000    0.2593000000000000 H
   0.9307000000000000    0.1634700000000000    0.6407000000000000 H
   0.0265000000000000    0.2593000000000000    0.5451500000000000 H
   0.6404000000000000    0.1634800000000000    0.9306100000000000 H
   0.5448600000000000    0.2593300000000000    0.0263200000000000 H
   0.9307000000000000    0.6407500000000000    0.1635000000000000 H
   0.0265300000000000    0.5451700000000000    0.2593200000000000 H
   0.1632500000000000    0.9306100000000000    0.6401800000000000 H
   0.2591600000000000    0.0263200000000000    0.5446500000000000 H
   0.9304400000000000    0.6428199999999999    0.6427700000000000 H
   0.0257900000000000    0.5472399999999999    0.5472000000000000 H
   0.1629100000000000    0.6430700000000000    0.6431200000000000 H
   0.2588700000000000    0.5469500000000000    0.5470200000000000 H
   0.6432099999999999    0.6425800000000000    0.9305300000000000 H
   0.5475600000000000    0.5470400000000000    0.0257600000000000 H
   0.6427200000000000    0.6431800000000000    0.1633200000000000 H
   0.5464900000000000    0.5471500000000000    0.2592100000000000 H
   0.6432099999999999    0.9305300000000000    0.6425400000000000 H
   0.5475700000000000    0.0257900000000000    0.5470000000000000 H
   0.6427100000000000    0.1632600000000000    0.6432300000000000 H
   0.5464800000000000    0.2591700000000000    0.5472000000000000 H
   0.3808200000000000    0.8658600000000000    0.9974000000000000 C
   0.4339100000000000    0.8126000000000000    0.9441600000000000 C
   0.9972600000000000    0.3807000000000000    0.8658000000000000 C
   0.9439800000000000    0.4337900000000000    0.8126400000000000 C
   0.8659300000000000    0.9973900000000000    0.3810200000000000 C
   0.8126400000000000    0.9441600000000000    0.4340900000000000 C
   0.8659300000000000    0.3810300000000000    0.9974300000000000 C
   0.8126400000000000    0.4341000000000000    0.9442000000000000 C
   0.3808100000000000    0.9973600000000000    0.8658600000000000 C
   0.4338900000000000    0.9441200000000000    0.8126100000000001 C
   0.9972600000000000    0.8658700000000000    0.3807300000000000 C
   0.9440000000000000    0.8126300000000000    0.4338100000000000 C
   0.2939300000000000    0.2941500000000000    0.0161300000000000 C
   0.3512900000000000    0.3514600000000000    0.9587500000000000 C
   0.3780500000000000    0.3784600000000000    0.9976300000000000 C
   0.4313600000000000    0.4317100000000000    0.9445300000000000 C
   0.3785000000000000    0.3783100000000000    0.8659700000000000 C
   0.4318200000000000    0.4315200000000000    0.8128500000000000 C
   0.4586200000000000    0.4586200000000000    0.8517600000000000 C
   0.5159600000000000    0.5158800000000000    0.7944600000000001 C
   0.0163200000000000    0.2940600000000000    0.2940800000000000 C
   0.9589000000000000    0.3513800000000000    0.3513900000000000 C
   0.9976600000000000    0.3783100000000000    0.3783500000000000 C
   0.9445200000000000    0.4315800000000000    0.4316200000000000 C
   0.8662100000000000    0.3783600000000000    0.3783400000000000 C
   0.8130500000000001    0.4316100000000000    0.4315900000000000 C
   0.8518400000000000    0.4586100000000000    0.4586200000000000 C
   0.7945100000000000    0.5158900000000000    0.5159000000000000 C
   0.2954700000000000    0.0159300000000000    0.0159300000000000 C
   0.3536900000000000    0.9586100000000000    0.9586300000000000 C
   0.4607500000000000    0.8513500000000001    0.8513800000000000 C
   0.5173000000000000    0.7941200000000000    0.7941500000000000 C
   0.0159900000000000    0.2954600000000000    0.0159300000000000 C
   0.9586100000000000    0.3537300000000000    0.9586400000000000 C
   0.8512800000000000    0.4607800000000000    0.8514200000000000 C
   0.7940300000000000    0.5173200000000000    0.7942000000000000 C
   0.0159900000000000    0.0159400000000000    0.2954800000000000 C
   0.9586100000000000    0.9586300000000000    0.3537400000000000 C
   0.8512999999999999    0.8513900000000000    0.4607800000000000 C
   0.7940500000000000    0.7941600000000000    0.5173000000000000 C
   0.1340100000000000    0.6189800000000000    0.0025900000000000 C
   0.1873000000000000    0.5659000000000000    0.0558000000000000 C
   0.6191400000000000    0.0026400000000000    0.1341600000000000 C
   0.5660500000000001    0.0558900000000000    0.1874100000000000 C
   0.0026800000000000    0.1341300000000000    0.6192900000000000 C
   0.0559400000000000    0.1873800000000000    0.5662100000000000 C
   0.6191200000000000    0.1341500000000000    0.0026200000000000 C
   0.5660300000000000    0.1874100000000000    0.0558000000000000 C
   0.0026800000000000    0.6193100000000000    0.1341400000000000 C
   0.0559600000000000    0.5662199999999999    0.1873800000000000 C
   0.1340100000000000    0.0026100000000000    0.6190000000000000 C
   0.1873000000000000    0.0558500000000000    0.5659300000000000 C
   0.9836200000000000    0.7059500000000000    0.7059400000000000 C
   0.0410400000000000    0.6486200000000000    0.6486200000000000 C
   0.0022800000000000    0.6216900000000000    0.6216699999999999 C
   0.0554200000000000    0.5684200000000000    0.5684000000000000 C
   0.1337300000000000    0.6216500000000000    0.6216800000000000 C
   0.1868900000000000    0.5684000000000000    0.5684000000000000 C
   0.1481100000000000    0.5414000000000000    0.5414000000000000 C
   0.2054300000000000    0.4841200000000000    0.4841200000000000 C
   0.7060200000000000    0.7058500000000000    0.9838900000000000 C
   0.6486499999999999    0.6485500000000000    0.0412700000000000 C
   0.6218900000000001    0.6215500000000000    0.0023900000000000 C
   0.5685800000000000    0.5683000000000000    0.0554900000000000 C
   0.6214400000000000    0.6217000000000000    0.1340500000000000 C
   0.5681300000000000    0.5684900000000001    0.1871700000000000 C
   0.5413200000000000    0.5413900000000000    0.1482600000000000 C
   0.4839800000000000    0.4841300000000000    0.2055000000000000 C
   0.7060100000000000    0.9838600000000000    0.7058600000000000 C
   0.6486499999999999    0.0412500000000000    0.6485600000000000 C
   0.6219000000000000    0.0023900000000000    0.6215300000000000 C
   0.5685800000000000    0.0555000000000000    0.5682800000000000 C
   0.6214300000000000    0.1340100000000000    0.6217300000000000 C
   0.5681200000000000    0.1871400000000000    0.5685200000000000 C
   0.5413100000000000    0.1482500000000000    0.5414000000000000 C
   0.4839700000000000    0.2055500000000000    0.4841500000000000 C
   0.9839500000000000    0.7045500000000000    0.9840000000000000 C
   0.0413300000000000    0.6462800000000000    0.0413800000000000 C
   0.1486600000000000    0.5392200000000000    0.1486000000000000 C
   0.2059100000000000    0.4826900000000000    0.2058200000000000 C
   0.7044700000000000    0.9840800000000000    0.9840900000000000 C
   0.6462599999999999    0.0413900000000000    0.0413900000000000 C
   0.5391899999999999    0.1486600000000000    0.1486400000000000 C
   0.4826400000000000    0.2058900000000000    0.2058700000000000 C
   0.9839599999999999    0.9840700000000000    0.7045400000000001 C
   0.0413300000000000    0.0413800000000000    0.6462800000000000 C
   0.1486400000000000    0.1486200000000000    0.5392400000000001 C
   0.2058900000000000    0.2058400000000000    0.4827000000000000 C
   0.2892300000000000    0.4620200000000000    0.4620000000000000 O
   0.8998900000000000    0.7279500000000000    0.7279400000000000 O
   0.0232600000000000    0.7280600000000000    0.7280200000000000 O
   0.4618900000000000    0.4619600000000000    0.1659300000000000 O
   0.5392100000000000    0.8335600000000000    0.7101900000000000 O
   0.2729200000000000    0.9762900000000000    0.0997800000000000 O
   0.7101400000000000    0.5392500000000000    0.8336400000000000 O
   0.0997500000000000    0.2727600000000000    0.9762900000000000 O
   0.8334300000000000    0.7102200000000000    0.5392000000000000 O
   0.9764000000000000    0.0997700000000000    0.2730200000000000 O
   0.8334100000000000    0.5391700000000000    0.7102400000000000 O
   0.9764100000000000    0.2730200000000000    0.0997800000000000 O
   0.5391800000000000    0.7101600000000000    0.8336100000000000 O
   0.2729400000000000    0.0997700000000000    0.9760000000000000 O
   0.7101700000000000    0.8335900000000001    0.5392400000000001 O
   0.0997400000000000    0.9762999999999999    0.2728100000000000 O
   0.5380500000000000    0.5380400000000000    0.8340900000000000 O
   0.5382000000000000    0.5378700000000000    0.7105800000000000 O
   0.2719700000000000    0.2720700000000000    0.0999300000000000 O
   0.2717700000000000    0.2721700000000000    0.9764800000000000 O
   0.8340500000000000    0.5380900000000000    0.5380600000000000 O
   0.7107100000000000    0.5379800000000000    0.5379600000000000 O
   0.1000500000000000    0.2720600000000000    0.2720800000000000 O
   0.9766800000000000    0.2719400000000000    0.2720000000000000 O
   0.1665300000000000    0.4608300000000000    0.2897800000000000 O
   0.0235300000000000    0.7269800000000000    0.9002000000000000 O
   0.4607600000000000    0.2898400000000000    0.1664100000000000 O
   0.7270000000000000    0.9002300000000000    0.0237200000000000 O
   0.2897800000000000    0.1664200000000000    0.4607800000000000 O
   0.9002000000000000    0.0237000000000000    0.7272000000000000 O
   0.4607300000000000    0.1664400000000000    0.2898300000000000 O
   0.7270300000000000    0.0237100000000000    0.9002000000000000 O
   0.2898000000000000    0.4607500000000000    0.1663800000000000 O
   0.9001900000000000    0.7272400000000000    0.0237300000000000 O
   0.1665100000000000    0.2897900000000000    0.4608200000000000 O
   0.0235400000000000    0.9002300000000000    0.7270000000000000 O
   0.1659000000000000    0.4619200000000000    0.4619600000000000 O
   0.4617400000000000    0.4621300000000000    0.2894400000000000 O
   0.7279700000000000    0.7279400000000000    0.9000899999999999 O
   0.7281700000000000    0.7278400000000000    0.0235400000000000 O
   0.4619000000000000    0.1659400000000000    0.4619500000000000 O
   0.4617200000000000    0.2894200000000000    0.4621700000000000 O
   0.7279700000000000    0.9000700000000000    0.7279300000000000 O
   0.7281600000000000    0.0235100000000000    0.7278600000000000 O
   0.6548200000000000    0.6548500000000000    0.6548600000000000 O
   0.1550700000000000    0.1550000000000000    0.1550000000000000 O
   0.3451300000000000    0.3451600000000000    0.3451500000000000 O
   0.8448700000000000    0.8450000000000000    0.8450200000000000 O
