H6 O4
1.0
  15.8409998817766073    0.0000000000000000    0.0019353432428473
   0.0338544169035955   32.3279818747112344   -0.0050780703443790
   0.0000000000000000    0.0000000000000000   22.8380000000000010
H O
6 4
direct
   0.7466321166018418    0.8313530274090650    0.1867220818239860 H
   0.9193718142367993    0.7430693292834313    0.1601162195298450 H
   0.8389243486013046    0.7882350752089168    0.1685060969391088 H
   0.2556297927905376    0.8292379306991425    0.8054161353040435 H
   0.0772143098573435    0.7429658355565094    0.8197743590631085 H
   0.1577688471549351    0.7867064419831001    0.8167966902414496 H
   0.7723900000000000    0.8048999999999999    0.1958800000000000 O
   0.8711400000000000    0.7551500000000000    0.1799600000000000 O
   0.2327900000000000    0.8022850000000000    0.7956100000000000 O
   0.1299900000000000    0.7539250000000000    0.8048700000000000 O
