Zn120 H290 C568 O288
1.0
  38.3060610799722951    0.0000000000000000   -3.4038997543159151
  -0.0572920968895686   28.5138712878368601    0.0637008344260142
   0.0000000000000000    0.0000000000000000   20.1720000000000006
Zn H C O
120 290 568 288
direct
   0.8354766666666666    0.8474150000000000    0.5607700000000000 Zn
   0.6638066666666667    0.1525650000000000    0.4393200000000000 Zn
   0.9172100000000000    0.8023950000000000    0.5441800000000000 Zn
   0.5820833333333333    0.1975850000000000    0.4558500000000000 Zn
   0.6683666666666667    0.8476550000000000    0.5610200000000000 Zn
   0.4975966666666666    0.1523500000000000    0.4390300000000000 Zn
   0.7508333333333332    0.8025550000000000    0.5441900000000000 Zn
   0.4151300000000000    0.1974300000000000    0.4558000000000000 Zn
   0.1688100000000000    0.8474150000000000    0.5607700000000000 Zn
   0.9971399999999999    0.1525650000000000    0.4393200000000000 Zn
   0.2505433333333333    0.8023950000000000    0.5441800000000000 Zn
   0.9154166666666665    0.1975850000000000    0.4558500000000000 Zn
   0.0017000000000000    0.8476550000000000    0.5610200000000000 Zn
   0.8309299999999999    0.1523500000000000    0.4390300000000000 Zn
   0.0841666666666667    0.8025550000000000    0.5441900000000000 Zn
   0.7484633333333333    0.1974300000000000    0.4558000000000000 Zn
   0.5021433333333334    0.8474150000000000    0.5607700000000000 Zn
   0.3304733333333333    0.1525650000000000    0.4393200000000000 Zn
   0.5838766666666666    0.8023950000000000    0.5441800000000000 Zn
   0.2487500000000000    0.1975850000000000    0.4558500000000000 Zn
   0.3350333333333333    0.8476550000000000    0.5610200000000000 Zn
   0.1642633333333333    0.1523500000000000    0.4390300000000000 Zn
   0.4175000000000000    0.8025550000000000    0.5441900000000000 Zn
   0.0817966666666667    0.1974300000000000    0.4558000000000000 Zn
   0.1662400000000000    0.9999950000000000    0.9999700000000000 Zn
   0.4995733333333333    0.9999950000000000    0.9999700000000000 Zn
   0.8329066666666667    0.9999950000000000    0.9999700000000000 Zn
   0.6666233333333333    0.9999850000000000    0.9999300000000000 Zn
   0.9999566666666666    0.9999850000000000    0.9999300000000000 Zn
   0.3332900000000000    0.9999850000000000    0.9999300000000000 Zn
   0.3349933333333333    0.9031000000000000    0.0612100000000000 Zn
   0.1644600000000000    0.5969000000000000    0.9386800000000000 Zn
   0.0825000000000000    0.5518600000000000    0.9556800000000000 Zn
   0.4175433333333333    0.9480150000000001    0.0443600000000000 Zn
   0.5823066666666666    0.5519000000000001    0.9556000000000000 Zn
   0.6648933333333333    0.5969100000000001    0.9387700000000000 Zn
   0.8354699999999999    0.9031350000000000    0.0611800000000000 Zn
   0.9172866666666666    0.9482100000000000    0.0442500000000000 Zn
   0.3315600000000000    0.5969100000000001    0.9387700000000000 Zn
   0.5021366666666667    0.9031350000000000    0.0611800000000000 Zn
   0.6683266666666666    0.9031000000000000    0.0612100000000000 Zn
   0.4977933333333333    0.5969000000000000    0.9386800000000000 Zn
   0.5839533333333333    0.9482100000000000    0.0442500000000000 Zn
   0.2489733333333333    0.5519000000000001    0.9556000000000000 Zn
   0.4158333333333333    0.5518600000000000    0.9556800000000000 Zn
   0.7508766666666666    0.9480150000000001    0.0443600000000000 Zn
   0.9982266666666666    0.5969100000000001    0.9387700000000000 Zn
   0.1688033333333333    0.9031350000000000    0.0611800000000000 Zn
   0.2506200000000000    0.9482100000000000    0.0442500000000000 Zn
   0.9156400000000000    0.5519000000000001    0.9556000000000000 Zn
   0.0016600000000000    0.9031000000000000    0.0612100000000000 Zn
   0.8311266666666666    0.5969000000000000    0.9386800000000000 Zn
   0.7491666666666666    0.5518600000000000    0.9556800000000000 Zn
   0.0842100000000000    0.9480150000000001    0.0443600000000000 Zn
   0.3332666666666667    0.7505100000000000    0.4999600000000000 Zn
   0.6666000000000000    0.7505100000000000    0.4999600000000000 Zn
   0.9999333333333333    0.7505100000000000    0.4999600000000000 Zn
   0.8326899999999999    0.7494300000000000    0.5001700000000000 Zn
   0.4993566666666667    0.7494300000000000    0.5001700000000000 Zn
   0.1660233333333333    0.7494300000000000    0.5001700000000000 Zn
   0.9982266666666666    0.0969100000000000    0.9387700000000000 Zn
   0.1688033333333333    0.4031350000000000    0.0611800000000000 Zn
   0.2506200000000000    0.4482100000000000    0.0442500000000000 Zn
   0.9156400000000000    0.0519000000000000    0.9556000000000000 Zn
   0.0016600000000000    0.4031000000000000    0.0612100000000000 Zn
   0.8311266666666666    0.0969000000000000    0.9386800000000000 Zn
   0.7491666666666666    0.0518600000000000    0.9556800000000000 Zn
   0.0842100000000000    0.4480150000000000    0.0443600000000000 Zn
   0.3315600000000000    0.0969100000000000    0.9387700000000000 Zn
   0.5021366666666667    0.4031350000000000    0.0611800000000000 Zn
   0.5839533333333333    0.4482100000000000    0.0442500000000000 Zn
   0.2489733333333333    0.0519000000000000    0.9556000000000000 Zn
   0.3349933333333333    0.4031000000000000    0.0612100000000000 Zn
   0.1644600000000000    0.0969000000000000    0.9386800000000000 Zn
   0.0825000000000000    0.0518600000000000    0.9556800000000000 Zn
   0.4175433333333333    0.4480150000000000    0.0443600000000000 Zn
   0.6648933333333333    0.0969100000000000    0.9387700000000000 Zn
   0.8354699999999999    0.4031350000000000    0.0611800000000000 Zn
   0.9172866666666666    0.4482100000000000    0.0442500000000000 Zn
   0.5823066666666666    0.0519000000000000    0.9556000000000000 Zn
   0.6683266666666666    0.4031000000000000    0.0612100000000000 Zn
   0.4977933333333333    0.0969000000000000    0.9386800000000000 Zn
   0.4158333333333333    0.0518600000000000    0.9556800000000000 Zn
   0.7508766666666666    0.4480150000000000    0.0443600000000000 Zn
   0.3332666666666667    0.2505100000000000    0.4999600000000000 Zn
   0.6666000000000000    0.2505100000000000    0.4999600000000000 Zn
   0.9999333333333333    0.2505100000000000    0.4999600000000000 Zn
   0.8326899999999999    0.2494300000000000    0.5001700000000000 Zn
   0.1660233333333333    0.2494300000000000    0.5001700000000000 Zn
   0.4993566666666667    0.2494300000000000    0.5001700000000000 Zn
   0.8354766666666666    0.3474150000000000    0.5607700000000000 Zn
   0.6638066666666667    0.6525650000000001    0.4393200000000000 Zn
   0.9172100000000000    0.3023950000000000    0.5441800000000000 Zn
   0.5820833333333333    0.6975850000000000    0.4558500000000000 Zn
   0.6683666666666667    0.3476550000000000    0.5610200000000000 Zn
   0.4975966666666666    0.6523500000000000    0.4390300000000000 Zn
   0.7508333333333332    0.3025550000000000    0.5441900000000000 Zn
   0.4151300000000000    0.6974300000000000    0.4558000000000000 Zn
   0.1688100000000000    0.3474150000000000    0.5607700000000000 Zn
   0.9971399999999999    0.6525650000000001    0.4393200000000000 Zn
   0.2505433333333333    0.3023950000000000    0.5441800000000000 Zn
   0.9154166666666665    0.6975850000000000    0.4558500000000000 Zn
   0.0017000000000000    0.3476550000000000    0.5610200000000000 Zn
   0.8309299999999999    0.6523500000000000    0.4390300000000000 Zn
   0.0841666666666667    0.3025550000000000    0.5441900000000000 Zn
   0.7484633333333333    0.6974300000000000    0.4558000000000000 Zn
   0.5021433333333334    0.3474150000000000    0.5607700000000000 Zn
   0.3304733333333333    0.6525650000000001    0.4393200000000000 Zn
   0.5838766666666666    0.3023950000000000    0.5441800000000000 Zn
   0.2487500000000000    0.6975850000000000    0.4558500000000000 Zn
   0.3350333333333333    0.3476550000000000    0.5610200000000000 Zn
   0.1642633333333333    0.6523500000000000    0.4390300000000000 Zn
   0.4175000000000000    0.3025550000000000    0.5441900000000000 Zn
   0.0817966666666667    0.6974300000000000    0.4558000000000000 Zn
   0.1662400000000000    0.4999950000000000    0.9999700000000000 Zn
   0.4995733333333333    0.4999950000000000    0.9999700000000000 Zn
   0.8329066666666667    0.4999950000000000    0.9999700000000000 Zn
   0.6666233333333333    0.4999850000000000    0.9999300000000000 Zn
   0.3332900000000000    0.4999850000000000    0.9999300000000000 Zn
   0.9999566666666666    0.4999850000000000    0.9999300000000000 Zn
   0.9815866666666666    0.9013750000000000    0.8271900000000000 H
   0.9590200000000000    0.8546899999999999    0.7275199999999999 H
   0.8566733333333333    0.9117450000000000    0.7415100000000000 H
   0.8786933333333333    0.9563500000000000    0.8430200000000000 H
   0.5179499999999999    0.0985900000000000    0.1725100000000000 H
   0.5403600000000000    0.1452550000000000    0.2723100000000000 H
   0.6428733333333333    0.0887450000000000    0.2583000000000000 H
   0.6210066666666667    0.0441800000000000    0.1566300000000000 H
   0.7865366666666667    0.0657300000000000    0.4652100000000000 H
   0.8105533333333332    0.9847800000000000    0.4742200000000000 H
   0.6887566666666667    0.0152050000000000    0.5259500000000000 H
   0.7127800000000000    0.9342650000000000    0.5349900000000000 H
   0.8149433333333334    0.9018349999999999    0.8265800000000000 H
   0.7923199999999999    0.8554600000000000    0.7266000000000000 H
   0.6899033333333333    0.9120150000000000    0.7417200000000000 H
   0.7119633333333333    0.9561550000000000    0.8436399999999999 H
   0.4762633333333333    0.0881200000000000    0.2584700000000000 H
   0.4543633333333333    0.0438600000000000    0.1565500000000000 H
   0.3513300000000000    0.0981950000000000    0.1729100000000000 H
   0.3737866666666667    0.1446500000000000    0.2729200000000000 H
   0.5223000000000000    0.0160050000000000    0.5263300000000000 H
   0.5457233333333333    0.9346950000000001    0.5350100000000000 H
   0.6436633333333333    0.9839450000000001    0.4733900000000000 H
   0.6202333333333333    0.0652500000000000    0.4646000000000000 H
   0.3149200000000000    0.9013750000000000    0.8271900000000000 H
   0.2923533333333333    0.8546899999999999    0.7275199999999999 H
   0.1900066666666667    0.9117450000000000    0.7415100000000000 H
   0.2120266666666666    0.9563500000000000    0.8430200000000000 H
   0.8512833333333333    0.0985900000000000    0.1725100000000000 H
   0.8736933333333332    0.1452550000000000    0.2723100000000000 H
   0.9762066666666667    0.0887450000000000    0.2583000000000000 H
   0.9543400000000000    0.0441800000000000    0.1566300000000000 H
   0.1198700000000000    0.0657300000000000    0.4652100000000000 H
   0.1438866666666667    0.9847800000000000    0.4742200000000000 H
   0.0220900000000000    0.0152050000000000    0.5259500000000000 H
   0.0461133333333333    0.9342650000000000    0.5349900000000000 H
   0.1482766666666667    0.9018349999999999    0.8265800000000000 H
   0.1256533333333333    0.8554600000000000    0.7266000000000000 H
   0.0232366666666667    0.9120150000000000    0.7417200000000000 H
   0.0452966666666667    0.9561550000000000    0.8436399999999999 H
   0.8095966666666666    0.0881200000000000    0.2584700000000000 H
   0.7876966666666666    0.0438600000000000    0.1565500000000000 H
   0.6846633333333333    0.0981950000000000    0.1729100000000000 H
   0.7071200000000000    0.1446500000000000    0.2729200000000000 H
   0.8556333333333332    0.0160050000000000    0.5263300000000000 H
   0.8790566666666666    0.9346950000000001    0.5350100000000000 H
   0.9769966666666666    0.9839450000000001    0.4733900000000000 H
   0.9535666666666667    0.0652500000000000    0.4646000000000000 H
   0.6482533333333333    0.9013750000000000    0.8271900000000000 H
   0.6256866666666666    0.8546899999999999    0.7275199999999999 H
   0.5233399999999999    0.9117450000000000    0.7415100000000000 H
   0.5453600000000000    0.9563500000000000    0.8430200000000000 H
   0.1846166666666667    0.0985900000000000    0.1725100000000000 H
   0.2070266666666666    0.1452550000000000    0.2723100000000000 H
   0.3095400000000000    0.0887450000000000    0.2583000000000000 H
   0.2876733333333333    0.0441800000000000    0.1566300000000000 H
   0.4532033333333333    0.0657300000000000    0.4652100000000000 H
   0.4772200000000000    0.9847800000000000    0.4742200000000000 H
   0.3554233333333333    0.0152050000000000    0.5259500000000000 H
   0.3794466666666667    0.9342650000000000    0.5349900000000000 H
   0.4816100000000000    0.9018349999999999    0.8265800000000000 H
   0.4589866666666667    0.8554600000000000    0.7266000000000000 H
   0.3565700000000000    0.9120150000000000    0.7417200000000000 H
   0.3786300000000000    0.9561550000000000    0.8436399999999999 H
   0.1429300000000000    0.0881200000000000    0.2584700000000000 H
   0.1210300000000000    0.0438600000000000    0.1565500000000000 H
   0.0179966666666667    0.0981950000000000    0.1729100000000000 H
   0.0404533333333333    0.1446500000000000    0.2729200000000000 H
   0.1889666666666666    0.0160050000000000    0.5263300000000000 H
   0.2123900000000000    0.9346950000000001    0.5350100000000000 H
   0.3103300000000000    0.9839450000000001    0.4733900000000000 H
   0.2869000000000000    0.0652500000000000    0.4646000000000000 H
   0.4814233333333333    0.8492200000000000    0.3273300000000000 H
   0.4587766666666666    0.8959349999999999    0.2275000000000000 H
   0.3564433333333333    0.8383149999999999    0.2421500000000000 H
   0.3785333333333333    0.7937400000000000    0.3438000000000000 H
   0.0179933333333333    0.6507350000000001    0.6727600000000000 H
   0.0407000000000000    0.6040250000000000    0.7724500000000000 H
   0.1430400000000000    0.6615300000000000    0.7575200000000000 H
   0.1208800000000000    0.7061200000000000    0.6559400000000000 H
   0.1890066666666667    0.7331449999999999    0.0259200000000000 H
   0.2122966666666666    0.8145800000000001    0.0356200000000000 H
   0.2871766666666666    0.6853000000000000    0.9646800000000000 H
   0.3105133333333333    0.7667349999999999    0.9745300000000000 H
   0.5797811331606046    0.5560863643755469    0.0580811103110050 H
   0.5182366666666667    0.6503400000000000    0.6728600000000000 H
   0.5410633333333333    0.6036950000000000    0.7725600000000000 H
   0.6431633333333333    0.6621000000000000    0.7581500000000000 H
   0.6209033333333334    0.7066100000000000    0.6565000000000000 H
   0.9814999999999999    0.8494300000000000    0.3277300000000000 H
   0.9589833333333333    0.8962200000000000    0.2279300000000000 H
   0.8566033333333333    0.8385850000000000    0.2419100000000000 H
   0.8785833333333333    0.7938550000000000    0.3435200000000000 H
   0.8109333333333333    0.7668349999999999    0.9741500000000000 H
   0.7876299999999999    0.6854050000000000    0.9644200000000001 H
   0.6893899999999999    0.7332850000000000    0.0253600000000000 H
   0.7127333333333333    0.8147200000000000    0.0352100000000000 H
   0.1849033333333333    0.6503400000000000    0.6728600000000000 H
   0.2077300000000000    0.6036950000000000    0.7725600000000000 H
   0.3098300000000000    0.6621000000000000    0.7581500000000000 H
   0.2875700000000000    0.7066100000000000    0.6565000000000000 H
   0.8147566666666666    0.8492200000000000    0.3273300000000000 H
   0.7921100000000000    0.8959349999999999    0.2275000000000000 H
   0.6897766666666666    0.8383149999999999    0.2421500000000000 H
   0.7118666666666666    0.7937400000000000    0.3438000000000000 H
   0.3513266666666667    0.6507350000000001    0.6727600000000000 H
   0.3740333333333333    0.6040250000000000    0.7724500000000000 H
   0.4763733333333333    0.6615300000000000    0.7575200000000000 H
   0.4542133333333333    0.7061200000000000    0.6559400000000000 H
   0.6481666666666666    0.8494300000000000    0.3277300000000000 H
   0.6256500000000000    0.8962200000000000    0.2279300000000000 H
   0.5232700000000000    0.8385850000000000    0.2419100000000000 H
   0.5452500000000000    0.7938550000000000    0.3435200000000000 H
   0.4776000000000000    0.7668349999999999    0.9741500000000000 H
   0.4542966666666666    0.6854050000000000    0.9644200000000001 H
   0.3560566666666666    0.7332850000000000    0.0253600000000000 H
   0.3794000000000000    0.8147200000000000    0.0352100000000000 H
   0.5223400000000000    0.7331449999999999    0.0259200000000000 H
   0.5456299999999999    0.8145800000000001    0.0356200000000000 H
   0.6205099999999999    0.6853000000000000    0.9646800000000000 H
   0.6438466666666667    0.7667349999999999    0.9745300000000000 H
   0.5434459422281303    0.8819130540039103    1.0332218279713672 H
   0.8515699999999999    0.6503400000000000    0.6728600000000000 H
   0.8743966666666666    0.6036950000000000    0.7725600000000000 H
   0.9764966666666666    0.6621000000000000    0.7581500000000000 H
   0.9542366666666666    0.7066100000000000    0.6565000000000000 H
   0.3148333333333333    0.8494300000000000    0.3277300000000000 H
   0.2923166666666667    0.8962200000000000    0.2279300000000000 H
   0.1899366666666667    0.8385850000000000    0.2419100000000000 H
   0.2119166666666667    0.7938550000000000    0.3435200000000000 H
   0.1442666666666667    0.7668349999999999    0.9741500000000000 H
   0.1209633333333333    0.6854050000000000    0.9644200000000001 H
   0.0227233333333333    0.7332850000000000    0.0253600000000000 H
   0.0460666666666667    0.8147200000000000    0.0352100000000000 H
   0.1480900000000000    0.8492200000000000    0.3273300000000000 H
   0.1254433333333333    0.8959349999999999    0.2275000000000000 H
   0.0231100000000000    0.8383149999999999    0.2421500000000000 H
   0.0452000000000000    0.7937400000000000    0.3438000000000000 H
   0.6846599999999999    0.6507350000000001    0.6727600000000000 H
   0.7073666666666666    0.6040250000000000    0.7724500000000000 H
   0.8097066666666666    0.6615300000000000    0.7575200000000000 H
   0.7875466666666666    0.7061200000000000    0.6559400000000000 H
   0.8556733333333333    0.7331449999999999    0.0259200000000000 H
   0.8789633333333333    0.8145800000000001    0.0356200000000000 H
   0.9538433333333333    0.6853000000000000    0.9646800000000000 H
   0.9771799999999999    0.7667349999999999    0.9745300000000000 H
   0.8515699999999999    0.1503400000000000    0.6728600000000000 H
   0.8743966666666666    0.1036950000000000    0.7725600000000000 H
   0.9764966666666666    0.1621000000000000    0.7581500000000000 H
   0.9542366666666666    0.2066100000000000    0.6565000000000000 H
   0.3148333333333333    0.3494300000000000    0.3277300000000000 H
   0.2923166666666667    0.3962200000000000    0.2279300000000000 H
   0.1899366666666667    0.3385850000000000    0.2419100000000000 H
   0.2119166666666667    0.2938550000000000    0.3435200000000000 H
   0.1442666666666667    0.2668350000000000    0.9741500000000000 H
   0.1209633333333333    0.1854050000000000    0.9644200000000001 H
   0.0227233333333333    0.2332850000000000    0.0253600000000000 H
   0.0460666666666667    0.3147200000000000    0.0352100000000000 H
   0.1480900000000000    0.3492200000000000    0.3273300000000000 H
   0.1254433333333333    0.3959350000000000    0.2275000000000000 H
   0.0231100000000000    0.3383150000000000    0.2421500000000000 H
   0.0452000000000000    0.2937400000000000    0.3438000000000000 H
   0.6846599999999999    0.1507350000000000    0.6727600000000000 H
   0.7073666666666666    0.1040250000000000    0.7724500000000000 H
   0.8097066666666666    0.1615300000000000    0.7575200000000000 H
   0.7875466666666666    0.2061200000000000    0.6559400000000000 H
   0.8556733333333333    0.2331450000000000    0.0259200000000000 H
   0.8789633333333333    0.3145800000000000    0.0356200000000000 H
   0.9538433333333333    0.1853000000000000    0.9646800000000000 H
   0.9771799999999999    0.2667350000000000    0.9745300000000000 H
   0.1849033333333333    0.1503400000000000    0.6728600000000000 H
   0.2077300000000000    0.1036950000000000    0.7725600000000000 H
   0.3098300000000000    0.1621000000000000    0.7581500000000000 H
   0.2875700000000000    0.2066100000000000    0.6565000000000000 H
   0.6481666666666666    0.3494300000000000    0.3277300000000000 H
   0.6256500000000000    0.3962200000000000    0.2279300000000000 H
   0.5232700000000000    0.3385850000000000    0.2419100000000000 H
   0.5452500000000000    0.2938550000000000    0.3435200000000000 H
   0.4776000000000000    0.2668350000000000    0.9741500000000000 H
   0.4542966666666666    0.1854050000000000    0.9644200000000001 H
   0.3560566666666666    0.2332850000000000    0.0253600000000000 H
   0.3794000000000000    0.3147200000000000    0.0352100000000000 H
   0.4814233333333333    0.3492200000000000    0.3273300000000000 H
   0.4587766666666666    0.3959350000000000    0.2275000000000000 H
   0.3564433333333333    0.3383150000000000    0.2421500000000000 H
   0.3785333333333333    0.2937400000000000    0.3438000000000000 H
   0.0179933333333333    0.1507350000000000    0.6727600000000000 H
   0.0407000000000000    0.1040250000000000    0.7724500000000000 H
   0.1430400000000000    0.1615300000000000    0.7575200000000000 H
   0.1208800000000000    0.2061200000000000    0.6559400000000000 H
   0.1890066666666667    0.2331450000000000    0.0259200000000000 H
   0.2122966666666666    0.3145800000000000    0.0356200000000000 H
   0.2871766666666666    0.1853000000000000    0.9646800000000000 H
   0.3105133333333333    0.2667350000000000    0.9745300000000000 H
   0.5182366666666667    0.1503400000000000    0.6728600000000000 H
   0.5410633333333333    0.1036950000000000    0.7725600000000000 H
   0.6431633333333333    0.1621000000000000    0.7581500000000000 H
   0.6209033333333334    0.2066100000000000    0.6565000000000000 H
   0.9814999999999999    0.3494300000000000    0.3277300000000000 H
   0.9589833333333333    0.3962200000000000    0.2279300000000000 H
   0.8566033333333333    0.3385850000000000    0.2419100000000000 H
   0.8785833333333333    0.2938550000000000    0.3435200000000000 H
   0.8109333333333333    0.2668350000000000    0.9741500000000000 H
   0.7876299999999999    0.1854050000000000    0.9644200000000001 H
   0.6893899999999999    0.2332850000000000    0.0253600000000000 H
   0.7127333333333333    0.3147200000000000    0.0352100000000000 H
   0.8147566666666666    0.3492200000000000    0.3273300000000000 H
   0.7921100000000000    0.3959350000000000    0.2275000000000000 H
   0.6897766666666666    0.3383150000000000    0.2421500000000000 H
   0.7118666666666666    0.2937400000000000    0.3438000000000000 H
   0.3513266666666667    0.1507350000000000    0.6727600000000000 H
   0.3740333333333333    0.1040250000000000    0.7724500000000000 H
   0.4763733333333333    0.1615300000000000    0.7575200000000000 H
   0.4542133333333333    0.2061200000000000    0.6559400000000000 H
   0.5223400000000000    0.2331450000000000    0.0259200000000000 H
   0.5456299999999999    0.3145800000000000    0.0356200000000000 H
   0.6205099999999999    0.1853000000000000    0.9646800000000000 H
   0.6438466666666667    0.2667350000000000    0.9745300000000000 H
   0.5188872174914082    0.5667945752090264    1.0855802203542544 H
   0.9815866666666666    0.4013750000000000    0.8271900000000000 H
   0.9590200000000000    0.3546900000000000    0.7275199999999999 H
   0.8566733333333333    0.4117450000000000    0.7415100000000000 H
   0.8786933333333333    0.4563500000000000    0.8430200000000000 H
   0.5646421760706211    0.6838428973117578    0.3347368997736005 H
   0.6534984079454224    0.6169613990415536    0.3302582161298444 H
   0.6085203003044406    0.6479884927613978    0.3232018978030339 H
   0.7865366666666667    0.5657300000000000    0.4652100000000000 H
   0.8105533333333332    0.4847800000000000    0.4742200000000000 H
   0.6887566666666667    0.5152050000000000    0.5259500000000000 H
   0.7127800000000000    0.4342650000000000    0.5349900000000000 H
   0.8149433333333334    0.4018350000000000    0.8265800000000000 H
   0.7923199999999999    0.3554600000000000    0.7266000000000000 H
   0.6899033333333333    0.4120150000000000    0.7417200000000000 H
   0.7119633333333333    0.4561550000000000    0.8436399999999999 H
   0.4762633333333333    0.5881200000000000    0.2584700000000000 H
   0.4543633333333333    0.5438600000000000    0.1565500000000000 H
   0.3513300000000000    0.5981950000000000    0.1729100000000000 H
   0.3737866666666667    0.6446499999999999    0.2729200000000000 H
   0.5223000000000000    0.5160050000000000    0.5263300000000000 H
   0.5457233333333333    0.4346950000000000    0.5350100000000000 H
   0.6436633333333333    0.4839450000000000    0.4733900000000000 H
   0.6202333333333333    0.5652500000000000    0.4646000000000000 H
   0.3149200000000000    0.4013750000000000    0.8271900000000000 H
   0.2923533333333333    0.3546900000000000    0.7275199999999999 H
   0.1900066666666667    0.4117450000000000    0.7415100000000000 H
   0.2120266666666666    0.4563500000000000    0.8430200000000000 H
   0.8512833333333333    0.5985900000000000    0.1725100000000000 H
   0.8736933333333332    0.6452550000000000    0.2723100000000000 H
   0.9762066666666667    0.5887450000000000    0.2583000000000000 H
   0.9543400000000000    0.5441800000000000    0.1566300000000000 H
   0.1198700000000000    0.5657300000000000    0.4652100000000000 H
   0.1438866666666667    0.4847800000000000    0.4742200000000000 H
   0.0220900000000000    0.5152050000000000    0.5259500000000000 H
   0.0461133333333333    0.4342650000000000    0.5349900000000000 H
   0.1482766666666667    0.4018350000000000    0.8265800000000000 H
   0.1256533333333333    0.3554600000000000    0.7266000000000000 H
   0.0232366666666667    0.4120150000000000    0.7417200000000000 H
   0.0452966666666667    0.4561550000000000    0.8436399999999999 H
   0.8095966666666666    0.5881200000000000    0.2584700000000000 H
   0.7876966666666666    0.5438600000000000    0.1565500000000000 H
   0.6846633333333333    0.5981950000000000    0.1729100000000000 H
   0.7071200000000000    0.6446499999999999    0.2729200000000000 H
   0.8556333333333332    0.5160050000000000    0.5263300000000000 H
   0.8790566666666666    0.4346950000000000    0.5350100000000000 H
   0.9769966666666666    0.4839450000000000    0.4733900000000000 H
   0.9535666666666667    0.5652500000000000    0.4646000000000000 H
   0.6482533333333333    0.4013750000000000    0.8271900000000000 H
   0.6256866666666666    0.3546900000000000    0.7275199999999999 H
   0.5233399999999999    0.4117450000000000    0.7415100000000000 H
   0.5453600000000000    0.4563500000000000    0.8430200000000000 H
   0.1846166666666667    0.5985900000000000    0.1725100000000000 H
   0.2070266666666666    0.6452550000000000    0.2723100000000000 H
   0.3095400000000000    0.5887450000000000    0.2583000000000000 H
   0.2876733333333333    0.5441800000000000    0.1566300000000000 H
   0.4532033333333333    0.5657300000000000    0.4652100000000000 H
   0.4772200000000000    0.4847800000000000    0.4742200000000000 H
   0.3554233333333333    0.5152050000000000    0.5259500000000000 H
   0.3794466666666667    0.4342650000000000    0.5349900000000000 H
   0.4816100000000000    0.4018350000000000    0.8265800000000000 H
   0.4589866666666667    0.3554600000000000    0.7266000000000000 H
   0.3565700000000000    0.4120150000000000    0.7417200000000000 H
   0.3786300000000000    0.4561550000000000    0.8436399999999999 H
   0.1429300000000000    0.5881200000000000    0.2584700000000000 H
   0.1210300000000000    0.5438600000000000    0.1565500000000000 H
   0.0179966666666667    0.5981950000000000    0.1729100000000000 H
   0.0404533333333333    0.6446499999999999    0.2729200000000000 H
   0.1889666666666666    0.5160050000000000    0.5263300000000000 H
   0.2123900000000000    0.4346950000000000    0.5350100000000000 H
   0.3103300000000000    0.4839450000000000    0.4733900000000000 H
   0.2869000000000000    0.5652500000000000    0.4646000000000000 H
   0.8927333333333333    0.8541950000000000    0.6670199999999999 C
   0.9449166666666666    0.9607550000000000    0.9001600000000000 C
   0.9541933333333332    0.9032050000000000    0.8084300000000000 C
   0.9416266666666666    0.8771450000000001    0.7530300000000000 C
   0.9063733333333333    0.8801950000000001    0.7286500000000000 C
   0.8838466666666667    0.9090849999999999    0.7613300000000000 C
   0.8962699999999999    0.9342300000000000    0.8174700000000000 C
   0.9316566666666666    0.9320300000000000    0.8411900000000000 C
   0.6066099999999999    0.1458850000000000    0.3329600000000000 C
   0.5547866666666667    0.0393950000000000    0.0996100000000000 C
   0.5453433333333333    0.0968850000000000    0.1912900000000000 C
   0.5578200000000000    0.1229200000000000    0.2467700000000000 C
   0.5930733333333333    0.1200000000000000    0.2711800000000000 C
   0.6156966666666666    0.0912850000000000    0.2384500000000000 C
   0.6033666666666666    0.0661750000000000    0.1822300000000000 C
   0.5679733333333333    0.0682000000000000    0.1585200000000000 C
   0.7212633333333333    0.0940700000000000    0.4867100000000000 C
   0.7780366666666666    0.9059150000000000    0.5133900000000000 C
   0.7704700000000000    0.0369600000000000    0.4807100000000000 C
   0.7839699999999999    0.9917300000000000    0.4858800000000000 C
   0.7633433333333333    0.9544150000000000    0.5054300000000000 C
   0.7153366666666666    0.0082600000000000    0.5142900000000000 C
   0.7288399999999999    0.9630300000000001    0.5194600000000000 C
   0.7359633333333333    0.0455750000000000    0.4947200000000000 C
   0.7258866666666667    0.8549700000000000    0.6665700000000000 C