H4 C8 O4
1.0
  13.6939995307140219    0.0000000000000000    0.0035850807755692
   0.0116607609950026   14.2149952085972036   -0.0004961971062391
   0.0000000000000000    0.0000000000000000   31.9379999999999988
H C O
4 8 4
direct
   0.0239700000000000    0.4264600000000000    0.6550850000000000 H
   0.7134300000000000    0.4687600000000000    0.6594300000000000 H
   0.0367300000000000    0.5438499999999999    0.5965650000000000 H
   0.7261800000000000    0.5861700000000000    0.6009100000000001 H
   0.8606800000000000    0.3696000000000000    0.6945600000000001 C
   0.8679700000000000    0.4406100000000000    0.6604600000000000 C
   0.9594400000000000    0.4620400000000000    0.6430000000000000 C
   0.7837300000000000    0.4857000000000000    0.6454150000000000 C
   0.8890700000000000    0.6398300000000000    0.5601650000000000 C
   0.8821400000000000    0.5716900000000000    0.5954100000000000 C
   0.9664700000000001    0.5271200000000000    0.6106700000000000 C
   0.7907600000000000    0.5507800000000000    0.6130850000000000 C
   0.7755800000000000    0.3494500000000000    0.7082550000000000 O
  -0.0260399999999999    0.6582900000000000    0.5458050000000000 O
   0.9407700000000000    0.3333900000000000    0.7075150000000000 O
   0.8088600000000000    0.6747600000000000    0.5466550000000000 O
