H6 O4
1.0
  13.6939995307140219    0.0000000000000000    0.0035850807755692
   0.0116607609950026   14.2149952085972036   -0.0004961971062391
   0.0000000000000000    0.0000000000000000   31.9379999999999988
H O
6 4
direct
   0.7196950559575130    0.3818779460195215    0.6964080824090974 H
   1.0029230560052760    0.3528467776335276    0.6958094267178337 H
   0.8649036287549876    0.3774124220240760    0.6914322667440236 H
  -0.0042855497956521    0.6679581780467662    0.5743829707671718 H
   0.7919454233076022    0.6883246894946695    0.5755265149843198 H
   0.9018756024439962    0.7160982731858714    0.6688459605881066 H
   0.7755800000000000    0.3494500000000000    0.7082550000000000 O
   0.9407700000000000    0.3333900000000000    0.7075150000000000 O
  -0.0260399999999999    0.6582900000000000    0.5458050000000000 O
   0.8088600000000000    0.6747600000000000    0.5466550000000000 O
