V16 H66 C120 O64
1.0
  13.6939995307140219    0.0000000000000000    0.0035850807755692
   0.0116607609950026   14.2149952085972036   -0.0004961971062391
   0.0000000000000000    0.0000000000000000   31.9379999999999988
V H C O
16 66 120 64
direct
   0.4659000000000000    0.2343000000000000    0.7499200000000000 V
   0.2838000000000000    0.7635600000000000    0.4999450000000000 V
   0.2158800000000000    0.2636200000000000    0.7503750000000000 V
   0.0338200000000000    0.7343300000000000    0.0002350000000000 V
   0.4659000000000000    0.2343000000000000    0.2499200000000000 V
   0.2838000000000000    0.7635600000000000    0.9999450000000000 V
   0.2158800000000000    0.2636200000000000    0.2503750000000000 V
   0.0338200000000000    0.7343300000000000    0.5002350000000000 V
   0.7838000000000001    0.7635600000000000    0.4999450000000000 V
   0.7838000000000001    0.7635600000000000    0.9999450000000000 V
   0.9659000000000000    0.2343000000000000    0.2499250000000000 V
   0.9659000000000000    0.2343000000000000    0.7499250000000000 V
   0.7158800000000000    0.2636200000000000    0.7503750000000000 V
   0.5338200000000000    0.7343400000000000    0.0002300000000000 V
   0.7158800000000000    0.2636200000000000    0.2503750000000000 V
   0.5338200000000000    0.7343400000000000    0.5002300000000000 V
  -0.0042855497956521    0.6679581780467662    0.5743829707671718 H
   0.5361100000000000    0.5277800000000000    0.9098700000000000 H
   0.5234200000000000    0.4118400000000000    0.8507600000000000 H
   0.2258800000000000    0.5720000000000000    0.9050300000000000 H
   0.2131900000000000    0.4560700000000000    0.8459150000000000 H
   0.5239600000000000    0.4263700000000000    0.6550500000000000 H
   0.5367300000000000    0.5437800000000000    0.5965300000000000 H
   0.2134100000000000    0.4686500000000000    0.6593750000000000 H
   0.2261700000000000    0.5860500000000000    0.6008550000000000 H
   0.9755700000000000    0.9272899999999999    0.5949000000000000 H
   0.9632200000000000    0.0432100000000000    0.6540350000000000 H
   0.2860300000000000    0.9694900000000000    0.5903200000000000 H
   0.2736900000000000    0.0853900000000000    0.6494650000000000 H
   0.9763100000000000    0.9110000000000000    0.8988550000000000 H
   0.9637700000000000    0.0285100000000000    0.8403550000000000 H
   0.2739200000000000    0.0723700000000000    0.8456800000000000 H
   0.2864700000000000    0.9548400000000000    0.9041650000000000 H
   0.5361100000000000    0.5277800000000000    0.4098700000000000 H
   0.5234200000000000    0.4118400000000000    0.3507600000000000 H
   0.2258800000000000    0.5720000000000000    0.4050300000000000 H
   0.2131900000000000    0.4560700000000000    0.3459150000000000 H
   0.5239600000000000    0.4263700000000000    0.1550500000000000 H
   0.5367300000000000    0.5437800000000000    0.0965300000000000 H
   0.2134100000000000    0.4686500000000000    0.1593750000000000 H
   0.2261700000000000    0.5860500000000000    0.1008550000000000 H
   0.9755700000000000    0.9272899999999999    0.0949000000000000 H
   0.9632200000000000    0.0432100000000000    0.1540350000000000 H
   0.2860300000000000    0.9694900000000000    0.0903200000000000 H
   0.2736900000000000    0.0853900000000000    0.1494650000000000 H
   0.9763100000000000    0.9110000000000000    0.3988550000000000 H
   0.9637700000000000    0.0285100000000000    0.3403550000000000 H
   0.2739200000000000    0.0723700000000000    0.3456800000000000 H
   0.2864700000000000    0.9548400000000000    0.4041650000000000 H
   0.7919454233076022    0.6883246894946695    0.5755265149843198 H
   0.0234000000000000    0.4117600000000000    0.3507950000000000 H
   0.0361000000000000    0.5276999999999999    0.4099000000000000 H
   0.7131800000000000    0.4559800000000000    0.3459600000000000 H
   0.7258700000000000    0.5719000000000000    0.4050750000000000 H
   0.7134300000000000    0.4687600000000000    0.1594300000000000 H
   0.7261800000000000    0.5861700000000000    0.1009100000000000 H
   0.0239700000000000    0.4264600000000000    0.1550850000000000 H
   0.0367300000000000    0.5438499999999999    0.0965650000000000 H
   0.0234000000000000    0.4117600000000000    0.8507950000000000 H
   0.0361000000000000    0.5276999999999999    0.9098999999999999 H
   0.7131800000000000    0.4559800000000000    0.8459600000000000 H
   0.7258700000000000    0.5719000000000000    0.9050750000000001 H
   0.7196950559575130    0.3818779460195215    0.6964080824090974 H
   1.0029230560052760    0.3528467776335276    0.6958094267178337 H
   0.8649036287549876    0.3774124220240760    0.6914322667440236 H
   0.4755700000000000    0.9272300000000000    0.5949200000000000 H
   0.4632200000000000    0.0431400000000000    0.6540550000000001 H
   0.7860100000000000    0.9695800000000000    0.5902800000000000 H
   0.7736700000000000    0.0854800000000000    0.6494250000000000 H
   0.7865000000000000    0.9547700000000000    0.9041000000000000 H
   0.7739500000000000    0.0723000000000000    0.8456450000000000 H
   0.4763100000000000    0.9110700000000000    0.8988800000000000 H
   0.4637700000000000    0.0285800000000000    0.8403800000000000 H
   0.4755700000000000    0.9272300000000000    0.0949200000000000 H
   0.4632200000000000    0.0431400000000000    0.1540550000000000 H
   0.7860100000000000    0.9695800000000000    0.0902800000000000 H
   0.7736700000000000    0.0854800000000000    0.1494250000000000 H
   0.7865000000000000    0.9547700000000000    0.4041000000000000 H
   0.7739500000000000    0.0723000000000000    0.3456450000000000 H
   0.4763100000000000    0.9110700000000000    0.3988800000000000 H
   0.4637700000000000    0.0285800000000000    0.3403800000000000 H
   0.9018756024439962    0.7160982731858714    0.6688459605881066 H
   0.3889500000000000    0.6270400000000000    0.9450600000000000 C
   0.3606700000000000    0.3597700000000000    0.8095650000000000 C
   0.4659000000000000    0.5115600000000000    0.8956150000000000 C
   0.4589200000000000    0.4473400000000000    0.8629500000000000 C
   0.2903400000000000    0.5362800000000000    0.8929250000000000 C
   0.2833600000000000    0.4720700000000000    0.8602600000000000 C
   0.3816900000000000    0.5567100000000000    0.9105000000000000 C
   0.3676400000000000    0.4273900000000000    0.8449500000000000 C
   0.3890600000000000    0.6397900000000000    0.5601450000000000 C
   0.3606800000000000    0.3695500000000000    0.6945000000000000 C
   0.4594300000000000    0.4619600000000000    0.6429600000000000 C
   0.4664600000000000    0.5270300000000000    0.6106300000000000 C
   0.3821300000000000    0.5716200000000000    0.5953750000000000 C
   0.2837100000000000    0.4856000000000000    0.6453650000000000 C
   0.2907400000000000    0.5506799999999999    0.6130350000000000 C
   0.3679600000000000    0.4405300000000000    0.6604250000000000 C
   0.1387600000000000    0.8710200000000000    0.5550500000000000 C
   0.1108000000000000    0.1382700000000000    0.6906500000000000 C
   0.0401600000000000    0.9625400000000000    0.6070650000000000 C
   0.0333700000000000    0.0267400000000000    0.6397450000000000 C
   0.1177900000000000    0.0708300000000000    0.6551350000000000 C
   0.2158400000000000    0.9861500000000000    0.6045300000000000 C
   0.2090500000000000    0.0503600000000000    0.6372200000000000 C
   0.1315100000000000    0.9415000000000000    0.5893699999999999 C
   0.1109600000000000    0.1284400000000000    0.8057000000000001 C
   0.1389400000000000    0.8580700000000000    0.9400450000000000 C
   0.0408300000000000    0.9467500000000000    0.8869050000000001 C
   0.0339200000000000    0.0118800000000000    0.8545900000000000 C
   0.2094400000000000    0.0364100000000000    0.8574999999999999 C
   0.2163500000000000    0.9712800000000000    0.8898550000000001 C
   0.1181200000000000    0.0574200000000000    0.8398300000000001 C
   0.1320600000000000    0.9262400000000000    0.9048200000000000 C
   0.3889500000000000    0.6270400000000000    0.4450600000000000 C
   0.3606700000000000    0.3597700000000000    0.3095650000000000 C
   0.4659000000000000    0.5115600000000000    0.3956150000000000 C
   0.4589200000000000    0.4473400000000000    0.3629500000000000 C
   0.2903400000000000    0.5362800000000000    0.3929250000000000 C
   0.2833600000000000    0.4720700000000000    0.3602600000000000 C
   0.3816900000000000    0.5567100000000000    0.4105000000000000 C
   0.3676400000000000    0.4273900000000000    0.3449500000000000 C
   0.3890600000000000    0.6397900000000000    0.0601450000000000 C
   0.3606800000000000    0.3695500000000000    0.1945000000000000 C
   0.4594300000000000    0.4619600000000000    0.1429600000000000 C
   0.4664600000000000    0.5270300000000000    0.1106300000000000 C
   0.3821300000000000    0.5716200000000000    0.0953750000000000 C
   0.2837100000000000    0.4856000000000000    0.1453650000000000 C
   0.2907400000000000    0.5506799999999999    0.1130350000000000 C
   0.3679600000000000    0.4405300000000000    0.1604250000000000 C
   0.1387600000000000    0.8710200000000000    0.0550500000000000 C
   0.1108000000000000    0.1382700000000000    0.1906500000000000 C
   0.0401600000000000    0.9625400000000000    0.1070650000000000 C
   0.0333700000000000    0.0267400000000000    0.1397450000000000 C
   0.1177900000000000    0.0708300000000000    0.1551350000000000 C
   0.2158400000000000    0.9861500000000000    0.1045300000000000 C
   0.2090500000000000    0.0503600000000000    0.1372200000000000 C
   0.1315100000000000    0.9415000000000000    0.0893700000000000 C
   0.1109600000000000    0.1284400000000000    0.3057000000000000 C
   0.1389400000000000    0.8580700000000000    0.4400450000000000 C
   0.0408300000000000    0.9467500000000000    0.3869050000000000 C
   0.0339200000000000    0.0118800000000000    0.3545900000000000 C
   0.2094400000000000    0.0364100000000000    0.3575000000000000 C
   0.2163500000000000    0.9712800000000000    0.3898550000000000 C
   0.1181200000000000    0.0574200000000000    0.3398300000000000 C
   0.1320600000000000    0.9262400000000000    0.4048200000000000 C
   0.8889500000000000    0.6270000000000000    0.4450750000000000 C
   0.8606600000000000    0.3597300000000000    0.3095850000000000 C
   0.9589100000000000    0.4472600000000000    0.3629850000000000 C
   0.9658900000000000    0.5114800000000000    0.3956500000000000 C
   0.8816900000000000    0.5566300000000000    0.4107300000000000 C
   0.7833400000000000    0.4719800000000000    0.3603000000000000 C
   0.7903200000000000    0.5361800000000000    0.3929650000000000 C
   0.8676300000000000    0.4273100000000000    0.3450250000000000 C
   0.8606800000000000    0.3696000000000000    0.1945600000000000 C
   0.8890700000000000    0.6398300000000000    0.0601650000000000 C
   0.7837300000000000    0.4857000000000000    0.1454150000000000 C
   0.7907600000000000    0.5507800000000000    0.1130850000000000 C
   0.8679700000000000    0.4406100000000000    0.1604600000000000 C
   0.9594400000000000    0.4620400000000000    0.1430000000000000 C
   0.9664700000000001    0.5271200000000000    0.1106700000000000 C
   0.8821400000000000    0.5716900000000000    0.0954100000000000 C
   0.8889500000000000    0.6270000000000000    0.9450750000000000 C
   0.8606600000000000    0.3597300000000000    0.8095850000000000 C
   0.9589100000000000    0.4472600000000000    0.8629850000000000 C
   0.9658900000000000    0.5114800000000000    0.8956500000000001 C
   0.8816900000000000    0.5566300000000000    0.9107300000000000 C
   0.7833400000000000    0.4719800000000000    0.8603000000000001 C
   0.7903200000000000    0.5361800000000000    0.8929650000000000 C
   0.8676300000000000    0.4273100000000000    0.8450250000000000 C
   0.6108000000000000    0.1382700000000000    0.6906450000000000 C
   0.6387500000000000    0.8710200000000000    0.5550450000000000 C
   0.5401600000000000    0.9625100000000000    0.6070700000000000 C
   0.5333700000000000    0.0267100000000000    0.6397550000000000 C
   0.6177800000000000    0.0708400000000000    0.6551000000000000 C
   0.7158200000000000    0.9862000000000000    0.6045050000000000 C
   0.7090300000000000    0.0504100000000000    0.6371950000000000 C
   0.6315100000000000    0.9415200000000000    0.5893600000000000 C
   0.6389500000000000    0.8580700000000000    0.9400450000000000 C
   0.6109700000000000    0.1284400000000000    0.8057400000000000 C
   0.7163700000000000    0.9712400000000000    0.8898349999999999 C
   0.7094600000000000    0.0363700000000000    0.8575300000000000 C
   0.6320800000000000    0.9262400000000000    0.9048000000000000 C
   0.5408400000000000    0.9467800000000000    0.8869150000000000 C
   0.5339300000000000    0.0119200000000000    0.8546000000000000 C
   0.6181300000000000    0.0574200000000000    0.8398250000000000 C
   0.6108000000000000    0.1382700000000000    0.1906450000000000 C
   0.6387500000000000    0.8710200000000000    0.0550450000000000 C
   0.5401600000000000    0.9625100000000000    0.1070700000000000 C
   0.5333700000000000    0.0267100000000000    0.1397550000000000 C
   0.6177800000000000    0.0708400000000000    0.1551000000000000 C
   0.7158200000000000    0.9862000000000000    0.1045050000000000 C
   0.7090300000000000    0.0504100000000000    0.1371950000000000 C
   0.6315100000000000    0.9415200000000000    0.0893600000000000 C
   0.6389500000000000    0.8580700000000000    0.4400450000000000 C
   0.6109700000000000    0.1284400000000000    0.3057400000000000 C
   0.7163700000000000    0.9712400000000000    0.3898350000000000 C
   0.7094600000000000    0.0363700000000000    0.3575300000000000 C
   0.6320800000000000    0.9262400000000000    0.4048000000000000 C
   0.5408400000000000    0.9467800000000000    0.3869150000000000 C
   0.5339300000000000    0.0119200000000000    0.3546000000000000 C
   0.6181300000000000    0.0574200000000000    0.3398250000000000 C
  -0.0260399999999999    0.6582900000000000    0.5458050000000000 O
   0.4741100000000000    0.6470800000000000    0.9587049999999999 O
   0.3088700000000000    0.6628800000000000    0.9582100000000000 O
   0.2756900000000000    0.3414700000000000    0.7952650000000000 O
   0.4408100000000000    0.3249600000000000    0.7959000000000001 O
   0.4739600000000000    0.6582700000000000    0.5457900000000000 O
   0.3088600000000000    0.6747500000000000    0.5466450000000000 O
   0.2755800000000000    0.3494400000000000    0.7082500000000000 O
   0.4407600000000000    0.3333333333333333    0.7074900000000000 O
   0.0587400000000000    0.8351900000000000    0.5419050000000000 O
   0.2239600000000000    0.8508100000000000    0.5410000000000000 O
   0.0257100000000000    0.1567500000000000    0.7048449999999999 O
   0.1908800000000000    0.1727000000000000    0.7044550000000001 O
   0.0259400000000000    0.1483500000000000    0.7918499999999999 O
   0.1910700000000000    0.1648600000000000    0.7930050000000000 O
   0.2238200000000000    0.8396600000000000    0.9544500000000000 O
   0.0587500000000000    0.8230600000000000    0.9534500000000000 O
   0.4741100000000000    0.6470800000000000    0.4587050000000000 O
   0.3088700000000000    0.6628800000000000    0.4582100000000000 O
   0.2756900000000000    0.3414700000000000    0.2952650000000000 O
   0.4408100000000000    0.3249600000000000    0.2959000000000000 O
   0.4739600000000000    0.6582700000000000    0.0457900000000000 O
   0.3088600000000000    0.6747500000000000    0.0466450000000000 O
   0.2755800000000000    0.3494400000000000    0.2082500000000000 O
   0.4407600000000000    0.3333333333333333    0.2074900000000000 O
   0.0587400000000000    0.8351900000000000    0.0419050000000000 O
   0.2239600000000000    0.8508100000000000    0.0410000000000000 O
   0.0257100000000000    0.1567500000000000    0.2048450000000000 O
   0.1908800000000000    0.1727000000000000    0.2044550000000000 O
   0.0259400000000000    0.1483500000000000    0.2918500000000000 O
   0.1910700000000000    0.1648600000000000    0.2930050000000000 O
   0.2238200000000000    0.8396600000000000    0.4544500000000000 O
   0.0587500000000000    0.8230600000000000    0.4534500000000000 O
   0.8088600000000000    0.6747600000000000    0.5466550000000000 O
   0.9741100000000000    0.6470600000000000    0.4587200000000000 O
   0.8088700000000000    0.6628700000000000    0.4582200000000000 O
   0.7756900000000000    0.3414600000000000    0.2952700000000000 O
   0.9408100000000000    0.3249300000000000    0.2959500000000000 O
   0.7755800000000000    0.3494500000000000    0.2082550000000000 O
   0.9407700000000000    0.3333900000000000    0.2075150000000000 O
   0.9739600000000000    0.6582900000000000    0.0458050000000000 O
   0.8088600000000000    0.6747600000000000    0.0466550000000000 O
   0.9741100000000000    0.6470600000000000    0.9587200000000000 O
   0.8088700000000000    0.6628700000000000    0.9582200000000001 O
   0.7756900000000000    0.3414600000000000    0.7952699999999999 O
   0.9408100000000000    0.3249300000000000    0.7959499999999999 O
   0.7755800000000000    0.3494500000000000    0.7082550000000000 O
   0.9407700000000000    0.3333900000000000    0.7075150000000000 O
   0.5257100000000000    0.1567300000000000    0.7048500000000000 O
   0.6908800000000000    0.1727200000000000    0.7044450000000000 O
   0.7239600000000000    0.8508200000000000    0.5414000000000000 O
   0.5587400000000000    0.8351900000000000    0.5419050000000000 O
   0.7238300000000000    0.8396600000000000    0.9544500000000000 O
   0.5587700000000000    0.8230700000000000    0.9534750000000001 O
   0.5259500000000000    0.1483500000000000    0.7918650000000000 O
   0.6910800000000000    0.1648500000000000    0.7900000000000000 O
   0.5257100000000000    0.1567300000000000    0.2048500000000000 O
   0.6908800000000000    0.1727200000000000    0.2044450000000000 O
   0.7239600000000000    0.8508200000000000    0.0414000000000000 O
   0.5587400000000000    0.8351900000000000    0.0419050000000000 O
   0.7238300000000000    0.8396600000000000    0.4544500000000000 O
   0.5587700000000000    0.8230700000000000    0.4534750000000000 O
   0.5259500000000000    0.1483500000000000    0.2918650000000000 O
   0.6910800000000000    0.1648500000000000    0.2900000000000000 O
