Zn4 H34 C50 S6 N4 O16
1.0
  13.3816134145644021    0.0000000000000000   -3.9696582249798333
  -4.7479531499564160   13.4120168211819024   -1.2565168817618855
   0.0000000000000000    0.0000000000000000   14.2919999999999998
Zn H C S N O
4 34 50 6 4 16
direct
   0.1406700000000000    0.1272300000000000    0.8392300000000000 Zn
   0.3607400000000000    0.1619800000000000    0.8723500000000000 Zn
   0.8593300000000000    0.8727600000000000    0.1607700000000000 Zn
   0.6392600000000001    0.8380200000000000    0.1276500000000000 Zn
   0.4664200000000000    0.1613700000000000    0.2208000000000000 H
   0.4286900000000000    0.1445000000000000    0.3902500000000000 H
   0.0183700000000000    0.0859300000000000    0.4870600000000000 H
   0.0489800000000000    0.0902600000000000    0.3143400000000000 H
   0.3602961051137487   -0.0142071075405461    0.8485689449230005 H
   0.0571991934143059   -0.0655236536198269    0.8335008518840868 H
   0.2039979075546045   -0.0502160954811626    0.8401168640388609 H
   0.7191000000000000    0.2901600000000000    0.8125400000000000 H
   0.6539900000000000    0.0095900000000000    0.9160800000000000 H
   0.5475600000000000    0.2979300000000000    0.8288800000000000 H
   0.4842000000000000    0.0272700000000000    0.9228800000000000 H
   0.7839600000000000    0.1864000000000000    0.7100700000000000 H
   0.8453200000000000    0.0848400000000000    0.9908900000000000 H
   0.9554800000000000    0.1697000000000000    0.7028700000000000 H
   0.0152100000000000    0.0776200000000000    0.9737300000000000 H
   0.1410639940637075    0.3026552782300920    0.8328560837760058 H
   0.4535283379964669    0.3549088954397577    0.9128957116533905 H
   0.3029987691071846    0.3400893220444345    0.8746390272826392 H
   0.5335800000000001    0.8386200000000000    0.7791900000000000 H
   0.5713100000000000    0.8554900000000000    0.6097500000000000 H
   0.9816300000000000    0.9140600000000000    0.5129300000000000 H
   0.9510200000000000    0.9097300000000000    0.6856600000000000 H
   0.2160500000000000    0.8136100000000001    0.2899300000000000 H
   0.1546800000000000    0.9151500000000000    0.0091000000000000 H
   0.0445200000000000    0.8303000000000000    0.2971300000000000 H
   0.0000000000000000    0.9223600000000000    0.0262600000000000 H
   0.2809000000000000    0.7098400000000000    0.1874600000000000 H
   0.3460000000000000    0.9903999999999999    0.0839100000000000 H
   0.4524400000000000    0.7020600000000000    0.1711200000000000 H
   0.5158000000000000    0.9727100000000000    0.0771000000000000 H
   0.9658200000000000    0.2230200000000000    0.1599700000000000 H
   0.9271300000000000    0.3916900000000000    0.1418300000000000 H
   0.5160600000000000    0.4838700000000000    0.0852600000000000 H
   0.5472300000000000    0.3115800000000000    0.0898700000000000 H
   0.2046200000000000    0.1297800000000000    0.6634100000000001 C
   0.2915500000000000    0.1567300000000000    0.0496300000000000 C
   0.3912900000000000    0.1567300000000000    0.2317900000000000 C
   0.3040900000000000    0.1570300000000000    0.1555200000000000 C
   0.3708500000000000    0.1478400000000000    0.3221400000000000 C
   0.2675000000000000    0.1416300000000000    0.3157900000000000 C
   0.0958000000000000    0.1041100000000000    0.4773900000000000 C
   0.1886100000000000    0.1256800000000000    0.5563000000000000 C
   0.1128000000000000    0.1071400000000000    0.3848700000000000 C
   0.2195400000000000    0.1316200000000000    0.3931400000000000 C
   0.6692600000000000    0.2298700000000000    0.8370100000000000 C
   0.6344400000000000    0.0749400000000000    0.8957300000000000 C
   0.5744300000000000    0.2351900000000000    0.8461200000000000 C
   0.5399000000000000    0.0844300000000000    0.9007300000000000 C
   0.7007800000000000    0.1479800000000000    0.8615900000000000 C
   0.8329800000000001    0.1623100000000000    0.7705100000000000 C
   0.8657000000000000    0.1046900000000000    0.9256000000000000 C
   0.9278100000000000    0.1529900000000000    0.7655200000000000 C
   0.9603200000000000    0.0994600000000000    0.9164200000000000 C
   0.8004200000000000    0.1384200000000000    0.8523200000000000 C
   0.7953800000000000    0.8702100000000000    0.3365900000000000 C
   0.7084500000000000    0.8432600000000000    0.9503700000000000 C
   0.6087100000000000    0.8432600000000000    0.7682099999999999 C
   0.6959100000000000    0.8429600000000000    0.8444800000000000 C
   0.6291600000000001    0.8521500000000000    0.6778600000000000 C
   0.7325000000000000    0.8583600000000000    0.6842100000000000 C
   0.9042000000000000    0.8958900000000000    0.5226100000000000 C
   0.8113899999999999    0.8743200000000000    0.4437000000000000 C
   0.8872000000000000    0.8928600000000000    0.6151200000000000 C
   0.7804600000000000    0.8683800000000000    0.6068600000000000 C
   0.1670200000000000    0.8376900000000000    0.2294800000000000 C
   0.1343000000000000    0.8953000000000000    0.0744000000000000 C
   0.0721900000000000    0.8470000000000000    0.2344800000000000 C
   0.0396800000000000    0.9005200000000000    0.0835700000000000 C
   0.1995900000000000    0.8615800000000000    0.1476700000000000 C
   0.3307400000000000    0.7701200000000000    0.1630000000000000 C
   0.3655600000000000    0.9250500000000000    0.1042600000000000 C
   0.4255700000000000    0.7648000000000000    0.1538800000000000 C
   0.4601000000000000    0.9155600000000000    0.0992600000000000 C
   0.2992300000000000    0.8520100000000000    0.1384100000000000 C
   0.7020500000000000    0.6622100000000000    0.1280600000000000 C
   0.7917400000000000    0.0502000000000000    0.1577500000000000 C
   0.8905500000000000    0.2331800000000000    0.1557100000000000 C
   0.8036500000000000    0.1560800000000000    0.1572200000000000 C
   0.8695800000000000    0.3230800000000000    0.1461400000000000 C
   0.7661300000000000    0.3155800000000000    0.1406100000000000 C
   0.5936200000000000    0.4750700000000000    0.1032000000000000 C
   0.6863000000000000    0.5549800000000000    0.1241900000000000 C
   0.6109300000000000    0.3828000000000000    0.1063900000000000 C
   0.7177900000000000    0.3922700000000000    0.1304200000000000 C
   0.2981100000000000    0.1510300000000000    0.5164800000000001 S
   0.1966900000000000    0.1482500000000000    0.1965000000000000 S
   0.7018799999999999    0.8489700000000000    0.4835200000000000 S
   0.8033100000000000    0.8517400000000001    0.8034900000000000 S
   0.7960800000000000    0.5164299999999999    0.1491300000000000 S
   0.6958800000000001    0.1957700000000000    0.1487500000000000 S
   0.5097600000000000    0.1629100000000000    0.8763600000000000 N
   0.9914900000000000    0.1231900000000000    0.8380200000000000 N
   0.0085200000000000    0.8768100000000000    0.1619800000000000 N
   0.4902400000000000    0.8370700000000000    0.1236200000000000 N
   0.3006500000000000    0.1556900000000000    0.7201900000000000 O
   0.1222400000000000    0.1072000000000000    0.6904400000000001 O
   0.3716600000000000    0.1605600000000000    0.0218200000000000 O
   0.1993500000000000    0.1496800000000000    0.9934600000000000 O
   0.3001600000000000    0.0069800000000000    0.8478200000000000 O
   0.1279700000000000   -0.0234300000000000    0.8391700000000000 O
   0.2019600000000000    0.2801400000000000    0.8475000000000000 O
   0.3803500000000000    0.3114900000000000    0.8932400000000000 O
   0.6993400000000000    0.8443100000000000    0.2798100000000000 O
   0.8777600000000000    0.8927900000000000    0.3095500000000000 O
   0.6283300000000001    0.8394200000000001    0.9781700000000000 O
   0.8006500000000000    0.8503100000000000    0.0065300000000000 O
   0.7980400000000000    0.7198500000000000    0.1525000000000000 O
   0.6196500000000000    0.6885100000000000    0.1067600000000000 O
   0.8720200000000000    0.0234200000000000    0.1608200000000000 O
   0.6998400000000000    0.9930099999999999    0.1521700000000000 O
