H5 C14 N2 O8
1.0
  11.3465402122414325    0.0000000000000000    4.4555723775950637
  -0.0007857514544007   12.3279747091509524    0.0249590290106593
   0.0000000000000000    0.0000000000000000   28.2340000000000018
H C N O
5 14 2 8
direct
   0.0589000000000000    0.3512400000000000    0.0025200000000000 H
   0.6471800000000000    0.2677900000000000    0.8840650000000000 H
   0.2310000000000000    0.3669000000000000    0.9398750000000000 H
   0.0835200000000000    0.1597100000000000    0.8533900000000000 H
   0.9329000000000000    0.2469500000000000    0.8838150000000000 H
   0.8368700000000000    0.4069500000000000    0.0708150000000000 C
   0.8736800000000000    0.3581600000000000    0.0177150000000000 C
   0.4607400000000000    0.3079500000000000    0.8852750000000000 C
   0.2953800000000000    0.0853800000000000    0.7896350000000000 C
   0.7002100000000000    0.2888900000000000    0.9414950000000000 C
   0.3484000000000000    0.2682100000000000    0.8806050000000001 C
   0.2374000000000000    0.3065900000000000    0.9109499999999999 C
   0.1370700000000000    0.2651700000000000    0.9037950000000000 C
   0.1555000000000000    0.1935000000000000    0.8629750000000000 C
   0.2697700000000000    0.1600300000000000    0.8344150000000000 C
   0.9905300000000000    0.3357300000000000    0.9869950000000001 C
   0.0158400000000000    0.2945100000000000    0.9377249999999999 C
   0.9211500000000000    0.2784800000000000    0.9213150000000000 C
   0.8077500000000000    0.3017900000000000    0.9545500000000000 C
   0.7843400000000000    0.3399100000000000    0.0017400000000000 N
   0.3645700000000000    0.1919300000000000    0.8444700000000001 N
   0.7267600000000000    0.4356700000000000    0.0895150000000000 O
   0.9111100000000000    0.4164300000000000    0.0910700000000000 O
   0.5510200000000000    0.2461500000000000    0.8646600000000000 O
   0.4632900000000000    0.3959400000000000    0.9072549999999999 O
   0.3939200000000000    0.0323000000000000    0.7773399999999999 O
   0.2265900000000000    0.0784800000000000    0.7663050000000000 O
   0.6003800000000000    0.2922300000000000    0.9757450000000000 O
   0.7225500000000000    0.2777100000000000    0.8929700000000000 O
