Cu8 H46 C60 I8 N12 O4
1.0
  10.1416289753551290    0.0000000000000000    1.1709153369211935
   0.5813353144476979   10.1334729539094273    1.1713587813143091
   0.0000000000000000    0.0000000000000000   33.1259999999999977
Cu H C I N O
8 46 60 8 12 4
direct
   0.2550700000000000    0.9335300000000000    0.6668350000000001 Cu
   0.4505700000000000    0.7719800000000000    0.6439250000000000 Cu
   0.9335800000000000    0.2550200000000000    0.9168149999999999 Cu
   0.7719900000000000    0.4505100000000000    0.3939200000000000 Cu
   0.2550700000000000    0.9335300000000000    0.1668350000000000 Cu
   0.7719900000000000    0.4505100000000000    0.8939200000000000 Cu
   0.4505700000000000    0.7719800000000000    0.1439250000000000 Cu
   0.9335800000000000    0.2550200000000000    0.4168150000000000 Cu
   0.9641090813678594    0.1887666055816855    0.4943091317085138 H
   0.5184299875191394    0.7452666708660373    0.5652721573158804 H
   0.1330883324191786    0.0704447532907363    0.6075367935360974 H
   0.3770800000000000    0.0536500000000000    0.8051800000000000 H
   0.4170500000000000    0.2025400000000000    0.8572299999999999 H
   0.2237000000000000    0.2885700000000000    0.9023650000000000 H
   0.9615100000000000    0.0906200000000000    0.8486950000000000 H
   0.9852400000000000    0.8693000000000000    0.8349700000000000 H
   0.2699800000000000    0.0520700000000000    0.7429749999999999 H
   0.0596600000000000    0.7531800000000000    0.7125550000000000 H
   0.6510300000000000    0.3284300000000000    0.7556100000000000 H
   0.5017300000000000    0.2888000000000000    0.7036100000000001 H
   0.4160100000000000    0.4821300000000000    0.6584400000000000 H
   0.6149700000000000    0.7435800000000000    0.7120299999999999 H
   0.8360400000000000    0.7198800000000000    0.7257500000000000 H
   0.6533000000000000    0.4352800000000000    0.8177700000000000 H
   0.9522800000000000    0.6456800000000000    0.8481650000000001 H
   0.6352766705158497    0.5728515827172745    0.4532055754798403 H
   0.3286200000000000    0.6515600000000000    0.0056600000000000 H
   0.2886200000000000    0.5025800000000000    0.9536200000000000 H
   0.4819300000000000    0.4166900000000000    0.9084449999999999 H
   0.7440500000000000    0.6149500000000000    0.9620299999999999 H
   0.0548800000000000    0.3769600000000000    0.0550800000000000 H
   0.2042300000000000    0.4166200000000000    0.1070600000000000 H
   0.2898600000000000    0.2233200000000000    0.1522600000000000 H
   0.0907800000000000    0.9618800000000000    0.0987150000000000 H
   0.7204400000000000    0.8361499999999999    0.9757700000000000 H
   0.4357200000000000    0.6533800000000000    0.0678050000000000 H
   0.6460100000000000    0.9523300000000000    0.0982000000000000 H
   0.7533800000000000    0.0597500000000000    0.9625650000000000 H
   0.0523900000000000    0.2701500000000000    0.9929500000000000 H
   0.8697400000000000    0.9855600000000000    0.0849850000000000 H
   0.3770800000000000    0.0536500000000000    0.3051800000000000 H
   0.4170500000000000    0.2025400000000000    0.3572300000000000 H
   0.2237000000000000    0.2885700000000000    0.4023650000000000 H
   0.9615100000000000    0.0906200000000000    0.3486950000000000 H
   0.9852400000000000    0.8693000000000000    0.3349700000000000 H
   0.2699800000000000    0.0520700000000000    0.2429750000000000 H
   0.0596600000000000    0.7531800000000000    0.2125550000000000 H
   0.6510300000000000    0.3284300000000000    0.2556100000000000 H
   0.5017300000000000    0.2888000000000000    0.2036100000000000 H
   0.4160100000000000    0.4821300000000000    0.1584400000000000 H
   0.6149700000000000    0.7435800000000000    0.2120300000000000 H
   0.8360400000000000    0.7198800000000000    0.2257500000000000 H
   0.6533000000000000    0.4352800000000000    0.3177700000000000 H
   0.9522800000000000    0.6456800000000000    0.3481650000000000 H
   0.2950300000000000    0.0931900000000000    0.8251600000000000 C
   0.3173600000000000    0.1759400000000000    0.8540250000000000 C
   0.2110100000000000    0.2224900000000000    0.8796700000000000 C
   0.0646600000000000    0.1106500000000000    0.8498500000000000 C
   0.1654900000000000    0.0589400000000000    0.8228650000000000 C
   0.0363900000000000    0.8790000000000000    0.8041250000000000 C
   0.1949500000000000    0.9811200000000000    0.7532799999999999 C
   0.0750200000000000    0.8153899999999999    0.7360850000000000 C
   0.1327500000000000    0.9716200000000000    0.7933300000000000 C
   0.0062500000000000    0.7989600000000000    0.7752350000000000 C
   0.6116100000000000    0.4104700000000000    0.7356199999999999 C
   0.5286400000000000    0.3883300000000000    0.7067800000000000 C
   0.4822700000000000    0.4946600000000000    0.6811150000000000 C
   0.5946500000000000    0.6406300000000000    0.7108900000000000 C
   0.6462400000000000    0.5398100000000000    0.7378850000000000 C
   0.8263800000000000    0.6687800000000000    0.7565999999999999 C
   0.7242700000000000    0.5102800000000000    0.8074500000000000 C
   0.8900300000000000    0.6302800000000000    0.8246400000000000 C
   0.7337600000000000    0.5724300000000000    0.7674000000000001 C
   0.9064400000000000    0.6990000000000000    0.7854850000000000 C
   0.4106400000000000    0.6120800000000000    0.9856450000000000 C
   0.3883000000000000    0.5292800000000000    0.9568000000000000 C
   0.4946200000000000    0.4828100000000000    0.9311250000000000 C
   0.6409700000000000    0.5948099999999999    0.9608950000000001 C
   0.5401700000000000    0.6464400000000000    0.9879050000000000 C
   0.0942600000000000    0.2949400000000000    0.0750800000000000 C
   0.1772600000000000    0.3170900000000000    0.1039100000000000 C
   0.2235900000000000    0.2107800000000000    0.1295900000000000 C
   0.1111100000000000    0.0648000000000000    0.0998500000000000 C
   0.0595700000000000    0.1656000000000000    0.0728400000000000 C
   0.6692700000000000    0.8264899999999999    0.0066350000000000 C
   0.5107400000000000    0.7243400000000000    0.0574900000000000 C
   0.6306400000000000    0.8901200000000000    0.0746700000000000 C
   0.5729000000000000    0.7338800000000000    0.0174350000000000 C
   0.6994400000000000    0.9065100000000000    0.0355200000000000 C
   0.8156400000000000    0.0751600000000000    0.9860900000000000 C
   0.9814400000000000    0.1951300000000000    0.0000000000000000 C
   0.8793100000000000    0.0366500000000000    0.0541400000000000 C
   0.7992700000000000    0.0064500000000000    0.0252600000000000 C
   0.9719100000000001    0.1330200000000000    0.0433450000000000 C
   0.2950300000000000    0.0931900000000000    0.3251600000000000 C
   0.3173600000000000    0.1759400000000000    0.3540250000000000 C
   0.2110100000000000    0.2224900000000000    0.3796700000000000 C
   0.0646600000000000    0.1106500000000000    0.3498500000000000 C
   0.1654900000000000    0.0589400000000000    0.3228650000000000 C
   0.0363900000000000    0.8790000000000000    0.3041250000000000 C
   0.1949500000000000    0.9811200000000000    0.2532800000000000 C
   0.0750200000000000    0.8153899999999999    0.2360850000000000 C
   0.1327500000000000    0.9716200000000000    0.2933300000000000 C
   0.0062500000000000    0.7989600000000000    0.2752350000000000 C
   0.6116100000000000    0.4104700000000000    0.2356200000000000 C
   0.5286400000000000    0.3883300000000000    0.2067800000000000 C
   0.4822700000000000    0.4946600000000000    0.1811150000000000 C
   0.5946500000000000    0.6406300000000000    0.2108900000000000 C
   0.6462400000000000    0.5398100000000000    0.2378850000000000 C
   0.8263800000000000    0.6687800000000000    0.2566000000000000 C
   0.7242700000000000    0.5102800000000000    0.3074500000000000 C
   0.8900300000000000    0.6302800000000000    0.3246400000000000 C
   0.7337600000000000    0.5724300000000000    0.2674000000000000 C
   0.9064400000000000    0.6990000000000000    0.2854850000000000 C
   0.2035500000000000    0.7105800000000000    0.6331900000000000 I
   0.2035500000000000    0.7105800000000000    0.1331900000000000 I
   0.9953000000000000    0.5018100000000000    0.9274899999999999 I
   0.9953000000000000    0.5018100000000000    0.4274900000000000 I
   0.7102700000000000    0.2036900000000000    0.3832600000000000 I
   0.7102700000000000    0.2036900000000000    0.8832599999999999 I
   0.5021400000000000    0.9948800000000000    0.6775800000000000 I
   0.5021400000000000    0.9948800000000000    0.1775800000000000 I
   0.0853900000000000    0.1906300000000000    0.8778850000000000 N
   0.1669700000000000    0.9051000000000000    0.7249850000000000 N
   0.5145300000000000    0.6200800000000000    0.6828600000000000 N
   0.8003600000000000    0.5382800000000000    0.8357350000000000 N
   0.6202200000000000    0.5147800000000000    0.9328700000000000 N
   0.1912400000000000    0.0853800000000000    0.1278750000000000 N
   0.5386900000000000    0.8004000000000000    0.0857750000000000 N
   0.9052900000000000    0.1671700000000000    0.9749950000000001 N
   0.0853900000000000    0.1906300000000000    0.3778850000000000 N
   0.1669700000000000    0.9051000000000000    0.2249850000000000 N
   0.5145300000000000    0.6200800000000000    0.1828600000000000 N
   0.8003600000000000    0.5382800000000000    0.3357350000000000 N
   0.9052900000000000    0.1671700000000000    0.4749950000000000 O
   0.5386900000000000    0.8004000000000000    0.5857750000000000 O
   0.1912400000000000    0.0853800000000000    0.6278750000000000 O
   0.6202200000000000    0.5147800000000000    0.4328700000000000 O
