Zn10 H21 C29 N30 Cl8 O6
1.0
  13.3510220293907622    0.0000000000000000    7.6973457614116931
   4.4436099572262462   12.5952583233731925    7.7065036375478408
   0.0000000000000000    0.0000000000000000   15.4109999999999996
Zn H C N Cl O
10 21 29 30 8 6
direct
   0.4624800000000000    0.8457200000000000    0.8459100000000001 Zn
   0.5375500000000000    0.1542800000000000    0.1541100000000000 Zn
   0.1542800000000000    0.5373900000000000    0.1542200000000000 Zn
   0.8457500000000000    0.4626100000000000    0.8458000000000000 Zn
   0.8458800000000000    0.8457500000000000    0.4624000000000000 Zn
   0.1541500000000000    0.1542500000000000    0.5376200000000000 Zn
   0.8458800000000000    0.8458100000000000    0.8459700000000000 Zn
   0.1541400000000000    0.1541900000000000    0.1540400000000000 Zn
   0.2500300000000000    0.2499900000000000    0.2500200000000000 Zn
   0.7500000000000000    0.7500100000000000    0.7500000000000000 Zn
   0.5706218144416380    0.8768571531891728    0.6755858364762475 H
   0.6755927670823676    0.8767755177365145    0.5705655600587721 H
   0.6125322244003246    0.8656628116962544    0.6561553450663922 H
   0.6561845915385803    0.8654542759037003    0.6124451098979765 H
   0.5170743688576096    0.9291640833823313    0.6246030758147589 H
   0.6246088792004697    0.9290692616136993    0.5170180668716633 H
   0.0001400000000000    0.9998000000000000    0.3326200000000000 H
   0.9998700000000000    0.0002000000000000    0.6674000000000000 H
   0.4294081855583620    0.1231428468108272    0.3244241635237525 H
   0.3244372329176324    0.1232244822634855    0.4294444399412277 H
   0.3874965799186795    0.1343363556224405    0.3438589991996329 H
   0.3438315521067170    0.1345475199191897    0.3875623900675875 H
   0.3754174512844579    0.0709333360528405    0.4829975344718666 H
   0.4829500318833342    0.0708333165139807    0.3754105987865042 H
   0.3326900000000000    0.9999200000000000    0.9998800000000000 H
   0.6673600000000000    0.3328500000000000    0.9997400000000000 H
   0.3326600000000000    0.6671600000000000    0.0002500000000000 H
   0.9998700000000000    0.3328200000000000    0.6674900000000000 H
   0.0001400000000000    0.6671800000000000    0.3325200000000000 H
   0.9999800000000000    0.3328700000000000    0.9996500000000000 H
   0.0000200000000000    0.6671400000000000    0.0003400000000000 H
   0.0533800000000000    0.0534500000000000    0.4931900000000000 C
   0.0534500000000000    0.0533500000000000    0.4000100000000000 C
   0.0000900000000000    0.9998700000000000    0.4033700000000000 C
   0.9999100000000000    0.0001200000000000    0.5966500000000000 C
   0.9466500000000000    0.9465500000000000    0.5068200000000000 C
   0.9465700000000000    0.9466500000000000    0.6000100000000000 C
   0.4931900000000000    0.0534200000000000    0.0533900000000000 C
   0.4000300000000000    0.0533800000000000    0.0533400000000000 C
   0.4034000000000000    0.9999600000000000    0.9999300000000000 C
   0.6000000000000000    0.9466200000000000    0.9466000000000000 C
   0.5068400000000000    0.9465800000000000    0.9466300000000000 C
   0.5966200000000000    0.4034900000000000    0.9998500000000000 C
   0.5999600000000000    0.5069000000000000    0.9465100000000000 C
   0.5068200000000000    0.5999600000000000    0.9466000000000000 C
   0.4034000000000000    0.5965200000000001    0.0001400000000000 C
   0.4000700000000000    0.4931000000000000    0.0535100000000000 C
   0.4932000000000000    0.4000400000000000    0.0533800000000000 C
   0.9999300000000000    0.4034700000000000    0.5966900000000001 C
   0.9465500000000000    0.5068800000000000    0.5999500000000000 C
   0.9466100000000000    0.5999700000000000    0.5067400000000000 C
   0.0000700000000000    0.5965300000000000    0.4033200000000000 C
   0.0534100000000000    0.4000300000000000    0.4932700000000000 C
   0.0534700000000000    0.4931200000000000    0.4000600000000000 C
   0.0534100000000000    0.4000200000000000    0.0533300000000000 C
   0.0534200000000000    0.4930800000000000    0.0534800000000000 C
   0.0000200000000000    0.4035000000000000    0.9997900000000000 C
   0.9999800000000000    0.5965100000000000    0.0002000000000000 C
   0.9466100000000000    0.5999800000000000    0.9466800000000000 C
   0.9466100000000000    0.5069200000000000    0.9465400000000000 C
   0.1139600000000000    0.1138100000000000    0.3144800000000000 N
   0.1483100000000000    0.1483000000000000    0.3517100000000000 N
   0.1138500000000000    0.1139600000000000    0.4577500000000000 N
   0.8860600000000000    0.8861900000000000    0.6855400000000000 N
   0.8517200000000000    0.8517000000000000    0.6483000000000000 N
   0.8861800000000000    0.8860400000000000    0.5422600000000000 N
   0.3145300000000000    0.1138600000000000    0.1137600000000000 N
   0.3517600000000000    0.1482700000000000    0.1481900000000000 N
   0.4577700000000000    0.1139100000000000    0.1138200000000000 N
   0.5422600000000000    0.8860900000000000    0.8861900000000000 N
   0.6482599999999999    0.8517300000000000    0.8518300000000000 N
   0.6854900000000000    0.8861400000000000    0.8862600000000000 N
   0.6854600000000000    0.5423800000000000    0.8859600000000000 N
   0.6482700000000000    0.6483400000000000    0.8516400000000000 N
   0.5422600000000000    0.6854700000000000    0.8861000000000000 N
   0.4577600000000000    0.3145300000000000    0.1138700000000000 N
   0.3517600000000000    0.3516600000000000    0.1483000000000000 N
   0.3145700000000000    0.4576200000000000    0.1140500000000000 N
   0.8860600000000000    0.5423300000000000    0.6854400000000000 N
   0.8516700000000000    0.6482800000000000    0.6481800000000000 N
   0.8861400000000000    0.6854600000000000    0.5421300000000000 N
   0.1139700000000000    0.4576700000000000    0.3145000000000000 N
   0.1483500000000000    0.3517200000000000    0.3518400000000000 N
   0.1138800000000000    0.3145400000000000    0.4578800000000000 N
   0.1139200000000000    0.4575900000000000    0.1140000000000000 N
   0.1483200000000000    0.3516400000000000    0.1483000000000000 N
   0.1139200000000000    0.3145000000000000    0.1137000000000000 N
   0.8861100000000000    0.5424099999999999    0.8860100000000000 N
   0.8517000000000000    0.6483600000000000    0.8517100000000000 N
   0.8861100000000000    0.6855000000000000    0.8862400000000000 N
   0.0972000000000000    0.0971200000000000    0.7085000000000000 Cl
   0.9025000000000000    0.2918000000000000    0.9031800000000000 Cl
   0.0975200000000000    0.7082000000000001    0.0968300000000000 Cl
   0.2916000000000000    0.9023900000000000    0.9029700000000001 Cl
   0.7084300000000000    0.0976100000000000    0.0970500000000000 Cl
   0.9032200000000000    0.9024500000000000    0.9029800000000000 Cl
   0.9028200000000000    0.9028800000000000    0.2914600000000000 Cl
   0.0968100000000000    0.0975500000000000    0.0970000000000000 Cl
   0.5423300000000000    0.8860600000000000    0.6855200000000000 O
   0.6855200000000000    0.8859500000000000    0.5422600000000000 O
   0.6483300000000000    0.8515800000000000    0.6483000000000000 O
   0.4577000000000000    0.1139400000000000    0.3144900000000000 O
   0.3145100000000000    0.1140500000000000    0.4577500000000000 O
   0.3517000000000000    0.1484200000000000    0.3517100000000000 O
