H11 O6
1.0
  13.3510220293907622    0.0000000000000000    7.6973457614116931
   4.4436099572262462   12.5952583233731925    7.7065036375478408
   0.0000000000000000    0.0000000000000000   15.4109999999999996
H O
11 6
direct
   0.3244668605126514    0.1230441893698721    0.1229495274630833 H
   0.3754166960793419    0.0707906739312445    0.0707334014372651 H
   0.4294692240224879    0.1230828578680060    0.1229955275006800 H
   0.3800607759775121    0.1390971421319940    0.1390144724993200 H
   0.4829996791883155    0.0708229504770975    0.0707756884994379 H
   0.5705508278682748    0.8769195014570385    0.8770195014570384 H
   0.5917203125102128    0.8552691814562589    0.8553774559573376 H
   0.6581968605126514    0.8609141893698721    0.8610195274630832 H
   0.6755531394873486    0.8769558106301280    0.8770704725369168 H
   0.5170326379090068    0.9291730924021506    0.9292374806544219 H
   0.6245791215749550    0.9292314718346792    0.9292517230572841 H
   0.3145300000000000    0.1138600000000000    0.1137600000000000 O
   0.4577700000000000    0.1139100000000000    0.1138200000000000 O
   0.3517600000000000    0.1482700000000000    0.1481900000000000 O
   0.5422600000000000    0.8860900000000000    0.8861900000000000 O
   0.6482599999999999    0.8517300000000000    0.8518300000000000 O
   0.6854900000000000    0.8861400000000000    0.8862600000000000 O
