H12 O6
1.0
  13.3510220293907622    0.0000000000000000    7.6973457614116931
   4.4436099572262462   12.5952583233731925    7.7065036375478408
   0.0000000000000000    0.0000000000000000   15.4109999999999996
H O
12 6
direct
   0.1231283613543433    0.1230157287659767    0.3244170623936594 H
   0.1230483626582277    0.1231263312154248    0.4294448817098530 H
   0.1447271290441443    0.1448686424245081    0.4083493504126826 H
   0.1203390255112319    0.1199706739091534    0.4001669170679167 H
   0.0707825354851378    0.0708640470019131    0.4829907961370385 H
   0.0708677013402945    0.0707533089247101    0.3753903339012495 H
   0.8768942586303936    0.8769842219033860    0.6756002152415800 H
   0.8769816373417723    0.8768736687845752    0.5705651182901471 H
   0.8553070076551383    0.8551354932482984    0.5916658221295011 H
   0.8796833501883629    0.8800317136157257    0.5998527344812491 H
   0.9292474645148622    0.9291359529980869    0.5170192038629615 H
   0.9291522986597055    0.9292466910752899    0.6246296660987505 H
   0.1139600000000000    0.1138100000000000    0.3144800000000000 O
   0.1138500000000000    0.1139600000000000    0.4577500000000000 O
   0.1483100000000000    0.1483000000000000    0.3517100000000000 O
   0.8860600000000000    0.8861900000000000    0.6855400000000000 O
   0.8861800000000000    0.8860400000000000    0.5422600000000000 O
   0.8517200000000000    0.8517000000000000    0.6483000000000000 O
