H2 C6 N6
1.0
  13.3510220293907622    0.0000000000000000    7.6973457614116931
   4.4436099572262462   12.5952583233731925    7.7065036375478408
   0.0000000000000000    0.0000000000000000   15.4109999999999996
H C N
2 6 6
direct
   0.0001400000000000    0.9998000000000000    0.3326200000000000 H
   0.9998700000000000    0.0002000000000000    0.6674000000000000 H
   0.0534500000000000    0.0533500000000000    0.4000100000000000 C
   0.0533800000000000    0.0534500000000000    0.4931900000000000 C
   0.9465700000000000    0.9466500000000000    0.6000100000000000 C
   0.9466500000000000    0.9465500000000000    0.5068200000000000 C
   0.0000900000000000    0.9998700000000000    0.4033700000000000 C
   0.9999100000000000    0.0001200000000000    0.5966500000000000 C
   0.1139600000000000    0.1138100000000000    0.3144800000000000 N
   0.1138500000000000    0.1139600000000000    0.4577500000000000 N
   0.8860600000000000    0.8861900000000000    0.6855400000000000 N
   0.8861800000000000    0.8860400000000000    0.5422600000000000 N
   0.1483100000000000    0.1483000000000000    0.3517100000000000 N
   0.8517200000000000    0.8517000000000000    0.6483000000000000 N
