H2 O1
1.0
  12.3543524944285625    0.0000000000000000   -1.0152785053406561
  -1.9419506547423719   19.5624806354538343   -4.4363935851138558
   0.0000000000000000    0.0000000000000000   20.2250000000000014
H O
2 1
direct
   0.4372752006917972    0.0927622973863748    0.5130978413268491 H
   0.5126057802488642    0.1143100207699607    0.5831099769023235 H
   0.4458400000000000    0.0870700000000000    0.5600000000000001 O
