H8 O4
1.0
  19.7909999879426337    0.0000000000000000   -0.0006908362243811
 -19.7638726221666126   34.2969734915348852    0.0020726133923783
   0.0000000000000000    0.0000000000000000   21.8919999999999995
H O
8 4
direct
   0.4011241168626029    0.1761280281912526    0.2248086102464647 H
   0.3811665063225114    0.1697568439776841    0.2563639605848475 H
   0.3896925594344550    0.1839814920850550    0.1851207256463669 H
   0.3423735986334120    0.1497602288476033    0.1734745712771304 H
   0.1465513433830286    0.0487985458027839    0.2771139111995850 H
   0.1605697106973336    0.0594948989293186    0.2437062963633020 H
   0.2005823871408053    0.0788244895661756    0.3266147712118356 H
   0.0838354323144701    0.0486114742489615    0.3009289807086543 H
   0.4196900000000000    0.1876750000000000    0.2270000000000000 O
   0.3929600000000000    0.1736050000000000    0.1693900000000000 O
   0.1247100000000000    0.0402250000000000    0.2730500000000000 O
   0.1528900000000000    0.0535300000000000    0.3306700000000000 O
