Zn32 H496 C631 N60 O192
1.0
  38.3486015437062804    0.0000000000000000    6.6446338982707402
   9.3930694318407166   24.7360605730011933    1.6999264623610313
   0.0000000000000000    0.0000000000000000   20.9349999999999987
Zn H C N O
32 496 631 60 192
direct
   0.7862650000000000    0.8737200000000001    0.4974100000000000 Zn
   0.6509900000000000    0.8754400000000000    0.0020300000000000 Zn
   0.2137075000000000    0.1263100000000000    0.5026000000000000 Zn
   0.3489975000000000    0.1245850000000000    0.9979900000000000 Zn
   0.0362650000000000    0.8737200000000001    0.4974100000000000 Zn
   0.9009900000000000    0.8754400000000000    0.0020300000000000 Zn
   0.4637075000000000    0.1263100000000000    0.5026000000000000 Zn
   0.5989975000000000    0.1245850000000000    0.9979900000000000 Zn
   0.5362650000000000    0.8737200000000001    0.4974100000000000 Zn
   0.4009900000000000    0.8754400000000000    0.0020300000000000 Zn
   0.9637074999999999    0.1263100000000000    0.5026000000000000 Zn
   0.0989975000000000    0.1245850000000000    0.9979900000000000 Zn
   0.2862650000000000    0.8737200000000001    0.4974100000000000 Zn
   0.1509900000000000    0.8754400000000000    0.0020300000000000 Zn
   0.7137074999999999    0.1263100000000000    0.5026000000000000 Zn
   0.8489975000000000    0.1245850000000000    0.9979900000000000 Zn
   0.0362650000000000    0.3737200000000000    0.4974100000000000 Zn
   0.9009900000000000    0.3754400000000000    0.0020300000000000 Zn
   0.4637075000000000    0.6263100000000000    0.5026000000000000 Zn
   0.5989975000000000    0.6245849999999999    0.9979900000000000 Zn
   0.7862650000000000    0.3737200000000000    0.4974100000000000 Zn
   0.6509900000000000    0.3754400000000000    0.0020300000000000 Zn
   0.2137075000000000    0.6263100000000000    0.5026000000000000 Zn
   0.3489975000000000    0.6245849999999999    0.9979900000000000 Zn
   0.2862650000000000    0.3737200000000000    0.4974100000000000 Zn
   0.1509900000000000    0.3754400000000000    0.0020300000000000 Zn
   0.7137074999999999    0.6263100000000000    0.5026000000000000 Zn
   0.8489975000000000    0.6245849999999999    0.9979900000000000 Zn
   0.5362650000000000    0.3737200000000000    0.4974100000000000 Zn
   0.4009900000000000    0.3754400000000000    0.0020300000000000 Zn
   0.9637074999999999    0.6263100000000000    0.5026000000000000 Zn
   0.0989975000000000    0.6245849999999999    0.9979900000000000 Zn
   0.2715574307796405    0.0843001317591218    0.5768512875818660 H
   0.2479532162506841    0.0429986409031800    0.5750263161845023 H
   0.3117102154933705    0.0835661727342275    0.9234525521069500 H
   0.3556907515665920    0.0424300149346073    0.9247196393203567 H
   0.8035050000000000    0.3796650000000000    0.8372900000000000 H
   0.8093325000000000    0.3344950000000000    0.7720100000000000 H
   0.7888200000000000    0.2985000000000000    0.8746100000000000 H
   0.9074450000000001    0.2520350000000000    0.8768800000000000 H
   0.9025275000000000    0.1773350000000000    0.9532700000000000 H
   0.7887675000000000    0.2244500000000000    0.9510900000000000 H
   0.8810125000000000    0.3801700000000000    0.6628400000000000 H
   0.8972599999999999    0.3352900000000000    0.7287000000000000 H
   0.9365400000000000    0.2983500000000000    0.6300800000000000 H
   0.8413325000000000    0.2525000000000000    0.6197900000000000 H
   0.8840500000000000    0.1783400000000000    0.5443200000000000 H
   0.9741400000000000    0.2250550000000000    0.5539500000000001 H
   0.8667925000000000    0.4007900000000000    0.8269900000000000 H
   0.8715600000000000    0.4424700000000000    0.7572000000000000 H
   0.7699075000000000    0.5610750000000000    0.8618900000000000 H
   0.8839750000000000    0.4550750000000000    0.8682500000000000 H
   0.7799900000000000    0.6236550000000000    0.9346700000000000 H
   0.8892825000000000    0.5222700000000000    0.9378300000000001 H
   0.8072100000000000    0.3997950000000000    0.6725500000000000 H
   0.7818875000000000    0.4419300000000000    0.7416300000000000 H
   0.8247625000000000    0.5610600000000000    0.6377699999999999 H
   0.7631925000000001    0.4546450000000000    0.6301099999999999 H
   0.7833600000000001    0.6247199999999999    0.5663800000000000 H
   0.7243150000000000    0.5228550000000000    0.5616600000000000 H
   0.0535050000000000    0.3796650000000000    0.8372900000000000 H
   0.0593325000000000    0.3344950000000000    0.7720100000000000 H
   0.0388200000000000    0.2985000000000000    0.8746100000000000 H
   0.1574450000000000    0.2520350000000000    0.8768800000000000 H
   0.1525275000000000    0.1773350000000000    0.9532700000000000 H
   0.0387675000000000    0.2244500000000000    0.9510900000000000 H
   0.1310125000000000    0.3801700000000000    0.6628400000000000 H
   0.1472600000000000    0.3352900000000000    0.7287000000000000 H
   0.1865400000000000    0.2983500000000000    0.6300800000000000 H
   0.0913325000000000    0.2525000000000000    0.6197900000000000 H
   0.1340500000000000    0.1783400000000000    0.5443200000000000 H
   0.2241400000000000    0.2250550000000000    0.5539500000000001 H
   0.1167925000000000    0.4007900000000000    0.8269900000000000 H
   0.1215600000000000    0.4424700000000000    0.7572000000000000 H
   0.0199075000000000    0.5610750000000000    0.8618900000000000 H
   0.1339750000000000    0.4550750000000000    0.8682500000000000 H
   0.0299900000000000    0.6236550000000000    0.9346700000000000 H
   0.1392825000000000    0.5222700000000000    0.9378300000000001 H
   0.0572100000000000    0.3997950000000000    0.6725500000000000 H
   0.0318875000000000    0.4419300000000000    0.7416300000000000 H
   0.0747625000000000    0.5610600000000000    0.6377699999999999 H
   0.0131925000000000    0.4546450000000000    0.6301099999999999 H
   0.0333600000000000    0.6247199999999999    0.5663800000000000 H
   0.9743150000000000    0.5228550000000000    0.5616600000000000 H
   0.3035050000000000    0.3796650000000000    0.8372900000000000 H
   0.3093325000000000    0.3344950000000000    0.7720100000000000 H
   0.2888200000000000    0.2985000000000000    0.8746100000000000 H
   0.4074450000000000    0.2520350000000000    0.8768800000000000 H
   0.4025275000000000    0.1773350000000000    0.9532700000000000 H
   0.2887675000000000    0.2244500000000000    0.9510900000000000 H
   0.3810125000000000    0.3801700000000000    0.6628400000000000 H
   0.3972600000000000    0.3352900000000000    0.7287000000000000 H
   0.4365400000000000    0.2983500000000000    0.6300800000000000 H
   0.3413325000000000    0.2525000000000000    0.6197900000000000 H
   0.3840500000000000    0.1783400000000000    0.5443200000000000 H
   0.4741400000000000    0.2250550000000000    0.5539500000000001 H
   0.3667925000000000    0.4007900000000000    0.8269900000000000 H
   0.3715600000000000    0.4424700000000000    0.7572000000000000 H
   0.2699075000000000    0.5610750000000000    0.8618900000000000 H
   0.3839750000000000    0.4550750000000000    0.8682500000000000 H
   0.2799900000000000    0.6236550000000000    0.9346700000000000 H
   0.3892825000000000    0.5222700000000000    0.9378300000000001 H
   0.3072100000000000    0.3997950000000000    0.6725500000000000 H
   0.2818875000000000    0.4419300000000000    0.7416300000000000 H
   0.3247625000000000    0.5610600000000000    0.6377699999999999 H
   0.2631925000000000    0.4546450000000000    0.6301099999999999 H
   0.2833600000000000    0.6247199999999999    0.5663800000000000 H
   0.2243150000000000    0.5228550000000000    0.5616600000000000 H
   0.5535050000000000    0.3796650000000000    0.8372900000000000 H
   0.5593325000000000    0.3344950000000000    0.7720100000000000 H
   0.5388200000000000    0.2985000000000000    0.8746100000000000 H
   0.6574450000000001    0.2520350000000000    0.8768800000000000 H
   0.6525275000000000    0.1773350000000000    0.9532700000000000 H
   0.5387675000000000    0.2244500000000000    0.9510900000000000 H
   0.6310125000000000    0.3801700000000000    0.6628400000000000 H
   0.6472599999999999    0.3352900000000000    0.7287000000000000 H
   0.6865400000000000    0.2983500000000000    0.6300800000000000 H
   0.5913325000000000    0.2525000000000000    0.6197900000000000 H
   0.6340500000000000    0.1783400000000000    0.5443200000000000 H
   0.7241400000000000    0.2250550000000000    0.5539500000000001 H
   0.6167925000000000    0.4007900000000000    0.8269900000000000 H
   0.6215600000000000    0.4424700000000000    0.7572000000000000 H
   0.5199075000000000    0.5610750000000000    0.8618900000000000 H
   0.6339750000000000    0.4550750000000000    0.8682500000000000 H
   0.5299900000000000    0.6236550000000000    0.9346700000000000 H
   0.6392825000000000    0.5222700000000000    0.9378300000000001 H
   0.5572100000000000    0.3997950000000000    0.6725500000000000 H
   0.5318875000000000    0.4419300000000000    0.7416300000000000 H
   0.5747625000000000    0.5610600000000000    0.6377699999999999 H
   0.5131925000000001    0.4546450000000000    0.6301099999999999 H
   0.5333600000000001    0.6247199999999999    0.5663800000000000 H
   0.4743150000000000    0.5228550000000000    0.5616600000000000 H
   0.1964750000000000    0.6203700000000000    0.1627200000000000 H
   0.1906425000000000    0.6655450000000001    0.2280000000000000 H
   0.2111600000000000    0.7015250000000000    0.1254100000000000 H
   0.0925350000000000    0.7480000000000000    0.1231200000000000 H
   0.0974575000000000    0.8227000000000000    0.0467300000000000 H
   0.2112175000000000    0.7755799999999999    0.0489200000000000 H
   0.1189650000000000    0.6198700000000000    0.3371700000000000 H
   0.1027150000000000    0.6647400000000000    0.2713000000000000 H
   0.0634350000000000    0.7016800000000000    0.3699300000000000 H
   0.1586400000000000    0.7475400000000000    0.3802200000000000 H
   0.1159225000000000    0.8216900000000000    0.4556900000000000 H
   0.0258350000000000    0.7749750000000000    0.4460600000000000 H
   0.1331850000000000    0.5992450000000000    0.1730300000000000 H
   0.1284200000000000    0.5575650000000000    0.2428100000000000 H
   0.2300750000000000    0.4389650000000000    0.1381200000000000 H
   0.1160050000000000    0.5449550000000000    0.1317600000000000 H
   0.2199925000000000    0.3763800000000000    0.0653400000000000 H
   0.1107000000000000    0.4777600000000000    0.0621900000000000 H
   0.1927650000000000    0.6002450000000000    0.3274600000000000 H
   0.2180900000000000    0.5581150000000000    0.2583800000000000 H
   0.1752150000000000    0.4389800000000000    0.3622400000000000 H
   0.2367875000000000    0.5453950000000000    0.3699000000000000 H
   0.2166150000000000    0.3753200000000000    0.4336200000000000 H
   0.2756650000000000    0.4771750000000000    0.4383500000000000 H
   0.6964750000000000    0.6203700000000000    0.1627200000000000 H
   0.6906425000000000    0.6655450000000001    0.2280000000000000 H
   0.7111600000000000    0.7015250000000000    0.1254100000000000 H
   0.5925350000000000    0.7480000000000000    0.1231200000000000 H
   0.5974575000000000    0.8227000000000000    0.0467300000000000 H
   0.7112175000000001    0.7755799999999999    0.0489200000000000 H
   0.6189650000000000    0.6198700000000000    0.3371700000000000 H
   0.6027150000000000    0.6647400000000000    0.2713000000000000 H
   0.5634350000000000    0.7016800000000000    0.3699300000000000 H
   0.6586400000000000    0.7475400000000000    0.3802200000000000 H
   0.6159225000000000    0.8216900000000000    0.4556900000000000 H
   0.5258350000000001    0.7749750000000000    0.4460600000000000 H
   0.6331850000000000    0.5992450000000000    0.1730300000000000 H
   0.6284200000000000    0.5575650000000000    0.2428100000000000 H
   0.7300750000000000    0.4389650000000000    0.1381200000000000 H
   0.6160050000000000    0.5449550000000000    0.1317600000000000 H
   0.7199925000000000    0.3763800000000000    0.0653400000000000 H
   0.6107000000000000    0.4777600000000000    0.0621900000000000 H
   0.6927650000000000    0.6002450000000000    0.3274600000000000 H
   0.7180900000000000    0.5581150000000000    0.2583800000000000 H
   0.6752150000000000    0.4389800000000000    0.3622400000000000 H
   0.7367875000000000    0.5453950000000000    0.3699000000000000 H
   0.7166150000000000    0.3753200000000000    0.4336200000000000 H
   0.7756650000000000    0.4771750000000000    0.4383500000000000 H
   0.4464750000000000    0.6203700000000000    0.1627200000000000 H
   0.4406425000000000    0.6655450000000001    0.2280000000000000 H
   0.4611600000000000    0.7015250000000000    0.1254100000000000 H
   0.3425350000000000    0.7480000000000000    0.1231200000000000 H
   0.3474575000000000    0.8227000000000000    0.0467300000000000 H
   0.4612175000000000    0.7755799999999999    0.0489200000000000 H
   0.3689650000000000    0.6198700000000000    0.3371700000000000 H
   0.3527150000000000    0.6647400000000000    0.2713000000000000 H
   0.3134350000000000    0.7016800000000000    0.3699300000000000 H
   0.4086400000000000    0.7475400000000000    0.3802200000000000 H
   0.3659225000000000    0.8216900000000000    0.4556900000000000 H
   0.2758350000000000    0.7749750000000000    0.4460600000000000 H
   0.3831850000000000    0.5992450000000000    0.1730300000000000 H
   0.3784200000000000    0.5575650000000000    0.2428100000000000 H
   0.4800750000000000    0.4389650000000000    0.1381200000000000 H
   0.3660050000000000    0.5449550000000000    0.1317600000000000 H
   0.4699925000000000    0.3763800000000000    0.0653400000000000 H
   0.3607000000000000    0.4777600000000000    0.0621900000000000 H
   0.4427650000000000    0.6002450000000000    0.3274600000000000 H
   0.4680900000000000    0.5581150000000000    0.2583800000000000 H
   0.4252150000000000    0.4389800000000000    0.3622400000000000 H
   0.4867875000000000    0.5453950000000000    0.3699000000000000 H
   0.4666150000000000    0.3753200000000000    0.4336200000000000 H
   0.5256650000000000    0.4771750000000000    0.4383500000000000 H
   0.9464750000000000    0.6203700000000000    0.1627200000000000 H
   0.9406425000000000    0.6655450000000001    0.2280000000000000 H
   0.9611600000000000    0.7015250000000000    0.1254100000000000 H
   0.8425350000000000    0.7480000000000000    0.1231200000000000 H
   0.8474575000000000    0.8227000000000000    0.0467300000000000 H
   0.9612175000000001    0.7755799999999999    0.0489200000000000 H
   0.8689650000000000    0.6198700000000000    0.3371700000000000 H
   0.8527150000000000    0.6647400000000000    0.2713000000000000 H
   0.8134350000000000    0.7016800000000000    0.3699300000000000 H
   0.9086400000000000    0.7475400000000000    0.3802200000000000 H
   0.8659225000000000    0.8216900000000000    0.4556900000000000 H
   0.7758350000000001    0.7749750000000000    0.4460600000000000 H
   0.8831850000000000    0.5992450000000000    0.1730300000000000 H
   0.8784200000000000    0.5575650000000000    0.2428100000000000 H
   0.9800750000000000    0.4389650000000000    0.1381200000000000 H
   0.8660050000000000    0.5449550000000000    0.1317600000000000 H
   0.9699925000000000    0.3763800000000000    0.0653400000000000 H
   0.8607000000000000    0.4777600000000000    0.0621900000000000 H
   0.9427650000000000    0.6002450000000000    0.3274600000000000 H
   0.9680900000000000    0.5581150000000000    0.2583800000000000 H
   0.9252150000000000    0.4389800000000000    0.3622400000000000 H
   0.9867875000000000    0.5453950000000000    0.3699000000000000 H
   0.9666150000000000    0.3753200000000000    0.4336200000000000 H
   0.0256650000000000    0.4771750000000000    0.4383500000000000 H
   0.1008350000000000    0.0780500000000000    0.4274100000000000 H
   0.0741675000000000    0.0000000000000000    0.4400800000000000 H
   0.1758100000000000    0.9956050000000001    0.5599300000000000 H
   0.1491450000000000    0.9219800000000000    0.5725900000000000 H
   0.7161725000000000    0.9268449999999999    0.6887400000000000 H
   0.6936925000000000    0.9282750000000000    0.8077900000000000 H
   0.7414700000000000    0.7549900000000000    0.8136400000000000 H
   0.7603375000000000    0.7533650000000001    0.6925800000000000 H
   0.4855025000000000    0.0774200000000000    0.0732800000000000 H
   0.5484175000000000    0.0000000000000000    0.0606500000000000 H
   0.4515650000000000    0.9958350000000000    0.9393600000000000 H
   0.5144825000000000    0.9226150000000000    0.9267300000000001 H
   0.2838050000000000    0.0731850000000000    0.3112800000000000 H
   0.3062875000000000    0.0717500000000000    0.1922300000000000 H
   0.2396450000000000    0.2466650000000000    0.3074200000000000 H
   0.2585200000000000    0.2450350000000000    0.1863700000000000 H
   0.3508350000000000    0.0780500000000000    0.4274100000000000 H
   0.3241675000000000    0.0000000000000000    0.4400800000000000 H
   0.4258100000000000    0.9956050000000001    0.5599300000000000 H
   0.3991450000000000    0.9219800000000000    0.5725900000000000 H
   0.9661725000000000    0.9268449999999999    0.6887400000000000 H
   0.9436925000000000    0.9282750000000000    0.8077900000000000 H
   0.9914700000000000    0.7549900000000000    0.8136400000000000 H
   0.0103375000000000    0.7533650000000001    0.6925800000000000 H
   0.7355024999999999    0.0774200000000000    0.0732800000000000 H
   0.7984175000000000    0.0000000000000000    0.0606500000000000 H
   0.7015650000000000    0.9958350000000000    0.9393600000000000 H
   0.7644825000000000    0.9226150000000000    0.9267300000000001 H
   0.5338050000000000    0.0731850000000000    0.3112800000000000 H
   0.5562875000000000    0.0717500000000000    0.1922300000000000 H
   0.4896450000000000    0.2466650000000000    0.3074200000000000 H
   0.5085200000000000    0.2450350000000000    0.1863700000000000 H
   0.8508350000000000    0.0780500000000000    0.4274100000000000 H
   0.8241674999999999    0.0000000000000000    0.4400800000000000 H
   0.9258100000000000    0.9956050000000001    0.5599300000000000 H
   0.8991450000000000    0.9219800000000000    0.5725900000000000 H
   0.4661725000000000    0.9268449999999999    0.6887400000000000 H
   0.4436925000000000    0.9282750000000000    0.8077900000000000 H
   0.4914700000000000    0.7549900000000000    0.8136400000000000 H
   0.5103375000000000    0.7533650000000001    0.6925800000000000 H
   0.2355025000000000    0.0774200000000000    0.0732800000000000 H
   0.2984175000000000    0.0000000000000000    0.0606500000000000 H
   0.2015650000000000    0.9958350000000000    0.9393600000000000 H
   0.2644825000000000    0.9226150000000000    0.9267300000000001 H
   0.0338050000000000    0.0731850000000000    0.3112800000000000 H
   0.0562875000000000    0.0717500000000000    0.1922300000000000 H
   0.9896450000000000    0.2466650000000000    0.3074200000000000 H
   0.0085200000000000    0.2450350000000000    0.1863700000000000 H
   0.6008350000000000    0.0780500000000000    0.4274100000000000 H
   0.5741674999999999    0.0000000000000000    0.4400800000000000 H
   0.6758100000000000    0.9956050000000001    0.5599300000000000 H
   0.6491450000000000    0.9219800000000000    0.5725900000000000 H
   0.2161725000000000    0.9268449999999999    0.6887400000000000 H
   0.1936925000000000    0.9282750000000000    0.8077900000000000 H
   0.2414700000000000    0.7549900000000000    0.8136400000000000 H
   0.2603375000000000    0.7533650000000001    0.6925800000000000 H
   0.9855024999999999    0.0774200000000000    0.0732800000000000 H
   0.0484175000000000    0.0000000000000000    0.0606500000000000 H
   0.9515650000000000    0.9958350000000000    0.9393600000000000 H
   0.0144825000000000    0.9226150000000000    0.9267300000000001 H
   0.7838050000000000    0.0731850000000000    0.3112800000000000 H
   0.8062875000000000    0.0717500000000000    0.1922300000000000 H
   0.7396450000000000    0.2466650000000000    0.3074200000000000 H
   0.7585200000000000    0.2450350000000000    0.1863700000000000 H
   0.3234447675999679    0.7209337232705161    0.9378531268904441 H
   0.3693272066794786    0.7021839035016734    0.9388502104822553 H
   0.4411418240690264    0.7214873361418824    0.5647562253137887 H
   0.4046880939106625    0.7028939375001864    0.5609087190015237 H
   0.0535050000000000    0.8796649999999999    0.8372900000000000 H
   0.0593325000000000    0.8344950000000000    0.7720100000000000 H
   0.0388200000000000    0.7985000000000000    0.8746100000000000 H
   0.1574450000000000    0.7520350000000000    0.8768800000000000 H
   0.1525275000000000    0.6773350000000000    0.9532700000000000 H
   0.0387675000000000    0.7244500000000000    0.9510900000000000 H
   0.1310125000000000    0.8801700000000000    0.6628400000000000 H
   0.1472600000000000    0.8352900000000000    0.7287000000000000 H
   0.1865400000000000    0.7983500000000000    0.6300800000000000 H
   0.0913325000000000    0.7524999999999999    0.6197900000000000 H
   0.1340500000000000    0.6783399999999999    0.5443200000000000 H
   0.2241400000000000    0.7250550000000000    0.5539500000000001 H
   0.1167925000000000    0.9007900000000000    0.8269900000000000 H
   0.1215600000000000    0.9424699999999999    0.7572000000000000 H
   0.0199075000000000    0.0610750000000000    0.8618900000000000 H
   0.1339750000000000    0.9550750000000000    0.8682500000000000 H
   0.0299900000000000    0.1236550000000000    0.9346700000000000 H
   0.1392825000000000    0.0222700000000000    0.9378300000000001 H
   0.0572100000000000    0.8997950000000000    0.6725500000000000 H
   0.0318875000000000    0.9419299999999999    0.7416300000000000 H
   0.0747625000000000    0.0610600000000000    0.6377699999999999 H
   0.0131925000000000    0.9546450000000000    0.6301099999999999 H
   0.0333600000000000    0.1247200000000000    0.5663800000000000 H
   0.9743150000000000    0.0228550000000000    0.5616600000000000 H
   0.8035050000000000    0.8796649999999999    0.8372900000000000 H
   0.8093325000000000    0.8344950000000000    0.7720100000000000 H
   0.7888200000000000    0.7985000000000000    0.8746100000000000 H
   0.9074450000000001    0.7520350000000000    0.8768800000000000 H
   0.9025275000000000    0.6773350000000000    0.9532700000000000 H
   0.7887675000000000    0.7244500000000000    0.9510900000000000 H
   0.8810125000000000    0.8801700000000000    0.6628400000000000 H
   0.8972599999999999    0.8352900000000000    0.7287000000000000 H
   0.9365400000000000    0.7983500000000000    0.6300800000000000 H
   0.8413325000000000    0.7524999999999999    0.6197900000000000 H
   0.8840500000000000    0.6783399999999999    0.5443200000000000 H
   0.9741400000000000    0.7250550000000000    0.5539500000000001 H
   0.8667925000000000    0.9007900000000000    0.8269900000000000 H
   0.8715600000000000    0.9424699999999999    0.7572000000000000 H
   0.7699075000000000    0.0610750000000000    0.8618900000000000 H
   0.8839750000000000    0.9550750000000000    0.8682500000000000 H
   0.7799900000000000    0.1236550000000000    0.9346700000000000 H
   0.8892825000000000    0.0222700000000000    0.9378300000000001 H
   0.8072100000000000    0.8997950000000000    0.6725500000000000 H
   0.7818875000000000    0.9419299999999999    0.7416300000000000 H
   0.8247625000000000    0.0610600000000000    0.6377699999999999 H
   0.7631925000000001    0.9546450000000000    0.6301099999999999 H
   0.7833600000000001    0.1247200000000000    0.5663800000000000 H
   0.7243150000000000    0.0228550000000000    0.5616600000000000 H
   0.5535050000000000    0.8796649999999999    0.8372900000000000 H
   0.5593325000000000    0.8344950000000000    0.7720100000000000 H
   0.5388200000000000    0.7985000000000000    0.8746100000000000 H
   0.6574450000000001    0.7520350000000000    0.8768800000000000 H
   0.6525275000000000    0.6773350000000000    0.9532700000000000 H
   0.5387675000000000    0.7244500000000000    0.9510900000000000 H
   0.6310125000000000    0.8801700000000000    0.6628400000000000 H
   0.6472599999999999    0.8352900000000000    0.7287000000000000 H
   0.6865400000000000    0.7983500000000000    0.6300800000000000 H
   0.5913325000000000    0.7524999999999999    0.6197900000000000 H
   0.6340500000000000    0.6783399999999999    0.5443200000000000 H
   0.7241400000000000    0.7250550000000000    0.5539500000000001 H
   0.6167925000000000    0.9007900000000000    0.8269900000000000 H
   0.6215600000000000    0.9424699999999999    0.7572000000000000 H
   0.5199075000000000    0.0610750000000000    0.8618900000000000 H
   0.6339750000000000    0.9550750000000000    0.8682500000000000 H
   0.5299900000000000    0.1236550000000000    0.9346700000000000 H
   0.6392825000000000    0.0222700000000000    0.9378300000000001 H
   0.5572100000000000    0.8997950000000000    0.6725500000000000 H
   0.5318875000000000    0.9419299999999999    0.7416300000000000 H
   0.5747625000000000    0.0610600000000000    0.6377699999999999 H
   0.5131925000000001    0.9546450000000000    0.6301099999999999 H
   0.5333600000000001    0.1247200000000000    0.5663800000000000 H
   0.4743150000000000    0.0228550000000000    0.5616600000000000 H
   0.6964750000000000    0.1203700000000000    0.1627200000000000 H
   0.6906425000000000    0.1655450000000000    0.2280000000000000 H
   0.7111600000000000    0.2015250000000000    0.1254100000000000 H
   0.5925350000000000    0.2480000000000000    0.1231200000000000 H
   0.5974575000000000    0.3227000000000000    0.0467300000000000 H
   0.7112175000000001    0.2755800000000000    0.0489200000000000 H
   0.6189650000000000    0.1198700000000000    0.3371700000000000 H
   0.6027150000000000    0.1647400000000000    0.2713000000000000 H
   0.5634350000000000    0.2016800000000000    0.3699300000000000 H
   0.6586400000000000    0.2475400000000000    0.3802200000000000 H
   0.6159225000000000    0.3216900000000000    0.4556900000000000 H
   0.5258350000000001    0.2749750000000000    0.4460600000000000 H
   0.6331850000000000    0.0992450000000000    0.1730300000000000 H
   0.6284200000000000    0.0575650000000000    0.2428100000000000 H
   0.7300750000000000    0.9389650000000000    0.1381200000000000 H
   0.6160050000000000    0.0449550000000000    0.1317600000000000 H
   0.7199925000000000    0.8763799999999999    0.0653400000000000 H
   0.6107000000000000    0.9777600000000000    0.0621900000000000 H
   0.6927650000000000    0.1002450000000000    0.3274600000000000 H
   0.7180900000000000    0.0581150000000000    0.2583800000000000 H
   0.6752150000000000    0.9389799999999999    0.3622400000000000 H
   0.7367875000000000    0.0453950000000000    0.3699000000000000 H
   0.7166150000000000    0.8753200000000000    0.4336200000000000 H
   0.7756650000000000    0.9771750000000000    0.4383500000000000 H
   0.1964750000000000    0.1203700000000000    0.1627200000000000 H
   0.1906425000000000    0.1655450000000000    0.2280000000000000 H
   0.2111600000000000    0.2015250000000000    0.1254100000000000 H
   0.0925350000000000    0.2480000000000000    0.1231200000000000 H
   0.0974575000000000    0.3227000000000000    0.0467300000000000 H
   0.2112175000000000    0.2755800000000000    0.0489200000000000 H
   0.1189650000000000    0.1198700000000000    0.3371700000000000 H
   0.1027150000000000    0.1647400000000000    0.2713000000000000 H
   0.0634350000000000    0.2016800000000000    0.3699300000000000 H
   0.1586400000000000    0.2475400000000000    0.3802200000000000 H
   0.1159225000000000    0.3216900000000000    0.4556900000000000 H
   0.0258350000000000    0.2749750000000000    0.4460600000000000 H
   0.1331850000000000    0.0992450000000000    0.1730300000000000 H
   0.1284200000000000    0.0575650000000000    0.2428100000000000 H
   0.2300750000000000    0.9389650000000000    0.1381200000000000 H
   0.1160050000000000    0.0449550000000000    0.1317600000000000 H
   0.2199925000000000    0.8763799999999999    0.0653400000000000 H
   0.1107000000000000    0.9777600000000000    0.0621900000000000 H
   0.1927650000000000    0.1002450000000000    0.3274600000000000 H
   0.2180900000000000    0.0581150000000000    0.2583800000000000 H
   0.1752150000000000    0.9389799999999999    0.3622400000000000 H
   0.2367875000000000    0.0453950000000000    0.3699000000000000 H
   0.2166150000000000    0.8753200000000000    0.4336200000000000 H
   0.2756650000000000    0.9771750000000000    0.4383500000000000 H
   0.9464750000000000    0.1203700000000000    0.1627200000000000 H
   0.9406425000000000    0.1655450000000000    0.2280000000000000 H
   0.9611600000000000    0.2015250000000000    0.1254100000000000 H
   0.8425350000000000    0.2480000000000000    0.1231200000000000 H
   0.8474575000000000    0.3227000000000000    0.0467300000000000 H
   0.9612175000000001    0.2755800000000000    0.0489200000000000 H
   0.8689650000000000    0.1198700000000000    0.3371700000000000 H
   0.8527150000000000    0.1647400000000000    0.2713000000000000 H
   0.8134350000000000    0.2016800000000000    0.3699300000000000 H
   0.9086400000000000    0.2475400000000000    0.3802200000000000 H
   0.8659225000000000    0.3216900000000000    0.4556900000000000 H
   0.7758350000000001    0.2749750000000000    0.4460600000000000 H
   0.8831850000000000    0.0992450000000000    0.1730300000000000 H
   0.8784200000000000    0.0575650000000000    0.2428100000000000 H
   0.9800750000000000    0.9389650000000000    0.1381200000000000 H
   0.8660050000000000    0.0449550000000000    0.1317600000000000 H
   0.9699925000000000    0.8763799999999999    0.0653400000000000 H
   0.8607000000000000    0.9777600000000000    0.0621900000000000 H
   0.9427650000000000    0.1002450000000000    0.3274600000000000 H
   0.9680900000000000    0.0581150000000000    0.2583800000000000 H