H2 O2
1.0
  38.3486015437062804    0.0000000000000000    6.6446338982707402
   9.3930694318407166   24.7360605730011933    1.6999264623610313
   0.0000000000000000    0.0000000000000000   20.9349999999999987
H O
2 2
direct
   0.7547821160982833    0.3486482932380115    0.6050327705181003 H
   0.6958314645346502    0.3517220695813291    0.8957031416611377 H
   0.7599050000000001    0.3807150000000000    0.5872300000000000 O
   0.6733074999999999    0.3822800000000000    0.9114300000000000 O
