H4 C8 O4
1.0
  38.3486015437062804    0.0000000000000000    6.6446338982707402
   9.3930694318407166   24.7360605730011933    1.6999264623610313
   0.0000000000000000    0.0000000000000000   20.9349999999999987
H C O
4 8 4
direct
   0.6936925000000000    0.4282750000000000    0.8077900000000000 H
   0.7414700000000000    0.2549900000000000    0.8136400000000000 H
   0.7161725000000000    0.4268450000000000    0.6887400000000000 H
   0.7603375000000000    0.2533650000000000    0.6925800000000000 H
   0.7033550000000000    0.3415150000000000    0.8904500000000000 C
   0.7161000000000000    0.3416100000000000    0.8183000000000000 C
   0.7088075000000000    0.3899750000000000    0.7826300000000000 C
   0.7354450000000000    0.2923950000000000    0.7855900000000000 C
   0.7397750000000000    0.3398950000000000    0.6831199999999999 C
   0.7211850000000000    0.3891750000000000    0.7160500000000000 C
   0.7463275000000000    0.2915050000000000    0.7185800000000000 C
   0.7530650000000000    0.3379000000000000    0.6110000000000000 C
   0.6733074999999999    0.3822800000000000    0.9114300000000000 O
   0.7208225000000000    0.3042850000000000    0.9249800000000000 O
   0.7599050000000001    0.3807150000000000    0.5872300000000000 O
   0.7571150000000000    0.2975400000000000    0.5790900000000000 O
