H2 O2
1.0
  13.1279957690397264    0.0000000000000000   -0.0105398327810068
  -0.0290127886338279   13.9689698710425905    0.0000000000000009
   0.0000000000000000    0.0000000000000000   16.9899999999999984
H O
2 2
direct
   0.5263521005119024    0.3317042840120553    0.9164426744131039 H
   0.4724217671578965    0.3064211299887059    0.0211177603170869 H
   0.5154500000000000    0.3941000000000000    0.9411900000000000 O
   0.4765200000000000    0.3761200000000000    0.0162100000000000 O
