Zn16 H54 C46 N64 O32
1.0
  13.1279957690397264    0.0000000000000000   -0.0105398327810068
  -0.0290127886338279   13.9689698710425905    0.0000000000000009
   0.0000000000000000    0.0000000000000000   16.9899999999999984
Zn H C N O
16 54 46 64 32
direct
   0.4268000000000000    0.4796600000000000    0.0936600000000000 Zn
   0.0221000000000000    0.4078100000000000    0.9293900000000000 Zn
   0.5733700000000000    0.5203200000000000    0.9063900000000000 Zn
   0.9775199999999999    0.5916200000000000    0.0732500000000000 Zn
   0.0725000000000000    0.4817800000000000    0.5966300000000000 Zn
   0.9275700000000000    0.0186100000000000    0.0966000000000000 Zn
   0.4761800000000000    0.9083599999999999    0.0731400000000000 Zn
   0.4758300000000000    0.4084600000000000    0.4270100000000000 Zn
   0.5240400000000000    0.0915200000000000    0.9268999999999999 Zn
   0.4265100000000000    0.9796400000000000    0.4063800000000000 Zn
   0.0222600000000000    0.9084900000000000    0.5732000000000000 Zn
   0.9273400000000001    0.5197400000000000    0.4068500000000000 Zn
   0.0721300000000000    0.9803500000000001    0.9066000000000000 Zn
   0.5731600000000000    0.0204000000000000    0.5936500000000000 Zn
   0.9778000000000000    0.0922600000000000    0.4294300000000000 Zn
   0.5237800000000000    0.5916400000000001    0.5731400000000000 Zn
   0.4419500000000000    0.6987000000000000    0.1519200000000000 H
   0.5596500000000000    0.7298600000000000    0.8614200000000000 H
   0.5650400000000000    0.8387900000000000    0.9091000000000000 H
   0.7399500000000000    0.6402700000000000    0.0077600000000000 H
   0.8477600000000000    0.3497600000000000    0.8354300000000000 H
   0.7250000000000000    0.3892600000000000    0.8179300000000000 H
   0.5586900000000000    0.3011600000000000    0.8483100000000000 H
   0.4349400000000000    0.1612000000000000    0.0900000000000000 H
   0.4402400000000000    0.2701500000000000    0.1386200000000000 H
   0.2599400000000000    0.3600400000000000    0.9930900000000000 H
   0.1526700000000000    0.6504000000000000    0.1657600000000000 H
   0.2756200000000000    0.6111799999999999    0.1827900000000000 H
   0.2393700000000000    0.8605400000000000    0.0068600000000000 H
   0.3476300000000000    0.1510500000000000    0.8343600000000000 H
   0.2240100000000000    0.1126600000000000    0.8184200000000000 H
   0.9445500000000000    0.7999200000000000    0.1526500000000000 H
   0.0599800000000000    0.7717800000000000    0.8614700000000000 H
   0.0661500000000000    0.6624000000000000    0.9081500000000000 H
   0.7613400000000000    0.1391100000000000    0.9941400000000000 H
   0.8715144392264732   -0.1199351534312577    0.1915073357331691 H
   0.6516300000000000    0.8488200000000000    0.1663300000000000 H
   0.7750600000000000    0.8873300000000000    0.1827700000000000 H
   0.9105177034935528   -0.0630141424682496    0.4047328808230441 H
   0.9402600000000000    0.7283100000000000    0.3612200000000000 H
   0.9347900000000000    0.8380100000000000    0.4078300000000000 H
   0.0550000000000000    0.7002000000000000    0.6528700000000000 H
   0.8815467068211876   -0.1141168693713783    0.3040600179076942 H
   0.7604100000000000    0.6395999999999999    0.5069600000000000 H
   0.6522400000000000    0.3490200000000000    0.3343900000000000 H
   0.7758699999999999    0.3874200000000000    0.3186400000000000 H
   0.4410300000000000    0.1989000000000000    0.3482800000000000 H
   0.5597100000000000    0.2298700000000000    0.6385999999999999 H
   0.5649700000000000    0.3388300000000000    0.5910600000000000 H
   0.7399200000000000    0.1403500000000000    0.4930200000000000 H
   0.8470100000000000    0.8498200000000000    0.6655799999999999 H
   0.7240900000000000    0.8889899999999999    0.6823300000000000 H
   0.5581400000000000    0.8013000000000000    0.6519600000000000 H
   0.4349700000000000    0.6611800000000000    0.4090600000000000 H
   0.4403300000000000    0.7701000000000000    0.3613700000000000 H
   0.2384400000000000    0.3610300000000000    0.4940200000000000 H
   0.3485100000000000    0.6513000000000000    0.6661800000000000 H
   0.2251500000000000    0.6127400000000000    0.6826300000000000 H
   0.2599500000000000    0.8597399999999999    0.5078700000000000 H
   0.1521200000000000    0.1503700000000000    0.3355000000000000 H
   0.2747700000000000    0.1107000000000000    0.3180300000000000 H
   0.0550800000000000    0.1991900000000000    0.8499700000000000 H
   0.9977284118326055    0.1467915209685142    0.1435250658337371 H
   0.9398600000000000    0.2280400000000000    0.1411700000000000 H
   0.9335000000000000    0.3371800000000000    0.0940600000000000 H
   1.0185513572475433    0.2002401846510566    0.3348742153295838 H
   0.9446800000000000    0.3009200000000000    0.3499700000000000 H
   0.0599900000000000    0.2720400000000000    0.6412600000000001 H
   0.0662900000000000    0.1629700000000000    0.5940299999999999 H
   1.0319711270175753    0.2242890278910076    0.2296023658374837 H
   0.4702300000000000    0.6903700000000000    0.0925400000000000 C
   0.5292400000000000    0.7202499999999999    0.9770000000000000 C
   0.7751000000000000    0.5786800000000000    0.9800300000000000 C
   0.7985900000000000    0.4538300000000000    0.9081399999999999 C
   0.5333100000000000    0.5848900000000000    0.7440400000000000 C
   0.5779600000000000    0.4867400000000000    0.7202700000000000 C
   0.5302300000000000    0.3095100000000000    0.9076400000000000 C
   0.4708500000000000    0.2796900000000000    0.0230000000000000 C
   0.2248700000000000    0.4216000000000000    0.0209400000000000 C
   0.2016200000000000    0.5464599999999999    0.0928700000000000 C
   0.4221500000000000    0.5132200000000000    0.2798400000000000 C
   0.4667900000000000    0.4150700000000000    0.2560500000000000 C
   0.2747800000000000    0.9220900000000000    0.9790800000000000 C
   0.2985800000000000    0.0471900000000000    0.9075100000000000 C
   0.0757600000000000    0.0157000000000000    0.7207800000000000 C
   0.0317200000000000    0.9167700000000000    0.7441200000000000 C
   0.9723600000000000    0.8088200000000000    0.0931700000000000 C
   0.0304800000000000    0.7800900000000000    0.9772600000000000 C
   0.7256500000000000    0.0776000000000000    0.0217600000000000 C
   0.7012000000000000    0.9526000000000000    0.0932900000000000 C
   0.9701700000000000    0.7201800000000000    0.4770600000000000 C
   0.0275600000000000    0.6913600000000000    0.5932500000000001 C
   0.7250100000000000    0.5780000000000000    0.4792000000000000 C
   0.7012100000000000    0.4528700000000000    0.4076500000000000 C
   0.9234700000000000    0.4836600000000000    0.2204000000000000 C
   0.9655100000000000    0.5832700000000000    0.2438800000000000 C
   0.4695100000000000    0.1905500000000000    0.4076300000000000 C
   0.5289700000000001    0.2203600000000000    0.5230300000000000 C
   0.7749400000000000    0.0787000000000000    0.5207800000000000 C
   0.7981400000000000    0.9536300000000000    0.5925600000000000 C
   0.5778200000000000    0.9867500000000000    0.7798700000000000 C
   0.5331900000000001    0.0849300000000000    0.7560500000000000 C
   0.5298200000000000    0.8096300000000000    0.5925600000000000 C
   0.4707500000000000    0.7797300000000000    0.4770600000000000 C
   0.2741900000000000    0.4225400000000000    0.5216200000000000 C
   0.2988100000000000    0.5475200000000000    0.5931300000000000 C
   0.0766500000000000    0.5150900000000000    0.7806900000000000 C
   0.0330300000000000    0.4159000000000000    0.7582900000000000 C
   0.2248200000000000    0.9213800000000000    0.4801900000000000 C
   0.2013200000000000    0.0462700000000000    0.4082900000000000 C
   0.4666400000000000    0.9150800000000000    0.2440600000000000 C
   0.4219400000000000    0.0132600000000000    0.2202700000000000 C
   0.0274600000000000    0.1903700000000000    0.9095000000000000 C
   0.9693700000000000    0.2191900000000000    0.0254200000000000 C
   0.9723100000000000    0.3097600000000000    0.4095300000000000 C
   0.0304800000000000    0.2810000000000000    0.5254000000000000 C
   0.4848500000000000    0.6058000000000000    0.0589100000000000 N
   0.4961500000000000    0.7640300000000000    0.0444500000000000 N
   0.5690000000000000    0.7657800000000000    0.9134000000000000 N
   0.5234900000000000    0.6238200000000000    0.9838100000000000 N
   0.8704300000000000    0.5518200000000000    0.9927400000000000 N
   0.7264900000000000    0.5203700000000000    0.9278700000000000 N
   0.7827900000000000    0.3790700000000000    0.8581400000000000 N
   0.8862200000000000    0.4706600000000000    0.9469900000000000 N
   0.5154500000000000    0.3941000000000000    0.9411900000000000 N
   0.5041800000000000    0.2358700000000000    0.9557099999999999 N
   0.4309100000000000    0.2342100000000000    0.0865600000000000 N
   0.4765200000000000    0.3761200000000000    0.0162100000000000 N
   0.1294100000000000    0.4483000000000000    0.0086800000000000 N
   0.2737100000000000    0.4800200000000000    0.0728000000000000 N
   0.2175600000000000    0.6212900000000000    0.1427800000000000 N
   0.1137400000000000    0.5294500000000000    0.0544400000000000 N
   0.3705400000000000    0.9483800000000000    0.9912100000000000 N
   0.2260300000000000    0.9808400000000000    0.9274800000000000 N
   0.2827200000000000    0.1223400000000000    0.8579300000000000 N
   0.3866300000000000    0.0298200000000000    0.9456400000000000 N
   0.9859400000000000    0.8936600000000000    0.0597200000000000 N
   0.9984400000000000    0.7356600000000000    0.0447100000000000 N
   0.0699800000000000    0.7354300000000000    0.9132400000000001 N
   0.0239400000000000    0.8764100000000000    0.9843400000000000 N
   0.6299500000000000    0.0513500000000000    0.0091000000000000 N
   0.7739300000000000    0.0188800000000000    0.0736700000000000 N
   0.7167100000000000    0.8774600000000000    0.1429800000000000 N
   0.6134900000000000    0.9699500000000000    0.0547100000000000 N
   0.9312200000000000    0.7649700000000000    0.4129400000000000 N
   0.9764500000000000    0.6238200000000000    0.4841900000000000 N
   0.0139700000000000    0.6065500000000000    0.5597600000000000 N
   0.0019500000000000    0.7645500000000000    0.5446600000000000 N
   0.6292800000000000    0.5516600000000000    0.4912800000000000 N
   0.7737200000000000    0.5192400000000000    0.4276700000000000 N
   0.7171200000000000    0.3777700000000000    0.3580600000000000 N
   0.6132000000000000    0.4702100000000000    0.4457200000000000 N
   0.4842800000000000    0.1059600000000000    0.4412000000000000 N
   0.4956000000000000    0.2641800000000000    0.4557400000000000 N
   0.5689900000000000    0.2658300000000000    0.5866200000000000 N
   0.5232200000000000    0.1239300000000000    0.5162400000000000 N
   0.8703400000000000    0.0518700000000000    0.5084900000000000 N
   0.7261200000000000    0.0202400000000000    0.5726100000000000 N
   0.7820800000000000    0.8787400000000000    0.6423600000000000 N
   0.8859700000000000    0.9705800000000000    0.5541400000000000 N
   0.5151700000000000    0.8941900000000000    0.5589100000000000 N
   0.5038899999999999    0.7359700000000000    0.5444400000000000 N
   0.4309600000000000    0.7341900000000000    0.4134200000000000 N
   0.4764900000000000    0.8761600000000000    0.4838000000000000 N
   0.3698900000000000    0.4487600000000000    0.5090000000000000 N
   0.2260300000000000    0.4812900000000000    0.5735100000000000 N
   0.2833700000000000    0.6226800000000000    0.6428100000000000 N
   0.3864400000000000    0.5301300000000000    0.5545800000000000 N
   0.1295700000000000    0.9483800000000000    0.4929600000000000 N
   0.2733700000000000    0.9796100000000000    0.4279800000000000 N
   0.2171000000000000    0.1209900000000000    0.3582600000000000 N
   0.1137700000000000    0.0295900000000000    0.4472000000000000 N
   0.0141500000000000    0.1055600000000000    0.9431100000000000 N
   0.0012300000000000    0.2635800000000000    0.9578700000000000 N
   0.9297500000000000    0.2640900000000000    0.0892000000000000 N
   0.9762000000000000    0.1228600000000000    0.0185400000000000 N
   0.9856300000000000    0.3945900000000000    0.4431000000000000 N
   0.9985800000000000    0.2365800000000000    0.4579300000000000 N
   0.0701500000000000    0.2360400000000000    0.5893500000000000 N
   0.0236500000000000    0.3773300000000000    0.5185900000000000 N
   0.5066800000000000    0.6416500000000001    0.6897100000000000 O
   0.5245600000000000    0.6046400000000000    0.8166000000000000 O
   0.6050500000000000    0.4329700000000000    0.7761500000000000 O
   0.5821800000000000    0.4704300000000000    0.6468699999999999 O
   0.3951700000000000    0.5670800000000000    0.2240100000000000 O
   0.4177600000000000    0.5294600000000000    0.3532600000000000 O
   0.4934000000000000    0.3583300000000000    0.3103700000000000 O
   0.4754600000000000    0.3953300000000000    0.1834300000000000 O
   0.1027100000000000    0.0693100000000000    0.7769200000000001 O
   0.0796500000000000    0.0326600000000000    0.6470000000000000 O
   0.0230100000000000    0.8961800000000000    0.8165000000000000 O
   0.0000000000000000    0.8600300000000000    0.6895500000000000 O
   0.8964900000000000   -0.0675300000000000    0.2236800000000000 O
   0.9200199999999999   -0.0333900000000000    0.3536200000000000 O
   0.8972599999999999    0.4296100000000000    0.2764100000000000 O
   0.9203300000000000    0.4668100000000000    0.1470700000000000 O
   0.9912300000000001    0.6404800000000000    0.1895000000000000 O
   0.9732700000000000    0.6040800000000000    0.3163700000000000 O
   0.6048000000000000    0.9329100000000000    0.7240600000000000 O
   0.5821700000000000    0.9704800000000000    0.8532900000000000 O
   0.5065499999999999    0.1416600000000000    0.8103500000000000 O
   0.5245300000000001    0.1046900000000000    0.6834200000000000 O
   0.1038900000000000    0.5675000000000000    0.7237300000000000 O
   0.0800200000000000    0.5334300000000000    0.8536300000000000 O
   0.0228900000000000    0.3955100000000000    0.6859400000000000 O
   0.0000000000000000    0.3589900000000000    0.8132500000000000 O
   0.4932900000000000    0.8583400000000000    0.1897500000000000 O
   0.4753800000000000    0.8953100000000001    0.3166000000000000 O
   0.3947500000000000    0.0669700000000000    0.2761300000000000 O
   0.4177700000000000    0.0295900000000000    0.1468700000000000 O
   0.9771900000000000    0.1045900000000000    0.1860100000000000 O
   0.9914900000000000    0.1411100000000000    0.3133400000000000 O
