H6 C18 O8
1.0
  30.1762352371735076    0.0000000000000000    7.4488623903766689
   5.8286210610731848   29.5975528983862155    7.4485718734294197
   0.0000000000000000    0.0000000000000000   31.0659999999999989
H C O
6 18 8
direct
   0.1008400000000000    0.7537650000000000    0.4879750000000000 H
   0.0119350000000000    0.7461150000000000    0.3991900000000000 H
   0.8810600000000000    0.7388399999999999    0.3811850000000000 H
   0.1189400000000000    0.7611550000000000    0.6188250000000000 H
   0.8991600000000000    0.7462299999999999    0.5120350000000000 H
   0.9880650000000000    0.7538800000000000    0.6008200000000000 H
   0.9671799999999999    0.7425850000000001    0.3362450000000000 C
   0.9485350000000000    0.7421800000000001    0.3854100000000000 C
   0.9766049999999999    0.7447350000000000    0.4134050000000000 C
   0.8362100000000000    0.7426800000000000    0.4673150000000000 C
   0.8853500000000001    0.7422350000000000    0.4486500000000000 C
   0.9133549999999999    0.7448049999999999    0.4767050000000000 C
   0.9594050000000001    0.7458850000000000    0.4594700000000000 C
   0.9878050000000000    0.7486950000000000    0.4878350000000000 C
   0.9029199999999999    0.7406400000000000    0.4030200000000000 C
   0.1637900000000000    0.7573150000000000    0.5326950000000000 C
   0.1146500000000000    0.7577600000000000    0.5513600000000000 C
   0.0866450000000000    0.7551950000000001    0.5233000000000000 C
   0.0328150000000000    0.7574100000000000    0.6637500000000001 C
   0.0514650000000000    0.7578150000000000    0.6146000000000000 C
   0.0233950000000000    0.7552600000000000    0.5866000000000000 C
   0.0405950000000000    0.7541100000000001    0.5405350000000000 C
   0.0121950000000000    0.7513000000000001    0.5121700000000000 C
   0.0970750000000000    0.7593600000000000    0.5969900000000000 C
   0.1783050000000000    0.7522850000000000    0.4916950000000000 O
   0.0081750000000000    0.7476200000000000    0.3217250000000000 O
   0.9407150000000000    0.7384950000000000    0.3123000000000000 O
   0.8123100000000000    0.7386250000000000    0.4408150000000000 O
   0.1876900000000000    0.7613700000000000    0.5591950000000000 O
   0.0592800000000000    0.7615050000000000    0.6876750000000000 O
   0.8216900000000000    0.7477150000000000    0.5083000000000000 O
   0.9918250000000000    0.7523750000000000    0.6782850000000000 O
