H3 C3 N2
1.0
  31.0060000000000002    0.0000000000000000    0.0000000000000019
   0.0207801678035000   31.3319928036183484   -0.0043747724756578
   0.0000000000000000    0.0000000000000000   37.1180000000000021
H C N
3 3 2
direct
   0.7748699999999999    0.6589650000000000    0.2426200000000000 H
   0.8951150000000000    0.7172050000000000    0.2229100000000000 H
   0.8501950000000000    0.7098300000000000    0.1584550000000000 H
   0.8012450000000000    0.6744450000000000    0.2285300000000000 C
   0.8632299999999999    0.7044900000000001    0.2175400000000000 C
   0.8409850000000000    0.7009400000000000    0.1856000000000000 C
   0.8016400000000000    0.6818750000000000    0.1927350000000000 N
   0.8378850000000000    0.6876300000000000    0.2447650000000000 N
