In6 H44 C88 O44
1.0
  12.5129976653474362    0.0000000000000000   -0.0076437562501845
  -0.0166302077561007   12.7844232548511361   -7.3927038001675323
   0.0000000000000000    0.0000000000000000   29.5159999999999982
In H C O
6 44 88 44
direct
   0.4996400000000000    0.5002200000000000    0.2497400000000000 In
   0.8332900000000000    0.0004100000000000    0.2502100000000000 In
   0.1666500000000000    0.4994600000000000    0.4998550000000000 In
   0.4996400000000000    0.5002200000000000    0.7497400000000000 In
   0.8332900000000000    0.0004100000000000    0.7502100000000000 In
   0.1666500000000000    0.4994600000000000    0.9998549999999999 In
   0.9130800000000000    0.6595100000000000    0.4412750000000000 H
   0.9082500000000000    0.3222000000000000    0.3574900000000000 H
   0.2454900000000000    0.2221900000000000    0.1698550000000000 H
   0.2444600000000000    0.3928600000000000    0.3386700000000000 H
   0.5798900000000000    0.1157300000000000    0.3905400000000000 H
   0.5769600000000000    0.2820900000000000    0.3051400000000000 H
   0.9127200000000000    0.3401700000000000    0.0588750000000000 H
   0.9088600000000000    0.6774500000000000    0.1418500000000000 H
   0.2451700000000000    0.7774799999999999    0.3301450000000000 H
   0.2431300000000000    0.6077100000000000    0.1613200000000000 H
   0.0869400000000000    0.8826700000000000    0.3300450000000000 H
   0.0907100000000000    0.7165100000000000    0.1612850000000000 H
   0.7539300000000000    0.3400600000000000    0.1112150000000000 H
   0.7558200000000000    0.6774400000000000    0.1959700000000000 H
   0.4198800000000000    0.2193000000000000    0.4422950000000000 H
   0.4229000000000000    0.3893200000000000    0.3587000000000000 H
   0.0867500000000000    0.1175900000000000    0.1701800000000000 H
   0.0914300000000000    0.2847700000000000    0.3389450000000000 H
   0.7545300000000000    0.6603400000000000    0.3889000000000000 H
   0.7553200000000000    0.3229400000000000    0.3034300000000000 H
   0.9130800000000000    0.6595100000000000    0.9412750000000000 H
   0.9082500000000000    0.3222000000000000    0.8574900000000000 H
   0.2454900000000000    0.2221900000000000    0.6698550000000000 H
   0.2444600000000000    0.3928600000000000    0.8386700000000000 H
   0.5798900000000000    0.1157300000000000    0.8905400000000000 H
   0.5769600000000000    0.2820900000000000    0.8051400000000000 H
   0.9127200000000000    0.3401700000000000    0.5588750000000000 H
   0.9088600000000000    0.6774500000000000    0.6418500000000000 H
   0.2451700000000000    0.7774799999999999    0.8301450000000000 H
   0.2431300000000000    0.6077100000000000    0.6613200000000000 H
   0.5799000000000000    0.8840100000000000    0.6096500000000000 H
   0.5769700000000000    0.7176800000000000    0.6951150000000000 H
   0.4200000000000000    0.7799000000000000    0.5576900000000000 H
   0.4229300000000000    0.6099700000000000    0.6412949999999999 H
   0.0869400000000000    0.8826700000000000    0.8300449999999999 H
   0.0907100000000000    0.7165100000000000    0.6612850000000000 H
   0.7539300000000000    0.3400600000000000    0.6112150000000000 H
   0.7558200000000000    0.6774400000000000    0.6959700000000000 H
   0.4198800000000000    0.2193000000000000    0.9422950000000000 H
   0.4229000000000000    0.3893200000000000    0.8587000000000000 H
   0.0867500000000000    0.1175900000000000    0.6701800000000000 H
   0.0914300000000000    0.2847700000000000    0.8389450000000001 H
   0.7545300000000000    0.6603400000000000    0.8889000000000000 H
   0.7553200000000000    0.3229400000000000    0.8034300000000000 H
   0.8770700000000000    0.5868600000000000    0.4112500000000000 C
   0.9200000000000000    0.4910800000000000    0.4019750000000000 C
   0.8753000000000000    0.3957300000000000    0.3636000000000000 C
   0.0119500000000000    0.4911200000000000    0.4337000000000000 C
   0.2103000000000000    0.2351800000000000    0.2063750000000000 C
   0.2544300000000000    0.3123900000000000    0.2540950000000000 C
   0.2107800000000000    0.3315800000000000    0.3020050000000000 C
   0.3465400000000000    0.3749100000000000    0.2535150000000000 C
   0.5439200000000000    0.1752700000000000    0.3839300000000000 C
   0.5878600000000000    0.1937400000000000    0.3454050000000000 C
   0.5433600000000000    0.2699100000000000    0.3357000000000000 C
   0.6807600000000000    0.1307600000000000    0.3145200000000000 C
   0.8768800000000000    0.4129900000000000    0.0887000000000000 C
   0.9201100000000000    0.5085600000000000    0.0977650000000000 C
   0.8756500000000000    0.6040900000000000    0.1359150000000000 C
   0.0119800000000000    0.5082600000000000    0.0659900000000000 C
   0.2098200000000000    0.7647699999999999    0.2936800000000000 C
   0.2534700000000000    0.6876500000000000    0.2458850000000000 C
   0.2097000000000000    0.6688900000000000    0.1980300000000000 C
   0.3452500000000000    0.6247100000000000    0.2462600000000000 C
   0.1226100000000000    0.8227800000000000    0.2936250000000000 C
   0.0794900000000000    0.8047200000000000    0.2457850000000000 C
   0.1237700000000000    0.7282400000000000    0.1979850000000000 C
   0.9877800000000000    0.8683200000000000    0.2458950000000000 C
   0.7893200000000000    0.4129400000000000    0.1175800000000000 C
   0.7453400000000000    0.5084500000000000    0.1560000000000000 C
   0.7893200000000000    0.6040400000000000    0.1654350000000000 C
   0.6530500000000000    0.5076400000000000    0.1872000000000000 C
   0.4558900000000000    0.2323400000000000    0.4124500000000000 C
   0.4119500000000000    0.3091600000000000    0.4030900000000000 C
   0.4565000000000000    0.3283700000000000    0.3649000000000000 C
   0.3190600000000000    0.3709800000000000    0.4345700000000000 C
   0.1227800000000000    0.1775000000000000    0.2065500000000000 C
   0.0797900000000000    0.1959800000000000    0.2544450000000000 C
   0.1244600000000000    0.2726000000000000    0.3021800000000000 C
   0.9878400000000001    0.1325500000000000    0.2544100000000000 C
   0.7896400000000000    0.5872900000000000    0.3823700000000000 C
   0.7454700000000000    0.4919800000000000    0.3437100000000000 C
   0.7890400000000000    0.3961800000000000    0.3341050000000000 C
   0.6534300000000000    0.4931800000000000    0.3123850000000000 C
   0.8770700000000000    0.5868600000000000    0.9112500000000000 C
   0.9200000000000000    0.4910800000000000    0.9019750000000000 C
   0.8753000000000000    0.3957300000000000    0.8635999999999999 C
   0.0119500000000000    0.4911200000000000    0.9337000000000000 C
   0.2103000000000000    0.2351800000000000    0.7063750000000000 C
   0.2544300000000000    0.3123900000000000    0.7540950000000000 C
   0.2107800000000000    0.3315800000000000    0.8020050000000001 C
   0.3465400000000000    0.3749100000000000    0.7535149999999999 C
   0.5439200000000000    0.1752700000000000    0.8839300000000000 C
   0.5878600000000000    0.1937400000000000    0.8454050000000000 C
   0.5433600000000000    0.2699100000000000    0.8357000000000000 C
   0.6807600000000000    0.1307600000000000    0.8145200000000000 C
   0.8768800000000000    0.4129900000000000    0.5887000000000000 C
   0.9201100000000000    0.5085600000000000    0.5977650000000000 C
   0.8756500000000000    0.6040900000000000    0.6359150000000000 C
   0.0119800000000000    0.5082600000000000    0.5659900000000000 C
   0.2098200000000000    0.7647699999999999    0.7936799999999999 C
   0.2534700000000000    0.6876500000000000    0.7458850000000000 C
   0.2097000000000000    0.6688900000000000    0.6980300000000000 C
   0.3452500000000000    0.6247100000000000    0.7462600000000000 C
   0.5439400000000000    0.8243600000000000    0.6162500000000000 C
   0.5878600000000000    0.8060500000000000    0.6548450000000000 C
   0.5433800000000000    0.7297600000000000    0.6645050000000000 C
   0.6807299999999999    0.8693200000000000    0.6858299999999999 C
   0.4559800000000000    0.7670000000000000    0.5876000000000000 C
   0.4120500000000000    0.6900700000000000    0.5969000000000000 C
   0.4565600000000000    0.6710300000000000    0.6351650000000000 C
   0.3191700000000000    0.6280400000000000    0.5653300000000000 C
   0.1226100000000000    0.8227800000000000    0.7936250000000000 C
   0.0794900000000000    0.8047200000000000    0.7457850000000000 C
   0.1237700000000000    0.7282400000000000    0.6979850000000000 C
   0.9877800000000000    0.8683200000000000    0.7458950000000000 C
   0.7893200000000000    0.4129400000000000    0.6175800000000000 C
   0.7453400000000000    0.5084500000000000    0.6560000000000000 C
   0.7893200000000000    0.6040400000000000    0.6654350000000000 C
   0.6530500000000000    0.5076400000000000    0.6872000000000000 C
   0.4558900000000000    0.2323400000000000    0.9124500000000000 C
   0.4119500000000000    0.3091600000000000    0.9030899999999999 C
   0.4565000000000000    0.3283700000000000    0.8649000000000000 C
   0.3190600000000000    0.3709800000000000    0.9345700000000000 C
   0.1227800000000000    0.1775000000000000    0.7065500000000000 C
   0.0797900000000000    0.1959800000000000    0.7544450000000000 C
   0.1244600000000000    0.2726000000000000    0.8021800000000000 C
   0.9878400000000001    0.1325500000000000    0.7544100000000000 C
   0.7896400000000000    0.5872900000000000    0.8823700000000000 C
   0.7454700000000000    0.4919800000000000    0.8437100000000000 C
   0.7890400000000000    0.3961800000000000    0.8341050000000000 C
   0.6534300000000000    0.4931800000000000    0.8123850000000000 C
   0.0699200000000000    0.5727000000000000    0.4588750000000000 O
   0.0326900000000000    0.4097100000000000    0.4369200000000000 O
   0.4025900000000000    0.3438900000000000    0.2122450000000000 O
   0.3695100000000000    0.4622500000000000    0.2943500000000000 O
   0.7366200000000001    0.0796800000000000    0.3300800000000000 O
   0.7039299999999999    0.1263000000000000    0.2710300000000000 O
   0.0697200000000000    0.4266200000000000    0.0408950000000000 O
   0.0328500000000000    0.5895300000000000    0.0626500000000000 O
   0.4027300000000000    0.6560300000000000    0.2871650000000000 O
   0.3664200000000000    0.5367600000000000    0.2054950000000000 O
   0.9300500000000000    0.9184600000000001    0.2867400000000000 O
   0.9670800000000001    0.8749200000000000    0.2052050000000000 O
   0.5970600000000000    0.4250600000000000    0.1719350000000000 O
   0.6298899999999999    0.5897200000000000    0.2306550000000000 O
   0.2631800000000000    0.3400600000000000    0.4602000000000000 O
   0.2959700000000000    0.4578100000000000    0.4367100000000000 O
   0.9299200000000000    0.0822600000000000    0.2135700000000000 O
   0.9671500000000000    0.1261100000000000    0.2951450000000000 O
   0.5976100000000000    0.5757200000000000    0.3277150000000000 O
   0.6303500000000000    0.4113200000000000    0.2687850000000000 O
   0.0699200000000000    0.5727000000000000    0.9588749999999999 O
   0.0326900000000000    0.4097100000000000    0.9369200000000000 O
   0.4025900000000000    0.3438900000000000    0.7122450000000000 O
   0.3695100000000000    0.4622500000000000    0.7943500000000000 O
   0.7366200000000001    0.0796800000000000    0.8300799999999999 O
   0.7039299999999999    0.1263000000000000    0.7710300000000000 O
   0.0697200000000000    0.4266200000000000    0.5408950000000000 O
   0.0328500000000000    0.5895300000000000    0.5626500000000000 O
   0.4027300000000000    0.6560300000000000    0.7871650000000000 O
   0.3664200000000000    0.5367600000000000    0.7054950000000000 O
   0.7365500000000000    0.9205200000000000    0.6702950000000000 O
   0.7039400000000000    0.8739500000000000    0.7293550000000000 O
   0.2633200000000000    0.6588900000000000    0.5396350000000000 O
   0.2960100000000000    0.5411600000000000    0.5631500000000000 O
   0.9300500000000000    0.9184600000000001    0.7867400000000000 O
   0.9670800000000001    0.8749200000000000    0.7052050000000000 O
   0.5970600000000000    0.4250600000000000    0.6719349999999999 O
   0.6298899999999999    0.5897200000000000    0.7306550000000001 O
   0.2631800000000000    0.3400600000000000    0.9601999999999999 O
   0.2959700000000000    0.4578100000000000    0.9367099999999999 O
   0.9299200000000000    0.0822600000000000    0.7135700000000000 O
   0.9671500000000000    0.1261100000000000    0.7951450000000000 O
   0.5976100000000000    0.5757200000000000    0.8277150000000000 O
   0.6303500000000000    0.4113200000000000    0.7687850000000001 O
