H3 O2
1.0
  25.4037261566064565    0.0000000000000000  -10.5204901672949109
  -4.6365052327224126   13.4390035831347081   -4.4515852142164123
   0.0000000000000000    0.0000000000000000   29.3580000000000005
H O
3 2
direct
   0.5964982526269232    0.7753002864443279    0.0437589846018407 H
   0.7396303164838880    0.8352715373363153    0.0556393151357710 H
   0.6673609055142878    0.7863545702781897    0.0430225286585136 H
   0.6307199999999999    0.8308800000000000    0.0612450000000000 O
   0.7155199999999999    0.8645699999999999    0.0676300000000000 O
