H4 C8 O4
1.0
  15.9411629063477047    0.0000000000000000    0.3497859249369192
   8.7502223856681240   33.7565147549529030   16.8368493430332542
   0.0000000000000000    0.0000000000000000   21.9100000000000001
H C O
4 8 4
direct
   0.6469400000000000    0.0076500000000000    0.4086100000000000 H
   0.8328500000000000    0.0507250000000000    0.4760300000000000 H
   0.8530900000000000    0.9923350000000000    0.5913600000000000 H
   0.6671899999999999    0.9492600000000000    0.5239400000000000 H
   0.7287400000000001    0.0673850000000000    0.3664300000000000 C
   0.7384700000000000    0.0327600000000000    0.4356800000000000 C
   0.6918400000000000    0.0040750000000000    0.4489000000000000 C
   0.7966700000000000    0.0283600000000000    0.4872900000000000 C
   0.7713000000000000    0.9326050000000000    0.6335400000000000 C
   0.7615700000000000    0.9672300000000000    0.5643000000000000 C
   0.8082000000000000    0.9959100000000001    0.5510300000000000 C
   0.7033700000000001    0.9716250000000000    0.5126800000000000 C
   0.6730400000000000    0.0708350000000000    0.3216900000000000 O
   0.7775900000000000    0.0904100000000000    0.3575600000000000 O
   0.8269900000000000    0.9291550000000000    0.6782899999999999 O
   0.7224500000000000    0.9095750000000000    0.6424200000000000 O
