Zn32 H252 C408 N32 O124
1.0
  15.9411629063477047    0.0000000000000000    0.3497859249369192
   8.7502223856681240   33.7565147549529030   16.8368493430332542
   0.0000000000000000    0.0000000000000000   21.9100000000000001
Zn H C N O
32 252 408 32 124
direct
   0.1817400000000000    0.1132850000000000    0.7255000000000000 Zn
   0.1844200000000000    0.3627250000000000    0.2248100000000000 Zn
   0.1817300000000000    0.3632900000000000    0.7255000000000000 Zn
   0.6844300000000000    0.1127200000000000    0.2248100000000000 Zn
   0.6817400000000000    0.1132900000000000    0.7255000000000000 Zn
   0.6844300000000000    0.3627250000000000    0.2248000000000000 Zn
   0.6817500000000000    0.3632900000000000    0.7255000000000000 Zn
   0.3182600000000000    0.1367000000000000    0.2744800000000000 Zn
   0.3155900000000000    0.1372650000000000    0.7751700000000000 Zn
   0.3182600000000000    0.3867000000000000    0.2744800000000000 Zn
   0.3155800000000000    0.3872700000000000    0.7751000000000000 Zn
   0.8182800000000000    0.1367000000000000    0.2744800000000000 Zn
   0.8156000000000000    0.1372650000000000    0.7751700000000000 Zn
   0.8182700000000001    0.3867000000000000    0.2744800000000000 Zn
   0.8156099999999999    0.3872650000000000    0.7751700000000000 Zn
   0.1844100000000000    0.1127200000000000    0.2248000000000000 Zn
   0.1817400000000000    0.6132850000000000    0.7255000000000000 Zn
   0.1844200000000000    0.8627250000000000    0.2248100000000000 Zn
   0.1817300000000000    0.8632900000000000    0.7255000000000000 Zn
   0.6844300000000000    0.6127200000000000    0.2248100000000000 Zn
   0.6817400000000000    0.6132900000000000    0.7255000000000000 Zn
   0.6844300000000000    0.8627250000000000    0.2248000000000000 Zn
   0.6817500000000000    0.8632900000000000    0.7255000000000000 Zn
   0.3182600000000000    0.6367000000000000    0.2744800000000000 Zn
   0.3155900000000000    0.6372650000000000    0.7751700000000000 Zn
   0.3182600000000000    0.8867000000000000    0.2744800000000000 Zn
   0.3155800000000000    0.8872700000000000    0.7751000000000000 Zn
   0.8182800000000000    0.6367000000000000    0.2744800000000000 Zn
   0.8156000000000000    0.6372650000000000    0.7751700000000000 Zn
   0.8182700000000001    0.8867000000000000    0.2744800000000000 Zn
   0.8156099999999999    0.8872650000000000    0.7751700000000000 Zn
   0.1844100000000000    0.6127200000000000    0.2248000000000000 Zn
   0.0468800000000000    0.0486150000000000    0.2777900000000000 H
   0.0445200000000000    0.0492500000000000    0.7784000000000000 H
   0.0468800000000000    0.2986200000000000    0.2777900000000000 H
   0.0445300000000000    0.2992550000000000    0.7784000000000000 H
   0.5468900000000000    0.0486200000000000    0.2777800000000000 H
   0.5445400000000000    0.0492500000000000    0.7784000000000000 H
   0.5468900000000000    0.2986250000000000    0.2777900000000000 H
   0.5445300000000000    0.2992550000000000    0.7784000000000000 H
   0.3462600000000000    0.0102250000000000    0.2153900000000000 H
   0.3439100000000000    0.0108550000000000    0.7160100000000000 H
   0.3462700000000000    0.2602250000000000    0.2153900000000000 H
   0.3439100000000000    0.2608600000000000    0.7160000000000000 H
   0.8462800000000000    0.0102250000000000    0.2153900000000000 H
   0.8439200000000000    0.0108550000000000    0.7160000000000000 H
   0.8462800000000000    0.2602300000000000    0.2153900000000000 H
   0.8439300000000000    0.2608600000000000    0.7160000000000000 H
   0.2093800000000000    0.0711000000000000    0.1375100000000000 H
   0.2079500000000000    0.0714000000000000    0.6388000000000000 H
   0.2093900000000000    0.3211050000000000    0.1375100000000000 H
   0.2079300000000000    0.3213950000000000    0.6388700000000000 H
   0.7094200000000001    0.0711100000000000    0.1375000000000000 H
   0.7079600000000000    0.0714000000000000    0.6388600000000000 H
   0.7094100000000000    0.3211150000000000    0.1375000000000000 H
   0.7079600000000000    0.3213950000000000    0.6388700000000000 H
   0.1392200000000000    0.0789550000000000    0.0313000000000000 H
   0.1392300000000000    0.0789750000000000    0.5323700000000000 H
   0.1392400000000000    0.3289600000000000    0.0313100000000000 H
   0.1392100000000000    0.3289700000000000    0.5323000000000000 H
   0.6392700000000000    0.0789700000000000    0.0313000000000000 H
   0.6392400000000000    0.0789800000000000    0.5323700000000000 H
   0.6392600000000001    0.3289700000000000    0.0313000000000000 H
   0.6392300000000000    0.3289700000000000    0.5323800000000000 H
   0.1469200000000000    0.0076500000000000    0.4086100000000000 H
   0.1460500000000000    0.0075400000000000    0.9092400000000000 H
   0.1469300000000000    0.2576550000000000    0.4086100000000000 H
   0.1460400000000000    0.2575450000000000    0.9092400000000000 H
   0.6460600000000000    0.0075450000000000    0.9092400000000000 H
   0.6469400000000000    0.2576550000000000    0.4086100000000000 H
   0.6460600000000000    0.2575450000000000    0.9092400000000000 H
   0.9976100000000000    0.1480000000000000    0.1627200000000000 H
   0.9949900000000000    0.1484550000000000    0.6623700000000000 H
   0.9976100000000000    0.3979950000000000    0.1627300000000000 H
   0.9949900000000000    0.3984700000000000    0.6623599999999999 H
   0.4976100000000000    0.1479850000000000    0.1627300000000000 H
   0.4950000000000000    0.1484600000000000    0.6623700000000000 H
   0.4976100000000000    0.3979900000000000    0.1627300000000000 H
   0.4950100000000000    0.3984650000000000    0.6623700000000000 H
   0.3328300000000000    0.0507300000000000    0.4760300000000000 H
   0.3313600000000000    0.0512700000000000    0.9757800000000000 H
   0.3328400000000000    0.3007300000000000    0.4760300000000000 H
   0.3313600000000000    0.3012750000000000    0.9757000000000000 H
   0.8313700000000001    0.0512700000000000    0.9757800000000000 H
   0.8328400000000000    0.3007350000000000    0.4760300000000000 H
   0.8313700000000001    0.3012750000000000    0.9757000000000000 H
   0.4185000000000000    0.1599800000000000    0.0577000000000000 H
   0.4173000000000000    0.1602250000000000    0.5569200000000000 H
   0.4184900000000000    0.4099850000000000    0.0577000000000000 H
   0.4173100000000000    0.4102300000000000    0.5569200000000000 H
   0.9185200000000000    0.1600000000000000    0.0576800000000000 H
   0.9173200000000000    0.1602250000000000    0.5569000000000000 H
   0.9185200000000000    0.4099900000000000    0.0576900000000000 H
   0.9173200000000000    0.4102350000000000    0.5569000000000000 H
   0.4554700000000000    0.2007400000000000    0.2215600000000000 H
   0.4531300000000000    0.2013650000000000    0.7221900000000000 H
   0.4554600000000000    0.4507450000000000    0.2215600000000000 H
   0.4531300000000000    0.4513650000000000    0.7221900000000000 H
   0.9554800000000000    0.2007400000000000    0.2215000000000000 H
   0.9531500000000001    0.2013600000000000    0.7221000000000000 H
   0.9554800000000000    0.4507450000000000    0.2215600000000000 H
   0.9531400000000000    0.4513700000000000    0.7221900000000000 H
   0.1560900000000000    0.2391250000000000    0.2839000000000000 H
   0.1537300000000000    0.2397650000000000    0.7845800000000001 H
   0.1560900000000000    0.4891250000000000    0.2839700000000000 H
   0.1537300000000000    0.4897700000000000    0.7845000000000000 H
   0.6561000000000000    0.2391250000000000    0.2839600000000000 H
   0.6537400000000000    0.2397700000000000    0.7845700000000000 H
   0.6561000000000000    0.4891300000000000    0.2839600000000000 H
   0.6537500000000001    0.4897700000000000    0.7845700000000000 H
   0.2920600000000000    0.1786000000000000    0.3610900000000000 H
   0.2906200000000000    0.1788700000000000    0.8624700000000000 H
   0.2920600000000000    0.4285950000000000    0.3611000000000000 H
   0.2906100000000000    0.4288700000000000    0.8624700000000000 H
   0.7920800000000000    0.1786000000000000    0.3610900000000000 H
   0.7906100000000000    0.1788600000000000    0.8624000000000001 H
   0.7920700000000001    0.4285950000000000    0.3611000000000000 H
   0.7906300000000001    0.4288650000000000    0.8624800000000000 H
   0.3607900000000000    0.1710300000000000    0.4675000000000000 H
   0.3607700000000000    0.1710150000000000    0.9686700000000000 H
   0.3607800000000000    0.4210200000000000    0.4675900000000000 H
   0.3607600000000000    0.4210150000000000    0.9686700000000000 H
   0.8608100000000000    0.1710300000000000    0.4675800000000000 H
   0.8607600000000000    0.1710000000000000    0.9686900000000001 H
   0.8607900000000001    0.4210200000000000    0.4675900000000000 H
   0.8607700000000000    0.4210050000000000    0.9686800000000000 H
   0.3539600000000000    0.2424400000000000    0.0907300000000000 H
   0.3530800000000000    0.2423350000000000    0.5913600000000000 H
   0.3539600000000000    0.4924400000000000    0.0907400000000000 H
   0.3530700000000000    0.4923400000000000    0.5913600000000000 H
   0.8539700000000000    0.2424400000000000    0.0907000000000000 H
   0.8530900000000000    0.2423350000000000    0.5913600000000000 H
   0.8539700000000000    0.4924450000000000    0.0907300000000000 H
   0.8530900000000000    0.4923350000000000    0.5913600000000000 H
   0.5050000000000000    0.1015250000000000    0.3376000000000000 H
   0.5024100000000000    0.1019950000000000    0.8372400000000000 H
   0.5050100000000000    0.3515300000000000    0.3376000000000000 H
   0.5024100000000000    0.3520000000000000    0.8372000000000001 H
   0.0000000000000000    0.1015250000000000    0.3376000000000000 H
   0.0000000000000000    0.1020050000000000    0.8372200000000000 H
   0.0000000000000000    0.3515350000000000    0.3376000000000000 H
   0.0000000000000000    0.3520000000000000    0.8372300000000000 H
   0.1686400000000000    0.1987100000000000    0.0242000000000000 H
   0.1671700000000000    0.1992550000000000    0.5239000000000000 H
   0.1686400000000000    0.4487150000000000    0.0242000000000000 H
   0.1671700000000000    0.4492600000000000    0.5239400000000000 H
   0.6686600000000000    0.1987100000000000    0.0242000000000000 H
   0.6671800000000000    0.1992550000000000    0.5239000000000000 H
   0.6686600000000000    0.4487150000000000    0.0241900000000000 H
   0.6671899999999999    0.4492600000000000    0.5239400000000000 H
   0.0827000000000000    0.0897600000000000    0.4430500000000000 H
   0.0815300000000000    0.0900150000000000    0.9422500000000000 H
   0.0827000000000000    0.3397700000000000    0.4430400000000000 H
   0.0815200000000000    0.3400050000000000    0.9422700000000001 H
   0.5827100000000000    0.0897600000000000    0.4430500000000000 H
   0.5815399999999999    0.0900000000000000    0.9422700000000001 H
   0.5827100000000000    0.3397650000000000    0.4430500000000000 H
   0.5815200000000000    0.3400000000000000    0.9422700000000001 H
   0.0468800000000000    0.5486150000000000    0.2777900000000000 H
   0.0445200000000000    0.5492500000000000    0.7784000000000000 H
   0.0468800000000000    0.7986200000000000    0.2777900000000000 H
   0.0445300000000000    0.7992550000000000    0.7784000000000000 H
   0.5468900000000000    0.5486200000000000    0.2777800000000000 H
   0.5445400000000000    0.5492500000000000    0.7784000000000000 H
   0.5468900000000000    0.7986249999999999    0.2777900000000000 H
   0.5445300000000000    0.7992550000000000    0.7784000000000000 H
   0.3462600000000000    0.5102250000000000    0.2153900000000000 H
   0.3439100000000000    0.5108549999999999    0.7160100000000000 H
   0.3462700000000000    0.7602249999999999    0.2153900000000000 H
   0.3439100000000000    0.7608600000000000    0.7160000000000000 H
   0.8462800000000000    0.5102250000000000    0.2153900000000000 H
   0.8439200000000000    0.5108549999999999    0.7160000000000000 H
   0.8462800000000000    0.7602300000000000    0.2153900000000000 H
   0.8439300000000000    0.7608600000000000    0.7160000000000000 H
   0.2093800000000000    0.5710999999999999    0.1375100000000000 H
   0.2079500000000000    0.5714000000000000    0.6388000000000000 H
   0.2093900000000000    0.8211050000000000    0.1375100000000000 H
   0.2079300000000000    0.8213950000000000    0.6388700000000000 H
   0.7094200000000001    0.5711100000000000    0.1375000000000000 H
   0.7079600000000000    0.5714000000000000    0.6388600000000000 H
   0.7094100000000000    0.8211150000000000    0.1375000000000000 H
   0.7079600000000000    0.8213950000000000    0.6388700000000000 H
   0.1392200000000000    0.5789550000000000    0.0313000000000000 H
   0.1392300000000000    0.5789750000000000    0.5323700000000000 H
   0.1392400000000000    0.8289599999999999    0.0313100000000000 H
   0.1392100000000000    0.8289700000000000    0.5323000000000000 H
   0.6392700000000000    0.5789700000000000    0.0313000000000000 H
   0.6392400000000000    0.5789800000000001    0.5323700000000000 H
   0.6392600000000001    0.8289700000000000    0.0313000000000000 H
   0.6392300000000000    0.8289700000000000    0.5323800000000000 H
   0.1469200000000000    0.5076500000000000    0.4086100000000000 H
   0.1460500000000000    0.5075400000000000    0.9092400000000000 H
   0.1469300000000000    0.7576550000000000    0.4086100000000000 H
   0.1460400000000000    0.7575450000000000    0.9092400000000000 H
   0.6469400000000000    0.5076500000000000    0.4086100000000000 H
   0.6460600000000000    0.5075450000000000    0.9092400000000000 H
   0.6469400000000000    0.7576550000000000    0.4086100000000000 H
   0.6460600000000000    0.7575450000000000    0.9092400000000000 H
   0.9976100000000000    0.6480000000000000    0.1627200000000000 H
   0.9949900000000000    0.6484550000000000    0.6623700000000000 H
   0.9976100000000000    0.8979950000000000    0.1627300000000000 H
   0.9949900000000000    0.8984700000000000    0.6623599999999999 H
   0.4976100000000000    0.6479850000000000    0.1627300000000000 H
   0.4950000000000000    0.6484600000000000    0.6623700000000000 H
   0.4976100000000000    0.8979900000000001    0.1627300000000000 H
   0.4950100000000000    0.8984650000000001    0.6623700000000000 H
   0.3328300000000000    0.5507299999999999    0.4760300000000000 H
   0.3313600000000000    0.5512700000000000    0.9757800000000000 H
   0.3328400000000000    0.8007299999999999    0.4760300000000000 H
   0.3313600000000000    0.8012750000000000    0.9757000000000000 H
   0.8328500000000000    0.5507250000000000    0.4760300000000000 H
   0.8313700000000001    0.5512700000000000    0.9757800000000000 H
   0.8328400000000000    0.8007350000000000    0.4760300000000000 H
   0.8313700000000001    0.8012750000000000    0.9757000000000000 H
   0.4185000000000000    0.6599800000000000    0.0577000000000000 H
   0.4173000000000000    0.6602250000000001    0.5569200000000000 H
   0.4184900000000000    0.9099850000000000    0.0577000000000000 H
   0.4173100000000000    0.9102300000000000    0.5569200000000000 H
   0.9185200000000000    0.6600000000000000    0.0576800000000000 H
   0.9173200000000000    0.6602250000000001    0.5569000000000000 H
   0.9185200000000000    0.9099900000000001    0.0576900000000000 H
   0.9173200000000000    0.9102350000000000    0.5569000000000000 H
   0.4554700000000000    0.7007400000000000    0.2215600000000000 H
   0.4531300000000000    0.7013650000000000    0.7221900000000000 H
   0.4554600000000000    0.9507450000000000    0.2215600000000000 H
   0.4531300000000000    0.9513650000000000    0.7221900000000000 H
   0.9554800000000000    0.7007400000000000    0.2215000000000000 H
   0.9531500000000001    0.7013600000000000    0.7221000000000000 H
   0.9554800000000000    0.9507450000000000    0.2215600000000000 H
   0.9531400000000000    0.9513700000000000    0.7221900000000000 H
   0.1560900000000000    0.7391250000000000    0.2839000000000000 H
   0.1537300000000000    0.7397650000000000    0.7845800000000001 H
   0.1560900000000000    0.9891250000000000    0.2839700000000000 H
   0.1537300000000000    0.9897700000000000    0.7845000000000000 H
   0.6561000000000000    0.7391250000000000    0.2839600000000000 H
   0.6537400000000000    0.7397700000000000    0.7845700000000000 H
   0.6561000000000000    0.9891300000000001    0.2839600000000000 H
   0.6537500000000001    0.9897700000000000    0.7845700000000000 H
   0.2920600000000000    0.6786000000000000    0.3610900000000000 H
   0.2906200000000000    0.6788700000000000    0.8624700000000000 H
   0.2920600000000000    0.9285950000000001    0.3611000000000000 H
   0.2906100000000000    0.9288700000000000    0.8624700000000000 H
   0.7920800000000000    0.6786000000000000    0.3610900000000000 H
   0.7906100000000000    0.6788600000000000    0.8624000000000001 H
   0.7920700000000001    0.9285950000000001    0.3611000000000000 H
   0.7906300000000001    0.9288650000000001    0.8624800000000000 H
   0.3607900000000000    0.6710300000000000    0.4675000000000000 H
   0.3607700000000000    0.6710150000000000    0.9686700000000000 H
   0.3607800000000000    0.9210199999999999    0.4675900000000000 H
   0.3607600000000000    0.9210149999999999    0.9686700000000000 H
   0.8608100000000000    0.6710300000000000    0.4675800000000000 H
   0.8607600000000000    0.6710000000000000    0.9686900000000001 H
   0.8607900000000001    0.9210199999999999    0.4675900000000000 H
   0.8607700000000000    0.9210050000000001    0.9686800000000000 H
   0.3539600000000000    0.7424400000000000    0.0907300000000000 H
   0.3530800000000000    0.7423350000000000    0.5913600000000000 H
   0.3539600000000000    0.9924400000000000    0.0907400000000000 H
   0.3530700000000000    0.9923400000000000    0.5913600000000000 H
   0.8539700000000000    0.7424400000000000    0.0907000000000000 H
   0.8530900000000000    0.7423350000000000    0.5913600000000000 H
   0.8539700000000000    0.9924450000000000    0.0907300000000000 H
   0.5050000000000000    0.6015250000000000    0.3376000000000000 H
   0.5024100000000000    0.6019950000000001    0.8372400000000000 H
   0.5050100000000000    0.8515300000000000    0.3376000000000000 H
   0.5024100000000000    0.8520000000000000    0.8372000000000001 H
   0.0000000000000000    0.6015250000000000    0.3376000000000000 H
   0.0000000000000000    0.6020050000000000    0.8372200000000000 H
   0.0000000000000000    0.8515349999999999    0.3376000000000000 H
   0.0000000000000000    0.8520000000000000    0.8372300000000000 H
   0.1686400000000000    0.6987099999999999    0.0242000000000000 H
   0.1671700000000000    0.6992550000000000    0.5239000000000000 H
   0.1686400000000000    0.9487150000000000    0.0242000000000000 H
   0.1671700000000000    0.9492600000000000    0.5239400000000000 H
   0.6686600000000000    0.6987099999999999    0.0242000000000000 H
   0.6671800000000000    0.6992550000000000    0.5239000000000000 H
   0.6686600000000000    0.9487150000000000    0.0241900000000000 H
   0.0827000000000000    0.5897600000000001    0.4430500000000000 H
   0.0815300000000000    0.5900150000000000    0.9422500000000000 H
   0.0827000000000000    0.8397700000000000    0.4430400000000000 H
   0.0815200000000000    0.8400050000000000    0.9422700000000001 H
   0.5827100000000000    0.5897600000000001    0.4430500000000000 H
   0.5815399999999999    0.5900000000000000    0.9422700000000001 H
   0.5827100000000000    0.8397650000000000    0.4430500000000000 H
   0.5815200000000000    0.8400000000000001    0.9422700000000001 H
   0.9120200000000001    0.2561550000000000    0.7306500000000000 C
   0.1445300000000000    0.0902750000000000    0.1176000000000000 C
   0.1431700000000000    0.0905350000000000    0.6185700000000000 C
   0.1445400000000000    0.3402750000000000    0.1176000000000000 C
   0.2629000000000000    0.2169800000000000    0.0640400000000000 C
   0.2615800000000000    0.2172150000000000    0.5642900000000000 C
   0.2628700000000000    0.4669900000000000    0.0640500000000000 C
   0.2615500000000000    0.4672300000000000    0.5643000000000000 C
   0.7629200000000000    0.2169800000000000    0.0640400000000000 C
   0.2287200000000000    0.0673850000000000    0.3664300000000000 C
   0.2262400000000000    0.0678450000000000    0.8668800000000000 C
   0.2287400000000000    0.3173800000000000    0.3664300000000000 C
   0.2262600000000000    0.3178450000000000    0.8668700000000000 C
   0.7262600000000000    0.0678400000000000    0.8668800000000000 C
   0.7287400000000001    0.3173900000000000    0.3664300000000000 C
   0.7262800000000000    0.3178400000000000    0.8668700000000000 C
   0.2384500000000000    0.0327600000000000    0.4356800000000000 C
   0.2371300000000000    0.0329950000000000    0.9359000000000000 C
   0.2384300000000000    0.2827700000000000    0.4356900000000000 C
   0.2371000000000000    0.2830050000000000    0.9359300000000000 C
   0.7371200000000000    0.0330000000000000    0.9359300000000000 C
   0.7384600000000000    0.2827650000000000    0.4356800000000000 C
   0.7371100000000000    0.2830050000000000    0.9359300000000000 C
   0.1918200000000000    0.0040750000000000    0.4489000000000000 C
   0.1913300000000000    0.0040100000000000    0.9493000000000000 C
   0.1918400000000000    0.2540700000000000    0.4489400000000000 C
   0.1913500000000000    0.2540100000000000    0.9492900000000000 C
   0.6913600000000000    0.0040100000000000    0.9492900000000000 C
   0.6918400000000000    0.2540800000000000    0.4489400000000000 C
   0.6913700000000000    0.2540100000000000    0.9492900000000000 C
   0.2966500000000000    0.0283650000000000    0.4872900000000000 C
   0.2958500000000000    0.0286600000000000    0.9871700000000000 C
   0.2966800000000000    0.2783600000000000    0.4872800000000000 C
   0.2958700000000000    0.2786600000000000    0.9871500000000000 C
   0.7958700000000000    0.0286550000000000    0.9871600000000000 C
   0.7966700000000000    0.2783700000000000    0.4872000000000000 C
   0.7958800000000000    0.2786600000000000    0.9871500000000000 C
   0.3733900000000000    0.0688850000000000    0.2424300000000000 C
   0.3711300000000000    0.0694900000000000    0.7432299999999999 C
   0.3733900000000000    0.3188850000000000    0.2424400000000000 C
   0.3711100000000000    0.3195000000000000    0.7432200000000000 C
   0.8734100000000000    0.0688800000000000    0.2424500000000000 C
   0.8711300000000000    0.0694950000000000    0.7432000000000000 C
   0.8734000000000000    0.3188850000000000    0.2424400000000000 C
   0.8711400000000000    0.3194950000000000    0.7432200000000000 C
   0.0270900000000000    0.0271700000000000    0.2654500000000000 C
   0.0247300000000000    0.0278150000000000    0.7660400000000001 C
   0.0270900000000000    0.2771800000000000    0.2654400000000000 C
   0.0247400000000000    0.2778150000000000    0.7660500000000000 C
   0.5271000000000000    0.0271750000000000    0.2654300000000000 C
   0.5247500000000000    0.0278100000000000    0.7660000000000000 C
   0.5271100000000000    0.2771800000000000    0.2654400000000000 C
   0.5247400000000000    0.2778200000000000    0.7660500000000000 C
   0.4143400000000000    0.0055150000000000    0.2300400000000000 C
   0.4120000000000000    0.0061450000000000    0.7306600000000000 C
   0.4143500000000000    0.2555150000000000    0.2300500000000000 C
   0.4119900000000000    0.2561550000000000    0.7306500000000000 C
   0.9143600000000000    0.0055100000000000    0.2300500000000000 C
   0.9120100000000000    0.0061500000000000    0.7306500000000000 C
   0.9143600000000000    0.2555150000000000    0.2300000000000000 C
   0.1431600000000000    0.3405350000000000    0.6185800000000000 C
   0.6445600000000000    0.0902800000000000    0.1176700000000000 C
   0.6431800000000000    0.0905400000000000    0.6185700000000000 C
   0.6445500000000000    0.3402850000000000    0.1176000000000000 C
   0.6431800000000000    0.3405350000000000    0.6185800000000000 C
   0.1044400000000000    0.0952600000000000    0.0578300000000000 C
   0.1038900000000000    0.0953800000000000    0.5585500000000000 C
   0.1044500000000000    0.3452650000000000    0.0578300000000000 C
   0.1038800000000000    0.3453750000000000    0.5585599999999999 C
   0.6044700000000000    0.0952700000000000    0.0578200000000000 C
   0.6039000000000000    0.0953800000000000    0.5585500000000000 C
   0.6044600000000000    0.3452700000000000    0.0578200000000000 C
   0.6039000000000000    0.3453750000000000    0.5585599999999999 C
   0.0218100000000000    0.1212650000000000    0.0326400000000000 C
   0.0213600000000000    0.1213550000000000    0.5327499999999999 C
   0.0218100000000000    0.3712650000000000    0.0326400000000000 C
   0.0213500000000000    0.3713600000000000    0.5327499999999999 C
   0.5218300000000000    0.1212650000000000    0.0326400000000000 C
   0.5213700000000000    0.1213600000000000    0.5327400000000000 C
   0.5218200000000000    0.3712650000000000    0.0326400000000000 C
   0.5213700000000000    0.3713550000000000    0.5327499999999999 C
   0.4827900000000000    0.1398500000000000    0.0724200000000000 C
   0.4815800000000000    0.1400850000000000    0.5721300000000000 C
   0.4827800000000000    0.3898500000000000    0.0724200000000000 C
   0.4815800000000000    0.3900850000000000    0.5721300000000000 C
   0.9828100000000000    0.1398600000000000    0.0724100000000000 C
   0.9816000000000000    0.1400800000000000    0.5721300000000000 C
   0.9828100000000000    0.3898550000000000    0.0724200000000000 C
   0.9815900000000000    0.3900900000000000    0.5721300000000000 C
   0.0267100000000000    0.1333550000000000    0.1319700000000000 C
   0.0247200000000000    0.1337250000000000    0.6319100000000000 C
   0.0267100000000000    0.3833550000000000    0.1319800000000000 C
   0.0247100000000000    0.3837350000000000    0.6319100000000000 C
   0.5267200000000000    0.1333500000000000    0.1319800000000000 C
   0.5247300000000000    0.1337250000000000    0.6319100000000000 C
   0.5267200000000000    0.3833500000000000    0.1319800000000000 C
   0.5247300000000000    0.3837300000000000    0.6319100000000000 C
   0.4396500000000000    0.0333350000000000    0.2456200000000000 C
   0.4373000000000000    0.0339600000000000    0.7462800000000001 C
   0.4396600000000000    0.2833400000000000    0.2456200000000000 C
   0.4372900000000000    0.2839650000000000    0.7462800000000001 C
   0.9396700000000000    0.0333400000000000    0.2456100000000000 C
   0.9373000000000000    0.0339600000000000    0.7462900000000000 C
   0.9396700000000000    0.2833400000000000    0.2456200000000000 C
   0.9373100000000000    0.2839650000000000    0.7462800000000001 C
   0.2737400000000000    0.1821450000000000    0.1331000000000000 C
   0.2712700000000000    0.1826050000000000    0.6335499999999999 C
   0.2737600000000000    0.4321400000000000    0.1330900000000000 C
   0.2712800000000000    0.4326050000000000    0.6335400000000000 C
   0.7737500000000000    0.1821450000000000    0.1331000000000000 C
   0.7712900000000000    0.1826050000000000    0.6335400000000000 C
   0.7737600000000000    0.4321450000000000    0.1331000000000000 C
   0.7713000000000000    0.4326050000000000    0.6335400000000000 C
   0.7615700000000000    0.2172250000000000    0.5639999999999999 C
   0.7629000000000000    0.4669850000000000    0.0640400000000000 C
   0.7615700000000000    0.4672300000000000    0.5643000000000000 C
   0.3086500000000000    0.2459750000000000    0.0506800000000000 C
   0.3081700000000000    0.2459150000000000    0.5510300000000000 C
   0.3086700000000000    0.4959700000000000    0.0506800000000000 C
   0.3081800000000000    0.4959150000000000    0.5510300000000000 C
   0.8086600000000000    0.2459800000000000    0.0506800000000000 C
   0.8081900000000000    0.2459100000000000    0.5510300000000000 C
   0.8086700000000000    0.4959800000000000    0.0506800000000000 C
   0.8082000000000000    0.4959100000000000    0.5510300000000000 C
   0.2041300000000000    0.2213300000000000    0.0128200000000000 C
   0.2033300000000000    0.2216250000000000    0.5126900000000000 C
   0.2041600000000000    0.4713250000000000    0.0128100000000000 C
   0.2033400000000000    0.4716250000000000    0.5125999999999999 C
   0.7041500000000001    0.2213300000000000    0.0128200000000000 C
   0.7033600000000000    0.2216200000000000    0.5126900000000000 C
   0.7041600000000000    0.4713300000000000    0.0128100000000000 C
   0.7033700000000001    0.4716250000000000    0.5126800000000000 C
   0.1288600000000000    0.1804900000000000    0.2567400000000000 C
   0.1266100000000000    0.1811000000000000    0.7575400000000000 C
   0.1288700000000000    0.4304950000000000    0.2567400000000000 C
   0.1266000000000000    0.4311050000000000    0.7575400000000000 C
   0.6288899999999999    0.1804900000000000    0.2567400000000000 C
   0.6266200000000000    0.1811000000000000    0.7575400000000000 C
   0.6288700000000000    0.4304900000000000    0.2567500000000000 C
   0.6266300000000000    0.4311050000000000    0.7575300000000000 C
   0.4752600000000000    0.2221750000000000    0.2339000000000000 C
   0.4729100000000000    0.2228050000000000    0.7345300000000000 C
   0.4752500000000000    0.4721800000000000    0.2339200000000000 C
   0.4729200000000000    0.4728150000000000    0.7345300000000000 C
   0.9752700000000000    0.2221750000000000    0.2339100000000000 C
   0.9729300000000000    0.2228050000000000    0.7345300000000000 C
   0.9752700000000000    0.4721800000000000    0.2339100000000000 C
   0.9729200000000000    0.4728100000000000    0.7345300000000000 C
   0.0880000000000000    0.2438300000000000    0.2693100000000000 C
   0.0856500000000000    0.2444750000000000    0.7699200000000000 C
   0.0880100000000000    0.4938400000000000    0.2693100000000000 C
   0.0856400000000000    0.4944800000000000    0.7699300000000000 C