H8 C10 N2
1.0
  28.2639823673224022    0.0000000000000000   -0.0315711844608560
  -0.0116273982173364   17.8787059629333207   -2.7763981873252788
   0.0000000000000000    0.0000000000000000   39.1060000000000016
H C N
8 10 2
direct
   0.0453750000000000    0.2927500000000000    0.1989100000000000 H
   0.0384250000000000    0.1720900000000000    0.2207550000000000 H
   0.1889600000000000    0.1412700000000000    0.2024050000000000 H
   0.1886850000000000    0.2602800000000000    0.1785300000000000 H
   0.0519650000000000    0.0990000000000000    0.2613800000000000 H
   0.0550900000000000    0.9763800000000000    0.2829600000000000 H
   0.1690100000000000    0.9040800000000000    0.2205000000000000 H
   0.1711750000000000    0.0230800000000000    0.1955700000000000 H
   0.0765050000000000    0.2575000000000000    0.1999150000000000 C
   0.0728550000000000    0.1896000000000000    0.2123300000000000 C
   0.1134050000000000    0.1449800000000000    0.2134950000000000 C
   0.1558950000000000    0.1717200000000000    0.2014100000000000 C
   0.1563800000000000    0.2392400000000000    0.1887550000000000 C
   0.0789200000000000    0.0581300000000000    0.2515550000000000 C
   0.0801800000000000    0.9898300000000000    0.2636800000000000 C
   0.1440100000000000    0.9492699999999999    0.2286800000000000 C
   0.1450700000000000    0.0160700000000000    0.2152850000000000 C
   0.1122200000000000    0.0726700000000000    0.2267500000000000 C
   0.1176000000000000    0.2824900000000000    0.1882850000000000 N
   0.1121000000000000    0.9361699999999999    0.2526100000000000 N
