Zn4 H26 C24 O18
1.0
   7.6141150615294855    0.0000000000000000    0.6160948220768011
   0.8393796667693515   12.6254618327635608    2.0852173230732545
   0.0000000000000000    0.0000000000000000   12.9290000000000003
Zn H C O
4 26 24 18
direct
   0.5697200000000000    0.7159300000000000    0.7732300000000000 Zn
   0.0678400000000000    0.7737700000000000    0.7158099999999999 Zn
   0.4302700000000000    0.2840500000000000    0.2268000000000000 Zn
   0.9321600000000000    0.2262100000000000    0.2842200000000000 Zn
   0.4122648097321064    0.7543257324171126    0.6040480265191636 H
   0.3636250119292037    0.7942227185629527    0.5673589895701402 H
   0.3313598956361051    0.8059674024862152    0.8481301705154665 H
   0.3028867024394213    0.6460764636609624    0.9316059896765725 H
   0.4904200000000000    0.3694700000000000    0.8590300000000000 H
   0.4102600000000000    0.3042000000000000    0.7618600000000000 H
   0.2143300000000000    0.4482700000000000    0.7962300000000000 H
   0.0663500000000000    0.2024300000000000    0.0507500000000000 H
   0.6954700000000000    0.4641300000000000    0.9514800000000000 H
   0.4969500000000000    0.1196000000000000    0.9964499999999999 H
   0.0060300000000000    0.0029500000000000    0.8783900000000000 H
   0.7520500000000000    0.9865200000000000    0.0115500000000000 H
   0.7502400000000000    0.2860700000000000    0.7151400000000000 H
   0.0097700000000000    0.1406500000000000    0.6311500000000000 H
   0.0896900000000000    0.2398800000000000    0.6943700000000000 H
   0.2848300000000000    0.2046400000000000    0.5508200000000000 H
   0.4367000000000000    0.9512900000000000    0.7963700000000000 H
   0.8048700000000000    0.0506800000000000    0.5342800000000000 H
   0.3640791111041175    0.1240621951396837    0.1712399735161720 H
   1.0285371859945764    0.0359528185322844    0.3726123270349808 H
   0.1817841824939588    0.0466562925112073    0.2848441365916383 H
   0.3393353486400913    0.4657263921800459    0.1929406982431131 H
   0.8513729614287421    0.4110579339089475    0.2465922102490666 H
   1.0836435636625814    0.4587858167848130    0.2159693244191775 H
   0.9195298734754502    0.7826984600407080    0.5426885722892493 H
  -0.1872245895573456    0.7175166971790445    0.9514427816502106 H
   0.9027700000000000    0.5671700000000000    0.7977600000000000 C
   0.7391799999999999    0.2874700000000000    0.0983000000000000 C
   0.4526800000000000    0.2925600000000000    0.8428900000000000 C
   0.1178500000000000    0.4123000000000000    0.8550700000000000 C
   0.1568300000000000    0.3164800000000000    0.9204900000000000 C
   0.0315800000000000    0.2755000000000000    0.0000000000000000 C
   0.8666300000000000    0.3287400000000000    0.0108400000000000 C
   0.8238799999999999    0.4224200000000000    0.9426600000000001 C
   0.9494500000000000    0.4640100000000000    0.8657300000000000 C
   0.6080500000000000    0.1266200000000000    0.9382000000000000 C
   0.8946300000000000    0.0613300000000000    0.8721500000000000 C
   0.7516200000000000    0.0523000000000000    0.9464300000000000 C
   0.7506200000000000    0.2201300000000000    0.7804100000000000 C
   0.8954299999999999    0.1460800000000000    0.7888300000000000 C
   0.6061400000000000    0.2107700000000000    0.8543100000000000 C
   0.5957200000000000    0.2033500000000000    0.4316300000000000 C
   0.7634800000000000    0.9041000000000000    0.7109400000000000 C
   0.0480300000000000    0.1579100000000000    0.7069000000000000 C
   0.3820600000000000    0.1461800000000000    0.5866500000000000 C
   0.3443200000000000    0.0809100000000000    0.6823800000000000 C
   0.4705600000000000    0.0000000000000000    0.7232499999999999 C
   0.6352000000000000    0.9912700000000000    0.6698900000000000 C
   0.6767300000000001    0.0593100000000000    0.5761900000000000 C
   0.5501700000000000    0.1357600000000000    0.5347700000000000 C
   0.5325299999999999    0.7554200000000000    0.6226600000000000 O
   0.2417200000000000    0.7856300000000001    0.5925500000000000 O
   0.2146600000000000    0.7910400000000000    0.8324600000000000 O
   0.4158900000000000    0.6667500000000000    0.8981500000000000 O
   0.7400000000000000    0.5907100000000000    0.7872100000000000 O
   0.0301700000000000    0.6221900000000000    0.7555600000000000 O
   0.5841100000000000    0.3332300000000000    0.1018800000000000 O
   0.7853300000000000    0.2089400000000000    0.1675700000000000 O
   0.3112600000000000    0.2559200000000000    0.9159400000000000 O
   0.7582800000000000    0.2143500000000000    0.4074800000000000 O
   0.4674700000000000    0.2445600000000000    0.3773700000000000 O
   0.9189800000000000    0.9014200000000000    0.6658600000000000 O
   0.7179200000000000    0.8336800000000000    0.7886500000000000 O
   0.1903300000000000    0.0851900000000000    0.7430300000000000 O
   0.2820800000000000    0.1663000000000000    0.2113800000000000 O
   1.0810200000000001    0.0985600000000000    0.3341700000000000 O
   0.2599900000000000    0.4092600000000000    0.2128100000000000 O
   0.9698300000000000    0.3777900000000000    0.2444700000000000 O
