Zn32 H377 C279 N124 O96
1.0
  18.6649949852268122    0.0000000000000000    0.0136821583798217
  -0.0325794021461510   16.5179556268652874  -10.4087778577249512
   0.0000000000000000    0.0000000000000000   38.9519999999999982
Zn H C N O
32 377 279 124 96
direct
   0.5343900000000000    0.2960900000000000    0.1812650000000000 Zn
   0.0344000000000000    0.2960900000000000    0.1812650000000000 Zn
   0.7843300000000000    0.2038600000000000    0.3187000000000000 Zn
   0.2843400000000000    0.2038600000000000    0.3187000000000000 Zn
   0.0344000000000000    0.2960900000000000    0.9312650000000000 Zn
   0.5343900000000000    0.2960900000000000    0.9312650000000000 Zn
   0.2843500000000000    0.2038600000000000    0.0687000000000000 Zn
   0.7843400000000000    0.2038600000000000    0.0687000000000000 Zn
   0.0344000000000000    0.2960900000000000    0.6812650000000000 Zn
   0.5343900000000000    0.2960900000000000    0.6812650000000000 Zn
   0.2843400000000000    0.2038600000000000    0.8187000000000000 Zn
   0.7843300000000000    0.2038600000000000    0.8187000000000000 Zn
   0.0344000000000000    0.2960900000000000    0.4312650000000000 Zn
   0.5343900000000000    0.2960900000000000    0.4312650000000000 Zn
   0.2843500000000000    0.2038600000000000    0.5687000000000000 Zn
   0.7843400000000000    0.2038600000000000    0.5687000000000000 Zn
   0.0344000000000000    0.7960800000000000    0.6812650000000000 Zn
   0.7843300000000000    0.7038500000000000    0.8186950000000000 Zn
   0.2843400000000000    0.7038500000000000    0.8186950000000000 Zn
   0.5343900000000000    0.7960800000000000    0.6812650000000000 Zn
   0.5343900000000000    0.7960800000000000    0.9312650000000000 Zn
   0.0344000000000000    0.7960800000000000    0.9312650000000000 Zn
   0.2843400000000000    0.7038500000000000    0.0686950000000000 Zn
   0.7843300000000000    0.7038500000000000    0.0686950000000000 Zn
   0.0344000000000000    0.7960800000000000    0.4312650000000000 Zn
   0.5343900000000000    0.7960800000000000    0.4312650000000000 Zn
   0.2843400000000000    0.7038500000000000    0.5686950000000000 Zn
   0.7843300000000000    0.7038500000000000    0.5686950000000000 Zn
   0.0344000000000000    0.7960800000000000    0.1812650000000000 Zn
   0.5343900000000000    0.7960800000000000    0.1812650000000000 Zn
   0.7843300000000000    0.7038500000000000    0.3186950000000000 Zn
   0.2843400000000000    0.7038500000000000    0.3186950000000000 Zn
   0.5676638305885541    0.4516798455731191    0.7153062521462739 H
   0.5341102878329609    0.4412193762984022    0.7548281741534405 H
   0.1257600000000000    0.1785000000000000    0.2031500000000000 H
   0.2195400000000000    0.1589100000000000    0.1978850000000000 H
   0.1261700000000000    0.2642900000000000    0.1048950000000000 H
   0.2875100000000000    0.1605300000000000    0.1382100000000000 H
   0.2489600000000000    0.5560400000000000    0.2618750000000000 H
   0.3320300000000000    0.5747600000000000    0.2524900000000000 H
   0.3833900000000000    0.5520200000000000    0.2991550000000000 H
   0.2974000000000000    0.5445800000000000    0.3167750000000000 H
   0.3661900000000000    0.4092100000000000    0.2656600000000000 H
   0.3428800000000000    0.4294400000000000    0.2283050000000000 H
   0.1440100000000000    0.3218400000000000    0.2515850000000000 H
   0.3020400000000000    0.2962200000000000    0.2367100000000000 H
   0.8761700000000000    0.3213900000000000    0.2968350000000000 H
   0.9700200000000000    0.3409200000000000    0.3020500000000000 H
   0.8758800000000000    0.2358900000000000    0.3951800000000000 H
   0.0380100000000000    0.3390900000000000    0.3616650000000000 H
   0.9990900000000000    0.9436099999999999    0.2381900000000000 H
   0.0823200000000000    0.9252300000000000    0.2474400000000000 H
   0.1333000000000000    0.9485200000000000    0.2008600000000000 H
   0.0472000000000000    0.9554700000000000    0.1832650000000000 H
   0.1161300000000000    0.0911900000000000    0.2344350000000000 H
   0.0925700000000000    0.0709000000000000    0.2717600000000000 H
   0.8939300000000000    0.1779600000000000    0.2484400000000000 H
   0.0520000000000000    0.2039300000000000    0.2634100000000000 H
   0.6257500000000000    0.1785000000000000    0.2031500000000000 H
   0.7195300000000000    0.1589100000000000    0.1978850000000000 H
   0.6261600000000000    0.2642900000000000    0.1048950000000000 H
   0.7875000000000000    0.1605200000000000    0.1382100000000000 H
   0.7489500000000000    0.5560400000000000    0.2618750000000000 H
   0.8320200000000000    0.5747600000000000    0.2524900000000000 H
   0.8833800000000001    0.5520200000000000    0.2991550000000000 H
   0.7973900000000000    0.5445800000000000    0.3167500000000000 H
   0.8661799999999999    0.4092100000000000    0.2656600000000000 H
   0.8428600000000001    0.4294400000000000    0.2283050000000000 H
   0.6440000000000000    0.3218400000000000    0.2515850000000000 H
   0.8020300000000000    0.2962200000000000    0.2367100000000000 H
   0.3761800000000000    0.3213900000000000    0.2968000000000000 H
   0.4700300000000000    0.3409200000000000    0.3020500000000000 H
   0.3758900000000000    0.2358900000000000    0.3951800000000000 H
   0.5380000000000000    0.3390900000000000    0.3616650000000000 H
   0.4991000000000000    0.9436099999999999    0.2381900000000000 H
   0.5823100000000000    0.9252300000000000    0.2474000000000000 H
   0.6332900000000000    0.9485200000000000    0.2008600000000000 H
   0.5472000000000000    0.9554700000000000    0.1832650000000000 H
   0.6161200000000000    0.0911900000000000    0.2344350000000000 H
   0.5925600000000000    0.0709000000000000    0.2717600000000000 H
   0.3939400000000000    0.1779600000000000    0.2484400000000000 H
   0.5519900000000000    0.2039300000000000    0.2634100000000000 H
   0.3761900000000000    0.3213900000000000    0.0468400000000000 H
   0.4700300000000000    0.3409200000000000    0.0520550000000000 H
   0.3759000000000000    0.2358900000000000    0.1451500000000000 H
   0.5380000000000000    0.3390900000000000    0.1116650000000000 H
   0.4991000000000000    0.9436099999999999    0.9881900000000000 H
   0.5823000000000000    0.9252300000000000    0.9974000000000001 H
   0.6332900000000000    0.9485200000000000    0.9508600000000000 H
   0.5471900000000000    0.9554700000000000    0.9332650000000000 H
   0.6161200000000000    0.0911900000000000    0.9844400000000000 H
   0.5925600000000000    0.0709000000000000    0.0217650000000000 H
   0.3939400000000000    0.1779600000000000    0.9984400000000000 H
   0.5520000000000000    0.2039400000000000    0.0134100000000000 H
   0.6257500000000000    0.1785000000000000    0.9531550000000000 H
   0.7195300000000000    0.1589100000000000    0.9478850000000000 H
   0.6261500000000000    0.2642900000000000    0.8548500000000000 H
   0.7875000000000000    0.1605200000000000    0.8882000000000000 H
   0.7489500000000000    0.5560400000000000    0.0118750000000000 H
   0.8320200000000000    0.5747600000000000    0.0024900000000000 H
   0.8833800000000001    0.5520200000000000    0.0491500000000000 H
   0.7973900000000000    0.5445800000000000    0.0667700000000000 H
   0.8661900000000000    0.4092100000000000    0.0156600000000000 H
   0.8428600000000001    0.4294400000000000    0.9782999999999999 H
   0.6440000000000000    0.3218400000000000    0.0015850000000000 H
   0.8020200000000000    0.2962200000000000    0.9867100000000000 H
   0.8761800000000000    0.3213900000000000    0.0468400000000000 H
   0.9700200000000000    0.3409200000000000    0.0520550000000000 H
   0.8758899999999999    0.2358900000000000    0.1451500000000000 H
   0.0380100000000000    0.3390900000000000    0.1116650000000000 H
   0.9990900000000000    0.9436099999999999    0.9881900000000000 H
   0.0823100000000000    0.9252300000000000    0.9974450000000000 H
   0.1333000000000000    0.9485300000000000    0.9508600000000000 H
   0.0472000000000000    0.9554700000000000    0.9332650000000000 H
   0.1161300000000000    0.0911900000000000    0.9844400000000000 H
   0.0925700000000000    0.0709000000000000    0.0217650000000000 H
   0.8939300000000000    0.1779600000000000    0.9984400000000000 H
   0.0520100000000000    0.2039400000000000    0.0134100000000000 H
   0.1257600000000000    0.1785000000000000    0.9531550000000000 H
   0.2195400000000000    0.1589100000000000    0.9478850000000000 H
   0.1261600000000000    0.2642900000000000    0.8548500000000000 H
   0.2875100000000000    0.1605200000000000    0.8882000000000000 H
   0.2489600000000000    0.5560400000000000    0.0118750000000000 H
   0.3320300000000000    0.5747600000000000    0.0024900000000000 H
   0.3833900000000000    0.5520200000000000    0.0491500000000000 H
   0.2974000000000000    0.5445800000000000    0.0667700000000000 H
   0.3662000000000000    0.4092100000000000    0.0156600000000000 H
   0.3428700000000000    0.4294400000000000    0.9782999999999999 H
   0.1440100000000000    0.3218400000000000    0.0015850000000000 H
   0.3020300000000000    0.2962200000000000    0.9867100000000000 H
   0.1257600000000000    0.1785000000000000    0.7031499999999999 H
   0.2195400000000000    0.1589100000000000    0.6978850000000000 H
   0.1261700000000000    0.2642900000000000    0.6048950000000000 H
   0.2875100000000000    0.1605300000000000    0.6382099999999999 H
   0.2489600000000000    0.5560400000000000    0.7618750000000001 H
   0.3320300000000000    0.5747600000000000    0.7524900000000000 H
   0.3833900000000000    0.5520200000000000    0.7991550000000001 H
   0.2974000000000000    0.5445800000000000    0.8167750000000000 H
   0.3661900000000000    0.4092100000000000    0.7656600000000000 H
   0.3428800000000000    0.4294400000000000    0.7283050000000000 H
   0.1440100000000000    0.3218400000000000    0.7515849999999999 H
   0.3020400000000000    0.2962200000000000    0.7367100000000000 H
   0.8761700000000000    0.3213900000000000    0.7968350000000000 H
   0.9700200000000000    0.3409200000000000    0.8020499999999999 H
   0.8758800000000000    0.2358900000000000    0.8951800000000000 H
   0.0380100000000000    0.3390900000000000    0.8616650000000000 H
   0.9990900000000000    0.9436099999999999    0.7381900000000000 H
   0.0823200000000000    0.9252300000000000    0.7474400000000000 H
   0.1333000000000000    0.9485200000000000    0.7008600000000000 H
   0.0472000000000000    0.9554700000000000    0.6832650000000000 H
   0.1161300000000000    0.0911900000000000    0.7344349999999999 H
   0.0925700000000000    0.0709000000000000    0.7717600000000000 H
   0.8939300000000000    0.1779600000000000    0.7484400000000000 H
   0.0520000000000000    0.2039300000000000    0.7634099999999999 H
   0.6257500000000000    0.1785000000000000    0.7031499999999999 H
   0.7195300000000000    0.1589100000000000    0.6978850000000000 H
   0.6261600000000000    0.2642900000000000    0.6048950000000000 H
   0.7875000000000000    0.1605200000000000    0.6382099999999999 H
   0.7489500000000000    0.5560400000000000    0.7618750000000001 H
   0.8320200000000000    0.5747600000000000    0.7524900000000000 H
   0.8833800000000001    0.5520200000000000    0.7991550000000001 H
   0.7973900000000000    0.5445800000000000    0.8167500000000000 H
   0.8661799999999999    0.4092100000000000    0.7656600000000000 H
   0.8428600000000001    0.4294400000000000    0.7283050000000000 H
   0.6440000000000000    0.3218400000000000    0.7515849999999999 H
   0.8020300000000000    0.2962200000000000    0.7367100000000000 H
   0.3761800000000000    0.3213900000000000    0.7968000000000000 H
   0.4700300000000000    0.3409200000000000    0.8020499999999999 H
   0.3758900000000000    0.2358900000000000    0.8951800000000000 H
   0.5380000000000000    0.3390900000000000    0.8616650000000000 H
   0.4991000000000000    0.9436099999999999    0.7381900000000000 H
   0.5823100000000000    0.9252300000000000    0.7474000000000001 H
   0.6332900000000000    0.9485200000000000    0.7008600000000000 H
   0.5472000000000000    0.9554700000000000    0.6832650000000000 H
   0.6161200000000000    0.0911900000000000    0.7344349999999999 H
   0.5925600000000000    0.0709000000000000    0.7717600000000000 H
   0.3939400000000000    0.1779600000000000    0.7484400000000000 H
   0.5519900000000000    0.2039300000000000    0.7634099999999999 H
   0.3761900000000000    0.3213900000000000    0.5468400000000000 H
   0.4700300000000000    0.3409200000000000    0.5520550000000000 H
   0.3759000000000000    0.2358900000000000    0.6451500000000000 H
   0.5380000000000000    0.3390900000000000    0.6116650000000000 H
   0.4991000000000000    0.9436099999999999    0.4881900000000000 H
   0.5823000000000000    0.9252300000000000    0.4974000000000000 H
   0.6332900000000000    0.9485200000000000    0.4508600000000000 H
   0.5471900000000000    0.9554700000000000    0.4332650000000000 H
   0.6161200000000000    0.0911900000000000    0.4844400000000000 H
   0.5925600000000000    0.0709000000000000    0.5217650000000000 H
   0.3939400000000000    0.1779600000000000    0.4984400000000000 H
   0.5520000000000000    0.2039400000000000    0.5134100000000000 H
   0.6257500000000000    0.1785000000000000    0.4531550000000000 H
   0.7195300000000000    0.1589100000000000    0.4478850000000000 H
   0.6261500000000000    0.2642900000000000    0.3548500000000000 H
   0.7875000000000000    0.1605200000000000    0.3882000000000000 H
   0.7489500000000000    0.5560400000000000    0.5118750000000000 H
   0.8320200000000000    0.5747600000000000    0.5024900000000000 H
   0.8833800000000001    0.5520200000000000    0.5491500000000000 H
   0.7973900000000000    0.5445800000000000    0.5667700000000000 H
   0.8661900000000000    0.4092100000000000    0.5156600000000000 H
   0.8428600000000001    0.4294400000000000    0.4783000000000000 H
   0.6440000000000000    0.3218400000000000    0.5015849999999999 H
   0.8020200000000000    0.2962200000000000    0.4867100000000000 H
   0.8761800000000000    0.3213900000000000    0.5468400000000000 H
   0.9700200000000000    0.3409200000000000    0.5520550000000000 H
   0.8758899999999999    0.2358900000000000    0.6451500000000000 H
   0.0380100000000000    0.3390900000000000    0.6116650000000000 H
   0.9990900000000000    0.9436099999999999    0.4881900000000000 H
   0.0823100000000000    0.9252300000000000    0.4974450000000000 H
   0.1333000000000000    0.9485300000000000    0.4508600000000000 H
   0.0472000000000000    0.9554700000000000    0.4332650000000000 H
   0.1161300000000000    0.0911900000000000    0.4844400000000000 H
   0.0925700000000000    0.0709000000000000    0.5217650000000000 H
   0.8939300000000000    0.1779600000000000    0.4984400000000000 H
   0.0520100000000000    0.2039400000000000    0.5134100000000000 H
   0.1257600000000000    0.1785000000000000    0.4531550000000000 H
   0.2195400000000000    0.1589100000000000    0.4478850000000000 H
   0.1261600000000000    0.2642900000000000    0.3548500000000000 H
   0.2875100000000000    0.1605200000000000    0.3882000000000000 H
   0.2489600000000000    0.5560400000000000    0.5118750000000000 H
   0.3320300000000000    0.5747600000000000    0.5024900000000000 H
   0.3833900000000000    0.5520200000000000    0.5491500000000000 H
   0.2974000000000000    0.5445800000000000    0.5667700000000000 H
   0.3662000000000000    0.4092100000000000    0.5156600000000000 H
   0.3428700000000000    0.4294400000000000    0.4783000000000000 H
   0.1440100000000000    0.3218400000000000    0.5015849999999999 H
   0.3020300000000000    0.2962200000000000    0.4867100000000000 H
   0.6257500000000000    0.6784900000000000    0.7031550000000000 H
   0.7195200000000000    0.6589000000000000    0.6978850000000000 H
   0.6261500000000000    0.7642800000000000    0.6048900000000000 H
   0.7875000000000000    0.6605200000000000    0.6382050000000000 H
   0.7489500000000000    0.0560500000000000    0.7618750000000001 H
   0.8320200000000000    0.0747600000000000    0.7524900000000000 H
   0.8833800000000001    0.0520300000000000    0.7991550000000001 H
   0.7973900000000000    0.0445900000000000    0.8167700000000000 H
   0.8661799999999999    0.9092000000000000    0.7656600000000000 H
   0.8428600000000001    0.9294300000000000    0.7283050000000000 H
   0.6439900000000000    0.8218299999999999    0.7515800000000000 H
   0.8020200000000000    0.7962100000000000    0.7367100000000000 H
   0.8761700000000000    0.8213800000000000    0.7968350000000000 H
   0.9700100000000000    0.8409100000000000    0.8020499999999999 H
   0.8758800000000000    0.7358800000000000    0.8951800000000000 H
   0.0380100000000000    0.8390800000000000    0.8616500000000000 H
   0.9991000000000000    0.4436200000000000    0.7381949999999999 H
   0.0823200000000000    0.4252400000000000    0.7474450000000000 H
   0.1333000000000000    0.4485300000000000    0.7008600000000000 H
   0.0472100000000000    0.4554800000000000    0.6832650000000000 H
   0.1161300000000000    0.5911800000000000    0.7344349999999999 H
   0.0925600000000000    0.5708900000000000    0.7717600000000000 H
   0.8939200000000000    0.6779500000000001    0.7484400000000000 H
   0.0520000000000000    0.7039299999999999    0.7634000000000001 H
   0.1257600000000000    0.6784900000000000    0.7031550000000000 H
   0.2195400000000000    0.6589000000000000    0.6978850000000000 H
   0.1261600000000000    0.7642800000000000    0.6048900000000000 H
   0.2875100000000000    0.6605200000000000    0.6382050000000000 H
   0.2489600000000000    0.0560500000000000    0.7618750000000001 H
   0.3320300000000000    0.0747600000000000    0.7524900000000000 H
   0.3834000000000000    0.0520300000000000    0.7991500000000000 H
   0.2974100000000000    0.0445800000000000    0.8167700000000000 H
   0.3661900000000000    0.9092000000000000    0.7656600000000000 H
   0.3428700000000000    0.9294300000000000    0.7283050000000000 H
   0.1440000000000000    0.8218299999999999    0.7515800000000000 H
   0.3020300000000000    0.7962100000000000    0.7367100000000000 H
   0.4227749483700710    0.7648531357358879    0.8807751500549883 H
   0.4827603211608059    0.8039413587854538    0.8689063982823988 H
   0.4615946995865836    0.7438697048518680    0.7219246264612528 H
   0.8761700000000000    0.8213800000000000    0.0468350000000000 H
   0.9700200000000000    0.8409100000000000    0.0520500000000000 H
   0.8758800000000000    0.7358800000000000    0.1451800000000000 H
   0.0380100000000000    0.8390800000000000    0.1116600000000000 H
   0.9990900000000000    0.4436200000000000    0.9881500000000000 H
   0.0823200000000000    0.4252400000000000    0.9974000000000001 H
   0.1333000000000000    0.4485300000000000    0.9508600000000000 H
   0.0472100000000000    0.4554800000000000    0.9332650000000000 H
   0.1161200000000000    0.5911800000000000    0.9844349999999999 H
   0.0925700000000000    0.5709000000000000    0.0217600000000000 H
   0.8939200000000000    0.6779500000000001    0.9984400000000000 H
   0.0520000000000000    0.7039299999999999    0.0134100000000000 H
   0.1257600000000000    0.6784900000000000    0.9531550000000000 H
   0.2195300000000000    0.6589000000000000    0.9478500000000001 H
   0.1261600000000000    0.7642800000000000    0.8548899999999999 H
   0.2875000000000000    0.6605200000000000    0.8882050000000000 H
   0.2489700000000000    0.0560500000000000    0.0118750000000000 H
   0.3320400000000000    0.0747700000000000    0.0024900000000000 H
   0.3834000000000000    0.0520300000000000    0.0491550000000000 H
   0.2974100000000000    0.0445900000000000    0.0667750000000000 H
   0.3661900000000000    0.9092100000000000    0.0156600000000000 H
   0.3428700000000000    0.9294300000000000    0.9783050000000000 H
   0.1440000000000000    0.8218299999999999    0.0000000000000000 H
   0.3020300000000000    0.7962100000000000    0.9867100000000000 H
   0.3761800000000000    0.8213800000000000    0.0468350000000000 H
   0.4700300000000000    0.8409100000000000    0.0520500000000000 H
   0.3758900000000000    0.7358800000000000    0.1451800000000000 H
   0.5380000000000000    0.8390800000000000    0.1116600000000000 H
   0.4991000000000000    0.4436200000000000    0.9881500000000000 H
   0.5823100000000000    0.4252400000000000    0.9974000000000001 H
   0.6332900000000000    0.4485300000000000    0.9508600000000000 H
   0.5472000000000000    0.4554800000000000    0.9332650000000000 H
   0.6161100000000000    0.5911800000000000    0.9844349999999999 H
   0.5925600000000000    0.5709000000000000    0.0217500000000000 H
   0.3939300000000000    0.6779500000000001    0.9984400000000000 H
   0.5519900000000000    0.7039299999999999    0.0134100000000000 H
   0.6257400000000000    0.6784900000000000    0.9531550000000000 H
   0.7195200000000000    0.6589000000000000    0.9478500000000001 H
   0.6261500000000000    0.7642800000000000    0.8548899999999999 H
   0.7874900000000000    0.6605200000000000    0.8882050000000000 H
   0.7489500000000000    0.0560500000000000    0.0118750000000000 H
   0.8320200000000000    0.0747700000000000    0.0024900000000000 H
   0.8833900000000000    0.0520300000000000    0.0491550000000000 H
   0.7974000000000000    0.0445900000000000    0.0667500000000000 H
   0.8661799999999999    0.9092100000000000    0.0156600000000000 H
   0.8428600000000001    0.9294300000000000    0.9782999999999999 H
   0.6439900000000000    0.8218299999999999    0.0000000000000000 H
   0.8020200000000000    0.7962100000000000    0.9867100000000000 H
   0.8761700000000000    0.8213800000000000    0.5468350000000000 H
   0.9700200000000000    0.8409100000000000    0.5520500000000000 H
   0.8758800000000000    0.7358800000000000    0.6451800000000000 H
   0.0380100000000000    0.8390800000000000    0.6116600000000000 H
   0.9990900000000000    0.4436200000000000    0.4881500000000000 H
   0.0823200000000000    0.4252400000000000    0.4974000000000000 H
   0.1333000000000000    0.4485300000000000    0.4508600000000000 H
   0.0472100000000000    0.4554800000000000    0.4332650000000000 H
   0.1161200000000000    0.5911800000000000    0.4844350000000000 H
   0.0925700000000000    0.5709000000000000    0.5217600000000000 H
   0.8939200000000000    0.6779500000000001    0.4984400000000000 H
   0.0520000000000000    0.7039299999999999    0.5134100000000000 H
   0.1257600000000000    0.6784900000000000    0.4531550000000000 H
   0.2195300000000000    0.6589000000000000    0.4478500000000000 H
   0.1261600000000000    0.7642800000000000    0.3548900000000000 H
   0.2875000000000000    0.6605200000000000    0.3882050000000000 H
   0.2489700000000000    0.0560500000000000    0.5118750000000000 H
   0.3320400000000000    0.0747700000000000    0.5024900000000000 H
   0.3834000000000000    0.0520300000000000    0.5491549999999999 H
   0.2974100000000000    0.0445900000000000    0.5667750000000000 H
   0.3661900000000000    0.9092100000000000    0.5156600000000000 H
   0.3428700000000000    0.9294300000000000    0.4783050000000000 H
   0.1440000000000000    0.8218299999999999    0.5000000000000000 H
   0.3020300000000000    0.7962100000000000    0.4867100000000000 H
   0.3761800000000000    0.8213800000000000    0.5468350000000000 H
   0.4700300000000000    0.8409100000000000    0.5520500000000000 H
   0.3758900000000000    0.7358800000000000    0.6451800000000000 H
   0.5380000000000000    0.8390800000000000    0.6116600000000000 H
   0.4991000000000000    0.4436200000000000    0.4881500000000000 H
   0.5823100000000000    0.4252400000000000    0.4974000000000000 H
   0.6332900000000000    0.4485300000000000    0.4508600000000000 H
   0.5472000000000000    0.4554800000000000    0.4332650000000000 H
   0.6161100000000000    0.5911800000000000    0.4844350000000000 H
   0.5925600000000000    0.5709000000000000    0.5217500000000000 H
   0.3939300000000000    0.6779500000000001    0.4984400000000000 H
   0.5519900000000000    0.7039299999999999    0.5134100000000000 H
   0.6257400000000000    0.6784900000000000    0.4531550000000000 H
   0.7195200000000000    0.6589000000000000    0.4478500000000000 H
   0.6261500000000000    0.7642800000000000    0.3548900000000000 H
   0.7874900000000000    0.6605200000000000    0.3882050000000000 H
   0.7489500000000000    0.0560500000000000    0.5118750000000000 H
   0.8320200000000000    0.0747700000000000    0.5024900000000000 H
   0.8833900000000000    0.0520300000000000    0.5491549999999999 H
   0.7974000000000000    0.0445900000000000    0.5667500000000000 H
   0.8661799999999999    0.9092100000000000    0.5156600000000000 H
   0.8428600000000001    0.9294300000000000    0.4783000000000000 H
   0.6439900000000000    0.8218299999999999    0.5000000000000000 H
   0.8020200000000000    0.7962100000000000    0.4867100000000000 H
   0.8761700000000000    0.8213800000000000    0.2968350000000000 H
   0.9700100000000000    0.8409100000000000    0.3020500000000000 H
   0.8758800000000000    0.7358800000000000    0.3951800000000000 H
   0.0380100000000000    0.8390800000000000    0.3616500000000000 H
   0.9991000000000000    0.4436200000000000    0.2381950000000000 H
   0.0823200000000000    0.4252400000000000    0.2474450000000000 H
   0.1333000000000000    0.4485300000000000    0.2008600000000000 H
   0.0472100000000000    0.4554800000000000    0.1832650000000000 H
   0.1161300000000000    0.5911800000000000    0.2344350000000000 H
   0.0925600000000000    0.5708900000000000    0.2717600000000000 H
   0.8939200000000000    0.6779500000000001    0.2484400000000000 H
   0.0520000000000000    0.7039299999999999    0.2634000000000000 H
   0.1257600000000000    0.6784900000000000    0.2031550000000000 H
   0.2195400000000000    0.6589000000000000    0.1978850000000000 H
   0.1261600000000000    0.7642800000000000    0.1048900000000000 H
   0.2875100000000000    0.6605200000000000    0.1382050000000000 H
   0.2489600000000000    0.0560500000000000    0.2618750000000000 H
   0.3320300000000000    0.0747600000000000    0.2524900000000000 H
   0.3834000000000000    0.0520300000000000    0.2991500000000000 H
   0.2974100000000000    0.0445800000000000    0.3167700000000000 H
   0.3661900000000000    0.9092000000000000    0.2656600000000000 H
   0.3428700000000000    0.9294300000000000    0.2283050000000000 H
   0.1440000000000000    0.8218299999999999    0.2515800000000000 H
   0.3020300000000000    0.7962100000000000    0.2367100000000000 H
   0.3761800000000000    0.8213800000000000    0.2968350000000000 H
   0.4700300000000000    0.8409100000000000    0.3020500000000000 H
   0.3758900000000000    0.7358800000000000    0.3951800000000000 H
   0.5380000000000000    0.8390800000000000    0.3616600000000000 H
   0.4991100000000000    0.4436200000000000    0.2381950000000000 H
   0.5823100000000000    0.4252400000000000    0.2474450000000000 H
   0.6332900000000000    0.4485300000000000    0.2008600000000000 H
   0.5472000000000000    0.4554800000000000    0.1832650000000000 H
   0.6161100000000000    0.5911800000000000    0.2344000000000000 H
   0.5925500000000000    0.5708900000000000    0.2717600000000000 H
   0.3939300000000000    0.6779500000000001    0.2484400000000000 H
   0.5519900000000000    0.7039299999999999    0.2634000000000000 H
   0.6257500000000000    0.6784900000000000    0.2031550000000000 H
   0.7195200000000000    0.6589000000000000    0.1978850000000000 H
   0.6261500000000000    0.7642800000000000    0.1048900000000000 H
   0.7875000000000000    0.6605200000000000    0.1382050000000000 H
   0.7489500000000000    0.0560500000000000    0.2618750000000000 H
   0.8320200000000000    0.0747600000000000    0.2524900000000000 H
   0.8833800000000001    0.0520300000000000    0.2991550000000000 H
   0.7973900000000000    0.0445900000000000    0.3167700000000000 H
   0.8661799999999999    0.9092000000000000    0.2656600000000000 H
   0.8428600000000001    0.9294300000000000    0.2283050000000000 H
   0.6439900000000000    0.8218299999999999    0.2515800000000000 H
   0.8020200000000000    0.7962100000000000    0.2367100000000000 H
   0.1782300000000000    0.2029100000000000    0.2020500000000000 C
   0.1549000000000000    0.2445800000000000    0.1222700000000000 C
   0.2376300000000000    0.1899100000000000    0.1392700000000000 C
   0.1824100000000000    0.2127000000000000    0.1666666666666667 C
   0.1959400000000000    0.2580200000000000    0.2758000000000000 C
   0.3280400000000000    0.5315100000000000    0.2898550000000000 C
   0.3265400000000000    0.4406200000000000    0.2580750000000000 C
   0.1904800000000000    0.2820700000000000    0.2440400000000000 C
   0.2525500000000000    0.4037700000000000    0.2544050000000000 C
   0.9285200000000000    0.2969600000000000    0.2979300000000000 C
   0.9048000000000000    0.2554900000000000    0.3777650000000000 C
   0.9879100000000000    0.3098800000000000    0.3606650000000000 C
   0.9326100000000001    0.2872200000000000    0.3333333333333333 C
   0.0779500000000000    0.9687000000000000    0.2101750000000000 C
   0.0763900000000000    0.0596000000000000    0.2419500000000000 C
   0.9459700000000000    0.2418900000000000    0.2242100000000000 C
   0.9405100000000000    0.2177700000000000    0.2555000000000000 C
   0.0024300000000000    0.0961300000000000    0.2454950000000000 C
   0.6782200000000000    0.2029100000000000    0.2020500000000000 C
   0.6548900000000000    0.2445700000000000    0.1222700000000000 C
   0.7376200000000001    0.1899100000000000    0.1392700000000000 C
   0.6824000000000000    0.2127000000000000    0.1666666666666667 C
   0.6959300000000000    0.2580200000000000    0.2758000000000000 C
   0.8280300000000000    0.5315100000000000    0.2898550000000000 C
   0.8265300000000000    0.4406200000000000    0.2580750000000000 C
   0.6904700000000000    0.2820700000000000    0.2440400000000000 C
   0.7525300000000000    0.4037600000000000    0.2544050000000000 C