H12 C9 N4 O3
1.0
  18.6649949852268122    0.0000000000000000    0.0136821583798217
  -0.0325794021461510   16.5179556268652874  -10.4087778577249512
   0.0000000000000000    0.0000000000000000   38.9519999999999982
H C N O
12 9 4 3
direct
   0.4991100000000000    0.4436200000000000    0.7381949999999999 H
   0.3758900000000000    0.7358800000000000    0.8951800000000000 H
   0.4700300000000000    0.8409100000000000    0.8020499999999999 H
   0.3761800000000000    0.8213800000000000    0.7968350000000000 H
   0.5519900000000000    0.7039299999999999    0.7634000000000001 H
   0.5380000000000000    0.8390800000000000    0.8616600000000000 H
   0.5472000000000000    0.4554800000000000    0.6832650000000000 H
   0.6332900000000000    0.4485300000000000    0.7008600000000000 H
   0.3939300000000000    0.6779500000000001    0.7484400000000000 H
   0.5925500000000000    0.5708900000000000    0.7717600000000000 H
   0.6161100000000000    0.5911800000000000    0.7343999999999999 H
   0.5823100000000000    0.4252400000000000    0.7474450000000000 H
   0.4048100000000000    0.7554800000000000    0.8777650000000000 C
   0.4285300000000000    0.7969500000000000    0.7979300000000000 C
   0.4879200000000000    0.8098700000000000    0.8606650000000000 C
   0.4326200000000000    0.7872100000000000    0.8333333333333333 C
   0.5779400000000000    0.4687100000000000    0.7101750000000000 C
   0.4459800000000000    0.7418800000000000    0.7242100000000000 C
   0.4405200000000000    0.7177600000000000    0.7559450000000000 C
   0.5763700000000000    0.5595900000000000    0.7419500000000000 C
   0.5024100000000000    0.5961300000000000    0.7454950000000000 C
   0.5033300000000001    0.6738000000000000    0.7555000000000001 N
   0.4703400000000000    0.7896700000000000    0.8887450000000000 N
   0.5478600000000000    0.4188600000000000    0.7251950000000000 N
   0.3796800000000000    0.7523000000000000    0.8443800000000000 N
   0.5104100000000000    0.7500900000000000    0.7147800000000000 O
   0.3898000000000000    0.7556700000000000    0.7114549999999999 O
   0.4467300000000000    0.5546700000000000    0.7384300000000000 O
