H4 O2
1.0
  12.9099999292130043    0.0000000000000000    0.0013519320361240
  -0.0398039049556458   36.1999781111807835   -0.0006318091891940
   0.0000000000000000    0.0000000000000000   26.5229999999999997
H O
4 2
direct
   0.2972673640166836    0.7341323349183250    0.1155149281476582 H
   0.2025831771269946    0.7658425012602558    0.1154938322430324 H
   0.2027291276743634    0.7658445453866277    0.8844160801912025 H
   0.2973474972965167    0.7341297586784705    0.8844068386821191 H
   0.2498700000000000    0.7499750000000001    0.1345000000000000 O
   0.2499900000000000    0.7499700000000000    0.8653999999999999 O
