C6 O1 F4
1.0
  12.9099999292130043    0.0000000000000000    0.0013519320361240
  -0.0398039049556458   36.1999781111807835   -0.0006318091891940
   0.0000000000000000    0.0000000000000000   26.5229999999999997
C O F
6 1 4
direct
   0.6251400000000000    0.4355600000000000    0.2500000000000000 C
   0.6228900000000001    0.3764800000000000    0.2051800000000000 C
   0.6203800000000000    0.4148000000000000    0.2051300000000000 C
   0.6264800000000000    0.3764750000000000    0.2948200000000000 C
   0.6292600000000000    0.4147950000000000    0.2948600000000000 C
   0.6247600000000000    0.3557900000000000    0.2000000000000000 C
   0.6255900000000000    0.4724950000000000    0.2500200000000000 O
   0.6177400000000000    0.3593750000000000    0.1599200000000000 F
   0.6133900000000000    0.4328550000000000    0.1604900000000000 F
   0.6311500000000000    0.3593800000000000    0.3400900000000000 F
   0.6355600000000000    0.4328550000000000    0.3395200000000000 F
