H3 O2
1.0
  12.9099999292130043    0.0000000000000000    0.0013519320361240
  -0.0398039049556458   36.1999781111807835   -0.0006318091891940
   0.0000000000000000    0.0000000000000000   26.5229999999999997
H O
3 2
direct
   0.6957233051970753    0.3149029286664732    0.8124548413114013 H
   0.5538697652605329    0.3149216039594314    0.6875842466608454 H
   0.6245760212189754    0.3228858314701503    0.7499394757055818 H
   0.6673600000000000    0.2983200000000000    0.7872500000000000 O
   0.5826700000000000    0.2983850000000000    0.7127000000000000 O
