H12 O6
1.0
  13.3510220293907622    0.0000000000000000    7.6973457614116931
   4.4436099572262462   12.5952583233731925    7.7065036375478408
   0.0000000000000000    0.0000000000000000   30.8219999999999992
H O
12 6
direct
   0.3244372329176324    0.1232244822634855    0.2147222199706138 H
   0.3755241863597000    0.1266026215843811    0.1858886697850230 H
   0.4084921595004288    0.1449432645808345    0.1508445211820273 H
   0.3943937119032764    0.1581997503964957    0.1447047701879296 H
   0.4829500318833341    0.0708333165139808    0.1877052993932520 H
   0.3754174512844579    0.0709333360528405    0.2414987672359333 H
   0.6755927670823676    0.8767755177365145    0.2852827800293861 H
   0.6244981778967639    0.8733976148186480    0.3141125430801789 H
   0.5915360565815191    0.8550556055621202    0.3491645564183447 H
   0.6056349252977573    0.8418016110620564    0.3552987893374808 H
   0.6246088792004697    0.9290692616136993    0.2585090334358316 H
   0.5170743688576096    0.9291640833823313    0.3123015379073795 H
   0.3145100000000000    0.1140500000000000    0.2288750000000000 O
   0.3517000000000000    0.1484200000000000    0.1758550000000000 O
   0.4577000000000000    0.1139400000000000    0.1572450000000000 O
   0.6855200000000000    0.8859500000000000    0.2711300000000000 O
   0.6483300000000000    0.8515800000000000    0.3241500000000000 O
   0.5423300000000000    0.8860600000000000    0.3427600000000000 O
