H2 C7 N6
1.0
  13.3510220293907622    0.0000000000000000    7.6973457614116931
   4.4436099572262462   12.5952583233731925    7.7065036375478408
   0.0000000000000000    0.0000000000000000   30.8219999999999992
H C N
2 7 6
direct
   0.3327300000000000    0.0001200000000000    0.3337000000000000 H
   0.6672900000000000    0.9998700000000000    0.1663100000000000 H
   0.4000300000000000    0.0535100000000000    0.2466000000000000 C
   0.4931500000000000    0.0534200000000000    0.2000100000000000 C
   0.6000000000000000    0.9464900000000001    0.2534100000000000 C
   0.5068700000000000    0.9465800000000000    0.2999950000000000 C
   0.5966100000000000    0.0000400000000000    0.1500000000000000 C
   0.4034300000000000    0.0000700000000000    0.2983250000000000 C
   0.5965900000000000    0.9999300000000000    0.2016850000000000 C
   0.3145100000000000    0.1140500000000000    0.2288750000000000 N
   0.4577000000000000    0.1139400000000000    0.1572450000000000 N
   0.6855200000000000    0.8859500000000000    0.2711300000000000 N
   0.5423300000000000    0.8860600000000000    0.3427600000000000 N
   0.3517000000000000    0.1484200000000000    0.1758550000000000 N
   0.6483300000000000    0.8515800000000000    0.3241500000000000 N
