Zn20 H20 C65 N66 Cl16
1.0
  13.3510220293907622    0.0000000000000000    7.6973457614116931
   4.4436099572262462   12.5952583233731925    7.7065036375478408
   0.0000000000000000    0.0000000000000000   30.8219999999999992
Zn H C N Cl
20 20 65 66 16
direct
   0.1541400000000000    0.1541900000000000    0.0770200000000000 Zn
   0.5375500000000000    0.1542800000000000    0.0770550000000000 Zn
   0.1542800000000000    0.5373900000000000    0.0771100000000000 Zn
   0.8458800000000000    0.8457500000000000    0.2312000000000000 Zn
   0.8458800000000000    0.8458100000000000    0.4229850000000000 Zn
   0.8457500000000000    0.4626100000000000    0.4229000000000000 Zn
   0.4624800000000000    0.8457200000000000    0.4229550000000000 Zn
   0.2500300000000000    0.2499900000000000    0.1250100000000000 Zn
   0.7500000000000000    0.7500100000000000    0.3750000000000000 Zn
   0.1541500000000000    0.1542500000000000    0.2688100000000000 Zn
   0.1541400000000000    0.1541900000000000    0.5770200000000000 Zn
   0.5375500000000000    0.1542800000000000    0.5770550000000000 Zn
   0.1542800000000000    0.5373900000000000    0.5771100000000000 Zn
   0.8458800000000000    0.8457500000000000    0.7312000000000000 Zn
   0.8458800000000000    0.8458100000000000    0.9229849999999999 Zn
   0.8457500000000000    0.4626100000000000    0.9229000000000001 Zn
   0.4624800000000000    0.8457200000000000    0.9229550000000000 Zn
   0.2500300000000000    0.2499900000000000    0.6250100000000001 Zn
   0.7500000000000000    0.7500100000000000    0.8750000000000000 Zn
   0.1541500000000000    0.1542500000000000    0.7688100000000000 Zn
   0.9998700000000000    0.3328200000000000    0.3337450000000000 H
   0.3326900000000000    0.9999200000000000    0.4999400000000000 H
   0.0001400000000000    0.6671800000000000    0.1662600000000000 H
   0.0000200000000000    0.6671400000000000    0.0001700000000000 H
   0.9999800000000000    0.3328700000000000    0.4998250000000000 H
   0.0001400000000000    0.9998000000000000    0.1663100000000000 H
   0.3326600000000000    0.6671600000000000    0.0001250000000000 H
   0.6673600000000000    0.3328500000000000    0.4998700000000000 H
   0.9998700000000000    0.0002000000000000    0.3337000000000000 H
   0.9998700000000000    0.3328200000000000    0.8337450000000000 H
   0.3326900000000000    0.9999200000000000    0.9999400000000001 H
   0.0001400000000000    0.6671800000000000    0.6662600000000000 H
   0.0000200000000000    0.6671400000000000    0.5001700000000000 H
   0.3327300000000000    0.0001200000000000    0.8337000000000000 H
   0.6672900000000000    0.9998700000000000    0.6663100000000000 H
   0.9999800000000000    0.3328700000000000    0.9998250000000000 H
   0.0001400000000000    0.9998000000000000    0.6663100000000000 H
   0.3326600000000000    0.6671600000000000    0.5001250000000000 H
   0.6673600000000000    0.3328500000000000    0.9998700000000000 H
   0.9998700000000000    0.0002000000000000    0.8337000000000000 H
   0.0534100000000000    0.4000300000000000    0.2466350000000000 C
   0.4000300000000000    0.0533800000000000    0.0266700000000000 C
   0.4931900000000000    0.0534200000000000    0.0266950000000000 C
   0.0534700000000000    0.4931200000000000    0.2000300000000000 C
   0.0534200000000000    0.4930800000000000    0.0267400000000000 C
   0.0534100000000000    0.4000200000000000    0.0266650000000000 C
   0.0534500000000000    0.0533500000000000    0.2000050000000000 C
   0.4000700000000000    0.4931000000000000    0.0267550000000000 C
   0.4932000000000000    0.4000400000000000    0.0266900000000000 C
   0.0533800000000000    0.0534500000000000    0.2465950000000000 C
   0.9466100000000000    0.5999800000000000    0.4733400000000000 C
   0.9466100000000000    0.5069200000000000    0.4732700000000000 C
   0.5068400000000000    0.9465800000000000    0.4733150000000000 C
   0.9466100000000000    0.5999700000000000    0.2533700000000000 C
   0.9465500000000000    0.5068800000000000    0.2999750000000000 C
   0.6000000000000000    0.9466200000000000    0.4733000000000000 C
   0.9465700000000000    0.9466500000000000    0.3000050000000000 C
   0.5068200000000000    0.5999600000000000    0.4733000000000000 C
   0.5999600000000000    0.5069000000000000    0.4732550000000000 C
   0.9466500000000000    0.9465500000000000    0.2534100000000000 C
   0.9999300000000000    0.4034700000000000    0.2983450000000000 C
   0.4034000000000000    0.9999600000000000    0.4999650000000000 C
   0.0000700000000000    0.5965300000000000    0.2016600000000000 C
   0.9999800000000000    0.5965100000000000    0.0001000000000000 C
   0.0000200000000000    0.4035000000000000    0.4998950000000000 C
   0.0000900000000000    0.9998700000000000    0.2016850000000000 C
   0.4034000000000000    0.5965200000000001    0.0000700000000000 C
   0.5966200000000000    0.4034900000000000    0.4999250000000000 C
   0.9999100000000000    0.0001200000000000    0.2983250000000000 C
   0.0534100000000000    0.4000300000000000    0.7466349999999999 C
   0.4000300000000000    0.0533800000000000    0.5266700000000000 C
   0.4931900000000000    0.0534200000000000    0.5266950000000000 C
   0.0534700000000000    0.4931200000000000    0.7000300000000000 C
   0.0534200000000000    0.4930800000000000    0.5267400000000000 C
   0.4000300000000000    0.0535100000000000    0.7466000000000000 C
   0.4931500000000000    0.0534200000000000    0.7000100000000000 C
   0.0534100000000000    0.4000200000000000    0.5266650000000000 C
   0.0534500000000000    0.0533500000000000    0.7000050000000000 C
   0.4000700000000000    0.4931000000000000    0.5267550000000000 C
   0.4932000000000000    0.4000400000000000    0.5266900000000000 C
   0.0533800000000000    0.0534500000000000    0.7465950000000000 C
   0.6000000000000000    0.9464900000000001    0.7534100000000000 C
   0.9466100000000000    0.5999800000000000    0.9733400000000000 C
   0.9466100000000000    0.5069200000000000    0.9732700000000001 C
   0.5068700000000000    0.9465800000000000    0.7999950000000000 C
   0.5068400000000000    0.9465800000000000    0.9733149999999999 C
   0.9466100000000000    0.5999700000000000    0.7533700000000000 C
   0.9465500000000000    0.5068800000000000    0.7999750000000000 C
   0.6000000000000000    0.9466200000000000    0.9733000000000001 C
   0.9465700000000000    0.9466500000000000    0.8000050000000001 C
   0.5068200000000000    0.5999600000000000    0.9733000000000001 C
   0.5999600000000000    0.5069000000000000    0.9732550000000000 C
   0.9466500000000000    0.9465500000000000    0.7534100000000000 C
   0.9999300000000000    0.4034700000000000    0.7983450000000001 C
   0.4034000000000000    0.9999600000000000    0.9999650000000000 C
   0.5966100000000000    0.0000400000000000    0.6500000000000000 C
   0.0000700000000000    0.5965300000000000    0.7016600000000000 C
   0.9999800000000000    0.5965100000000000    0.5001000000000000 C
   0.4034300000000000    0.0000700000000000    0.7983250000000000 C
   0.5965900000000000    0.9999300000000000    0.7016850000000000 C
   0.0000200000000000    0.4035000000000000    0.9998950000000000 C
   0.0000900000000000    0.9998700000000000    0.7016850000000000 C
   0.4034000000000000    0.5965200000000001    0.5000700000000000 C
   0.5966200000000000    0.4034900000000000    0.9999250000000000 C
   0.9999100000000000    0.0001200000000000    0.7983250000000000 C
   0.1138800000000000    0.3145400000000000    0.2289400000000000 N
   0.3145300000000000    0.1138600000000000    0.0568800000000000 N
   0.4577700000000000    0.1139100000000000    0.0569100000000000 N
   0.1139700000000000    0.4576700000000000    0.1572500000000000 N
   0.1139200000000000    0.4575900000000000    0.0570000000000000 N
   0.1139200000000000    0.3145000000000000    0.0568500000000000 N
   0.1139600000000000    0.1138100000000000    0.1572400000000000 N
   0.3145700000000000    0.4576200000000000    0.0570250000000000 N
   0.4577600000000000    0.3145300000000000    0.0569350000000000 N
   0.1138500000000000    0.1139600000000000    0.2288750000000000 N
   0.8861100000000000    0.6855000000000000    0.4431200000000000 N
   0.8861100000000000    0.5424099999999999    0.4430050000000000 N
   0.5422600000000000    0.8860900000000000    0.4430950000000000 N
   0.8861400000000000    0.6854600000000000    0.2710650000000000 N
   0.8860600000000000    0.5423300000000000    0.3427200000000000 N
   0.6854900000000000    0.8861400000000000    0.4431300000000000 N
   0.8860600000000000    0.8861900000000000    0.3427700000000000 N
   0.5422600000000000    0.6854700000000000    0.4430500000000000 N
   0.6854600000000000    0.5423800000000000    0.4429800000000000 N
   0.8861800000000000    0.8860400000000000    0.2711300000000000 N
   0.1483500000000000    0.3517200000000000    0.1759200000000000 N
   0.3517600000000000    0.1482700000000000    0.0740950000000000 N
   0.1483200000000000    0.3516400000000000    0.0741500000000000 N
   0.1483100000000000    0.1483000000000000    0.1758550000000000 N
   0.3517600000000000    0.3516600000000000    0.0741500000000000 N
   0.8517000000000000    0.6483600000000000    0.4258550000000000 N
   0.6482599999999999    0.8517300000000000    0.4259150000000000 N
   0.8516700000000000    0.6482800000000000    0.3240900000000000 N
   0.8517200000000000    0.8517000000000000    0.3241500000000000 N
   0.6482700000000000    0.6483400000000000    0.4258200000000000 N
   0.1138800000000000    0.3145400000000000    0.7289400000000000 N
   0.3145300000000000    0.1138600000000000    0.5568800000000000 N
   0.4577700000000000    0.1139100000000000    0.5569100000000000 N
   0.1139700000000000    0.4576700000000000    0.6572500000000000 N
   0.1139200000000000    0.4575900000000000    0.5570000000000001 N
   0.3145100000000000    0.1140500000000000    0.7288749999999999 N
   0.4577000000000000    0.1139400000000000    0.6572450000000000 N
   0.1139200000000000    0.3145000000000000    0.5568500000000000 N
   0.1139600000000000    0.1138100000000000    0.6572400000000000 N
   0.3145700000000000    0.4576200000000000    0.5570250000000000 N
   0.4577600000000000    0.3145300000000000    0.5569350000000000 N
   0.1138500000000000    0.1139600000000000    0.7288749999999999 N
   0.6855200000000000    0.8859500000000000    0.7711300000000000 N
   0.8861100000000000    0.6855000000000000    0.9431200000000000 N
   0.8861100000000000    0.5424099999999999    0.9430050000000000 N
   0.5423300000000000    0.8860600000000000    0.8427600000000000 N
   0.5422600000000000    0.8860900000000000    0.9430950000000000 N
   0.8861400000000000    0.6854600000000000    0.7710650000000000 N
   0.8860600000000000    0.5423300000000000    0.8427200000000000 N
   0.6854900000000000    0.8861400000000000    0.9431300000000000 N
   0.8860600000000000    0.8861900000000000    0.8427700000000000 N
   0.5422600000000000    0.6854700000000000    0.9430499999999999 N
   0.6854600000000000    0.5423800000000000    0.9429799999999999 N
   0.8861800000000000    0.8860400000000000    0.7711300000000000 N
   0.1483500000000000    0.3517200000000000    0.6759200000000000 N
   0.3517600000000000    0.1482700000000000    0.5740950000000000 N
   0.1483200000000000    0.3516400000000000    0.5741499999999999 N
   0.3517000000000000    0.1484200000000000    0.6758550000000000 N
   0.1483100000000000    0.1483000000000000    0.6758550000000000 N
   0.3517600000000000    0.3516600000000000    0.5741499999999999 N
   0.6483300000000000    0.8515800000000000    0.8241499999999999 N
   0.8517000000000000    0.6483600000000000    0.9258550000000000 N
   0.6482599999999999    0.8517300000000000    0.9259150000000000 N
   0.8516700000000000    0.6482800000000000    0.8240900000000000 N
   0.8517200000000000    0.8517000000000000    0.8241499999999999 N
   0.6482700000000000    0.6483400000000000    0.9258200000000000 N
   0.0972000000000000    0.0971200000000000    0.3542500000000000 Cl
   0.0968100000000000    0.0975500000000000    0.0485000000000000 Cl
   0.7084300000000000    0.0976100000000000    0.0485250000000000 Cl
   0.0975200000000000    0.7082000000000001    0.0484150000000000 Cl
   0.9028200000000000    0.9028800000000000    0.1457300000000000 Cl
   0.9032200000000000    0.9024500000000000    0.4514900000000000 Cl
   0.9025000000000000    0.2918000000000000    0.4515900000000000 Cl
   0.2916000000000000    0.9023900000000000    0.4514850000000000 Cl
   0.0972000000000000    0.0971200000000000    0.8542500000000000 Cl
   0.0968100000000000    0.0975500000000000    0.5485000000000000 Cl
   0.7084300000000000    0.0976100000000000    0.5485250000000000 Cl
   0.0975200000000000    0.7082000000000001    0.5484150000000000 Cl
   0.9028200000000000    0.9028800000000000    0.6457300000000000 Cl
   0.9032200000000000    0.9024500000000000    0.9514899999999999 Cl
   0.9025000000000000    0.2918000000000000    0.9515899999999999 Cl
   0.2916000000000000    0.9023900000000000    0.9514850000000000 Cl
