H6 O4
1.0
  31.5427918963936946    0.0000000000000000   -3.0405592217222503
  -7.1758459789832125   32.9536879825606945   -5.0030698410021435
   0.0000000000000000    0.0000000000000000   16.8159999999999989
H O
6 4
direct
   0.4854614458961904    0.6068310715923263    0.8710733955835293 H
   0.3638080939977413    0.5416653890095869    0.9119901340518951 H
   0.4185011787906601    0.5778298989193091    0.8805794058774712 H
   0.4639411399862360    0.6074954821104650    0.5523717035539173 H
   0.4686246909464834    0.6151897611789192    0.5545525285482117 H
   0.3889904563157158    0.5850382501436183    0.5854331615079423 H
   0.4701633333333333    0.5865899999999999    0.8990500000000000 O
   0.3951900000000000    0.5469866666666666    0.9232100000000000 O
   0.4394933333333333    0.6094200000000000    0.5694000000000000 O
   0.3614866666666666    0.5872033333333333    0.6045900000000000 O
