P2 H4 C2 O6
1.0
  31.5427918963936946    0.0000000000000000   -3.0405592217222503
  -7.1758459789832125   32.9536879825606945   -5.0030698410021435
   0.0000000000000000    0.0000000000000000   16.8159999999999989
P H C O
2 4 2 6
direct
   0.4093233333333333    0.5818333333333333    0.6170800000000000 P
   0.4203500000000000    0.5822433333333333    0.8849600000000000 P
   0.4625166666666666    0.5983333333333334    0.7326600000000000 H
   0.4230766666666667    0.6284766666666666    0.7408800000000000 H
   0.3685333333333333    0.5671066666666666    0.7680900000000001 H
   0.4084500000000000    0.5377099999999999    0.7592600000000000 H
   0.4274200000000000    0.5972100000000000    0.7245600000000000 C
   0.4037266666666667    0.5687866666666667    0.7766000000000000 C
   0.4394933333333333    0.6094200000000000    0.5694000000000000 O
   0.4125533333333333    0.5372433333333333    0.5944800000000000 O
   0.3614866666666666    0.5872033333333333    0.6045900000000000 O
   0.3951900000000000    0.5469866666666666    0.9232100000000000 O
   0.4067400000000000    0.6225000000000001    0.9137800000000000 O
   0.4701633333333333    0.5865899999999999    0.8990500000000000 O
