H14 C18 N6
1.0
  21.0879639553279006    0.0000000000000000   -5.8149291671344727
  -0.0067970773843596   13.4629918537073205   -0.0131585238279604
   0.0000000000000000    0.0000000000000000   30.2600000000000016
H C N
14 18 6
direct
   0.2614450000000000    0.8390400000000000    0.3262050000000000 H
   0.1190750000000000    0.0572800000000000    0.2886100000000000 H
   0.2168800000000000    0.1327000000000000    0.3589150000000000 H
   0.3173900000000000    0.8445100000000000    0.4090700000000000 H
   0.4206800000000000    0.8628300000000000    0.4685450000000000 H
   0.4282350000000000    0.1708500000000000    0.4325500000000000 H
   0.3273500000000000    0.1518500000000000    0.3714050000000000 H
   0.7394050000000000    0.1609200000000000    0.6736750000000000 H
   0.8811599999999999    0.9417300000000000    0.7112849999999999 H
   0.7829900000000001    0.8665700000000000    0.6412150000000000 H
   0.6830350000000001    0.1551500000000000    0.5907950000000000 H
   0.5797350000000000    0.1370300000000000    0.5313650000000000 H
   0.5716850000000000    0.8292700000000000    0.5676200000000000 H
   0.6725900000000000    0.8481000000000000    0.6287199999999999 H
   0.2361600000000000    0.9086100000000000    0.3247900000000000 C
   0.1638900000000000    0.0238600000000000    0.3064150000000000 C
   0.2115200000000000    0.0623100000000000    0.3410400000000000 C
   0.3163250000000000    0.9973600000000000    0.3868150000000000 C
   0.3425450000000000    0.9152000000000000    0.4137550000000000 C
   0.3996850000000000    0.9253500000000000    0.4470600000000000 C
   0.4308050000000000    0.0180200000000000    0.4542250000000000 C
   0.4038950000000000    0.0994600000000000    0.4270050000000000 C
   0.3471300000000000    0.0892700000000000    0.3932250000000000 C
   0.7644750000000000    0.0911400000000000    0.6751199999999999 C
   0.8364199999999999    0.9754200000000000    0.6935150000000000 C
   0.7885949999999999    0.9370900000000000    0.6589900000000000 C
   0.6839100000000000    0.0024600000000000    0.6132100000000000 C
   0.6577750000000000    0.0845600000000000    0.5861900000000000 C
   0.6006050000000001    0.0745100000000000    0.5528950000000000 C
   0.5692950000000000    0.9819800000000000    0.5457900000000000 C
   0.5961250000000000    0.9005800000000000    0.5730900000000000 C
   0.6529150000000000    0.9106700000000000    0.6068650000000000 C
   0.1799850000000000    0.9285700000000000    0.2962300000000000 N
   0.2574800000000000    0.9884900000000000    0.3527550000000000 N
   0.4883300000000000    0.0375100000000000    0.4875900000000000 N
   0.8206599999999999    0.0709600000000000    0.7036350000000000 N
   0.7428300000000000    0.0112000000000000    0.6472450000000000 N
   0.5117150000000000    0.9625100000000000    0.5124400000000000 N
