H2 O2
1.0
  21.0879639553279006    0.0000000000000000   -5.8149291671344727
  -0.0067970773843596   13.4629918537073205   -0.0131585238279604
   0.0000000000000000    0.0000000000000000   30.2600000000000016
H O
2 2
direct
   0.2213605791447173    0.9138685036096386    0.3172658084623610 H
   0.7792838726834546    0.0858210883553953    0.6826357961122845 H
   0.1799850000000000    0.9285700000000000    0.2962300000000000 O
   0.8206599999999999    0.0709600000000000    0.7036350000000000 O
