Cd4 H12 C18 S2 N3 O14
1.0
   9.3202074577808016    0.0000000000000000    4.0017723503376796
   4.6452164197209331   11.7786647855139304    1.9836522589529451
   0.0000000000000000    0.0000000000000000   12.8260000000000005
Cd H C S N O
4 12 18 2 3 14
direct
   0.8869500000000000    0.5489200000000000    0.6775800000000000 Cd
   0.5638300000000001    0.3225700000000000    0.5490400000000000 Cd
   0.4361200000000000    0.6774100000000000    0.4509700000000000 Cd
   0.1130000000000000    0.4510600000000000    0.3224300000000000 Cd
   0.3847000000000000    0.2583000000000000    0.3818400000000000 H
   0.4788900000000000    0.0497000000000000    0.4177400000000000 H
   0.0267900000000000    0.7419200000000000    0.6150300000000000 H
   0.9475100000000000    0.9506300000000000    0.5798800000000000 H
   0.6424299999999999    0.3832500000000000    0.7419900000000000 H
   0.5283600000000001    0.4185200000000000    0.9506900000000000 H
   0.6152400000000000    0.7416800000000000    0.6181800000000000 H
   0.5210600000000000    0.9502800000000000    0.5822700000000000 H
   0.9731500000000000    0.2580600000000000    0.3850000000000000 H
   0.0524400000000000    0.0493500000000000    0.4201300000000000 H
   0.2319400000000000    0.3841100000000000    0.7418700000000000 H
   0.1024800000000000    0.4197600000000000    0.9503500000000000 H
   0.3157000000000000    0.2086300000000000    0.3891200000000000 C
   0.3672100000000000    0.0925600000000000    0.4095800000000000 C
   0.9146800000000000    0.7914800000000000    0.6091900000000000 C
   0.8702400000000000    0.9075900000000000    0.5889700000000000 C
   0.5241000000000000    0.3899900000000000    0.7915600000000000 C
   0.4597100000000000    0.4102400000000000    0.9076400000000000 C
   0.6842600000000000    0.7913500000000000    0.6108900000000000 C
   0.6327300000000000    0.9074200000000000    0.5904400000000000 C
   0.0852800000000000    0.2085100000000000    0.3908200000000000 C
   0.1297100000000000    0.0923900000000000    0.4110500000000000 C
   0.2942600000000000    0.3905000000000000    0.7914700000000000 C
   0.2225900000000000    0.4108800000000000    0.9075299999999999 C
   0.2736400000000000    0.0325000000000000    0.4199700000000000 C
   0.3273500000000000    0.9061000000000000    0.4389900000000000 C
   0.7262999999999999    0.9674800000000000    0.5800500000000000 C
   0.6726000000000000    0.0938800000000000    0.5610200000000000 C
   0.3064100000000000    0.4202500000000000    0.9675400000000000 C
   0.2339100000000000    0.4393000000000000    0.0938700000000000 C
   0.7500300000000000    0.4999300000000000    0.5000300000000000 S
   0.2499300000000000    0.5000400000000000    0.4999800000000000 S
   0.1772600000000000    0.2659300000000000    0.3789600000000000 N
   0.8227000000000000    0.7340400000000000    0.6210400000000000 N
   0.4432600000000000    0.3792700000000000    0.7341500000000000 N
   0.4593900000000000    0.8551000000000000    0.4467900000000000 O
   0.8552200000000000    0.5510699999999999    0.4088700000000000 O
   0.7600400000000000    0.1455300000000000    0.5552400000000000 O
   0.8149900000000000    0.4487700000000000    0.5912700000000000 O
   0.3160400000000000    0.4442000000000000    0.1454800000000000 O
   0.4060400000000000    0.4087300000000000    0.4488500000000000 O
   0.2639900000000000    0.5913400000000000    0.5512100000000000 O
   0.5405400000000000    0.1448800000000000    0.5532400000000000 O
   0.1447400000000000    0.4489000000000000    0.5911300000000000 O
   0.2399100000000000    0.8544500000000000    0.4447700000000000 O
   0.1849700000000000    0.5512000000000000    0.4087300000000000 O
   0.5939200000000000    0.5912500000000001    0.5511500000000000 O
   0.0936800000000000    0.4479700000000000    0.1448800000000000 O
   0.7359599999999999    0.4086400000000000    0.4488000000000000 O
