H8 C10 N2
1.0
  29.2739545169643236    0.0000000000000000   -0.0516036694825411
   0.0047797328171397   15.1104200959569219   -1.0375440606814748
   0.0000000000000000    0.0000000000000000   32.1640000000000015
H C N
8 10 2
direct
   0.4126650000000000    0.4570600000000000    0.1339850000000000 H
   0.4903200000000000    0.4040000000000000    0.1477350000000000 H
   0.4435100000000000    0.1391000000000000    0.1089600000000000 H
   0.3684900000000000    0.2034700000000000    0.0947000000000000 H
   0.6221150000000000    0.2778600000000000    0.1850200000000000 H
   0.5446900000000000    0.3396900000000000    0.1785250000000000 H
   0.5121150000000000    0.1115200000000000    0.0947850000000000 H
   0.5903500000000000    0.0587400000000000    0.1050750000000000 H
   0.4206550000000000    0.3868700000000000    0.1295550000000000 C
   0.4642250000000000    0.3562200000000000    0.1374000000000000 C
   0.4742200000000000    0.2658300000000000    0.1297950000000000 C
   0.4386850000000000    0.2100300000000000    0.1149750000000000 C
   0.3960600000000000    0.2452900000000000    0.1074550000000000 C
   0.5966750000000000    0.2437800000000000    0.1651700000000000 C
   0.5530550000000000    0.2774500000000000    0.1613400000000000 C
   0.5207750000000000    0.2309500000000000    0.1358450000000000 C
   0.5347450000000000    0.1506900000000000    0.1155400000000000 C
   0.5789750000000000    0.1205900000000000    0.1207900000000000 C
   0.3870600000000000    0.3325900000000000    0.1144050000000000 N
   0.6097000000000000    0.1661700000000000    0.1450450000000000 N
