H5 C10 N3 O4
1.0
  37.7147447269847547    0.0000000000000000    0.8795767040887195
   2.6013181250701307   38.5022217977186969    0.9215539330159020
   0.0000000000000000    0.0000000000000000   29.0279999999999987
H C N O
5 10 3 4
direct
   0.2558466666666667    0.4835800000000000    0.4412400000000000 H
   0.3562233333333333    0.4441833333333333    0.4795700000000000 H
   0.2759633333333333    0.5138533333333333    0.7450150000000000 H
   0.2375400000000000    0.4958366666666666    0.5220650000000000 H
   0.3425000000000000    0.4562933333333333    0.5625249999999999 H
   0.2744766666666666    0.4780966666666666    0.4690350000000000 C
   0.3305766666666666    0.4563500000000000    0.4904750000000000 C
   0.2826233333333333    0.4884266666666667    0.5972850000000000 C
   0.2931866666666667    0.5069433333333333    0.6655550000000000 C
   0.2608266666666667    0.4917533333333333    0.6673550000000000 C
   0.3130933333333333    0.5245366666666667    0.6999450000000000 C
   0.2355700000000000    0.4861633333333333    0.7062600000000000 C
   0.2644100000000000    0.4852333333333333    0.5143700000000000 C
   0.2893733333333333    0.4787700000000000    0.5491050000000000 C
   0.3227933333333333    0.4631000000000000    0.5364500000000000 C
   0.3071900000000000    0.4645766666666666    0.4567400000000000 N
   0.3068500000000000    0.5047199999999999    0.6214100000000000 N
   0.2540600000000000    0.4805033333333333    0.6240800000000000 N
   0.3006300000000000    0.5260500000000000    0.7422900000000000 O
   0.2084466666666667    0.4696800000000000    0.6974450000000000 O
   0.2424300000000000    0.4980266666666666    0.7453900000000000 O
   0.3411933333333333    0.5378033333333333    0.6873199999999999 O
