H4 C10 N3 O4
1.0
  37.7147447269847547    0.0000000000000000    0.8795767040887195
   2.6013181250701307   38.5022217977186969    0.9215539330159020
   0.0000000000000000    0.0000000000000000   29.0279999999999987
H C N O
4 10 3 4
direct
   0.1978433333333333    0.8530399999999999    0.3208700000000000 H
   0.2469733333333333    0.8071533333333333    0.3203750000000000 H
   0.1450933333333333    0.8036933333333333    0.4287100000000000 H
   0.1901800000000000    0.7540466666666666    0.4295950000000000 H
   0.3033966666666666    0.7220166666666666    0.3773650000000000 C
   0.1976133333333333    0.8313033333333333    0.3454300000000000 C
   0.2250366666666667    0.8054466666666666    0.3451550000000000 C
   0.2783266666666667    0.6974866666666666    0.3731800000000000 C
   0.2821566666666666    0.6666666666666666    0.3670750000000000 C
   0.1674433333333333    0.8030766666666667    0.4042800000000000 C
   0.1928500000000000    0.7753099999999999    0.4047300000000000 C
   0.2507733333333333    0.7486166666666666    0.3751900000000000 C
   0.2225933333333333    0.7765666666666666    0.3750050000000000 C
   0.3423233333333333    0.7180266666666666    0.3830600000000000 C
   0.2857800000000000    0.7541399999999999    0.3779350000000000 N
   0.2451933333333333    0.7145066666666666    0.3724800000000000 N
   0.1693900000000000    0.8305966666666666    0.3748900000000000 N
   0.2547199999999999    0.6439800000000000    0.3593700000000000 O
   0.3136433333333333    0.6442066666666666    0.3690100000000000 O
   0.3580366666666667    0.7456633333333333    0.3906450000000000 O
   0.3577700000000000    0.6877400000000000    0.3807950000000000 O
