Y8 P7 H58 C35 N7 O55
1.0
   8.9189493994647506    0.0000000000000000   -0.0300434649694337
  -0.0291085900901343   10.1034573897671400   -0.0037031260775704
   0.0000000000000000    0.0000000000000000   30.1020000000000003
Y P H C N O
8 7 58 35 7 55
direct
   0.8146099999999999    0.5599700000000000    0.3055900000000000 Y
   0.3154300000000000    0.4401000000000000    0.4458050000000000 Y
   0.6823000000000000    0.0594900000000000    0.6956300000000000 Y
   0.1804500000000000    0.9400200000000000    0.5548550000000000 Y
   0.6823000000000000    0.0594900000000000    0.1956300000000000 Y
   0.1804500000000000    0.9400200000000000    0.0548550000000000 Y
   0.8146099999999999    0.5599700000000000    0.8055900000000000 Y
   0.3154300000000000    0.4401000000000000    0.9458050000000000 Y
   0.4966200000000000    0.6354800000000000    0.3584000000000000 P
   0.4985200000000000    0.8647100000000000    0.6081700000000000 P
   0.0001400000000000    0.1351800000000000    0.6423950000000000 P
   0.4985200000000000    0.8647100000000000    0.1081700000000000 P
   0.0001400000000000    0.1351800000000000    0.1423950000000000 P
   0.9959400000000000    0.3647400000000000    0.8929450000000000 P
   0.4966200000000000    0.6354800000000000    0.8584000000000001 P
   0.9914224905708784    0.3910134883974029    0.3562566216708202 H
   0.3037300000000000    0.7700800000000000    0.3407050000000000 H
   0.2296655506294195    0.6763982509078199    0.3376645267366444 H
   0.6314600000000000    0.9298999999999999    0.3447550000000000 H
   0.8224100000000000    0.9529600000000000    0.3342000000000000 H
   0.6897500000000000    0.6492900000000000    0.4127950000000000 H
   0.6010000000000000    0.8063200000000000    0.4080200000000000 H
   0.9251400000000000    0.7006000000000000    0.4075050000000000 H
   0.9221500000000000    0.8747900000000000    0.3991450000000000 H
   0.1593505833481322    1.1136457564319802    0.4677836561891056 H
   0.2472770729243757    0.1981499817233851    0.4600906366976943 H
   0.5402114251218046    0.2609622195466532    0.4085467142432855 H
   0.3630043251072548    0.2283803902206436    0.3770584362910589 H
   0.1858684849810695    0.2655911245978527    0.3725305233327423 H
   0.1805656698018356    0.4464542280655049    0.4351859417888967 H
   0.3586735794365830    0.3562138089387666    0.4158452789435075 H
   0.6911100000000000    0.7301299999999999    0.5899050000000000 H
   0.3622600000000000    0.5688800000000001    0.5947300000000000 H
   0.1715700000000000    0.5483600000000000    0.5827950000000000 H
   0.3061300000000000    0.8504300000000000    0.6623749999999999 H
   0.3947900000000000    0.6934000000000000    0.6574650000000000 H
   0.0701900000000000    0.7999600000000000    0.6564250000000000 H
   0.0734100000000000    0.6256900000000000    0.6482050000000000 H
   0.1944300000000000    0.2694900000000000    0.6606100000000000 H
   0.8694000000000000    0.4283400000000000    0.6569199999999999 H
   0.6788000000000000    0.4536100000000000    0.6672500000000000 H
   0.8065200000000000    0.1500800000000000    0.5882800000000000 H
   0.8963500000000000    0.3070200000000000    0.5932400000000000 H
   0.5715800000000000    0.2016600000000000    0.5940000000000000 H
   0.5760800000000000    0.3756700000000000    0.6027500000000000 H
   0.6911100000000000    0.7301299999999999    0.0899050000000000 H
   0.3622600000000000    0.5688800000000001    0.0947300000000000 H
   0.1715700000000000    0.5483600000000000    0.0827950000000000 H
   0.3061300000000000    0.8504300000000000    0.1623750000000000 H
   0.3947900000000000    0.6934000000000000    0.1574650000000000 H
   0.0701900000000000    0.7999600000000000    0.1564250000000000 H
   0.0734100000000000    0.6256900000000000    0.1482050000000000 H
   0.1944300000000000    0.2694900000000000    0.1606100000000000 H
   0.8694000000000000    0.4283400000000000    0.1569200000000000 H
   0.6788000000000000    0.4536100000000000    0.1672500000000000 H
   0.8065200000000000    0.1500800000000000    0.0882800000000000 H
   0.8963500000000000    0.3070200000000000    0.0932400000000000 H
   0.5715800000000000    0.2016600000000000    0.0940000000000000 H
   0.5760800000000000    0.3756700000000000    0.1027500000000000 H
   0.8030300000000000    0.2300700000000000    0.9109050000000001 H
   0.1295500000000000    0.0704500000000000    0.9060100000000000 H
   0.3204100000000000    0.0476000000000000    0.9168250000000000 H
   0.1874800000000000    0.3517900000000000    0.8384499999999999 H
   0.0982600000000000    0.1944900000000000    0.8430750000000000 H
   0.4237300000000000    0.3005900000000000    0.8438749999999999 H
   0.4195000000000000    0.1262700000000000    0.8520300000000001 H
   0.3037300000000000    0.7700800000000000    0.8407050000000000 H
   0.6314600000000000    0.9298999999999999    0.8447549999999999 H
   0.8224100000000000    0.9529600000000000    0.8342000000000001 H
   0.6897500000000000    0.6492900000000000    0.9127950000000000 H
   0.6010000000000000    0.8063200000000000    0.9080200000000000 H
   0.9251400000000000    0.7006000000000000    0.9075050000000000 H
   0.9221500000000000    0.8747900000000000    0.8991450000000001 H
   0.0461200000000000    0.7583400000000000    0.3506650000000000 C
   0.7074100000000000    0.8533800000000000    0.2824250000000000 C
   0.7312100000000000    0.8797100000000000    0.3317850000000000 C
   0.6455900000000000    0.7219000000000000    0.3889550000000000 C
   0.9137800000000000    0.7784700000000000    0.3821350000000000 C
   0.9492699999999999    0.7414600000000000    0.5993900000000000 C
   0.2906500000000000    0.6472500000000000    0.5320250000000000 C
   0.2640700000000000    0.6204900000000000    0.5811600000000000 C
   0.3500200000000000    0.7780500000000000    0.6384850000000000 C
   0.0816900000000000    0.7218700000000000    0.6311450000000001 C
   0.4516600000000000    0.2586000000000000    0.6510600000000000 C
   0.7918300000000000    0.3525900000000000    0.7190850000000000 C
   0.7684000000000000    0.3793300000000000    0.6697550000000000 C
   0.8515000000000000    0.2223200000000000    0.6122050000000000 C
   0.5838900000000000    0.2790500000000000    0.6195349999999999 C
   0.9492699999999999    0.7414600000000000    0.0993900000000000 C
   0.2906500000000000    0.6472500000000000    0.0320250000000000 C
   0.2640700000000000    0.6204900000000000    0.0811600000000000 C
   0.3500200000000000    0.7780500000000000    0.1384850000000000 C
   0.0816900000000000    0.7218700000000000    0.1311450000000000 C
   0.4516600000000000    0.2586000000000000    0.1510600000000000 C
   0.7918300000000000    0.3525900000000000    0.2190850000000000 C
   0.7684000000000000    0.3793300000000000    0.1697550000000000 C
   0.8515000000000000    0.2223200000000000    0.1122050000000000 C
   0.5838900000000000    0.2790500000000000    0.1195350000000000 C
   0.5447600000000000    0.2418900000000000    0.9008400000000000 C
   0.2060200000000000    0.1465000000000000    0.9684850000000000 C
   0.2295800000000000    0.1207100000000000    0.9191700000000000 C
   0.1436900000000000    0.2788300000000000    0.8622200000000000 C
   0.4120100000000000    0.2224400000000000    0.8691300000000000 C
   0.0461200000000000    0.7583400000000000    0.8506650000000000 C
   0.7074100000000000    0.8533800000000000    0.7824249999999999 C
   0.7312100000000000    0.8797100000000000    0.8317850000000000 C
   0.6455900000000000    0.7219000000000000    0.8889549999999999 C
   0.9137800000000000    0.7784700000000000    0.8821350000000000 C
   0.7689400000000000    0.7607200000000000    0.3586400000000000 N
   0.2264700000000000    0.7395000000000000    0.6079450000000000 N
   0.7289600000000001    0.2607600000000000    0.6427849999999999 N
   0.2264700000000000    0.7395000000000000    0.1079450000000000 N
   0.7289600000000001    0.2607600000000000    0.1427850000000000 N
   0.2675600000000000    0.2399500000000000    0.8925000000000001 N
   0.7689400000000000    0.7607200000000000    0.8586400000000001 N
   0.8920200000000000    0.4288900000000000    0.3588400000000000 O
   0.4113100000000000    0.7394300000000000    0.3294600000000000 O
   0.1662300000000000    0.8186900000000000    0.3595000000000000 O
   0.0260300000000000    0.6774700000000000    0.3183150000000000 O
   0.7362600000000000    0.7411300000000000    0.2662750000000000 O
   0.6625900000000000    0.9519400000000000    0.2594350000000000 O
   0.3936700000000000    0.5711600000000000    0.3926500000000000 O
   0.5805300000000000    0.5385799999999999    0.3281350000000000 O
   0.1603600000000000    1.0474399999999999    0.4911100000000000 O
   0.2360400000000000    0.2583100000000000    0.4849700000000000 O
   0.5255900000000000    0.3222700000000000    0.4333200000000000 O
   0.2675600000000000    0.2399500000000000    0.3925000000000000 O
   0.0812600000000000    0.4619200000000000    0.4230550000000000 O
   0.5829400000000000    0.7610200000000000    0.5790500000000000 O
   0.8293600000000000    0.6811199999999999    0.6082250000000000 O
   0.9689400000000000    0.8217900000000000    0.5669150000000001 O
   0.2618400000000000    0.7593600000000000    0.5157400000000000 O
   0.3371900000000000    0.5488900000000000    0.5092950000000001 O
   0.6020700000000000    0.9284700000000000    0.6425950000000000 O
   0.4141400000000000    0.9622200000000000    0.5781100000000000 O
   0.0866200000000000    0.2380600000000000    0.6716850000000000 O
   0.3319400000000000    0.3190500000000000    0.6422600000000001 O
   0.4710600000000000    0.1774300000000000    0.6833050000000001 O
   0.7628000000000000    0.2401500000000000    0.7351300000000001 O
   0.8368600000000000    0.4511800000000000    0.7421650000000000 O
   0.1018500000000000    0.0714200000000000    0.6077850000000000 O
   0.9155000000000000    0.0376400000000000    0.6723749999999999 O
   0.5829400000000000    0.7610200000000000    0.0790500000000000 O
   0.8293600000000000    0.6811199999999999    0.1082250000000000 O
   0.9689400000000000    0.8217900000000000    0.0669150000000000 O
   0.2618400000000000    0.7593600000000000    0.0157400000000000 O
   0.3371900000000000    0.5488900000000000    0.0092950000000000 O
   0.6020700000000000    0.9284700000000000    0.1425950000000000 O
   0.4141400000000000    0.9622200000000000    0.0781100000000000 O
   0.0866200000000000    0.2380600000000000    0.1716850000000000 O
   0.3319400000000000    0.3190500000000000    0.1422600000000000 O
   0.4710600000000000    0.1774300000000000    0.1833050000000000 O
   0.7628000000000000    0.2401500000000000    0.2351300000000000 O
   0.8368600000000000    0.4511800000000000    0.2421650000000000 O
   0.1018500000000000    0.0714200000000000    0.1077850000000000 O
   0.9155000000000000    0.0376400000000000    0.1723750000000000 O
   0.9111100000000000    0.2607400000000000    0.9220349999999999 O
   0.6642800000000000    0.1814800000000000    0.8920950000000001 O
   0.5255900000000000    0.3222700000000000    0.9333199999999999 O
   0.2360400000000000    0.2583100000000000    0.9849700000000000 O
   0.1603600000000000    0.0474400000000000    0.9911099999999999 O
   0.8920200000000000    0.4288900000000000    0.8588400000000000 O
   0.0812600000000000    0.4619200000000000    0.9230550000000000 O
   0.4113100000000000    0.7394300000000000    0.8294600000000000 O
   0.1662300000000000    0.8186900000000000    0.8594999999999999 O
   0.0260300000000000    0.6774700000000000    0.8183150000000000 O
   0.7362600000000000    0.7411300000000000    0.7662750000000000 O
   0.6625900000000000    0.9519400000000000    0.7594350000000001 O
   0.3936700000000000    0.5711600000000000    0.8926499999999999 O
   0.5805300000000000    0.5385799999999999    0.8281350000000001 O
