P1 H7 C5 N1 O7
1.0
   8.9189493994647506    0.0000000000000000   -0.0300434649694337
  -0.0291085900901343   10.1034573897671400   -0.0037031260775704
   0.0000000000000000    0.0000000000000000   30.1020000000000003
P H C N O
1 7 5 1 7
direct
   0.9959400000000000    0.3647400000000000    0.3929450000000000 P
   0.1874800000000000    0.3517900000000000    0.3384500000000000 H
   0.0982600000000000    0.1944900000000000    0.3430750000000000 H
   0.1295500000000000    0.0704500000000000    0.4060100000000000 H
   0.3204100000000000    0.0476000000000000    0.4168250000000000 H
   0.4195000000000000    0.1262700000000000    0.3520300000000000 H
   0.4237300000000000    0.3005900000000000    0.3438750000000000 H
   0.8030300000000000    0.2300700000000000    0.4109050000000000 H
   0.1436900000000000    0.2788300000000000    0.3622200000000000 C
   0.2295800000000000    0.1207100000000000    0.4191700000000000 C
   0.2060200000000000    0.1465000000000000    0.4684850000000000 C
   0.4120100000000000    0.2224400000000000    0.3691300000000000 C
   0.5447600000000000    0.2418900000000000    0.4008400000000000 C
   0.2675600000000000    0.2399500000000000    0.3925000000000000 N
   0.2360400000000000    0.2583100000000000    0.4849700000000000 O
   0.1603600000000000    1.0474399999999999    0.4911100000000000 O
   0.6642800000000000    0.1814800000000000    0.3920950000000000 O
   0.5255900000000000    0.3222700000000000    0.4333200000000000 O
   0.9111100000000000    0.2607400000000000    0.4220350000000000 O
   0.8920200000000000    0.4288900000000000    0.3588400000000000 O
   0.0812600000000000    0.4619200000000000    0.4230550000000000 O
