H9 O6
1.0
   8.9189493994647506    0.0000000000000000   -0.0300434649694337
  -0.0291085900901343   10.1034573897671400   -0.0037031260775704
   0.0000000000000000    0.0000000000000000   30.1020000000000003
H O
9 6
direct
   0.9914224905708784    0.3910134883974029    0.3562566216708202 H
   0.1593505833481322    1.1136457564319802    0.4677836561891056 H
   0.2472770729243757    0.1981499817233851    0.4600906366976943 H
   0.1805656698018356    0.4464542280655049    0.4351859417888967 H
   0.5402114251218046    0.2609622195466532    0.4085467142432855 H
   0.3630043251072548    0.2283803902206436    0.3770584362910589 H
   0.1858684849810695    0.2655911245978527    0.3725305233327423 H
   0.3586735794365830    0.3562138089387666    0.4158452789435075 H
   0.2296655506294195    0.6763982509078199    0.3376645267366444 H
   0.8920200000000000    0.4288900000000000    0.3588400000000000 O
   0.1603600000000000    1.0474399999999999    0.4911100000000000 O
   0.2360400000000000    0.2583100000000000    0.4849700000000000 O
   0.0812600000000000    0.4619200000000000    0.4230550000000000 O
   0.5255900000000000    0.3222700000000000    0.4333200000000000 O
   0.2675600000000000    0.2399500000000000    0.3925000000000000 O
