H7 O5
1.0
  36.5006996014487726    0.0000000000000000   -4.5726058877622364
  -6.3089391717165846   21.8694979031553025  -11.2730806788324713
   0.0000000000000000    0.0000000000000000   26.9925999999999995
H O
7 5
direct
   0.4127939979531204    0.5593976453038636    0.4036738464626436 H
   0.4820922634160279    0.5787671240023018    0.4467425566414287 H
   0.4176031581763884    0.8748781163711998    0.4028999879490726 H
   0.4492282592357038    0.8754733535979440    0.4600923883507658 H
   0.4786268989970474    0.5947488358128833    0.1101713483521569 H
   0.3984108423696934    0.5609046122478571    0.0694631516072093 H
   0.4309039045925428    0.6722560008313390    0.1841377553388541 H
   0.4160400000000000    0.5214400000000000    0.4014000000000000 O
   0.4781750000000000    0.5369800000000000    0.4398150000000000 O
   0.3971000000000000    0.8833500000000001    0.3833500000000000 O
   0.4729625000000000    0.5585750000000000    0.0733250000000000 O
   0.4089900000000000    0.5323099999999999    0.0415900000000000 O
