H12 C12 N3 O8
1.0
  36.5006996014487726    0.0000000000000000   -4.5726058877622364
  -6.3089391717165846   21.8694979031553025  -11.2730806788324713
   0.0000000000000000    0.0000000000000000   26.9925999999999995
H C N O
12 12 3 8
direct
   0.4153225000000000    0.7751800000000000    0.3036750000000000 H
   0.3920975000000000    0.7476200000000000    0.3450700000000000 H
   0.4503600000000000    0.8059200000000000    0.4265350000000000 H
   0.4735025000000000    0.8345250000000000    0.3863450000000000 H
   0.4060525000000000    0.5802550000000000    0.3521100000000000 H
   0.4240475000000000    0.5278750000000000    0.2980350000000000 H
   0.4738375000000000    0.6294700000000000    0.4145550000000000 H
   0.4884700000000000    0.5697550000000000    0.3635300000000000 H
   0.4880675000000000    0.6630400000000000    0.1903250000000000 H
   0.4882250000000000    0.5908150000000000    0.1861900000000000 H
   0.4162025000000000    0.5551950000000000    0.1474800000000000 H
   0.4185200000000000    0.6236850000000000    0.1440500000000000 H
   0.4499750000000000    0.6969550000000000    0.2671200000000000 C
   0.4310725000000000    0.6727900000000000    0.3412650000000000 C
   0.4539675000000000    0.5992600000000000    0.2641700000000000 C
   0.4198100000000000    0.7630250000000001    0.3376250000000000 C
   0.4453350000000000    0.8178650000000001    0.3922950000000000 C
   0.4278600000000000    0.8706400000000001    0.4126800000000000 C
   0.4311825000000000    0.5735200000000000    0.3349300000000000 C
   0.4638775000000000    0.5814350000000000    0.3807350000000000 C
   0.4521475000000000    0.5433500000000000    0.4096050000000000 C
   0.4709300000000000    0.6222600000000000    0.1895100000000000 C
   0.4346625000000000    0.5906550000000000    0.1416050000000000 C
   0.4403300000000000    0.5588350000000000    0.0818150000000000 C
   0.4601975000000000    0.6421399999999999    0.2445700000000000 N
   0.4358075000000000    0.7103150000000000    0.3158450000000000 N
   0.4404075000000000    0.6176950000000000    0.3136700000000000 N
   0.4529200000000000    0.7304349999999999    0.2454250000000000 O
   0.4188150000000000    0.6869450000000000    0.3842350000000000 O
   0.4598800000000000    0.5491900000000000    0.2394900000000000 O
   0.3971000000000000    0.8833500000000001    0.3833500000000000 O
   0.4160400000000000    0.5214400000000000    0.4014000000000000 O
   0.4781750000000000    0.5369800000000000    0.4398150000000000 O
   0.4089900000000000    0.5323099999999999    0.0415900000000000 O
   0.4729625000000000    0.5585750000000000    0.0733250000000000 O
