H12 C12 N3 O9
1.0
  36.5006996014487726    0.0000000000000000   -4.5726058877622364
  -6.3089391717165846   21.8694979031553025  -11.2730806788324713
   0.0000000000000000    0.0000000000000000   26.9925999999999995
H C N O
12 12 3 9
direct
   0.8329675000000000    0.2237300000000000    0.1949650000000000 H
   0.8563250000000000    0.2513000000000000    0.1536850000000000 H
   0.7981100000000000    0.1931550000000000    0.0720950000000000 H
   0.7748699999999999    0.1644950000000000    0.1121750000000000 H
   0.8424325000000000    0.4184700000000000    0.1462300000000000 H
   0.8248425000000000    0.4712150000000000    0.2006400000000000 H
   0.7744175000000000    0.3699050000000000    0.0844500000000000 H
   0.7602425000000000    0.4300150000000000    0.1357700000000000 H
   0.7603900000000000    0.3361850000000000    0.3083300000000000 H
   0.7603400000000000    0.4084500000000000    0.3124900000000000 H
   0.8323525000000001    0.4438700000000000    0.3512200000000000 H
   0.8299275000000000    0.3753500000000000    0.3546450000000000 H
   0.7984725000000000    0.3021400000000000    0.2315550000000000 C
   0.8174275000000000    0.3262400000000000    0.1574050000000000 C
   0.7947225000000000    0.3999700000000000    0.2346100000000000 C
   0.8285700000000000    0.2359400000000000    0.1610400000000000 C
   0.8030675000000000    0.1811650000000000    0.1063150000000000 C
   0.8205425000000000    0.1283950000000000    0.0859700000000000 C
   0.8174525000000000    0.4255450000000000    0.1637200000000000 C
   0.7846550000000000    0.4179450000000000    0.1182300000000000 C
   0.7963750000000001    0.4558650000000000    0.0891950000000000 C
   0.7775850000000000    0.3769400000000000    0.3091700000000000 C
   0.8138400000000000    0.4084500000000000    0.3570850000000000 C
   0.8081675000000000    0.4403000000000000    0.4168650000000000 C
   0.7883325000000000    0.3570250000000000    0.2541250000000000 N
   0.8126325000000000    0.2887150000000000    0.1828200000000000 N
   0.8081925000000000    0.3814150000000000    0.1850350000000000 N
   0.7954750000000000    0.2686550000000000    0.2532550000000000 O
   0.8296600000000000    0.3120200000000000    0.1144100000000000 O
   0.7889875000000000    0.4501600000000000    0.2594000000000000 O
   0.8512525000000000    0.1314700000000000    0.1154050000000000 O
   0.8324800000000000    0.4775950000000000    0.0972300000000000 O
   0.7703375000000000    0.4623100000000000    0.0590600000000000 O
   0.8395075000000000    0.4668550000000000    0.4570900000000000 O
   0.7755275000000000    0.4405350000000000    0.4253450000000000 O
   0.8039550000000000    0.0801050000000000    0.0375500000000000 O
