H9 O6
1.0
  28.9664965411094784    0.0000000000000000    0.0141557017743694
   0.0096027659064468   14.8709968633257752    0.0010381916514145
   0.0000000000000000    0.0000000000000000   15.4149999999999991
H O
9 6
direct
   0.8836520316531907    0.9051894583111634    0.8294295997583085 H
   0.8545088029279417    0.8608562208078435    0.8386139006217376 H
   0.7985661922850499    0.0628906564081862    0.7372672219815011 H
   0.7855746591877805    0.0774868713313788    0.7819725575693834 H
   0.9486497374941431   -0.0391493768415822    0.7678053083404769 H
   0.8907655171808750    0.0383124331580725    0.7442019105462702 H
   0.8259646357484991    0.0851982501010891    0.6078506128742313 H
   0.8962160616441386    1.0514044858453375    0.5877984344180884 H
   0.8577106182271539    1.0080276073209868    0.6444926378441660 H
   0.8794833333333333    0.8631200000000000    0.7967300000000000 O
   0.7931633333333332    0.1095000000000000    0.7290300000000000 O
   0.9436733333333333   -0.0893699999999999    0.7287700000000000 O
   0.9130766666666666    0.0864200000000000    0.7334200000000000 O
   0.8187033333333333    0.1478400000000000    0.5967800000000000 O
   0.8766099999999999    0.9991900000000000    0.5925500000000000 O
