H3 C4 O6
1.0
  28.9664965411094784    0.0000000000000000    0.0141557017743694
   0.0096027659064468   14.8709968633257752    0.0010381916514145
   0.0000000000000000    0.0000000000000000   15.4149999999999991
H C O
3 4 6
direct
   0.9326933333333333    0.0939200000000000    0.7843100000000000 H
   0.8585633333333333    0.0305200000000000    0.8059700000000000 H
   0.8253100000000000    0.9552500000000000    0.6774100000000000 H
   0.9032866666666666    0.9234500000000000    0.7599700000000000 C
   0.8802366666666666    0.0156100000000000    0.7492900000000000 C
   0.8493866666666666    0.0119200000000000    0.6673700000000000 C
   0.8186399999999999    0.0969600000000000    0.6632400000000001 C
   0.9436733333333333   -0.0893699999999999    0.7287700000000000 O
   0.8794833333333333    0.8631200000000000    0.7967300000000000 O
   0.9130766666666666    0.0864200000000000    0.7334200000000000 O
   0.8766099999999999    0.9991900000000000    0.5925500000000000 O
   0.8187033333333333    0.1478400000000000    0.5967800000000000 O
   0.7931633333333332    0.1095000000000000    0.7290300000000000 O
