H12 O8
1.0
  26.5954512818283320    0.0000000000000000   -4.2061201975093025
   4.0426076696061060   26.1214778342726568   -0.9068753956548139
   0.0000000000000000    0.0000000000000000   26.4759999999999991
H O
12 8
direct
   0.8324900697324713    0.7720238608944188    0.8230568139036554 H
   0.7397575847314658    0.6941681972713136    0.7339393494486339 H
   0.7847890395002202    0.7373546825381864    0.7729125401890239 H
   0.9484431516804076    0.7341008056079528    0.4042137956994100 H
   0.8756971497287438    0.7004889069666913    0.3839398432135594 H
   0.7697912030138285    0.7009782371850868    0.3778196940168231 H
   0.6188904237228031    0.1456930563637342    0.3637995918710064 H
   0.5323769997735027    0.1105620772940632    0.4578445127787287 H
   0.5791913701323658    0.1241143994713326    0.4155513907511610 H
   1.0083701159221177    0.1357519537902266    0.8165255234982323 H
   0.0734421474235545    0.0780858568162731    0.7824634714651713 H
   0.3936916141923223    0.1302016471703279    0.8146538858918234 H
   0.8149850000000001    0.7424300000000000    0.8181499999999999 O
   0.7613950000000000    0.6978050000000000    0.7663550000000000 O
   0.9845699999999999    0.7354200000000000    0.4070050000000000 O
   0.9108750000000000    0.7061300000000000    0.3887200000000000 O
   0.5852349999999999    0.1490950000000000    0.3735000000000000 O
   0.5366950000000000    0.1284100000000000    0.4278000000000000 O
   0.9731250000000000    0.1306000000000000    0.8133300000000000 O
   0.0373950000000000    0.0781200000000000    0.7823500000000000 O
