H23 C33 O12
1.0
  26.5954512818283320    0.0000000000000000   -4.2061201975093025
   4.0426076696061060   26.1214778342726568   -0.9068753956548139
   0.0000000000000000    0.0000000000000000   26.4759999999999991
H C O
23 33 12
direct
   0.0628650000000000    0.0416550000000000    0.1344950000000000 H
   0.0949200000000000    0.0997700000000000    0.2016850000000000 H
   0.0644450000000000    0.9941850000000000    0.0579700000000000 H
   0.0376900000000000    0.9671650000000001    0.1068300000000000 H
   0.0494800000000000    0.8340950000000000    0.0532750000000000 H
   0.0981850000000000    0.8555550000000001    0.0991050000000000 H
   0.1362950000000000    0.8928350000000000    0.0390500000000000 H
   0.2020900000000000    0.9350149999999999    0.1678900000000000 H
   0.2361550000000000    0.9963200000000000    0.2337700000000000 H
   0.0813150000000000    0.7805200000000000    0.1171900000000000 H
   0.1929150000000000    0.8601700000000000    0.0000000000000000 H
   0.9750150000000000    0.9347350000000000    0.0384650000000000 H
   0.9752149999999999    0.8855450000000000    0.1916400000000000 H
   0.9784200000000001    0.8194550000000000    0.2580000000000000 H
   0.0000000000000000    0.0538150000000000    0.9373850000000000 H
   0.9280150000000000    0.1047050000000000    0.8882900000000000 H
   0.1007450000000000    0.9339750000000000    0.9893400000000000 H
   0.0729550000000000    0.7815950000000000    0.9251900000000000 H
   0.2568400000000000    0.7946400000000000    0.9702450000000000 H
   0.1378200000000000    0.7176150000000000    0.8909100000000000 H
   0.9967600000000000    0.8943850000000000    0.9881800000000001 H
   0.9104200000000000    0.9444800000000000    0.9730950000000000 H
   0.8343800000000000    0.9974300000000000    0.9251350000000000 H
   0.1004050000000000    0.0307050000000000    0.1565600000000000 C
   0.1187300000000000    0.0636450000000000    0.1948750000000000 C
   0.1980450000000000    0.0054900000000000    0.2121550000000000 C
   0.1675400000000000    0.0516450000000000    0.2227950000000000 C
   0.1882250000000000    0.0870950000000000    0.2624200000000000 C
   0.0572200000000000    0.9137450000000000    0.0468700000000000 C
   0.0048000000000000    0.9267250000000000    0.0138200000000000 C
   0.0667900000000000    0.9600700000000000    0.0813850000000000 C
   0.0591600000000000    0.8659950000000001    0.0787500000000000 C
   0.0997750000000000    0.9012750000000000    0.0136150000000000 C
   0.1307500000000000    0.9842750000000000    0.1472600000000000 C
   0.1795750000000000    0.9715900000000000    0.1755250000000000 C
   0.0279250000000000    0.8375300000000000    0.1503550000000000 C
   0.0585750000000000    0.7898100000000000    0.1476800000000000 C
   0.0000000000000000    0.8114550000000000    0.2269900000000000 C
   0.0602850000000000    0.7535849999999999    0.1500000000000000 C
   0.0317100000000000    0.7637200000000000    0.2250600000000000 C
   0.0358400000000000    0.7239300000000000    0.2646100000000000 C
   0.9985999999999999    0.8481200000000000    0.1900150000000000 C
   0.9664500000000000    0.0413800000000000    0.9345000000000000 C
   0.8716450000000000    0.0095100000000000    0.9284049999999999 C
   0.9238500000000001    0.0701850000000000    0.9074000000000000 C
   0.8757150000000000    0.0548150000000000    0.9042200000000000 C
   0.8298900000000000    0.0846050000000000    0.8752900000000000 C
   0.1285350000000000    0.8247650000000000    0.9659550000000000 C
   0.1803650000000000    0.8287650000000000    0.9788000000000000 C
   0.1133750000000000    0.7841950000000000    0.9346000000000000 C
   0.2164850000000000    0.7920900000000000    0.9603999999999999 C
   0.1496150000000000    0.7486349999999999    0.9157050000000000 C
   0.2017450000000000    0.7520850000000000    0.9283000000000000 C
   0.2400250000000000    0.7159750000000000    0.9050000000000000 C
   0.9618249999999999    0.9963400000000000    0.9587250000000000 C
   0.9142399999999999    0.9799900000000000    0.9554950000000000 C
   0.1608600000000000    0.1112450000000000    0.2938050000000000 O
   0.2345550000000000    0.0928700000000000    0.2645550000000000 O
   0.1164400000000000    0.9488799999999999    0.1111800000000000 O
   0.0246700000000000    0.8757800000000000    0.1155100000000000 O
   0.0113300000000000    0.7337150000000000    0.3021050000000000 O
   0.0649550000000000    0.6818450000000000    0.2575500000000000 O
   0.7868350000000000    0.0715550000000000    0.8713250000000000 O
   0.8350949999999999    0.1263500000000000    0.8509000000000000 O
   0.0061850000000000    0.9711300000000000    0.9846699999999999 O
   0.0894650000000000    0.8577850000000000    0.9820450000000001 O
   0.2873800000000000    0.7175850000000000    0.9218000000000000 O
   0.2231500000000000    0.6865850000000000    0.8693400000000000 O
