H3 O2
1.0
  20.2359998489761672    0.0000000000000000   -0.0024722937858860
  -0.0115635515294296   11.5932431679516768   -0.2284718429430017
   0.0000000000000000    0.0000000000000000   29.5979999999999990
H O
3 2
direct
   0.7366872842425845    0.1100601772373784    0.8842218808210092 H
   0.7333582994862753   -0.1187523434326004    0.8188786967778707 H
   0.7188919078851749   -0.0671113404187746    0.8550677161727280 H
   0.7604350000000000    0.1307200000000000    0.8570850000000000 O
   0.7498600000000000   -0.0401700000000000    0.8196800000000000 O
