V8 H34 C56 O32
1.0
  13.7279996989112689    0.0000000000000000    0.0028751855755449
  -0.0203244343708409   14.0299852251646477    0.0012243484687208
   0.0000000000000000    0.0000000000000000   16.1340000000000003
V H C O
8 34 56 32
direct
   0.0318400000000000    0.7353900000000000    0.9981200000000000 V
   0.2181600000000000    0.2645300000000000    0.4981000000000000 V
   0.2818300000000000    0.7645400000000000    0.9984000000000000 V
   0.4681700000000000    0.2353900000000000    0.4984600000000000 V
   0.5318300000000000    0.7354000000000001    0.9981100000000001 V
   0.7181500000000000    0.2645200000000000    0.4981100000000000 V
   0.7818100000000000    0.7645300000000000    0.9984499999999999 V
   0.9681600000000000    0.2353800000000000    0.4984600000000000 V
   0.2853300000000000    0.9665600000000000    0.8150800000000000 H
   0.2743400000000000    0.0822900000000000    0.6966500000000000 H
   0.9643500000000000    0.0407200000000000    0.6871500000000000 H
   0.9753400000000000    0.9249800000000000    0.8055700000000000 H
   0.9646900000000000    0.0333800000000000    0.3151700000000000 H
   0.9756100000000000    0.9176500000000000    0.1967500000000000 H
   0.2856200000000000    0.9591499999999999    0.1870800000000000 H
   0.2746900000000000    0.0748800000000000    0.3055000000000000 H
   0.2250500000000000    0.5745000000000000    0.1915000000000000 H
   0.2146000000000000    0.4586500000000000    0.3099000000000000 H
   0.5349699999999999    0.5338600000000000    0.1809800000000000 H
   0.5245300000000001    0.4180300000000000    0.2994000000000000 H
   0.2149700000000000    0.4660600000000000    0.6811100000000000 H
   0.2254700000000000    0.5818600000000000    0.7995200000000000 H
   0.5354200000000000    0.5413100000000000    0.8097000000000000 H
   0.5249200000000001    0.4255000000000000    0.6913600000000000 H
   0.4643400000000000    0.0408600000000000    0.6872600000000000 H
   0.4753400000000000    0.9251200000000001    0.8056900000000000 H
   0.7853300000000000    0.9665600000000000    0.8149999999999999 H
   0.7743300000000000    0.0823000000000000    0.6966500000000000 H
   0.7856100000000000    0.9590700000000000    0.1871500000000000 H
   0.7746700000000000    0.0747900000000000    0.3055800000000000 H
   0.4646900000000000    0.0333600000000000    0.3151700000000000 H
   0.4756200000000000    0.9176400000000000    0.1967000000000000 H
   0.7224589207954332    0.3756154832931023    0.3851120430982694 H
   1.0047496297311345    0.3474051624802916    0.3844469344304193 H
   0.8674458557785290    0.3710422483680010    0.3748674017237076 H
   0.0273206303534444    0.6186071112939058    1.1068431532180687 H
   0.7449931588774744    0.6468756616344044    1.1079150046242958 H
   0.8823438860995663    0.6227166783906941    1.1169038973492440 H
   0.0249300000000000    0.4254900000000000    0.6913600000000000 H
   0.0354300000000000    0.5412900000000000    0.8097600000000000 H
   0.7149700000000000    0.4661100000000000    0.6810600000000000 H
   0.7254699999999999    0.5819000000000000    0.7994800000000000 H
   0.1373800000000000    0.8691400000000000    0.8860100000000000 C
   0.1125300000000000    0.1360800000000000    0.6146700000000000 C
   0.2155700000000000    0.9832300000000000    0.7864900000000000 C
   0.2095300000000000    0.0473400000000000    0.7210500000000000 C
   0.0341300000000000    0.0240900000000000    0.7157000000000000 C
   0.0401600000000000    0.9599900000000000    0.7812200000000000 C
   0.1187900000000000    0.0680200000000000    0.6851300000000000 C
   0.1309600000000000    0.9389300000000000    0.8168500000000000 C
   0.1374400000000000    0.8638400000000001    0.1146700000000000 C
   0.1126800000000000    0.1307800000000000    0.3860100000000000 C
   0.0344700000000000    0.0166900000000000    0.2865500000000000 C
   0.0404700000000000    0.9525800000000000    0.2211000000000000 C
   0.1311900000000000    0.9318900000000000    0.1851400000000000 C
   0.2158800000000000    0.9757900000000000    0.2157400000000000 C
   0.2098700000000000    0.0398900000000000    0.2811800000000000 C
   0.1190900000000000    0.0609800000000000    0.3168600000000000 C
   0.3628700000000000    0.3637700000000000    0.3818900000000000 C
   0.3869400000000000    0.6308300000000000    0.1105700000000000 C
   0.2899600000000000    0.5396800000000000    0.2156000000000000 C
   0.2842100000000000    0.4755300000000000    0.2810000000000000 C
   0.3806200000000000    0.5610100000000000    0.1797200000000000 C
   0.4653500000000000    0.5169400000000000    0.2098000000000000 C
   0.4596100000000000    0.4527900000000000    0.2752400000000000 C
   0.3690000000000000    0.4318400000000000    0.3114200000000000 C
   0.3871700000000000    0.6361599999999999    0.8818800000000000 C
   0.3630000000000000    0.3691200000000000    0.6105600000000000 C
   0.2846200000000000    0.4830000000000000    0.7098600000000000 C
   0.2903900000000000    0.5471200000000001    0.7753000000000000 C
   0.4657800000000000    0.5244300000000000    0.7809600000000000 C
   0.4600100000000000    0.4602900000000000    0.7155300000000000 C
   0.3810100000000000    0.5680900000000000    0.8114100000000000 C
   0.3693300000000000    0.4389400000000000    0.6797000000000000 C
   0.6125100000000000    0.1361100000000000    0.6146900000000000 C
   0.6373700000000000    0.8691700000000000    0.8860300000000000 C
   0.5341000000000000    0.0242000000000000    0.7158600000000001 C
   0.5401400000000000    0.9601000000000000    0.7813000000000000 C
   0.6187700000000000    0.0680800000000000    0.6851800000000000 C
   0.7155600000000000    0.9832600000000000    0.7865100000000000 C
   0.7095200000000000    0.0473800000000000    0.7210700000000000 C
   0.6309500000000000    0.9389900000000000    0.8169000000000000 C
   0.6374300000000001    0.8638200000000000    0.1146800000000000 C
   0.6126500000000000    0.1307600000000000    0.3860000000000000 C
   0.7158700000000000    0.9757200000000000    0.2158000000000000 C
   0.7098600000000000    0.0398200000000000    0.2812400000000000 C
   0.6190700000000000    0.0609300000000000    0.3168900000000000 C
   0.5344400000000000    0.0166600000000000    0.2865600000000000 C
   0.5404500000000000    0.9525500000000000    0.2211200000000000 C
   0.6311800000000000    0.9318400000000000    0.1851700000000000 C
   0.8871599999999999    0.6361599999999999    0.8818700000000000 C
   0.8629900000000000    0.3691200000000000    0.6105000000000000 C
   0.9600000000000000    0.4602900000000000    0.7155200000000000 C
   0.9657700000000000    0.5244200000000000    0.7809000000000000 C
   0.7846100000000000    0.4830300000000000    0.7098300000000000 C
   0.7903900000000000    0.5471600000000000    0.7752700000000000 C
   0.8810000000000000    0.5681000000000000    0.8113899999999999 C
   0.8693200000000000    0.4389600000000000    0.6796000000000000 C
   0.2220600000000000    0.8492300000000000    0.9137400000000000 O
   0.0572700000000000    0.8336000000000000    0.9124600000000000 O
   0.0279300000000000    0.1550400000000000    0.5863000000000000 O
   0.1926900000000000    0.1708200000000000    0.5875200000000000 O
   0.2220500000000000    0.8448800000000000    0.0862800000000000 O
   0.0572900000000000    0.8291300000000000    0.0875200000000000 O
   0.0280000000000000    0.1507100000000000    0.4137500000000000 O
   0.1927800000000000    0.1663300000000000    0.4124400000000000 O
   0.2782400000000000    0.3447100000000000    0.4103200000000000 O
   0.4429800000000000    0.3291600000000000    0.4089800000000000 O
   0.4716300000000000    0.6507900000000000    0.0827300000000000 O
   0.3068800000000000    0.6663400000000000    0.0842400000000000 O
   0.4717900000000000    0.6552000000000000    0.9103000000000000 O
   0.3070500000000000    0.6707900000000000    0.9089900000000000 O
   0.2783100000000000    0.3491600000000000    0.5827400000000000 O
   0.4430700000000000    0.3336100000000000    0.5842100000000000 O
   0.5279100000000000    0.1550600000000000    0.5863100000000000 O
   0.6926700000000000    0.1708300000000000    0.5875300000000000 O
   0.7220500000000000    0.8492300000000000    0.9137500000000000 O
   0.5572700000000000    0.8336100000000000    0.9124700000000000 O
   0.7220400000000000    0.8448700000000000    0.0862800000000000 O
   0.5572800000000000    0.8291200000000000    0.0875300000000000 O
   0.5279700000000001    0.1507100000000000    0.4137000000000000 O
   0.6927500000000000    0.1663100000000000    0.4124500000000000 O
   0.7782300000000000    0.3446800000000000    0.4103100000000000 O
   0.9429700000000000    0.3291500000000000    0.4089900000000000 O
  -0.0283799999999999    0.6507900000000000    1.0827400000000000 O
   0.8068600000000000    0.6663300000000000    1.0842399999999999 O
   0.9717700000000000    0.6551900000000001    0.9103100000000000 O
   0.8070400000000000    0.6707900000000000    0.9089800000000000 O
   0.7783000000000000    0.3491600000000000    0.5827300000000000 O
   0.9430500000000001    0.3336100000000000    0.5842100000000000 O
