H22 C26 N4 O2
1.0
  20.8082049353593810    0.0000000000000000    6.8285142870236051
  -2.0131201314028822   11.4378131485210215    6.2318679154856964
   0.0000000000000000    0.0000000000000000   27.6419999999999995
H C N O
22 26 4 2
direct
   0.0478750000000000    0.6010100000000000    0.1033950000000000 H
   0.2005300000000000    0.3478700000000000    0.4337900000000000 H
   0.1958900000000000    0.5569800000000000    0.3665550000000000 H
   0.1017300000000000    0.5994900000000000    0.3308800000000000 H
   0.0255550000000000    0.2294900000000000    0.4340250000000000 H
   0.0003550000000000    0.3896400000000000    0.3343500000000000 H
   0.0210550000000000    0.7672000000000000    0.2408750000000000 H
   0.7995200000000000    0.6522800000000000    0.0656350000000000 H
   0.8039550000000000    0.4430200000000000    0.1328200000000000 H
   0.8978050000000000    0.4001200000000000    0.1689150000000000 H
   0.9741150000000001    0.7700700000000000    0.0662250000000000 H
   0.9999150000000000    0.6101400000000000    0.1659550000000000 H
   0.9782200000000000    0.2322500000000000    0.2597550000000000 H
   0.5426299999999999    0.1485700000000000    0.3252450000000000 H
   0.6381050000000000    0.2728300000000000    0.3127400000000000 H
   0.6037100000000000    0.5682199999999999    0.1697300000000000 H
   0.6951600000000000    0.5938300000000000    0.1962450000000000 H
   0.9526000000000000    0.4006900000000000    0.3963800000000000 H
   0.9577850000000000    0.8517700000000000    0.1744950000000000 H
   0.8622300000000001    0.7272800000000000    0.1872550000000000 H
   0.8971300000000000    0.4321000000000000    0.3300000000000000 H
   0.8054650000000000    0.4062800000000000    0.3037300000000000 H
   0.0014150000000000    0.5642200000000001    0.1411150000000000 C
   0.1599450000000000    0.3714200000000000    0.4180050000000000 C
   0.1570700000000000    0.4866300000000000    0.3807900000000000 C
   0.1045650000000000    0.5103500000000000    0.3610400000000000 C
   0.0558250000000000    0.4180200000000000    0.3797000000000000 C
   0.0622500000000000    0.3049400000000000    0.4177750000000000 C
   0.8399700000000000    0.6285700000000000    0.0816000000000000 C
   0.8427300000000000    0.5132600000000000    0.1187950000000000 C
   0.8950600000000000    0.4893300000000000    0.1387700000000000 C
   0.9437700000000000    0.5815300000000000    0.1203300000000000 C
   0.9374500000000000    0.6947100000000000    0.0822850000000000 C
   0.5366649999999999    0.4051700000000000    0.2109850000000000 C
   0.5202900000000000    0.2867800000000000    0.2543650000000000 C
   0.5567650000000000    0.2399400000000000    0.2907300000000000 C
   0.6102900000000000    0.3089900000000000    0.2837300000000000 C
   0.6279399999999999    0.4272500000000000    0.2394100000000000 C
   0.5902450000000000    0.4760400000000000    0.2032950000000000 C
   0.6851550000000000    0.5006400000000000    0.2294150000000000 C
   0.9991399999999999    0.4364100000000000    0.3587550000000000 C
   0.9641649999999999    0.5952600000000000    0.2885800000000000 C
   0.9804050000000000    0.7136500000000000    0.2452050000000000 C
   0.9437450000000001    0.7603900000000000    0.2090100000000000 C
   0.8901650000000000    0.6912300000000000    0.2161600000000000 C
   0.8726350000000000    0.5729800000000000    0.2604900000000000 C
   0.9105000000000000    0.5242900000000000    0.2964500000000000 C
   0.8154000000000000    0.4994800000000000    0.2705800000000000 C
   0.1131150000000000    0.2817300000000000    0.4364550000000000 N
   0.8867600000000000    0.7181300000000000    0.0633750000000000 N
   0.7244100000000000    0.4577600000000000    0.2581850000000000 N
   0.7760899999999999    0.5423200000000000    0.2418700000000000 N
   0.0038200000000000    0.5590400000000000    0.3213800000000000 O
   0.9972799999999999    0.4415200000000000    0.1779300000000000 O
