H4 O2
1.0
  20.8082049353593810    0.0000000000000000    6.8285142870236051
  -2.0131201314028822   11.4378131485210215    6.2318679154856964
   0.0000000000000000    0.0000000000000000   27.6419999999999995
H O
4 2
direct
   0.1470965172867813    0.3468122610602480    0.4230670223373668 H
   0.0761058664582917    0.2986174862774609    0.4228635203074981 H
   0.9236445115971593    0.7010884679107227    0.0771348365417693 H
   0.8528061991988910    0.6531395661520129    0.0766002194828000 H
   0.1131150000000000    0.2817300000000000    0.4364550000000000 O
   0.8867600000000000    0.7181300000000000    0.0633750000000000 O
