Cd8 H176 C223 S15 N47 O16
1.0
  20.8082049353593810    0.0000000000000000    6.8285142870236051
  -2.0131201314028822   11.4378131485210215    6.2318679154856964
   0.0000000000000000    0.0000000000000000   27.6419999999999995
Cd H C S N O
8 176 223 15 47 16
direct
   0.1250950000000000    0.0844000000000000    0.4993450000000000 Cd
   0.3750350000000000    0.9156000000000000    0.0004000000000000 Cd
   0.6250950000000000    0.0844000000000000    0.4993450000000000 Cd
   0.8750350000000000    0.9156000000000000    0.0004000000000000 Cd
   0.1250950000000000    0.0844000000000000    0.9993449999999999 Cd
   0.3750350000000000    0.9156000000000000    0.5004000000000000 Cd
   0.6250950000000000    0.0844000000000000    0.9993449999999999 Cd
   0.8750350000000000    0.9156000000000000    0.5004000000000000 Cd
   0.4511450000000000    0.7844400000000000    0.4335500000000000 H
   0.4470750000000000    0.7112600000000000    0.3652250000000000 H
   0.3531100000000000    0.7412900000000000    0.3292600000000000 H
   0.2761000000000000    0.9036999999999999    0.4340600000000000 H
   0.2031900000000000    0.8127600000000000    0.3956250000000000 H
   0.2517900000000000    0.9442300000000000    0.3325200000000000 H
   0.2712950000000000    0.7489300000000000    0.2409950000000000 H
   0.2076050000000000    0.7958400000000000    0.1749800000000000 H
   0.1121450000000000    0.8962900000000000    0.1873100000000000 H
   0.1470150000000000    0.9095800000000001    0.3297550000000000 H
   0.0556000000000000    0.9883999999999999    0.3031700000000000 H
   0.2995200000000000    0.6522800000000000    0.0656350000000000 H
   0.3039550000000000    0.4430200000000000    0.1328200000000000 H
   0.3978050000000000    0.4001200000000000    0.1689150000000000 H
   0.4741150000000000    0.7700700000000000    0.0662250000000000 H
   0.0478750000000000    0.6010100000000000    0.1033950000000000 H
   0.4999150000000000    0.6101400000000000    0.1659550000000000 H
   0.4782200000000000    0.2322500000000000    0.2597550000000000 H
   0.0426300000000000    0.1485700000000000    0.3252450000000000 H
   0.1381050000000000    0.2728300000000000    0.3127400000000000 H
   0.1037100000000000    0.5682199999999999    0.1697300000000000 H
   0.1951600000000000    0.5938300000000000    0.1962450000000000 H
   0.0489950000000000    0.2152800000000000    0.0663250000000000 H
   0.0531900000000000    0.2886400000000000    0.1345600000000000 H
   0.1473600000000000    0.2590800000000000    0.1702600000000000 H
   0.2243150000000000    0.0968700000000000    0.0653550000000000 H
   0.2972650000000000    0.1868700000000000    0.1036350000000000 H
   0.2484450000000000    0.0564800000000000    0.1673400000000000 H
   0.2292200000000000    0.2524700000000000    0.2579950000000000 H
   0.2922850000000000    0.2045700000000000    0.3245550000000000 H
   0.3875550000000000    0.1035100000000000    0.3126400000000000 H
   0.3537250000000000    0.0916200000000000    0.1694950000000000 H
   0.4446950000000000    0.0119000000000000    0.1966100000000000 H
   0.2005300000000000    0.3478700000000000    0.4337900000000000 H
   0.1958900000000000    0.5569800000000000    0.3665550000000000 H
   0.1017300000000000    0.5994900000000000    0.3308800000000000 H
   0.0255550000000000    0.2294900000000000    0.4340250000000000 H
   0.4526000000000000    0.4006900000000000    0.3963800000000000 H
   0.0003550000000000    0.3896400000000000    0.3343500000000000 H
   0.0210550000000000    0.7672000000000000    0.2408750000000000 H
   0.4577850000000000    0.8517700000000000    0.1744950000000000 H
   0.3622300000000000    0.7272800000000000    0.1872550000000000 H
   0.3971300000000000    0.4321000000000000    0.3300000000000000 H
   0.3054650000000000    0.4062800000000000    0.3037300000000000 H
   0.9511450000000000    0.7844400000000000    0.4335500000000000 H
   0.9470750000000000    0.7112600000000000    0.3652250000000000 H
   0.8531100000000000    0.7412900000000000    0.3292600000000000 H
   0.7761000000000000    0.9036999999999999    0.4340600000000000 H
   0.7031900000000000    0.8127600000000000    0.3956250000000000 H
   0.7517900000000000    0.9442300000000000    0.3325200000000000 H
   0.7712950000000001    0.7489300000000000    0.2409950000000000 H
   0.7076050000000000    0.7958400000000000    0.1749800000000000 H
   0.6121449999999999    0.8962900000000000    0.1873100000000000 H
   0.6470150000000000    0.9095800000000001    0.3297550000000000 H
   0.5556000000000000    0.9883999999999999    0.3031700000000000 H
   0.7995200000000000    0.6522800000000000    0.0656350000000000 H
   0.8039550000000000    0.4430200000000000    0.1328200000000000 H
   0.8978050000000000    0.4001200000000000    0.1689150000000000 H
   0.9741150000000001    0.7700700000000000    0.0662250000000000 H
   0.5478750000000000    0.6010100000000000    0.1033950000000000 H
   0.9999150000000000    0.6101400000000000    0.1659550000000000 H
   0.9782200000000000    0.2322500000000000    0.2597550000000000 H
   0.5426299999999999    0.1485700000000000    0.3252450000000000 H
   0.6381050000000000    0.2728300000000000    0.3127400000000000 H
   0.6037100000000000    0.5682199999999999    0.1697300000000000 H
   0.6951600000000000    0.5938300000000000    0.1962450000000000 H
   0.5489950000000000    0.2152800000000000    0.0663250000000000 H
   0.5531900000000000    0.2886400000000000    0.1345600000000000 H
   0.6473599999999999    0.2590800000000000    0.1702600000000000 H
   0.7243150000000000    0.0968700000000000    0.0653550000000000 H
   0.7972650000000000    0.1868700000000000    0.1036350000000000 H
   0.7484450000000000    0.0564800000000000    0.1673400000000000 H
   0.7292200000000000    0.2524700000000000    0.2579950000000000 H
   0.7922850000000000    0.2045700000000000    0.3245550000000000 H
   0.8875550000000000    0.1035100000000000    0.3126400000000000 H
   0.8537250000000001    0.0916200000000000    0.1694950000000000 H
   0.9446950000000001    0.0119000000000000    0.1966100000000000 H
   0.7005300000000000    0.3478700000000000    0.4337900000000000 H
   0.6958900000000000    0.5569800000000000    0.3665550000000000 H
   0.6017300000000000    0.5994900000000000    0.3308800000000000 H
   0.5255550000000000    0.2294900000000000    0.4340250000000000 H
   0.9526000000000000    0.4006900000000000    0.3963800000000000 H
   0.5003550000000000    0.3896400000000000    0.3343500000000000 H
   0.5210550000000000    0.7672000000000000    0.2408750000000000 H
   0.9577850000000000    0.8517700000000000    0.1744950000000000 H
   0.8622300000000001    0.7272800000000000    0.1872550000000000 H
   0.8971300000000000    0.4321000000000000    0.3300000000000000 H
   0.8054650000000000    0.4062800000000000    0.3037300000000000 H
   0.4511450000000000    0.7844400000000000    0.9335500000000000 H
   0.4470750000000000    0.7112600000000000    0.8652250000000000 H
   0.3531100000000000    0.7412900000000000    0.8292600000000000 H
   0.2761000000000000    0.9036999999999999    0.9340600000000000 H
   0.2031900000000000    0.8127600000000000    0.8956250000000000 H
   0.2517900000000000    0.9442300000000000    0.8325199999999999 H
   0.2712950000000000    0.7489300000000000    0.7409950000000000 H
   0.2076050000000000    0.7958400000000000    0.6749800000000000 H
   0.1121450000000000    0.8962900000000000    0.6873100000000000 H
   0.1470150000000000    0.9095800000000001    0.8297550000000000 H
   0.0556000000000000    0.9883999999999999    0.8031699999999999 H
   0.2995200000000000    0.6522800000000000    0.5656350000000000 H
   0.3039550000000000    0.4430200000000000    0.6328199999999999 H
   0.3978050000000000    0.4001200000000000    0.6689150000000000 H
   0.4741150000000000    0.7700700000000000    0.5662250000000000 H
   0.0478750000000000    0.6010100000000000    0.6033950000000000 H
   0.4999150000000000    0.6101400000000000    0.6659550000000000 H
   0.4782200000000000    0.2322500000000000    0.7597550000000000 H
   0.0426300000000000    0.1485700000000000    0.8252450000000000 H
   0.1381050000000000    0.2728300000000000    0.8127400000000000 H
   0.1037100000000000    0.5682199999999999    0.6697299999999999 H
   0.1951600000000000    0.5938300000000000    0.6962450000000000 H
   0.0489950000000000    0.2152800000000000    0.5663250000000000 H
   0.0531900000000000    0.2886400000000000    0.6345600000000000 H
   0.1473600000000000    0.2590800000000000    0.6702600000000000 H
   0.2243150000000000    0.0968700000000000    0.5653550000000001 H
   0.2972650000000000    0.1868700000000000    0.6036350000000000 H
   0.2484450000000000    0.0564800000000000    0.6673400000000000 H
   0.2292200000000000    0.2524700000000000    0.7579950000000000 H
   0.2922850000000000    0.2045700000000000    0.8245549999999999 H
   0.3875550000000000    0.1035100000000000    0.8126400000000000 H
   0.3537250000000000    0.0916200000000000    0.6694950000000000 H
   0.4446950000000000    0.0119000000000000    0.6966100000000000 H
   0.2005300000000000    0.3478700000000000    0.9337900000000000 H
   0.1958900000000000    0.5569800000000000    0.8665550000000000 H
   0.1017300000000000    0.5994900000000000    0.8308800000000001 H
   0.0255550000000000    0.2294900000000000    0.9340250000000000 H
   0.4526000000000000    0.4006900000000000    0.8963800000000000 H
   0.0003550000000000    0.3896400000000000    0.8343499999999999 H
   0.0210550000000000    0.7672000000000000    0.7408750000000000 H
   0.4577850000000000    0.8517700000000000    0.6744950000000001 H
   0.3622300000000000    0.7272800000000000    0.6872549999999999 H
   0.3971300000000000    0.4321000000000000    0.8300000000000001 H
   0.3054650000000000    0.4062800000000000    0.8037300000000001 H
   0.9511450000000000    0.7844400000000000    0.9335500000000000 H
   0.9470750000000000    0.7112600000000000    0.8652250000000000 H
   0.8531100000000000    0.7412900000000000    0.8292600000000000 H
   0.7761000000000000    0.9036999999999999    0.9340600000000000 H
   0.7031900000000000    0.8127600000000000    0.8956250000000000 H
   0.7517900000000000    0.9442300000000000    0.8325199999999999 H
   0.7712950000000001    0.7489300000000000    0.7409950000000000 H
   0.7076050000000000    0.7958400000000000    0.6749800000000000 H
   0.6121449999999999    0.8962900000000000    0.6873100000000000 H
   0.6470150000000000    0.9095800000000001    0.8297550000000000 H
   0.5556000000000000    0.9883999999999999    0.8031699999999999 H
   0.7995200000000000    0.6522800000000000    0.5656350000000000 H
   0.8039550000000000    0.4430200000000000    0.6328199999999999 H
   0.8978050000000000    0.4001200000000000    0.6689150000000000 H
   0.9741150000000001    0.7700700000000000    0.5662250000000000 H
   0.5478750000000000    0.6010100000000000    0.6033950000000000 H
   0.9999150000000000    0.6101400000000000    0.6659550000000000 H
   0.9782200000000000    0.2322500000000000    0.7597550000000000 H
   0.5426299999999999    0.1485700000000000    0.8252450000000000 H
   0.6381050000000000    0.2728300000000000    0.8127400000000000 H
   0.6037100000000000    0.5682199999999999    0.6697299999999999 H
   0.6951600000000000    0.5938300000000000    0.6962450000000000 H
   0.5489950000000000    0.2152800000000000    0.5663250000000000 H
   0.5531900000000000    0.2886400000000000    0.6345600000000000 H
   0.6473599999999999    0.2590800000000000    0.6702600000000000 H
   0.7243150000000000    0.0968700000000000    0.5653550000000001 H
   0.7972650000000000    0.1868700000000000    0.6036350000000000 H
   0.7484450000000000    0.0564800000000000    0.6673400000000000 H
   0.7292200000000000    0.2524700000000000    0.7579950000000000 H
   0.7922850000000000    0.2045700000000000    0.8245549999999999 H
   0.8875550000000000    0.1035100000000000    0.8126400000000000 H
   0.8537250000000001    0.0916200000000000    0.6694950000000000 H
   0.9446950000000001    0.0119000000000000    0.6966100000000000 H
   0.7005300000000000    0.3478700000000000    0.9337900000000000 H
   0.6958900000000000    0.5569800000000000    0.8665550000000000 H
   0.6017300000000000    0.5994900000000000    0.8308800000000001 H
   0.5255550000000000    0.2294900000000000    0.9340250000000000 H
   0.9526000000000000    0.4006900000000000    0.8963800000000000 H
   0.5003550000000000    0.3896400000000000    0.8343499999999999 H
   0.5210550000000000    0.7672000000000000    0.7408750000000000 H
   0.9577850000000000    0.8517700000000000    0.6744950000000001 H
   0.8622300000000001    0.7272800000000000    0.6872549999999999 H
   0.8971300000000000    0.4321000000000000    0.8300000000000001 H
   0.8054650000000000    0.4062800000000000    0.8037300000000001 H
   0.4106750000000000    0.7930700000000001    0.4175900000000000 C
   0.4081400000000000    0.7531700000000000    0.3797400000000000 C
   0.3557400000000000    0.7695300000000000    0.3598450000000000 C
   0.3068700000000000    0.8246400000000000    0.3788550000000000 C
   0.3129250000000000    0.8607500000000000    0.4175250000000000 C
   0.2497100000000000    0.8489900000000000    0.3579950000000000 C
   0.2138150000000000    0.8270300000000000    0.2888300000000000 C
   0.2300350000000000    0.7939700000000000    0.2456700000000000 C
   0.1934800000000000    0.8191300000000000    0.2093950000000000 C
   0.1400450000000000    0.8749800000000000    0.2162450000000000 C
   0.1225050000000000    0.9058800000000000    0.2604250000000000 C
   0.1603500000000000    0.8833900000000000    0.2963650000000000 C
   0.0653450000000000    0.9600400000000000    0.2703400000000000 C
   0.4543650000000000    0.0177800000000000    0.0608250000000000 C
   0.3399700000000000    0.6285700000000000    0.0816000000000000 C
   0.3427300000000000    0.5132600000000000    0.1187950000000000 C
   0.3950600000000000    0.4893300000000000    0.1387700000000000 C
   0.4437700000000000    0.5815300000000000    0.1203300000000000 C
   0.4374500000000000    0.6947100000000000    0.0822850000000000 C
   0.0014150000000000    0.5642200000000001    0.1411150000000000 C
   0.0366650000000000    0.4051700000000000    0.2109850000000000 C
   0.0202900000000000    0.2867800000000000    0.2543650000000000 C
   0.0567650000000000    0.2399400000000000    0.2907300000000000 C
   0.1102900000000000    0.3089900000000000    0.2837300000000000 C
   0.1279400000000000    0.4272500000000000    0.2394100000000000 C
   0.0902450000000000    0.4760400000000000    0.2032950000000000 C
   0.1851550000000000    0.5006400000000000    0.2294150000000000 C
   0.2957850000000000    0.1384300000000000    0.4392400000000000 C
   0.0895400000000000    0.2068300000000000    0.0821900000000000 C
   0.0921550000000000    0.2468600000000000    0.1199750000000000 C
   0.1446400000000000    0.2307000000000000    0.1397450000000000 C
   0.1935850000000000    0.1758700000000000    0.1205900000000000 C
   0.1874400000000000    0.1396100000000000    0.0820000000000000 C
   0.2508300000000000    0.1516900000000000    0.1413400000000000 C
   0.2868750000000000    0.1743500000000000    0.2102450000000000 C
   0.2704000000000000    0.2071800000000000    0.2534900000000000 C
   0.3066100000000000    0.1814600000000000    0.2900800000000000 C
   0.3599350000000000    0.1252600000000000    0.2834650000000000 C
   0.3777200000000000    0.0945800000000000    0.2392050000000000 C
   0.3402150000000000    0.1176200000000000    0.2029600000000000 C
   0.4348300000000000    0.0402000000000000    0.2294700000000000 C
   0.0455550000000000    0.9822000000000000    0.4391800000000000 C
   0.1599450000000000    0.3714200000000000    0.4180050000000000 C
   0.1570700000000000    0.4866300000000000    0.3807900000000000 C
   0.1045650000000000    0.5103500000000000    0.3610400000000000 C
   0.0558250000000000    0.4180200000000000    0.3797000000000000 C
   0.0622500000000000    0.3049400000000000    0.4177750000000000 C
   0.4991400000000000    0.4364100000000000    0.3587550000000000 C
   0.4641650000000000    0.5952600000000000    0.2885800000000000 C
   0.4804050000000000    0.7136500000000000    0.2452050000000000 C
   0.4437450000000000    0.7603900000000000    0.2090100000000000 C
   0.3901650000000000    0.6912300000000000    0.2161600000000000 C
   0.3726350000000000    0.5729800000000000    0.2604900000000000 C
   0.4105000000000000    0.5242900000000000    0.2964500000000000 C
   0.3154000000000000    0.4994800000000000    0.2705800000000000 C
   0.2043600000000000    0.8615600000000000    0.0604700000000000 C
   0.9106750000000000    0.7930700000000001    0.4175900000000000 C
   0.9081399999999999    0.7531700000000000    0.3797400000000000 C
   0.8557399999999999    0.7695300000000000    0.3598450000000000 C
   0.8068700000000000    0.8246400000000000    0.3788550000000000 C
   0.8129250000000000    0.8607500000000000    0.4175250000000000 C
   0.7497100000000000    0.8489900000000000    0.3579950000000000 C
   0.7138150000000000    0.8270300000000000    0.2888300000000000 C
   0.7300350000000000    0.7939700000000000    0.2456700000000000 C
   0.6934800000000000    0.8191300000000000    0.2093950000000000 C
   0.6400450000000000    0.8749800000000000    0.2162450000000000 C
   0.6225050000000000    0.9058800000000000    0.2604250000000000 C
   0.6603500000000000    0.8833900000000000    0.2963650000000000 C
   0.5653450000000000    0.9600400000000000    0.2703400000000000 C
   0.9543650000000000    0.0177800000000000    0.0608250000000000 C
   0.8399700000000000    0.6285700000000000    0.0816000000000000 C
   0.8427300000000000    0.5132600000000000    0.1187950000000000 C
   0.8950600000000000    0.4893300000000000    0.1387700000000000 C
   0.9437700000000000    0.5815300000000000    0.1203300000000000 C
   0.9374500000000000    0.6947100000000000    0.0822850000000000 C
   0.5014150000000001    0.5642200000000001    0.1411150000000000 C
   0.5366649999999999    0.4051700000000000    0.2109850000000000 C
   0.5202900000000000    0.2867800000000000    0.2543650000000000 C
   0.5567650000000000    0.2399400000000000    0.2907300000000000 C
   0.6102900000000000    0.3089900000000000    0.2837300000000000 C
   0.6279399999999999    0.4272500000000000    0.2394100000000000 C
   0.5902450000000000    0.4760400000000000    0.2032950000000000 C
   0.6851550000000000    0.5006400000000000    0.2294150000000000 C
   0.7957850000000000    0.1384300000000000    0.4392400000000000 C
   0.5895400000000000    0.2068300000000000    0.0821900000000000 C
   0.5921550000000000    0.2468600000000000    0.1199750000000000 C
   0.6446400000000000    0.2307000000000000    0.1397450000000000 C
   0.6935850000000000    0.1758700000000000    0.1205900000000000 C
   0.6874400000000001    0.1396100000000000    0.0820000000000000 C
   0.7508300000000000    0.1516900000000000    0.1413400000000000 C
   0.7868750000000000    0.1743500000000000    0.2102450000000000 C
   0.7704000000000000    0.2071800000000000    0.2534900000000000 C
   0.8066100000000000    0.1814600000000000    0.2900800000000000 C
   0.8599350000000000    0.1252600000000000    0.2834650000000000 C
   0.8777200000000001    0.0945800000000000    0.2392050000000000 C
   0.8402149999999999    0.1176200000000000    0.2029600000000000 C
   0.9348300000000000    0.0402000000000000    0.2294700000000000 C
   0.6599450000000000    0.3714200000000000    0.4180050000000000 C
   0.6570700000000000    0.4866300000000000    0.3807900000000000 C
   0.6045650000000000    0.5103500000000000    0.3610400000000000 C
   0.5558250000000000    0.4180200000000000    0.3797000000000000 C
   0.5622500000000000    0.3049400000000000    0.4177750000000000 C
   0.9991399999999999    0.4364100000000000    0.3587550000000000 C
   0.9641649999999999    0.5952600000000000    0.2885800000000000 C
   0.9804050000000000    0.7136500000000000    0.2452050000000000 C
   0.9437450000000001    0.7603900000000000    0.2090100000000000 C
   0.8901650000000000    0.6912300000000000    0.2161600000000000 C
   0.8726350000000000    0.5729800000000000    0.2604900000000000 C
   0.9105000000000000    0.5242900000000000    0.2964500000000000 C
   0.8154000000000000    0.4994800000000000    0.2705800000000000 C
   0.7043600000000000    0.8615600000000000    0.0604700000000000 C
   0.4106750000000000    0.7930700000000001    0.9175900000000000 C
   0.4081400000000000    0.7531700000000000    0.8797400000000000 C
   0.3557400000000000    0.7695300000000000    0.8598450000000000 C
   0.3068700000000000    0.8246400000000000    0.8788549999999999 C
   0.3129250000000000    0.8607500000000000    0.9175249999999999 C
   0.2497100000000000    0.8489900000000000    0.8579950000000001 C
   0.2138150000000000    0.8270300000000000    0.7888299999999999 C
   0.2300350000000000    0.7939700000000000    0.7456700000000001 C
   0.1934800000000000    0.8191300000000000    0.7093950000000000 C
   0.1400450000000000    0.8749800000000000    0.7162450000000000 C
   0.1225050000000000    0.9058800000000000    0.7604250000000000 C
   0.1603500000000000    0.8833900000000000    0.7963650000000000 C
   0.0653450000000000    0.9600400000000000    0.7703400000000000 C
   0.4543650000000000    0.0177800000000000    0.5608250000000000 C
   0.3399700000000000    0.6285700000000000    0.5816000000000000 C
   0.3427300000000000    0.5132600000000000    0.6187950000000000 C
   0.3950600000000000    0.4893300000000000    0.6387700000000001 C
   0.4437700000000000    0.5815300000000000    0.6203300000000000 C
   0.4374500000000000    0.6947100000000000    0.5822849999999999 C
   0.0014150000000000    0.5642200000000001    0.6411150000000000 C
   0.0366650000000000    0.4051700000000000    0.7109850000000000 C
   0.0202900000000000    0.2867800000000000    0.7543650000000000 C
   0.0567650000000000    0.2399400000000000    0.7907299999999999 C
   0.1102900000000000    0.3089900000000000    0.7837300000000000 C
   0.1279400000000000    0.4272500000000000    0.7394100000000000 C
   0.0902450000000000    0.4760400000000000    0.7032950000000000 C
   0.1851550000000000    0.5006400000000000    0.7294150000000000 C
   0.2957850000000000    0.1384300000000000    0.9392400000000001 C
   0.0895400000000000    0.2068300000000000    0.5821900000000000 C
   0.0921550000000000    0.2468600000000000    0.6199749999999999 C
   0.1446400000000000    0.2307000000000000    0.6397450000000000 C
   0.1935850000000000    0.1758700000000000    0.6205900000000000 C
   0.1874400000000000    0.1396100000000000    0.5820000000000000 C
   0.2508300000000000    0.1516900000000000    0.6413400000000000 C
   0.2868750000000000    0.1743500000000000    0.7102450000000000 C
   0.2704000000000000    0.2071800000000000    0.7534900000000000 C
   0.3066100000000000    0.1814600000000000    0.7900800000000000 C
   0.3599350000000000    0.1252600000000000    0.7834650000000001 C
   0.3777200000000000    0.0945800000000000    0.7392050000000000 C
   0.3402150000000000    0.1176200000000000    0.7029600000000000 C
   0.4348300000000000    0.0402000000000000    0.7294700000000001 C
   0.0455550000000000    0.9822000000000000    0.9391800000000000 C
   0.1599450000000000    0.3714200000000000    0.9180050000000000 C
   0.1570700000000000    0.4866300000000000    0.8807900000000000 C
   0.1045650000000000    0.5103500000000000    0.8610400000000000 C
   0.0558250000000000    0.4180200000000000    0.8796999999999999 C
   0.0622500000000000    0.3049400000000000    0.9177750000000000 C
   0.4991400000000000    0.4364100000000000    0.8587549999999999 C
   0.4641650000000000    0.5952600000000000    0.7885800000000001 C
   0.4804050000000000    0.7136500000000000    0.7452050000000000 C
   0.4437450000000000    0.7603900000000000    0.7090100000000000 C
   0.3901650000000000    0.6912300000000000    0.7161600000000000 C
   0.3726350000000000    0.5729800000000000    0.7604900000000000 C
   0.4105000000000000    0.5242900000000000    0.7964500000000000 C
   0.3154000000000000    0.4994800000000000    0.7705800000000000 C
   0.2043600000000000    0.8615600000000000    0.5604700000000000 C
   0.9106750000000000    0.7930700000000001    0.9175900000000000 C
   0.9081399999999999    0.7531700000000000    0.8797400000000000 C
   0.8557399999999999    0.7695300000000000    0.8598450000000000 C
   0.8068700000000000    0.8246400000000000    0.8788549999999999 C
   0.8129250000000000    0.8607500000000000    0.9175249999999999 C
   0.7497100000000000    0.8489900000000000    0.8579950000000001 C
   0.7138150000000000    0.8270300000000000    0.7888299999999999 C
   0.7300350000000000    0.7939700000000000    0.7456700000000001 C
   0.6934800000000000    0.8191300000000000    0.7093950000000000 C
   0.6400450000000000    0.8749800000000000    0.7162450000000000 C
   0.6225050000000000    0.9058800000000000    0.7604250000000000 C
   0.6603500000000000    0.8833900000000000    0.7963650000000000 C
   0.5653450000000000    0.9600400000000000    0.7703400000000000 C
   0.9543650000000000    0.0177800000000000    0.5608250000000000 C
   0.8399700000000000    0.6285700000000000    0.5816000000000000 C
   0.8427300000000000    0.5132600000000000    0.6187950000000000 C
   0.8950600000000000    0.4893300000000000    0.6387700000000001 C
   0.9437700000000000    0.5815300000000000    0.6203300000000000 C
   0.9374500000000000    0.6947100000000000    0.5822849999999999 C
   0.5014150000000001    0.5642200000000001    0.6411150000000000 C
   0.5366649999999999    0.4051700000000000    0.7109850000000000 C
   0.5202900000000000    0.2867800000000000    0.7543650000000000 C
   0.5567650000000000    0.2399400000000000    0.7907299999999999 C
   0.6102900000000000    0.3089900000000000    0.7837300000000000 C
   0.6279399999999999    0.4272500000000000    0.7394100000000000 C
   0.5902450000000000    0.4760400000000000    0.7032950000000000 C
   0.6851550000000000    0.5006400000000000    0.7294150000000000 C
   0.7957850000000000    0.1384300000000000    0.9392400000000001 C
   0.5895400000000000    0.2068300000000000    0.5821900000000000 C
   0.5921550000000000    0.2468600000000000    0.6199749999999999 C
   0.6446400000000000    0.2307000000000000    0.6397450000000000 C
   0.6935850000000000    0.1758700000000000    0.6205900000000000 C
   0.6874400000000001    0.1396100000000000    0.5820000000000000 C
   0.7508300000000000    0.1516900000000000    0.6413400000000000 C
   0.7868750000000000    0.1743500000000000    0.7102450000000000 C
   0.7704000000000000    0.2071800000000000    0.7534900000000000 C
   0.8066100000000000    0.1814600000000000    0.7900800000000000 C
   0.8599350000000000    0.1252600000000000    0.7834650000000001 C
   0.8777200000000001    0.0945800000000000    0.7392050000000000 C
   0.8402149999999999    0.1176200000000000    0.7029600000000000 C
   0.9348300000000000    0.0402000000000000    0.7294700000000001 C
   0.5455550000000000    0.9822000000000000    0.9391800000000000 C
   0.6599450000000000    0.3714200000000000    0.9180050000000000 C
   0.6570700000000000    0.4866300000000000    0.8807900000000000 C
   0.6045650000000000    0.5103500000000000    0.8610400000000000 C
   0.5558250000000000    0.4180200000000000    0.8796999999999999 C
   0.5622500000000000    0.3049400000000000    0.9177750000000000 C
   0.9991399999999999    0.4364100000000000    0.8587549999999999 C
   0.9641649999999999    0.5952600000000000    0.7885800000000001 C
   0.9804050000000000    0.7136500000000000    0.7452050000000000 C
   0.9437450000000001    0.7603900000000000    0.7090100000000000 C
   0.8901650000000000    0.6912300000000000    0.7161600000000000 C
   0.8726350000000000    0.5729800000000000    0.7604900000000000 C
   0.9105000000000000    0.5242900000000000    0.7964500000000000 C
   0.8154000000000000    0.4994800000000000    0.7705800000000000 C
   0.7043600000000000    0.8615600000000000    0.5604700000000000 C
   0.3754750000000000    0.9754000000000000    0.0827700000000000 S
   0.3748150000000000    0.1398900000000000    0.4189050000000000 S
   0.1244850000000000    0.0244700000000000    0.4170900000000000 S
   0.1253300000000000    0.8601300000000000    0.0808600000000000 S
   0.8754750000000000    0.9754000000000000    0.0827700000000000 S
   0.8748150000000000    0.1398900000000000    0.4189050000000000 S
   0.6253299999999999    0.8601300000000000    0.0808600000000000 S
   0.3754750000000000    0.9754000000000000    0.5827700000000000 S
   0.3748150000000000    0.1398900000000000    0.9189050000000001 S
   0.1244850000000000    0.0244700000000000    0.9170900000000000 S
   0.1253300000000000    0.8601300000000000    0.5808600000000000 S
   0.8754750000000000    0.9754000000000000    0.5827700000000000 S
   0.8748150000000000    0.1398900000000000    0.9189050000000001 S
   0.6244850000000000    0.0244700000000000    0.9170900000000000 S
   0.6253299999999999    0.8601300000000000    0.5808600000000000 S
   0.3636800000000000    0.8458900000000000    0.4363700000000000 N
   0.0257950000000000    0.9735100000000000    0.2419400000000000 N
   0.0111550000000000    0.0485200000000000    0.0462700000000000 N
   0.3867600000000000    0.7181300000000000    0.0633750000000000 N
   0.2244100000000000    0.4577600000000000    0.2581850000000000 N
   0.2390100000000000    0.1404000000000000    0.4524500000000000 N
   0.1365900000000000    0.1542300000000000    0.0632850000000000 N
   0.4742150000000000    0.0265200000000000    0.2580350000000000 N
   0.1131150000000000    0.2817300000000000    0.4364550000000000 N
   0.2760900000000000    0.5423200000000000    0.2418700000000000 N
   0.2611350000000000    0.8595900000000000    0.0472200000000000 N
   0.8636800000000000    0.8458900000000000    0.4363700000000000 N
   0.5257950000000000    0.9735100000000000    0.2419400000000000 N
   0.5111550000000000    0.0485200000000000    0.0462700000000000 N
   0.8867600000000000    0.7181300000000000    0.0633750000000000 N