H4 O2
1.0
  18.3529284976848359    0.0000000000000000   -4.9509692544862185
  -3.3693085421426936   11.6717853880320455   -4.7829197989895134
   0.0000000000000000    0.0000000000000000   12.8819999999999997
H O
4 2
direct
   0.6765876104165965    0.5158751588115825    0.7188401192582182 H
   0.6315485026140413    0.5928478283149818    0.7840331718868392 H
   0.8491568267548862    0.2703804679093234    0.4047458598929822 H
   0.8970748133806559    0.1873860140016198    0.3586414952461737 H
   0.6255200000000000    0.5216200000000000    0.7164800000000000 O
   0.9008000000000000    0.2628100000000000    0.4179500000000000 O
