H1 O1
1.0
   6.2857153320668733    0.0000000000000000    0.6074600926969949
   0.6145131703135935    7.8870846679350546    3.7376488939351846
   0.0000000000000000    0.0000000000000000   19.5500000000000007
H O
1 1
direct
   0.1222441413345983    0.7405202423107599    0.5792131370821197 H
   0.0564100000000000    0.8122800000000000    0.5313500000000000 O
