C2 O4
1.0
   6.2857153320668733    0.0000000000000000    0.6074600926969949
   0.6145131703135935    7.8870846679350546    3.7376488939351846
   0.0000000000000000    0.0000000000000000   19.5500000000000007
C O
2 4
direct
   0.1411800000000000    0.7198800000000000    0.5929800000000000 C
   0.3888500000000000    0.7144500000000000    0.5942600000000000 C
   0.0371000000000000    0.6401200000000000    0.6557150000000000 O
   0.0564100000000000    0.8122800000000000    0.5313500000000000 O
   0.4733500000000000    0.6298899999999999    0.6579150000000000 O
   0.4883900000000000    0.8042400000000000    0.5334650000000000 O
