Ba8 C14 O28
1.0
   6.2857153320668733    0.0000000000000000    0.6074600926969949
   0.6145131703135935    7.8870846679350546    3.7376488939351846
   0.0000000000000000    0.0000000000000000   19.5500000000000007
Ba C O
8 14 28
direct
   0.7863300000000000    0.3613400000000000    0.2169300000000000 Ba
   0.2805400000000000    0.0250800000000000    0.4005450000000000 Ba
   0.2136300000000000    0.6385900000000000    0.2831250000000000 Ba
   0.7195400000000000    0.9750100000000000    0.0995100000000000 Ba
   0.7863300000000000    0.3613400000000000    0.7169300000000001 Ba
   0.2805400000000000    0.0250800000000000    0.9005449999999999 Ba
   0.2136300000000000    0.6385900000000000    0.7831250000000001 Ba
   0.7195400000000000    0.9750100000000000    0.5995100000000000 Ba
   0.1826500000000000    0.0892200000000000    0.1636400000000000 C
   0.3253400000000000    0.1816200000000000    0.1916450000000000 C
   0.1411800000000000    0.7198800000000000    0.0929800000000000 C
   0.3888500000000000    0.7144500000000000    0.0942600000000000 C
   0.8173100000000000    0.9105799999999999    0.3364300000000000 C
   0.6745700000000000    0.8181900000000000    0.3084400000000000 C
   0.8588600000000000    0.2801000000000000    0.4070550000000000 C
   0.6111700000000000    0.2855200000000000    0.4058250000000000 C
   0.1826500000000000    0.0892200000000000    0.6636400000000000 C
   0.3253400000000000    0.1816200000000000    0.6916450000000001 C
   0.8173100000000000    0.9105799999999999    0.8364300000000000 C
   0.6745700000000000    0.8181900000000000    0.8084400000000000 C
   0.8588600000000000    0.2801000000000000    0.9070549999999999 C
   0.6111700000000000    0.2855200000000000    0.9058250000000000 C
   0.9890700000000000    0.1455300000000000    0.1529000000000000 O
   0.2691000000000000    0.9583500000000000    0.1560000000000000 O
   0.2389400000000000    0.2350700000000000    0.2396450000000000 O
   0.5188100000000000    0.1933100000000000    0.1665050000000000 O
   0.0371000000000000    0.6401200000000000    0.1557150000000000 O
   0.0564100000000000    0.8122800000000000    0.0313500000000000 O
   0.4733500000000000    0.6298899999999999    0.1579150000000000 O
   0.4883900000000000    0.8042400000000000    0.0334650000000000 O
   0.0109400000000000    0.8546600000000000    0.3470700000000000 O
   0.7309400000000000    0.0414300000000000    0.3440900000000000 O
   0.7609100000000000    0.7647600000000000    0.2604250000000000 O
   0.4811200000000000    0.8065099999999999    0.3336050000000000 O
   0.9628800000000000    0.3598400000000000    0.3443000000000000 O
   0.9436700000000000    0.1877000000000000    0.4686750000000000 O
   0.5265900000000000    0.3697600000000000    0.3421600000000000 O
   0.5116500000000000    0.1960200000000000    0.4666850000000000 O
   0.9890700000000000    0.1455300000000000    0.6529000000000000 O
   0.2691000000000000    0.9583500000000000    0.6560000000000000 O
   0.2389400000000000    0.2350700000000000    0.7396450000000000 O
   0.5188100000000000    0.1933100000000000    0.6665050000000000 O
   0.0109400000000000    0.8546600000000000    0.8470700000000000 O
   0.7309400000000000    0.0414300000000000    0.8440900000000000 O
   0.7609100000000000    0.7647600000000000    0.7604250000000000 O
   0.4811200000000000    0.8065099999999999    0.8336049999999999 O
   0.9628800000000000    0.3598400000000000    0.8443000000000001 O
   0.9436700000000000    0.1877000000000000    0.9686750000000000 O
   0.5265900000000000    0.3697600000000000    0.8421600000000000 O
   0.5116500000000000    0.1960200000000000    0.9666850000000000 O
