H1 C3 O4
1.0
  20.7883099449559161    0.0000000000000000    0.0888925331344119
   0.0432901071446398   13.7929285341612751    0.0098700629704831
   0.0000000000000000    0.0000000000000000   21.9909999999999997
H C O
1 3 4
direct
   0.4194566666666666    0.8543400000000000    0.3325500000000000 H
   0.3612933333333333    0.9722400000000000    0.3656100000000000 C
   0.4197700000000000    0.9340900000000000    0.3302000000000000 C
   0.4807033333333333    0.0000000000000000    0.3603700000000000 C
   0.3220000000000000    0.0249300000000000    0.3360200000000000 O
   0.3557400000000000    0.9498799999999999    0.4213300000000000 O
   0.4945266666666667    0.9414100000000000    0.4134200000000000 O
   0.5136499999999999    0.0329900000000000    0.3305300000000000 O
