H6 O4
1.0
  31.9576506467206194    0.0000000000000000   18.2549440191460839
  10.6246175032419732   30.1929230828362236   18.2317249492125626
   0.0000000000000000    0.0000000000000000   36.8239999999999981
H O
6 4
direct
   0.6932443554999780    0.1094572084444740    0.2536599636209365 H
   0.6931955460235641    0.0036419852217470    0.3595126587384478 H
   0.6971104803016381    0.0526459424130392    0.3027004180584716 H
   0.8067550041680819    0.8905360228600711    0.2463449317667071 H
   0.8068043263391294    0.9963580523001213    0.1404929982178147 H
   0.8028885873871298    0.9473515467891487    0.1973045711569399 H
   0.6832850000000000    0.0972900000000000    0.2857550000000000 O
   0.6832600000000000    0.0357250000000000    0.3473350000000000 O
   0.8167150000000001    0.9027050000000000    0.2142500000000000 O
   0.8167400000000000    0.9642750000000000    0.1526700000000000 O
