Zn64 H188 C376 O204
1.0
  31.9576506467206194    0.0000000000000000   18.2549440191460839
  10.6246175032419732   30.1929230828362236   18.2317249492125626
   0.0000000000000000    0.0000000000000000   36.8239999999999981
Zn H C O
64 188 376 204
direct
   0.1465700000000000    0.0599150000000000    0.3966000000000000 Zn
   0.0597800000000000    0.1465450000000000    0.3965950000000000 Zn
   0.3534350000000000    0.4400850000000000    0.1034050000000000 Zn
   0.3533900000000000    0.3534050000000000    0.1901150000000000 Zn
   0.3529600000000000    0.3531400000000000    0.1031350000000000 Zn
   0.1466100000000000    0.1465900000000000    0.3098900000000000 Zn
   0.1470450000000000    0.1468550000000000    0.3968500000000000 Zn
   0.4402250000000000    0.3534500000000000    0.1034100000000000 Zn
   0.6465700000000000    0.0599150000000000    0.3966000000000000 Zn
   0.5597799999999999    0.1465450000000000    0.3965950000000000 Zn
   0.8534349999999999    0.4400850000000000    0.1034050000000000 Zn
   0.8533900000000000    0.3534050000000000    0.1901150000000000 Zn
   0.8529599999999999    0.3531400000000000    0.1031350000000000 Zn
   0.6466100000000000    0.1465900000000000    0.3098900000000000 Zn
   0.6470450000000000    0.1468550000000000    0.3968500000000000 Zn
   0.9402250000000000    0.3534500000000000    0.1034100000000000 Zn
   0.1465700000000000    0.5599150000000001    0.3966000000000000 Zn
   0.0597800000000000    0.6465450000000000    0.3965950000000000 Zn
   0.3534350000000000    0.9400850000000001    0.1034050000000000 Zn
   0.3533900000000000    0.8534050000000000    0.1901150000000000 Zn
   0.3529600000000000    0.8531400000000000    0.1031350000000000 Zn
   0.1466100000000000    0.6465900000000000    0.3098900000000000 Zn
   0.1470450000000000    0.6468550000000000    0.3968500000000000 Zn
   0.4402250000000000    0.8534500000000000    0.1034100000000000 Zn
   0.6465700000000000    0.5599150000000001    0.3966000000000000 Zn
   0.5597799999999999    0.6465450000000000    0.3965950000000000 Zn
   0.8534349999999999    0.9400850000000001    0.1034050000000000 Zn
   0.8533900000000000    0.8534050000000000    0.1901150000000000 Zn
   0.8529599999999999    0.8531400000000000    0.1031350000000000 Zn
   0.6466100000000000    0.6465900000000000    0.3098900000000000 Zn
   0.6470450000000000    0.6468550000000000    0.3968500000000000 Zn
   0.9402250000000000    0.8534500000000000    0.1034100000000000 Zn
   0.1465700000000000    0.0599150000000000    0.8966000000000001 Zn
   0.0597800000000000    0.1465450000000000    0.8965950000000000 Zn
   0.3534350000000000    0.4400850000000000    0.6034050000000000 Zn
   0.3533900000000000    0.3534050000000000    0.6901150000000000 Zn
   0.3529600000000000    0.3531400000000000    0.6031350000000000 Zn
   0.1466100000000000    0.1465900000000000    0.8098900000000000 Zn
   0.1470450000000000    0.1468550000000000    0.8968499999999999 Zn
   0.4402250000000000    0.3534500000000000    0.6034100000000000 Zn
   0.6465700000000000    0.0599150000000000    0.8966000000000001 Zn
   0.5597799999999999    0.1465450000000000    0.8965950000000000 Zn
   0.8534349999999999    0.4400850000000000    0.6034050000000000 Zn
   0.8533900000000000    0.3534050000000000    0.6901150000000000 Zn
   0.8529599999999999    0.3531400000000000    0.6031350000000000 Zn
   0.6466100000000000    0.1465900000000000    0.8098900000000000 Zn
   0.6470450000000000    0.1468550000000000    0.8968499999999999 Zn
   0.9402250000000000    0.3534500000000000    0.6034100000000000 Zn
   0.1465700000000000    0.5599150000000001    0.8966000000000001 Zn
   0.0597800000000000    0.6465450000000000    0.8965950000000000 Zn
   0.3534350000000000    0.9400850000000001    0.6034050000000000 Zn
   0.3533900000000000    0.8534050000000000    0.6901150000000000 Zn
   0.3529600000000000    0.8531400000000000    0.6031350000000000 Zn
   0.1466100000000000    0.6465900000000000    0.8098900000000000 Zn
   0.1470450000000000    0.6468550000000000    0.8968499999999999 Zn
   0.4402250000000000    0.8534500000000000    0.6034100000000000 Zn
   0.6465700000000000    0.5599150000000001    0.8966000000000001 Zn
   0.5597799999999999    0.6465450000000000    0.8965950000000000 Zn
   0.8534349999999999    0.9400850000000001    0.6034050000000000 Zn
   0.8533900000000000    0.8534050000000000    0.6901150000000000 Zn
   0.8529599999999999    0.8531400000000000    0.6031350000000000 Zn
   0.6466100000000000    0.6465900000000000    0.8098900000000000 Zn
   0.6470450000000000    0.6468550000000000    0.8968499999999999 Zn
   0.9402250000000000    0.8534500000000000    0.6034100000000000 Zn
   0.2751450000000000    0.0339500000000000    0.1679250000000000 H
   0.2731050000000000    0.4179350000000000    0.2839350000000000 H
   0.2748700000000000    0.0336600000000000    0.0241100000000000 H
   0.2732850000000000    0.4179600000000000    0.0238950000000000 H
   0.0341600000000000    0.4179350000000000    0.0240000000000000 H
   0.4658200000000000    0.2249400000000000    0.3320700000000000 H
   0.0821950000000000    0.2267850000000000    0.2160950000000000 H
   0.4661900000000000    0.2251900000000000    0.4760000000000000 H
   0.0821650000000000    0.2265700000000000    0.4760300000000000 H
   0.0821900000000000    0.4660700000000000    0.4756300000000000 H
   0.2248600000000000    0.4660450000000000    0.3320800000000000 H
   0.2269000000000000    0.0820600000000000    0.2160700000000000 H
   0.2251300000000000    0.4663400000000000    0.4758950000000000 H
   0.2267200000000000    0.0820400000000000    0.4761100000000000 H
   0.4658450000000000    0.0820600000000000    0.4758000000000000 H
   0.0341800000000000    0.2750600000000000    0.1679300000000000 H
   0.4178100000000000    0.2732100000000000    0.2839100000000000 H
   0.0338150000000000    0.2748050000000000    0.0240050000000000 H
   0.4178350000000000    0.2734250000000000    0.0239700000000000 H
   0.4178100000000000    0.0339250000000000    0.0243750000000000 H
   0.2736250000000000    0.2737000000000000    0.1679250000000000 H
   0.2743850000000000    0.2744400000000000    0.2838100000000000 H
   0.2263750000000000    0.2262950000000000    0.3320800000000000 H
   0.2256150000000000    0.2255600000000000    0.2161950000000000 H
   0.7731049999999999    0.4179350000000000    0.2839350000000000 H
   0.7748699999999999    0.0336600000000000    0.0241100000000000 H
   0.7732850000000000    0.4179600000000000    0.0238950000000000 H
   0.5341600000000000    0.4179350000000000    0.0240000000000000 H
   0.9658200000000000    0.2249400000000000    0.3320700000000000 H
   0.5821950000000000    0.2267850000000000    0.2160950000000000 H
   0.9661900000000000    0.2251900000000000    0.4760000000000000 H
   0.5821650000000000    0.2265700000000000    0.4760300000000000 H
   0.5821900000000000    0.4660700000000000    0.4756300000000000 H
   0.7248600000000001    0.4660450000000000    0.3320800000000000 H
   0.7251300000000001    0.4663400000000000    0.4758950000000000 H
   0.7267200000000000    0.0820400000000000    0.4761100000000000 H
   0.9658450000000001    0.0820600000000000    0.4758000000000000 H
   0.5341800000000000    0.2750600000000000    0.1679300000000000 H
   0.9178100000000000    0.2732100000000000    0.2839100000000000 H
   0.5338150000000000    0.2748050000000000    0.0240050000000000 H
   0.9178350000000000    0.2734250000000000    0.0239700000000000 H
   0.9178100000000000    0.0339250000000000    0.0243750000000000 H
   0.7736250000000000    0.2737000000000000    0.1679250000000000 H
   0.7743850000000000    0.2744400000000000    0.2838100000000000 H
   0.7263750000000000    0.2262950000000000    0.3320800000000000 H
   0.7256150000000000    0.2255600000000000    0.2161950000000000 H
   0.2751450000000000    0.5339500000000000    0.1679250000000000 H
   0.2731050000000000    0.9179349999999999    0.2839350000000000 H
   0.2748700000000000    0.5336600000000000    0.0241100000000000 H
   0.2732850000000000    0.9179600000000000    0.0238950000000000 H
   0.0341600000000000    0.9179349999999999    0.0240000000000000 H
   0.4658200000000000    0.7249400000000000    0.3320700000000000 H
   0.0821950000000000    0.7267850000000000    0.2160950000000000 H
   0.4661900000000000    0.7251900000000000    0.4760000000000000 H
   0.0821650000000000    0.7265699999999999    0.4760300000000000 H
   0.0821900000000000    0.9660700000000000    0.4756300000000000 H
   0.2248600000000000    0.9660450000000000    0.3320800000000000 H
   0.2269000000000000    0.5820600000000000    0.2160700000000000 H
   0.2251300000000000    0.9663400000000000    0.4758950000000000 H
   0.2267200000000000    0.5820400000000000    0.4761100000000000 H
   0.4658450000000000    0.5820600000000000    0.4758000000000000 H
   0.0341800000000000    0.7750600000000001    0.1679300000000000 H
   0.4178100000000000    0.7732100000000000    0.2839100000000000 H
   0.0338150000000000    0.7748050000000000    0.0240050000000000 H
   0.4178350000000000    0.7734250000000000    0.0239700000000000 H
   0.4178100000000000    0.5339250000000000    0.0243750000000000 H
   0.2736250000000000    0.7737000000000001    0.1679250000000000 H
   0.2743850000000000    0.7744400000000000    0.2838100000000000 H
   0.2263750000000000    0.7262950000000000    0.3320800000000000 H
   0.2256150000000000    0.7255600000000000    0.2161950000000000 H
   0.7751450000000000    0.5339500000000000    0.1679250000000000 H
   0.7748699999999999    0.5336600000000000    0.0241100000000000 H
   0.7732850000000000    0.9179600000000000    0.0238950000000000 H
   0.5341600000000000    0.9179349999999999    0.0240000000000000 H
   0.9658200000000000    0.7249400000000000    0.3320700000000000 H
   0.5821950000000000    0.7267850000000000    0.2160950000000000 H
   0.9661900000000000    0.7251900000000000    0.4760000000000000 H
   0.5821650000000000    0.7265699999999999    0.4760300000000000 H
   0.5821900000000000    0.9660700000000000    0.4756300000000000 H
   0.7269000000000000    0.5820600000000000    0.2160700000000000 H
   0.7251300000000001    0.9663400000000000    0.4758950000000000 H
   0.7267200000000000    0.5820400000000000    0.4761100000000000 H
   0.9658450000000001    0.5820600000000000    0.4758000000000000 H
   0.5341800000000000    0.7750600000000001    0.1679300000000000 H
   0.9178100000000000    0.7732100000000000    0.2839100000000000 H
   0.5338150000000000    0.7748050000000000    0.0240050000000000 H
   0.9178350000000000    0.7734250000000000    0.0239700000000000 H
   0.9178100000000000    0.5339250000000000    0.0243750000000000 H
   0.7736250000000000    0.7737000000000001    0.1679250000000000 H
   0.7743850000000000    0.7744400000000000    0.2838100000000000 H
   0.7263750000000000    0.7262950000000000    0.3320800000000000 H
   0.7256150000000000    0.7255600000000000    0.2161950000000000 H
   0.2751450000000000    0.0339500000000000    0.6679250000000000 H
   0.2731050000000000    0.4179350000000000    0.7839350000000000 H
   0.2748700000000000    0.0336600000000000    0.5241100000000000 H
   0.2732850000000000    0.4179600000000000    0.5238950000000000 H
   0.0341600000000000    0.4179350000000000    0.5240000000000000 H
   0.4658200000000000    0.2249400000000000    0.8320700000000000 H
   0.0821950000000000    0.2267850000000000    0.7160950000000000 H
   0.4661900000000000    0.2251900000000000    0.9760000000000000 H
   0.0821650000000000    0.2265700000000000    0.9760300000000000 H
   0.0821900000000000    0.4660700000000000    0.9756300000000000 H
   0.2248600000000000    0.4660450000000000    0.8320799999999999 H
   0.2269000000000000    0.0820600000000000    0.7160700000000000 H
   0.2251300000000000    0.4663400000000000    0.9758950000000000 H
   0.2267200000000000    0.0820400000000000    0.9761100000000000 H
   0.4658450000000000    0.0820600000000000    0.9758000000000000 H
   0.0341800000000000    0.2750600000000000    0.6679300000000000 H
   0.4178100000000000    0.2732100000000000    0.7839100000000000 H
   0.0338150000000000    0.2748050000000000    0.5240050000000001 H
   0.4178350000000000    0.2734250000000000    0.5239700000000000 H
   0.4178100000000000    0.0339250000000000    0.5243750000000000 H
   0.2736250000000000    0.2737000000000000    0.6679250000000000 H
   0.2743850000000000    0.2744400000000000    0.7838100000000000 H
   0.2263750000000000    0.2262950000000000    0.8320799999999999 H
   0.2256150000000000    0.2255600000000000    0.7161950000000000 H
   0.7751450000000000    0.0339500000000000    0.6679250000000000 H
   0.7731049999999999    0.4179350000000000    0.7839350000000000 H
   0.7748699999999999    0.0336600000000000    0.5241100000000000 H
   0.7732850000000000    0.4179600000000000    0.5238950000000000 H
   0.5341600000000000    0.4179350000000000    0.5240000000000000 H
   0.9658200000000000    0.2249400000000000    0.8320700000000000 H
   0.5821950000000000    0.2267850000000000    0.7160950000000000 H
   0.9661900000000000    0.2251900000000000    0.9760000000000000 H
   0.5821650000000000    0.2265700000000000    0.9760300000000000 H
   0.5821900000000000    0.4660700000000000    0.9756300000000000 H
   0.7248600000000001    0.4660450000000000    0.8320799999999999 H
   0.7269000000000000    0.0820600000000000    0.7160700000000000 H
   0.7251300000000001    0.4663400000000000    0.9758950000000000 H
   0.7267200000000000    0.0820400000000000    0.9761100000000000 H
   0.9658450000000001    0.0820600000000000    0.9758000000000000 H
   0.5341800000000000    0.2750600000000000    0.6679300000000000 H
   0.9178100000000000    0.2732100000000000    0.7839100000000000 H
   0.5338150000000000    0.2748050000000000    0.5240050000000001 H
   0.9178350000000000    0.2734250000000000    0.5239700000000000 H
   0.9178100000000000    0.0339250000000000    0.5243750000000000 H
   0.7736250000000000    0.2737000000000000    0.6679250000000000 H
   0.7743850000000000    0.2744400000000000    0.7838100000000000 H
   0.7263750000000000    0.2262950000000000    0.8320799999999999 H
   0.7256150000000000    0.2255600000000000    0.7161950000000000 H
   0.2751450000000000    0.5339500000000000    0.6679250000000000 H
   0.2731050000000000    0.9179349999999999    0.7839350000000000 H
   0.2748700000000000    0.5336600000000000    0.5241100000000000 H
   0.2732850000000000    0.9179600000000000    0.5238950000000000 H
   0.0341600000000000    0.9179349999999999    0.5240000000000000 H
   0.4658200000000000    0.7249400000000000    0.8320700000000000 H
   0.0821950000000000    0.7267850000000000    0.7160950000000000 H
   0.4661900000000000    0.7251900000000000    0.9760000000000000 H
   0.0821650000000000    0.7265699999999999    0.9760300000000000 H
   0.0821900000000000    0.9660700000000000    0.9756300000000000 H
   0.2248600000000000    0.9660450000000000    0.8320799999999999 H
   0.2269000000000000    0.5820600000000000    0.7160700000000000 H
   0.2251300000000000    0.9663400000000000    0.9758950000000000 H
   0.2267200000000000    0.5820400000000000    0.9761100000000000 H
   0.4658450000000000    0.5820600000000000    0.9758000000000000 H
   0.0341800000000000    0.7750600000000001    0.6679300000000000 H
   0.4178100000000000    0.7732100000000000    0.7839100000000000 H
   0.0338150000000000    0.7748050000000000    0.5240050000000001 H
   0.4178350000000000    0.7734250000000000    0.5239700000000000 H
   0.4178100000000000    0.5339250000000000    0.5243750000000000 H
   0.2736250000000000    0.7737000000000001    0.6679250000000000 H
   0.2743850000000000    0.7744400000000000    0.7838100000000000 H
   0.2263750000000000    0.7262950000000000    0.8320799999999999 H
   0.2256150000000000    0.7255600000000000    0.7161950000000000 H
   0.7751450000000000    0.5339500000000000    0.6679250000000000 H
   0.7731049999999999    0.9179349999999999    0.7839350000000000 H
   0.7748699999999999    0.5336600000000000    0.5241100000000000 H
   0.7732850000000000    0.9179600000000000    0.5238950000000000 H
   0.5341600000000000    0.9179349999999999    0.5240000000000000 H
   0.9658200000000000    0.7249400000000000    0.8320700000000000 H
   0.5821950000000000    0.7267850000000000    0.7160950000000000 H
   0.9661900000000000    0.7251900000000000    0.9760000000000000 H
   0.5821650000000000    0.7265699999999999    0.9760300000000000 H
   0.5821900000000000    0.9660700000000000    0.9756300000000000 H
   0.7248600000000001    0.9660450000000000    0.8320799999999999 H
   0.7269000000000000    0.5820600000000000    0.7160700000000000 H
   0.7251300000000001    0.9663400000000000    0.9758950000000000 H
   0.7267200000000000    0.5820400000000000    0.9761100000000000 H
   0.9658450000000001    0.5820600000000000    0.9758000000000000 H
   0.5341800000000000    0.7750600000000001    0.6679300000000000 H
   0.9178100000000000    0.7732100000000000    0.7839100000000000 H
   0.5338150000000000    0.7748050000000000    0.5240050000000001 H
   0.9178350000000000    0.7734250000000000    0.5239700000000000 H
   0.9178100000000000    0.5339250000000000    0.5243750000000000 H
   0.7736250000000000    0.7737000000000001    0.6679250000000000 H
   0.7743850000000000    0.7744400000000000    0.7838100000000000 H
   0.7263750000000000    0.7262950000000000    0.8320799999999999 H
   0.7256150000000000    0.7255600000000000    0.7161950000000000 H
   0.3056600000000000    0.4445350000000000    0.1945150000000000 C
   0.2768800000000000    0.4731900000000000    0.2231800000000000 C
   0.2639300000000000    0.0194700000000000    0.2038800000000000 C
   0.2627850000000000    0.4538850000000000    0.2694650000000000 C
   0.3055200000000000    0.4442650000000000    0.0554300000000000 C
   0.2768650000000000    0.4730250000000000    0.0267650000000000 C
   0.2637750000000000    0.0193000000000000    0.0133500000000000 C
   0.2628900000000000    0.4538950000000000    0.0132500000000000 C
   0.0195800000000000    0.4538850000000000    0.0134000000000000 C
   0.0553900000000000    0.1943000000000000    0.3055200000000000 C
   0.0267600000000000    0.2230750000000000    0.2768450000000000 C
   0.4804100000000000    0.2361200000000000    0.2961200000000000 C
   0.0461850000000000    0.2371600000000000    0.2305600000000000 C
   0.0557200000000000    0.1943850000000000    0.4445950000000000 C
   0.0269550000000000    0.2230850000000000    0.4732600000000000 C
   0.4806150000000000    0.2362600000000000    0.4867050000000000 C
   0.0461700000000000    0.2370300000000000    0.4867100000000000 C
   0.0461800000000000    0.4805400000000000    0.4865100000000000 C
   0.1943450000000000    0.0554600000000000    0.3054900000000000 C
   0.2231250000000000    0.0268050000000000    0.2768250000000000 C
   0.2360750000000000    0.4805250000000000    0.2961250000000000 C
   0.2372200000000000    0.0461100000000000    0.2305400000000000 C
   0.1944850000000000    0.0557350000000000    0.4445750000000000 C
   0.2231400000000000    0.0269750000000000    0.4732400000000000 C
   0.2362250000000000    0.4806950000000000    0.4866450000000000 C
   0.2371100000000000    0.0461000000000000    0.4867550000000000 C
   0.4804200000000000    0.0461150000000000    0.4866050000000000 C
   0.4446150000000000    0.3057000000000000    0.1944850000000000 C
   0.4732400000000000    0.2769200000000000    0.2231600000000000 C
   0.0195900000000000    0.2638750000000000    0.2038850000000000 C
   0.4538200000000000    0.2628350000000000    0.2694450000000000 C
   0.4442850000000000    0.3056100000000000    0.0554100000000000 C
   0.4730500000000000    0.2769150000000000    0.0267450000000000 C
   0.0193850000000000    0.2637350000000000    0.0133000000000000 C
   0.4538350000000000    0.2629700000000000    0.0132950000000000 C
   0.4538200000000000    0.0194550000000000    0.0134950000000000 C
   0.3054000000000000    0.3055350000000000    0.1943650000000000 C
   0.2767700000000000    0.2768550000000000    0.2230900000000000 C
   0.2631000000000000    0.2631250000000000    0.2038800000000000 C
   0.2635200000000000    0.2635300000000000    0.2693850000000000 C
   0.4446000000000000    0.4445150000000000    0.0559350000000000 C
   0.4732350000000000    0.4731700000000000    0.0270850000000000 C
   0.1946050000000000    0.1944600000000000    0.3056400000000000 C
   0.2232350000000000    0.2231450000000000    0.2769150000000000 C
   0.2369050000000000    0.2368750000000000    0.2961250000000000 C
   0.2364850000000000    0.2364650000000000    0.2306200000000000 C
   0.0554000000000000    0.0554800000000000    0.4440650000000000 C
   0.0267700000000000    0.0268250000000000    0.4729200000000000 C
   0.8056600000000000    0.4445350000000000    0.1945150000000000 C
   0.7768800000000000    0.4731900000000000    0.2231800000000000 C
   0.7627850000000000    0.4538850000000000    0.2694650000000000 C
   0.8055200000000000    0.4442650000000000    0.0554300000000000 C
   0.7768650000000000    0.4730250000000000    0.0267650000000000 C
   0.7637750000000000    0.0193000000000000    0.0133500000000000 C
   0.7628900000000001    0.4538950000000000    0.0132500000000000 C
   0.5195800000000000    0.4538850000000000    0.0134000000000000 C
   0.5553900000000001    0.1943000000000000    0.3055200000000000 C
   0.5267600000000000    0.2230750000000000    0.2768450000000000 C
   0.9804100000000000    0.2361200000000000    0.2961200000000000 C
   0.5461850000000000    0.2371600000000000    0.2305600000000000 C
   0.5557200000000000    0.1943850000000000    0.4445950000000000 C
   0.5269550000000000    0.2230850000000000    0.4732600000000000 C
   0.9806150000000000    0.2362600000000000    0.4867050000000000 C
   0.5461700000000000    0.2370300000000000    0.4867100000000000 C
   0.5461800000000000    0.4805400000000000    0.4865100000000000 C
   0.7360750000000000    0.4805250000000000    0.2961250000000000 C
   0.6944850000000000    0.0557350000000000    0.4445750000000000 C
   0.7231400000000000    0.0269750000000000    0.4732400000000000 C
   0.7362250000000000    0.4806950000000000    0.4866450000000000 C
   0.7371099999999999    0.0461000000000000    0.4867550000000000 C
   0.9804200000000001    0.0461150000000000    0.4866050000000000 C
   0.9446150000000000    0.3057000000000000    0.1944850000000000 C
   0.9732400000000000    0.2769200000000000    0.2231600000000000 C
   0.5195900000000000    0.2638750000000000    0.2038850000000000 C
   0.9538200000000000    0.2628350000000000    0.2694450000000000 C
   0.9442850000000000    0.3056100000000000    0.0554100000000000 C
   0.9730500000000000    0.2769150000000000    0.0267450000000000 C
   0.5193850000000000    0.2637350000000000    0.0133000000000000 C
   0.9538350000000000    0.2629700000000000    0.0132950000000000 C
   0.9538200000000000    0.0194550000000000    0.0134950000000000 C
   0.8054000000000000    0.3055350000000000    0.1943650000000000 C
   0.7767700000000000    0.2768550000000000    0.2230900000000000 C
   0.7631000000000000    0.2631250000000000    0.2038800000000000 C
   0.7635200000000000    0.2635300000000000    0.2693850000000000 C
   0.9446000000000000    0.4445150000000000    0.0559350000000000 C
   0.9732350000000001    0.4731700000000000    0.0270850000000000 C
   0.6946050000000000    0.1944600000000000    0.3056400000000000 C
   0.7232350000000000    0.2231450000000000    0.2769150000000000 C
   0.7369050000000000    0.2368750000000000    0.2961250000000000 C
   0.7364850000000001    0.2364650000000000    0.2306200000000000 C
   0.5554000000000000    0.0554800000000000    0.4440650000000000 C
   0.5267700000000000    0.0268250000000000    0.4729200000000000 C
   0.3056600000000000    0.9445350000000000    0.1945150000000000 C
   0.2768800000000000    0.9731900000000000    0.2231800000000000 C
   0.2639300000000000    0.5194700000000000    0.2038800000000000 C
   0.2627850000000000    0.9538850000000000    0.2694650000000000 C
   0.3055200000000000    0.9442650000000000    0.0554300000000000 C
   0.2768650000000000    0.9730250000000000    0.0267650000000000 C
   0.2637750000000000    0.5193000000000000    0.0133500000000000 C
   0.2628900000000000    0.9538949999999999    0.0132500000000000 C
   0.0195800000000000    0.9538850000000000    0.0134000000000000 C
   0.0553900000000000    0.6943000000000000    0.3055200000000000 C
   0.0267600000000000    0.7230750000000000    0.2768450000000000 C
   0.4804100000000000    0.7361200000000000    0.2961200000000000 C
   0.0461850000000000    0.7371600000000000    0.2305600000000000 C
   0.0557200000000000    0.6943850000000000    0.4445950000000000 C
   0.0269550000000000    0.7230850000000000    0.4732600000000000 C
   0.4806150000000000    0.7362600000000000    0.4867050000000000 C
   0.0461700000000000    0.7370300000000000    0.4867100000000000 C
   0.0461800000000000    0.9805400000000000    0.4865100000000000 C
   0.1943450000000000    0.5554600000000000    0.3054900000000000 C
   0.2231250000000000    0.5268050000000000    0.2768250000000000 C
   0.2360750000000000    0.9805250000000000    0.2961250000000000 C
   0.2372200000000000    0.5461100000000000    0.2305400000000000 C
   0.1944850000000000    0.5557350000000000    0.4445750000000000 C
   0.2231400000000000    0.5269750000000000    0.4732400000000000 C
   0.2362250000000000    0.9806950000000000    0.4866450000000000 C
   0.2371100000000000    0.5461000000000000    0.4867550000000000 C
   0.4804200000000000    0.5461150000000000    0.4866050000000000 C
   0.4446150000000000    0.8057000000000001    0.1944850000000000 C
   0.4732400000000000    0.7769200000000001    0.2231600000000000 C
   0.0195900000000000    0.7638750000000001    0.2038850000000000 C
   0.4538200000000000    0.7628349999999999    0.2694450000000000 C
   0.4442850000000000    0.8056099999999999    0.0554100000000000 C
   0.4730500000000000    0.7769150000000000    0.0267450000000000 C
   0.0193850000000000    0.7637350000000001    0.0133000000000000 C
   0.4538350000000000    0.7629699999999999    0.0132950000000000 C
   0.4538200000000000    0.5194550000000000    0.0134950000000000 C
   0.3054000000000000    0.8055350000000000    0.1943650000000000 C
   0.2767700000000000    0.7768550000000001    0.2230900000000000 C
   0.2631000000000000    0.7631250000000001    0.2038800000000000 C
   0.2635200000000000    0.7635300000000000    0.2693850000000000 C
   0.4446000000000000    0.9445150000000000    0.0559350000000000 C
   0.4732350000000000    0.9731700000000000    0.0270850000000000 C
   0.1946050000000000    0.6944600000000000    0.3056400000000000 C
   0.2232350000000000    0.7231450000000000    0.2769150000000000 C
   0.2369050000000000    0.7368749999999999    0.2961250000000000 C
   0.2364850000000000    0.7364650000000000    0.2306200000000000 C
   0.0554000000000000    0.5554800000000000    0.4440650000000000 C
   0.0267700000000000    0.5268250000000000    0.4729200000000000 C
   0.7639300000000000    0.5194700000000000    0.2038800000000000 C
   0.8055200000000000    0.9442650000000000    0.0554300000000000 C
   0.7768650000000000    0.9730250000000000    0.0267650000000000 C
   0.7637750000000000    0.5193000000000000    0.0133500000000000 C
   0.7628900000000001    0.9538949999999999    0.0132500000000000 C
   0.5195800000000000    0.9538850000000000    0.0134000000000000 C
   0.5553900000000001    0.6943000000000000    0.3055200000000000 C
   0.5267600000000000    0.7230750000000000    0.2768450000000000 C
   0.9804100000000000    0.7361200000000000    0.2961200000000000 C
   0.5461850000000000    0.7371600000000000    0.2305600000000000 C
   0.5557200000000000    0.6943850000000000    0.4445950000000000 C
   0.5269550000000000    0.7230850000000000    0.4732600000000000 C
   0.9806150000000000    0.7362600000000000    0.4867050000000000 C
   0.5461700000000000    0.7370300000000000    0.4867100000000000 C
   0.5461800000000000    0.9805400000000000    0.4865100000000000 C
   0.6943450000000000    0.5554600000000000    0.3054900000000000 C
   0.7231250000000000    0.5268050000000000    0.2768250000000000 C
   0.7372200000000000    0.5461100000000000    0.2305400000000000 C
   0.6944850000000000    0.5557350000000000    0.4445750000000000 C
   0.7231400000000000    0.5269750000000000    0.4732400000000000 C
   0.7362250000000000    0.9806950000000000    0.4866450000000000 C
   0.7371099999999999    0.5461000000000000    0.4867550000000000 C
   0.9804200000000001    0.5461150000000000    0.4866050000000000 C
   0.9446150000000000    0.8057000000000001    0.1944850000000000 C
   0.9732400000000000    0.7769200000000001    0.2231600000000000 C
   0.5195900000000000    0.7638750000000001    0.2038850000000000 C
   0.9538200000000000    0.7628349999999999    0.2694450000000000 C
   0.9442850000000000    0.8056099999999999    0.0554100000000000 C
   0.9730500000000000    0.7769150000000000    0.0267450000000000 C
   0.5193850000000000    0.7637350000000001    0.0133000000000000 C
   0.9538350000000000    0.7629699999999999    0.0132950000000000 C
   0.9538200000000000    0.5194550000000000    0.0134950000000000 C
   0.8054000000000000    0.8055350000000000    0.1943650000000000 C
   0.7767700000000000    0.7768550000000001    0.2230900000000000 C
   0.7631000000000000    0.7631250000000001    0.2038800000000000 C
   0.7635200000000000    0.7635300000000000    0.2693850000000000 C
   0.9446000000000000    0.9445150000000000    0.0559350000000000 C
   0.9732350000000001    0.9731700000000000    0.0270850000000000 C
   0.6946050000000000    0.6944600000000000    0.3056400000000000 C
   0.7232350000000000    0.7231450000000000    0.2769150000000000 C
   0.7369050000000000    0.7368749999999999    0.2961250000000000 C
   0.7364850000000001    0.7364650000000000    0.2306200000000000 C
   0.5554000000000000    0.5554800000000000    0.4440650000000000 C
   0.5267700000000000    0.5268250000000000    0.4729200000000000 C