H4 C8 O4
1.0
  19.2118674484698140    0.0000000000000000    0.7370380875001369
  -0.0900471679326343   21.5741471045139335   -4.4525171779949826
   0.0000000000000000    0.0000000000000000   18.9729999999999990
H C O
4 8 4
direct
   0.8911400000000000    0.8023400000000001    0.2408200000000000 H
   0.8878000000000000    0.8628500000000000    0.3675000000000000 H
   0.1116900000000000    0.8661700000000000    0.3642500000000000 H
   0.1146000000000000    0.8059700000000000    0.2377000000000000 H
   0.0031100000000000    0.8021100000000000    0.2307800000000000 C
   0.9391500000000000    0.8163100000000000    0.2683100000000000 C
   0.9373100000000000    0.8499200000000000    0.3388900000000000 C
   0.9995200000000000    0.8697000000000000    0.3730700000000000 C
   0.0635200000000000    0.8519000000000000    0.3371000000000000 C
   0.0652300000000000    0.8183200000000000    0.2666900000000000 C
   0.0062300000000000    0.7747700000000000    0.1516900000000000 C
   0.9979800000000000    0.9124600000000000    0.4453600000000000 C
   0.0669200000000000    0.7625000000000000    0.1221900000000000 O
   0.9500700000000000    0.7678000000000000    0.1176100000000000 O
   0.0560000000000000    0.9310100000000000    0.4727000000000000 O
   0.9391800000000000   -0.0711600000000000    0.4759400000000000 O
