H24 C25 N4 O4
1.0
  30.7540012514889725    0.0000000000000000  -17.4302583751192515
 -10.1774077368776528   14.4322566502633478   -0.2031273941946776
   0.0000000000000000    0.0000000000000000   35.3680000000000021
H C N O
24 25 4 4
direct
   0.1051750000000000    0.4643800000000000    0.4035750000000000 H
   0.1307200000000000    0.3570300000000000    0.4130750000000000 H
   0.1586600000000000    0.2724400000000000    0.4578300000000000 H
   0.1186600000000000    0.2147800000000000    0.3967200000000000 H
   0.0917800000000000    0.0982700000000000    0.4778350000000000 H
   0.1317550000000000    0.0559600000000000    0.4889700000000000 H
   0.3280850000000000    0.1922500000000000    0.4514050000000000 H
   0.2654500000000000    0.1747100000000000    0.4678900000000000 H
   0.1647450000000000    0.1531900000000000    0.3260050000000000 H
   0.2345050000000000    0.1755900000000000    0.3163100000000000 H
   0.1786000000000000    0.0859900000000000    0.4513850000000000 H
   0.2111000000000000    0.2085600000000000    0.4726300000000000 H
   0.0853450000000000    0.8219400000000000    0.4118100000000000 H
   0.0153750000000000    0.6629900000000000    0.3531500000000000 H
   0.0718050000000000    0.0458400000000000    0.3647800000000000 H
   0.0393450000000000    0.0232100000000000    0.3935350000000000 H
   0.9992700000000000    0.1769200000000000    0.4239550000000000 H
   0.9781400000000000    0.2936700000000000    0.4120450000000000 H
   0.9220550000000001    0.7469100000000000    0.2682650000000000 H
   0.9849250000000001    0.9052300000000000    0.3222450000000000 H
   0.1446750000000000    0.0966200000000000    0.6269050000000000 H
   0.1193950000000000    0.0645600000000000    0.5478499999999999 H
   0.2511050000000000    0.3494300000000000    0.5895500000000000 H
   0.2719750000000000    0.3678100000000000    0.6689250000000000 H
   0.0826900000000000    0.4006200000000000    0.4085450000000000 C
   0.0972700000000000    0.3393900000000000    0.4143000000000000 C
   0.0672900000000000    0.2575300000000000    0.4202250000000000 C
   0.0238400000000000    0.2402400000000000    0.4199000000000000 C
   0.0121300000000000    0.3048600000000000    0.4136450000000000 C
   0.1224350000000000    0.2081500000000000    0.4290900000000000 C
   0.1280050000000000    0.1132600000000000    0.4819450000000000 C
   0.2914150000000000    0.1827300000000000    0.4241550000000000 C
   0.2553400000000000    0.1720400000000000    0.4332250000000000 C
   0.2087250000000000    0.1607400000000000    0.3975850000000000 C
   0.2003200000000000    0.1610100000000000    0.3544500000000000 C
   0.2385700000000000    0.1726900000000000    0.3487250000000000 C
   0.1753800000000000    0.1436700000000000    0.4440350000000000 C
   0.0415200000000000    0.8776100000000000    0.3718050000000000 C
   0.0497900000000000    0.8078800000000000    0.3802050000000000 C
   0.0114200000000000    0.7199100000000000    0.3477400000000000 C
   0.0750400000000000    0.0374300000000000    0.3965000000000000 C
   0.1252200000000000    0.1256300000000000    0.4379750000000000 C
   0.9587250000000000    0.7655600000000000    0.3001150000000000 C
   0.9949100000000000    0.8558900000000000    0.3309150000000000 C
   0.1672850000000000    0.1515700000000000    0.6176250000000000 C
   0.1528600000000000    0.1339600000000000    0.5725250000000000 C
   0.1829900000000000    0.2058200000000000    0.5617150000000000 C
   0.2264250000000000    0.2921100000000000    0.5965650000000000 C
   0.2379900000000000    0.3029900000000000    0.6404850000000000 C
   0.0410350000000000    0.3847300000000000    0.4082050000000000 N
   0.2837350000000000    0.1831200000000000    0.3828350000000000 N
   0.9662750000000000    0.6980200000000000    0.3078550000000000 N
   0.2089450000000000    0.2342400000000000    0.6513850000000000 N
   0.0766700000000000    0.1913700000000000    0.4260950000000000 O
   0.1700950000000000    0.1498600000000000    0.4013550000000000 O
   0.0802600000000000    0.9624400000000000    0.4050500000000000 O
   0.1737750000000000    0.1988200000000000    0.5193600000000000 O
