H3 C7 N1 O4
1.0
  30.7540012514889725    0.0000000000000000  -17.4302583751192515
 -10.1774077368776528   14.4322566502633478   -0.2031273941946776
   0.0000000000000000    0.0000000000000000   35.3680000000000021
H C N O
3 7 1 4
direct
   0.0819000000000000    0.7611100000000000    0.4975650000000000 H
   0.9337700000000000    0.5185700000000000    0.4645500000000000 H
   0.0077150000000000    0.6906500000000000    0.5066500000000000 H
   0.0079100000000000    0.6474500000000000    0.4846100000000000 C
   0.0498750000000000    0.6877100000000000    0.4796650000000000 C
   0.0503150000000000    0.6317300000000000    0.4519200000000000 C
   0.0932350000000000    0.6656800000000000    0.4430050000000000 C
   0.9301200000000001    0.3986300000000000    0.4077550000000000 C
   0.9701299999999999    0.5011500000000000    0.4344300000000000 C
   0.9672149999999999    0.5528900000000000    0.4616800000000000 C
   0.0109950000000000    0.5409900000000000    0.4304250000000000 N
   0.0861750000000000    0.6023700000000000    0.4163050000000000 O
   0.1303950000000000    0.7497700000000000    0.4611900000000000 O
   0.9377450000000001    0.3620400000000000    0.3838750000000000 O
   0.8914299999999999    0.3554800000000000    0.4118750000000000 O
