H4 C8 O4
1.0
  19.4814959271012960    0.0000000000000000   -2.7382924318515593
 -10.1421942075962352   21.8791990453570939   -2.5682775918982310
   0.0000000000000000    0.0000000000000000   30.7779999999999987
H C O
4 8 4
direct
   0.8566100000000000    0.0030300000000000    0.0932750000000000 H
   0.6347900000000000    0.9732700000000000    0.0266150000000000 H
   0.6626700000000000    0.0822100000000000    0.0546150000000000 H
   0.7885500000000000    0.1506300000000000    0.1030900000000000 H
   0.7247900000000000    0.9156800000000000    0.0430000000000000 C
   0.8305500000000000    0.0814300000000000    0.1008150000000000 C
   0.8142900000000000    0.0204300000000000    0.0848050000000000 C
   0.7436700000000001    0.9815600000000000    0.0583850000000000 C
   0.6892900000000000    0.0041600000000000    0.0473900000000000 C
   0.7053000000000000    0.0649800000000000    0.0631150000000000 C
   0.7753300000000000    0.1032400000000000    0.0899500000000000 C
   0.9058700000000000    0.1231600000000000    0.1292700000000000 C
   0.9205200000000000    0.1783900000000000    0.1426850000000000 O
  -0.0468900000000000    0.0991800000000000    0.1386950000000000 O
   0.7781300000000000    0.8976800000000000    0.0536350000000000 O
   0.6597600000000000    0.8793200000000000    0.0218600000000000 O
