H2 O2
1.0
  19.4814959271012960    0.0000000000000000   -2.7382924318515593
 -10.1421942075962352   21.8791990453570939   -2.5682775918982310
   0.0000000000000000    0.0000000000000000   30.7779999999999987
H O
2 2
direct
   0.4076573696770845    0.2181455438633763    0.4071055170466952 H
   0.3643080375942522    0.2742506611291429    0.3922600025507211 H
   0.4342400000000000    0.2396000000000000    0.3851250000000000 O
   0.4032300000000000    0.2794300000000000    0.3744400000000000 O
