H2 C2 N3
1.0
  19.4814959271012960    0.0000000000000000   -2.7382924318515593
 -10.1421942075962352   21.8791990453570939   -2.5682775918982310
   0.0000000000000000    0.0000000000000000   30.7779999999999987
H C N
2 2 3
direct
   0.4085300000000000    0.1749700000000000    0.4295200000000000 H
   0.3162000000000000    0.2983200000000000    0.3976550000000000 H
   0.3981100000000000    0.2104400000000000    0.4150000000000000 C
   0.3501000000000000    0.2723600000000000    0.3987650000000000 C
   0.4032300000000000    0.2794300000000000    0.3744400000000000 N
   0.4342400000000000    0.2396000000000000    0.3851250000000000 N
   0.3448900000000000    0.2296000000000000    0.4246850000000000 N
