H6 O4
1.0
  19.4814959271012960    0.0000000000000000   -2.7382924318515593
 -10.1421942075962352   21.8791990453570939   -2.5682775918982310
   0.0000000000000000    0.0000000000000000   30.7779999999999987
H O
6 4
direct
   0.8278356431996986    0.9279956293834769    0.0688196262574067 H
   0.6183576537999164    0.8901311539820027    0.0121500367966064 H
   0.7163245494049292    0.9138188980247941    0.0391399603192274 H
   0.8808850338072745    0.1927447100317896    0.1405006850634104 H
  -0.0531685143464583    0.0570882361488838    0.1345407271481335 H
  -0.0890192328506861    0.1144380657819341    0.1363732240172642 H
   0.7781300000000000    0.8976800000000000    0.0536350000000000 O
   0.6597600000000000    0.8793200000000000    0.0218600000000000 O
   0.9205200000000000    0.1783900000000000    0.1426850000000000 O
  -0.0468900000000000    0.0991800000000000    0.1386950000000000 O
