H1 O1
1.0
  33.0019998190462900    0.0000000000000000    0.0034559613521429
  -0.0266036330006516   39.0839909457403181    0.0000000000000024
   0.0000000000000000    0.0000000000000000   39.0799999999999983
H O
1 1
direct
   0.6308339743700284    0.0739839997767676    0.2559357870342721 H
   0.6493100000000001    0.0877250000000000    0.2419700000000000 O
