Zn128 H765 C765 N510
1.0
  33.0019998190462900    0.0000000000000000    0.0034559613521429
  -0.0266036330006516   39.0839909457403181    0.0000000000000024
   0.0000000000000000    0.0000000000000000   39.0799999999999983
Zn H C N
128 765 765 510
direct
   0.4080650000000000    0.0583950000000000    0.3332200000000000 Zn
   0.1580700000000000    0.0832250000000000    0.1916100000000000 Zn
   0.1580600000000000    0.4168000000000000    0.3083950000000000 Zn
   0.3419300000000000    0.3083800000000000    0.4168000000000000 Zn
   0.3419300000000000    0.1916050000000000    0.0832150000000000 Zn
   0.0919250000000000    0.1667800000000000    0.4416200000000000 Zn
   0.0919350000000000    0.3331950000000000    0.0583900000000000 Zn
   0.0919300000000000    0.0583800000000000    0.3332150000000000 Zn
   0.0919300000000000    0.4416050000000000    0.1667850000000000 Zn
   0.3419250000000000    0.4167750000000000    0.3083950000000000 Zn
   0.3419350000000000    0.0831950000000000    0.1916000000000000 Zn
   0.1580650000000000    0.1916200000000000    0.0832000000000000 Zn
   0.1580650000000000    0.3083950000000000    0.4167900000000000 Zn
   0.4080700000000000    0.3332200000000000    0.0583900000000000 Zn
   0.4080600000000000    0.1668050000000000    0.4416150000000000 Zn
   0.4080650000000000    0.4416200000000000    0.1667900000000000 Zn
   0.9080650000000000    0.0583950000000000    0.3332200000000000 Zn
   0.6580699999999999    0.0832250000000000    0.1916100000000000 Zn
   0.6580600000000000    0.4168000000000000    0.3083950000000000 Zn
   0.8419300000000001    0.3083800000000000    0.4168000000000000 Zn
   0.8419300000000001    0.1916050000000000    0.0832150000000000 Zn
   0.5919250000000000    0.1667800000000000    0.4416200000000000 Zn
   0.5919350000000000    0.3331950000000000    0.0583900000000000 Zn
   0.5919300000000000    0.0583800000000000    0.3332150000000000 Zn
   0.5919300000000000    0.4416050000000000    0.1667850000000000 Zn
   0.8419250000000000    0.4167750000000000    0.3083950000000000 Zn
   0.8419350000000000    0.0831950000000000    0.1916000000000000 Zn
   0.6580650000000000    0.1916200000000000    0.0832000000000000 Zn
   0.6580650000000000    0.3083950000000000    0.4167900000000000 Zn
   0.9080699999999999    0.3332200000000000    0.0583900000000000 Zn
   0.9080600000000000    0.1668050000000000    0.4416150000000000 Zn
   0.9080650000000000    0.4416200000000000    0.1667900000000000 Zn
   0.4080650000000000    0.5583950000000000    0.3332200000000000 Zn
   0.1580700000000000    0.5832250000000000    0.1916100000000000 Zn
   0.1580600000000000    0.9168000000000001    0.3083950000000000 Zn
   0.3419300000000000    0.8083800000000000    0.4168000000000000 Zn
   0.3419300000000000    0.6916050000000000    0.0832150000000000 Zn
   0.0919250000000000    0.6667800000000000    0.4416200000000000 Zn
   0.0919350000000000    0.8331950000000000    0.0583900000000000 Zn
   0.0919300000000000    0.5583800000000000    0.3332150000000000 Zn
   0.0919300000000000    0.9416050000000000    0.1667850000000000 Zn
   0.3419250000000000    0.9167750000000000    0.3083950000000000 Zn
   0.3419350000000000    0.5831950000000000    0.1916000000000000 Zn
   0.1580650000000000    0.6916200000000000    0.0832000000000000 Zn
   0.1580650000000000    0.8083950000000000    0.4167900000000000 Zn
   0.4080700000000000    0.8332200000000001    0.0583900000000000 Zn
   0.4080600000000000    0.6668050000000000    0.4416150000000000 Zn
   0.4080650000000000    0.9416200000000000    0.1667900000000000 Zn
   0.9080650000000000    0.5583950000000000    0.3332200000000000 Zn
   0.6580699999999999    0.5832250000000000    0.1916100000000000 Zn
   0.6580600000000000    0.9168000000000001    0.3083950000000000 Zn
   0.8419300000000001    0.8083800000000000    0.4168000000000000 Zn
   0.8419300000000001    0.6916050000000000    0.0832150000000000 Zn
   0.5919250000000000    0.6667800000000000    0.4416200000000000 Zn
   0.5919350000000000    0.8331950000000000    0.0583900000000000 Zn
   0.5919300000000000    0.5583800000000000    0.3332150000000000 Zn
   0.5919300000000000    0.9416050000000000    0.1667850000000000 Zn
   0.8419250000000000    0.9167750000000000    0.3083950000000000 Zn
   0.8419350000000000    0.5831950000000000    0.1916000000000000 Zn
   0.6580650000000000    0.6916200000000000    0.0832000000000000 Zn
   0.6580650000000000    0.8083950000000000    0.4167900000000000 Zn
   0.9080699999999999    0.8332200000000001    0.0583900000000000 Zn
   0.9080600000000000    0.6668050000000000    0.4416150000000000 Zn
   0.9080650000000000    0.9416200000000000    0.1667900000000000 Zn
   0.4080650000000000    0.0583950000000000    0.8332200000000001 Zn
   0.1580700000000000    0.0832250000000000    0.6916100000000001 Zn
   0.1580600000000000    0.4168000000000000    0.8083950000000000 Zn
   0.3419300000000000    0.3083800000000000    0.9168000000000001 Zn
   0.3419300000000000    0.1916050000000000    0.5832150000000000 Zn
   0.0919250000000000    0.1667800000000000    0.9416200000000000 Zn
   0.0919350000000000    0.3331950000000000    0.5583899999999999 Zn
   0.0919300000000000    0.0583800000000000    0.8332150000000000 Zn
   0.0919300000000000    0.4416050000000000    0.6667850000000000 Zn
   0.3419250000000000    0.4167750000000000    0.8083950000000000 Zn
   0.3419350000000000    0.0831950000000000    0.6916000000000000 Zn
   0.1580650000000000    0.1916200000000000    0.5831999999999999 Zn
   0.1580650000000000    0.3083950000000000    0.9167900000000000 Zn
   0.4080700000000000    0.3332200000000000    0.5583899999999999 Zn
   0.4080600000000000    0.1668050000000000    0.9416150000000000 Zn
   0.4080650000000000    0.4416200000000000    0.6667900000000000 Zn
   0.9080650000000000    0.0583950000000000    0.8332200000000001 Zn
   0.6580699999999999    0.0832250000000000    0.6916100000000001 Zn
   0.6580600000000000    0.4168000000000000    0.8083950000000000 Zn
   0.8419300000000001    0.3083800000000000    0.9168000000000001 Zn
   0.8419300000000001    0.1916050000000000    0.5832150000000000 Zn
   0.5919250000000000    0.1667800000000000    0.9416200000000000 Zn
   0.5919350000000000    0.3331950000000000    0.5583899999999999 Zn
   0.5919300000000000    0.0583800000000000    0.8332150000000000 Zn
   0.5919300000000000    0.4416050000000000    0.6667850000000000 Zn
   0.8419250000000000    0.4167750000000000    0.8083950000000000 Zn
   0.8419350000000000    0.0831950000000000    0.6916000000000000 Zn
   0.6580650000000000    0.1916200000000000    0.5831999999999999 Zn
   0.6580650000000000    0.3083950000000000    0.9167900000000000 Zn
   0.9080699999999999    0.3332200000000000    0.5583899999999999 Zn
   0.9080600000000000    0.1668050000000000    0.9416150000000000 Zn
   0.9080650000000000    0.4416200000000000    0.6667900000000000 Zn
   0.4080650000000000    0.5583950000000000    0.8332200000000001 Zn
   0.1580700000000000    0.5832250000000000    0.6916100000000001 Zn
   0.1580600000000000    0.9168000000000001    0.8083950000000000 Zn
   0.3419300000000000    0.8083800000000000    0.9168000000000001 Zn
   0.3419300000000000    0.6916050000000000    0.5832150000000000 Zn
   0.0919250000000000    0.6667800000000000    0.9416200000000000 Zn
   0.0919350000000000    0.8331950000000000    0.5583899999999999 Zn
   0.0919300000000000    0.5583800000000000    0.8332150000000000 Zn
   0.0919300000000000    0.9416050000000000    0.6667850000000000 Zn
   0.3419250000000000    0.9167750000000000    0.8083950000000000 Zn
   0.3419350000000000    0.5831950000000000    0.6916000000000000 Zn
   0.1580650000000000    0.6916200000000000    0.5831999999999999 Zn
   0.1580650000000000    0.8083950000000000    0.9167900000000000 Zn
   0.4080700000000000    0.8332200000000001    0.5583899999999999 Zn
   0.4080600000000000    0.6668050000000000    0.9416150000000000 Zn
   0.4080650000000000    0.9416200000000000    0.6667900000000000 Zn
   0.9080650000000000    0.5583950000000000    0.8332200000000001 Zn
   0.6580699999999999    0.5832250000000000    0.6916100000000001 Zn
   0.6580600000000000    0.9168000000000001    0.8083950000000000 Zn
   0.8419300000000001    0.8083800000000000    0.9168000000000001 Zn
   0.8419300000000001    0.6916050000000000    0.5832150000000000 Zn
   0.5919250000000000    0.6667800000000000    0.9416200000000000 Zn
   0.5919350000000000    0.8331950000000000    0.5583899999999999 Zn
   0.5919300000000000    0.5583800000000000    0.8332150000000000 Zn
   0.5919300000000000    0.9416050000000000    0.6667850000000000 Zn
   0.8419250000000000    0.9167750000000000    0.8083950000000000 Zn
   0.8419350000000000    0.5831950000000000    0.6916000000000000 Zn
   0.6580650000000000    0.6916200000000000    0.5831999999999999 Zn
   0.6580650000000000    0.8083950000000000    0.9167900000000000 Zn
   0.9080699999999999    0.8332200000000001    0.5583899999999999 Zn
   0.9080600000000000    0.6668050000000000    0.9416150000000000 Zn
   0.9080650000000000    0.9416200000000000    0.6667900000000000 Zn
   0.4577800000000000    0.3822900000000000    0.2040750000000000 H
   0.3392550000000000    0.4433600000000000    0.1068900000000000 H
   0.4407550000000000    0.0060400000000000    0.1218550000000000 H
   0.3381600000000000    0.3854400000000000    0.1786350000000000 H
   0.3537800000000000    0.0007750000000000    0.2006000000000000 H
   0.4579150000000000    0.1177250000000000    0.2959300000000000 H
   0.3392000000000000    0.0566250000000000    0.3930700000000000 H
   0.4407050000000000    0.4940350000000000    0.3781850000000000 H
   0.3382550000000000    0.1145600000000000    0.3213700000000000 H
   0.3538050000000000    0.4991750000000000    0.2993750000000000 H
   0.2078250000000000    0.0459450000000000    0.1322600000000000 H
   0.0892600000000000    0.1430650000000000    0.1934050000000000 H
   0.1907800000000000    0.1281700000000000    0.2560000000000000 H
   0.0882050000000000    0.0713500000000000    0.1354350000000000 H
   0.1037950000000000    0.0493700000000000    0.2508050000000000 H
   0.2078750000000000    0.4541050000000000    0.3677250000000000 H
   0.0892000000000000    0.3569050000000000    0.3066550000000000 H
   0.1906750000000000    0.3718500000000000    0.2440000000000000 H
   0.0881900000000000    0.4286200000000000    0.3645550000000000 H
   0.1038100000000000    0.4506400000000000    0.2492050000000000 H
   0.2922000000000000    0.3677100000000000    0.4540800000000000 H
   0.4107400000000000    0.3066400000000000    0.3568900000000000 H
   0.3092550000000000    0.2439650000000000    0.3718650000000000 H
   0.4118250000000000    0.3645600000000000    0.4286350000000000 H
   0.3962150000000000    0.2492250000000000    0.4506300000000000 H
   0.2920900000000000    0.1322700000000000    0.0459300000000000 H
   0.4107800000000000    0.1933900000000000    0.1430700000000000 H
   0.3092650000000000    0.2559650000000000    0.1281800000000000 H
   0.4117350000000000    0.1354300000000000    0.0713600000000000 H
   0.3961950000000000    0.2508200000000000    0.0493750000000000 H
   0.0421900000000000    0.2040550000000000    0.3822700000000000 H
   0.1607300000000000    0.1069300000000000    0.4434050000000000 H
   0.0592100000000000    0.1218400000000000    0.0060050000000000 H
   0.1618000000000000    0.1786550000000000    0.3854350000000000 H
   0.1462050000000000    0.2006300000000000    0.0007900000000000 H
   0.0421000000000000    0.2959000000000000    0.1177250000000000 H
   0.1608000000000000    0.3930850000000000    0.0566450000000000 H
   0.0593200000000000    0.3781550000000000    0.4940150000000000 H
   0.1617800000000000    0.3213750000000000    0.1145550000000000 H
   0.1461750000000000    0.2993550000000000    0.4992000000000000 H
   0.0422100000000000    0.1177100000000000    0.2959000000000000 H
   0.1607350000000000    0.0566400000000000    0.3931150000000000 H
   0.0592300000000000    0.4939600000000000    0.3781450000000000 H
   0.1618300000000000    0.1145650000000000    0.3213700000000000 H
   0.1462150000000000    0.4992250000000000    0.2993800000000000 H
   0.0420800000000000    0.3822700000000000    0.2040700000000000 H
   0.1607900000000000    0.4433800000000000    0.1069300000000000 H
   0.0592850000000000    0.0059650000000000    0.1218200000000000 H
   0.1617400000000000    0.3854350000000000    0.1786350000000000 H
   0.1461950000000000    0.0008250000000000    0.2006300000000000 H
   0.2921700000000000    0.4540600000000000    0.3677400000000000 H
   0.4107300000000000    0.3569300000000000    0.3066000000000000 H
   0.3092050000000000    0.3718350000000000    0.2440050000000000 H
   0.4117850000000000    0.4286500000000000    0.3645750000000000 H
   0.3962000000000000    0.4506300000000000    0.2492050000000000 H
   0.2921200000000000    0.0459000000000000    0.1322800000000000 H
   0.4107950000000000    0.1430950000000000    0.1933550000000000 H
   0.3093150000000000    0.1281500000000000    0.2560050000000000 H
   0.4117950000000000    0.0713800000000000    0.1354450000000000 H
   0.3961850000000000    0.0493600000000000    0.2508000000000000 H
   0.2077950000000000    0.1322950000000000    0.0459000000000000 H
   0.0892500000000000    0.1933550000000000    0.1431000000000000 H
   0.1907400000000000    0.2560350000000000    0.1281450000000000 H
   0.0881650000000000    0.1354450000000000    0.0713700000000000 H
   0.1037800000000000    0.2507750000000000    0.0493750000000000 H
   0.2079050000000000    0.3677300000000000    0.4540650000000000 H
   0.0892100000000000    0.3066100000000000    0.3569400000000000 H
   0.1907200000000000    0.2440350000000000    0.3718200000000000 H
   0.0882550000000000    0.3645650000000000    0.4286450000000000 H
   0.1038000000000000    0.2491750000000000    0.4506350000000000 H
   0.4578050000000000    0.2959450000000000    0.1177350000000000 H
   0.3392650000000000    0.3930700000000000    0.0566000000000000 H
   0.4407800000000000    0.3781650000000000    0.4940000000000000 H
   0.3381900000000000    0.3213450000000000    0.1145650000000000 H
   0.3537900000000000    0.2993700000000000    0.4992150000000000 H
   0.4578950000000000    0.2040950000000000    0.3822800000000000 H
   0.3391900000000000    0.1069200000000000    0.4433550000000000 H
   0.4406700000000000    0.1218400000000000    0.0059900000000000 H
   0.3382100000000000    0.1786200000000000    0.3854550000000000 H
   0.3538200000000000    0.2006450000000000    0.0008050000000000 H
   0.0000350000000000    0.4714750000000000    0.1551350000000000 H
   0.4999600000000000    0.0285250000000000    0.3448750000000000 H
   0.2500150000000000    0.0948700000000000    0.2214650000000000 H
   0.2499800000000000    0.4051250000000000    0.2785400000000000 H
   0.2499650000000000    0.2785250000000000    0.4051400000000000 H
   0.2500300000000000    0.2214750000000000    0.0948700000000000 H
   0.4999700000000000    0.1551350000000000    0.4714750000000000 H
   0.0000200000000000    0.3448650000000000    0.0285350000000000 H
   0.4387600000000000    0.3776100000000000    0.1224250000000000 H
   0.4387900000000000    0.1224200000000000    0.3776150000000000 H
   0.1887650000000000    0.1276150000000000    0.1275700000000000 H
   0.1887800000000000    0.3724250000000000    0.3723500000000000 H
   0.3112350000000000    0.3723850000000000    0.3724350000000000 H
   0.3112150000000000    0.1275700000000000    0.1276000000000000 H
   0.0612350000000000    0.1223900000000000    0.3775500000000000 H
   0.0612100000000000    0.3775750000000000    0.1223950000000000 H
   0.9577800000000001    0.3822900000000000    0.2040750000000000 H
   0.8392550000000000    0.4433600000000000    0.1068900000000000 H
   0.9407550000000000    0.0060400000000000    0.1218550000000000 H
   0.8381600000000000    0.3854400000000000    0.1786350000000000 H
   0.8537800000000000    0.0007750000000000    0.2006000000000000 H
   0.9579150000000001    0.1177250000000000    0.2959300000000000 H
   0.8391999999999999    0.0566250000000000    0.3930700000000000 H
   0.9407050000000000    0.4940350000000000    0.3781850000000000 H
   0.8382550000000000    0.1145600000000000    0.3213700000000000 H
   0.8538049999999999    0.4991750000000000    0.2993750000000000 H
   0.7078250000000000    0.0459450000000000    0.1322600000000000 H
   0.5892600000000000    0.1430650000000000    0.1934050000000000 H
   0.5882050000000000    0.0713500000000000    0.1354350000000000 H
   0.7078750000000000    0.4541050000000000    0.3677250000000000 H
   0.5891999999999999    0.3569050000000000    0.3066550000000000 H
   0.6906750000000000    0.3718500000000000    0.2440000000000000 H
   0.5881900000000000    0.4286200000000000    0.3645550000000000 H
   0.6038100000000000    0.4506400000000000    0.2492050000000000 H
   0.7922000000000000    0.3677100000000000    0.4540800000000000 H
   0.9107400000000000    0.3066400000000000    0.3568900000000000 H
   0.8092550000000001    0.2439650000000000    0.3718650000000000 H
   0.9118250000000000    0.3645600000000000    0.4286350000000000 H
   0.8962150000000000    0.2492250000000000    0.4506300000000000 H
   0.7920900000000000    0.1322700000000000    0.0459300000000000 H
   0.9107799999999999    0.1933900000000000    0.1430700000000000 H
   0.8092650000000000    0.2559650000000000    0.1281800000000000 H
   0.9117350000000000    0.1354300000000000    0.0713600000000000 H
   0.8961950000000001    0.2508200000000000    0.0493750000000000 H
   0.5421899999999999    0.2040550000000000    0.3822700000000000 H
   0.6607300000000000    0.1069300000000000    0.4434050000000000 H
   0.5592100000000000    0.1218400000000000    0.0060050000000000 H
   0.6617999999999999    0.1786550000000000    0.3854350000000000 H
   0.6462050000000000    0.2006300000000000    0.0007900000000000 H
   0.5421000000000000    0.2959000000000000    0.1177250000000000 H
   0.6608000000000001    0.3930850000000000    0.0566450000000000 H
   0.5593200000000000    0.3781550000000000    0.4940150000000000 H
   0.6617800000000000    0.3213750000000000    0.1145550000000000 H
   0.6461749999999999    0.2993550000000000    0.4992000000000000 H
   0.5422100000000000    0.1177100000000000    0.2959000000000000 H
   0.6607350000000000    0.0566400000000000    0.3931150000000000 H
   0.5592300000000000    0.4939600000000000    0.3781450000000000 H
   0.6462150000000000    0.4992250000000000    0.2993800000000000 H
   0.5420800000000000    0.3822700000000000    0.2040700000000000 H
   0.6607900000000000    0.4433800000000000    0.1069300000000000 H
   0.5592850000000000    0.0059650000000000    0.1218200000000000 H
   0.6617400000000000    0.3854350000000000    0.1786350000000000 H
   0.6461950000000000    0.0008250000000000    0.2006300000000000 H
   0.7921700000000000    0.4540600000000000    0.3677400000000000 H
   0.9107300000000000    0.3569300000000000    0.3066000000000000 H
   0.8092050000000000    0.3718350000000000    0.2440050000000000 H
   0.9117850000000001    0.4286500000000000    0.3645750000000000 H
   0.8962000000000000    0.4506300000000000    0.2492050000000000 H
   0.7921199999999999    0.0459000000000000    0.1322800000000000 H
   0.9107950000000000    0.1430950000000000    0.1933550000000000 H
   0.8093150000000000    0.1281500000000000    0.2560050000000000 H
   0.9117950000000000    0.0713800000000000    0.1354450000000000 H
   0.8961850000000000    0.0493600000000000    0.2508000000000000 H
   0.7077950000000000    0.1322950000000000    0.0459000000000000 H
   0.5892500000000001    0.1933550000000000    0.1431000000000000 H
   0.6907400000000000    0.2560350000000000    0.1281450000000000 H
   0.5881650000000000    0.1354450000000000    0.0713700000000000 H
   0.6037800000000000    0.2507750000000000    0.0493750000000000 H
   0.7079050000000000    0.3677300000000000    0.4540650000000000 H
   0.5892100000000000    0.3066100000000000    0.3569400000000000 H
   0.6907200000000000    0.2440350000000000    0.3718200000000000 H
   0.5882550000000000    0.3645650000000000    0.4286450000000000 H
   0.6038000000000000    0.2491750000000000    0.4506350000000000 H
   0.9578050000000000    0.2959450000000000    0.1177350000000000 H
   0.8392649999999999    0.3930700000000000    0.0566000000000000 H
   0.9407799999999999    0.3781650000000000    0.4940000000000000 H
   0.8381900000000000    0.3213450000000000    0.1145650000000000 H
   0.8537900000000000    0.2993700000000000    0.4992150000000000 H
   0.9578949999999999    0.2040950000000000    0.3822800000000000 H
   0.8391900000000000    0.1069200000000000    0.4433550000000000 H
   0.9406700000000000    0.1218400000000000    0.0059900000000000 H
   0.8382100000000000    0.1786200000000000    0.3854550000000000 H
   0.8538200000000000    0.2006450000000000    0.0008050000000000 H
   0.5000350000000000    0.4714750000000000    0.1551350000000000 H
   0.9999600000000000    0.0285250000000000    0.3448750000000000 H
   0.7500150000000000    0.0948700000000000    0.2214650000000000 H
   0.7499800000000000    0.4051250000000000    0.2785400000000000 H
   0.7499650000000000    0.2785250000000000    0.4051400000000000 H
   0.7500300000000000    0.2214750000000000    0.0948700000000000 H
   0.9999700000000000    0.1551350000000000    0.4714750000000000 H
   0.5000200000000000    0.3448650000000000    0.0285350000000000 H
   0.9387600000000000    0.3776100000000000    0.1224250000000000 H
   0.9387900000000000    0.1224200000000000    0.3776150000000000 H
   0.6887650000000000    0.1276150000000000    0.1275700000000000 H
   0.6887799999999999    0.3724250000000000    0.3723500000000000 H
   0.8112349999999999    0.3723850000000000    0.3724350000000000 H
   0.8112150000000000    0.1275700000000000    0.1276000000000000 H
   0.5612350000000000    0.1223900000000000    0.3775500000000000 H
   0.5612100000000000    0.3775750000000000    0.1223950000000000 H
   0.4577800000000000    0.8822900000000000    0.2040750000000000 H
   0.3392550000000000    0.9433600000000000    0.1068900000000000 H
   0.4407550000000000    0.5060400000000000    0.1218550000000000 H
   0.3381600000000000    0.8854400000000000    0.1786350000000000 H
   0.3537800000000000    0.5007750000000000    0.2006000000000000 H
   0.4579150000000000    0.6177250000000000    0.2959300000000000 H
   0.3392000000000000    0.5566250000000000    0.3930700000000000 H
   0.4407050000000000    0.9940350000000000    0.3781850000000000 H
   0.3382550000000000    0.6145600000000000    0.3213700000000000 H
   0.3538050000000000    0.9991749999999999    0.2993750000000000 H
   0.2078250000000000    0.5459450000000000    0.1322600000000000 H
   0.0892600000000000    0.6430650000000000    0.1934050000000000 H
   0.1907800000000000    0.6281700000000000    0.2560000000000000 H
   0.0882050000000000    0.5713500000000000    0.1354350000000000 H
   0.1037950000000000    0.5493700000000000    0.2508050000000000 H
   0.2078750000000000    0.9541050000000000    0.3677250000000000 H
   0.0892000000000000    0.8569050000000000    0.3066550000000000 H
   0.1906750000000000    0.8718500000000000    0.2440000000000000 H
   0.0881900000000000    0.9286200000000000    0.3645550000000000 H
   0.1038100000000000    0.9506399999999999    0.2492050000000000 H
   0.2922000000000000    0.8677100000000000    0.4540800000000000 H
   0.4107400000000000    0.8066400000000000    0.3568900000000000 H
   0.3092550000000000    0.7439650000000000    0.3718650000000000 H
   0.4118250000000000    0.8645600000000000    0.4286350000000000 H
   0.3962150000000000    0.7492250000000000    0.4506300000000000 H
   0.2920900000000000    0.6322700000000000    0.0459300000000000 H
   0.4107800000000000    0.6933900000000000    0.1430700000000000 H
   0.3092650000000000    0.7559650000000000    0.1281800000000000 H
   0.4117350000000000    0.6354299999999999    0.0713600000000000 H
   0.3961950000000000    0.7508200000000000    0.0493750000000000 H
   0.0421900000000000    0.7040550000000000    0.3822700000000000 H
   0.1607300000000000    0.6069300000000000    0.4434050000000000 H
   0.0592100000000000    0.6218399999999999    0.0060050000000000 H
   0.1618000000000000    0.6786550000000000    0.3854350000000000 H
   0.1462050000000000    0.7006300000000000    0.0007900000000000 H
   0.0421000000000000    0.7959000000000001    0.1177250000000000 H
   0.1608000000000000    0.8930850000000000    0.0566450000000000 H
   0.0593200000000000    0.8781550000000000    0.4940150000000000 H
   0.1617800000000000    0.8213750000000000    0.1145550000000000 H
   0.1461750000000000    0.7993550000000000    0.4992000000000000 H
   0.0422100000000000    0.6177100000000000    0.2959000000000000 H
   0.1607350000000000    0.5566400000000000    0.3931150000000000 H
   0.0592300000000000    0.9939600000000000    0.3781450000000000 H
   0.1618300000000000    0.6145650000000000    0.3213700000000000 H
   0.1462150000000000    0.9992250000000000    0.2993800000000000 H
   0.0420800000000000    0.8822700000000000    0.2040700000000000 H
   0.1607900000000000    0.9433800000000000    0.1069300000000000 H
   0.0592850000000000    0.5059650000000000    0.1218200000000000 H
   0.1617400000000000    0.8854350000000000    0.1786350000000000 H
   0.1461950000000000    0.5008250000000000    0.2006300000000000 H
   0.2921700000000000    0.9540600000000000    0.3677400000000000 H
   0.4107300000000000    0.8569300000000000    0.3066000000000000 H
   0.3092050000000000    0.8718350000000000    0.2440050000000000 H
   0.4117850000000000    0.9286500000000000    0.3645750000000000 H
   0.3962000000000000    0.9506300000000000    0.2492050000000000 H
   0.2921200000000000    0.5459000000000001    0.1322800000000000 H
   0.4107950000000000    0.6430950000000000    0.1933550000000000 H
   0.3093150000000000    0.6281500000000000    0.2560050000000000 H
   0.4117950000000000    0.5713800000000000    0.1354450000000000 H
   0.3961850000000000    0.5493600000000000    0.2508000000000000 H
   0.2077950000000000    0.6322950000000001    0.0459000000000000 H
   0.0892500000000000    0.6933549999999999    0.1431000000000000 H
   0.1907400000000000    0.7560350000000000    0.1281450000000000 H
   0.0881650000000000    0.6354450000000000    0.0713700000000000 H
   0.1037800000000000    0.7507750000000000    0.0493750000000000 H
   0.2079050000000000    0.8677300000000000    0.4540650000000000 H
   0.0892100000000000    0.8066100000000000    0.3569400000000000 H
   0.1907200000000000    0.7440350000000000    0.3718200000000000 H
   0.0882550000000000    0.8645650000000000    0.4286450000000000 H
   0.1038000000000000    0.7491750000000000    0.4506350000000000 H
   0.4578050000000000    0.7959450000000000    0.1177350000000000 H
   0.3392650000000000    0.8930700000000000    0.0566000000000000 H
   0.4407800000000000    0.8781650000000000    0.4940000000000000 H
   0.3381900000000000    0.8213450000000000    0.1145650000000000 H
   0.3537900000000000    0.7993700000000000    0.4992150000000000 H
   0.4578950000000000    0.7040950000000000    0.3822800000000000 H
   0.3391900000000000    0.6069200000000000    0.4433550000000000 H
   0.4406700000000000    0.6218399999999999    0.0059900000000000 H
   0.3382100000000000    0.6786200000000000    0.3854550000000000 H
   0.3538200000000000    0.7006450000000000    0.0008050000000000 H
   0.0000350000000000    0.9714750000000000    0.1551350000000000 H
   0.4999600000000000    0.5285250000000000    0.3448750000000000 H
   0.2500150000000000    0.5948700000000000    0.2214650000000000 H
   0.2499800000000000    0.9051250000000000    0.2785400000000000 H
   0.2499650000000000    0.7785250000000000    0.4051400000000000 H
   0.2500300000000000    0.7214750000000000    0.0948700000000000 H
   0.4999700000000000    0.6551350000000000    0.4714750000000000 H
   0.0000200000000000    0.8448650000000000    0.0285350000000000 H
   0.4387600000000000    0.8776100000000000    0.1224250000000000 H
   0.4387900000000000    0.6224200000000000    0.3776150000000000 H
   0.1887650000000000    0.6276150000000000    0.1275700000000000 H
   0.1887800000000000    0.8724250000000000    0.3723500000000000 H
   0.3112350000000000    0.8723850000000000    0.3724350000000000 H
   0.3112150000000000    0.6275700000000000    0.1276000000000000 H
   0.0612350000000000    0.6223900000000000    0.3775500000000000 H
   0.0612100000000000    0.8775750000000000    0.1223950000000000 H
   0.9577800000000001    0.8822900000000000    0.2040750000000000 H
   0.8392550000000000    0.9433600000000000    0.1068900000000000 H
   0.9407550000000000    0.5060400000000000    0.1218550000000000 H
   0.8381600000000000    0.8854400000000000    0.1786350000000000 H
   0.8537800000000000    0.5007750000000000    0.2006000000000000 H
   0.9579150000000001    0.6177250000000000    0.2959300000000000 H
   0.8391999999999999    0.5566250000000000    0.3930700000000000 H
   0.9407050000000000    0.9940350000000000    0.3781850000000000 H
   0.8382550000000000    0.6145600000000000    0.3213700000000000 H
   0.8538049999999999    0.9991749999999999    0.2993750000000000 H
   0.7078250000000000    0.5459450000000000    0.1322600000000000 H
   0.5892600000000000    0.6430650000000000    0.1934050000000000 H
   0.6907799999999999    0.6281700000000000    0.2560000000000000 H
   0.5882050000000000    0.5713500000000000    0.1354350000000000 H
   0.6037950000000000    0.5493700000000000    0.2508050000000000 H
   0.7078750000000000    0.9541050000000000    0.3677250000000000 H
   0.5891999999999999    0.8569050000000000    0.3066550000000000 H
   0.6906750000000000    0.8718500000000000    0.2440000000000000 H
   0.5881900000000000    0.9286200000000000    0.3645550000000000 H
   0.6038100000000000    0.9506399999999999    0.2492050000000000 H
   0.7922000000000000    0.8677100000000000    0.4540800000000000 H
   0.9107400000000000    0.8066400000000000    0.3568900000000000 H