H1 O1
1.0
  21.2943139352363637    0.0000000000000000    6.9892730686101014
   4.7667970816219194   16.8567680399675695    3.4016234108684862
   0.0000000000000000    0.0000000000000000   35.7520000000000024
H O
1 1
direct
   0.1704457029741595    0.7264488238931051    0.4409704622431090 H
   0.1558300000000000    0.7669899999999999    0.4206600000000000 O
