Zn40 H159 C237 N237 O159
1.0
  21.2943139352363637    0.0000000000000000    6.9892730686101014
   4.7667970816219194   16.8567680399675695    3.4016234108684862
   0.0000000000000000    0.0000000000000000   35.7520000000000024
Zn H C N O
40 159 237 237 159
direct
   0.4217500000000000    0.5719500000000000    0.0890000000000000 Zn
   0.1716300000000000    0.6789800000000000    0.0358000000000000 Zn
   0.6716200000000000    0.6789900000000000    0.0358000000000000 Zn
   0.9217400000000000    0.5719400000000000    0.0893500000000000 Zn
   0.3747600000000000    0.2499900000000000    0.1250300000000000 Zn
   0.2967600000000000    0.8209200000000000    0.2142050000000000 Zn
   0.5467700000000000    0.9279700000000000    0.1606350000000000 Zn
   0.0467800000000000    0.9279700000000000    0.1606400000000000 Zn
   0.7967400000000000    0.8209100000000000    0.2142050000000000 Zn
   0.8747400000000000    0.2499900000000000    0.1250350000000000 Zn
   0.5782200000000000    0.4280300000000000    0.4106550000000000 Zn
   0.8283300000000000    0.3210000000000000    0.4642000000000000 Zn
   0.3283500000000000    0.3209900000000000    0.4642000000000000 Zn
   0.0782200000000000    0.4280400000000000    0.4106550000000000 Zn
   0.6252100000000000    0.7499800000000000    0.3749650000000000 Zn
   0.4532000000000000    0.0720000000000000    0.3393500000000000 Zn
   0.7032100000000000    0.1790700000000000    0.2857950000000000 Zn
   0.2032200000000000    0.1790700000000000    0.2857950000000000 Zn
   0.9531900000000000    0.0720100000000000    0.3393600000000000 Zn
   0.1252300000000000    0.7499900000000000    0.3749650000000000 Zn
   0.4217500000000000    0.5719500000000000    0.5890000000000000 Zn
   0.1716300000000000    0.6789800000000000    0.5358000000000001 Zn
   0.6716200000000000    0.6789900000000000    0.5358000000000001 Zn
   0.9217400000000000    0.5719400000000000    0.5893500000000000 Zn
   0.3747600000000000    0.2499900000000000    0.6250300000000000 Zn
   0.2967600000000000    0.8209200000000000    0.7142050000000000 Zn
   0.5467700000000000    0.9279700000000000    0.6606350000000000 Zn
   0.0467800000000000    0.9279700000000000    0.6606400000000000 Zn
   0.7967400000000000    0.8209100000000000    0.7142050000000000 Zn
   0.8747400000000000    0.2499900000000000    0.6250350000000000 Zn
   0.5782200000000000    0.4280300000000000    0.9106550000000000 Zn
   0.8283300000000000    0.3210000000000000    0.9641999999999999 Zn
   0.3283500000000000    0.3209900000000000    0.9641999999999999 Zn
   0.0782200000000000    0.4280400000000000    0.9106550000000000 Zn
   0.6252100000000000    0.7499800000000000    0.8749650000000000 Zn
   0.4532000000000000    0.0720000000000000    0.8393500000000000 Zn
   0.7032100000000000    0.1790700000000000    0.7857950000000000 Zn
   0.2032200000000000    0.1790700000000000    0.7857950000000000 Zn
   0.9531900000000000    0.0720100000000000    0.8393600000000000 Zn
   0.1252300000000000    0.7499900000000000    0.8749650000000000 Zn
   0.4348500000000000    0.3433400000000000    0.3834500000000000 H
   0.4895200000000000    0.2343800000000000    0.3286800000000000 H
   0.4348500000000000    0.3433400000000000    0.8834500000000001 H
   0.4895200000000000    0.2343800000000000    0.8286800000000001 H
   0.0104800000000000    0.7655900000000000    0.1713300000000000 H
   0.0651400000000000    0.6566300000000000    0.1165600000000000 H
   0.0104800000000000    0.7655900000000000    0.6713300000000000 H
   0.0651400000000000    0.6566300000000000    0.6165600000000000 H
   0.9348300000000000    0.3433500000000000    0.8834450000000000 H
   0.9895000000000000    0.2343800000000000    0.8286800000000001 H
   0.9348300000000000    0.3433500000000000    0.3834450000000000 H
   0.9895000000000000    0.2343800000000000    0.3286800000000000 H
   0.5104500000000000    0.7655999999999999    0.1713250000000000 H
   0.5651200000000000    0.6566400000000000    0.1165550000000000 H
   0.5104500000000000    0.7655999999999999    0.6713249999999999 H
   0.5651200000000000    0.6566400000000000    0.6165550000000000 H
   0.7400000000000000    0.1571200000000000    0.3666200000000000 H
   0.6849900000000000    0.2658000000000000    0.4215200000000000 H
   0.7400000000000000    0.1571200000000000    0.8666199999999999 H
   0.6849900000000000    0.2658000000000000    0.9215200000000000 H
   0.1850000000000000    0.2658000000000000    0.9215249999999999 H
   0.2400200000000000    0.1571100000000000    0.8666250000000000 H
   0.1850000000000000    0.2658000000000000    0.4215250000000000 H
   0.2400200000000000    0.1571100000000000    0.3666250000000000 H
   0.2599600000000000    0.8428700000000000    0.6333800000000001 H
   0.3149700000000000    0.7341800000000001    0.5784800000000000 H
   0.7599399999999999    0.8428700000000000    0.1333800000000000 H
   0.8149600000000000    0.7341800000000001    0.0784800000000000 H
   0.2599600000000000    0.8428700000000000    0.1333800000000000 H
   0.3149700000000000    0.7341800000000001    0.0784800000000000 H
   0.7599399999999999    0.8428700000000000    0.6333800000000001 H
   0.8149600000000000    0.7341800000000001    0.5784800000000000 H
   0.1704457029741595    0.7264488238931051    0.4409704622431090 H
   0.3774000000000000    0.3379500000000000    0.1967550000000000 H
   0.4051900000000000    0.4839600000000000    0.1803050000000000 H
   0.1728500000000000    0.3612200000000000    0.2416800000000000 H
   0.2567000000000000    0.3938500000000000    0.1686850000000000 H
   0.8271300000000000    0.6387500000000000    0.2583250000000000 H
   0.7432800000000001    0.6061200000000000    0.3313200000000000 H
   0.3271500000000000    0.6387600000000000    0.2583250000000000 H
   0.2433000000000000    0.6061299999999999    0.3313200000000000 H
   0.1551100000000000    0.8612100000000000    0.9917500000000000 H
   0.1281900000000000    0.8939100000000000    0.9185850000000000 H
   0.6550900000000000    0.8612200000000000    0.9917500000000000 H
   0.6281700000000000    0.8939200000000000    0.9185850000000000 H
   0.9051600000000000    0.4839500000000000    0.1803050000000000 H
   0.8773800000000000    0.3379500000000000    0.1967550000000000 H
   0.6742500000000000    0.4972200000000000    0.0593550000000000 H
   0.5590800000000000    0.4504000000000000    0.0859000000000000 H
   0.4240700000000000    0.6194200000000000    0.9987349999999999 H
   0.3088800000000000    0.6725200000000000    0.9752950000000000 H
   0.9240600000000000    0.6194200000000000    0.9987349999999999 H
   0.8088700000000000    0.6725300000000000    0.9752950000000000 H
   0.1742600000000000    0.4972200000000000    0.0593500000000000 H
   0.0591000000000000    0.4503900000000000    0.0859100000000000 H
   0.6728200000000000    0.3612200000000000    0.2416750000000000 H
   0.7566800000000000    0.3938400000000000    0.1686800000000000 H
   0.5764600000000000    0.0158600000000000    0.0696500000000000 H
   0.4924800000000000    0.1621300000000000    0.0532750000000000 H
   0.0764600000000000    0.0158500000000000    0.0696500000000000 H
   0.9924600000000000    0.1621200000000000    0.0532500000000000 H
   0.4825400000000000    0.8806400000000000    0.2513200000000000 H
   0.3704100000000000    0.8277600000000001    0.2747950000000000 H
   0.7323600000000000    0.0028000000000000    0.1904350000000000 H
   0.6202299999999999    0.0496600000000000    0.1639200000000000 H
   0.2323700000000000    0.0028000000000000    0.1904300000000000 H
   0.1202400000000000    0.0496600000000000    0.1639150000000000 H
   0.9825199999999999    0.8806400000000000    0.2513200000000000 H
   0.8703900000000000    0.8277700000000000    0.2747950000000000 H
   0.8448600000000001    0.1387700000000000    0.5082500000000000 H
   0.8717700000000000    0.1060600000000000    0.5814150000000000 H
   0.0948100000000000    0.5160200000000000    0.3196950000000000 H
   0.1225900000000000    0.6620300000000000    0.3032450000000000 H
   0.5947900000000000    0.5160200000000000    0.3196950000000000 H
   0.6225700000000000    0.6620300000000000    0.3032450000000000 H
   0.3448700000000000    0.1387600000000000    0.5082500000000000 H
   0.3717900000000000    0.1060600000000000    0.5814150000000000 H
   0.3257200000000000    0.5027500000000000    0.4406400000000000 H
   0.4408800000000000    0.5495800000000000    0.4141000000000000 H
   0.5758900000000000    0.3805700000000000    0.5012700000000000 H
   0.6910800000000000    0.3274600000000000    0.5247100000000000 H
   0.0759100000000000    0.3805600000000000    0.5012700000000000 H
   0.1910900000000000    0.3274600000000000    0.5247100000000000 H
   0.8257100000000001    0.5027600000000000    0.4406350000000000 H
   0.9408600000000000    0.5495900000000000    0.4140950000000000 H
   0.4235100000000000    0.9841200000000000    0.4303450000000000 H
   0.5074900000000000    0.8378500000000000    0.4467250000000000 H
   0.9235000000000000    0.9841200000000000    0.4303000000000000 H
   0.0075100000000000    0.8378600000000000    0.4467250000000000 H
   0.2676100000000000    0.9971800000000000    0.3095650000000000 H
   0.3797400000000000    0.9503200000000001    0.3360750000000000 H
   0.5174200000000000    0.1193500000000000    0.2486800000000000 H
   0.6295500000000001    0.1722300000000000    0.2252050000000000 H
   0.0174300000000000    0.1193500000000000    0.2486800000000000 H
   0.1295700000000000    0.1722200000000000    0.2252050000000000 H
   0.7675999999999999    0.9971800000000000    0.3095700000000000 H
   0.8797199999999999    0.9503200000000001    0.3360800000000000 H
   0.3774000000000000    0.3379500000000000    0.6967550000000000 H
   0.4051900000000000    0.4839600000000000    0.6803049999999999 H
   0.1728500000000000    0.3612200000000000    0.7416800000000000 H
   0.2567000000000000    0.3938500000000000    0.6686850000000000 H
   0.8271300000000000    0.6387500000000000    0.7583250000000000 H
   0.7432800000000001    0.6061200000000000    0.8313200000000001 H
   0.3271500000000000    0.6387600000000000    0.7583250000000000 H
   0.2433000000000000    0.6061299999999999    0.8313200000000001 H
   0.6550900000000000    0.8612200000000000    0.4917500000000000 H
   0.6281700000000000    0.8939200000000000    0.4185850000000000 H
   0.9051600000000000    0.4839500000000000    0.6803049999999999 H
   0.8773800000000000    0.3379500000000000    0.6967550000000000 H
   0.6742500000000000    0.4972200000000000    0.5593550000000000 H
   0.5590800000000000    0.4504000000000000    0.5859000000000000 H
   0.4240700000000000    0.6194200000000000    0.4987350000000000 H
   0.3088800000000000    0.6725200000000000    0.4752950000000000 H
   0.9240600000000000    0.6194200000000000    0.4987350000000000 H
   0.8088700000000000    0.6725300000000000    0.4752950000000000 H
   0.1742600000000000    0.4972200000000000    0.5593500000000000 H
   0.0591000000000000    0.4503900000000000    0.5859100000000000 H
   0.6728200000000000    0.3612200000000000    0.7416750000000000 H
   0.7566800000000000    0.3938400000000000    0.6686799999999999 H
   0.5764600000000000    0.0158600000000000    0.5696500000000000 H
   0.4924800000000000    0.1621300000000000    0.5532750000000000 H
   0.0764600000000000    0.0158500000000000    0.5696500000000000 H
   0.9924600000000000    0.1621200000000000    0.5532500000000000 H
   0.4825400000000000    0.8806400000000000    0.7513200000000000 H
   0.3704100000000000    0.8277600000000001    0.7747950000000000 H
   0.7323600000000000    0.0028000000000000    0.6904350000000000 H
   0.6202299999999999    0.0496600000000000    0.6639200000000001 H
   0.2323700000000000    0.0028000000000000    0.6904300000000000 H
   0.1202400000000000    0.0496600000000000    0.6639150000000000 H
   0.9825199999999999    0.8806400000000000    0.7513200000000000 H
   0.8703900000000000    0.8277700000000000    0.7747950000000000 H
   0.8448600000000001    0.1387700000000000    0.0082500000000000 H
   0.8717700000000000    0.1060600000000000    0.0814150000000000 H
   0.0948100000000000    0.5160200000000000    0.8196950000000001 H
   0.1225900000000000    0.6620300000000000    0.8032450000000000 H
   0.5947900000000000    0.5160200000000000    0.8196950000000001 H
   0.6225700000000000    0.6620300000000000    0.8032450000000000 H
   0.3448700000000000    0.1387600000000000    0.0082500000000000 H
   0.3717900000000000    0.1060600000000000    0.0814150000000000 H
   0.3257200000000000    0.5027500000000000    0.9406399999999999 H
   0.4408800000000000    0.5495800000000000    0.9141000000000000 H
   0.5758900000000000    0.3805700000000000    0.0012700000000000 H
   0.6910800000000000    0.3274600000000000    0.0247100000000000 H
   0.0759100000000000    0.3805600000000000    0.0012700000000000 H
   0.1910900000000000    0.3274600000000000    0.0247100000000000 H
   0.8257100000000001    0.5027600000000000    0.9406350000000000 H
   0.9408600000000000    0.5495900000000000    0.9140950000000000 H
   0.4235100000000000    0.9841200000000000    0.9303450000000000 H
   0.5074900000000000    0.8378500000000000    0.9467250000000000 H
   0.9235000000000000    0.9841200000000000    0.9303000000000000 H
   0.0075100000000000    0.8378600000000000    0.9467250000000000 H
   0.2676100000000000    0.9971800000000000    0.8095650000000000 H
   0.3797400000000000    0.9503200000000001    0.8360750000000000 H
   0.5174200000000000    0.1193500000000000    0.7486800000000000 H
   0.6295500000000001    0.1722300000000000    0.7252050000000000 H
   0.0174300000000000    0.1193500000000000    0.7486800000000000 H
   0.1295700000000000    0.1722200000000000    0.7252050000000000 H
   0.7675999999999999    0.9971800000000000    0.8095700000000000 H
   0.8797199999999999    0.9503200000000001    0.8360799999999999 H
   0.4248700000000000    0.2873300000000000    0.3840000000000000 C
   0.4525100000000000    0.2322400000000000    0.3565950000000000 C
   0.3790200000000000    0.1925200000000000    0.4036850000000000 C
   0.4248700000000000    0.2873300000000000    0.8840000000000000 C
   0.4525100000000000    0.2322400000000000    0.8565950000000000 C
   0.3790200000000000    0.1925200000000000    0.9036850000000001 C
   0.0474700000000000    0.7677200000000000    0.1434100000000000 C
   0.0751200000000000    0.7126400000000001    0.1157100000000000 C
   0.1209600000000000    0.8074500000000000    0.0963000000000000 C
   0.0474700000000000    0.7677200000000000    0.6434100000000000 C
   0.0751200000000000    0.7126400000000001    0.6157100000000000 C
   0.1209600000000000    0.8074500000000000    0.5963000000000001 C
   0.9248499999999999    0.2873400000000000    0.8842950000000001 C
   0.9524899999999999    0.2322500000000000    0.8565900000000000 C
   0.8790100000000000    0.1925300000000000    0.9036850000000001 C
   0.9248499999999999    0.2873400000000000    0.3842950000000000 C
   0.9524899999999999    0.2322500000000000    0.3565900000000000 C
   0.8790100000000000    0.1925300000000000    0.4036850000000000 C
   0.5474599999999999    0.7677300000000000    0.1434100000000000 C
   0.5750999999999999    0.7126500000000000    0.1157050000000000 C
   0.6209400000000000    0.8074600000000000    0.0963150000000000 C
   0.5474599999999999    0.7677300000000000    0.6434100000000000 C
   0.5750999999999999    0.7126500000000000    0.6157049999999999 C
   0.6209400000000000    0.8074600000000000    0.5963150000000000 C
   0.7027900000000000    0.2129900000000000    0.3657600000000000 C
   0.6749500000000000    0.2679400000000000    0.3935300000000000 C
   0.6288899999999999    0.3075400000000000    0.3462600000000000 C
   0.7027900000000000    0.2129900000000000    0.8657600000000000 C
   0.6749500000000000    0.2679400000000000    0.8935299999999999 C
   0.6288899999999999    0.3075400000000000    0.8462600000000000 C
   0.1749700000000000    0.2679500000000000    0.8935299999999999 C
   0.2028100000000000    0.2130000000000000    0.8657550000000001 C
   0.1289200000000000    0.3075600000000000    0.8462499999999999 C
   0.1749700000000000    0.2679500000000000    0.3935300000000000 C
   0.2028100000000000    0.2130000000000000    0.3657550000000000 C
   0.1289200000000000    0.3075600000000000    0.3462500000000000 C
   0.2971600000000000    0.7869900000000000    0.6342449999999999 C
   0.3250000000000000    0.7320300000000000    0.6064750000000000 C
   0.3710600000000000    0.6924300000000000    0.6537500000000001 C
   0.7971500000000000    0.7869800000000000    0.1342450000000000 C
   0.8249900000000000    0.7320300000000000    0.1064750000000000 C
   0.8710400000000000    0.6924300000000000    0.1537500000000000 C
   0.2971600000000000    0.7869900000000000    0.1342450000000000 C
   0.3250000000000000    0.7320300000000000    0.1064750000000000 C
   0.3710600000000000    0.6924300000000000    0.1537500000000000 C
   0.7971500000000000    0.7869800000000000    0.6342449999999999 C
   0.8249900000000000    0.7320300000000000    0.6064750000000000 C
   0.8710400000000000    0.6924300000000000    0.6537500000000001 C
   0.3941300000000000    0.3704800000000000    0.1684400000000000 C
   0.4079500000000000    0.4438100000000000    0.1602000000000000 C
   0.4255400000000000    0.3976000000000000    0.1054950000000000 C
   0.2100300000000000    0.3208700000000000    0.2216700000000000 C
   0.2520700000000000    0.3371600000000000    0.1850200000000000 C
   0.2699500000000000    0.2110300000000000    0.1987450000000000 C
   0.7899400000000000    0.6791000000000000    0.2783300000000000 C
   0.7479000000000000    0.6628100000000000    0.3149800000000000 C
   0.7300100000000000    0.7889500000000000    0.3012550000000000 C
   0.2899600000000000    0.6791100000000000    0.2783300000000000 C
   0.2479200000000000    0.6628200000000000    0.3149800000000000 C
   0.2300300000000000    0.7889500000000000    0.3012550000000000 C
   0.1581200000000000    0.8208800000000001    0.9716850000000000 C
   0.1447300000000000    0.8372100000000000    0.9349450000000000 C
   0.1759900000000000    0.7110700000000000    0.9486749999999999 C
   0.6581100000000000    0.8208900000000000    0.9716800000000000 C
   0.6447200000000000    0.8372200000000000    0.9349400000000000 C
   0.6759800000000000    0.7110800000000000    0.9486700000000000 C
   0.9079300000000000    0.4438100000000000    0.1602250000000000 C
   0.8941100000000000    0.3704800000000000    0.1684400000000000 C
   0.9255200000000000    0.3976000000000000    0.1050000000000000 C
   0.6247100000000000    0.5306000000000000    0.0592300000000000 C
   0.5673600000000000    0.5071500000000000    0.0720650000000000 C
   0.5452700000000000    0.6298400000000000    0.0487600000000000 C
   0.3745800000000000    0.6190900000000000    0.0153600000000000 C
   0.3172200000000000    0.6447400000000000    0.0036200000000000 C
   0.2952500000000000    0.5980000000000000    0.0648200000000000 C
   0.8745600000000000    0.6190900000000000    0.0153600000000000 C
   0.8172000000000000    0.6447500000000000    0.0036200000000000 C
   0.7952300000000000    0.5980100000000000    0.0648200000000000 C
   0.1247100000000000    0.5306000000000000    0.0592350000000000 C
   0.0673700000000000    0.5071400000000000    0.0720650000000000 C
   0.0452800000000000    0.6298300000000000    0.0487500000000000 C
   0.7100100000000000    0.3208700000000000    0.2216700000000000 C
   0.7520600000000000    0.3371500000000000    0.1850200000000000 C
   0.7699400000000000    0.2110200000000000    0.1987450000000000 C
   0.5393800000000000    0.0560900000000000    0.0897600000000000 C
   0.4972900000000000    0.1295600000000000    0.0815750000000000 C
   0.4797700000000000    0.1024200000000000    0.1445150000000000 C
   0.0393900000000000    0.0560900000000000    0.0897600000000000 C
   0.9972700000000000    0.1295500000000000    0.0815750000000000 C
   0.9797600000000000    0.1024200000000000    0.1445150000000000 C
   0.4494600000000000    0.8808800000000000    0.2346850000000000 C
   0.3931600000000000    0.8553500000000001    0.2464450000000000 C
   0.4089600000000000    0.9016900000000000    0.1851900000000000 C
   0.6993000000000000    0.9694400000000000    0.1905950000000000 C
   0.6430000000000000    0.9929200000000000    0.1777900000000000 C
   0.6588500000000000    0.8702700000000000    0.2011400000000000 C
   0.1993100000000000    0.9694400000000000    0.1905500000000000 C
   0.1430100000000000    0.9929200000000000    0.1777850000000000 C
   0.1588700000000000    0.8702700000000000    0.2011350000000000 C
   0.9494500000000000    0.8808800000000000    0.2346850000000000 C
   0.8931400000000000    0.8553500000000001    0.2460000000000000 C
   0.9089500000000000    0.9016800000000000    0.1851900000000000 C
   0.8418400000000000    0.1791000000000000    0.5283150000000000 C
   0.8552300000000000    0.1627700000000000    0.5650500000000001 C
   0.8239800000000000    0.2889100000000000    0.5513300000000000 C
   0.0920400000000000    0.5561700000000001    0.3397800000000000 C
   0.1058600000000000    0.6294999999999999    0.3315600000000000 C
   0.0744400000000000    0.6023800000000000    0.3945050000000000 C
   0.5920100000000000    0.5561700000000001    0.3397800000000000 C
   0.6058300000000000    0.6295100000000000    0.3315600000000000 C
   0.5744200000000000    0.6023800000000000    0.3945050000000000 C
   0.3418600000000000    0.1790900000000000    0.5283200000000000 C
   0.3552500000000000    0.1627600000000000    0.5650500000000001 C
   0.3240000000000000    0.2889000000000000    0.5513250000000000 C
   0.3752600000000000    0.4693800000000000    0.4407700000000000 C
   0.4326000000000000    0.4928300000000000    0.4279450000000000 C
   0.4547000000000000    0.3701500000000000    0.4512450000000000 C
   0.6253900000000000    0.3809000000000000    0.4846450000000000 C
   0.6827500000000000    0.3552500000000000    0.4963850000000000 C
   0.7047200000000000    0.4019700000000000    0.4351500000000000 C
   0.1254000000000000    0.3809000000000000    0.4846450000000000 C
   0.1827600000000000    0.3552400000000000    0.4963850000000000 C
   0.2047300000000000    0.4019600000000000    0.4351800000000000 C
   0.8752500000000000    0.4693900000000000    0.4407650000000000 C
   0.9325900000000000    0.4928400000000000    0.4279400000000000 C
   0.9546800000000000    0.3701600000000000    0.4512450000000000 C
   0.4605800000000000    0.9438900000000000    0.4102400000000000 C
   0.5026800000000000    0.8704200000000000    0.4184250000000000 C
   0.5202000000000000    0.8975600000000000    0.3554850000000000 C
   0.9605800000000000    0.9438900000000000    0.4102400000000000 C
   0.0026900000000000    0.8704300000000000    0.4184250000000000 C
   0.0202100000000000    0.8975600000000000    0.3554850000000000 C
   0.3006600000000000    0.0305500000000000    0.3094000000000000 C
   0.3569600000000000    0.0070700000000000    0.3222150000000000 C
   0.3411100000000000    0.1297100000000000    0.2988650000000000 C
   0.5505000000000000    0.1191100000000000    0.2653150000000000 C
   0.6068000000000000    0.1446400000000000    0.2535550000000000 C
   0.5910100000000000    0.0983000000000000    0.3148100000000000 C
   0.0505100000000000    0.1191100000000000    0.2653150000000000 C
   0.1068200000000000    0.1446400000000000    0.2535550000000000 C
   0.0910200000000000    0.0983000000000000    0.3148100000000000 C
   0.8006500000000000    0.0305400000000000    0.3094100000000000 C
   0.8569500000000000    0.0070700000000000    0.3222150000000000 C
   0.8411000000000000    0.1297100000000000    0.2988650000000000 C
   0.3941300000000000    0.3704800000000000    0.6684400000000000 C
   0.4079500000000000    0.4438100000000000    0.6602000000000000 C
   0.4255400000000000    0.3976000000000000    0.6054950000000000 C
   0.2100300000000000    0.3208700000000000    0.7216700000000000 C
   0.2520700000000000    0.3371600000000000    0.6850200000000000 C
   0.2699500000000000    0.2110300000000000    0.6987449999999999 C
   0.7899400000000000    0.6791000000000000    0.7783300000000000 C
   0.7479000000000000    0.6628100000000000    0.8149800000000000 C
   0.7300100000000000    0.7889500000000000    0.8012550000000001 C
   0.2899600000000000    0.6791100000000000    0.7783300000000000 C
   0.2479200000000000    0.6628200000000000    0.8149800000000000 C
   0.2300300000000000    0.7889500000000000    0.8012550000000001 C
   0.6581100000000000    0.8208900000000000    0.4716800000000000 C
   0.6447200000000000    0.8372200000000000    0.4349400000000000 C
   0.6759800000000000    0.7110800000000000    0.4486700000000000 C
   0.9079300000000000    0.4438100000000000    0.6602250000000001 C
   0.8941100000000000    0.3704800000000000    0.6684400000000000 C
   0.9255200000000000    0.3976000000000000    0.6050000000000000 C
   0.6247100000000000    0.5306000000000000    0.5592300000000000 C
   0.5673600000000000    0.5071500000000000    0.5720650000000000 C
   0.5452700000000000    0.6298400000000000    0.5487600000000000 C
   0.3745800000000000    0.6190900000000000    0.5153600000000000 C
   0.3172200000000000    0.6447400000000000    0.5036200000000000 C
   0.2952500000000000    0.5980000000000000    0.5648200000000000 C
   0.8745600000000000    0.6190900000000000    0.5153600000000000 C
   0.8172000000000000    0.6447500000000000    0.5036200000000000 C
   0.7952300000000000    0.5980100000000000    0.5648200000000000 C
   0.1247100000000000    0.5306000000000000    0.5592350000000000 C
   0.0673700000000000    0.5071400000000000    0.5720650000000000 C
   0.0452800000000000    0.6298300000000000    0.5487500000000000 C
   0.7100100000000000    0.3208700000000000    0.7216700000000000 C
   0.7520600000000000    0.3371500000000000    0.6850200000000000 C
   0.7699400000000000    0.2110200000000000    0.6987449999999999 C
   0.5393800000000000    0.0560900000000000    0.5897600000000001 C
   0.4972900000000000    0.1295600000000000    0.5815750000000000 C
   0.4797700000000000    0.1024200000000000    0.6445149999999999 C
   0.0393900000000000    0.0560900000000000    0.5897600000000001 C
   0.9972700000000000    0.1295500000000000    0.5815750000000000 C
   0.9797600000000000    0.1024200000000000    0.6445149999999999 C
   0.4494600000000000    0.8808800000000000    0.7346850000000000 C
   0.3931600000000000    0.8553500000000001    0.7464450000000000 C
   0.4089600000000000    0.9016900000000000    0.6851900000000000 C
   0.6993000000000000    0.9694400000000000    0.6905950000000000 C
   0.6430000000000000    0.9929200000000000    0.6777900000000000 C
   0.6588500000000000    0.8702700000000000    0.7011400000000000 C
   0.1993100000000000    0.9694400000000000    0.6905500000000000 C
   0.1430100000000000    0.9929200000000000    0.6777850000000000 C
   0.1588700000000000    0.8702700000000000    0.7011350000000001 C
   0.9494500000000000    0.8808800000000000    0.7346850000000000 C
   0.8931400000000000    0.8553500000000001    0.7460000000000000 C
   0.9089500000000000    0.9016800000000000    0.6851900000000000 C
   0.8418400000000000    0.1791000000000000    0.0283150000000000 C
   0.8552300000000000    0.1627700000000000    0.0650500000000000 C
   0.8239800000000000    0.2889100000000000    0.0513300000000000 C
   0.0920400000000000    0.5561700000000001    0.8397800000000000 C
   0.1058600000000000    0.6294999999999999    0.8315600000000001 C
   0.0744400000000000    0.6023800000000000    0.8945050000000000 C
   0.5920100000000000    0.5561700000000001    0.8397800000000000 C
   0.6058300000000000    0.6295100000000000    0.8315600000000001 C
   0.5744200000000000    0.6023800000000000    0.8945050000000000 C
   0.3418600000000000    0.1790900000000000    0.0283200000000000 C
   0.3552500000000000    0.1627600000000000    0.0650500000000000 C
   0.3240000000000000    0.2889000000000000    0.0513250000000000 C
   0.3752600000000000    0.4693800000000000    0.9407700000000000 C
   0.4326000000000000    0.4928300000000000    0.9279450000000000 C
   0.4547000000000000    0.3701500000000000    0.9512450000000000 C
   0.6253900000000000    0.3809000000000000    0.9846450000000000 C
   0.6827500000000000    0.3552500000000000    0.9963850000000001 C
   0.7047200000000000    0.4019700000000000    0.9351499999999999 C
   0.1254000000000000    0.3809000000000000    0.9846450000000000 C
   0.1827600000000000    0.3552400000000000    0.9963850000000001 C
   0.2047300000000000    0.4019600000000000    0.9351800000000000 C
   0.8752500000000000    0.4693900000000000    0.9407650000000001 C
   0.9325900000000000    0.4928400000000000    0.9279400000000000 C
   0.9546800000000000    0.3701600000000000    0.9512450000000000 C
   0.4605800000000000    0.9438900000000000    0.9102399999999999 C
   0.5026800000000000    0.8704200000000000    0.9184250000000000 C
   0.5202000000000000    0.8975600000000000    0.8554850000000001 C
   0.9605800000000000    0.9438900000000000    0.9102399999999999 C
   0.0026900000000000    0.8704300000000000    0.9184250000000000 C
   0.0202100000000000    0.8975600000000000    0.8554850000000001 C
   0.3006600000000000    0.0305500000000000    0.8094000000000000 C
   0.3569600000000000    0.0070700000000000    0.8222149999999999 C
   0.3411100000000000    0.1297100000000000    0.7988649999999999 C
   0.5505000000000000    0.1191100000000000    0.7653150000000000 C
   0.6068000000000000    0.1446400000000000    0.7535550000000000 C
   0.5910100000000000    0.0983000000000000    0.8148100000000000 C
   0.0505100000000000    0.1191100000000000    0.7653150000000000 C
   0.1068200000000000    0.1446400000000000    0.7535550000000000 C
   0.0910200000000000    0.0983000000000000    0.8148100000000000 C
   0.8006500000000000    0.0305400000000000    0.8094100000000000 C
   0.8569500000000000    0.0070700000000000    0.8222149999999999 C
   0.8411000000000000    0.1297100000000000    0.7988649999999999 C