H10 O6
1.0
  13.1838090284007965    0.0000000000000000   -4.7399661921428997
  -7.4596535853363708   14.4952997243451573   -4.0053992670116392
   0.0000000000000000    0.0000000000000000   33.6360000000000028
H O
10 6
direct
   0.7193085137278807    0.4831388577540418    0.6972358337540050 H
   0.7681858949715407    0.4552936942996365    0.7122957098309417 H
   0.7833584104276923    0.3246797148260865    0.7029493408583594 H
   0.9605051046747287    0.3821183502771738    0.7164212754288108 H
   0.9672782791105613    0.2579559567394393    0.6807731163314200 H
   0.2807509325557030    0.5168907685908940    0.8027748532511643 H
   0.2318748676800454    0.5447422669736588    0.7877126796919989 H
   0.2167037240614950    0.6753568585638161    0.7970546840334881 H
   0.0395589293255157    0.6179274848680214    0.7835866696195084 H
   0.0327848589147631    0.7420780492902961    0.8192493375643018 H
   0.6989000000000000    0.4186700000000000    0.6822000000000000 O
   0.7154800000000000    0.2888000000000000    0.6734650000000000 O
   0.9409799999999999    0.3189200000000000    0.6981350000000000 O
   0.3011600000000000    0.5813600000000000    0.8178099999999999 O
   0.2845800000000000    0.7112300000000000    0.8265400000000001 O
   0.0590800000000000    0.6811199999999999    0.8018799999999999 O
