H2 C8 O6
1.0
  13.1838090284007965    0.0000000000000000   -4.7399661921428997
  -7.4596535853363708   14.4952997243451573   -4.0053992670116392
   0.0000000000000000    0.0000000000000000   33.6360000000000028
H C O
2 8 6
direct
   0.1477600000000000    0.4486800000000000    0.7558800000000000 H
   0.8522999999999999    0.5513600000000000    0.7441000000000000 H
   0.2397400000000000    0.6232900000000000    0.8096749999999999 C
   0.1159700000000000    0.5628600000000000    0.7792399999999999 C
   0.0320500000000000    0.5936200000000000    0.7765500000000001 C
   0.0819300000000000    0.4706200000000000    0.7529699999999999 C
   0.7603200000000000    0.3767400000000000    0.6903500000000000 C
   0.8840900000000000    0.4371700000000000    0.7207700000000000 C
   0.9680100000000000    0.4064100000000000    0.7234500000000000 C
   0.9181300000000000    0.5294200000000000    0.7470450000000000 C
   0.0590800000000000    0.6811199999999999    0.8018799999999999 O
   0.2845800000000000    0.7112300000000000    0.8265400000000001 O
   0.3011600000000000    0.5813600000000000    0.8178099999999999 O
   0.9409800000000000    0.3189200000000000    0.6981350000000000 O
   0.7154800000000000    0.2888000000000000    0.6734650000000000 O
   0.6989000000000000    0.4186700000000000    0.6822000000000000 O
