H8 O5
1.0
   6.2484931097032836    0.0000000000000000    1.2787563716324513
   0.0136702440840538   36.8699960460646849    0.0102316959025189
   0.0000000000000000    0.0000000000000000   15.5126000000000008
H O
8 5
direct
   0.3040600746422468    0.2391587677224127    0.2811791415467928 H
   0.0481333529038609    0.2314309790000595    0.3295207107068924 H
   0.5537607708737127    0.2239340081527960    0.3524247211619575 H
   1.0476689590002857    0.1885755047403524    0.4692080261492233 H
   0.8112051019807576    0.2067405555527653    0.4100515649838611 H
   0.6494361471428384    0.2753698850597993    0.1670503922875188 H
   0.4037481503885921    0.2737835346313036    0.0592399967991038 H
   0.6544187146040843    0.0867540170020168    0.0736972922465056 H
   0.2001100000000000    0.2259766666666667    0.3250200000000000 O
   0.6397500000000000    0.2117400000000000    0.3886000000000000 O
   0.9112500000000000    0.1925533333333333    0.4521400000000000 O
   0.6185900000000000    0.3011266666666667    0.1666600000000000 O
   0.3994200000000000    0.2996799999999999    0.0704700000000000 O
