Ca12 H33 C77 N11 O44
1.0
   6.2484931097032836    0.0000000000000000    1.2787563716324513
   0.0136702440840538   36.8699960460646849    0.0102316959025189
   0.0000000000000000    0.0000000000000000   15.5126000000000008
Ca H C N O
12 33 77 11 44
direct
   0.2969600000000000    0.1825366666666667    0.4413400000000000 Ca
   0.2968900000000000    0.3174866666666666    0.9413400000000000 Ca
   0.7028799999999999    0.1508433333333333    0.5586800000000000 Ca
   0.7027000000000000    0.0158166666666667    0.0588000000000000 Ca
   0.2969600000000000    0.5158700000000001    0.4413400000000000 Ca
   0.2968900000000000    0.6508200000000000    0.9413400000000000 Ca
   0.7028799999999999    0.4841766666666666    0.5586800000000000 Ca
   0.7027000000000000    0.3491500000000000    0.0588000000000000 Ca
   0.2969600000000000    0.8492033333333333    0.4413400000000000 Ca
   0.2968900000000000    0.9841533333333332    0.9413400000000000 Ca
   0.7028799999999999    0.8175100000000000    0.5586800000000000 Ca
   0.7027000000000000    0.6824833333333333    0.0588000000000000 Ca
   0.2504500000000000    0.0993500000000000    0.2126400000000000 H
   0.4900300000000000    0.0702533333333333    0.2389300000000000 H
   0.9853700000000000    0.1315133333333333    0.3260600000000000 H
   0.7496900000000000    0.2338933333333333    0.7877999999999999 H
   0.5098900000000000    0.2630066666666667    0.7617500000000000 H
   0.0146900000000000    0.2017766666666667    0.6742400000000000 H
   0.2502800000000000    0.0673066666666667    0.7127700000000000 H
   0.4901500000000000    0.0964300000000000    0.7385000000000000 H
   0.9850900000000000    0.0352366666666667    0.8262900000000000 H
   0.2504500000000000    0.4326833333333333    0.2126400000000000 H
   0.4900300000000000    0.4035866666666666    0.2389300000000000 H
   0.9853700000000000    0.4648466666666666    0.3260600000000000 H
   0.7497300000000000    0.5994733333333333    0.2874300000000000 H
   0.5098500000000000    0.5703333333333334    0.2617400000000000 H
   0.0149900000000000    0.6315366666666666    0.1739200000000000 H
   0.7496900000000000    0.5672266666666667    0.7877999999999999 H
   0.5098900000000000    0.5963400000000000    0.7617500000000000 H
   0.0146900000000000    0.5351100000000000    0.6742400000000000 H
   0.2502800000000000    0.4006400000000000    0.7127700000000000 H
   0.4901500000000000    0.4297633333333333    0.7385000000000000 H
   0.9850900000000000    0.3685700000000000    0.8262900000000000 H
   0.2504500000000000    0.7660166666666666    0.2126400000000000 H
   0.4900300000000000    0.7369200000000000    0.2389300000000000 H
   0.9853700000000000    0.7981799999999999    0.3260600000000000 H
   0.7497300000000000    0.9328066666666666    0.2874300000000000 H
   0.5098500000000000    0.9036666666666666    0.2617400000000000 H
   0.0149900000000000    0.9648699999999999    0.1739200000000000 H
   0.7496900000000000    0.9005599999999999    0.7877999999999999 H
   0.5098900000000000    0.9296733333333334    0.7617500000000000 H
   0.0146900000000000    0.8684433333333332    0.6742400000000000 H
   0.2502800000000000    0.7339733333333333    0.7127700000000000 H
   0.4901500000000000    0.7630966666666666    0.7385000000000000 H
   0.9850900000000000    0.7019033333333333    0.8262900000000000 H
   0.7154000000000000    0.1035533333333333    0.2918000000000000 C
   0.0102200000000000    0.0668733333333333    0.1687500000000000 C
   0.0813700000000000    0.0931266666666667    0.2208800000000000 C
   0.6569900000000000    0.0773666666666667    0.2356100000000000 C
   0.9328400000000000    0.1113800000000000    0.2837200000000000 C
   0.5527300000000001    0.1245566666666667    0.3559800000000000 C
   0.1673400000000000    0.0444966666666667    0.1041600000000000 C
   0.2847300000000000    0.2298866666666667    0.7082600000000000 C
   0.9898400000000001    0.2665466666666667    0.8312500000000000 C
   0.9187100000000000    0.2402100000000000    0.7793300000000000 C
   0.3429600000000000    0.2559433333333333    0.7647800000000000 C
   0.0672100000000000    0.2219900000000000    0.7163900000000000 C
   0.4472500000000000    0.2089166666666667    0.6439600000000000 C
   0.8329100000000000    0.2889033333333333    0.8959500000000000 C
   0.7153200000000000    0.0632300000000000    0.7918800000000000 C
   0.0102400000000000    0.0998900000000000    0.6689000000000001 C
   0.0812600000000000    0.0736133333333333    0.7210700000000000 C
   0.6570900000000000    0.0893333333333333    0.7354100000000000 C
   0.9326500000000000    0.0554066666666667    0.7839699999999999 C
   0.5526600000000000    0.0422433333333333    0.8560800000000000 C
   0.1672700000000000    0.1222066666666667    0.6041299999999999 C
   0.7154000000000000    0.4368866666666666    0.2918000000000000 C
   0.0102200000000000    0.4002066666666667    0.1687500000000000 C
   0.0813700000000000    0.4264600000000000    0.2208800000000000 C
   0.6569900000000000    0.4107000000000000    0.2356100000000000 C
   0.9328400000000000    0.4447133333333333    0.2837200000000000 C
   0.5527300000000001    0.4578900000000000    0.3559800000000000 C
   0.1673400000000000    0.3778300000000000    0.1041600000000000 C
   0.2846900000000000    0.6035199999999999    0.2083200000000000 C
   0.9897400000000000    0.5668599999999999    0.3312500000000000 C
   0.9187400000000000    0.5931599999999999    0.2791300000000000 C
   0.3429200000000000    0.5774200000000000    0.2647900000000000 C
   0.0673800000000000    0.6113599999999999    0.2162400000000000 C
   0.4473100000000000    0.6244600000000000    0.1440100000000000 C
   0.8326300000000000    0.5445133333333333    0.3959000000000000 C
   0.2847300000000000    0.5632200000000001    0.7082600000000000 C
   0.9898400000000001    0.5998800000000000    0.8312500000000000 C
   0.9187100000000000    0.5735433333333333    0.7793300000000000 C
   0.3429600000000000    0.5892766666666667    0.7647800000000000 C
   0.0672100000000000    0.5553233333333333    0.7163900000000000 C
   0.4472500000000000    0.5422500000000000    0.6439600000000000 C
   0.8329100000000000    0.6222366666666665    0.8959500000000000 C
   0.7153200000000000    0.3965633333333333    0.7918800000000000 C
   0.0102400000000000    0.4332233333333333    0.6689000000000001 C
   0.0812600000000000    0.4069466666666667    0.7210700000000000 C
   0.6570900000000000    0.4226666666666666    0.7354100000000000 C
   0.9326500000000000    0.3887400000000000    0.7839699999999999 C
   0.5526600000000000    0.3755766666666667    0.8560800000000000 C
   0.1672700000000000    0.4555399999999999    0.6041299999999999 C
   0.7154000000000000    0.7702199999999999    0.2918000000000000 C
   0.0102200000000000    0.7335400000000000    0.1687500000000000 C
   0.0813700000000000    0.7597933333333333    0.2208800000000000 C
   0.6569900000000000    0.7440333333333333    0.2356100000000000 C
   0.9328400000000000    0.7780466666666667    0.2837200000000000 C
   0.5527300000000001    0.7912233333333333    0.3559800000000000 C
   0.1673400000000000    0.7111633333333333    0.1041600000000000 C
   0.2846900000000000    0.9368533333333333    0.2083200000000000 C
   0.9897400000000000    0.9001933333333333    0.3312500000000000 C
   0.9187400000000000    0.9264933333333333    0.2791300000000000 C
   0.3429200000000000    0.9107533333333333    0.2647900000000000 C
   0.0673800000000000    0.9446933333333333    0.2162400000000000 C
   0.4473100000000000    0.9577933333333333    0.1440100000000000 C
   0.8326300000000000    0.8778466666666667    0.3959000000000000 C
   0.2847300000000000    0.8965533333333333    0.7082600000000000 C
   0.9898400000000001    0.9332133333333332    0.8312500000000000 C
   0.9187100000000000    0.9068766666666666    0.7793300000000000 C
   0.3429600000000000    0.9226099999999999    0.7647800000000000 C
   0.0672100000000000    0.8886566666666667    0.7163900000000000 C
   0.4472500000000000    0.8755833333333333    0.6439600000000000 C
   0.8329100000000000    0.9555699999999999    0.8959500000000000 C
   0.7153200000000000    0.7298966666666666    0.7918800000000000 C
   0.0102400000000000    0.7665566666666667    0.6689000000000001 C
   0.0812600000000000    0.7402799999999999    0.7210700000000000 C
   0.6570900000000000    0.7560000000000000    0.7354100000000000 C
   0.9326500000000000    0.7220733333333333    0.7839699999999999 C
   0.5526600000000000    0.7089099999999999    0.8560800000000000 C
   0.1672700000000000    0.7888733333333333    0.6041299999999999 C
   0.7995800000000000    0.0592300000000000    0.1753400000000000 N
   0.2001300000000000    0.2740500000000000    0.8250300000000000 N
   0.7998499999999999    0.1074400000000000    0.6751500000000000 N
   0.7995800000000000    0.3925633333333333    0.1753400000000000 N
   0.2001100000000000    0.5593100000000000    0.3250200000000000 N
   0.2001300000000000    0.6073833333333334    0.8250300000000000 N
   0.7998499999999999    0.4407733333333333    0.6751500000000000 N
   0.7995800000000000    0.7258966666666666    0.1753400000000000 N
   0.2001100000000000    0.8926433333333332    0.3250200000000000 N
   0.2001300000000000    0.9407166666666666    0.8250300000000000 N
   0.7998499999999999    0.7741066666666666    0.6751500000000000 N
   0.0887600000000000    0.0259100000000000    0.0478800000000000 O
   0.3602000000000000    0.0450166666666667    0.1115200000000000 O
   0.3814500000000000    0.1345100000000000    0.3332500000000000 O
   0.6003200000000000    0.1332033333333333    0.4295100000000000 O
   0.9118000000000001    0.3074766666666666    0.9521800000000000 O
   0.6399700000000000    0.2884033333333333    0.8887200000000000 O
   0.6183400000000000    0.1988166666666667    0.6666666666666666 O
   0.3993900000000000    0.2004400000000000    0.5703800000000000 O
   0.0883800000000000    0.1407700000000000    0.5478400000000000 O
   0.3602300000000000    0.1216833333333333    0.6113600000000000 O
   0.3819000000000000    0.0321333333333333    0.8331900000000000 O
   0.5999000000000000    0.0337566666666667    0.9297800000000001 O
   0.0887600000000000    0.3592433333333333    0.0478800000000000 O
   0.3602000000000000    0.3783500000000000    0.1115200000000000 O
   0.3814500000000000    0.4678433333333333    0.3332500000000000 O
   0.6003200000000000    0.4665366666666667    0.4295100000000000 O
   0.9112500000000000    0.5258866666666666    0.4521400000000000 O
   0.6397500000000000    0.5450733333333333    0.3886000000000000 O
   0.6185900000000000    0.6344600000000000    0.1666600000000000 O
   0.3994200000000000    0.6330133333333332    0.0704700000000000 O
   0.9118000000000001    0.6408099999999999    0.9521800000000000 O
   0.6399700000000000    0.6217366666666666    0.8887200000000000 O
   0.6183400000000000    0.5321500000000000    0.6666666666666666 O
   0.3993900000000000    0.5337733333333333    0.5703800000000000 O
   0.0883800000000000    0.4741033333333333    0.5478400000000000 O
   0.3602300000000000    0.4550166666666666    0.6113600000000000 O
   0.3819000000000000    0.3654666666666667    0.8331900000000000 O
   0.5999000000000000    0.3670900000000000    0.9297800000000001 O
   0.0887600000000000    0.6925766666666666    0.0478800000000000 O
   0.3602000000000000    0.7116833333333333    0.1115200000000000 O
   0.3814500000000000    0.8011766666666666    0.3332500000000000 O
   0.6003200000000000    0.7998700000000000    0.4295100000000000 O
   0.9112500000000000    0.8592199999999999    0.4521400000000000 O
   0.6397500000000000    0.8784066666666666    0.3886000000000000 O
   0.6185900000000000    0.9677933333333333    0.1666600000000000 O
   0.3994200000000000    0.9663466666666666    0.0704700000000000 O
   0.9118000000000001    0.9741433333333333    0.9521800000000000 O
   0.6399700000000000    0.9550700000000000    0.8887200000000000 O
   0.6183400000000000    0.8654833333333333    0.6666666666666666 O
   0.3993900000000000    0.8671066666666666    0.5703800000000000 O
   0.0883800000000000    0.8074366666666666    0.5478400000000000 O
   0.3602300000000000    0.7883500000000000    0.6113600000000000 O
   0.3819000000000000    0.6988000000000000    0.8331900000000000 O
   0.5999000000000000    0.7004233333333333    0.9297800000000001 O
