Zn18 H642 Pt36 Au36 C355 S71 N71 O144
1.0
  37.2479988880538144    0.0000000000000000    0.0091014032663884
 -12.4055165104083205   21.5642752880102044   -0.0086840600498665
   0.0000000000000000    0.0000000000000000   27.0489999999999995
Zn H Pt Au C S N O
18 642 36 36 355 71 71 144
direct
   0.6666566666666667    0.4996750000000000    0.3334500000000000 Zn
   0.6666566666666667    0.9996750000000000    0.3334500000000000 Zn
   0.9999899999999999    0.4996750000000000    0.3334500000000000 Zn
   0.9999899999999999    0.9996750000000000    0.3334500000000000 Zn
   0.3333233333333333    0.9996750000000000    0.3334500000000000 Zn
   0.3333233333333333    0.4996750000000000    0.3334500000000000 Zn
   0.3333066666666666    0.4996150000000000    0.0015900000000000 Zn
   0.3333066666666666    0.9996149999999999    0.0015900000000000 Zn
   0.9999733333333333    0.9996149999999999    0.0015900000000000 Zn
   0.9999733333333333    0.4996150000000000    0.0015900000000000 Zn
   0.6666399999999999    0.9996149999999999    0.0015900000000000 Zn
   0.6666399999999999    0.4996150000000000    0.0015900000000000 Zn
   0.6668366666666666    0.4996950000000000    0.6663400000000000 Zn
   0.0001700000000000    0.4996950000000000    0.6663400000000000 Zn
   0.3335033333333333    0.4996950000000000    0.6663400000000000 Zn
   0.3335033333333333    0.9996950000000000    0.6663400000000000 Zn
   0.6668366666666666    0.9996950000000000    0.6663400000000000 Zn
   0.0001700000000000    0.9996950000000000    0.6663400000000000 Zn
   0.7573533333333333    0.6677600000000000    0.4360500000000000 H
   0.7608933333333333    0.6589350000000000    0.3770600000000000 H
   0.7798933333333333    0.6016650000000000    0.4584900000000000 H
   0.8443499999999999    0.6207199999999999    0.3216500000000000 H
   0.8112699999999999    0.6523400000000000    0.3251700000000000 H
   0.7895300000000000    0.5705500000000000    0.3238500000000000 H
   0.7987599999999999    0.5155700000000000    0.4015800000000000 H
   0.8535933333333332    0.5659300000000000    0.3971100000000000 H
   0.8272166666666666    0.5609000000000000    0.4531900000000000 H
   0.5759066666666667    0.3318750000000000    0.4360900000000000 H
   0.5723966666666667    0.3407200000000000    0.3771100000000000 H
   0.5534466666666666    0.3980500000000000    0.4585700000000000 H
   0.4889466666666666    0.3790450000000000    0.3218000000000000 H
   0.5220166666666667    0.3474100000000000    0.3252400000000000 H
   0.5437633333333334    0.4292000000000000    0.3240000000000000 H
   0.5345666666666666    0.4841550000000000    0.4017900000000000 H
   0.4797266666666666    0.4338050000000000    0.3973500000000000 H
   0.5061233333333333    0.4388100000000000    0.4533900000000000 H
   0.6878700000000000    0.6675850000000000    0.2310900000000000 H
   0.6784366666666666    0.6586700000000000    0.2900700000000000 H
   0.6212566666666666    0.6016850000000000    0.2085900000000000 H
   0.5697066666666666    0.6207850000000000    0.3456000000000000 H
   0.6238266666666666    0.6522650000000000    0.3420000000000000 H
   0.5910233333333332    0.5705000000000000    0.3433200000000000 H
   0.5450999999999999    0.5155600000000000    0.2655000000000000 H
   0.5238499999999999    0.5659500000000000    0.2701800000000000 H
   0.5468200000000000    0.5610150000000000    0.2140300000000000 H
   0.6455199999999999    0.3318050000000000    0.2309000000000000 H
   0.6549033333333333    0.3408150000000000    0.2899600000000000 H
   0.7121266666666666    0.3977950000000000    0.2085400000000000 H
   0.7636633333333334    0.3788650000000000    0.3455000000000000 H
   0.7095399999999999    0.3473550000000000    0.3419700000000000 H
   0.7423333333333333    0.4291200000000000    0.3432500000000000 H
   0.7882333333333333    0.4839850000000000    0.2654600000000000 H
   0.8095266666666666    0.4336550000000000    0.2701200000000000 H
   0.7865466666666666    0.4385000000000000    0.2139700000000000 H
   0.7573533333333333    0.1677600000000000    0.4360500000000000 H
   0.7608933333333333    0.1589350000000000    0.3770600000000000 H
   0.7798933333333333    0.1016650000000000    0.4584900000000000 H
   0.8443499999999999    0.1207200000000000    0.3216500000000000 H
   0.8112699999999999    0.1523400000000000    0.3251700000000000 H
   0.7895300000000000    0.0705500000000000    0.3238500000000000 H
   0.7987599999999999    0.0155700000000000    0.4015800000000000 H
   0.8535933333333332    0.0659300000000000    0.3971100000000000 H
   0.8272166666666666    0.0609000000000000    0.4531900000000000 H
   0.5759066666666667    0.8318749999999999    0.4360900000000000 H
   0.5723966666666667    0.8407200000000000    0.3771100000000000 H
   0.5534466666666666    0.8980500000000000    0.4585700000000000 H
   0.4889466666666666    0.8790450000000001    0.3218000000000000 H
   0.5220166666666667    0.8474100000000000    0.3252400000000000 H
   0.5437633333333334    0.9292000000000000    0.3240000000000000 H
   0.5345666666666666    0.9841550000000000    0.4017900000000000 H
   0.4797266666666666    0.9338050000000000    0.3973500000000000 H
   0.5061233333333333    0.9388099999999999    0.4533900000000000 H
   0.6878700000000000    0.1675850000000000    0.2310900000000000 H
   0.6784366666666666    0.1586700000000000    0.2900700000000000 H
   0.6212566666666666    0.1016850000000000    0.2085900000000000 H
   0.5697066666666666    0.1207850000000000    0.3456000000000000 H
   0.6238266666666666    0.1522650000000000    0.3420000000000000 H
   0.5910233333333332    0.0705000000000000    0.3433200000000000 H
   0.5450999999999999    0.0155600000000000    0.2655000000000000 H
   0.5238499999999999    0.0659500000000000    0.2701800000000000 H
   0.5468200000000000    0.0610150000000000    0.2140300000000000 H
   0.6455199999999999    0.8318050000000000    0.2309000000000000 H
   0.6549033333333333    0.8408150000000000    0.2899600000000000 H
   0.7121266666666666    0.8977950000000000    0.2085400000000000 H
   0.7636633333333334    0.8788650000000000    0.3455000000000000 H
   0.7095399999999999    0.8473550000000001    0.3419700000000000 H
   0.7423333333333333    0.9291199999999999    0.3432500000000000 H
   0.7882333333333333    0.9839850000000000    0.2654600000000000 H
   0.8095266666666666    0.9336550000000000    0.2701200000000000 H
   0.7865466666666666    0.9385000000000000    0.2139700000000000 H
   0.0906866666666667    0.6677600000000000    0.4360500000000000 H
   0.0942266666666667    0.6589350000000000    0.3770600000000000 H
   0.1132266666666667    0.6016650000000000    0.4584900000000000 H
   0.1776833333333333    0.6207199999999999    0.3216500000000000 H
   0.1446033333333333    0.6523400000000000    0.3251700000000000 H
   0.1228633333333333    0.5705500000000000    0.3238500000000000 H
   0.1320933333333333    0.5155700000000000    0.4015800000000000 H
   0.1869266666666666    0.5659300000000000    0.3971100000000000 H
   0.1605500000000000    0.5609000000000000    0.4531900000000000 H
   0.9092399999999999    0.3318750000000000    0.4360900000000000 H
   0.9057299999999999    0.3407200000000000    0.3771100000000000 H
   0.8867799999999999    0.3980500000000000    0.4585700000000000 H
   0.8222799999999999    0.3790450000000000    0.3218000000000000 H
   0.8553499999999999    0.3474100000000000    0.3252400000000000 H
   0.8770966666666666    0.4292000000000000    0.3240000000000000 H
   0.8678999999999999    0.4841550000000000    0.4017900000000000 H
   0.8130599999999999    0.4338050000000000    0.3973500000000000 H
   0.8394566666666666    0.4388100000000000    0.4533900000000000 H
   0.0212033333333333    0.6675850000000000    0.2310900000000000 H
   0.0117700000000000    0.6586700000000000    0.2900700000000000 H
   0.9545899999999999    0.6016850000000000    0.2085900000000000 H
   0.9030400000000000    0.6207850000000000    0.3456000000000000 H
   0.9571600000000000    0.6522650000000000    0.3420000000000000 H
   0.9243566666666666    0.5705000000000000    0.3433200000000000 H
   0.8784333333333333    0.5155600000000000    0.2655000000000000 H
   0.8571833333333333    0.5659500000000000    0.2701800000000000 H
   0.8801533333333333    0.5610150000000000    0.2140300000000000 H
   0.9788533333333332    0.3318050000000000    0.2309000000000000 H
   0.9882366666666667    0.3408150000000000    0.2899600000000000 H
   0.0454600000000000    0.3977950000000000    0.2085400000000000 H
   0.0969966666666667    0.3788650000000000    0.3455000000000000 H
   0.0428733333333333    0.3473550000000000    0.3419700000000000 H
   0.0756666666666667    0.4291200000000000    0.3432500000000000 H
   0.1215666666666667    0.4839850000000000    0.2654600000000000 H
   0.1428600000000000    0.4336550000000000    0.2701200000000000 H
   0.1198800000000000    0.4385000000000000    0.2139700000000000 H
   0.0906866666666667    0.1677600000000000    0.4360500000000000 H
   0.0942266666666667    0.1589350000000000    0.3770600000000000 H
   0.1132266666666667    0.1016650000000000    0.4584900000000000 H
   0.1776833333333333    0.1207200000000000    0.3216500000000000 H
   0.1446033333333333    0.1523400000000000    0.3251700000000000 H
   0.1228633333333333    0.0705500000000000    0.3238500000000000 H
   0.1320933333333333    0.0155700000000000    0.4015800000000000 H
   0.1869266666666666    0.0659300000000000    0.3971100000000000 H
   0.1605500000000000    0.0609000000000000    0.4531900000000000 H
   0.9092399999999999    0.8318749999999999    0.4360900000000000 H
   0.9057299999999999    0.8407200000000000    0.3771100000000000 H
   0.8867799999999999    0.8980500000000000    0.4585700000000000 H
   0.8222799999999999    0.8790450000000001    0.3218000000000000 H
   0.8553499999999999    0.8474100000000000    0.3252400000000000 H
   0.8770966666666666    0.9292000000000000    0.3240000000000000 H
   0.8678999999999999    0.9841550000000000    0.4017900000000000 H
   0.8130599999999999    0.9338050000000000    0.3973500000000000 H
   0.8394566666666666    0.9388099999999999    0.4533900000000000 H
   0.0212033333333333    0.1675850000000000    0.2310900000000000 H
   0.0117700000000000    0.1586700000000000    0.2900700000000000 H
   0.9545899999999999    0.1016850000000000    0.2085900000000000 H
   0.9030400000000000    0.1207850000000000    0.3456000000000000 H
   0.9571600000000000    0.1522650000000000    0.3420000000000000 H
   0.9243566666666666    0.0705000000000000    0.3433200000000000 H
   0.8784333333333333    0.0155600000000000    0.2655000000000000 H
   0.8571833333333333    0.0659500000000000    0.2701800000000000 H
   0.8801533333333333    0.0610150000000000    0.2140300000000000 H
   0.9788533333333332    0.8318050000000000    0.2309000000000000 H
   0.9882366666666667    0.8408150000000000    0.2899600000000000 H
   0.0454600000000000    0.8977950000000000    0.2085400000000000 H
   0.0969966666666667    0.8788650000000000    0.3455000000000000 H
   0.0428733333333333    0.8473550000000001    0.3419700000000000 H
   0.0756666666666667    0.9291199999999999    0.3432500000000000 H
   0.1215666666666667    0.9839850000000000    0.2654600000000000 H
   0.1428600000000000    0.9336550000000000    0.2701200000000000 H
   0.1198800000000000    0.9385000000000000    0.2139700000000000 H
   0.4240200000000000    0.1677600000000000    0.4360500000000000 H
   0.4275599999999999    0.1589350000000000    0.3770600000000000 H
   0.4465600000000000    0.1016650000000000    0.4584900000000000 H
   0.5110166666666667    0.1207200000000000    0.3216500000000000 H
   0.4779366666666666    0.1523400000000000    0.3251700000000000 H
   0.4561966666666666    0.0705500000000000    0.3238500000000000 H
   0.4654266666666667    0.0155700000000000    0.4015800000000000 H
   0.5202599999999999    0.0659300000000000    0.3971100000000000 H
   0.4938833333333333    0.0609000000000000    0.4531900000000000 H
   0.2425733333333333    0.8318749999999999    0.4360900000000000 H
   0.2390633333333333    0.8407200000000000    0.3771100000000000 H
   0.2201133333333333    0.8980500000000000    0.4585700000000000 H
   0.1556133333333333    0.8790450000000001    0.3218000000000000 H
   0.1886833333333333    0.8474100000000000    0.3252400000000000 H
   0.2104300000000000    0.9292000000000000    0.3240000000000000 H
   0.2012333333333333    0.9841550000000000    0.4017900000000000 H
   0.1463933333333333    0.9338050000000000    0.3973500000000000 H
   0.1727900000000000    0.9388099999999999    0.4533900000000000 H
   0.3545366666666667    0.1675850000000000    0.2310900000000000 H
   0.3451033333333333    0.1586700000000000    0.2900700000000000 H
   0.2879233333333333    0.1016850000000000    0.2085900000000000 H
   0.2363733333333333    0.1207850000000000    0.3456000000000000 H
   0.2904933333333333    0.1522650000000000    0.3420000000000000 H
   0.2576900000000000    0.0705000000000000    0.3433200000000000 H
   0.2117666666666667    0.0155600000000000    0.2655000000000000 H
   0.1905166666666667    0.0659500000000000    0.2701800000000000 H
   0.2134866666666667    0.0610150000000000    0.2140300000000000 H
   0.3632857839474914    0.9452074525902626    0.2761968068424653 H
   0.3591632483860823    0.8715855214215421    0.2515613518320023 H
   0.3740245524304739    0.8124196182822906    0.2627636377456751 H
   0.4240200000000000    0.6677600000000000    0.4360500000000000 H
   0.4275599999999999    0.6589350000000000    0.3770600000000000 H
   0.4465600000000000    0.6016650000000000    0.4584900000000000 H
   0.5110166666666667    0.6207199999999999    0.3216500000000000 H
   0.4779366666666666    0.6523400000000000    0.3251700000000000 H
   0.4561966666666666    0.5705500000000000    0.3238500000000000 H
   0.4654266666666667    0.5155700000000000    0.4015800000000000 H
   0.5202599999999999    0.5659300000000000    0.3971100000000000 H
   0.4938833333333333    0.5609000000000000    0.4531900000000000 H
   0.2425733333333333    0.3318750000000000    0.4360900000000000 H
   0.2390633333333333    0.3407200000000000    0.3771100000000000 H
   0.2201133333333333    0.3980500000000000    0.4585700000000000 H
   0.1556133333333333    0.3790450000000000    0.3218000000000000 H
   0.1886833333333333    0.3474100000000000    0.3252400000000000 H
   0.2104300000000000    0.4292000000000000    0.3240000000000000 H
   0.2012333333333333    0.4841550000000000    0.4017900000000000 H
   0.1463933333333333    0.4338050000000000    0.3973500000000000 H
   0.1727900000000000    0.4388100000000000    0.4533900000000000 H
   0.3545366666666667    0.6675850000000000    0.2310900000000000 H
   0.3451033333333333    0.6586700000000000    0.2900700000000000 H
   0.2879233333333333    0.6016850000000000    0.2085900000000000 H
   0.2363733333333333    0.6207850000000000    0.3456000000000000 H
   0.2904933333333333    0.6522650000000000    0.3420000000000000 H
   0.2576900000000000    0.5705000000000000    0.3433200000000000 H
   0.2117666666666667    0.5155600000000000    0.2655000000000000 H
   0.1905166666666667    0.5659500000000000    0.2701800000000000 H
   0.2134866666666667    0.5610150000000000    0.2140300000000000 H
   0.3121866666666666    0.3318050000000000    0.2309000000000000 H
   0.3215700000000000    0.3408150000000000    0.2899600000000000 H
   0.3787933333333333    0.3977950000000000    0.2085400000000000 H
   0.4303300000000000    0.3788650000000000    0.3455000000000000 H
   0.3762066666666666    0.3473550000000000    0.3419700000000000 H
   0.4090000000000000    0.4291200000000000    0.3432500000000000 H
   0.4549000000000000    0.4839850000000000    0.2654600000000000 H
   0.4761933333333333    0.4336550000000000    0.2701200000000000 H
   0.4532133333333333    0.4385000000000000    0.2139700000000000 H
   0.4241666666666666    0.4688000000000000    0.8975500000000000 H
   0.4275166666666667    0.4821650000000000    0.9566400000000000 H
   0.4464733333333333    0.5686550000000000    0.8759300000000000 H
   0.5114700000000000    0.6448400000000000    0.0126200000000000 H
   0.4784300000000000    0.5638250000000000    0.0087900000000000 H
   0.4566200000000000    0.6130450000000001    0.0108100000000000 H
   0.4656266666666666    0.6825100000000000    0.9336900000000000 H
   0.5204733333333333    0.7139000000000000    0.9376700000000000 H
   0.4937966666666667    0.6799999999999999    0.8816400000000000 H
   0.2425766666666667    0.5306850000000000    0.8976600000000000 H
   0.2391433333333333    0.5172500000000000    0.9567400000000000 H
   0.2202166666666666    0.4308250000000000    0.8759300000000000 H
   0.1551133333333333    0.3545850000000000    0.0125500000000000 H
   0.1881900000000000    0.4355950000000000    0.0088000000000000 H
   0.2099633333333333    0.3863250000000000    0.0107800000000000 H
   0.2009733333333333    0.3168700000000000    0.9336000000000000 H
   0.1461300000000000    0.2855600000000000    0.9375300000000000 H
   0.1728666666666666    0.3194900000000000    0.8815400000000000 H
   0.3122066666666666    0.6361550000000000    0.1045700000000000 H
   0.3209333333333333    0.6406100000000000    0.0454300000000000 H
   0.3789400000000000    0.6692650000000000    0.1259600000000000 H
   0.4293333333333333    0.7650850000000000    0.9886100000000000 H
   0.3751966666666666    0.7162050000000000    0.9929800000000000 H
   0.4076933333333333    0.6829050000000000    0.9907300000000000 H
   0.4545066666666666    0.6965000000000000    0.0677300000000000 H
   0.4758133333333333    0.7786350000000000    0.0630900000000000 H
   0.4534533333333333    0.7395650000000000    0.1195000000000000 H
   0.3543900000000000    0.3632250000000000    0.1040000000000000 H
   0.3456433333333333    0.3587350000000000    0.0454600000000000 H
   0.2876600000000000    0.3301450000000000    0.1260300000000000 H
   0.2372600000000000    0.2342500000000000    0.9886800000000000 H
   0.2913900000000000    0.2831700000000000    0.9930300000000000 H
   0.2588666666666666    0.3164200000000000    0.9908300000000000 H
   0.1907700000000000    0.2207400000000000    0.0632100000000000 H
   0.2120833333333333    0.3028800000000000    0.0678400000000000 H
   0.2131500000000000    0.2598550000000000    0.1196100000000000 H
   0.4241666666666666    0.9688000000000000    0.8975500000000000 H
   0.4275166666666667    0.9821650000000000    0.9566400000000000 H
   0.4464733333333333    0.0686550000000000    0.8759300000000000 H
   0.5114700000000000    0.1448400000000000    0.0126200000000000 H
   0.4784300000000000    0.0638250000000000    0.0087900000000000 H
   0.4566200000000000    0.1130450000000000    0.0108100000000000 H
   0.4656266666666666    0.1825100000000000    0.9336900000000000 H
   0.5204733333333333    0.2139000000000000    0.9376700000000000 H
   0.4937966666666667    0.1800000000000000    0.8816400000000000 H
   0.2425766666666667    0.0306850000000000    0.8976600000000000 H
   0.2391433333333333    0.0172500000000000    0.9567400000000000 H
   0.2202166666666666    0.9308250000000000    0.8759300000000000 H
   0.1551133333333333    0.8545849999999999    0.0125500000000000 H
   0.1881900000000000    0.9355950000000000    0.0088000000000000 H
   0.2099633333333333    0.8863250000000000    0.0107800000000000 H
   0.2009733333333333    0.8168700000000000    0.9336000000000000 H
   0.1461300000000000    0.7855600000000000    0.9375300000000000 H
   0.1728666666666666    0.8194900000000001    0.8815400000000000 H
   0.3122066666666666    0.1361550000000000    0.1045700000000000 H
   0.3209333333333333    0.1406100000000000    0.0454300000000000 H
   0.3789400000000000    0.1692650000000000    0.1259600000000000 H
   0.4293333333333333    0.2650850000000000    0.9886100000000000 H
   0.3751966666666666    0.2162050000000000    0.9929800000000000 H
   0.4076933333333333    0.1829050000000000    0.9907300000000000 H
   0.4545066666666666    0.1965000000000000    0.0677300000000000 H
   0.4758133333333333    0.2786350000000000    0.0630900000000000 H
   0.4534533333333333    0.2395650000000000    0.1195000000000000 H
   0.3543900000000000    0.8632250000000000    0.1040000000000000 H
   0.3456433333333333    0.8587350000000000    0.0454600000000000 H
   0.2876600000000000    0.8301450000000000    0.1260300000000000 H
   0.2372600000000000    0.7342500000000001    0.9886800000000000 H
   0.2913900000000000    0.7831699999999999    0.9930300000000000 H
   0.2588666666666666    0.8164199999999999    0.9908300000000000 H
   0.1907700000000000    0.7207399999999999    0.0632100000000000 H
   0.2120833333333333    0.8028800000000000    0.0678400000000000 H
   0.2131500000000000    0.7598549999999999    0.1196100000000000 H
   0.0908333333333333    0.9688000000000000    0.8975500000000000 H
   0.0941833333333333    0.9821650000000000    0.9566400000000000 H
   0.1131400000000000    0.0686550000000000    0.8759300000000000 H
   0.1781366666666667    0.1448400000000000    0.0126200000000000 H
   0.1450966666666667    0.0638250000000000    0.0087900000000000 H
   0.1232866666666667    0.1130450000000000    0.0108100000000000 H
   0.1322933333333333    0.1825100000000000    0.9336900000000000 H
   0.1871400000000000    0.2139000000000000    0.9376700000000000 H
   0.1604633333333333    0.1800000000000000    0.8816400000000000 H
   0.9092433333333333    0.0306850000000000    0.8976600000000000 H
   0.9058100000000000    0.0172500000000000    0.9567400000000000 H
   0.8868833333333332    0.9308250000000000    0.8759300000000000 H
   0.8217800000000000    0.8545849999999999    0.0125500000000000 H
   0.8548566666666666    0.9355950000000000    0.0088000000000000 H
   0.8766299999999999    0.8863250000000000    0.0107800000000000 H
   0.8676400000000000    0.8168700000000000    0.9336000000000000 H
   0.8127966666666666    0.7855600000000000    0.9375300000000000 H
   0.8395333333333332    0.8194900000000001    0.8815400000000000 H
   0.9788733333333333    0.1361550000000000    0.1045700000000000 H
   0.9875999999999999    0.1406100000000000    0.0454300000000000 H
   0.0456066666666667    0.1692650000000000    0.1259600000000000 H
   0.0960000000000000    0.2650850000000000    0.9886100000000000 H
   0.0418633333333333    0.2162050000000000    0.9929800000000000 H
   0.0743600000000000    0.1829050000000000    0.9907300000000000 H
   0.1211733333333333    0.1965000000000000    0.0677300000000000 H
   0.1424800000000000    0.2786350000000000    0.0630900000000000 H
   0.1201200000000000    0.2395650000000000    0.1195000000000000 H
   0.0210566666666667    0.8632250000000000    0.1040000000000000 H
   0.0123100000000000    0.8587350000000000    0.0454600000000000 H
   0.9543266666666665    0.8301450000000000    0.1260300000000000 H
   0.9039266666666665    0.7342500000000001    0.9886800000000000 H
   0.9580566666666666    0.7831699999999999    0.9930300000000000 H
   0.9255333333333333    0.8164199999999999    0.9908300000000000 H
   0.8574366666666666    0.7207399999999999    0.0632100000000000 H
   0.8787499999999999    0.8028800000000000    0.0678400000000000 H
   0.8798166666666666    0.7598549999999999    0.1196100000000000 H
   0.0908333333333333    0.4688000000000000    0.8975500000000000 H
   0.0941833333333333    0.4821650000000000    0.9566400000000000 H
   0.1131400000000000    0.5686550000000000    0.8759300000000000 H
   0.1781366666666667    0.6448400000000000    0.0126200000000000 H
   0.1450966666666667    0.5638250000000000    0.0087900000000000 H
   0.1232866666666667    0.6130450000000001    0.0108100000000000 H
   0.1322933333333333    0.6825100000000000    0.9336900000000000 H
   0.1871400000000000    0.7139000000000000    0.9376700000000000 H
   0.1604633333333333    0.6799999999999999    0.8816400000000000 H
   0.9092433333333333    0.5306850000000000    0.8976600000000000 H
   0.9058100000000000    0.5172500000000000    0.9567400000000000 H
   0.8868833333333332    0.4308250000000000    0.8759300000000000 H
   0.8217800000000000    0.3545850000000000    0.0125500000000000 H
   0.8548566666666666    0.4355950000000000    0.0088000000000000 H
   0.8766299999999999    0.3863250000000000    0.0107800000000000 H
   0.8676400000000000    0.3168700000000000    0.9336000000000000 H
   0.8127966666666666    0.2855600000000000    0.9375300000000000 H
   0.8395333333333332    0.3194900000000000    0.8815400000000000 H
   0.9788733333333333    0.6361550000000000    0.1045700000000000 H
   0.9875999999999999    0.6406100000000000    0.0454300000000000 H
   0.0456066666666667    0.6692650000000000    0.1259600000000000 H
   0.0960000000000000    0.7650850000000000    0.9886100000000000 H
   0.0418633333333333    0.7162050000000000    0.9929800000000000 H
   0.0743600000000000    0.6829050000000000    0.9907300000000000 H
   0.1211733333333333    0.6965000000000000    0.0677300000000000 H
   0.1424800000000000    0.7786350000000000    0.0630900000000000 H
   0.1201200000000000    0.7395650000000000    0.1195000000000000 H
   0.0210566666666667    0.3632250000000000    0.1040000000000000 H
   0.0123100000000000    0.3587350000000000    0.0454600000000000 H
   0.9543266666666665    0.3301450000000000    0.1260300000000000 H
   0.9039266666666665    0.2342500000000000    0.9886800000000000 H
   0.9580566666666666    0.2831700000000000    0.9930300000000000 H
   0.9255333333333333    0.3164200000000000    0.9908300000000000 H
   0.8574366666666666    0.2207400000000000    0.0632100000000000 H
   0.8787499999999999    0.3028800000000000    0.0678400000000000 H
   0.8798166666666666    0.2598550000000000    0.1196100000000000 H
   0.7575000000000000    0.9688000000000000    0.8975500000000000 H
   0.7608500000000000    0.9821650000000000    0.9566400000000000 H
   0.7798066666666666    0.0686550000000000    0.8759300000000000 H
   0.8448033333333334    0.1448400000000000    0.0126200000000000 H
   0.8117633333333333    0.0638250000000000    0.0087900000000000 H
   0.7899533333333333    0.1130450000000000    0.0108100000000000 H
   0.7989599999999999    0.1825100000000000    0.9336900000000000 H
   0.8538066666666666    0.2139000000000000    0.9376700000000000 H
   0.8271299999999999    0.1800000000000000    0.8816400000000000 H
   0.5759099999999999    0.0306850000000000    0.8976600000000000 H
   0.5724766666666666    0.0172500000000000    0.9567400000000000 H
   0.5535500000000000    0.9308250000000000    0.8759300000000000 H
   0.4884466666666666    0.8545849999999999    0.0125500000000000 H
   0.5215233333333333    0.9355950000000000    0.0088000000000000 H
   0.5432966666666666    0.8863250000000000    0.0107800000000000 H
   0.5343066666666667    0.8168700000000000    0.9336000000000000 H
   0.4794633333333333    0.7855600000000000    0.9375300000000000 H
   0.5062000000000000    0.8194900000000001    0.8815400000000000 H
   0.6455400000000000    0.1361550000000000    0.1045700000000000 H
   0.6542666666666666    0.1406100000000000    0.0454300000000000 H
   0.7122733333333333    0.1692650000000000    0.1259600000000000 H
   0.7626666666666666    0.2650850000000000    0.9886100000000000 H
   0.7085300000000000    0.2162050000000000    0.9929800000000000 H
   0.7410266666666666    0.1829050000000000    0.9907300000000000 H
   0.7878400000000000    0.1965000000000000    0.0677300000000000 H
   0.8091466666666667    0.2786350000000000    0.0630900000000000 H
   0.7867866666666666    0.2395650000000000    0.1195000000000000 H
   0.6877233333333332    0.8632250000000000    0.1040000000000000 H
   0.6789766666666667    0.8587350000000000    0.0454600000000000 H
   0.6209933333333333    0.8301450000000000    0.1260300000000000 H
   0.5705933333333333    0.7342500000000001    0.9886800000000000 H
   0.6247233333333333    0.7831699999999999    0.9930300000000000 H
   0.5921999999999999    0.8164199999999999    0.9908300000000000 H
   0.5241033333333334    0.7207399999999999    0.0632100000000000 H
   0.5454166666666667    0.8028800000000000    0.0678400000000000 H
   0.5464833333333333    0.7598549999999999    0.1196100000000000 H
   0.7575000000000000    0.4688000000000000    0.8975500000000000 H
   0.7608500000000000    0.4821650000000000    0.9566400000000000 H
   0.7798066666666666    0.5686550000000000    0.8759300000000000 H
   0.8448033333333334    0.6448400000000000    0.0126200000000000 H
   0.8117633333333333    0.5638250000000000    0.0087900000000000 H
   0.7899533333333333    0.6130450000000001    0.0108100000000000 H
   0.7989599999999999    0.6825100000000000    0.9336900000000000 H
   0.8538066666666666    0.7139000000000000    0.9376700000000000 H
   0.8271299999999999    0.6799999999999999    0.8816400000000000 H
   0.5759099999999999    0.5306850000000000    0.8976600000000000 H
   0.5724766666666666    0.5172500000000000    0.9567400000000000 H
   0.5535500000000000    0.4308250000000000    0.8759300000000000 H
   0.4884466666666666    0.3545850000000000    0.0125500000000000 H
   0.5215233333333333    0.4355950000000000    0.0088000000000000 H
   0.5432966666666666    0.3863250000000000    0.0107800000000000 H
   0.5343066666666667    0.3168700000000000    0.9336000000000000 H
   0.4794633333333333    0.2855600000000000    0.9375300000000000 H
   0.5062000000000000    0.3194900000000000    0.8815400000000000 H
   0.6455400000000000    0.6361550000000000    0.1045700000000000 H
   0.6542666666666666    0.6406100000000000    0.0454300000000000 H
   0.7122733333333333    0.6692650000000000    0.1259600000000000 H
   0.7626666666666666    0.7650850000000000    0.9886100000000000 H
   0.7085300000000000    0.7162050000000000    0.9929800000000000 H
   0.7410266666666666    0.6829050000000000    0.9907300000000000 H
   0.7878400000000000    0.6965000000000000    0.0677300000000000 H
   0.8091466666666667    0.7786350000000000    0.0630900000000000 H
   0.7867866666666666    0.7395650000000000    0.1195000000000000 H
   0.6877233333333332    0.3632250000000000    0.1040000000000000 H