H9 C5 S1 N1 O2
1.0
  37.2479988880538144    0.0000000000000000    0.0091014032663884
 -12.4055165104083205   21.5642752880102044   -0.0086840600498665
   0.0000000000000000    0.0000000000000000   27.0489999999999995
H C S N O
9 5 1 1 2
direct
   0.3121866666666666    0.8318050000000000    0.2309000000000000 H
   0.3215700000000000    0.8408150000000000    0.2899600000000000 H
   0.3787933333333333    0.8977950000000000    0.2085400000000000 H
   0.4532133333333333    0.9385000000000000    0.2139700000000000 H
   0.4761933333333333    0.9336550000000000    0.2701200000000000 H
   0.4549000000000000    0.9839850000000000    0.2654600000000000 H
   0.4303300000000000    0.8788650000000000    0.3455000000000000 H
   0.3762066666666666    0.8473550000000001    0.3419700000000000 H
   0.4090000000000000    0.9291199999999999    0.3432500000000000 H
   0.4092100000000000    0.8873350000000000    0.2725000000000000 C
   0.3733500000000000    0.8920650000000000    0.2486000000000000 C
   0.4510166666666666    0.9389900000000000    0.2544400000000000 C
   0.4059966666666667    0.8856400000000000    0.3290800000000000 C
   0.3710600000000000    0.9489700000000000    0.2692500000000000 C
   0.4052700000000000    0.8114350000000000    0.2543600000000000 S
   0.3327733333333333    0.8334900000000001    0.2570700000000000 N
   0.3988500000000000    0.0000000000000000    0.2583500000000000 O
   0.3393333333333333    0.9336150000000000    0.2976000000000000 O
