H6 C12 O4
1.0
  20.0483865237542780    0.0000000000000000   -5.4692009283027545
   8.6399647599747063   35.1194904699895361   -4.4137991656518700
   0.0000000000000000    0.0000000000000000   24.2880000000000003
H C O
6 12 4
direct
   0.5499400000000000    0.9362133333333333    0.0855150000000000 H
   0.6304200000000000    0.9272966666666667    0.1805150000000000 H
   0.3776100000000000    0.9700433333333333    0.1623500000000000 H
   0.3975100000000000    0.9662799999999999    0.2685200000000000 H
   0.6034700000000000    0.9529699999999999    0.3724500000000000 H
   0.6504200000000000    0.9364600000000000    0.2865700000000000 H
   0.4122700000000000    0.9639966666666666    0.0609500000000000 C
   0.4586000000000000    0.9544433333333333    0.1181900000000000 C
   0.5305000000000000    0.9411299999999999    0.1237600000000000 C
   0.5751300000000000    0.9363600000000000    0.1767200000000000 C
   0.5504200000000000    0.9440200000000000    0.2270850000000000 C
   0.4774100000000000    0.9544133333333333    0.2217450000000000 C
   0.4327800000000000    0.9599766666666666    0.1665500000000000 C
   0.4526300000000000    0.9600500000000000    0.2720250000000000 C
   0.4723200000000000    0.9639333333333333    0.3789150000000000 C
   0.4976300000000000    0.9584600000000000    0.3256000000000000 C
   0.5693000000000000    0.9515100000000000    0.3303000000000000 C
   0.5950900000000000    0.9430766666666666    0.2824200000000000 C
   0.4414500000000000    0.9601099999999999    0.0181300000000000 O
   0.4116600000000000    0.9597766666666666    0.3741650000000000 O
   0.5133700000000000    0.9712999999999999    0.4256700000000000 O
   0.3483900000000000    0.9747933333333333    0.0556050000000000 O
