H4 O3
1.0
  20.0483865237542780    0.0000000000000000   -5.4692009283027545
   8.6399647599747063   35.1194904699895361   -4.4137991656518700
   0.0000000000000000    0.0000000000000000   24.2880000000000003
H O
4 3
direct
   0.4395433760459799    0.9473545917324099    0.0502749900733239 H
   0.3387113470664567    0.9648555489490035    0.0870554366451536 H
   0.4579549717938498    0.9629489839447704    0.3777901420379292 H
   0.3289251391367696    0.8445724543504419    0.3837755120235574 H
   0.4414500000000000    0.9601099999999999    0.0181300000000000 O
   0.3483900000000000    0.9747933333333333    0.0556050000000000 O
   0.4116600000000000    0.9597766666666666    0.3741650000000000 O
