Zn48 H282 C564 O188
1.0
  20.0483865237542780    0.0000000000000000   -5.4692009283027545
   8.6399647599747063   35.1194904699895361   -4.4137991656518700
   0.0000000000000000    0.0000000000000000   24.2880000000000003
Zn H C O
48 282 564 188
direct
   0.5000000000000000    0.0000033333333333    0.2000000000000000 Zn
   0.6251500000000000    0.0389800000000000    0.0590300000000000 Zn
   0.3748500000000000    0.2943666666666667    0.4410250000000000 Zn
   0.8748600000000000    0.2943600000000000    0.4410850000000000 Zn
   0.0000000000000000    0.0000033333333333    0.4500000000000000 Zn
   0.2500000000000000    0.0000000000000000    0.4999950000000000 Zn
   0.7499900000000000    0.0000000000000000    0.0500000000000000 Zn
   0.1251500000000000    0.0389866666666667    0.0589900000000000 Zn
   0.5000000000000000    0.3333366666666667    0.2000000000000000 Zn
   0.6251500000000000    0.3723133333333333    0.0590300000000000 Zn
   0.3748500000000000    0.6276999999999999    0.4410250000000000 Zn
   0.8748600000000000    0.6276933333333332    0.4410850000000000 Zn
   0.0000000000000000    0.3333366666666667    0.4500000000000000 Zn
   0.2500000000000000    0.3333333333333333    0.4999950000000000 Zn
   0.7499900000000000    0.3333333333333333    0.0500000000000000 Zn
   0.1251500000000000    0.3723200000000000    0.0589900000000000 Zn
   0.5000000000000000    0.6666700000000000    0.2000000000000000 Zn
   0.6251500000000000    0.7056466666666666    0.0590300000000000 Zn
   0.3748500000000000    0.9610333333333333    0.4410250000000000 Zn
   0.8748600000000000    0.9610266666666666    0.4410850000000000 Zn
   0.0000000000000000    0.6666700000000000    0.4500000000000000 Zn
   0.2500000000000000    0.6666666666666666    0.4999950000000000 Zn
   0.7499900000000000    0.6666666666666666    0.0500000000000000 Zn
   0.1251500000000000    0.7056533333333332    0.0589900000000000 Zn
   0.5000000000000000    0.0000033333333333    0.7000000000000000 Zn
   0.6251500000000000    0.0389800000000000    0.5590300000000000 Zn
   0.3748500000000000    0.2943666666666667    0.9410250000000000 Zn
   0.8748600000000000    0.2943600000000000    0.9410849999999999 Zn
   0.0000000000000000    0.0000033333333333    0.9500000000000000 Zn
   0.2500000000000000    0.0000000000000000    0.9999950000000000 Zn
   0.7499900000000000    0.0000000000000000    0.5500000000000000 Zn
   0.1251500000000000    0.0389866666666667    0.5589900000000000 Zn
   0.5000000000000000    0.3333366666666667    0.7000000000000000 Zn
   0.6251500000000000    0.3723133333333333    0.5590300000000000 Zn
   0.3748500000000000    0.6276999999999999    0.9410250000000000 Zn
   0.8748600000000000    0.6276933333333332    0.9410849999999999 Zn
   0.0000000000000000    0.3333366666666667    0.9500000000000000 Zn
   0.2500000000000000    0.3333333333333333    0.9999950000000000 Zn
   0.7499900000000000    0.3333333333333333    0.5500000000000000 Zn
   0.1251500000000000    0.3723200000000000    0.5589900000000000 Zn
   0.5000000000000000    0.6666700000000000    0.7000000000000000 Zn
   0.6251500000000000    0.7056466666666666    0.5590300000000000 Zn
   0.3748500000000000    0.9610333333333333    0.9410250000000000 Zn
   0.8748600000000000    0.9610266666666666    0.9410849999999999 Zn
   0.0000000000000000    0.6666700000000000    0.9500000000000000 Zn
   0.2500000000000000    0.6666666666666666    0.9999950000000000 Zn
   0.7499900000000000    0.6666666666666666    0.5500000000000000 Zn
   0.1251500000000000    0.7056533333333332    0.5589900000000000 Zn
   0.4500500000000000    0.0638000000000000    0.4145100000000000 H
   0.9500500000000000    0.0637966666666667    0.4144900000000000 H
   0.3695800000000000    0.0727166666666667    0.3195100000000000 H
   0.8695800000000000    0.0727100000000000    0.3194850000000000 H
   0.1223900000000000    0.0299733333333333    0.3376600000000000 H
   0.6223800000000000    0.0299700000000000    0.3376700000000000 H
   0.1024900000000000    0.0337366666666667    0.2314950000000000 H
   0.6024700000000000    0.0337300000000000    0.2315050000000000 H
   0.3965200000000000    0.0470400000000000    0.1275700000000000 H
   0.8965300000000000    0.0470333333333333    0.1275550000000000 H
   0.3495700000000000    0.0635533333333333    0.2134550000000000 H
   0.8495800000000000    0.0635466666666667    0.2134350000000000 H
   0.2999600000000000    0.2763633333333333    0.0956200000000000 H
   0.7999400000000000    0.2763600000000000    0.0956400000000000 H
   0.3804500000000000    0.2131633333333333    0.1090050000000000 H
   0.8804400000000000    0.2131600000000000    0.1090400000000000 H
   0.1275800000000000    0.2248866666666667    0.0450250000000000 H
   0.6275600000000000    0.2248833333333333    0.0450350000000000 H
   0.1475800000000000    0.1540966666666667    0.0507450000000000 H
   0.6475700000000000    0.1540900000000000    0.0507650000000000 H
   0.3535100000000000    0.0851933333333333    0.0706750000000000 H
   0.8534900000000000    0.0851900000000000    0.0706950000000000 H
   0.4004200000000000    0.1425366666666666    0.0953250000000000 H
   0.9004100000000000    0.1425333333333333    0.0953550000000000 H
   0.0499500000000000    0.2695500000000000    0.0855450000000000 H
   0.5499400000000000    0.2695466666666667    0.0855150000000000 H
   0.1304200000000000    0.2606333333333333    0.1805500000000000 H
   0.6304200000000000    0.2606300000000000    0.1805150000000000 H
   0.3776100000000000    0.3033766666666666    0.1623500000000000 H
   0.8776000000000000    0.3033700000000000    0.1623650000000000 H
   0.3975100000000000    0.2996133333333333    0.2685200000000000 H
   0.8975000000000000    0.2996033333333333    0.2685400000000000 H
   0.1034500000000000    0.2863166666666667    0.3724750000000000 H
   0.6034700000000000    0.2863033333333333    0.3724500000000000 H
   0.1504100000000000    0.2698033333333333    0.2865950000000000 H
   0.6504200000000000    0.2697933333333333    0.2865700000000000 H
   0.2000500000000000    0.0569866666666667    0.4043500000000000 H
   0.7000400000000000    0.0569800000000000    0.4043950000000000 H
   0.1195600000000000    0.1201833333333333    0.3909750000000000 H
   0.6195500000000000    0.1201800000000000    0.3910000000000000 H
   0.3724300000000000    0.1084633333333333    0.4549750000000000 H
   0.8724200000000000    0.1084566666666667    0.4549500000000000 H
   0.3524300000000000    0.1792533333333333    0.4492500000000000 H
   0.8524200000000000    0.1792500000000000    0.4492750000000000 H
   0.1465000000000000    0.2481533333333333    0.4293200000000000 H
   0.6464900000000000    0.2481500000000000    0.4293000000000000 H
   0.0995900000000000    0.1908100000000000    0.4046550000000000 H
   0.5995700000000000    0.1908066666666667    0.4046800000000000 H
   0.4500500000000000    0.3971333333333333    0.4145100000000000 H
   0.9500500000000000    0.3971300000000000    0.4144900000000000 H
   0.3695800000000000    0.4060500000000000    0.3195100000000000 H
   0.8695800000000000    0.4060433333333333    0.3194850000000000 H
   0.1223900000000000    0.3633066666666667    0.3376600000000000 H
   0.6223800000000000    0.3633033333333333    0.3376700000000000 H
   0.1024900000000000    0.3670700000000000    0.2314950000000000 H
   0.6024700000000000    0.3670633333333333    0.2315050000000000 H
   0.3965200000000000    0.3803733333333333    0.1275700000000000 H
   0.8965300000000000    0.3803666666666666    0.1275550000000000 H
   0.3495700000000000    0.3968866666666666    0.2134550000000000 H
   0.8495800000000000    0.3968800000000000    0.2134350000000000 H
   0.2999600000000000    0.6096966666666666    0.0956200000000000 H
   0.7999400000000000    0.6096933333333333    0.0956400000000000 H
   0.3804500000000000    0.5464966666666666    0.1090050000000000 H
   0.8804400000000000    0.5464933333333333    0.1090400000000000 H
   0.1275800000000000    0.5582199999999999    0.0450250000000000 H
   0.6275600000000000    0.5582166666666666    0.0450350000000000 H
   0.1475800000000000    0.4874300000000000    0.0507450000000000 H
   0.6475700000000000    0.4874233333333333    0.0507650000000000 H
   0.3535100000000000    0.4185266666666666    0.0706750000000000 H
   0.8534900000000000    0.4185233333333333    0.0706950000000000 H
   0.4004200000000000    0.4758700000000000    0.0953250000000000 H
   0.9004100000000000    0.4758666666666667    0.0953550000000000 H
   0.0499500000000000    0.6028833333333332    0.0855450000000000 H
   0.5499400000000000    0.6028800000000000    0.0855150000000000 H
   0.1304200000000000    0.5939666666666666    0.1805500000000000 H
   0.6304200000000000    0.5939633333333333    0.1805150000000000 H
   0.3776100000000000    0.6367099999999999    0.1623500000000000 H
   0.8776000000000000    0.6367033333333333    0.1623650000000000 H
   0.3975100000000000    0.6329466666666665    0.2685200000000000 H
   0.8975000000000000    0.6329366666666667    0.2685400000000000 H
   0.1034500000000000    0.6196500000000000    0.3724750000000000 H
   0.6034700000000000    0.6196366666666666    0.3724500000000000 H
   0.1504100000000000    0.6031366666666667    0.2865950000000000 H
   0.6504200000000000    0.6031266666666666    0.2865700000000000 H
   0.2000500000000000    0.3903200000000000    0.4043500000000000 H
   0.7000400000000000    0.3903133333333333    0.4043950000000000 H
   0.1195600000000000    0.4535166666666666    0.3909750000000000 H
   0.6195500000000000    0.4535133333333333    0.3910000000000000 H
   0.3724300000000000    0.4417966666666666    0.4549750000000000 H
   0.8724200000000000    0.4417900000000000    0.4549500000000000 H
   0.3524300000000000    0.5125866666666666    0.4492500000000000 H
   0.8524200000000000    0.5125833333333333    0.4492750000000000 H
   0.1465000000000000    0.5814866666666667    0.4293200000000000 H
   0.6464900000000000    0.5814833333333334    0.4293000000000000 H
   0.0995900000000000    0.5241433333333333    0.4046550000000000 H
   0.5995700000000000    0.5241400000000001    0.4046800000000000 H
   0.4500500000000000    0.7304666666666666    0.4145100000000000 H
   0.9500500000000000    0.7304633333333332    0.4144900000000000 H
   0.3695800000000000    0.7393833333333333    0.3195100000000000 H
   0.8695800000000000    0.7393766666666666    0.3194850000000000 H
   0.1223900000000000    0.6966399999999999    0.3376600000000000 H
   0.6223800000000000    0.6966366666666667    0.3376700000000000 H
   0.1024900000000000    0.7004033333333333    0.2314950000000000 H
   0.6024700000000000    0.7003966666666667    0.2315050000000000 H
   0.3965200000000000    0.7137066666666666    0.1275700000000000 H
   0.8965300000000000    0.7137000000000000    0.1275550000000000 H
   0.3495700000000000    0.7302200000000000    0.2134550000000000 H
   0.8495800000000000    0.7302133333333333    0.2134350000000000 H
   0.2999600000000000    0.9430299999999999    0.0956200000000000 H
   0.7999400000000000    0.9430266666666667    0.0956400000000000 H
   0.3804500000000000    0.8798299999999999    0.1090050000000000 H
   0.8804400000000000    0.8798266666666666    0.1090400000000000 H
   0.1275800000000000    0.8915533333333333    0.0450250000000000 H
   0.6275600000000000    0.8915500000000000    0.0450350000000000 H
   0.1475800000000000    0.8207633333333333    0.0507450000000000 H
   0.6475700000000000    0.8207566666666666    0.0507650000000000 H
   0.3535100000000000    0.7518600000000000    0.0706750000000000 H
   0.8534900000000000    0.7518566666666666    0.0706950000000000 H
   0.4004200000000000    0.8092033333333333    0.0953250000000000 H
   0.9004100000000000    0.8091999999999999    0.0953550000000000 H
   0.0499500000000000    0.9362166666666666    0.0855450000000000 H
   0.1304200000000000    0.9273000000000000    0.1805500000000000 H
   0.8776000000000000    0.9700366666666667    0.1623650000000000 H
   0.8975000000000000    0.9662700000000000    0.2685400000000000 H
   0.1034500000000000    0.9529833333333333    0.3724750000000000 H
   0.1504100000000000    0.9364699999999999    0.2865950000000000 H
   0.2000500000000000    0.7236533333333333    0.4043500000000000 H
   0.7000400000000000    0.7236466666666667    0.4043950000000000 H
   0.1195600000000000    0.7868499999999999    0.3909750000000000 H
   0.6195500000000000    0.7868466666666667    0.3910000000000000 H
   0.3724300000000000    0.7751300000000000    0.4549750000000000 H
   0.8724200000000000    0.7751233333333333    0.4549500000000000 H
   0.3524300000000000    0.8459200000000000    0.4492500000000000 H
   0.8524200000000000    0.8459166666666667    0.4492750000000000 H
   0.1465000000000000    0.9148200000000000    0.4293200000000000 H
   0.6464900000000000    0.9148166666666666    0.4293000000000000 H
   0.0995900000000000    0.8574766666666667    0.4046550000000000 H
   0.5995700000000000    0.8574733333333333    0.4046800000000000 H
   0.4500500000000000    0.0638000000000000    0.9145099999999999 H
   0.9500500000000000    0.0637966666666667    0.9144900000000000 H
   0.3695800000000000    0.0727166666666667    0.8195100000000000 H
   0.8695800000000000    0.0727100000000000    0.8194850000000000 H
   0.1223900000000000    0.0299733333333333    0.8376600000000001 H
   0.6223800000000000    0.0299700000000000    0.8376700000000000 H
   0.1024900000000000    0.0337366666666667    0.7314950000000000 H
   0.6024700000000000    0.0337300000000000    0.7315050000000000 H
   0.3965200000000000    0.0470400000000000    0.6275700000000000 H
   0.8965300000000000    0.0470333333333333    0.6275550000000000 H
   0.3495700000000000    0.0635533333333333    0.7134550000000000 H
   0.8495800000000000    0.0635466666666667    0.7134350000000000 H
   0.2999600000000000    0.2763633333333333    0.5956200000000000 H
   0.7999400000000000    0.2763600000000000    0.5956399999999999 H
   0.3804500000000000    0.2131633333333333    0.6090050000000000 H
   0.8804400000000000    0.2131600000000000    0.6090400000000000 H
   0.1275800000000000    0.2248866666666667    0.5450250000000000 H
   0.6275600000000000    0.2248833333333333    0.5450350000000000 H
   0.1475800000000000    0.1540966666666667    0.5507450000000000 H
   0.6475700000000000    0.1540900000000000    0.5507649999999999 H
   0.3535100000000000    0.0851933333333333    0.5706750000000000 H
   0.8534900000000000    0.0851900000000000    0.5706950000000000 H
   0.4004200000000000    0.1425366666666666    0.5953250000000000 H
   0.9004100000000000    0.1425333333333333    0.5953550000000000 H
   0.0499500000000000    0.2695500000000000    0.5855450000000000 H
   0.5499400000000000    0.2695466666666667    0.5855150000000000 H
   0.1304200000000000    0.2606333333333333    0.6805500000000000 H
   0.6304200000000000    0.2606300000000000    0.6805150000000000 H
   0.3776100000000000    0.3033766666666666    0.6623500000000000 H
   0.8776000000000000    0.3033700000000000    0.6623650000000000 H
   0.3975100000000000    0.2996133333333333    0.7685200000000000 H
   0.8975000000000000    0.2996033333333333    0.7685400000000000 H
   0.1034500000000000    0.2863166666666667    0.8724750000000000 H
   0.6034700000000000    0.2863033333333333    0.8724499999999999 H
   0.1504100000000000    0.2698033333333333    0.7865949999999999 H
   0.6504200000000000    0.2697933333333333    0.7865700000000000 H
   0.2000500000000000    0.0569866666666667    0.9043500000000000 H
   0.7000400000000000    0.0569800000000000    0.9043950000000001 H
   0.1195600000000000    0.1201833333333333    0.8909750000000001 H
   0.6195500000000000    0.1201800000000000    0.8910000000000000 H
   0.3724300000000000    0.1084633333333333    0.9549750000000000 H
   0.8724200000000000    0.1084566666666667    0.9549500000000000 H
   0.3524300000000000    0.1792533333333333    0.9492499999999999 H
   0.8524200000000000    0.1792500000000000    0.9492750000000000 H
   0.1465000000000000    0.2481533333333333    0.9293199999999999 H
   0.6464900000000000    0.2481500000000000    0.9293000000000000 H
   0.0995900000000000    0.1908100000000000    0.9046550000000000 H
   0.5995700000000000    0.1908066666666667    0.9046799999999999 H
   0.4500500000000000    0.3971333333333333    0.9145099999999999 H
   0.9500500000000000    0.3971300000000000    0.9144900000000000 H
   0.3695800000000000    0.4060500000000000    0.8195100000000000 H
   0.8695800000000000    0.4060433333333333    0.8194850000000000 H
   0.1223900000000000    0.3633066666666667    0.8376600000000001 H
   0.6223800000000000    0.3633033333333333    0.8376700000000000 H
   0.1024900000000000    0.3670700000000000    0.7314950000000000 H
   0.6024700000000000    0.3670633333333333    0.7315050000000000 H
   0.3965200000000000    0.3803733333333333    0.6275700000000000 H
   0.8965300000000000    0.3803666666666666    0.6275550000000000 H
   0.3495700000000000    0.3968866666666666    0.7134550000000000 H
   0.8495800000000000    0.3968800000000000    0.7134350000000000 H
   0.2999600000000000    0.6096966666666666    0.5956200000000000 H
   0.7999400000000000    0.6096933333333333    0.5956399999999999 H
   0.3804500000000000    0.5464966666666666    0.6090050000000000 H
   0.8804400000000000    0.5464933333333333    0.6090400000000000 H
   0.1275800000000000    0.5582199999999999    0.5450250000000000 H
   0.6275600000000000    0.5582166666666666    0.5450350000000000 H
   0.1475800000000000    0.4874300000000000    0.5507450000000000 H
   0.6475700000000000    0.4874233333333333    0.5507649999999999 H
   0.3535100000000000    0.4185266666666666    0.5706750000000000 H
   0.8534900000000000    0.4185233333333333    0.5706950000000000 H
   0.4004200000000000    0.4758700000000000    0.5953250000000000 H
   0.9004100000000000    0.4758666666666667    0.5953550000000000 H
   0.0499500000000000    0.6028833333333332    0.5855450000000000 H
   0.5499400000000000    0.6028800000000000    0.5855150000000000 H
   0.1304200000000000    0.5939666666666666    0.6805500000000000 H
   0.6304200000000000    0.5939633333333333    0.6805150000000000 H
   0.3776100000000000    0.6367099999999999    0.6623500000000000 H
   0.8776000000000000    0.6367033333333333    0.6623650000000000 H
   0.3975100000000000    0.6329466666666665    0.7685200000000000 H
   0.8975000000000000    0.6329366666666667    0.7685400000000000 H
   0.1034500000000000    0.6196500000000000    0.8724750000000000 H
   0.6034700000000000    0.6196366666666666    0.8724499999999999 H
   0.1504100000000000    0.6031366666666667    0.7865949999999999 H
   0.6504200000000000    0.6031266666666666    0.7865700000000000 H
   0.2000500000000000    0.3903200000000000    0.9043500000000000 H
   0.7000400000000000    0.3903133333333333    0.9043950000000001 H
   0.1195600000000000    0.4535166666666666    0.8909750000000001 H
   0.6195500000000000    0.4535133333333333    0.8910000000000000 H
   0.3724300000000000    0.4417966666666666    0.9549750000000000 H
   0.8724200000000000    0.4417900000000000    0.9549500000000000 H
   0.3524300000000000    0.5125866666666666    0.9492499999999999 H
   0.8524200000000000    0.5125833333333333    0.9492750000000000 H
   0.1465000000000000    0.5814866666666667    0.9293199999999999 H
   0.6464900000000000    0.5814833333333334    0.9293000000000000 H
   0.0995900000000000    0.5241433333333333    0.9046550000000000 H
   0.5995700000000000    0.5241400000000001    0.9046799999999999 H
   0.4500500000000000    0.7304666666666666    0.9145099999999999 H
   0.9500500000000000    0.7304633333333332    0.9144900000000000 H
   0.3695800000000000    0.7393833333333333    0.8195100000000000 H
   0.8695800000000000    0.7393766666666666    0.8194850000000000 H
   0.1223900000000000    0.6966399999999999    0.8376600000000001 H
   0.6223800000000000    0.6966366666666667    0.8376700000000000 H
   0.1024900000000000    0.7004033333333333    0.7314950000000000 H
   0.6024700000000000    0.7003966666666667    0.7315050000000000 H
   0.3965200000000000    0.7137066666666666    0.6275700000000000 H
   0.8965300000000000    0.7137000000000000    0.6275550000000000 H
   0.3495700000000000    0.7302200000000000    0.7134550000000000 H
   0.8495800000000000    0.7302133333333333    0.7134350000000000 H
   0.2999600000000000    0.9430299999999999    0.5956200000000000 H
   0.7999400000000000    0.9430266666666667    0.5956399999999999 H
   0.3804500000000000    0.8798299999999999    0.6090050000000000 H
   0.8804400000000000    0.8798266666666666    0.6090400000000000 H
   0.1275800000000000    0.8915533333333333    0.5450250000000000 H
   0.6275600000000000    0.8915500000000000    0.5450350000000000 H
   0.1475800000000000    0.8207633333333333    0.5507450000000000 H
   0.6475700000000000    0.8207566666666666    0.5507649999999999 H
   0.3535100000000000    0.7518600000000000    0.5706750000000000 H
   0.8534900000000000    0.7518566666666666    0.5706950000000000 H
   0.4004200000000000    0.8092033333333333    0.5953250000000000 H
   0.9004100000000000    0.8091999999999999    0.5953550000000000 H
   0.0499500000000000    0.9362166666666666    0.5855450000000000 H
   0.5499400000000000    0.9362133333333333    0.5855150000000000 H
   0.1304200000000000    0.9273000000000000    0.6805500000000000 H
   0.6304200000000000    0.9272966666666667    0.6805150000000000 H
   0.3776100000000000    0.9700433333333333    0.6623500000000000 H
   0.8776000000000000    0.9700366666666667    0.6623650000000000 H
   0.3975100000000000    0.9662799999999999    0.7685200000000000 H
   0.8975000000000000    0.9662700000000000    0.7685400000000000 H
   0.1034500000000000    0.9529833333333333    0.8724750000000000 H
   0.6034700000000000    0.9529699999999999    0.8724499999999999 H
   0.1504100000000000    0.9364699999999999    0.7865949999999999 H
   0.6504200000000000    0.9364600000000000    0.7865700000000000 H
   0.2000500000000000    0.7236533333333333    0.9043500000000000 H
   0.7000400000000000    0.7236466666666667    0.9043950000000001 H
   0.1195600000000000    0.7868499999999999    0.8909750000000001 H
   0.6195500000000000    0.7868466666666667    0.8910000000000000 H
   0.3724300000000000    0.7751300000000000    0.9549750000000000 H
   0.8724200000000000    0.7751233333333333    0.9549500000000000 H
   0.3524300000000000    0.8459200000000000    0.9492499999999999 H
   0.8524200000000000    0.8459166666666667    0.9492750000000000 H
   0.1465000000000000    0.9148200000000000    0.9293199999999999 H
   0.6464900000000000    0.9148166666666666    0.9293000000000000 H
   0.0995900000000000    0.8574766666666667    0.9046550000000000 H
   0.5995700000000000    0.8574733333333333    0.9046799999999999 H
   0.0877300000000000    0.0360166666666667    0.4390600000000000 C
   0.5877300000000000    0.0360133333333333    0.4390750000000000 C
   0.0413900000000000    0.0455700000000000    0.3818000000000000 C
   0.5413900000000000    0.0455666666666667    0.3818350000000000 C
   0.4695000000000000    0.0588833333333333    0.3762650000000000 C
   0.9694900000000000    0.0588800000000000    0.3762450000000000 C
   0.4248600000000000    0.0636500000000000    0.3233000000000000 C
   0.9248600000000000    0.0636500000000000    0.3232850000000000 C
   0.4495700000000000    0.0559900000000000    0.2729350000000000 C
   0.9495700000000000    0.0559933333333333    0.2729200000000000 C
   0.0225900000000000    0.0456000000000000    0.2782650000000000 C
   0.5225800000000000    0.0455966666666667    0.2782800000000000 C
   0.0672200000000000    0.0400366666666667    0.3334500000000000 C
   0.5672100000000000    0.0400333333333333    0.3334700000000000 C
   0.0473700000000000    0.0399666666666667    0.2279850000000000 C
   0.5473600000000000    0.0399633333333333    0.2250000000000000 C
   0.0276900000000000    0.0360833333333333    0.1210950000000000 C
   0.5276800000000000    0.0360766666666667    0.1211150000000000 C
   0.0023700000000000    0.0415533333333333    0.1743650000000000 C
   0.5023600000000000    0.0415533333333333    0.1743800000000000 C
   0.4306900000000000    0.0485000000000000    0.1697000000000000 C
   0.9307000000000000    0.0484966666666667    0.1697100000000000 C
   0.4049000000000000    0.0569333333333333    0.2176000000000000 C
   0.9049100000000000    0.0569300000000000    0.2175850000000000 C
   0.1623100000000000    0.2925633333333333    0.0541150000000000 C
   0.6623000000000000    0.2925566666666666    0.0541150000000000 C
   0.2086000000000000    0.2544400000000000    0.0683450000000000 C
   0.7085900000000001    0.2544366666666666    0.0683550000000000 C
   0.2805200000000000    0.2508366666666667    0.0882750000000000 C
   0.7805100000000000    0.2508333333333333    0.0882950000000000 C
   0.3251600000000000    0.2156066666666666    0.0954300000000000 C
   0.8251500000000001    0.2156033333333333    0.0954600000000000 C
   0.3004400000000000    0.1820000000000000    0.0839850000000000 C
   0.8004200000000000    0.1819966666666666    0.0840150000000000 C
   0.2274200000000000    0.1854366666666666    0.0684350000000000 C
   0.7274100000000000    0.1854333333333333    0.0684550000000000 C
   0.1827700000000000    0.2221666666666667    0.0600850000000000 C
   0.6827600000000000    0.2221600000000000    0.0601000000000000 C
   0.2026800000000000    0.1518633333333333    0.0600550000000000 C
   0.7026700000000000    0.1518600000000000    0.0600750000000000 C
   0.2224800000000000    0.0806066666666667    0.0540000000000000 C
   0.7224699999999999    0.0806033333333333    0.0543750000000000 C
   0.2476900000000000    0.1161966666666667    0.0624650000000000 C
   0.7476800000000000    0.1161933333333333    0.0624900000000000 C
   0.3193300000000000    0.1132300000000000    0.0728000000000000 C
   0.8193200000000000    0.1132266666666667    0.0728600000000000 C
   0.3451100000000000    0.1451933333333333    0.0854300000000000 C
   0.8450900000000000    0.1451900000000000    0.0854550000000000 C
   0.4122700000000000    0.2973300000000000    0.0609500000000000 C
   0.9122700000000000    0.2973266666666666    0.0609750000000000 C
   0.4586000000000000    0.2877766666666667    0.1181900000000000 C
   0.9586000000000000    0.2877766666666667    0.1182000000000000 C
   0.0305000000000000    0.2744666666666666    0.1237900000000000 C
   0.5305000000000000    0.2744633333333333    0.1237600000000000 C
   0.0751300000000000    0.2696966666666666    0.1767500000000000 C
   0.5751300000000000    0.2696933333333333    0.1767200000000000 C
   0.0504200000000000    0.2773533333333333    0.2271000000000000 C
   0.5504200000000000    0.2773533333333333    0.2270850000000000 C
   0.4774100000000000    0.2877466666666667    0.2217450000000000 C
   0.9774000000000000    0.2877466666666667    0.2217700000000000 C
   0.4327800000000000    0.2933100000000000    0.1665500000000000 C
   0.9327700000000000    0.2933066666666667    0.1665750000000000 C
   0.4526300000000000    0.2933833333333333    0.2720250000000000 C
   0.9526200000000000    0.2933766666666666    0.2720500000000000 C
   0.4723200000000000    0.2972666666666667    0.3789150000000000 C
   0.9723100000000000    0.2972633333333333    0.3789450000000000 C
   0.4976300000000000    0.2917933333333333    0.3256000000000000 C
   0.9976100000000000    0.2917900000000000    0.3256650000000000 C
   0.0692800000000000    0.2848500000000000    0.3303250000000000 C
   0.5693000000000000    0.2848433333333333    0.3303000000000000 C
   0.0950800000000000    0.2764166666666666    0.2824450000000000 C
   0.5950900000000000    0.2764100000000000    0.2824200000000000 C
   0.3377000000000000    0.0407866666666667    0.4459000000000000 C
   0.8376900000000000    0.0407833333333333    0.4459150000000000 C
   0.2914100000000000    0.0789100000000000    0.4316550000000000 C
   0.7914000000000000    0.0789033333333333    0.4316500000000000 C
   0.2194900000000000    0.0825133333333333    0.4117150000000000 C
   0.7194800000000000    0.0825066666666667    0.4117400000000000 C
   0.1748500000000000    0.1177400000000000    0.4045550000000000 C
   0.6748400000000000    0.1177366666666667    0.4045800000000000 C
   0.1995700000000000    0.1513500000000000    0.4160000000000000 C
   0.6995600000000000    0.1513433333333333    0.4160200000000000 C
   0.2725900000000000    0.1479133333333333    0.4315550000000000 C
   0.7725700000000000    0.1479066666666667    0.4315800000000000 C
   0.3172400000000000    0.1111833333333333    0.4399100000000000 C
   0.8172300000000000    0.1111800000000000    0.4399000000000000 C
   0.2973300000000000    0.1814866666666667    0.4399400000000000 C
   0.7973200000000000    0.1814800000000000    0.4399650000000000 C
   0.2775200000000000    0.2527433333333333    0.4456450000000000 C
   0.7775200000000000    0.2527366666666667    0.4456900000000000 C
   0.2523100000000000    0.2171500000000000    0.4375300000000000 C
   0.7523000000000000    0.2171466666666667    0.4375550000000000 C
   0.1806700000000000    0.2201200000000000    0.4271550000000000 C
   0.6806600000000000    0.2201133333333333    0.4271800000000000 C
   0.1549000000000000    0.1881533333333333    0.4145600000000000 C
   0.6548900000000000    0.1881500000000000    0.4145850000000000 C
   0.0877300000000000    0.3693500000000000    0.4390600000000000 C
   0.5877300000000000    0.3693466666666667    0.4390750000000000 C
   0.0413900000000000    0.3789033333333333    0.3818000000000000 C
   0.5413900000000000    0.3789000000000000    0.3818350000000000 C
   0.4695000000000000    0.3922166666666667    0.3762650000000000 C
   0.9694900000000000    0.3922133333333333    0.3762450000000000 C
   0.4248600000000000    0.3969833333333333    0.3233000000000000 C
   0.9248600000000000    0.3969833333333333    0.3232850000000000 C
   0.4495700000000000    0.3893233333333333    0.2729350000000000 C
   0.9495700000000000    0.3893266666666667    0.2729200000000000 C