H3 C7 N1 O4
1.0
  39.2098895414864401    0.0000000000000000   -0.0930706421635959
  -0.1420016738554337   24.2085795144348204   -0.0139433822634023
   0.0000000000000000    0.0000000000000000   15.0419999999999998
H C N O
3 7 1 4
direct
   0.4707200000000000    0.8364100000000000    0.9768000000000000 H
   0.5004333333333333    0.9953200000000000    0.8677000000000000 H
   0.5395633333333333    0.8410700000000000    0.7678700000000001 H
   0.4852433333333333    0.8620000000000000    0.9310700000000000 C
   0.4824066666666667    0.9195700000000000    0.9305000000000000 C
   0.5021700000000000    0.9504400000000000    0.8711000000000000 C
   0.5233333333333333    0.9220200000000000    0.8118800000000000 C
   0.5244233333333332    0.8644400000000000    0.8149400000000000 C
   0.4544466666666667    0.9428000000000000    0.9862200000000000 C
   0.5428066666666667    0.9515900000000000    0.7400000000000000 C
   0.5057533333333333    0.8350600000000000    0.8742900000000000 N
   0.4300733333333333    0.9076700000000000   -0.0001500000000000 O
   0.4547233333333333   -0.0079200000000000    0.0000000000000000 O
   0.5406000000000000    1.0027300000000001    0.7301700000000000 O
   0.5611366666666666    0.9207000000000000    0.6879600000000000 O
