Cd144 H147 C858 N1287 O4
1.0
  28.3060746269197843    0.0000000000000000   -3.1245196775261497
   3.7175981448231399   38.3424038049115126   -5.2625026835827349
   0.0000000000000000    0.0000000000000000   38.8800000000000026
Cd H C N O
144 147 858 1287 4
direct
   0.2731550000000000    0.5523733333333334    0.9785199999999999 Cd
   0.2268600000000000    0.4476400000000000    0.6881499999999999 Cd
   0.2731550000000000    0.5523733333333334    0.3118533333333333 Cd
   0.2268600000000000    0.4476400000000000    0.0214833333333333 Cd
   0.2268600000000000    0.4476400000000000    0.3548166666666667 Cd
   0.2731550000000000    0.5523733333333334    0.6451866666666666 Cd
   0.2731550000000000    0.2190400000000000    0.9785199999999999 Cd
   0.2268600000000000    0.1143066666666667    0.6881499999999999 Cd
   0.2268600000000000    0.1143066666666667    0.3548166666666667 Cd
   0.2731550000000000    0.2190400000000000    0.6451866666666666 Cd
   0.2268600000000000    0.1143066666666667    0.0214833333333333 Cd
   0.2731550000000000    0.2190400000000000    0.3118533333333333 Cd
   0.2731550000000000    0.8857066666666666    0.3118533333333333 Cd
   0.2268600000000000    0.7809733333333333    0.0214833333333333 Cd
   0.2268600000000000    0.7809733333333333    0.3548166666666667 Cd
   0.2731550000000000    0.8857066666666666    0.6451866666666666 Cd
   0.2731550000000000    0.8857066666666666    0.9785199999999999 Cd
   0.2268600000000000    0.7809733333333333    0.6881499999999999 Cd
   0.6481350000000000    0.3548100000000000    0.1143000000000000 Cd
   0.6018150000000000    0.6452199999999999    0.2190533333333333 Cd
   0.6481350000000000    0.6881433333333333    0.1143000000000000 Cd
   0.6018150000000000    0.9785533333333333    0.2190533333333333 Cd
   0.6481350000000000    0.0214766666666667    0.1143000000000000 Cd
   0.6018150000000000    0.3118866666666666    0.2190533333333333 Cd
   0.6481350000000000    0.3548100000000000    0.7809666666666666 Cd
   0.6018150000000000    0.6452199999999999    0.8857200000000000 Cd
   0.6481350000000000    0.6881433333333333    0.7809666666666666 Cd
   0.6018150000000000    0.9785533333333333    0.8857200000000000 Cd
   0.6481350000000000    0.0214766666666667    0.7809666666666666 Cd
   0.6018150000000000    0.3118866666666666    0.8857200000000000 Cd
   0.6481350000000000    0.3548100000000000    0.4476333333333333 Cd
   0.6018150000000000    0.6452199999999999    0.5523866666666666 Cd
   0.6481350000000000    0.6881433333333333    0.4476333333333333 Cd
   0.6018150000000000    0.9785533333333333    0.5523866666666666 Cd
   0.6481350000000000    0.0214766666666667    0.4476333333333333 Cd
   0.6018150000000000    0.3118866666666666    0.5523866666666666 Cd
   0.4768500000000000    0.4476233333333333    0.3547900000000000 Cd
   0.5231600000000000    0.5523866666666666    0.6452133333333333 Cd
   0.4768500000000000    0.4476233333333333    0.6881233333333333 Cd
   0.5231600000000000    0.5523866666666666    0.9785466666666667 Cd
   0.4768500000000000    0.4476233333333333    0.0214566666666667 Cd
   0.5231600000000000    0.5523866666666666    0.3118800000000000 Cd
   0.4768500000000000    0.1142900000000000    0.6881233333333333 Cd
   0.5231600000000000    0.2190533333333333    0.9785466666666667 Cd
   0.4768500000000000    0.1142900000000000    0.3547900000000000 Cd
   0.5231600000000000    0.2190533333333333    0.6452133333333333 Cd
   0.4768500000000000    0.1142900000000000    0.0214566666666667 Cd
   0.5231600000000000    0.2190533333333333    0.3118800000000000 Cd
   0.3981950000000000    0.0214600000000000    0.7809499999999999 Cd
   0.3518800000000000    0.3118700000000000    0.8856799999999999 Cd
   0.3981950000000000    0.6881266666666667    0.7809499999999999 Cd
   0.3518800000000000    0.9785366666666666    0.8856799999999999 Cd
   0.3981950000000000    0.3547933333333333    0.7809499999999999 Cd
   0.3518800000000000    0.6452033333333334    0.8856799999999999 Cd
   0.3981950000000000    0.0214600000000000    0.4476166666666667 Cd
   0.3518800000000000    0.3118700000000000    0.5523466666666667 Cd
   0.3981950000000000    0.6881266666666667    0.4476166666666667 Cd
   0.3518800000000000    0.9785366666666666    0.5523466666666667 Cd
   0.3981950000000000    0.3547933333333333    0.4476166666666667 Cd
   0.3518800000000000    0.6452033333333334    0.5523466666666667 Cd
   0.3981950000000000    0.0214600000000000    0.1142833333333333 Cd
   0.3518800000000000    0.3118700000000000    0.2190133333333333 Cd
   0.3981950000000000    0.6881266666666667    0.1142833333333333 Cd
   0.3518800000000000    0.9785366666666666    0.2190133333333333 Cd
   0.3981950000000000    0.3547933333333333    0.1142833333333333 Cd
   0.3518800000000000    0.6452033333333334    0.2190133333333333 Cd
   0.4768500000000000    0.7809566666666666    0.3547900000000000 Cd
   0.5231600000000000    0.8857200000000000    0.6452133333333333 Cd
   0.4768500000000000    0.7809566666666666    0.0214566666666667 Cd
   0.5231600000000000    0.8857200000000000    0.3118800000000000 Cd
   0.4768500000000000    0.7809566666666666    0.6881233333333333 Cd
   0.5231600000000000    0.8857200000000000    0.9785466666666667 Cd
   0.7268600000000001    0.7809733333333333    0.6881499999999999 Cd
   0.7731550000000000    0.8857066666666666    0.9785199999999999 Cd
   0.7268600000000001    0.7809733333333333    0.0214833333333333 Cd
   0.7731550000000000    0.8857066666666666    0.3118533333333333 Cd
   0.7268600000000001    0.7809733333333333    0.3548166666666667 Cd
   0.7731550000000000    0.8857066666666666    0.6451866666666666 Cd
   0.7268600000000001    0.4476400000000000    0.6881499999999999 Cd
   0.7731550000000000    0.5523733333333334    0.9785199999999999 Cd
   0.7268600000000001    0.4476400000000000    0.3548166666666667 Cd
   0.7731550000000000    0.5523733333333334    0.6451866666666666 Cd
   0.7268600000000001    0.4476400000000000    0.0214833333333333 Cd
   0.7731550000000000    0.5523733333333334    0.3118533333333333 Cd
   0.7268600000000001    0.1143066666666667    0.6881499999999999 Cd
   0.7731550000000000    0.2190400000000000    0.9785199999999999 Cd
   0.7268600000000001    0.1143066666666667    0.3548166666666667 Cd
   0.7731550000000000    0.2190400000000000    0.6451866666666666 Cd
   0.7268600000000001    0.1143066666666667    0.0214833333333333 Cd
   0.7731550000000000    0.2190400000000000    0.3118533333333333 Cd
   0.1481350000000000    0.3548100000000000    0.1143000000000000 Cd
   0.1018150000000000    0.6452199999999999    0.2190533333333333 Cd
   0.1481350000000000    0.6881433333333333    0.1143000000000000 Cd
   0.1018150000000000    0.9785533333333333    0.2190533333333333 Cd
   0.1481350000000000    0.0214766666666667    0.1143000000000000 Cd
   0.1018150000000000    0.3118866666666666    0.2190533333333333 Cd
   0.1481350000000000    0.3548100000000000    0.4476333333333333 Cd
   0.1018150000000000    0.6452199999999999    0.5523866666666666 Cd
   0.1481350000000000    0.6881433333333333    0.4476333333333333 Cd
   0.1018150000000000    0.9785533333333333    0.5523866666666666 Cd
   0.1481350000000000    0.0214766666666667    0.4476333333333333 Cd
   0.1018150000000000    0.3118866666666666    0.5523866666666666 Cd
   0.1481350000000000    0.3548100000000000    0.7809666666666666 Cd
   0.1018150000000000    0.6452199999999999    0.8857200000000000 Cd
   0.1481350000000000    0.0214766666666667    0.7809666666666666 Cd
   0.1018150000000000    0.3118866666666666    0.8857200000000000 Cd
   0.1481350000000000    0.6881433333333333    0.7809666666666666 Cd
   0.1018150000000000    0.9785533333333333    0.8857200000000000 Cd
   0.8981950000000001    0.0214600000000000    0.7809499999999999 Cd
   0.8518800000000000    0.3118700000000000    0.8856799999999999 Cd
   0.8981950000000001    0.6881266666666667    0.7809499999999999 Cd
   0.8518800000000000    0.9785366666666666    0.8856799999999999 Cd
   0.8981950000000001    0.3547933333333333    0.7809499999999999 Cd
   0.8518800000000000    0.6452033333333334    0.8856799999999999 Cd
   0.8981950000000001    0.0214600000000000    0.4476166666666667 Cd
   0.8518800000000000    0.3118700000000000    0.5523466666666667 Cd
   0.8981950000000001    0.6881266666666667    0.4476166666666667 Cd
   0.8518800000000000    0.9785366666666666    0.5523466666666667 Cd
   0.8981950000000001    0.3547933333333333    0.4476166666666667 Cd
   0.8518800000000000    0.6452033333333334    0.5523466666666667 Cd
   0.9768500000000000    0.7809566666666666    0.3547900000000000 Cd
   0.0231600000000000    0.8857200000000000    0.6452133333333333 Cd
   0.9768500000000000    0.7809566666666666    0.0214566666666667 Cd
   0.0231600000000000    0.8857200000000000    0.3118800000000000 Cd
   0.9768500000000000    0.7809566666666666    0.6881233333333333 Cd
   0.0231600000000000    0.8857200000000000    0.9785466666666667 Cd
   0.9768500000000000    0.4476233333333333    0.0214566666666667 Cd
   0.0231600000000000    0.5523866666666666    0.3118800000000000 Cd
   0.9768500000000000    0.4476233333333333    0.6881233333333333 Cd
   0.0231600000000000    0.5523866666666666    0.9785466666666667 Cd
   0.9768500000000000    0.4476233333333333    0.3547900000000000 Cd
   0.0231600000000000    0.5523866666666666    0.6452133333333333 Cd
   0.8981950000000001    0.6881266666666667    0.1142833333333333 Cd
   0.8981950000000001    0.0214600000000000    0.1142833333333333 Cd
   0.8518800000000000    0.3118700000000000    0.2190133333333333 Cd
   0.8518800000000000    0.9785366666666666    0.2190133333333333 Cd
   0.8981950000000001    0.3547933333333333    0.1142833333333333 Cd
   0.8518800000000000    0.6452033333333334    0.2190133333333333 Cd
   0.9768500000000000    0.1142900000000000    0.3547900000000000 Cd
   0.0231600000000000    0.2190533333333333    0.6452133333333333 Cd
   0.9768500000000000    0.1142900000000000    0.6881233333333333 Cd
   0.0231600000000000    0.2190533333333333    0.9785466666666667 Cd
   0.9768500000000000    0.1142900000000000    0.0214566666666667 Cd
   0.0231600000000000    0.2190533333333333    0.3118800000000000 Cd
   0.2382750000000000    0.4882733333333333    0.8626566666666666 H
   0.2617350000000000    0.5117400000000000    0.8040133333333332 H
   0.2382750000000000    0.4882733333333333    0.1959900000000000 H
   0.2617350000000000    0.5117400000000000    0.1373466666666667 H
   0.2382750000000000    0.4882733333333333    0.5293233333333334 H
   0.2617350000000000    0.5117400000000000    0.4706800000000000 H
   0.2382750000000000    0.1549400000000000    0.8626566666666666 H
   0.2617350000000000    0.1784066666666667    0.8040133333333332 H
   0.2382750000000000    0.1549400000000000    0.5293233333333334 H
   0.2617350000000000    0.1784066666666667    0.4706800000000000 H
   0.2382750000000000    0.1549400000000000    0.1959900000000000 H
   0.2617350000000000    0.1784066666666667    0.1373466666666667 H
   0.2382750000000000    0.8216066666666666    0.1959900000000000 H
   0.2617350000000000    0.8450733333333333    0.1373466666666667 H
   0.2382750000000000    0.8216066666666666    0.5293233333333334 H
   0.2617350000000000    0.8450733333333333    0.4706800000000000 H
   0.2382750000000000    0.8216066666666666    0.8626566666666666 H
   0.2617350000000000    0.8450733333333333    0.8040133333333332 H
   0.6367600000000000    0.5293200000000000    0.1549366666666667 H
   0.6132299999999999    0.4706966666666667    0.1783833333333333 H
   0.6367600000000000    0.8626533333333333    0.1549366666666667 H
   0.6132299999999999    0.8040300000000000    0.1783833333333333 H
   0.6367600000000000    0.1959866666666667    0.1549366666666667 H
   0.6132299999999999    0.1373633333333333    0.1783833333333333 H
   0.6367600000000000    0.5293200000000000    0.8216033333333332 H
   0.6132299999999999    0.4706966666666667    0.8450500000000000 H
   0.6367600000000000    0.8626533333333333    0.8216033333333332 H
   0.6132299999999999    0.8040300000000000    0.8450500000000000 H
   0.6367600000000000    0.1959866666666667    0.8216033333333332 H
   0.6132299999999999    0.1373633333333333    0.8450500000000000 H
   0.6367600000000000    0.5293200000000000    0.4882700000000000 H
   0.6132299999999999    0.4706966666666667    0.5117166666666666 H
   0.6367600000000000    0.8626533333333333    0.4882700000000000 H
   0.6132299999999999    0.8040300000000000    0.5117166666666666 H
   0.6367600000000000    0.1959866666666667    0.4882700000000000 H
   0.6132299999999999    0.1373633333333333    0.5117166666666666 H
   0.4882100000000000    0.4882733333333333    0.5293133333333333 H
   0.5118050000000000    0.5117366666666666    0.4706899999999999 H
   0.4882100000000000    0.4882733333333333    0.8626466666666666 H
   0.5118050000000000    0.5117366666666666    0.8040233333333333 H
   0.4882100000000000    0.4882733333333333    0.1959800000000000 H
   0.5118050000000000    0.5117366666666666    0.1373566666666667 H
   0.4882100000000000    0.1549400000000000    0.8626466666666666 H
   0.5118050000000000    0.1784033333333333    0.8040233333333333 H
   0.4882100000000000    0.1549400000000000    0.5293133333333333 H
   0.5118050000000000    0.1784033333333333    0.4706899999999999 H
   0.4882100000000000    0.1549400000000000    0.1959800000000000 H
   0.5118050000000000    0.1784033333333333    0.1373566666666667 H
   0.3632500000000000    0.1373600000000000    0.8450666666666666 H
   0.3867800000000000    0.1959833333333333    0.8216200000000000 H
   0.3632500000000000    0.8040266666666667    0.8450666666666666 H
   0.3867800000000000    0.8626499999999999    0.8216200000000000 H
   0.3632500000000000    0.4706933333333333    0.8450666666666666 H
   0.3867800000000000    0.5293166666666667    0.8216200000000000 H
   0.3632500000000000    0.1373600000000000    0.5117333333333334 H
   0.3867800000000000    0.1959833333333333    0.4882866666666666 H
   0.3632500000000000    0.8040266666666667    0.5117333333333334 H
   0.3867800000000000    0.8626499999999999    0.4882866666666666 H
   0.3632500000000000    0.4706933333333333    0.5117333333333334 H
   0.3867800000000000    0.5293166666666667    0.4882866666666666 H
   0.3632500000000000    0.1373600000000000    0.1784000000000000 H
   0.3867800000000000    0.1959833333333333    0.1549533333333333 H
   0.3632500000000000    0.8040266666666667    0.1784000000000000 H
   0.3867800000000000    0.8626499999999999    0.1549533333333333 H
   0.3632500000000000    0.4706933333333333    0.1784000000000000 H
   0.3867800000000000    0.5293166666666667    0.1549533333333333 H
   0.4882100000000000    0.8216066666666666    0.5293133333333333 H
   0.5118050000000000    0.8450700000000000    0.4706899999999999 H
   0.4882100000000000    0.8216066666666666    0.1959800000000000 H
   0.5118050000000000    0.8450700000000000    0.1373566666666667 H
   0.4882100000000000    0.8216066666666666    0.8626466666666666 H
   0.5118050000000000    0.8450700000000000    0.8040233333333333 H
   0.7382750000000000    0.8216066666666666    0.8626566666666666 H
   0.7617350000000001    0.8450733333333333    0.8040133333333332 H
   0.7382750000000000    0.8216066666666666    0.1959900000000000 H
   0.7617350000000001    0.8450733333333333    0.1373466666666667 H
   0.7382750000000000    0.8216066666666666    0.5293233333333334 H
   0.7617350000000001    0.8450733333333333    0.4706800000000000 H
   0.7382750000000000    0.4882733333333333    0.8626566666666666 H
   0.7617350000000001    0.5117400000000000    0.8040133333333332 H
   0.7382750000000000    0.4882733333333333    0.5293233333333334 H
   0.7617350000000001    0.5117400000000000    0.4706800000000000 H
   0.7382750000000000    0.4882733333333333    0.1959900000000000 H
   0.7617350000000001    0.5117400000000000    0.1373466666666667 H
   0.7382750000000000    0.1549400000000000    0.8626566666666666 H
   0.7617350000000001    0.1784066666666667    0.8040133333333332 H
   0.7382750000000000    0.1549400000000000    0.5293233333333334 H
   0.7617350000000001    0.1784066666666667    0.4706800000000000 H
   0.7382750000000000    0.1549400000000000    0.1959900000000000 H
   0.7617350000000001    0.1784066666666667    0.1373466666666667 H
   0.1367600000000000    0.5293200000000000    0.1549366666666667 H
   0.1132300000000000    0.4706966666666667    0.1783833333333333 H
   0.1367600000000000    0.8626533333333333    0.1549366666666667 H
   0.1132300000000000    0.8040300000000000    0.1783833333333333 H
   0.1367600000000000    0.1959866666666667    0.1549366666666667 H
   0.1132300000000000    0.1373633333333333    0.1783833333333333 H
   0.1367600000000000    0.5293200000000000    0.4882700000000000 H
   0.1132300000000000    0.4706966666666667    0.5117166666666666 H
   0.1367600000000000    0.8626533333333333    0.4882700000000000 H
   0.1132300000000000    0.8040300000000000    0.5117166666666666 H
   0.1367600000000000    0.1959866666666667    0.4882700000000000 H
   0.1132300000000000    0.1373633333333333    0.5117166666666666 H
   0.1367600000000000    0.5293200000000000    0.8216033333333332 H
   0.1132300000000000    0.4706966666666667    0.8450500000000000 H
   0.1367600000000000    0.1959866666666667    0.8216033333333332 H
   0.1132300000000000    0.1373633333333333    0.8450500000000000 H
   0.1367600000000000    0.8626533333333333    0.8216033333333332 H
   0.1132300000000000    0.8040300000000000    0.8450500000000000 H
   0.8632500000000001    0.1373600000000000    0.8450666666666666 H
   0.8867800000000000    0.1959833333333333    0.8216200000000000 H
   0.8632500000000001    0.8040266666666667    0.8450666666666666 H
   0.8867800000000000    0.8626499999999999    0.8216200000000000 H
   0.8632500000000001    0.4706933333333333    0.8450666666666666 H
   0.8867800000000000    0.5293166666666667    0.8216200000000000 H
   0.8632500000000001    0.1373600000000000    0.5117333333333334 H
   0.8867800000000000    0.1959833333333333    0.4882866666666666 H
   0.8632500000000001    0.8040266666666667    0.5117333333333334 H
   0.8867800000000000    0.8626499999999999    0.4882866666666666 H
   0.8632500000000001    0.4706933333333333    0.5117333333333334 H
   0.8867800000000000    0.5293166666666667    0.4882866666666666 H
   0.9426667702410799    0.8593396098797593    1.0088357921502014 H
   0.9188525333178437    0.8409055639832961    0.0544235344710118 H
   0.9882100000000000    0.8216066666666666    0.5293133333333333 H
   0.0118050000000000    0.8450700000000000    0.4706899999999999 H
   0.9882100000000000    0.8216066666666666    0.1959800000000000 H
   0.0118050000000000    0.8450700000000000    0.1373566666666667 H
   0.9882100000000000    0.8216066666666666    0.8626466666666666 H
   0.0118050000000000    0.8450700000000000    0.8040233333333333 H
   0.9882100000000000    0.4882733333333333    0.1959800000000000 H
   0.0118050000000000    0.5117366666666666    0.1373566666666667 H
   0.9882100000000000    0.4882733333333333    0.8626466666666666 H
   0.0118050000000000    0.5117366666666666    0.8040233333333333 H
   0.9882100000000000    0.4882733333333333    0.5293133333333333 H
   0.0118050000000000    0.5117366666666666    0.4706899999999999 H
   0.9184514760275451    0.9459031973522245    0.1139457655469256 H
   0.8759494263898215    0.7640291322183479    0.1111474385049411 H
   0.8632500000000001    0.1373600000000000    0.1784000000000000 H
   0.8867800000000000    0.1959833333333333    0.1549533333333333 H
   0.8632500000000001    0.8040266666666667    0.1784000000000000 H
   0.8632500000000001    0.4706933333333333    0.1784000000000000 H
   0.8867800000000000    0.5293166666666667    0.1549533333333333 H
   0.9882100000000000    0.1549400000000000    0.5293133333333333 H
   0.0118050000000000    0.1784033333333333    0.4706899999999999 H
   0.9882100000000000    0.1549400000000000    0.8626466666666666 H
   0.0118050000000000    0.1784033333333333    0.8040233333333333 H
   0.9882100000000000    0.1549400000000000    0.1959800000000000 H
   0.0118050000000000    0.1784033333333333    0.1373566666666667 H
   0.1842450000000000    0.3457200000000000    0.8565499999999999 C
   0.2489250000000000    0.4465933333333333    0.7690633333333333 C
   0.2348850000000000    0.4445433333333333    0.8248666666666666 C
   0.2081550000000000    0.4491466666666666    0.9414633333333333 C
   0.2198800000000000    0.4448133333333333    0.8839866666666666 C
   0.2104500000000000    0.3970733333333333    0.8437233333333333 C
   0.3157650000000000    0.6542900000000000    0.8101200000000000 C
   0.2510900000000000    0.5534166666666667    0.8976066666666667 C
   0.2651250000000000    0.5554699999999999    0.8417999999999999 C
   0.2918550000000000    0.5508666666666666    0.7252066666666667 C
   0.2801250000000000    0.5551999999999999    0.7826666666666666 C
   0.2895600000000000    0.6029400000000000    0.8229433333333334 C
   0.1842450000000000    0.3457200000000000    0.1898833333333333 C
   0.2489250000000000    0.4465933333333333    0.1023966666666667 C
   0.2348850000000000    0.4445433333333333    0.1582000000000000 C
   0.2081550000000000    0.4491466666666666    0.2747966666666666 C
   0.2198800000000000    0.4448133333333333    0.2173200000000000 C
   0.2104500000000000    0.3970733333333333    0.1770566666666667 C
   0.3157650000000000    0.6542900000000000    0.1434533333333333 C
   0.2510900000000000    0.5534166666666667    0.2309400000000000 C
   0.2651250000000000    0.5554699999999999    0.1751333333333333 C
   0.2918550000000000    0.5508666666666666    0.0585400000000000 C
   0.2801250000000000    0.5551999999999999    0.1160000000000000 C
   0.2895600000000000    0.6029400000000000    0.1562766666666667 C
   0.1842450000000000    0.3457200000000000    0.5232166666666667 C
   0.2489250000000000    0.4465933333333333    0.4357300000000000 C
   0.2348850000000000    0.4445433333333333    0.4915333333333333 C
   0.2081550000000000    0.4491466666666666    0.6081299999999999 C
   0.2198800000000000    0.4448133333333333    0.5506533333333333 C
   0.2104500000000000    0.3970733333333333    0.5103900000000000 C
   0.3157650000000000    0.6542900000000000    0.4767866666666666 C
   0.2510900000000000    0.5534166666666667    0.5642733333333333 C
   0.2651250000000000    0.5554699999999999    0.5084666666666666 C
   0.2918550000000000    0.5508666666666666    0.3918733333333333 C
   0.2801250000000000    0.5551999999999999    0.4493333333333333 C
   0.2895600000000000    0.6029400000000000    0.4896100000000000 C
   0.1842450000000000    0.0123866666666667    0.8565499999999999 C
   0.2489250000000000    0.1132600000000000    0.7690633333333333 C
   0.2348850000000000    0.1112100000000000    0.8248666666666666 C
   0.2081550000000000    0.1158133333333333    0.9414633333333333 C
   0.2198800000000000    0.1114800000000000    0.8839866666666666 C
   0.2104500000000000    0.0637400000000000    0.8437233333333333 C
   0.3157650000000000    0.3209566666666667    0.8101200000000000 C
   0.2510900000000000    0.2200833333333333    0.8976066666666667 C
   0.2651250000000000    0.2221366666666666    0.8417999999999999 C
   0.2918550000000000    0.2175333333333333    0.7252066666666667 C
   0.2801250000000000    0.2218666666666667    0.7826666666666666 C
   0.2895600000000000    0.2696066666666667    0.8229433333333334 C
   0.1842450000000000    0.0123866666666667    0.5232166666666667 C
   0.2489250000000000    0.1132600000000000    0.4357300000000000 C
   0.2348850000000000    0.1112100000000000    0.4915333333333333 C
   0.2081550000000000    0.1158133333333333    0.6081299999999999 C
   0.2198800000000000    0.1114800000000000    0.5506533333333333 C
   0.2104500000000000    0.0637400000000000    0.5103900000000000 C
   0.3157650000000000    0.3209566666666667    0.4767866666666666 C
   0.2510900000000000    0.2200833333333333    0.5642733333333333 C
   0.2651250000000000    0.2221366666666666    0.5084666666666666 C
   0.2918550000000000    0.2175333333333333    0.3918733333333333 C
   0.2801250000000000    0.2218666666666667    0.4493333333333333 C
   0.2895600000000000    0.2696066666666667    0.4896100000000000 C
   0.1842450000000000    0.0123866666666667    0.1898833333333333 C
   0.2489250000000000    0.1132600000000000    0.1023966666666667 C
   0.2348850000000000    0.1112100000000000    0.1582000000000000 C
   0.2081550000000000    0.1158133333333333    0.2747966666666666 C
   0.2198800000000000    0.1114800000000000    0.2173200000000000 C
   0.2104500000000000    0.0637400000000000    0.1770566666666667 C
   0.3157650000000000    0.3209566666666667    0.1434533333333333 C
   0.2510900000000000    0.2200833333333333    0.2309400000000000 C
   0.2651250000000000    0.2221366666666666    0.1751333333333333 C
   0.2918550000000000    0.2175333333333333    0.0585400000000000 C
   0.2801250000000000    0.2218666666666667    0.1160000000000000 C
   0.2895600000000000    0.2696066666666667    0.1562766666666667 C
   0.1842450000000000    0.6790533333333333    0.1898833333333333 C
   0.2489250000000000    0.7799266666666667    0.1023966666666667 C
   0.2348850000000000    0.7778766666666667    0.1582000000000000 C
   0.2081550000000000    0.7824800000000000    0.2747966666666666 C
   0.2198800000000000    0.7781466666666667    0.2173200000000000 C
   0.2104500000000000    0.7304066666666666    0.1770566666666667 C
   0.3157650000000000    0.9876233333333333    0.1434533333333333 C
   0.2510900000000000    0.8867499999999999    0.2309400000000000 C
   0.2651250000000000    0.8888033333333333    0.1751333333333333 C
   0.2918550000000000    0.8841999999999999    0.0585400000000000 C
   0.2801250000000000    0.8885333333333333    0.1160000000000000 C
   0.2895600000000000    0.9362733333333333    0.1562766666666667 C
   0.1842450000000000    0.6790533333333333    0.5232166666666667 C
   0.2489250000000000    0.7799266666666667    0.4357300000000000 C
   0.2348850000000000    0.7778766666666667    0.4915333333333333 C
   0.2081550000000000    0.7824800000000000    0.6081299999999999 C
   0.2198800000000000    0.7781466666666667    0.5506533333333333 C
   0.2104500000000000    0.7304066666666666    0.5103900000000000 C
   0.3157650000000000    0.9876233333333333    0.4767866666666666 C
   0.2510900000000000    0.8867499999999999    0.5642733333333333 C
   0.2651250000000000    0.8888033333333333    0.5084666666666666 C
   0.2918550000000000    0.8841999999999999    0.3918733333333333 C
   0.2801250000000000    0.8885333333333333    0.4493333333333333 C
   0.2895600000000000    0.9362733333333333    0.4896100000000000 C
   0.1842450000000000    0.6790533333333333    0.8565499999999999 C
   0.2489250000000000    0.7799266666666667    0.7690633333333333 C
   0.2348850000000000    0.7778766666666667    0.8248666666666666 C
   0.2081550000000000    0.7824800000000000    0.9414633333333333 C
   0.2198800000000000    0.7781466666666667    0.8839866666666666 C
   0.2104500000000000    0.7304066666666666    0.8437233333333333 C
   0.3157650000000000    0.9876233333333333    0.8101200000000000 C
   0.2510900000000000    0.8867499999999999    0.8976066666666667 C
   0.2651250000000000    0.8888033333333333    0.8417999999999999 C
   0.2918550000000000    0.8841999999999999    0.7252066666666667 C
   0.2801250000000000    0.8885333333333333    0.7826666666666666 C
   0.2895600000000000    0.9362733333333333    0.8229433333333334 C
   0.6907150000000000    0.5231833333333333    0.0123566666666667 C
   0.6260800000000000    0.4357266666666667    0.1132700000000000 C
   0.6401100000000000    0.4915300000000000    0.1112066666666667 C
   0.6668600000000000    0.6081200000000000    0.1158033333333333 C
   0.6551350000000000    0.5506400000000000    0.1114666666666667 C
   0.6645099999999999    0.5103766666666667    0.0637166666666667 C
   0.5592600000000000    0.4768066666666667    0.3209466666666667 C
   0.6238850000000000    0.5642900000000000    0.2200600000000000 C
   0.6098700000000000    0.5084833333333333    0.2221166666666667 C
   0.5831200000000000    0.3919000000000000    0.2175333333333333 C
   0.5948500000000000    0.4493699999999999    0.2218533333333333 C
   0.5854500000000000    0.4896366666666666    0.2696000000000000 C
   0.6907150000000000    0.8565166666666666    0.0123566666666667 C
   0.6260800000000000    0.7690600000000000    0.1132700000000000 C
   0.6401100000000000    0.8248633333333333    0.1112066666666667 C
   0.6668600000000000    0.9414533333333333    0.1158033333333333 C
   0.6551350000000000    0.8839733333333333    0.1114666666666667 C
   0.6645099999999999    0.8437100000000000    0.0637166666666667 C
   0.5592600000000000    0.8101400000000000    0.3209466666666667 C
   0.6238850000000000    0.8976233333333332    0.2200600000000000 C
   0.6098700000000000    0.8418166666666667    0.2221166666666667 C
   0.5831200000000000    0.7252333333333333    0.2175333333333333 C
   0.5948500000000000    0.7827033333333333    0.2218533333333333 C
   0.5854500000000000    0.8229700000000000    0.2696000000000000 C
   0.6907150000000000    0.1898500000000000    0.0123566666666667 C
   0.6260800000000000    0.1023933333333333    0.1132700000000000 C
   0.6401100000000000    0.1581966666666667    0.1112066666666667 C
   0.6668600000000000    0.2747866666666666    0.1158033333333333 C
   0.6551350000000000    0.2173066666666667    0.1114666666666667 C
   0.6645099999999999    0.1770433333333333    0.0637166666666667 C
   0.5592600000000000    0.1434733333333333    0.3209466666666667 C
   0.6238850000000000    0.2309566666666666    0.2200600000000000 C
   0.6098700000000000    0.1751500000000000    0.2221166666666667 C
   0.5831200000000000    0.0585666666666667    0.2175333333333333 C
   0.5948500000000000    0.1160366666666666    0.2218533333333333 C
   0.5854500000000000    0.1563033333333333    0.2696000000000000 C