C6 O12
1.0
  37.6261371698635543    0.0000000000000000    3.5898482801662146
   2.4519755323012360   31.2938509434631733   14.5167408572759573
   0.0000000000000000    0.0000000000000000   38.5880000000000010
C O
6 12
direct
   0.1362700000000000    0.8529550000000000    0.0433050000000000 C
   0.1124100000000000    0.8290800000000000    0.0295000000000000 C
   0.8568800000000000    0.8046400000000000    0.1705150000000000 C
   0.8982133333333333    0.8031600000000000    0.1711800000000000 C
   0.4764466666666666    0.1953750000000000    0.5794750000000000 C
   0.4351133333333333    0.1968550000000000    0.5788100000000000 C
   0.1687500000000000    0.8393250000000000    0.0481500000000000 O
   0.1217233333333333    0.8859049999999999    0.0473600000000000 O
   0.1267633333333333    0.8149000000000000    0.0056400000000000 O
   0.0800833333333333    0.8265650000000000    0.0421750000000000 O
   0.8394699999999999    0.7849900000000001    0.2022000000000000 O
   0.8427033333333332    0.8276450000000000    0.1394350000000000 O
   0.9122933333333333    0.7821950000000000    0.2033350000000000 O
   0.9149033333333333    0.8254600000000001    0.1405300000000000 O
   0.4906233333333333    0.1723700000000000    0.6105550000000000 O
   0.4938600000000000    0.2150250000000000    0.5477900000000000 O
   0.4210366666666666    0.2178200000000000    0.5466550000000000 O
   0.4184233333333333    0.1745600000000000    0.6094600000000000 O
