H3 C3 N2
1.0
  15.8259999903582500    0.0000000000000000   -0.0005524316147266
   0.0011033971528880   15.8049999614841745    0.0000000000000010
   0.0000000000000000    0.0000000000000000   18.6370000000000005
H C N
3 3 2
direct
   0.6177100000000000    0.0472500000000000    0.9185400000000000 H
   0.4738700000000000    0.1366100000000000    0.8800300000000000 H
   0.6884100000000000    0.2888000000000000    0.8437200000000000 H
   0.6112400000000000    0.1108400000000000    0.8973000000000000 C
   0.5398300000000000    0.1551100000000000    0.8780000000000000 C
   0.6495500000000000    0.2351700000000000    0.8589599999999999 C
   0.6808100000000000    0.1620100000000000    0.8851200000000000 N
   0.5645600000000000    0.2341100000000000    0.8537000000000000 N
