H1 O1
1.0
  15.8259999903582500    0.0000000000000000   -0.0005524316147266
   0.0011033971528880   15.8049999614841745    0.0000000000000010
   0.0000000000000000    0.0000000000000000   18.6370000000000005
H O
1 1
direct
   0.6581313940694224    0.2150863534830791    0.8661413585686529 H
   0.6808100000000000    0.1620100000000000    0.8851200000000000 O
