H3 O2
1.0
  18.1509998645367858    0.0000000000000000    0.0022175629821932
   3.0919927035524939    8.6005837749189329    0.0003190287339070
   0.0000000000000000    0.0000000000000000   37.9780000000000015
H O
3 2
direct
   0.4394934747545187    0.7944847240422908    0.1844780295290685 H
   0.3699963195599991    0.5890172379064542    0.2586251906597025 H
   0.3704779432105609    0.6878119101898487    0.2261527211761981 H
   0.4747600000000000    0.7306800000000000    0.2020150000000000 O
   0.4148850000000000    0.6074700000000000    0.2482350000000000 O
