P1 O5
1.0
  18.1509998645367858    0.0000000000000000    0.0022175629821932
   3.0919927035524939    8.6005837749189329    0.0003190287339070
   0.0000000000000000    0.0000000000000000   37.9780000000000015
P O
1 5
direct
   0.6125600000000000    0.0141100000000000    0.6758600000000000 P
   0.5403150000000000    0.9637400000000000    0.6772000000000000 O
   0.6057450000000000    0.1321200000000000    0.7052200000000000 O
   0.6208500000000000    0.0960300000000000    0.6383750000000000 O
   0.6900100000000000    0.8801600000000001    0.6776100000000000 O
   0.5507000000000000    0.2433900000000000    0.6370050000000000 O
