H1 O1
1.0
   6.2857153320668733    0.0000000000000000    0.6074600926969949
   0.6145131703135935    7.8870846679350546    3.7376488939351846
   0.0000000000000000    0.0000000000000000    9.7750000000000004
H O
1 1
direct
   0.8778032910081894    0.2594613950105329    0.8416370744469905 H
   0.9436700000000000    0.1877000000000000    0.9373500000000000 O
