H6 O4
1.0
  14.5438660296857503    0.0000000000000000   -4.3866207849041254
  -3.5134898263433252   14.1824336218468883   -4.4849327533519343
   0.0000000000000000    0.0000000000000000   22.5799999999999983
H O
6 4
direct
  -0.0628622385268655    0.5959494198468771    0.1546461571823805 H
   0.7404243024492314    0.7339375973603386    0.1011823104579274 H
  -0.1669533233354895    0.6567056977295235    0.1215816431286042 H
   0.7184083813849848    0.5594268682231142    0.1547624401766431 H
   0.8621827281211500    0.3682279034265101    0.1012650274746878 H
   0.7897438252822296    0.4657449310038431    0.1216628469285763 H
  -0.0888600000000000    0.6511400000000001    0.1619700000000000 O
   0.7986200000000000    0.7297900000000000    0.1312800000000000 O
   0.7517100000000000    0.5115800000000000    0.1620900000000000 O
   0.8338600000000000    0.4023600000000000    0.1313700000000000 O
