Cd32 H628 C744 N124 Cl64 O4
1.0
  36.6000000000000014    0.0000000000000000    0.0000000000000022
   0.0000000000000029   17.8260000000000005    0.0000000000000011
   0.0000000000000000    0.0000000000000000   31.4680000000000000
Cd H C N Cl O
32 628 744 124 64 4
direct
   0.0000000000000000    0.7500200000000000    0.4767600000000000 Cd
   0.0000000000000000    0.2500100000000000    0.2732250000000000 Cd
   0.2500000000000000    0.2500100000000000    0.0232300000000000 Cd
   0.2500000000000000    0.7500200000000000    0.2267650000000000 Cd
   0.7500000000000000    0.2500100000000000    0.0232300000000000 Cd
   0.7500000000000000    0.7500200000000000    0.2267650000000000 Cd
   0.5000000000000000    0.7500200000000000    0.4767600000000000 Cd
   0.5000000000000000    0.2500100000000000    0.2732250000000000 Cd
   0.2500000000000000    0.2500100000000000    0.5232300000000000 Cd
   0.2500000000000000    0.7500200000000000    0.7267650000000000 Cd
   0.0000000000000000    0.2500100000000000    0.7732250000000001 Cd
   0.0000000000000000    0.7500200000000000    0.9767600000000001 Cd
   0.5000000000000000    0.2500100000000000    0.7732250000000001 Cd
   0.5000000000000000    0.7500200000000000    0.9767600000000001 Cd
   0.7500000000000000    0.2500100000000000    0.5232300000000000 Cd
   0.7500000000000000    0.7500200000000000    0.7267650000000000 Cd
   0.0000000000000000    0.2500100000000000    0.5232300000000000 Cd
   0.0000000000000000    0.7500200000000000    0.7267650000000000 Cd
   0.2500000000000000    0.2500100000000000    0.7732250000000001 Cd
   0.2500000000000000    0.7500200000000000    0.9767600000000001 Cd
   0.5000000000000000    0.2500100000000000    0.5232300000000000 Cd
   0.5000000000000000    0.7500200000000000    0.7267650000000000 Cd
   0.7500000000000000    0.2500100000000000    0.7732250000000001 Cd
   0.7500000000000000    0.7500200000000000    0.9767600000000001 Cd
   0.0000000000000000    0.2500100000000000    0.0232300000000000 Cd
   0.0000000000000000    0.7500200000000000    0.2267650000000000 Cd
   0.2500000000000000    0.2500100000000000    0.2732250000000000 Cd
   0.2500000000000000    0.7500200000000000    0.4767600000000000 Cd
   0.5000000000000000    0.2500100000000000    0.0232300000000000 Cd
   0.5000000000000000    0.7500200000000000    0.2267650000000000 Cd
   0.7500000000000000    0.2500100000000000    0.2732250000000000 Cd
   0.7500000000000000    0.7500200000000000    0.4767600000000000 Cd
   0.9741089454835942    0.8776625035329698    0.5346733927051066 H
   0.9555002486394981    0.7999804689778116    0.5554832621702088 H
   0.1151850000000000    0.5403600000000000    0.3320600000000000 H
   0.0488550000000000    0.5680300000000000    0.3449800000000000 H
   0.1308750000000000    0.6374300000000001    0.4363600000000000 H
   0.0830100000000000    0.7153900000000000    0.4704350000000000 H
   0.0035850000000000    0.6434400000000000    0.3862350000000000 H
   0.1151850000000000    0.4596600000000000    0.4179250000000000 H
   0.0488550000000000    0.4320000000000000    0.4050050000000000 H
   0.1308750000000000    0.3626000000000000    0.3136250000000000 H
   0.0830100000000000    0.2846400000000000    0.2795500000000000 H
   0.0035850000000000    0.3565900000000000    0.3637500000000000 H
   0.1670850000000000    0.5643700000000000    0.4077850000000000 H
   0.2107200000000000    0.4953000000000000    0.3115000000000000 H
   0.1642600000000000    0.6959900000000000    0.3676750000000000 H
   0.1968450000000000    0.7696900000000000    0.3117500000000000 H
   0.2436600000000000    0.5787700000000000    0.2610150000000000 H
   0.1670850000000000    0.4356600000000000    0.3422050000000000 H
   0.2107200000000000    0.5047199999999999    0.4381400000000000 H
   0.1642600000000000    0.3040400000000000    0.3823100000000000 H
   0.1968450000000000    0.2303400000000000    0.4381950000000000 H
   0.2436600000000000    0.4212500000000000    0.4889700000000000 H
   0.8848199999999999    0.0403500000000000    0.4179000000000000 H
   0.9511499999999999    0.0680200000000000    0.4050050000000000 H
   0.8691249999999999    0.1374200000000000    0.3136250000000000 H
   0.9169900000000000    0.2153800000000000    0.2795500000000000 H
   0.9964150000000001    0.1434300000000000    0.3637500000000000 H
   0.8848199999999999    0.9596700000000000    0.3320600000000000 H
   0.9511499999999999    0.9320100000000000    0.3449800000000000 H
   0.8691249999999999    0.8626100000000000    0.4363600000000000 H
   0.9169900000000000    0.7846500000000000    0.4704350000000000 H
   0.9964150000000001    0.8566000000000000    0.3862350000000000 H
   0.8329150000000001    0.0643500000000000    0.3422050000000000 H
   0.7892850000000000    0.9952900000000000    0.4381400000000000 H
   0.8357399999999999    0.1959700000000000    0.3823100000000000 H
   0.8031550000000001    0.2696700000000000    0.4381950000000000 H
   0.7563400000000000    0.0787600000000000    0.4889700000000000 H
   0.8329150000000001    0.9356700000000000    0.4077850000000000 H
   0.7892850000000000    0.0000000000000000    0.3115000000000000 H
   0.8357399999999999    0.8040500000000000    0.3676750000000000 H
   0.8031600000000000    0.7303500000000001    0.3117500000000000 H
   0.7563400000000000    0.9212600000000000    0.2610150000000000 H
   0.3651850000000000    0.0403500000000000    0.1679300000000000 H
   0.2988550000000000    0.0680200000000000    0.1550100000000000 H
   0.3808750000000000    0.1374200000000000    0.0636300000000000 H
   0.3330100000000000    0.2153800000000000    0.0295500000000000 H
   0.2535850000000000    0.1434300000000000    0.1137550000000000 H
   0.3651850000000000    0.9596700000000000    0.0820600000000000 H
   0.2988550000000000    0.9320100000000000    0.0949850000000000 H
   0.3808750000000000    0.8626100000000000    0.1863650000000000 H
   0.3330100000000000    0.7846500000000000    0.2204400000000000 H
   0.2535850000000000    0.8566000000000000    0.1362400000000000 H
   0.4170850000000000    0.0643600000000000    0.0922100000000000 H
   0.4607200000000000    0.9952900000000000    0.1881400000000000 H
   0.4142600000000000    0.1959700000000000    0.1323000000000000 H
   0.4468450000000000    0.2696800000000000    0.1881950000000000 H
   0.4936600000000000    0.0787600000000000    0.2389750000000000 H
   0.4170850000000000    0.9356700000000000    0.1577500000000000 H
   0.4607200000000000    0.0000000000000000    0.0618500000000000 H
   0.4142600000000000    0.8040500000000000    0.1176800000000000 H
   0.4468450000000000    0.7303500000000001    0.0617950000000000 H
   0.4936650000000000    0.9212700000000000    0.0110200000000000 H
   0.1348200000000000    0.5403600000000000    0.0820600000000000 H
   0.2011500000000000    0.5680300000000000    0.0949850000000000 H
   0.1191250000000000    0.6374300000000001    0.1863650000000000 H
   0.1669900000000000    0.7153900000000000    0.2204400000000000 H
   0.2464150000000000    0.6434400000000000    0.1362400000000000 H
   0.1348200000000000    0.4596600000000000    0.1679300000000000 H
   0.2011450000000000    0.4320000000000000    0.1550100000000000 H
   0.1191250000000000    0.3625900000000000    0.0636300000000000 H
   0.1669900000000000    0.2846400000000000    0.0295500000000000 H
   0.2464150000000000    0.3565900000000000    0.1137550000000000 H
   0.0829150000000000    0.4356500000000000    0.0922100000000000 H
   0.0392800000000000    0.5047199999999999    0.1881400000000000 H
   0.0857400000000000    0.3040400000000000    0.1323000000000000 H
   0.0531550000000000    0.2303400000000000    0.1881950000000000 H
   0.0063400000000000    0.4212500000000000    0.2389750000000000 H
   0.0829150000000000    0.5643600000000000    0.1577900000000000 H
   0.0392850000000000    0.4953000000000000    0.0618500000000000 H
   0.0857400000000000    0.6959900000000000    0.1176800000000000 H
   0.0531550000000000    0.7696900000000000    0.0617950000000000 H
   0.0063400000000000    0.5787700000000000    0.0110200000000000 H
   0.6348199999999999    0.5403600000000000    0.0820600000000000 H
   0.7011499999999999    0.5680300000000000    0.0949850000000000 H
   0.6191250000000000    0.6374300000000001    0.1863650000000000 H
   0.6669900000000000    0.7153900000000000    0.2204400000000000 H
   0.7464150000000001    0.6434400000000000    0.1362400000000000 H
   0.6348199999999999    0.4596600000000000    0.1679300000000000 H
   0.7011450000000000    0.4320000000000000    0.1550100000000000 H
   0.6191250000000000    0.3625900000000000    0.0636300000000000 H
   0.6669900000000000    0.2846400000000000    0.0295500000000000 H
   0.7464150000000001    0.3565900000000000    0.1137550000000000 H
   0.5829150000000000    0.4356500000000000    0.0922100000000000 H
   0.5392800000000000    0.5047199999999999    0.1881400000000000 H
   0.5857400000000000    0.3040400000000000    0.1323000000000000 H
   0.5531550000000000    0.2303400000000000    0.1881950000000000 H
   0.5063400000000000    0.4212500000000000    0.2389750000000000 H
   0.5829150000000000    0.5643600000000000    0.1577900000000000 H
   0.5392850000000000    0.4953000000000000    0.0618500000000000 H
   0.5857400000000000    0.6959900000000000    0.1176800000000000 H
   0.5531550000000000    0.7696900000000000    0.0617950000000000 H
   0.5063400000000000    0.5787700000000000    0.0110200000000000 H
   0.8651850000000000    0.0403500000000000    0.1679300000000000 H
   0.7988550000000000    0.0680200000000000    0.1550100000000000 H
   0.8808750000000001    0.1374200000000000    0.0636300000000000 H
   0.8330100000000000    0.2153800000000000    0.0295500000000000 H
   0.7535849999999999    0.1434300000000000    0.1137550000000000 H
   0.8651850000000000    0.9596700000000000    0.0820600000000000 H
   0.7988550000000000    0.9320100000000000    0.0949850000000000 H
   0.8808750000000001    0.8626100000000000    0.1863650000000000 H
   0.8330100000000000    0.7846500000000000    0.2204400000000000 H
   0.7535849999999999    0.8566000000000000    0.1362400000000000 H
   0.9170849999999999    0.0643600000000000    0.0922100000000000 H
   0.9607200000000000    0.9952900000000000    0.1881400000000000 H
   0.9142600000000001    0.1959700000000000    0.1323000000000000 H
   0.9468449999999999    0.2696800000000000    0.1881950000000000 H
   0.9936600000000000    0.0787600000000000    0.2389750000000000 H
   0.9170849999999999    0.9356700000000000    0.1577500000000000 H
   0.9607200000000000    0.0000000000000000    0.0618500000000000 H
   0.9142600000000001    0.8040500000000000    0.1176800000000000 H
   0.9468449999999999    0.7303500000000001    0.0617950000000000 H
   0.9936650000000000    0.9212700000000000    0.0110200000000000 H
   0.3848200000000000    0.9596700000000000    0.3320600000000000 H
   0.4511500000000000    0.9320100000000000    0.3449800000000000 H
   0.3691250000000000    0.8626100000000000    0.4363600000000000 H
   0.4169900000000000    0.7846500000000000    0.4704350000000000 H
   0.4964150000000000    0.8566000000000000    0.3862350000000000 H
   0.3848200000000000    0.0403500000000000    0.4179000000000000 H
   0.4511500000000000    0.0680200000000000    0.4050050000000000 H
   0.3691250000000000    0.1374200000000000    0.3136250000000000 H
   0.4169900000000000    0.2153800000000000    0.2795500000000000 H
   0.4964150000000000    0.1434300000000000    0.3637500000000000 H
   0.3329150000000000    0.0643500000000000    0.3422050000000000 H
   0.2892850000000000    0.9952900000000000    0.4381400000000000 H
   0.3357400000000000    0.1959700000000000    0.3823100000000000 H
   0.3031550000000000    0.2696700000000000    0.4381950000000000 H
   0.2563400000000000    0.0787600000000000    0.4889700000000000 H
   0.3329150000000000    0.9356700000000000    0.4077850000000000 H
   0.2892850000000000    0.0000000000000000    0.3115000000000000 H
   0.3357400000000000    0.8040500000000000    0.3676750000000000 H
   0.3031600000000000    0.7303500000000001    0.3117500000000000 H
   0.2563400000000000    0.9212600000000000    0.2610150000000000 H
   0.6151850000000000    0.5403600000000000    0.3320600000000000 H
   0.5488550000000000    0.5680300000000000    0.3449800000000000 H
   0.6308750000000000    0.6374300000000001    0.4363600000000000 H
   0.5830100000000000    0.7153900000000000    0.4704350000000000 H
   0.5035849999999999    0.6434400000000000    0.3862350000000000 H
   0.6151850000000000    0.4596600000000000    0.4179250000000000 H
   0.5488550000000000    0.4320000000000000    0.4050050000000000 H
   0.6308750000000000    0.3626000000000000    0.3136250000000000 H
   0.5830100000000000    0.2846400000000000    0.2795500000000000 H
   0.5035849999999999    0.3565900000000000    0.3637500000000000 H
   0.6670850000000000    0.5643700000000000    0.4077850000000000 H
   0.7107200000000000    0.4953000000000000    0.3115000000000000 H
   0.6642600000000000    0.6959900000000000    0.3676750000000000 H
   0.6968449999999999    0.7696900000000000    0.3117500000000000 H
   0.7436600000000000    0.5787700000000000    0.2610150000000000 H
   0.6670850000000000    0.4356600000000000    0.3422050000000000 H
   0.7107200000000000    0.5047199999999999    0.4381400000000000 H
   0.6642600000000000    0.3040400000000000    0.3823100000000000 H
   0.6968449999999999    0.2303400000000000    0.4381950000000000 H
   0.7436600000000000    0.4212500000000000    0.4889700000000000 H
   0.9555034878227846    0.2000473536659463    0.6945112120446755 H
   0.9741128944593829    0.1223586000689687    0.7153142759491089 H
   0.3651850000000000    0.0403500000000000    0.6679300000000000 H
   0.2988550000000000    0.0680200000000000    0.6550100000000000 H
   0.3808750000000000    0.1374200000000000    0.5636300000000000 H
   0.3330100000000000    0.2153800000000000    0.5295500000000000 H
   0.2535850000000000    0.1434300000000000    0.6137550000000001 H
   0.3651850000000000    0.9596700000000000    0.5820600000000000 H
   0.2988550000000000    0.9320100000000000    0.5949850000000000 H
   0.3808750000000000    0.8626100000000000    0.6863650000000000 H
   0.3330100000000000    0.7846500000000000    0.7204400000000000 H
   0.2535850000000000    0.8566000000000000    0.6362400000000000 H
   0.4170850000000000    0.0643600000000000    0.5922100000000000 H
   0.4607200000000000    0.9952900000000000    0.6881400000000000 H
   0.4142600000000000    0.1959700000000000    0.6323000000000000 H
   0.4468450000000000    0.2696800000000000    0.6881950000000000 H
   0.4936600000000000    0.0787600000000000    0.7389749999999999 H
   0.4170850000000000    0.9356700000000000    0.6577500000000001 H
   0.4607200000000000    0.0000000000000000    0.5618500000000000 H
   0.4142600000000000    0.8040500000000000    0.6176800000000000 H
   0.4468450000000000    0.7303500000000001    0.5617950000000000 H
   0.4936650000000000    0.9212700000000000    0.5110200000000000 H
   0.1348200000000000    0.5403600000000000    0.5820600000000000 H
   0.2011500000000000    0.5680300000000000    0.5949850000000000 H
   0.1191250000000000    0.6374300000000001    0.6863650000000000 H
   0.1669900000000000    0.7153900000000000    0.7204400000000000 H
   0.2464150000000000    0.6434400000000000    0.6362400000000000 H
   0.1348200000000000    0.4596600000000000    0.6679300000000000 H
   0.2011450000000000    0.4320000000000000    0.6550100000000000 H
   0.1191250000000000    0.3625900000000000    0.5636300000000000 H
   0.1669900000000000    0.2846400000000000    0.5295500000000000 H
   0.2464150000000000    0.3565900000000000    0.6137550000000001 H
   0.0829150000000000    0.4356500000000000    0.5922100000000000 H
   0.0392800000000000    0.5047199999999999    0.6881400000000000 H
   0.0857400000000000    0.3040400000000000    0.6323000000000000 H
   0.0531550000000000    0.2303400000000000    0.6881950000000000 H
   0.0063400000000000    0.4212500000000000    0.7389749999999999 H
   0.0829150000000000    0.5643600000000000    0.6577900000000000 H
   0.0392850000000000    0.4953000000000000    0.5618500000000000 H
   0.0857400000000000    0.6959900000000000    0.6176800000000000 H
   0.0531550000000000    0.7696900000000000    0.5617950000000000 H
   0.0063400000000000    0.5787700000000000    0.5110200000000000 H
   0.8848199999999999    0.0403500000000000    0.9178999999999999 H
   0.9511499999999999    0.0680200000000000    0.9050050000000001 H
   0.8691249999999999    0.1374200000000000    0.8136250000000000 H
   0.9169900000000000    0.2153800000000000    0.7795500000000000 H
   0.9964150000000001    0.1434300000000000    0.8637500000000000 H
   0.8848199999999999    0.9596700000000000    0.8320600000000000 H
   0.9511499999999999    0.9320100000000000    0.8449800000000001 H
   0.8691249999999999    0.8626100000000000    0.9363600000000001 H
   0.9169900000000000    0.7846500000000000    0.9704349999999999 H
   0.9964150000000001    0.8566000000000000    0.8862350000000000 H
   0.8329150000000001    0.0643500000000000    0.8422050000000000 H
   0.7892850000000000    0.9952900000000000    0.9381400000000000 H
   0.8357399999999999    0.1959700000000000    0.8823099999999999 H
   0.8031550000000001    0.2696700000000000    0.9381950000000000 H
   0.7563400000000000    0.0787600000000000    0.9889700000000000 H
   0.8329150000000001    0.9356700000000000    0.9077850000000001 H
   0.7892850000000000    0.0000000000000000    0.8115000000000000 H
   0.8357399999999999    0.8040500000000000    0.8676750000000000 H
   0.8031600000000000    0.7303500000000001    0.8117500000000000 H
   0.7563400000000000    0.9212600000000000    0.7610150000000000 H
   0.1151850000000000    0.5403600000000000    0.8320600000000000 H
   0.0488550000000000    0.5680300000000000    0.8449800000000001 H
   0.1308750000000000    0.6374300000000001    0.9363600000000001 H
   0.0830100000000000    0.7153900000000000    0.9704349999999999 H
   0.0035850000000000    0.6434400000000000    0.8862350000000000 H
   0.1151850000000000    0.4596600000000000    0.9179250000000000 H
   0.0488550000000000    0.4320000000000000    0.9050050000000001 H
   0.1308750000000000    0.3626000000000000    0.8136250000000000 H
   0.0830100000000000    0.2846400000000000    0.7795500000000000 H
   0.0035850000000000    0.3565900000000000    0.8637500000000000 H
   0.1670850000000000    0.5643700000000000    0.9077850000000001 H
   0.2107200000000000    0.4953000000000000    0.8115000000000000 H
   0.1642600000000000    0.6959900000000000    0.8676750000000000 H
   0.1968450000000000    0.7696900000000000    0.8117500000000000 H
   0.2436600000000000    0.5787700000000000    0.7610150000000000 H
   0.1670850000000000    0.4356600000000000    0.8422050000000000 H
   0.2107200000000000    0.5047199999999999    0.9381400000000000 H
   0.1642600000000000    0.3040400000000000    0.8823099999999999 H
   0.1968450000000000    0.2303400000000000    0.9381950000000000 H
   0.2436600000000000    0.4212500000000000    0.9889700000000000 H
   0.3848200000000000    0.9596700000000000    0.8320600000000000 H
   0.4511500000000000    0.9320100000000000    0.8449800000000001 H
   0.3691250000000000    0.8626100000000000    0.9363600000000001 H
   0.4169900000000000    0.7846500000000000    0.9704349999999999 H
   0.4964150000000000    0.8566000000000000    0.8862350000000000 H
   0.3848200000000000    0.0403500000000000    0.9178999999999999 H
   0.4511500000000000    0.0680200000000000    0.9050050000000001 H
   0.3691250000000000    0.1374200000000000    0.8136250000000000 H
   0.4169900000000000    0.2153800000000000    0.7795500000000000 H
   0.4964150000000000    0.1434300000000000    0.8637500000000000 H
   0.3329150000000000    0.0643500000000000    0.8422050000000000 H
   0.2892850000000000    0.9952900000000000    0.9381400000000000 H
   0.3357400000000000    0.1959700000000000    0.8823099999999999 H
   0.3031550000000000    0.2696700000000000    0.9381950000000000 H
   0.2563400000000000    0.0787600000000000    0.9889700000000000 H
   0.3329150000000000    0.9356700000000000    0.9077850000000001 H
   0.2892850000000000    0.0000000000000000    0.8115000000000000 H
   0.3357400000000000    0.8040500000000000    0.8676750000000000 H
   0.3031600000000000    0.7303500000000001    0.8117500000000000 H
   0.2563400000000000    0.9212600000000000    0.7610150000000000 H
   0.6151850000000000    0.5403600000000000    0.8320600000000000 H
   0.5488550000000000    0.5680300000000000    0.8449800000000001 H
   0.6308750000000000    0.6374300000000001    0.9363600000000001 H
   0.5830100000000000    0.7153900000000000    0.9704349999999999 H
   0.5035849999999999    0.6434400000000000    0.8862350000000000 H
   0.6151850000000000    0.4596600000000000    0.9179250000000000 H
   0.5488550000000000    0.4320000000000000    0.9050050000000001 H
   0.6308750000000000    0.3626000000000000    0.8136250000000000 H
   0.5830100000000000    0.2846400000000000    0.7795500000000000 H
   0.5035849999999999    0.3565900000000000    0.8637500000000000 H
   0.6670850000000000    0.5643700000000000    0.9077850000000001 H
   0.7107200000000000    0.4953000000000000    0.8115000000000000 H
   0.6642600000000000    0.6959900000000000    0.8676750000000000 H
   0.6968449999999999    0.7696900000000000    0.8117500000000000 H
   0.7436600000000000    0.5787700000000000    0.7610150000000000 H
   0.6670850000000000    0.4356600000000000    0.8422050000000000 H
   0.7107200000000000    0.5047199999999999    0.9381400000000000 H
   0.6642600000000000    0.3040400000000000    0.8823099999999999 H
   0.6968449999999999    0.2303400000000000    0.9381950000000000 H
   0.7436600000000000    0.4212500000000000    0.9889700000000000 H
   0.6348199999999999    0.5403600000000000    0.5820600000000000 H
   0.7011499999999999    0.5680300000000000    0.5949850000000000 H
   0.6191250000000000    0.6374300000000001    0.6863650000000000 H
   0.6669900000000000    0.7153900000000000    0.7204400000000000 H
   0.7464150000000001    0.6434400000000000    0.6362400000000000 H
   0.6348199999999999    0.4596600000000000    0.6679300000000000 H
   0.7011450000000000    0.4320000000000000    0.6550100000000000 H
   0.6191250000000000    0.3625900000000000    0.5636300000000000 H
   0.6669900000000000    0.2846400000000000    0.5295500000000000 H
   0.7464150000000001    0.3565900000000000    0.6137550000000001 H
   0.5829150000000000    0.4356500000000000    0.5922100000000000 H
   0.5392800000000000    0.5047199999999999    0.6881400000000000 H
   0.5857400000000000    0.3040400000000000    0.6323000000000000 H
   0.5531550000000000    0.2303400000000000    0.6881950000000000 H
   0.5063400000000000    0.4212500000000000    0.7389749999999999 H
   0.5829150000000000    0.5643600000000000    0.6577900000000000 H
   0.5392850000000000    0.4953000000000000    0.5618500000000000 H
   0.5857400000000000    0.6959900000000000    0.6176800000000000 H
   0.5531550000000000    0.7696900000000000    0.5617950000000000 H
   0.5063400000000000    0.5787700000000000    0.5110200000000000 H
   0.8168729332999293    0.1805007517098550    0.5603232962916261 H
   0.7847304761436525    0.1522714898422121    0.5947706704387680 H
   0.7847298493923799    0.8477612777378062    0.6552205897683172 H
   0.8168717134369710    0.8195293512788112    0.6896712157756947 H
   0.8848199999999999    0.4596600000000000    0.6679300000000000 H
   0.9511499999999999    0.4320000000000000    0.6550100000000000 H
   0.8691249999999999    0.3626000000000000    0.5636300000000000 H
   0.9169900000000000    0.2846300000000000    0.5295550000000000 H
   0.9964150000000001    0.3565800000000000    0.6137550000000001 H
   0.8848199999999999    0.5403700000000000    0.5820650000000001 H
   0.9511499999999999    0.5680300000000000    0.5949850000000000 H
   0.8691249999999999    0.6374300000000001    0.6863500000000000 H
   0.9169900000000000    0.7153900000000000    0.7204400000000000 H
   0.9964150000000001    0.6434400000000000    0.6362400000000000 H
   0.8329150000000001    0.5643700000000000    0.6577850000000001 H
   0.7892850000000000    0.4953100000000000    0.5618500000000000 H
   0.8357399999999999    0.6959900000000000    0.6176800000000000 H
   0.8031600000000000    0.7696900000000000    0.5617950000000000 H
   0.7563400000000000    0.5787800000000000    0.5110200000000000 H
   0.8329150000000001    0.4356600000000000    0.5922050000000000 H
   0.7892850000000000    0.5047199999999999    0.6881400000000000 H
   0.8357399999999999    0.3040400000000000    0.6323150000000000 H
   0.8031550000000001    0.2303400000000000    0.6881950000000000 H
   0.7563400000000000    0.4212500000000000    0.7389500000000000 H
   0.1151850000000000    0.9596700000000000    0.5820600000000000 H
   0.0488550000000000    0.9320100000000000    0.5949850000000000 H
   0.1308750000000000    0.8626100000000000    0.6863500000000000 H
   0.0830100000000000    0.7846500000000000    0.7204400000000000 H
   0.0035850000000000    0.8566000000000000    0.6362400000000000 H
   0.1151850000000000    0.0403500000000000    0.6679300000000000 H
   0.0488550000000000    0.0680200000000000    0.6550100000000000 H
   0.1308750000000000    0.1374200000000000    0.5636300000000000 H
   0.0830100000000000    0.2153800000000000    0.5295550000000000 H
   0.0035850000000000    0.1434300000000000    0.6137550000000001 H
   0.1670850000000000    0.9356700000000000    0.6577850000000001 H
   0.2107200000000000    0.0000000000000000    0.5618500000000000 H
   0.1642600000000000    0.8040500000000000    0.6176800000000000 H
   0.1968450000000000    0.7303500000000001    0.5617950000000000 H
   0.2436600000000000    0.9212600000000000    0.5110200000000000 H
   0.1670850000000000    0.0643600000000000    0.5922050000000000 H
   0.2107200000000000    0.9952900000000000    0.6881400000000000 H
   0.1642600000000000    0.1959700000000000    0.6323000000000000 H
   0.1968450000000000    0.2696700000000000    0.6881950000000000 H
   0.2436600000000000    0.0787600000000000    0.7389749999999999 H
   0.1348150000000000    0.9596700000000000    0.8320600000000000 H
   0.2011450000000000    0.9320100000000000    0.8449800000000001 H
   0.1191250000000000    0.8626100000000000    0.9363600000000001 H
   0.1669900000000000    0.7846500000000000    0.9704349999999999 H
   0.2464150000000000    0.8566000000000000    0.8862350000000000 H
   0.1348200000000000    0.0403500000000000    0.9178999999999999 H
   0.2011450000000000    0.0680200000000000    0.9050050000000001 H
   0.1191250000000000    0.1374200000000000    0.8136250000000000 H
   0.1669900000000000    0.2153800000000000    0.7795500000000000 H
   0.2464150000000000    0.1434300000000000    0.8637500000000000 H
   0.0829150000000000    0.0643600000000000    0.8422050000000000 H
   0.0392800000000000    0.9952900000000000    0.9381400000000000 H
   0.0857400000000000    0.1959700000000000    0.8823099999999999 H
   0.0531550000000000    0.2696700000000000    0.9381950000000000 H
   0.0063400000000000    0.0787600000000000    0.9889700000000000 H
   0.0829150000000000    0.9356700000000000    0.9077850000000001 H
   0.0392800000000000    0.0000000000000000    0.8115000000000000 H
   0.0857400000000000    0.8040500000000000    0.8676750000000000 H
   0.0531550000000000    0.7303500000000001    0.8117500000000000 H
   0.0063400000000000    0.9212600000000000    0.7610150000000000 H
   0.3651850000000000    0.4596600000000000    0.9179250000000000 H
   0.2988550000000000    0.4320000000000000    0.9050050000000001 H
   0.3808750000000000    0.3625900000000000    0.8136250000000000 H
   0.2535850000000000    0.3565900000000000    0.8637500000000000 H
   0.3330100000000000    0.2846400000000000    0.7795500000000000 H
   0.3651850000000000    0.5403600000000000    0.8320500000000000 H
   0.2988550000000000    0.5680300000000000    0.8449800000000001 H
   0.3808750000000000    0.6374300000000001    0.9363600000000001 H
   0.3330100000000000    0.7153900000000000    0.9704349999999999 H
   0.2535850000000000    0.6434400000000000    0.8862350000000000 H
   0.4170850000000000    0.4356600000000000    0.8422050000000000 H
   0.4607200000000000    0.5047199999999999    0.9381400000000000 H
   0.4142600000000000    0.3040400000000000    0.8823099999999999 H
   0.4468450000000000    0.2303400000000000    0.9381950000000000 H
   0.4936600000000000    0.4212500000000000    0.9889700000000000 H
   0.4170850000000000    0.5643700000000000    0.9077850000000001 H
   0.4607200000000000    0.4953000000000000    0.8118449999999999 H
   0.4142600000000000    0.6959900000000000    0.8676750000000000 H
   0.4468450000000000    0.7696900000000000    0.8117950000000000 H
   0.4936600000000000    0.5787700000000000    0.7610150000000000 H
   0.3848200000000000    0.4596600000000000    0.6679300000000000 H
   0.4511500000000000    0.4320000000000000    0.6550100000000000 H
   0.3691250000000000    0.3626000000000000    0.5636300000000000 H
   0.4169900000000000    0.2846300000000000    0.5295550000000000 H
   0.4964150000000000    0.3565800000000000    0.6137550000000001 H
   0.3848200000000000    0.5403700000000000    0.5820650000000001 H
   0.4511500000000000    0.5680300000000000    0.5949850000000000 H
   0.3691250000000000    0.6374300000000001    0.6863500000000000 H
   0.4169900000000000    0.7153900000000000    0.7204400000000000 H
   0.4964150000000000    0.6434400000000000    0.6362400000000000 H
   0.3329150000000000    0.5643700000000000    0.6577850000000001 H
   0.2892850000000000    0.4953100000000000    0.5618500000000000 H
   0.3357400000000000    0.6959900000000000    0.6176800000000000 H
   0.3031600000000000    0.7696900000000000    0.5617950000000000 H
   0.2563400000000000    0.5787800000000000    0.5110200000000000 H
   0.3329150000000000    0.4356600000000000    0.5922050000000000 H