H20 C24 N4
1.0
  36.6000000000000014    0.0000000000000000    0.0000000000000022
   0.0000000000000029   17.8260000000000005    0.0000000000000011
   0.0000000000000000    0.0000000000000000   31.4680000000000000
H C N
20 24 4
direct
   0.9936650000000000    0.9212700000000000    0.5110200000000000 H
   0.9607200000000000    0.0000000000000000    0.5618500000000000 H
   0.9142600000000001    0.8040500000000000    0.6176800000000000 H
   0.9468449999999999    0.7303500000000001    0.5617950000000000 H
   0.9170849999999999    0.9356700000000000    0.6577500000000001 H
   0.8651850000000000    0.9596700000000000    0.5820600000000000 H
   0.8808750000000001    0.8626100000000000    0.6863650000000000 H
   0.8330100000000000    0.7846500000000000    0.7204400000000000 H
   0.7535849999999999    0.8566000000000000    0.6362400000000000 H
   0.7988550000000000    0.9320100000000000    0.5949850000000000 H
   0.9936600000000000    0.0787600000000000    0.7389749999999999 H
   0.9607200000000000    0.9952900000000000    0.6881400000000000 H
   0.9142600000000001    0.1959700000000000    0.6323000000000000 H
   0.9468449999999999    0.2696800000000000    0.6881950000000000 H
   0.9170849999999999    0.0643600000000000    0.5922100000000000 H
   0.8651850000000000    0.0403500000000000    0.6679300000000000 H
   0.8808750000000001    0.1374200000000000    0.5636300000000000 H
   0.8330100000000000    0.2153800000000000    0.5295500000000000 H
   0.7535849999999999    0.1434300000000000    0.6137550000000001 H
   0.7988550000000000    0.0680200000000000    0.6550100000000000 H
   0.9751650000000001    0.8982200000000000    0.5348950000000000 C
   0.9571750000000000    0.9440400000000000    0.5640350000000000 C
   0.9342450000000000    0.9114400000000000    0.5944950000000000 C
   0.9311400000000001    0.8327900000000000    0.5942400000000000 C
   0.9495199999999999    0.7912400000000001    0.5635800000000000 C
   0.9119699999999999    0.9564400000000000    0.6253550000000000 C
   0.8700049999999999    0.9583800000000000    0.6165849999999999 C
   0.8438500000000000    0.9056800000000000    0.6375900000000000 C
   0.8531949999999999    0.8630000000000000    0.6733899999999999 C
   0.8264850000000000    0.8199400000000000    0.6931849999999999 C
   0.7822300000000000    0.8588000000000000    0.6457600000000000 C
   0.8075300000000001    0.9014799999999999    0.6232700000000000 C
   0.9751700000000000    0.1018100000000000    0.7150900000000000 C
   0.9571700000000001    0.0559800000000000    0.6859600000000000 C
   0.9342500000000000    0.0886000000000000    0.6554900000000000 C
   0.9311350000000000    0.1672400000000000    0.6557500000000001 C
   0.9495250000000000    0.2087900000000000    0.6864150000000000 C
   0.9119800000000000    0.0435700000000000    0.6246400000000000 C
   0.8700049999999999    0.0416500000000000    0.6334050000000000 C
   0.8438500000000000    0.0943500000000000    0.6124050000000000 C
   0.8531949999999999    0.1370100000000000    0.5766000000000000 C
   0.8264899999999999    0.1800900000000000    0.5568100000000000 C
   0.7822300000000000    0.1412300000000000    0.6042350000000000 C
   0.8075300000000001    0.0985400000000000    0.6267199999999999 C
   0.9713050000000000    0.8230800000000000    0.5340850000000000 N
   0.7913700000000000    0.8184399999999999    0.6803500000000000 N
   0.9713050000000000    0.1769400000000000    0.7159100000000000 N
   0.7913700000000000    0.1815900000000000    0.5696400000000000 N
