H4 O2
1.0
  16.3733593547236929    0.0000000000000000   -4.4906110320403148
  -4.4722063038549633   23.0794479515638820   -2.2056738260253956
   0.0000000000000000    0.0000000000000000   31.8859999999999992
H O
4 2
direct
   0.7423148402944505    0.8434904933719275    0.6349496420781966 H
   0.7232778058053779    0.8473012639553965    0.6841464818170568 H
   0.6981985479093262    0.1024437695316032    0.6759820440797121 H
   0.7614046347908481    0.1053583200615373    0.6433524610323050 H
   0.7338200000000000    0.8243100000000000    0.6597450000000000 O
   0.7306600000000000    0.1253300000000000    0.6600850000000000 O
