H4 O2
1.0
  16.3733593547236929    0.0000000000000000   -4.4906110320403148
  -4.4722063038549633   23.0794479515638820   -2.2056738260253956
   0.0000000000000000    0.0000000000000000   31.8859999999999992
H O
4 2
direct
   0.7764228314644921    0.6526722748928491    0.3160521054308878 H
   0.7573216833624983    0.6564623458985602    0.3652275736138090 H
   0.8015878866428564    0.3975878183685799    0.3242104280810266 H
   0.7381531665380766    0.3945580636196051    0.3567186502062838 H
   0.7659100000000000    0.6756700000000000    0.3404600000000000 O
   0.7690600000000000    0.3746500000000000    0.3400500000000000 O
