H4 C2 S2 O6
1.0
  16.3733593547236929    0.0000000000000000   -4.4906110320403148
  -4.4722063038549633   23.0794479515638820   -2.2056738260253956
   0.0000000000000000    0.0000000000000000   31.8859999999999992
H C S O
4 2 2 6
direct
   0.4893100000000000    0.7157400000000000    0.7881750000000001 H
   0.5345500000000000    0.7903300000000000    0.7944100000000001 H
   0.5111900000000000    0.7840100000000000    0.7119300000000000 H
   0.4655600000000000    0.7094600000000000    0.7055899999999999 H
   0.4898400000000000    0.7545700000000000    0.7717200000000000 C
   0.5103799999999999    0.7451200000000000    0.7283200000000000 C
   0.3892200000000000    0.7739600000000000    0.7647200000000001 S
   0.6108800000000000    0.7254600000000000    0.7353499999999999 S
   0.3779800000000000    0.7751700000000000    0.8098099999999999 O
   0.3905100000000000    0.8299200000000000    0.7483700000000000 O
   0.3287300000000000    0.7248900000000000    0.7334550000000000 O
   0.6222299999999999    0.7241000000000000    0.6903150000000000 O
   0.6092300000000000    0.6694800000000000    0.7517199999999999 O
   0.6714700000000000    0.7745200000000000    0.7666450000000000 O
