H8 C10 N2
1.0
  16.3733593547236929    0.0000000000000000   -4.4906110320403148
  -4.4722063038549633   23.0794479515638820   -2.2056738260253956
   0.0000000000000000    0.0000000000000000   31.8859999999999992
H C N
8 10 2
direct
   0.7428700000000000    0.6757600000000000    0.4014100000000000 H
   0.7898500000000001    0.6665000000000000    0.2797050000000000 H
   0.7939000000000001    0.5620900000000000    0.2777100000000000 H
   0.7479900000000000    0.5725000000000000    0.4052200000000000 H
   0.8556200000000000    0.4888900000000000    0.3007950000000000 H
   0.6882500000000000    0.4802700000000000    0.3824700000000000 H
   0.8477500000000000    0.3830100000000000    0.2998500000000000 H
   0.6911400000000000    0.3748400000000000    0.3801400000000000 H
   0.8139000000000000    0.4062700000000000    0.3182150000000000 C
   0.7540700000000000    0.6491900000000000    0.3746050000000000 C
   0.7804100000000000    0.6439500000000000    0.3067950000000000 C
   0.7833500000000000    0.5854100000000000    0.3062250000000000 C
   0.7564300000000000    0.5908800000000000    0.3762850000000000 C
   0.7709400000000000    0.5571700000000001    0.3414500000000000 C
   0.7717500000000000    0.4945400000000000    0.3415000000000000 C
   0.8169700000000000    0.4655700000000000    0.3183950000000000 C
   0.7259800000000000    0.4610400000000000    0.3644050000000000 C
   0.7264600000000000    0.4020900000000000    0.3630250000000000 C
   0.7659100000000000    0.6756700000000000    0.3404600000000000 N
   0.7690600000000000    0.3746500000000000    0.3400500000000000 N
