H8 C11 N2
1.0
  16.3733593547236929    0.0000000000000000   -4.4906110320403148
  -4.4722063038549633   23.0794479515638820   -2.2056738260253956
   0.0000000000000000    0.0000000000000000   31.8859999999999992
H C N
8 11 2
direct
   0.7567700000000001    0.8241700000000000    0.5987700000000000 H
   0.7099400000000000    0.8334700000000000    0.7205100000000000 H
   0.7056200000000000    0.9378600000000000    0.7224349999999999 H
   0.7514000000000000    0.9274000000000000    0.5948950000000000 H
   0.6441600000000000    0.0112000000000000    0.6994850000000000 H
   0.8109800000000000    0.0195400000000000    0.6175100000000000 H
   0.6522200000000000    0.1170900000000000    0.7004300000000000 H
   0.8082500000000000    0.1249800000000000    0.6198200000000000 H
   0.7285500000000000    0.9427600000000000    0.6586900000000000 C
   0.7455300000000000    0.8507500000000000    0.6255650000000000 C
   0.7192800000000000    0.8560200000000000    0.6934000000000000 C
   0.7161900000000000    0.9145400000000000    0.6939299999999999 C
   0.7430300000000000    0.9090400000000000    0.6238450000000000 C
   0.7277500000000000    0.0054000000000000    0.6585850000000000 C
   0.6827400000000000    0.0344500000000000    0.6818150000000001 C
   0.7734100000000000    0.0388400000000000    0.6356450000000000 C
   0.6859100000000000    0.0937800000000000    0.6819999999999999 C
   0.7497700000000000    0.9685400000000000    0.7000000000000000 C
   0.7730399999999999    0.0978000000000000    0.6370200000000000 C
   0.7338200000000000    0.8243100000000000    0.6597450000000000 N
   0.7306600000000000    0.1253300000000000    0.6600850000000000 N
