H3 O2
1.0
  16.3733593547236929    0.0000000000000000   -4.4906110320403148
  -4.4722063038549633   23.0794479515638820   -2.2056738260253956
   0.0000000000000000    0.0000000000000000   31.8859999999999992
H O
3 2
direct
   0.2423170005928701    0.8434891705705544    0.6349527251908320 H
   0.1982032980447688    0.1024420038737697    0.6759832705263498 H
   0.2614046347908481    0.1053583200615373    0.6433524610323050 H
   0.2338300000000000    0.8243100000000000    0.6597500000000001 O
   0.2306600000000000    0.1253300000000000    0.6600850000000000 O
