H2 C4 O4
1.0
  17.7996662953466007    0.0000000000000000    4.8477400687642307
   1.9546809436145891   11.6477539278447235    2.1902499503590480
   0.0000000000000000    0.0000000000000000   37.7280000000000015
H C O
2 4 4
direct
   0.3308400000000000    0.9270000000000000    0.6622966666666666 H
   0.1691700000000000    0.0729600000000000    0.6710400000000000 H
   0.1932100000000000    0.8962700000000000    0.6571466666666665 C
   0.2140300000000000    0.9989800000000000    0.6660333333333333 C
   0.3068000000000000    0.1036900000000000    0.6761866666666666 C
   0.2859900000000000    0.0009900000000000    0.6673000000000000 C
   0.1267500000000000    0.9058900000000000    0.6493133333333333 O
   0.2384100000000000    0.8024900000000000    0.6559366666666666 O
   0.3732700000000000    0.0940700000000000    0.6840233333333333 O
   0.2616000000000000    0.1974700000000000    0.6774033333333332 O
