H24 C33 O12
1.0
  10.3368020389324524    0.0000000000000000   -3.1837681460687310
  -3.1684325095257653   14.1671198265065605   -6.5831110619512545
   0.0000000000000000    0.0000000000000000   18.4969999999999999
H C O
24 33 12
direct
   0.4317600000000000    0.6848500000000000    0.3758200000000000 H
   0.5886500000000000    0.5023800000000000    0.9628000000000000 H
   0.3379300000000000    0.6377400000000000    0.0727500000000000 H
   0.3113000000000000    0.7049800000000001    0.1694000000000000 H
   0.8717000000000000    0.0203800000000000    0.3302000000000000 H
   0.5733500000000000    0.6369899999999999    0.1635900000000000 H
   0.6813500000000000    0.7483000000000000    0.2418400000000000 H
   0.1930400000000000    0.8257500000000000    0.8627800000000000 H
   0.7436900000000000    0.6312700000000000    0.2715100000000000 H
   0.2712600000000000    0.8729000000000000    0.0000000000000000 H
   0.4717900000000000    0.0000000000000000    0.3299600000000000 H
   0.9370100000000000    0.1895700000000000    0.4377800000000000 H
   0.1597300000000000    0.5818400000000000    0.9626700000000000 H
   0.0766300000000000    0.5365900000000000    0.8086800000000000 H
   0.4924300000000000    0.7924200000000000    0.0599900000000000 H
   0.6556500000000000    0.8002600000000000    0.1261700000000000 H
   0.5296999999999999    0.6142500000000000    0.4709000000000000 H
   0.6231200000000000    0.7821100000000000    0.9814500000000000 H
   0.5387400000000000    0.1801800000000000    0.4377500000000000 H
   0.7118200000000000    0.7309000000000000    0.8637700000000000 H
   0.4429600000000000    0.8962500000000000    0.1954600000000000 H
   0.4730100000000000    0.8600100000000001    0.2777100000000000 H
   0.6832400000000000    0.4534300000000000    0.8456500000000000 H
   0.8411100000000000    0.5632300000000000    0.3673000000000000 H
   0.5218600000000000    0.6587300000000000    0.3749000000000000 C
   0.6172299999999999    0.5517200000000000    0.9406800000000000 C
   0.3489400000000000    0.7093200000000000    0.1218100000000000 C
   0.7994400000000000    0.0564900000000000    0.3537700000000000 C
   0.5772600000000000    0.7090300000000000    0.2094600000000000 C
   0.1854700000000000    0.7732500000000000    0.8855100000000000 C
   0.6967500000000000    0.6287900000000000    0.3153300000000000 C
   0.2296900000000000    0.7993900000000000    0.9717600000000000 C
   0.5737400000000000    0.0506200000000000    0.3530000000000000 C
   0.8348700000000000    0.1508000000000000    0.4132400000000000 C
   0.1684900000000000    0.6353600000000000    0.9411600000000000 C
   0.1216900000000000    0.6099500000000000    0.8546899999999999 C
   0.5523500000000000    0.7598800000000000    0.0961600000000000 C
   0.5762699999999999    0.6190000000000000    0.4275000000000000 C
   0.6359399999999999    0.7100100000000000    0.9524100000000000 C
   0.4969900000000000    0.7601400000000000    0.1638000000000000 C
   0.6683000000000000    0.0000000000000000    0.3229600000000000 C
   0.7040600000000000    0.5893300000000000    0.8480799999999999 C
   0.6110700000000000    0.1449300000000000    0.4135500000000000 C
   0.5823000000000000    0.6641600000000000    0.3188900000000000 C
   0.7535600000000000    0.5578300000000000    0.7758300000000000 C
   0.2242700000000000    0.7302700000000000    0.9998400000000000 C
   0.6862600000000000    0.6815500000000000    0.8866000000000001 C
   0.5066400000000000    0.8617899999999999    0.2275600000000000 C
   0.1320200000000000    0.6780600000000000    0.8259100000000000 C
   0.7536000000000000    0.5454400000000000    0.4839400000000000 C
   0.6926200000000000    0.5847300000000000    0.4258600000000000 C
   0.6695200000000000    0.5250000000000000    0.8763900000000000 C
   0.7516000000000000    0.5900300000000001    0.3692000000000000 C
   0.6003500000000001    0.6445000000000000    0.9790100000000000 C
   0.7769900000000000    0.2970200000000000    0.5079100000000000 C
   0.7411200000000000    0.1964900000000000    0.4439600000000000 C
   0.0943100000000000    0.6502800000000000    0.7343900000000000 C
   0.6420200000000000    0.9134600000000000    0.2640900000000000 O
   0.0000000000000000    0.5663000000000000    0.6778400000000000 O
   0.2714500000000000    0.7623700000000000    0.0862800000000000 O
   0.6979900000000000    0.5346600000000000    0.5313900000000000 O
  -0.1307300000000001    0.5239100000000000    0.4843000000000000 O
   0.5465300000000000    0.6633400000000000    0.0412800000000000 O
   0.1332900000000000    0.7108300000000000    0.7119400000000000 O
   0.5223300000000000    0.7056800000000000    0.2702800000000000 O
   0.7576000000000001    0.6098300000000000    0.7389800000000000 O
   0.8864100000000000    0.3512900000000000    0.5226700000000000 O
   0.7018799999999999    0.3297900000000000    0.5487100000000000 O
   0.7867499999999999    0.4777200000000000    0.7509400000000001 O
