Cd4 H24 C33 O12
1.0
  10.3368020389324524    0.0000000000000000   -3.1837681460687310
  -3.1684325095257653   14.1671198265065605   -6.5831110619512545
   0.0000000000000000    0.0000000000000000   18.4969999999999999
Cd H C O
4 24 33 12
direct
   0.1925700000000000    0.5111200000000000    0.3679500000000000 Cd
   0.9294000000000000    0.3827700000000000    0.4261700000000000 Cd
   0.8074100000000000    0.4889200000000000    0.6321900000000000 Cd
   0.0705900000000000    0.6172299999999999    0.5739000000000000 Cd
   0.5682199999999999    0.3151600000000000    0.6243000000000000 H
   0.4113500000000000    0.4976600000000000    0.0373400000000000 H
   0.6620400000000000    0.3623000000000000    0.9273800000000000 H
   0.6886600000000000    0.2950600000000000    0.8307200000000000 H
   0.1282600000000000    0.9796500000000000    0.6699000000000001 H
   0.4266200000000000    0.3630600000000000    0.8365000000000000 H
   0.3186200000000000    0.2517600000000000    0.7582900000000000 H
   0.8070200000000000    0.1742500000000000    0.1373300000000000 H
   0.2562900000000000    0.3687700000000000    0.7286100000000000 H
   0.7287700000000000    0.1271100000000000    0.9813100000000000 H
   0.5281700000000000    0.9873700000000000    0.6701000000000000 H
   0.0629800000000000    0.8104600000000000    0.5623400000000000 H
   0.8402200000000000    0.4181800000000000    0.0374500000000000 H
   0.9233400000000000    0.4634200000000000    0.1914400000000000 H
   0.5075400000000000    0.2076200000000000    0.9401000000000000 H
   0.3443100000000000    0.1997800000000000    0.8739600000000000 H
   0.4702900000000000    0.3857400000000000    0.5292000000000000 H
   0.3768100000000000    0.2179100000000000    0.0186600000000000 H
   0.4612500000000000    0.8198800000000001    0.5623800000000000 H
   0.2881200000000000    0.2691100000000000    0.1363400000000000 H
   0.5569900000000000    0.1037900000000000    0.8046700000000000 H
   0.5269600000000000    0.1400300000000000    0.7224200000000000 H
   0.3167700000000000    0.5466100000000000    0.1545100000000000 H
   0.1588800000000000    0.4368000000000000    0.6328000000000000 H
   0.4781400000000000    0.3413100000000000    0.6252300000000000 C
   0.3827600000000000    0.4483200000000000    0.0594600000000000 C
   0.6510200000000000    0.2907100000000000    0.8783200000000000 C
   0.2005200000000000    0.9435500000000000    0.6463500000000000 C
   0.4227100000000000    0.2910200000000000    0.7906700000000000 C
   0.8145700000000000    0.2267600000000000    0.1146000000000000 C
   0.3032500000000000    0.3712700000000000    0.6848000000000000 C
   0.7703200000000000    0.2006200000000000    0.0283500000000000 C
   0.4262300000000000    0.9494400000000000    0.6471200000000000 C
   0.1651100000000000    0.8492400000000000    0.5868900000000000 C
   0.8314700000000000    0.3646700000000000    0.0589600000000000 C
   0.8782900000000000    0.3900700000000000    0.1454300000000000 C
   0.4476100000000000    0.2401600000000000    0.9039700000000001 C
   0.4237000000000000    0.3809900000000000    0.5725800000000000 C
   0.3640100000000000    0.2900200000000000    0.0477200000000000 C
   0.5029700000000000    0.2399000000000000    0.8362600000000000 C
   0.3316600000000000    0.9942400000000000    0.6771600000000000 C
   0.2959000000000000    0.4106900000000000    0.1520600000000000 C
   0.3889200000000000    0.8551200000000000    0.5865800000000000 C
   0.4176500000000000    0.3358500000000000    0.6812100000000000 C
   0.2464100000000000    0.4421900000000000    0.2243000000000000 C
   0.7757200000000000    0.2697500000000000    0.0002000000000000 C
   0.3136900000000000    0.3184800000000000    0.1135200000000000 C
   0.4933100000000000    0.1382500000000000    0.7725700000000000 C
   0.8679900000000000    0.3219500000000000    0.1742000000000000 C
   0.2463800000000000    0.4545300000000000    0.5161200000000000 C
   0.3073900000000000    0.4153000000000000    0.5742500000000000 C
   0.3304600000000000    0.4750400000000000    0.1237600000000000 C
   0.2483700000000000    0.4099800000000000    0.6308800000000000 C
   0.3996200000000000    0.3555300000000000    0.0211300000000000 C
   0.2230300000000000    0.7030200000000000    0.4922300000000000 C
   0.2588600000000000    0.8035500000000000    0.5561000000000000 C
   0.9057200000000000    0.3497300000000000    0.2657200000000000 C
   0.3579400000000000    0.0865800000000000    0.7360300000000000 O
   0.9695000000000000    0.4337200000000000    0.3222700000000000 O
   0.7285100000000000    0.2376600000000000    0.9138300000000000 O
   0.3020100000000000    0.4653200000000000    0.4686900000000000 O
   0.1307300000000000    0.4761000000000000    0.5157700000000000 O
   0.4534300000000000    0.3367000000000000    0.9588500000000000 O
   0.8667800000000000    0.2891700000000000    0.2881800000000000 O
   0.4776500000000000    0.2943700000000000    0.7298600000000000 O
   0.2423400000000000    0.3901800000000000    0.2611400000000000 O
   0.1136100000000000    0.6487400000000000    0.4774600000000000 O
   0.2981600000000000    0.6702600000000000    0.4514400000000000 O
   0.2132300000000000    0.5223100000000001    0.2492000000000000 O
