H8 C10 O6
1.0
  17.4339999893785986    0.0000000000000000    0.0006085614034613
  -5.0049975720595636   11.8254505243040455   -0.0004482354584042
   0.0000000000000000    0.0000000000000000   35.7500000000000000
H C O
8 10 6
direct
   0.4607500000000000    0.3482300000000000    0.6520000000000000 H
   0.5642200000000001    0.5369200000000000    0.6330550000000000 H
   0.4217800000000000    0.5201100000000000    0.5326750000000000 H
   0.3204400000000000    0.3334400000000000    0.5517900000000000 H
   0.5570800000000000    0.6168600000000000    0.5140000000000000 H
   0.5027300000000000    0.6988200000000000    0.5308100000000000 H
   0.3369800000000000    0.1844800000000000    0.6666050000000000 H
   0.2730500000000000    0.2598800000000000    0.6547100000000000 H
   0.3854600000000000    0.3280600000000000    0.6023350000000000 C
   0.4525300000000000    0.3860800000000000    0.6259700000000000 C
   0.5105600000000000    0.4920500000000000    0.6153500000000000 C
   0.5018200000000000    0.5403900000000000    0.5812050000000000 C
   0.4324000000000000    0.4834800000000000    0.5585650000000000 C
   0.3743500000000000    0.3776900000000000    0.5693049999999999 C
   0.5593200000000000    0.6811700000000001    0.5348800000000000 C
   0.6330400000000000    0.7895500000000000    0.5254400000000000 C
   0.2924500000000000    0.1918500000000000    0.6459450000000000 C
   0.2171500000000000    0.0803400000000000    0.6438000000000000 C
   0.6396500000000001    0.8119400000000000    0.4906050000000000 O
   0.1662100000000000    0.0568800000000000    0.6711000000000000 O
   0.3299500000000000    0.2163900000000000    0.6091299999999999 O
   0.2096400000000000    0.0169600000000000    0.6158450000000000 O
   0.5637700000000000    0.6425000000000000    0.5718500000000000 O
   0.6797200000000000   -0.1509000000000000    0.5511150000000000 O
