Ca6 H20 C45 O30
1.0
   6.7448906442513765    0.0000000000000000    1.0194667464367080
   2.1490496353520196    8.3114708881023294    3.6102029197706895
   0.0000000000000000    0.0000000000000000   30.5459999999999994
Ca H C O
6 20 45 30
direct
   0.7553600000000000    0.5448200000000000    0.2940266666666667 Ca
   0.2447500000000000    0.4551100000000000    0.0393066666666667 Ca
   0.7553600000000000    0.5448200000000000    0.6273599999999999 Ca
   0.2447500000000000    0.4551100000000000    0.3726400000000000 Ca
   0.7553600000000000    0.5448200000000000    0.9606933333333333 Ca
   0.2447500000000000    0.4551100000000000    0.7059733333333333 Ca
   0.2501400000000000    0.2729300000000000    0.1487400000000000 H
   0.2440500000000000    0.9126100000000000    0.0799766666666667 H
   0.2752500000000000    0.8927400000000000    0.2223433333333333 H
   0.2222200000000000    0.4772900000000000    0.1994633333333333 H
   0.7499800000000000    0.7270000000000000    0.1845933333333333 H
   0.7560800000000000    0.0873000000000000    0.2533566666666667 H
   0.7248900000000000    0.1071900000000000    0.1109866666666667 H
   0.7778900000000000    0.5226300000000000    0.1338733333333333 H
   0.2501400000000000    0.2729300000000000    0.4820733333333333 H
   0.2440500000000000    0.9126100000000000    0.4133100000000000 H
   0.2752500000000000    0.8927400000000000    0.5556766666666666 H
   0.2222200000000000    0.4772900000000000    0.5327966666666666 H
   0.7499800000000000    0.7270000000000000    0.5179266666666666 H
   0.7560800000000000    0.0873000000000000    0.5866899999999999 H
   0.7248900000000000    0.1071900000000000    0.4443199999999999 H
   0.7778900000000000    0.5226300000000000    0.4672066666666667 H
   0.2501400000000000    0.2729300000000000    0.8154066666666666 H
   0.2440500000000000    0.9126100000000000    0.7466433333333333 H
   0.2752500000000000    0.8927400000000000    0.8890100000000000 H
   0.2222200000000000    0.4772900000000000    0.8661300000000000 H
   0.2372000000000000    0.6857700000000000    0.1363500000000000 C
   0.2504500000000000    0.6754599999999999    0.2164433333333333 C
   0.2460600000000000    0.8468900000000000    0.1182300000000000 C
   0.2577800000000000    0.0953100000000000    0.1299633333333333 C
   0.2630900000000000    0.8353800000000000    0.1982200000000000 C
   0.2297500000000000    0.6057500000000000    0.1026666666666667 C
   0.2540700000000000    0.5879200000000000    0.2690466666666667 C
   0.2343600000000000    0.6012700000000000    0.1855566666666666 C
   0.2560800000000000    0.9227000000000000    0.1491433333333333 C
   0.7629400000000000    0.3141400000000000    0.1969866666666667 C
   0.7497100000000000    0.3244500000000000    0.1168900000000000 C
   0.7540800000000000    0.1530300000000000    0.2151033333333333 C
   0.7423800000000000    0.9046000000000000    0.2033666666666666 C
   0.7370600000000000    0.1645400000000000    0.1351133333333333 C
   0.7703400000000000    0.3941800000000000    0.2306700000000000 C
   0.7460700000000000    0.4120000000000000    0.0642900000000000 C
   0.7657700000000000    0.3986500000000000    0.1477800000000000 C
   0.7440700000000000    0.0772200000000000    0.1841866666666667 C
   0.2372000000000000    0.6857700000000000    0.4696833333333333 C
   0.2504500000000000    0.6754599999999999    0.5497766666666666 C
   0.2460600000000000    0.8468900000000000    0.4515633333333333 C
   0.2577800000000000    0.0953100000000000    0.4632966666666666 C
   0.2630900000000000    0.8353800000000000    0.5315533333333333 C
   0.2297500000000000    0.6057500000000000    0.4359999999999999 C
   0.2540700000000000    0.5879200000000000    0.6023799999999999 C
   0.2343600000000000    0.6012700000000000    0.5188900000000000 C
   0.2560800000000000    0.9227000000000000    0.4824766666666667 C
   0.7629400000000000    0.3141400000000000    0.5303200000000000 C
   0.7497100000000000    0.3244500000000000    0.4502233333333333 C
   0.7540800000000000    0.1530300000000000    0.5484366666666667 C
   0.7423800000000000    0.9046000000000000    0.5367000000000000 C
   0.7370600000000000    0.1645400000000000    0.4684466666666666 C
   0.7703400000000000    0.3941800000000000    0.5640033333333333 C
   0.7460700000000000    0.4120000000000000    0.3976233333333333 C
   0.7657700000000000    0.3986500000000000    0.4811133333333333 C
   0.7440700000000000    0.0772200000000000    0.5175200000000000 C
   0.2372000000000000    0.6857700000000000    0.8030166666666666 C
   0.2504500000000000    0.6754599999999999    0.8831100000000000 C
   0.2460600000000000    0.8468900000000000    0.7848966666666666 C
   0.2577800000000000    0.0953100000000000    0.7966299999999999 C
   0.2630900000000000    0.8353800000000000    0.8648866666666666 C
   0.2297500000000000    0.6057500000000000    0.7693333333333333 C
   0.2540700000000000    0.5879200000000000    0.9357133333333333 C
   0.2343600000000000    0.6012700000000000    0.8522233333333333 C
   0.2560800000000000    0.9227000000000000    0.8158099999999999 C
   0.2245400000000000    0.4567200000000000    0.1195800000000000 O
   0.3871000000000000    0.5996800000000000    0.2919866666666666 O
   0.2564000000000000    0.1534300000000000    0.1634033333333333 O
   0.1231200000000000    0.5062500000000000    0.2905799999999999 O
   0.2589600000000000    0.1767800000000000    0.0865966666666667 O
   0.2302000000000000    0.6849000000000000    0.0583533333333333 O
   0.7755400000000000    0.5432100000000000    0.2137566666666667 O
   0.6130200000000000    0.4002600000000000    0.0413500000000000 O
   0.7437300000000000    0.8464900000000000    0.1699300000000000 O
   0.8769800000000000    0.4937000000000000    0.0427566666666667 O
   0.7411500000000000    0.8231400000000000    0.2467333333333333 O
   0.7698700000000001    0.3150300000000000    0.2749833333333333 O
   0.2245400000000000    0.4567200000000000    0.4529133333333333 O
   0.3871000000000000    0.5996800000000000    0.6253199999999999 O
   0.2564000000000000    0.1534300000000000    0.4967366666666666 O
   0.1231200000000000    0.5062500000000000    0.6239133333333333 O
   0.2589600000000000    0.1767800000000000    0.4199300000000000 O
   0.2302000000000000    0.6849000000000000    0.3916866666666666 O
   0.7755400000000000    0.5432100000000000    0.5470900000000000 O
   0.6130200000000000    0.4002600000000000    0.3746833333333333 O
   0.7437300000000000    0.8464900000000000    0.5032633333333333 O
   0.8769800000000000    0.4937000000000000    0.3760900000000000 O
   0.7411500000000000    0.8231400000000000    0.5800666666666666 O
   0.7698700000000001    0.3150300000000000    0.6083166666666666 O
   0.2245400000000000    0.4567200000000000    0.7862466666666666 O
   0.3871000000000000    0.5996800000000000    0.9586533333333332 O
   0.2564000000000000    0.1534300000000000    0.8300700000000000 O
   0.1231200000000000    0.5062500000000000    0.9572466666666666 O
   0.2589600000000000    0.1767800000000000    0.7532633333333333 O
   0.2302000000000000    0.6849000000000000    0.7250200000000000 O
