H4 C8 O4
1.0
  35.1564704787903182    0.0000000000000000   12.1843279451082172
  -8.7761515781894737   15.6472363001281227    6.4126331288009233
   0.0000000000000000    0.0000000000000000   38.1180000000000021
H C O
4 8 4
direct
   0.8179200000000000    0.7653500000000000    0.9957400000000001 H
   0.9318600000000000    0.9909100000000000    0.8830300000000000 H
   0.8750050000000000    0.7593400000000000    0.8796600000000000 H
   0.8748650000000000    0.9183100000000000    0.9596050000000000 H
   0.8107050000000000    0.6591700000000000    0.9621299999999999 C
   0.8437800000000000    0.7521099999999999    0.9403550000000001 C
   0.8432600000000000    0.7978100000000000    0.9625000000000000 C
   0.9392450000000000    0.9241900000000000    0.8296850000000000 C
   0.9061150000000000    0.8804900000000000    0.8762099999999999 C
   0.9065650000000001    0.9245400000000000    0.8991950000000000 C
   0.8749750000000001    0.7941800000000000    0.8971650000000000 C
   0.8748899999999999    0.8834200000000000    0.9420450000000000 C
   0.8193100000000000    0.6180200000000000    0.9433849999999999 O
   0.7767850000000001    0.6302600000000000    0.9970850000000000 O
   0.9307400000000000    0.8868500000000000    0.8090500000000000 O
   0.9730850000000000   -0.0058899999999999    0.8152400000000000 O
