Zn48 H194 C376 O192
1.0
  35.1564704787903182    0.0000000000000000   12.1843279451082172
  -8.7761515781894737   15.6472363001281227    6.4126331288009233
   0.0000000000000000    0.0000000000000000   38.1180000000000021
Zn H C O
48 194 376 192
direct
   0.2569600000000000    0.0692400000000000    0.7109799999999999 Zn
   0.5276500000000000    0.0694800000000000    0.7545950000000000 Zn
   0.7569600000000001    0.0692400000000000    0.7109799999999999 Zn
   0.0276500000000000    0.0694800000000000    0.7545950000000000 Zn
   0.7569600000000001    0.0692400000000000    0.2109800000000000 Zn
   0.0276500000000000    0.0694800000000000    0.2545950000000000 Zn
   0.2569600000000000    0.0692400000000000    0.2109800000000000 Zn
   0.5276500000000000    0.0694800000000000    0.2545950000000000 Zn
   0.2222500000000000    0.5091100000000000    0.5347750000000000 Zn
   0.4930250000000000    0.4219200000000000    0.5346000000000000 Zn
   0.7222500000000001    0.5091100000000000    0.5347750000000000 Zn
   0.9930250000000000    0.4219200000000000    0.5346000000000000 Zn
   0.0069650000000000    0.5780800000000000    0.4654050000000000 Zn
   0.2777400000000000    0.4908900000000000    0.4652250000000000 Zn
   0.2430250000000000    0.9307500000000000    0.7890250000000000 Zn
   0.9723400000000000    0.9305200000000000    0.7454050000000000 Zn
   0.2820700000000000    0.5079100000000000    0.7110550000000000 Zn
   0.9679700000000000    0.4220700000000000    0.7540249999999999 Zn
   0.2179150000000000    0.4920800000000000    0.7889500000000000 Zn
   0.5320200000000000    0.5779300000000001    0.7459750000000001 Zn
   0.5069650000000000    0.5780800000000000    0.4654050000000000 Zn
   0.7777400000000000    0.4908900000000000    0.4652250000000000 Zn
   0.7430250000000000    0.9307500000000000    0.7890250000000000 Zn
   0.4723400000000000    0.9305200000000000    0.7454050000000000 Zn
   0.7820700000000000    0.5079100000000000    0.7110550000000000 Zn
   0.4679700000000000    0.4220700000000000    0.7540249999999999 Zn
   0.7179150000000000    0.4920800000000000    0.7889500000000000 Zn
   0.0320200000000000    0.5779300000000001    0.7459750000000001 Zn
   0.0069650000000000    0.5780800000000000    0.9654050000000001 Zn
   0.2777400000000000    0.4908900000000000    0.9652250000000000 Zn
   0.2430250000000000    0.9307500000000000    0.2890250000000000 Zn
   0.9723400000000000    0.9305200000000000    0.2454050000000000 Zn
   0.2820700000000000    0.5079100000000000    0.2110550000000000 Zn
   0.9679700000000000    0.4220700000000000    0.2540250000000000 Zn
   0.2179150000000000    0.4920800000000000    0.2889500000000000 Zn
   0.5320200000000000    0.5779300000000001    0.2459750000000000 Zn
   0.2222500000000000    0.5091100000000000    0.0347750000000000 Zn
   0.4930250000000000    0.4219200000000000    0.0346000000000000 Zn
   0.5069650000000000    0.5780800000000000    0.9654050000000001 Zn
   0.7777400000000000    0.4908900000000000    0.9652250000000000 Zn
   0.7222500000000001    0.5091100000000000    0.0347750000000000 Zn
   0.9930250000000000    0.4219200000000000    0.0346000000000000 Zn
   0.7430250000000000    0.9307500000000000    0.2890250000000000 Zn
   0.4723400000000000    0.9305200000000000    0.2454050000000000 Zn
   0.7820700000000000    0.5079100000000000    0.2110550000000000 Zn
   0.4679700000000000    0.4220700000000000    0.2540250000000000 Zn
   0.7179150000000000    0.4920800000000000    0.2889500000000000 Zn
   0.0320200000000000    0.5779300000000001    0.2459750000000000 Zn
   0.9529561653294598    0.0100273062535284    0.8084743338923758 H
   0.9075461036260464    0.8851704589478838    0.8023981940985794 H
   0.8179200000000000    0.7653500000000000    0.4957400000000000 H
   0.9318600000000000    0.9909100000000000    0.3830300000000000 H
   0.8748650000000000    0.9183100000000000    0.4596050000000000 H
   0.8750050000000000    0.7593400000000000    0.3796600000000000 H
   0.3179200000000000    0.7653500000000000    0.9957400000000001 H
   0.4318600000000000    0.9909100000000000    0.8830300000000000 H
   0.3748650000000000    0.9183100000000000    0.9596050000000000 H
   0.3750050000000000    0.7593400000000000    0.8796600000000000 H
   0.1820700000000000    0.2346500000000000    0.5042600000000000 H
   0.0681300000000000    0.0090900000000000    0.6169500000000000 H
   0.1251250000000000    0.0816900000000000    0.5404000000000000 H
   0.1249800000000000    0.2406500000000000    0.6203400000000000 H
   0.3179200000000000    0.7653500000000000    0.4957400000000000 H
   0.4318600000000000    0.9909100000000000    0.3830300000000000 H
   0.3748650000000000    0.9183100000000000    0.4596050000000000 H
   0.3750050000000000    0.7593400000000000    0.3796600000000000 H
   0.1820700000000000    0.2346500000000000    0.0042600000000000 H
   0.0681300000000000    0.0090900000000000    0.1169500000000000 H
   0.1251250000000000    0.0816900000000000    0.0404000000000000 H
   0.1249800000000000    0.2406500000000000    0.1203400000000000 H
   0.6820700000000000    0.2346500000000000    0.0042600000000000 H
   0.5681300000000000    0.0090900000000000    0.1169500000000000 H
   0.6251249999999999    0.0816900000000000    0.0404000000000000 H
   0.6249800000000000    0.2406500000000000    0.1203400000000000 H
   0.6820700000000000    0.2346500000000000    0.5042600000000000 H
   0.5681300000000000    0.0090900000000000    0.6169500000000000 H
   0.6251249999999999    0.0816900000000000    0.5404000000000000 H
   0.6249800000000000    0.2406500000000000    0.6203400000000000 H
   0.3876700000000000    0.2714600000000000    0.6751250000000000 H
   0.4982450000000000    0.2714800000000000    0.6891500000000000 H
   0.4630400000000000    0.3515000000000000    0.6620699999999999 H
   0.3834250000000000    0.0342900000000000    0.7416800000000000 H
   0.8100315342909953   -0.0176972006933527    0.7684776971957057 H
   0.8876700000000000    0.2714600000000000    0.6751250000000000 H
   0.9982450000000000    0.2714800000000000    0.6891500000000000 H
   0.9630400000000000    0.3515000000000000    0.6620699999999999 H
   0.8834250000000000    0.0342900000000000    0.7416800000000000 H
   0.8876700000000000    0.2714600000000000    0.1751250000000000 H
   0.9982450000000000    0.2714800000000000    0.1891500000000000 H
   0.9630400000000000    0.3515000000000000    0.1620700000000000 H
   0.8834250000000000    0.0342900000000000    0.2416800000000000 H
   0.3876700000000000    0.2714600000000000    0.1751250000000000 H
   0.4982450000000000    0.2714800000000000    0.1891500000000000 H
   0.4630400000000000    0.3515000000000000    0.1620700000000000 H
   0.3834250000000000    0.0342900000000000    0.2416800000000000 H
   0.3665650000000000    0.4832500000000000    0.5171450000000000 H
   0.2514750000000000    0.3780200000000000    0.6357600000000000 H
   0.2866500000000000    0.3240800000000000    0.6758000000000000 H
   0.3621500000000000    0.3503600000000000    0.6358350000000000 H
   0.8665650000000000    0.4832500000000000    0.5171450000000000 H
   0.7514750000000000    0.3780200000000000    0.6357600000000000 H
   0.7866500000000001    0.3240800000000000    0.6758000000000000 H
   0.8621500000000000    0.3503600000000000    0.6358350000000000 H
   0.1378400000000000    0.6496400000000000    0.3641500000000000 H
   0.2485150000000000    0.6219700000000000    0.3642400000000000 H
   0.2133400000000000    0.6759100000000000    0.3241650000000000 H
   0.1334250000000000    0.5167500000000000    0.4828550000000000 H
   0.0640150000000000    0.7571400000000000    0.5046800000000000 H
   0.0657450000000000    0.7566100000000000    0.6176450000000000 H
   0.0852750000000000    0.8371200000000000    0.5412100000000000 H
   0.0047350000000000    0.5197100000000000    0.6201150000000000 H
   0.1858700000000000    0.0093800000000000    0.8787499999999999 H
   0.1842650000000000    0.2355400000000000    0.8784500000000000 H
   0.1646950000000000    0.0826600000000000    0.9187500000000000 H
   0.2452100000000000    0.2401000000000000    0.7599700000000000 H
   0.0017450000000000    0.7285199999999999    0.8108500000000001 H
   0.1123200000000000    0.7285400000000000    0.8248800000000001 H
   0.0369500000000000    0.6485000000000000    0.8379300000000001 H
   0.1165650000000000    0.9657100000000000    0.7583250000000000 H
   0.1873200000000000    0.3768700000000000    0.6750500000000000 H
   0.0630400000000000    0.3500200000000000    0.6884300000000000 H
   0.1252650000000000    0.3233000000000000    0.6616500000000000 H
   0.1249600000000000    0.4825500000000000    0.7413000000000000 H
   0.4359750000000000    0.2428600000000000    0.9953200000000000 H
   0.4342450000000000    0.2434000000000000    0.8823550000000000 H
   0.4147150000000000    0.1628900000000000    0.9587900000000000 H
   0.4952600000000000    0.4802900000000000    0.8798850000000000 H
   0.3141150000000000    0.9906100000000000    0.6212200000000000 H
   0.3157200000000000    0.7644600000000000    0.6215550000000000 H
   0.3352950000000000    0.9173400000000000    0.5810000000000000 H
   0.2547750000000000    0.7599000000000000    0.7400350000000000 H
   0.3126700000000000    0.6231300000000000    0.8249100000000000 H
   0.4369500000000000    0.6499800000000000    0.8115700000000000 H
   0.3747200000000000    0.6767000000000000    0.8383499999999999 H
   0.3750300000000000    0.5174500000000000    0.7586700000000000 H
   0.6378400000000000    0.6496400000000000    0.3641500000000000 H
   0.7485150000000000    0.6219700000000000    0.3642400000000000 H
   0.7133400000000000    0.6759100000000000    0.3241650000000000 H
   0.6334250000000000    0.5167500000000000    0.4828550000000000 H
   0.5640150000000000    0.7571400000000000    0.5046800000000000 H
   0.5657449999999999    0.7566100000000000    0.6176450000000000 H
   0.5852750000000000    0.8371200000000000    0.5412100000000000 H
   0.5047350000000000    0.5197100000000000    0.6201150000000000 H
   0.6858700000000000    0.0093800000000000    0.8787499999999999 H
   0.6842650000000000    0.2355400000000000    0.8784500000000000 H
   0.6646950000000000    0.0826600000000000    0.9187500000000000 H
   0.7452100000000000    0.2401000000000000    0.7599700000000000 H
   0.5017450000000000    0.7285199999999999    0.8108500000000001 H
   0.6123200000000000    0.7285400000000000    0.8248800000000001 H
   0.5369500000000000    0.6485000000000000    0.8379300000000001 H
   0.6165650000000000    0.9657100000000000    0.7583250000000000 H
   0.6873199999999999    0.3768700000000000    0.6750500000000000 H
   0.5630400000000000    0.3500200000000000    0.6884300000000000 H
   0.6252650000000000    0.3233000000000000    0.6616500000000000 H
   0.6249600000000000    0.4825500000000000    0.7413000000000000 H
   0.9359750000000000    0.2428600000000000    0.9953200000000000 H
   0.9342450000000000    0.2434000000000000    0.8823550000000000 H
   0.9147149999999999    0.1628900000000000    0.9587900000000000 H
   0.9952600000000000    0.4802900000000000    0.8798850000000000 H
   0.8141149999999999    0.9906100000000000    0.6212200000000000 H
   0.8157200000000000    0.7644600000000000    0.6215550000000000 H
   0.8352950000000000    0.9173400000000000    0.5810000000000000 H
   0.7547750000000000    0.7599000000000000    0.7400350000000000 H
   0.7626903831297059    0.5327975622854525    0.8081856865630468 H
   0.8126700000000000    0.6231300000000000    0.8249100000000000 H
   0.9369499999999999    0.6499800000000000    0.8115700000000000 H
   0.8747199999999999    0.6767000000000000    0.8383499999999999 H
   0.8750300000000000    0.5174500000000000    0.7586700000000000 H
   0.1378400000000000    0.6496400000000000    0.8641500000000000 H
   0.2485150000000000    0.6219700000000000    0.8642400000000000 H
   0.2133400000000000    0.6759100000000000    0.8241650000000000 H
   0.1334250000000000    0.5167500000000000    0.9828550000000000 H
   0.0640150000000000    0.7571400000000000    0.0046800000000000 H
   0.0657450000000000    0.7566100000000000    0.1176450000000000 H
   0.0852750000000000    0.8371200000000000    0.0412100000000000 H
   0.0047350000000000    0.5197100000000000    0.1201150000000000 H
   0.1858700000000000    0.0093800000000000    0.3787500000000000 H
   0.1842650000000000    0.2355400000000000    0.3784500000000000 H
   0.1646950000000000    0.0826600000000000    0.4187500000000000 H
   0.2452100000000000    0.2401000000000000    0.2599700000000000 H
   0.0017450000000000    0.7285199999999999    0.3108500000000000 H
   0.1123200000000000    0.7285400000000000    0.3248800000000000 H
   0.0369500000000000    0.6485000000000000    0.3379300000000000 H
   0.1165650000000000    0.9657100000000000    0.2583250000000000 H
   0.1873200000000000    0.3768700000000000    0.1750500000000000 H
   0.0630400000000000    0.3500200000000000    0.1884300000000000 H
   0.1252650000000000    0.3233000000000000    0.1616500000000000 H
   0.1249600000000000    0.4825500000000000    0.2413000000000000 H
   0.4359750000000000    0.2428600000000000    0.4953200000000000 H
   0.4342450000000000    0.2434000000000000    0.3823550000000000 H
   0.4147150000000000    0.1628900000000000    0.4587900000000000 H
   0.4952600000000000    0.4802900000000000    0.3798850000000000 H
   0.3141150000000000    0.9906100000000000    0.1212200000000000 H
   0.3157200000000000    0.7644600000000000    0.1215550000000000 H
   0.3352950000000000    0.9173400000000000    0.0810000000000000 H
   0.2547750000000000    0.7599000000000000    0.2400350000000000 H
   0.3126700000000000    0.6231300000000000    0.3249100000000000 H
   0.4369500000000000    0.6499800000000000    0.3115700000000000 H
   0.3747200000000000    0.6767000000000000    0.3383500000000000 H
   0.3750300000000000    0.5174500000000000    0.2586700000000000 H
   0.3665650000000000    0.4832500000000000    0.0171450000000000 H
   0.2514750000000000    0.3780200000000000    0.1357600000000000 H
   0.2866500000000000    0.3240800000000000    0.1758000000000000 H
   0.3621500000000000    0.3503600000000000    0.1358350000000000 H
   0.6378400000000000    0.6496400000000000    0.8641500000000000 H
   0.7485150000000000    0.6219700000000000    0.8642400000000000 H
   0.7133400000000000    0.6759100000000000    0.8241650000000000 H
   0.6334250000000000    0.5167500000000000    0.9828550000000000 H
   0.5640150000000000    0.7571400000000000    0.0046800000000000 H
   0.5657449999999999    0.7566100000000000    0.1176450000000000 H
   0.5852750000000000    0.8371200000000000    0.0412100000000000 H
   0.5047350000000000    0.5197100000000000    0.1201150000000000 H
   0.8665650000000000    0.4832500000000000    0.0171450000000000 H
   0.7514750000000000    0.3780200000000000    0.1357600000000000 H
   0.7866500000000001    0.3240800000000000    0.1758000000000000 H
   0.8621500000000000    0.3503600000000000    0.1358350000000000 H
   0.7685197139168845    0.6178192971597660    0.9773487130809779 H
   0.8176323255451986    0.6064190999144520    0.9209004191419979 H
   0.6858700000000000    0.0093800000000000    0.3787500000000000 H
   0.6842650000000000    0.2355400000000000    0.3784500000000000 H
   0.6646950000000000    0.0826600000000000    0.4187500000000000 H
   0.7452100000000000    0.2401000000000000    0.2599700000000000 H
   0.5017450000000000    0.7285199999999999    0.3108500000000000 H
   0.6123200000000000    0.7285400000000000    0.3248800000000000 H
   0.5369500000000000    0.6485000000000000    0.3379300000000000 H
   0.6165650000000000    0.9657100000000000    0.2583250000000000 H
   0.6873199999999999    0.3768700000000000    0.1750500000000000 H
   0.5630400000000000    0.3500200000000000    0.1884300000000000 H
   0.6252650000000000    0.3233000000000000    0.1616500000000000 H
   0.6249600000000000    0.4825500000000000    0.2413000000000000 H
   0.9359750000000000    0.2428600000000000    0.4953200000000000 H
   0.9342450000000000    0.2434000000000000    0.3823550000000000 H
   0.9147149999999999    0.1628900000000000    0.4587900000000000 H
   0.9952600000000000    0.4802900000000000    0.3798850000000000 H
   0.8141149999999999    0.9906100000000000    0.1212200000000000 H
   0.8157200000000000    0.7644600000000000    0.1215550000000000 H
   0.8352950000000000    0.9173400000000000    0.0810000000000000 H
   0.7547750000000000    0.7599000000000000    0.2400350000000000 H
   0.8126700000000000    0.6231300000000000    0.3249100000000000 H
   0.9369499999999999    0.6499800000000000    0.3115700000000000 H
   0.8747199999999999    0.6767000000000000    0.3383500000000000 H
   0.8750300000000000    0.5174500000000000    0.2586700000000000 H
   0.9392450000000000    0.9241900000000000    0.3296850000000000 C
   0.8107050000000000    0.6591700000000000    0.4621300000000000 C
   0.8432600000000000    0.7978100000000000    0.4625000000000000 C
   0.9065650000000001    0.9245400000000000    0.3991950000000000 C
   0.8748899999999999    0.8834200000000000    0.4420450000000000 C
   0.8749750000000001    0.7941800000000000    0.3971650000000000 C
   0.8437800000000000    0.7521099999999999    0.4403550000000000 C
   0.9061150000000000    0.8804900000000000    0.3762100000000000 C
   0.4392450000000000    0.9241900000000000    0.8296850000000000 C
   0.3107050000000000    0.6591700000000000    0.9621299999999999 C
   0.3432600000000000    0.7978100000000000    0.9625000000000000 C
   0.4065650000000000    0.9245400000000000    0.8991950000000000 C
   0.3748900000000000    0.8834200000000000    0.9420450000000000 C
   0.3749750000000000    0.7941800000000000    0.8971650000000000 C
   0.3437800000000000    0.7521099999999999    0.9403550000000001 C
   0.4061150000000000    0.8804900000000000    0.8762099999999999 C
   0.0607450000000000    0.0758100000000000    0.6703150000000000 C
   0.1892850000000000    0.3408300000000000    0.5378700000000000 C
   0.1567300000000000    0.2021900000000000    0.5374800000000000 C
   0.0934200000000000    0.0754600000000000    0.6008050000000000 C
   0.1251000000000000    0.1165700000000000    0.5579550000000000 C
   0.1250100000000000    0.2058200000000000    0.6028350000000000 C
   0.1562100000000000    0.2478800000000000    0.5596449999999999 C
   0.0938700000000000    0.1195100000000000    0.6237500000000000 C
   0.4392450000000000    0.9241900000000000    0.3296850000000000 C
   0.3107050000000000    0.6591700000000000    0.4621300000000000 C
   0.3432600000000000    0.7978100000000000    0.4625000000000000 C
   0.4065650000000000    0.9245400000000000    0.3991950000000000 C
   0.3748900000000000    0.8834200000000000    0.4420450000000000 C
   0.3749750000000000    0.7941800000000000    0.3971650000000000 C
   0.3437800000000000    0.7521099999999999    0.4403550000000000 C
   0.4061150000000000    0.8804900000000000    0.3762100000000000 C
   0.0607450000000000    0.0758100000000000    0.1703150000000000 C
   0.1892850000000000    0.3408300000000000    0.0378700000000000 C
   0.1567300000000000    0.2021900000000000    0.0374800000000000 C
   0.0934200000000000    0.0754600000000000    0.1008050000000000 C
   0.1251000000000000    0.1165700000000000    0.0579550000000000 C
   0.1250100000000000    0.2058200000000000    0.1028350000000000 C
   0.1562100000000000    0.2478800000000000    0.0596450000000000 C
   0.0938700000000000    0.1195100000000000    0.1237500000000000 C
   0.5607450000000000    0.0758100000000000    0.1703150000000000 C
   0.6892850000000000    0.3408300000000000    0.0378700000000000 C
   0.6567300000000000    0.2021900000000000    0.0374800000000000 C
   0.5934200000000001    0.0754600000000000    0.1008050000000000 C
   0.6251000000000000    0.1165700000000000    0.0579550000000000 C
   0.6250100000000001    0.2058200000000000    0.1028350000000000 C
   0.6562100000000000    0.2478800000000000    0.0596450000000000 C
   0.5938700000000000    0.1195100000000000    0.1237500000000000 C
   0.5607450000000000    0.0758100000000000    0.6703150000000000 C
   0.6892850000000000    0.3408300000000000    0.5378700000000000 C
   0.6567300000000000    0.2021900000000000    0.5374800000000000 C
   0.5934200000000001    0.0754600000000000    0.6008050000000000 C
   0.6251000000000000    0.1165700000000000    0.5579550000000000 C
   0.6250100000000001    0.2058200000000000    0.6028350000000000 C
   0.6562100000000000    0.2478800000000000    0.5596449999999999 C
   0.5938700000000000    0.1195100000000000    0.6237500000000000 C
   0.4662900000000000    0.0992700000000000    0.7283500000000001 C
   0.3332900000000000    0.0994200000000000    0.7222250000000000 C
   0.4033200000000000    0.2374200000000000    0.6869900000000000 C
   0.4655150000000000    0.2374200000000000    0.6943550000000001 C
   0.4455600000000000    0.2818500000000000    0.6795400000000000 C
   0.4008850000000000    0.1037600000000000    0.7242150000000001 C
   0.4437250000000000    0.1477900000000000    0.7156899999999999 C
   0.3801450000000000    0.1478300000000000    0.7106399999999999 C
   0.9662900000000000    0.0992700000000000    0.7283500000000001 C
   0.8332900000000000    0.0994200000000000    0.7222250000000000 C
   0.9033200000000000    0.2374200000000000    0.6869900000000000 C
   0.9655150000000000    0.2374200000000000    0.6943550000000001 C
   0.9455600000000000    0.2818500000000000    0.6795400000000000 C
   0.9008849999999999    0.1037600000000000    0.7242150000000001 C
   0.9437249999999999    0.1477900000000000    0.7156899999999999 C
   0.8801450000000000    0.1478300000000000    0.7106399999999999 C
   0.9662900000000000    0.0992700000000000    0.2283500000000000 C
   0.8332900000000000    0.0994200000000000    0.2222250000000000 C
   0.9033200000000000    0.2374200000000000    0.1869900000000000 C
   0.9655150000000000    0.2374200000000000    0.1943550000000000 C
   0.9455600000000000    0.2818500000000000    0.1795400000000000 C
   0.9008849999999999    0.1037600000000000    0.2242150000000000 C
   0.9437249999999999    0.1477900000000000    0.2156900000000000 C
   0.8801450000000000    0.1478300000000000    0.2106400000000000 C
   0.4662900000000000    0.0992700000000000    0.2283500000000000 C
   0.3332900000000000    0.0994200000000000    0.2222250000000000 C
   0.4033200000000000    0.2374200000000000    0.1869900000000000 C
   0.4655150000000000    0.2374200000000000    0.1943550000000000 C
   0.4455600000000000    0.2818500000000000    0.1795400000000000 C
   0.4008850000000000    0.1037600000000000    0.2242150000000000 C
   0.4437250000000000    0.1477900000000000    0.2156900000000000 C
   0.3801450000000000    0.1478300000000000    0.2106400000000000 C
   0.2836200000000000    0.4564900000000000    0.5496250000000000 C
   0.4166550000000000    0.4444800000000000    0.5497700000000000 C
   0.3490350000000000    0.4483000000000000    0.5515000000000000 C
   0.3061450000000000    0.4312200000000000    0.5739100000000000 C
   0.2842550000000000    0.3884800000000000    0.6187500000000000 C
   0.3042050000000000    0.3590100000000000    0.6409950000000000 C
   0.3465000000000000    0.3739800000000000    0.6187850000000000 C
   0.3697600000000000    0.4212800000000000    0.5739700000000000 C
   0.7836200000000000    0.4564900000000000    0.5496250000000000 C
   0.9166550000000000    0.4444800000000000    0.5497700000000000 C
   0.8490350000000000    0.4483000000000000    0.5515000000000000 C
   0.8061450000000000    0.4312200000000000    0.5739100000000000 C
   0.7842549999999999    0.3884800000000000    0.6187500000000000 C
   0.8042050000000001    0.3590100000000000    0.6409950000000000 C
   0.8465000000000000    0.3739800000000000    0.6187850000000000 C
   0.8697600000000000    0.4212800000000000    0.5739700000000000 C
   0.2163700000000000    0.5435100000000000    0.4503750000000000 C
   0.0833350000000000    0.5555200000000000    0.4502300000000000 C
   0.1534900000000000    0.6260200000000000    0.3812150000000000 C
   0.2157350000000000    0.6115200000000000    0.3812500000000000 C
   0.1957850000000000    0.6409800000000000    0.3590050000000000 C
   0.1509550000000000    0.5517000000000000    0.4481050000000000 C
   0.1938450000000000    0.5687800000000000    0.4260900000000000 C
   0.1302300000000000    0.5787099999999999    0.4260350000000000 C
   0.0229650000000000    0.5842800000000000    0.5377350000000000 C
   0.0191750000000000    0.5838500000000000    0.6704700000000000 C
   0.0561800000000000    0.7231600000000000    0.5378350000000000 C
   0.0564200000000000    0.7228700000000000    0.6013200000000000 C
   0.0675600000000000    0.7674299999999999    0.5585400000000000 C
   0.0223700000000000    0.5892400000000000    0.6028200000000000 C
   0.0327000000000000    0.6332800000000000    0.6240150000000000 C
   0.0343750000000000    0.6335300000000000    0.5596850000000000 C
   0.2269700000000000    0.0753600000000000    0.7922899999999999 C
   0.2308150000000000    0.3409700000000000    0.7920100000000000 C
   0.1937450000000000    0.0757100000000000    0.8617699999999999 C
   0.1935600000000000    0.2028000000000000    0.8615500000000000 C
   0.1823950000000000    0.1172400000000000    0.8838950000000000 C
   0.2275800000000000    0.2055800000000000    0.7947550000000000 C
   0.2172600000000000    0.2480600000000000    0.8167500000000000 C
   0.2155450000000000    0.1193100000000000    0.8169299999999999 C
   0.0336950000000000    0.9007200000000000    0.7716499999999999 C
   0.1667000000000000    0.9005800000000000    0.7777499999999999 C
   0.0344750000000000    0.7625700000000000    0.8055000000000000 C
   0.0966700000000000    0.7625800000000000    0.8130100000000000 C
   0.0544300000000000    0.7181500000000000    0.8204650000000000 C
   0.0991050000000000    0.8962400000000000    0.7757900000000000 C
   0.1198450000000000    0.8521700000000000    0.7893650000000000 C
   0.0562600000000000    0.8522000000000000    0.7843150000000000 C
   0.0555600000000000    0.4441500000000000    0.7278600000000000 C
   0.1944800000000000    0.4557000000000000    0.7221649999999999 C
   0.1598350000000000    0.3875800000000000    0.6868250000000000 C
   0.0904550000000000    0.3735200000000000    0.6938050000000000 C
   0.1251900000000000    0.3582500000000000    0.6791550000000000 C
   0.1250200000000000    0.4476600000000000    0.7238850000000000 C
   0.1593150000000000    0.4303600000000000    0.7104400000000000 C
   0.0908050000000000    0.4207300000000000    0.7152100000000000 C
   0.4770250000000000    0.4157200000000000    0.9622649999999999 C
   0.4808150000000000    0.4161500000000000    0.8295300000000000 C
   0.4438100000000000    0.2768400000000000    0.9621649999999999 C
   0.4435700000000000    0.2771400000000000    0.8986799999999999 C
   0.4324250000000000    0.2325700000000000    0.9414600000000000 C
   0.4776200000000000    0.4107600000000000    0.8971800000000000 C
   0.4656150000000000    0.3664700000000000    0.9403150000000000 C
   0.4672900000000000    0.3667200000000000    0.8759500000000000 C
   0.2730200000000000    0.9246300000000000    0.7077150000000000 C
   0.2691700000000000    0.6590200000000001    0.7079900000000000 C
   0.3062450000000000    0.9242899999999999    0.6382350000000000 C
   0.3064250000000000    0.7972000000000000    0.6384250000000000 C
   0.3175950000000000    0.8827600000000000    0.6161100000000000 C
   0.2724050000000000    0.7944099999999999    0.7052499999999999 C
   0.2844450000000000    0.8806800000000000    0.6830750000000000 C
   0.2827300000000000    0.7519400000000001    0.6832000000000000 C
   0.3055100000000000    0.5442900000000001    0.7778400000000000 C
   0.4444250000000000    0.5558500000000000    0.7721400000000000 C
   0.3401500000000000    0.6124200000000000    0.8131750000000000 C
   0.4095350000000000    0.6264700000000000    0.8061950000000000 C
   0.3748000000000000    0.6417500000000000    0.8208450000000000 C
   0.3749700000000000    0.5523300000000000    0.7761150000000000 C
   0.3406750000000000    0.5696300000000000    0.7895650000000001 C
   0.4091850000000000    0.5792700000000000    0.7847900000000000 C
   0.7163700000000000    0.5435100000000000    0.4503750000000000 C
   0.5833350000000000    0.5555200000000000    0.4502300000000000 C
   0.6534900000000000    0.6260200000000000    0.3812150000000000 C
   0.7157350000000000    0.6115200000000000    0.3812500000000000 C
   0.6957850000000000    0.6409800000000000    0.3590050000000000 C
   0.6509550000000000    0.5517000000000000    0.4481050000000000 C
   0.6938450000000000    0.5687800000000000    0.4260900000000000 C
   0.6302300000000001    0.5787099999999999    0.4260350000000000 C
   0.5229650000000000    0.5842800000000000    0.5377350000000000 C
   0.5191750000000001    0.5838500000000000    0.6704700000000000 C
   0.5561800000000000    0.7231600000000000    0.5378350000000000 C
   0.5564200000000000    0.7228700000000000    0.6013200000000000 C
   0.5675600000000000    0.7674299999999999    0.5585400000000000 C
   0.5223700000000000    0.5892400000000000    0.6028200000000000 C
   0.5327000000000000    0.6332800000000000    0.6240150000000000 C
   0.5343750000000000    0.6335300000000000    0.5596850000000000 C
   0.7269700000000000    0.0753600000000000    0.7922899999999999 C
   0.7308150000000000    0.3409700000000000    0.7920100000000000 C
   0.6937450000000001    0.0757100000000000    0.8617699999999999 C
   0.6935600000000000    0.2028000000000000    0.8615500000000000 C
   0.6823950000000000    0.1172400000000000    0.8838950000000000 C
   0.7275800000000000    0.2055800000000000    0.7947550000000000 C
   0.7172600000000000    0.2480600000000000    0.8167500000000000 C
   0.7155450000000000    0.1193100000000000    0.8169299999999999 C
   0.5336950000000000    0.9007200000000000    0.7716499999999999 C
   0.6667000000000000    0.9005800000000000    0.7777499999999999 C