H5 C9 S1 N2 O2
1.0
  22.7399949987060950    0.0000000000000000   -0.0150817380266718
  -0.0187342310598726   10.5224830086756640   -0.0025711317619902
   0.0000000000000000    0.0000000000000000   26.5199999999999996
H C S N O
5 9 1 2 2
direct
   0.3452566666666667    0.6024000000000000    0.1839850000000000 H
   0.4076500000000000    0.3441900000000000    0.3442400000000000 H
   0.4117900000000000    0.1744800000000000    0.4090200000000000 H
   0.3531866666666666    0.9014100000000000    0.3073650000000000 H
   0.3415233333333333    0.0599000000000000    0.2394100000000000 H
   0.3691800000000000    0.3959300000000000    0.1116150000000000 C
   0.3679600000000000    0.4008000000000000    0.1688200000000000 C
   0.3555333333333333    0.5071900000000000    0.1973050000000000 C
   0.3706933333333333    0.3140100000000000    0.2464750000000000 C
   0.3742433333333333    0.2171100000000000    0.2858850000000000 C
   0.3926300000000000    0.2483100000000000    0.3349850000000000 C
   0.3961400000000000    0.1531900000000000    0.3711100000000000 C
   0.3639233333333333    0.0009800000000000    0.3144550000000000 C
   0.3584700000000000    0.0900700000000000    0.2761050000000000 C
   0.3548733333333333    0.4719200000000000    0.2601450000000000 S
   0.3768133333333333    0.2928500000000000    0.1973400000000000 N
   0.3831566666666666    0.0299200000000000    0.3614750000000000 N
   0.3798533333333333    0.2897600000000000    0.0910450000000000 O
   0.3582300000000000    0.4998300000000000    0.0889950000000000 O
