H8 O5
1.0
  27.6079951390908178    0.0000000000000000    0.0163829160347749
  -0.0348009745658270   13.1055444292139462   -4.4484934647663099
   0.0000000000000000    0.0000000000000000   27.8440000000000012
H O
8 5
direct
   0.2796266313556870    0.8056136742143720    0.1687723196056969 H
   0.3211367297239024   -0.0192714695230262    0.1842826194304600 H
   0.3240362833423804    0.9334327184969136    0.1883875880588506 H
   0.3587347037489563    0.0617339449366084    0.2133005122236576 H
   0.4614635181719441    0.2908530388879209    0.0673930525255735 H
   0.4058192896121349    0.2451545712761264    0.0473205584443152 H
   0.4651519676948800    0.8635792743104976    0.0594821383947172 H
   0.4165850893823861    0.0303147005558301    0.0882270436383648 H
   0.2849150000000000    0.8758700000000000    0.1896650000000000 O
   0.3305750000000000    0.0203000000000000    0.2142200000000000 O
   0.4403600000000000    0.2329100000000000    0.0506300000000000 O
   0.4895500000000000    0.8699500000000000    0.0355900000000000 O
   0.4434250000000000    0.0126600000000000    0.0645300000000000 O
