H10 C14 N1 O2
1.0
  17.1709591119656757    0.0000000000000000    2.0508564491945518
   2.5734713131759293   11.4702057817674472    5.6807359315646035
   0.0000000000000000    0.0000000000000000   30.0820000000000007
H C N O
10 14 1 2
direct
   0.7732700000000000    0.5516900000000000    0.2558500000000000 H
   0.8997900000000000    0.4437800000000000    0.3013750000000000 H
   0.0292700000000000    0.6504100000000000    0.1759200000000000 H
   0.9013000000000000    0.7564800000000000    0.1309500000000000 H
   0.1024700000000000    0.5084800000000000    0.2435850000000000 H
   0.0129200000000000    0.3453700000000000    0.3302400000000000 H
   0.0913700000000000    0.2178500000000000    0.4019800000000000 H
   0.2234800000000000    0.1069400000000000    0.4400750000000000 H
   0.3426100000000000    0.2661400000000000    0.3085550000000000 H
   0.2160400000000000    0.3848600000000000    0.2653750000000000 H
   0.7516600000000000    0.7216700000000000    0.1636050000000000 C
   0.8293400000000000    0.6591300000000000    0.1902200000000000 C
   0.8300500000000000    0.5711400000000000    0.2385400000000000 C
   0.9010700000000000    0.5109200000000000    0.2637500000000000 C
   0.9745400000000000    0.5369699999999999    0.2411500000000000 C
   0.9731800000000000    0.6273600000000000    0.1931400000000000 C
   0.9018500000000000    0.6870300000000000    0.1680050000000000 C
   0.0514500000000000    0.4736700000000000    0.2645000000000000 C
   0.0637000000000000    0.3784100000000000    0.3083200000000000 C
   0.1412300000000000    0.3140700000000000    0.3302400000000000 C
   0.1457300000000000    0.2322500000000000    0.3801050000000000 C
   0.2192400000000000    0.1695700000000000    0.4013850000000000 C
   0.2855400000000000    0.2596800000000000    0.3279950000000000 C
   0.2144200000000000    0.3256800000000000    0.3043300000000000 C
   0.2888600000000000    0.1823200000000000    0.3760550000000000 N
   0.7559600000000000    0.8117799999999999    0.1217900000000000 O
   0.6889300000000000    0.6865599999999999    0.1813600000000000 O
