H5 O3
1.0
  18.4629950394986686    0.0000000000000000    0.0135340846593435
   0.0340926427311810   20.9630361331578889   -1.4765428444946942
   0.0000000000000000    0.0000000000000000   15.6679999999999993
H O
5 3
direct
   0.5471724212015074    0.7267237668416159    0.7312593806005232 H
   0.6373526362423171    0.7052707865587706    0.7187908242666432 H
   0.7153984341832644    0.5174738765527369    0.4294611714279715 H
   0.6826263201564546    0.3720859064211159    0.6850699265701281 H
   0.7393631521723143    0.3831675775661423    0.7578453512446794 H
   0.5987300000000000    0.7335100000000000    0.7416700000000001 O
   0.6657700000000000    0.5276200000000000    0.4131700000000000 O
   0.6929000000000000    0.3625900000000000    0.7441100000000000 O
