Zn16 H280 C406 N30 O64
1.0
  25.0159375744515735    0.0000000000000000   -0.0558862339202176
  -3.1016186779435784   15.0335346461682668   -3.9289722089994372
   0.0000000000000000    0.0000000000000000   33.2879999999999967
Zn H C N O
16 280 406 30 64
direct
   0.1526800000000000    0.0001500000000000    0.3751600000000000 Zn
   0.0973100000000000    0.9998600000000000    0.1248300000000000 Zn
   0.4026800000000000    0.0001500000000000    0.3751600000000000 Zn
   0.3473100000000000    0.9998600000000000    0.1248300000000000 Zn
   0.6526800000000000    0.0001500000000000    0.3751600000000000 Zn
   0.5973100000000000    0.9998600000000000    0.1248300000000000 Zn
   0.9026800000000000    0.0001500000000000    0.3751600000000000 Zn
   0.8473100000000000    0.9998600000000000    0.1248300000000000 Zn
   0.1526800000000000    0.0001500000000000    0.8751599999999999 Zn
   0.0973100000000000    0.9998600000000000    0.6248300000000000 Zn
   0.4026800000000000    0.0001500000000000    0.8751599999999999 Zn
   0.3473100000000000    0.9998600000000000    0.6248300000000000 Zn
   0.6526800000000000    0.0001500000000000    0.8751599999999999 Zn
   0.5973100000000000    0.9998600000000000    0.6248300000000000 Zn
   0.9026800000000000    0.0001500000000000    0.8751599999999999 Zn
   0.8473100000000000    0.9998600000000000    0.6248300000000000 Zn
   0.2452250000000000    0.1870100000000000    0.1880350000000000 H
   0.2137550000000000    0.3221900000000000    0.2243450000000000 H
   0.1181400000000000    0.4818200000000000    0.2058450000000000 H
   0.1493000000000000    0.3437200000000000    0.1696150000000000 H
   0.0538325000000000    0.5557200000000000    0.2405450000000000 H
   0.2068250000000000    0.1077500000000000    0.1150600000000000 H
   0.0279325000000000    0.1081200000000000    0.0643150000000000 H
   0.1674175000000000    0.8915100000000000    0.4796050000000000 H
   0.1021475000000000    0.8983200000000000    0.0350200000000000 H
   0.1982375000000000    0.8129300000000000    0.0618500000000000 H
   0.1329700000000000    0.6778700000000000    0.0257550000000000 H
   0.2478875000000000    0.5179800000000000    0.0441450000000000 H
   0.0636575000000000    0.6559900000000000    0.0800650000000000 H
   0.1649575000000000    0.4441700000000000    0.0095950000000000 H
   0.1800500000000000    0.8916900000000000    0.1347800000000000 H
   0.0011425000000000    0.8916300000000000    0.1858050000000000 H
   0.1941975000000000    0.1082700000000000    0.2701050000000000 H
   0.1271025000000000    0.1010300000000000    0.2144450000000000 H
   0.0047650000000000    0.8129800000000000    0.3119550000000000 H
   0.0362325000000000    0.6778000000000000    0.2756450000000000 H
   0.1318525000000000    0.5181700000000000    0.2941500000000000 H
   0.1006900000000000    0.6562700000000000    0.3303750000000000 H
   0.1961575000000000    0.4442700000000000    0.2594500000000000 H
   0.0431625000000000    0.8922500000000000    0.3849300000000000 H
   0.2220575000000000    0.8918700000000001    0.4356700000000000 H
   0.0825725000000000    0.1084700000000000    0.0203850000000000 H
   0.1478400000000000    0.1016700000000000    0.4649650000000000 H
   0.0517525000000000    0.1870600000000000    0.4381350000000000 H
   0.1170225000000000    0.3221200000000000    0.4742350000000000 H
   0.0021050000000000    0.4820100000000000    0.4558450000000000 H
   0.1863350000000000    0.3440000000000000    0.4199250000000000 H
   0.0850375000000000    0.5558200000000000    0.4903900000000000 H
   0.0699550000000000    0.1083200000000000    0.3652000000000000 H
   0.2488600000000000    0.1083900000000000    0.3141800000000000 H
   0.0557725000000000    0.8917000000000000    0.2298900000000000 H
   0.1228725000000000    0.8989400000000000    0.2855450000000000 H
   0.4952250000000000    0.1870100000000000    0.1880350000000000 H
   0.4637550000000000    0.3221900000000000    0.2243450000000000 H
   0.3681400000000000    0.4818200000000000    0.2058450000000000 H
   0.3993000000000000    0.3437200000000000    0.1696150000000000 H
   0.3038325000000000    0.5557200000000000    0.2405450000000000 H
   0.4568250000000000    0.1077500000000000    0.1150600000000000 H
   0.2779325000000000    0.1081200000000000    0.0643150000000000 H
   0.4174175000000000    0.8915100000000000    0.4796050000000000 H
   0.3521475000000000    0.8983200000000000    0.0350200000000000 H
   0.4482375000000000    0.8129300000000000    0.0618500000000000 H
   0.3829700000000000    0.6778700000000000    0.0257550000000000 H
   0.4978875000000000    0.5179800000000000    0.0441450000000000 H
   0.3136575000000000    0.6559900000000000    0.0800650000000000 H
   0.4149575000000000    0.4441700000000000    0.0095950000000000 H
   0.4300500000000000    0.8916900000000000    0.1347800000000000 H
   0.2511425000000000    0.8916300000000000    0.1858050000000000 H
   0.4441975000000000    0.1082700000000000    0.2701050000000000 H
   0.3771025000000000    0.1010300000000000    0.2144450000000000 H
   0.2547650000000000    0.8129800000000000    0.3119550000000000 H
   0.2862325000000000    0.6778000000000000    0.2756450000000000 H
   0.3818525000000000    0.5181700000000000    0.2941500000000000 H
   0.3506900000000000    0.6562700000000000    0.3303750000000000 H
   0.4461575000000000    0.4442700000000000    0.2594500000000000 H
   0.2931625000000000    0.8922500000000000    0.3849300000000000 H
   0.4720575000000000    0.8918700000000001    0.4356700000000000 H
   0.3325725000000000    0.1084700000000000    0.0203850000000000 H
   0.3978400000000000    0.1016700000000000    0.4649650000000000 H
   0.3017525000000000    0.1870600000000000    0.4381350000000000 H
   0.3670225000000000    0.3221200000000000    0.4742350000000000 H
   0.2521050000000000    0.4820100000000000    0.4558450000000000 H
   0.4363350000000000    0.3440000000000000    0.4199250000000000 H
   0.3350375000000000    0.5558200000000000    0.4903900000000000 H
   0.3199550000000000    0.1083200000000000    0.3652000000000000 H
   0.4988600000000000    0.1083900000000000    0.3141800000000000 H
   0.3057725000000000    0.8917000000000000    0.2298900000000000 H
   0.3728725000000000    0.8989400000000000    0.2855450000000000 H
   0.7452250000000000    0.1870100000000000    0.1880350000000000 H
   0.7137550000000000    0.3221900000000000    0.2243450000000000 H
   0.6181400000000000    0.4818200000000000    0.2058450000000000 H
   0.6493000000000000    0.3437200000000000    0.1696150000000000 H
   0.5538324999999999    0.5557200000000000    0.2405450000000000 H
   0.7068250000000000    0.1077500000000000    0.1150600000000000 H
   0.5279325000000000    0.1081200000000000    0.0643150000000000 H
   0.6674175000000000    0.8915100000000000    0.4796050000000000 H
   0.6021475000000001    0.8983200000000000    0.0350200000000000 H
   0.6982375000000001    0.8129300000000000    0.0618500000000000 H
   0.6329700000000000    0.6778700000000000    0.0257550000000000 H
   0.7478875000000000    0.5179800000000000    0.0441450000000000 H
   0.5636575000000000    0.6559900000000000    0.0800650000000000 H
   0.6649575000000000    0.4441700000000000    0.0095950000000000 H
   0.6800500000000000    0.8916900000000000    0.1347800000000000 H
   0.5011425000000000    0.8916300000000000    0.1858050000000000 H
   0.6941975000000000    0.1082700000000000    0.2701050000000000 H
   0.6271025000000000    0.1010300000000000    0.2144450000000000 H
   0.5047650000000000    0.8129800000000000    0.3119550000000000 H
   0.5362325000000000    0.6778000000000000    0.2756450000000000 H
   0.6318525000000000    0.5181700000000000    0.2941500000000000 H
   0.6006899999999999    0.6562700000000000    0.3303750000000000 H
   0.6961575000000000    0.4442700000000000    0.2594500000000000 H
   0.5431625000000000    0.8922500000000000    0.3849300000000000 H
   0.7220575000000000    0.8918700000000001    0.4356700000000000 H
   0.5825724999999999    0.1084700000000000    0.0203850000000000 H
   0.6478400000000000    0.1016700000000000    0.4649650000000000 H
   0.5517525000000000    0.1870600000000000    0.4381350000000000 H
   0.6170225000000000    0.3221200000000000    0.4742350000000000 H
   0.5021050000000000    0.4820100000000000    0.4558450000000000 H
   0.6863350000000000    0.3440000000000000    0.4199250000000000 H
   0.5850375000000000    0.5558200000000000    0.4903900000000000 H
   0.5699550000000000    0.1083200000000000    0.3652000000000000 H
   0.7488600000000000    0.1083900000000000    0.3141800000000000 H
   0.5557725000000000    0.8917000000000000    0.2298900000000000 H
   0.6228724999999999    0.8989400000000000    0.2855450000000000 H
   0.9952250000000000    0.1870100000000000    0.1880350000000000 H
   0.9637550000000000    0.3221900000000000    0.2243450000000000 H
   0.8681400000000000    0.4818200000000000    0.2058450000000000 H
   0.8993000000000000    0.3437200000000000    0.1696150000000000 H
   0.8038324999999999    0.5557200000000000    0.2405450000000000 H
   0.9568250000000000    0.1077500000000000    0.1150600000000000 H
   0.7779325000000000    0.1081200000000000    0.0643150000000000 H
   0.9174175000000000    0.8915100000000000    0.4796050000000000 H
   0.8521475000000001    0.8983200000000000    0.0350200000000000 H
   0.9482375000000001    0.8129300000000000    0.0618500000000000 H
   0.8829700000000000    0.6778700000000000    0.0257550000000000 H
   0.9978875000000000    0.5179800000000000    0.0441450000000000 H
   0.8136575000000000    0.6559900000000000    0.0800650000000000 H
   0.9149575000000000    0.4441700000000000    0.0095950000000000 H
   0.9300500000000000    0.8916900000000000    0.1347800000000000 H
   0.7511425000000000    0.8916300000000000    0.1858050000000000 H
   0.9441975000000000    0.1082700000000000    0.2701050000000000 H
   0.8771025000000000    0.1010300000000000    0.2144450000000000 H
   0.7547650000000000    0.8129800000000000    0.3119550000000000 H
   0.7862325000000000    0.6778000000000000    0.2756450000000000 H
   0.8818525000000000    0.5181700000000000    0.2941500000000000 H
   0.8506899999999999    0.6562700000000000    0.3303750000000000 H
   0.9461575000000000    0.4442700000000000    0.2594500000000000 H
   0.7931625000000000    0.8922500000000000    0.3849300000000000 H
   0.9720575000000000    0.8918700000000001    0.4356700000000000 H
   0.8325724999999999    0.1084700000000000    0.0203850000000000 H
   0.8978400000000000    0.1016700000000000    0.4649650000000000 H
   0.8017525000000000    0.1870600000000000    0.4381350000000000 H
   0.8670225000000000    0.3221200000000000    0.4742350000000000 H
   0.7521050000000000    0.4820100000000000    0.4558450000000000 H
   0.9363350000000000    0.3440000000000000    0.4199250000000000 H
   0.8350375000000000    0.5558200000000000    0.4903900000000000 H
   0.8199550000000000    0.1083200000000000    0.3652000000000000 H
   0.9988600000000000    0.1083900000000000    0.3141800000000000 H
   0.8057725000000000    0.8917000000000000    0.2298900000000000 H
   0.8728724999999999    0.8989400000000000    0.2855450000000000 H
   0.2452250000000000    0.1870100000000000    0.6880350000000000 H
   0.2137550000000000    0.3221900000000000    0.7243450000000000 H
   0.1181400000000000    0.4818200000000000    0.7058450000000001 H
   0.1493000000000000    0.3437200000000000    0.6696150000000000 H
   0.0538325000000000    0.5557200000000000    0.7405450000000000 H
   0.2068250000000000    0.1077500000000000    0.6150599999999999 H
   0.0279325000000000    0.1081200000000000    0.5643150000000000 H
   0.1674175000000000    0.8915100000000000    0.9796050000000001 H
   0.1021475000000000    0.8983200000000000    0.5350200000000001 H
   0.1982375000000000    0.8129300000000000    0.5618500000000000 H
   0.1329700000000000    0.6778700000000000    0.5257550000000000 H
   0.2478875000000000    0.5179800000000000    0.5441450000000000 H
   0.0636575000000000    0.6559900000000000    0.5800650000000001 H
   0.1649575000000000    0.4441700000000000    0.5095950000000000 H
   0.1800500000000000    0.8916900000000000    0.6347800000000000 H
   0.1941975000000000    0.1082700000000000    0.7701050000000000 H
   0.1271025000000000    0.1010300000000000    0.7144450000000000 H
   0.0047650000000000    0.8129800000000000    0.8119550000000000 H
   0.0362325000000000    0.6778000000000000    0.7756449999999999 H
   0.1318525000000000    0.5181700000000000    0.7941500000000000 H
   0.1006900000000000    0.6562700000000000    0.8303750000000000 H
   0.1961575000000000    0.4442700000000000    0.7594500000000000 H
   0.0431625000000000    0.8922500000000000    0.8849300000000000 H
   0.2220575000000000    0.8918700000000001    0.9356700000000000 H
   0.0825725000000000    0.1084700000000000    0.5203850000000000 H
   0.1478400000000000    0.1016700000000000    0.9649650000000001 H
   0.0517525000000000    0.1870600000000000    0.9381349999999999 H
   0.1170225000000000    0.3221200000000000    0.9742350000000000 H
   0.0021050000000000    0.4820100000000000    0.9558450000000001 H
   0.1863350000000000    0.3440000000000000    0.9199250000000000 H
   0.0850375000000000    0.5558200000000000    0.9903900000000000 H
   0.2488600000000000    0.1083900000000000    0.8141800000000000 H
   0.4952250000000000    0.1870100000000000    0.6880350000000000 H
   0.4637550000000000    0.3221900000000000    0.7243450000000000 H
   0.3681400000000000    0.4818200000000000    0.7058450000000001 H
   0.3993000000000000    0.3437200000000000    0.6696150000000000 H
   0.3038325000000000    0.5557200000000000    0.7405450000000000 H
   0.4568250000000000    0.1077500000000000    0.6150599999999999 H
   0.2779325000000000    0.1081200000000000    0.5643150000000000 H
   0.4174175000000000    0.8915100000000000    0.9796050000000001 H
   0.3521475000000000    0.8983200000000000    0.5350200000000001 H
   0.4482375000000000    0.8129300000000000    0.5618500000000000 H
   0.3829700000000000    0.6778700000000000    0.5257550000000000 H
   0.4978875000000000    0.5179800000000000    0.5441450000000000 H
   0.3136575000000000    0.6559900000000000    0.5800650000000001 H
   0.4149575000000000    0.4441700000000000    0.5095950000000000 H
   0.4300500000000000    0.8916900000000000    0.6347800000000000 H
   0.2511425000000000    0.8916300000000000    0.6858050000000000 H
   0.4441975000000000    0.1082700000000000    0.7701050000000000 H
   0.3771025000000000    0.1010300000000000    0.7144450000000000 H
   0.2547650000000000    0.8129800000000000    0.8119550000000000 H
   0.2862325000000000    0.6778000000000000    0.7756449999999999 H
   0.3818525000000000    0.5181700000000000    0.7941500000000000 H
   0.3506900000000000    0.6562700000000000    0.8303750000000000 H
   0.4461575000000000    0.4442700000000000    0.7594500000000000 H
   0.2931625000000000    0.8922500000000000    0.8849300000000000 H
   0.4720575000000000    0.8918700000000001    0.9356700000000000 H
   0.3325725000000000    0.1084700000000000    0.5203850000000000 H
   0.3978400000000000    0.1016700000000000    0.9649650000000001 H
   0.3017525000000000    0.1870600000000000    0.9381349999999999 H
   0.3670225000000000    0.3221200000000000    0.9742350000000000 H
   0.2521050000000000    0.4820100000000000    0.9558450000000001 H
   0.4363350000000000    0.3440000000000000    0.9199250000000000 H
   0.3350375000000000    0.5558200000000000    0.9903900000000000 H
   0.3199550000000000    0.1083200000000000    0.8652000000000000 H
   0.4988600000000000    0.1083900000000000    0.8141800000000000 H
   0.3057725000000000    0.8917000000000000    0.7298900000000000 H
   0.3728725000000000    0.8989400000000000    0.7855449999999999 H
   0.7452250000000000    0.1870100000000000    0.6880350000000000 H
   0.7137550000000000    0.3221900000000000    0.7243450000000000 H
   0.6181400000000000    0.4818200000000000    0.7058450000000001 H
   0.6493000000000000    0.3437200000000000    0.6696150000000000 H
   0.5538324999999999    0.5557200000000000    0.7405450000000000 H
   0.7068250000000000    0.1077500000000000    0.6150599999999999 H
   0.5279325000000000    0.1081200000000000    0.5643150000000000 H
   0.6674175000000000    0.8915100000000000    0.9796050000000001 H
   0.6021475000000001    0.8983200000000000    0.5350200000000001 H
   0.6982375000000001    0.8129300000000000    0.5618500000000000 H
   0.6329700000000000    0.6778700000000000    0.5257550000000000 H
   0.7478875000000000    0.5179800000000000    0.5441450000000000 H
   0.5636575000000000    0.6559900000000000    0.5800650000000001 H
   0.6649575000000000    0.4441700000000000    0.5095950000000000 H
   0.6800500000000000    0.8916900000000000    0.6347800000000000 H
   0.5011425000000000    0.8916300000000000    0.6858050000000000 H
   0.6941975000000000    0.1082700000000000    0.7701050000000000 H
   0.6271025000000000    0.1010300000000000    0.7144450000000000 H
   0.5047650000000000    0.8129800000000000    0.8119550000000000 H
   0.5362325000000000    0.6778000000000000    0.7756449999999999 H
   0.6318525000000000    0.5181700000000000    0.7941500000000000 H
   0.6006899999999999    0.6562700000000000    0.8303750000000000 H
   0.6961575000000000    0.4442700000000000    0.7594500000000000 H
   0.5431625000000000    0.8922500000000000    0.8849300000000000 H
   0.7220575000000000    0.8918700000000001    0.9356700000000000 H
   0.5825724999999999    0.1084700000000000    0.5203850000000000 H
   0.6478400000000000    0.1016700000000000    0.9649650000000001 H
   0.5517525000000000    0.1870600000000000    0.9381349999999999 H
   0.6170225000000000    0.3221200000000000    0.9742350000000000 H
   0.5021050000000000    0.4820100000000000    0.9558450000000001 H
   0.6863350000000000    0.3440000000000000    0.9199250000000000 H
   0.5850375000000000    0.5558200000000000    0.9903900000000000 H
   0.5699550000000000    0.1083200000000000    0.8652000000000000 H
   0.7488600000000000    0.1083900000000000    0.8141800000000000 H
   0.5557725000000000    0.8917000000000000    0.7298900000000000 H
   0.6228724999999999    0.8989400000000000    0.7855449999999999 H
   0.9952250000000000    0.1870100000000000    0.6880350000000000 H
   0.9637550000000000    0.3221900000000000    0.7243450000000000 H
   0.8681400000000000    0.4818200000000000    0.7058450000000001 H
   0.8993000000000000    0.3437200000000000    0.6696150000000000 H
   0.8038324999999999    0.5557200000000000    0.7405450000000000 H
   0.9568250000000000    0.1077500000000000    0.6150599999999999 H
   0.7779325000000000    0.1081200000000000    0.5643150000000000 H
   0.9174175000000000    0.8915100000000000    0.9796050000000001 H
   0.8521475000000001    0.8983200000000000    0.5350200000000001 H
   0.9482375000000001    0.8129300000000000    0.5618500000000000 H
   0.8829700000000000    0.6778700000000000    0.5257550000000000 H
   0.9978875000000000    0.5179800000000000    0.5441450000000000 H
   0.8136575000000000    0.6559900000000000    0.5800650000000001 H
   0.9149575000000000    0.4441700000000000    0.5095950000000000 H
   0.7511425000000000    0.8916300000000000    0.6858050000000000 H
   0.7547650000000000    0.8129800000000000    0.8119550000000000 H
   0.7862325000000000    0.6778000000000000    0.7756449999999999 H
   0.8818525000000000    0.5181700000000000    0.7941500000000000 H
   0.8506899999999999    0.6562700000000000    0.8303750000000000 H
   0.9461575000000000    0.4442700000000000    0.7594500000000000 H
   0.7931625000000000    0.8922500000000000    0.8849300000000000 H
   0.9720575000000000    0.8918700000000001    0.9356700000000000 H
   0.8325724999999999    0.1084700000000000    0.5203850000000000 H
   0.8978400000000000    0.1016700000000000    0.9649650000000001 H
   0.8017525000000000    0.1870600000000000    0.9381349999999999 H
   0.8670225000000000    0.3221200000000000    0.9742350000000000 H
   0.7521050000000000    0.4820100000000000    0.9558450000000001 H
   0.9363350000000000    0.3440000000000000    0.9199250000000000 H
   0.8350375000000000    0.5558200000000000    0.9903900000000000 H
   0.8199550000000000    0.1083200000000000    0.8652000000000000 H
   0.8057725000000000    0.8917000000000000    0.7298900000000000 H
   0.8728724999999999    0.8989400000000000    0.7855449999999999 H
   0.0951550000000000    0.1748400000000000    0.1559850000000000 C
   0.0746700000000000    0.2564800000000000    0.1770050000000000 C
   0.0222750000000000    0.2516800000000000    0.1925150000000000 C
   0.0048250000000000    0.3282600000000000    0.2130650000000000 C
   0.0390425000000000    0.4129500000000000    0.2186800000000000 C
   0.0912175000000000    0.4170000000000000    0.2022150000000000 C
   0.1088600000000000    0.3403200000000000    0.1819750000000000 C
   0.0234425000000000    0.4957100000000000    0.2402850000000000 C
   0.2002350000000000    0.0605200000000000    0.0847650000000000 C
   0.2395975000000000    0.0605100000000000    0.0554450000000000 C
   0.2295875000000000    0.0003900000000000    0.0161400000000000 C
   0.1787950000000000    0.9408400000000000    0.0090300000000000 C
   0.1415450000000000    0.9441200000000000    0.0399000000000000 C
   0.0515900000000000    0.8250500000000000    0.0934650000000000 C
   0.0106250000000000    0.7433999999999999    0.0727200000000000 C
   0.2092400000000000    0.7482400000000000    0.0573750000000000 C
   0.1726300000000000    0.6716900000000000    0.0369300000000000 C
   0.1857925000000000    0.5869500000000000    0.0313300000000000 C
   0.2370875000000000    0.5828300000000000    0.0477250000000000 C
   0.0239450000000000    0.6594900000000000    0.0678200000000000 C
   0.1495275000000000    0.5042300000000000    0.0097500000000000 C
   0.1851600000000000    0.9389500000000000    0.1650700000000000 C
   0.2245750000000000    0.9391900000000000    0.1945250000000000 C
   0.2294500000000000    0.9994700000000000    0.2337850000000000 C
   0.1933550000000000    0.0588900000000000    0.2407300000000000 C
   0.1552500000000000    0.0554000000000000    0.2097350000000000 C
   0.1548350000000000    0.8251500000000001    0.3440000000000000 C
   0.1753200000000000    0.7435100000000000    0.3229900000000000 C
   0.2277150000000000    0.7483100000000000    0.3074750000000000 C
   0.2451650000000000    0.6717300000000000    0.2869300000000000 C
   0.2109475000000000    0.5870400000000000    0.2813150000000000 C
   0.1587725000000000    0.5829800000000001    0.2977750000000000 C
   0.1411300000000000    0.6596600000000000    0.3180200000000000 C
   0.2265500000000000    0.5042800000000000    0.2597150000000000 C
   0.0497575000000000    0.9394600000000000    0.4152250000000000 C
   0.0103900000000000    0.9394900000000000    0.4445400000000000 C
   0.0204000000000000    0.9996200000000000    0.4838500000000000 C
   0.0711925000000000    0.0591500000000000    0.4909550000000000 C
   0.1084450000000000    0.0558700000000000    0.4600950000000000 C
   0.1984000000000000    0.1749400000000000    0.4065300000000000 C
   0.2393700000000000    0.2566000000000000    0.4272700000000000 C
   0.0407550000000000    0.2517500000000000    0.4426050000000000 C
   0.0773625000000000    0.3283000000000000    0.4630550000000000 C
   0.0642025000000000    0.4130400000000000    0.4686550000000000 C
   0.0129025000000000    0.4171600000000000    0.4522650000000000 C
   0.2260500000000000    0.3405000000000000    0.4321700000000000 C
   0.1004650000000000    0.4957600000000000    0.4902350000000000 C
   0.0648325000000000    0.0610500000000000    0.3349200000000000 C
   0.0254225000000000    0.0608200000000000    0.3054600000000000 C
   0.0205325000000000    0.0005400000000000    0.2662050000000000 C
   0.0566250000000000    0.9410800000000000    0.2592650000000000 C
   0.0947300000000000    0.9445800000000000    0.2902600000000000 C
   0.3451550000000000    0.1748400000000000    0.1559850000000000 C
   0.3246700000000000    0.2564800000000000    0.1770050000000000 C
   0.2722750000000000    0.2516800000000000    0.1925150000000000 C
   0.2548250000000000    0.3282600000000000    0.2130650000000000 C
   0.2890425000000000    0.4129500000000000    0.2186800000000000 C
   0.3412175000000000    0.4170000000000000    0.2022150000000000 C
   0.3588600000000000    0.3403200000000000    0.1819750000000000 C
   0.2734425000000000    0.4957100000000000    0.2402850000000000 C
   0.4502350000000000    0.0605200000000000    0.0847650000000000 C
   0.4895975000000000    0.0605100000000000    0.0554450000000000 C
   0.4795875000000000    0.0003900000000000    0.0161400000000000 C
   0.4287950000000000    0.9408400000000000    0.0090300000000000 C
   0.3915450000000000    0.9441200000000000    0.0399000000000000 C
   0.3015900000000000    0.8250500000000000    0.0934650000000000 C
   0.2606250000000000    0.7433999999999999    0.0727200000000000 C
   0.4592400000000000    0.7482400000000000    0.0573750000000000 C
   0.4226300000000000    0.6716900000000000    0.0369300000000000 C
   0.4357925000000000    0.5869500000000000    0.0313300000000000 C
   0.4870875000000000    0.5828300000000000    0.0477250000000000 C
   0.2739450000000000    0.6594900000000000    0.0678200000000000 C
   0.3995275000000000    0.5042300000000000    0.0097500000000000 C
   0.4351600000000000    0.9389500000000000    0.1650700000000000 C
   0.4745750000000000    0.9391900000000000    0.1945250000000000 C
   0.4794500000000000    0.9994700000000000    0.2337850000000000 C
   0.4433550000000000    0.0588900000000000    0.2407300000000000 C
   0.4052500000000000    0.0554000000000000    0.2097350000000000 C
   0.4048350000000000    0.8251500000000001    0.3440000000000000 C
   0.4253200000000000    0.7435100000000000    0.3229900000000000 C
   0.4777150000000000    0.7483100000000000    0.3074750000000000 C
   0.4951650000000000    0.6717300000000000    0.2869300000000000 C
   0.4609475000000000    0.5870400000000000    0.2813150000000000 C
   0.4087725000000000    0.5829800000000001    0.2977750000000000 C
   0.3911300000000000    0.6596600000000000    0.3180200000000000 C
   0.4765500000000000    0.5042800000000000    0.2597150000000000 C
   0.2997575000000000    0.9394600000000000    0.4152250000000000 C
   0.2603900000000000    0.9394900000000000    0.4445400000000000 C
   0.2704000000000000    0.9996200000000000    0.4838500000000000 C
   0.3211925000000000    0.0591500000000000    0.4909550000000000 C
   0.3584450000000000    0.0558700000000000    0.4600950000000000 C
   0.4484000000000000    0.1749400000000000    0.4065300000000000 C
   0.4893700000000000    0.2566000000000000    0.4272700000000000 C
   0.2907550000000000    0.2517500000000000    0.4426050000000000 C
   0.3273625000000000    0.3283000000000000    0.4630550000000000 C
   0.3142025000000000    0.4130400000000000    0.4686550000000000 C
   0.2629025000000000    0.4171600000000000    0.4522650000000000 C
   0.4760500000000000    0.3405000000000000    0.4321700000000000 C
   0.3504650000000000    0.4957600000000000    0.4902350000000000 C
   0.3148325000000000    0.0610500000000000    0.3349200000000000 C
   0.2754225000000000    0.0608200000000000    0.3054600000000000 C
   0.2705325000000000    0.0005400000000000    0.2662050000000000 C
   0.3066250000000000    0.9410800000000000    0.2592650000000000 C
   0.3447300000000000    0.9445800000000000    0.2902600000000000 C
   0.5951550000000000    0.1748400000000000    0.1559850000000000 C
   0.5746700000000000    0.2564800000000000    0.1770050000000000 C
   0.5222750000000000    0.2516800000000000    0.1925150000000000 C
   0.5048250000000000    0.3282600000000000    0.2130650000000000 C
   0.5390425000000000    0.4129500000000000    0.2186800000000000 C
   0.5912175000000000    0.4170000000000000    0.2022150000000000 C
   0.6088600000000000    0.3403200000000000    0.1819750000000000 C
   0.5234425000000000    0.4957100000000000    0.2402850000000000 C
   0.7002349999999999    0.0605200000000000    0.0847650000000000 C
   0.7395975000000000    0.0605100000000000    0.0554450000000000 C
   0.7295875000000001    0.0003900000000000    0.0161400000000000 C
   0.6787950000000000    0.9408400000000000    0.0090300000000000 C
   0.6415450000000000    0.9441200000000000    0.0399000000000000 C
   0.5515900000000000    0.8250500000000000    0.0934650000000000 C
   0.5106250000000000    0.7433999999999999    0.0727200000000000 C
   0.7092400000000000    0.7482400000000000    0.0573750000000000 C
   0.6726300000000001    0.6716900000000000    0.0369300000000000 C
   0.6857925000000000    0.5869500000000000    0.0313300000000000 C
   0.7370875000000000    0.5828300000000000    0.0477250000000000 C
   0.5239450000000000    0.6594900000000000    0.0678200000000000 C
   0.6495275000000000    0.5042300000000000    0.0097500000000000 C
   0.6851600000000000    0.9389500000000000    0.1650700000000000 C
   0.7245750000000000    0.9391900000000000    0.1945250000000000 C
   0.7294499999999999    0.9994700000000000    0.2337850000000000 C
   0.6933549999999999    0.0588900000000000    0.2407300000000000 C
   0.6552500000000000    0.0554000000000000    0.2097350000000000 C
   0.6548350000000001    0.8251500000000001    0.3440000000000000 C
   0.6753200000000000    0.7435100000000000    0.3229900000000000 C
   0.7277150000000000    0.7483100000000000    0.3074750000000000 C
   0.7451650000000000    0.6717300000000000    0.2869300000000000 C
   0.7109475000000001    0.5870400000000000    0.2813150000000000 C
   0.6587725000000000    0.5829800000000001    0.2977750000000000 C
   0.6411300000000000    0.6596600000000000    0.3180200000000000 C
   0.7265500000000000    0.5042800000000000    0.2597150000000000 C
   0.5497575000000000    0.9394600000000000    0.4152250000000000 C
   0.5103900000000000    0.9394900000000000    0.4445400000000000 C
   0.5204000000000000    0.9996200000000000    0.4838500000000000 C