H1 O1
1.0
  30.0296043260376102    0.0000000000000000   -5.8284615484382396
  -2.5308211213569636   37.2752280758178216  -12.9995261585742430
   0.0000000000000000    0.0000000000000000   30.0399999999999991
H O
1 1
direct
   0.2240403383511672    0.0544206156630137    0.7737575790997143 H
   0.2326000000000000    0.0696300000000000    0.7564649999999999 O
