Sc128 H508 C1016 O508
1.0
  29.5759995495317618    0.0000000000000000    0.0051619857694927
  -0.0442627330081092   36.2299728238146415   -0.0031616639359724
   0.0000000000000000    0.0000000000000000   38.9720000000000013
Sc H C O
128 508 1016 508
direct
   0.1622400000000000    0.3750650000000000    0.2498950000000000 Sc
   0.4122250000000000    0.1250550000000000    0.2498900000000000 Sc
   0.4122350000000000    0.3750550000000000    0.2498750000000000 Sc
   0.0372200000000000    0.1249550000000000    0.2500850000000000 Sc
   0.0372300000000000    0.3749650000000000    0.2501000000000000 Sc
   0.2872100000000000    0.1249650000000000    0.2501050000000000 Sc
   0.2872400000000000    0.3749550000000000    0.2500850000000000 Sc
   0.1621350000000000    0.2499850000000000    0.4998500000000000 Sc
   0.1621400000000000    0.4999850000000000    0.4998400000000000 Sc
   0.4121400000000000    0.2499800000000000    0.4998450000000000 Sc
   0.4121450000000000    0.4999850000000000    0.4998550000000000 Sc
   0.0371450000000000    0.0000300000000000    0.0001200000000000 Sc
   0.0371350000000000    0.2500250000000000    0.0001450000000000 Sc
   0.2871450000000000    0.0000250000000000    0.0001400000000000 Sc
   0.2871400000000000    0.2500300000000000    0.0001250000000000 Sc
   0.1622100000000000    0.1250450000000000    0.2498600000000000 Sc
   0.6622399999999999    0.3750650000000000    0.2498950000000000 Sc
   0.9122250000000001    0.1250550000000000    0.2498900000000000 Sc
   0.9122350000000000    0.3750550000000000    0.2498750000000000 Sc
   0.5372200000000000    0.1249550000000000    0.2500850000000000 Sc
   0.5372300000000000    0.3749650000000000    0.2501000000000000 Sc
   0.7872100000000000    0.1249650000000000    0.2501050000000000 Sc
   0.7872399999999999    0.3749550000000000    0.2500850000000000 Sc
   0.6621350000000000    0.2499850000000000    0.4998500000000000 Sc
   0.6621400000000000    0.4999850000000000    0.4998400000000000 Sc
   0.9121400000000000    0.2499800000000000    0.4998450000000000 Sc
   0.9121450000000000    0.4999850000000000    0.4998550000000000 Sc
   0.5371450000000000    0.0000300000000000    0.0001200000000000 Sc
   0.5371350000000000    0.2500250000000000    0.0001450000000000 Sc
   0.7871450000000000    0.0000250000000000    0.0001400000000000 Sc
   0.7871400000000000    0.2500300000000000    0.0001250000000000 Sc
   0.6622100000000000    0.1250450000000000    0.2498600000000000 Sc
   0.1622400000000000    0.8750650000000000    0.2498950000000000 Sc
   0.4122250000000000    0.6250550000000000    0.2498900000000000 Sc
   0.4122350000000000    0.8750550000000000    0.2498750000000000 Sc
   0.0372200000000000    0.6249550000000000    0.2500850000000000 Sc
   0.0372300000000000    0.8749650000000000    0.2501000000000000 Sc
   0.2872100000000000    0.6249650000000000    0.2501050000000000 Sc
   0.2872400000000000    0.8749549999999999    0.2500850000000000 Sc
   0.1621350000000000    0.7499850000000000    0.4998500000000000 Sc
   0.1621400000000000    0.9999850000000000    0.4998400000000000 Sc
   0.4121400000000000    0.7499800000000000    0.4998450000000000 Sc
   0.4121450000000000    0.9999850000000000    0.4998550000000000 Sc
   0.0371450000000000    0.5000300000000000    0.0001200000000000 Sc
   0.0371350000000000    0.7500249999999999    0.0001450000000000 Sc
   0.2871450000000000    0.5000250000000001    0.0001400000000000 Sc
   0.2871400000000000    0.7500300000000000    0.0001250000000000 Sc
   0.1622100000000000    0.6250450000000000    0.2498600000000000 Sc
   0.6622399999999999    0.8750650000000000    0.2498950000000000 Sc
   0.9122250000000001    0.6250550000000000    0.2498900000000000 Sc
   0.9122350000000000    0.8750550000000000    0.2498750000000000 Sc
   0.5372200000000000    0.6249550000000000    0.2500850000000000 Sc
   0.5372300000000000    0.8749650000000000    0.2501000000000000 Sc
   0.7872100000000000    0.6249650000000000    0.2501050000000000 Sc
   0.7872399999999999    0.8749549999999999    0.2500850000000000 Sc
   0.6621350000000000    0.7499850000000000    0.4998500000000000 Sc
   0.6621400000000000    0.9999850000000000    0.4998400000000000 Sc
   0.9121400000000000    0.7499800000000000    0.4998450000000000 Sc
   0.9121450000000000    0.9999850000000000    0.4998550000000000 Sc
   0.5371450000000000    0.5000300000000000    0.0001200000000000 Sc
   0.5371350000000000    0.7500249999999999    0.0001450000000000 Sc
   0.7871450000000000    0.5000250000000001    0.0001400000000000 Sc
   0.7871400000000000    0.7500300000000000    0.0001250000000000 Sc
   0.6622100000000000    0.6250450000000000    0.2498600000000000 Sc
   0.1622400000000000    0.3750650000000000    0.7498950000000000 Sc
   0.4122250000000000    0.1250550000000000    0.7498899999999999 Sc
   0.4122350000000000    0.3750550000000000    0.7498750000000001 Sc
   0.0372200000000000    0.1249550000000000    0.7500850000000000 Sc
   0.0372300000000000    0.3749650000000000    0.7501000000000000 Sc
   0.2872100000000000    0.1249650000000000    0.7501050000000000 Sc
   0.2872400000000000    0.3749550000000000    0.7500850000000000 Sc
   0.1621350000000000    0.2499850000000000    0.9998500000000000 Sc
   0.1621400000000000    0.4999850000000000    0.9998400000000001 Sc
   0.4121400000000000    0.2499800000000000    0.9998450000000000 Sc
   0.4121450000000000    0.4999850000000000    0.9998549999999999 Sc
   0.0371450000000000    0.0000300000000000    0.5001200000000000 Sc
   0.0371350000000000    0.2500250000000000    0.5001450000000000 Sc
   0.2871450000000000    0.0000250000000000    0.5001400000000000 Sc
   0.2871400000000000    0.2500300000000000    0.5001250000000000 Sc
   0.1622100000000000    0.1250450000000000    0.7498600000000000 Sc
   0.6622399999999999    0.3750650000000000    0.7498950000000000 Sc
   0.9122250000000001    0.1250550000000000    0.7498899999999999 Sc
   0.9122350000000000    0.3750550000000000    0.7498750000000001 Sc
   0.5372200000000000    0.1249550000000000    0.7500850000000000 Sc
   0.5372300000000000    0.3749650000000000    0.7501000000000000 Sc
   0.7872100000000000    0.1249650000000000    0.7501050000000000 Sc
   0.7872399999999999    0.3749550000000000    0.7500850000000000 Sc
   0.6621350000000000    0.2499850000000000    0.9998500000000000 Sc
   0.6621400000000000    0.4999850000000000    0.9998400000000001 Sc
   0.9121400000000000    0.2499800000000000    0.9998450000000000 Sc
   0.9121450000000000    0.4999850000000000    0.9998549999999999 Sc
   0.5371450000000000    0.0000300000000000    0.5001200000000000 Sc
   0.5371350000000000    0.2500250000000000    0.5001450000000000 Sc
   0.7871450000000000    0.0000250000000000    0.5001400000000000 Sc
   0.7871400000000000    0.2500300000000000    0.5001250000000000 Sc
   0.6622100000000000    0.1250450000000000    0.7498600000000000 Sc
   0.1622400000000000    0.8750650000000000    0.7498950000000000 Sc
   0.4122250000000000    0.6250550000000000    0.7498899999999999 Sc
   0.4122350000000000    0.8750550000000000    0.7498750000000001 Sc
   0.0372200000000000    0.6249550000000000    0.7500850000000000 Sc
   0.0372300000000000    0.8749650000000000    0.7501000000000000 Sc
   0.2872100000000000    0.6249650000000000    0.7501050000000000 Sc
   0.2872400000000000    0.8749549999999999    0.7500850000000000 Sc
   0.1621350000000000    0.7499850000000000    0.9998500000000000 Sc
   0.1621400000000000    0.9999850000000000    0.9998400000000001 Sc
   0.4121400000000000    0.7499800000000000    0.9998450000000000 Sc
   0.4121450000000000    0.9999850000000000    0.9998549999999999 Sc
   0.0371450000000000    0.5000300000000000    0.5001200000000000 Sc
   0.0371350000000000    0.7500249999999999    0.5001450000000000 Sc
   0.2871450000000000    0.5000250000000001    0.5001400000000000 Sc
   0.2871400000000000    0.7500300000000000    0.5001250000000000 Sc
   0.1622100000000000    0.6250450000000000    0.7498600000000000 Sc
   0.6622399999999999    0.8750650000000000    0.7498950000000000 Sc
   0.9122250000000001    0.6250550000000000    0.7498899999999999 Sc
   0.9122350000000000    0.8750550000000000    0.7498750000000001 Sc
   0.5372200000000000    0.6249550000000000    0.7500850000000000 Sc
   0.5372300000000000    0.8749650000000000    0.7501000000000000 Sc
   0.7872100000000000    0.6249650000000000    0.7501050000000000 Sc
   0.7872399999999999    0.8749549999999999    0.7500850000000000 Sc
   0.6621350000000000    0.7499850000000000    0.9998500000000000 Sc
   0.6621400000000000    0.9999850000000000    0.9998400000000001 Sc
   0.9121400000000000    0.7499800000000000    0.9998450000000000 Sc
   0.9121450000000000    0.9999850000000000    0.9998549999999999 Sc
   0.5371450000000000    0.5000300000000000    0.5001200000000000 Sc
   0.5371350000000000    0.7500249999999999    0.5001450000000000 Sc
   0.7871450000000000    0.5000250000000001    0.5001400000000000 Sc
   0.7871400000000000    0.7500300000000000    0.5001250000000000 Sc
   0.6622100000000000    0.6250450000000000    0.7498600000000000 Sc
   0.0273050000000000    0.0723250000000000    0.3449450000000000 H
   0.0272950000000000    0.3223350000000000    0.3449550000000000 H
   0.2773000000000000    0.0723300000000000    0.3449700000000000 H
   0.2773100000000000    0.3223300000000000    0.3449500000000000 H
   0.0269900000000000    0.0536600000000000    0.4071300000000000 H
   0.0269650000000000    0.3036700000000000    0.4071400000000000 H
   0.2769900000000000    0.0536650000000000    0.4071500000000000 H
   0.2769900000000000    0.3036750000000000    0.4071350000000000 H
   0.1720800000000000    0.0576550000000000    0.4085500000000000 H
   0.1720550000000000    0.3076500000000000    0.4085800000000000 H
   0.4220800000000000    0.0576500000000000    0.4085700000000000 H
   0.4220850000000000    0.3076550000000000    0.4085600000000000 H
   0.1724000000000000    0.0763350000000000    0.3463800000000000 H
   0.1723900000000000    0.3263400000000000    0.3464050000000000 H
   0.4223950000000000    0.0763400000000000    0.3463950000000000 H
   0.4224100000000000    0.3263300000000000    0.3463850000000000 H
   0.1523600000000000    0.1776450000000000    0.1551250000000000 H
   0.1523350000000000    0.4276450000000000    0.1551300000000000 H
   0.4023300000000000    0.1776350000000000    0.1551250000000000 H
   0.4023700000000000    0.4276550000000000    0.1551200000000000 H
   0.1519500000000000    0.1963100000000000    0.0929400000000000 H
   0.1519300000000000    0.4463050000000000    0.0929000000000000 H
   0.4019200000000000    0.1963000000000000    0.0929400000000000 H
   0.4019700000000000    0.4463150000000000    0.0929350000000000 H
   0.0469950000000000    0.1924000000000000    0.0913100000000000 H
   0.0470450000000000    0.4423950000000000    0.0913100000000000 H
   0.2970300000000000    0.1923950000000000    0.0913000000000000 H
   0.2970100000000000    0.4424000000000000    0.0913100000000000 H
   0.0474050000000000    0.1737150000000000    0.1534850000000000 H
   0.0474450000000000    0.4237050000000000    0.1534800000000000 H
   0.2974450000000000    0.1737000000000000    0.1534700000000000 H
   0.2974200000000000    0.4237150000000000    0.1534800000000000 H
   0.0273550000000000    0.0526950000000000    0.0949250000000000 H
   0.0273700000000000    0.3027000000000000    0.0949700000000000 H
   0.2773650000000000    0.0526800000000000    0.0949600000000000 H
   0.2773600000000000    0.3026950000000000    0.0949500000000000 H
   0.0270650000000000    0.0713600000000000    0.1571000000000000 H
   0.0271150000000000    0.3213700000000000    0.1571550000000000 H
   0.2770900000000000    0.0713500000000000    0.1570000000000000 H
   0.2771000000000000    0.3213550000000000    0.1571000000000000 H
   0.1721450000000000    0.0673450000000000    0.1585750000000000 H
   0.1721950000000000    0.3173500000000000    0.1585750000000000 H
   0.4221650000000000    0.0673500000000000    0.1585900000000000 H
   0.4221800000000000    0.3173450000000000    0.1585650000000000 H
   0.1724400000000000    0.0486600000000000    0.0964000000000000 H
   0.1724500000000000    0.2986550000000000    0.0963950000000000 H
   0.4224450000000000    0.0486600000000000    0.0964000000000000 H
   0.4224450000000000    0.2986650000000000    0.0963850000000000 H
   0.1523000000000000    0.1973150000000000    0.4050000000000000 H
   0.1523450000000000    0.4472950000000000    0.4049750000000000 H
   0.4023400000000000    0.1973050000000000    0.4049800000000000 H
   0.4023150000000000    0.4473050000000000    0.4000000000000000 H
   0.1520300000000000    0.1786500000000000    0.3428200000000000 H
   0.1521400000000000    0.4286300000000000    0.3427900000000000 H
   0.4021250000000000    0.1786350000000000    0.3427950000000000 H
   0.4020700000000000    0.4286400000000000    0.3428100000000000 H
   0.0472100000000000    0.1826850000000000    0.3414500000000000 H
   0.0471550000000000    0.4326850000000000    0.3414300000000000 H
   0.2971200000000000    0.1826750000000000    0.3414100000000000 H
   0.2972350000000000    0.4326900000000000    0.3414600000000000 H
   0.0474300000000000    0.2013750000000000    0.4036300000000000 H
   0.0474000000000000    0.4513700000000000    0.4036100000000000 H
   0.2973950000000000    0.2013650000000000    0.4035850000000000 H
   0.2974400000000000    0.4513800000000000    0.4036400000000000 H
   0.5273050000000000    0.0723250000000000    0.3449450000000000 H
   0.5272950000000000    0.3223350000000000    0.3449550000000000 H
   0.7773000000000000    0.0723300000000000    0.3449700000000000 H
   0.7773099999999999    0.3223300000000000    0.3449500000000000 H
   0.5269900000000000    0.0536600000000000    0.4071300000000000 H
   0.5269650000000000    0.3036700000000000    0.4071400000000000 H
   0.7769900000000001    0.0536650000000000    0.4071500000000000 H
   0.7769900000000001    0.3036750000000000    0.4071350000000000 H
   0.6720800000000000    0.0576550000000000    0.4085500000000000 H
   0.6720550000000001    0.3076500000000000    0.4085800000000000 H
   0.9220800000000000    0.0576500000000000    0.4085700000000000 H
   0.9220850000000000    0.3076550000000000    0.4085600000000000 H
   0.6724000000000000    0.0763350000000000    0.3463800000000000 H
   0.6723900000000000    0.3263400000000000    0.3464050000000000 H
   0.9223950000000001    0.0763400000000000    0.3463950000000000 H
   0.9224100000000000    0.3263300000000000    0.3463850000000000 H
   0.6523600000000001    0.1776450000000000    0.1551250000000000 H
   0.6523350000000000    0.4276450000000000    0.1551300000000000 H
   0.9023300000000001    0.1776350000000000    0.1551250000000000 H
   0.9023700000000000    0.4276550000000000    0.1551200000000000 H
   0.6519500000000000    0.1963100000000000    0.0929400000000000 H
   0.6519300000000000    0.4463050000000000    0.0929000000000000 H
   0.9019200000000001    0.1963000000000000    0.0929400000000000 H
   0.9019699999999999    0.4463150000000000    0.0929350000000000 H
   0.5469950000000000    0.1924000000000000    0.0913100000000000 H
   0.5470450000000000    0.4423950000000000    0.0913100000000000 H
   0.7970300000000000    0.1923950000000000    0.0913000000000000 H
   0.7970100000000000    0.4424000000000000    0.0913100000000000 H
   0.5474050000000000    0.1737150000000000    0.1534850000000000 H
   0.5474450000000000    0.4237050000000000    0.1534800000000000 H
   0.7974450000000000    0.1737000000000000    0.1534700000000000 H
   0.7974200000000000    0.4237150000000000    0.1534800000000000 H
   0.5273550000000000    0.0526950000000000    0.0949250000000000 H
   0.5273700000000000    0.3027000000000000    0.0949700000000000 H
   0.7773650000000000    0.0526800000000000    0.0949600000000000 H
   0.7773600000000001    0.3026950000000000    0.0949500000000000 H
   0.5270650000000000    0.0713600000000000    0.1571000000000000 H
   0.5271150000000000    0.3213700000000000    0.1571550000000000 H
   0.7770900000000001    0.0713500000000000    0.1570000000000000 H
   0.7771000000000000    0.3213550000000000    0.1571000000000000 H
   0.6721450000000000    0.0673450000000000    0.1585750000000000 H
   0.6721950000000000    0.3173500000000000    0.1585750000000000 H
   0.9221650000000000    0.0673500000000000    0.1585900000000000 H
   0.9221800000000000    0.3173450000000000    0.1585650000000000 H
   0.6724400000000000    0.0486600000000000    0.0964000000000000 H
   0.6724500000000000    0.2986550000000000    0.0963950000000000 H
   0.9224450000000000    0.0486600000000000    0.0964000000000000 H
   0.9224450000000000    0.2986650000000000    0.0963850000000000 H
   0.6523000000000000    0.1973150000000000    0.4050000000000000 H
   0.6523450000000000    0.4472950000000000    0.4049750000000000 H
   0.9023399999999999    0.1973050000000000    0.4049800000000000 H
   0.9023150000000000    0.4473050000000000    0.4000000000000000 H
   0.6520300000000000    0.1786500000000000    0.3428200000000000 H
   0.6521399999999999    0.4286300000000000    0.3427900000000000 H
   0.9021250000000001    0.1786350000000000    0.3427950000000000 H
   0.9020699999999999    0.4286400000000000    0.3428100000000000 H
   0.5472100000000000    0.1826850000000000    0.3414500000000000 H
   0.5471550000000001    0.4326850000000000    0.3414300000000000 H
   0.7971200000000001    0.1826750000000000    0.3414100000000000 H
   0.7972350000000000    0.4326900000000000    0.3414600000000000 H
   0.5474300000000000    0.2013750000000000    0.4036300000000000 H
   0.5474000000000000    0.4513700000000000    0.4036100000000000 H
   0.7973950000000001    0.2013650000000000    0.4035850000000000 H
   0.7974399999999999    0.4513800000000000    0.4036400000000000 H
   0.0273050000000000    0.5723250000000000    0.3449450000000000 H
   0.0272950000000000    0.8223350000000000    0.3449550000000000 H
   0.2773000000000000    0.5723300000000000    0.3449700000000000 H
   0.2773100000000000    0.8223300000000000    0.3449500000000000 H
   0.0269900000000000    0.5536600000000000    0.4071300000000000 H
   0.0269650000000000    0.8036700000000000    0.4071400000000000 H
   0.2769900000000000    0.5536650000000000    0.4071500000000000 H
   0.2769900000000000    0.8036749999999999    0.4071350000000000 H
   0.1720800000000000    0.5576550000000000    0.4085500000000000 H
   0.1720550000000000    0.8076500000000000    0.4085800000000000 H
   0.4220800000000000    0.5576500000000000    0.4085700000000000 H
   0.4220850000000000    0.8076550000000000    0.4085600000000000 H
   0.1724000000000000    0.5763350000000000    0.3463800000000000 H
   0.1723900000000000    0.8263400000000001    0.3464050000000000 H
   0.4223950000000000    0.5763400000000000    0.3463950000000000 H
   0.4224100000000000    0.8263300000000000    0.3463850000000000 H
   0.1523600000000000    0.6776450000000001    0.1551250000000000 H
   0.4023300000000000    0.6776350000000000    0.1551250000000000 H
   0.4023700000000000    0.9276550000000000    0.1551200000000000 H
   0.1519500000000000    0.6963100000000000    0.0929400000000000 H
   0.4019200000000000    0.6963000000000000    0.0929400000000000 H
   0.4019700000000000    0.9463150000000000    0.0929350000000000 H
   0.0469950000000000    0.6924000000000000    0.0913100000000000 H
   0.0470450000000000    0.9423950000000000    0.0913100000000000 H
   0.2970300000000000    0.6923950000000000    0.0913000000000000 H
   0.0474050000000000    0.6737150000000001    0.1534850000000000 H
   0.0474450000000000    0.9237050000000000    0.1534800000000000 H
   0.2974450000000000    0.6737000000000000    0.1534700000000000 H
   0.0273550000000000    0.5526950000000000    0.0949250000000000 H
   0.0273700000000000    0.8027000000000000    0.0949700000000000 H
   0.2773650000000000    0.5526799999999999    0.0949600000000000 H
   0.2773600000000000    0.8026949999999999    0.0949500000000000 H
   0.0270650000000000    0.5713600000000000    0.1571000000000000 H
   0.0271150000000000    0.8213699999999999    0.1571550000000000 H
   0.2770900000000000    0.5713500000000000    0.1570000000000000 H
   0.2771000000000000    0.8213550000000001    0.1571000000000000 H
   0.1721450000000000    0.5673450000000000    0.1585750000000000 H
   0.1721950000000000    0.8173500000000000    0.1585750000000000 H
   0.4221650000000000    0.5673500000000000    0.1585900000000000 H
   0.4221800000000000    0.8173450000000000    0.1585650000000000 H
   0.1724400000000000    0.5486600000000000    0.0964000000000000 H
   0.1724500000000000    0.7986550000000000    0.0963950000000000 H
   0.4224450000000000    0.5486600000000000    0.0964000000000000 H
   0.4224450000000000    0.7986650000000000    0.0963850000000000 H
   0.1523000000000000    0.6973150000000000    0.4050000000000000 H
   0.1523450000000000    0.9472950000000000    0.4049750000000000 H
   0.4023400000000000    0.6973050000000001    0.4049800000000000 H
   0.4023150000000000    0.9473050000000001    0.4000000000000000 H
   0.1520300000000000    0.6786500000000000    0.3428200000000000 H
   0.1521400000000000    0.9286300000000001    0.3427900000000000 H
   0.4021250000000000    0.6786350000000000    0.3427950000000000 H
   0.4020700000000000    0.9286400000000000    0.3428100000000000 H
   0.0472100000000000    0.6826850000000000    0.3414500000000000 H
   0.0471550000000000    0.9326850000000000    0.3414300000000000 H
   0.2971200000000000    0.6826750000000000    0.3414100000000000 H
   0.2972350000000000    0.9326900000000000    0.3414600000000000 H
   0.0474300000000000    0.7013750000000000    0.4036300000000000 H
   0.0474000000000000    0.9513700000000000    0.4036100000000000 H
   0.2973950000000000    0.7013650000000000    0.4035850000000000 H
   0.2974400000000000    0.9513800000000000    0.4036400000000000 H
   0.5273050000000000    0.5723250000000000    0.3449450000000000 H
   0.5272950000000000    0.8223350000000000    0.3449550000000000 H
   0.7773000000000000    0.5723300000000000    0.3449700000000000 H
   0.7773099999999999    0.8223300000000000    0.3449500000000000 H
   0.5269900000000000    0.5536600000000000    0.4071300000000000 H
   0.5269650000000000    0.8036700000000000    0.4071400000000000 H
   0.7769900000000001    0.5536650000000000    0.4071500000000000 H
   0.7769900000000001    0.8036749999999999    0.4071350000000000 H
   0.6720800000000000    0.5576550000000000    0.4085500000000000 H
   0.6720550000000001    0.8076500000000000    0.4085800000000000 H
   0.9220800000000000    0.5576500000000000    0.4085700000000000 H
   0.9220850000000000    0.8076550000000000    0.4085600000000000 H
   0.6724000000000000    0.5763350000000000    0.3463800000000000 H
   0.6723900000000000    0.8263400000000001    0.3464050000000000 H
   0.9223950000000001    0.5763400000000000    0.3463950000000000 H
   0.9224100000000000    0.8263300000000000    0.3463850000000000 H
   0.6523600000000001    0.6776450000000001    0.1551250000000000 H
   0.6523350000000000    0.9276450000000001    0.1551300000000000 H
   0.9023300000000001    0.6776350000000000    0.1551250000000000 H
   0.9023700000000000    0.9276550000000000    0.1551200000000000 H
   0.6519500000000000    0.6963100000000000    0.0929400000000000 H
   0.6519300000000000    0.9463050000000000    0.0929000000000000 H
   0.9019200000000001    0.6963000000000000    0.0929400000000000 H
   0.9019699999999999    0.9463150000000000    0.0929350000000000 H
   0.5469950000000000    0.6924000000000000    0.0913100000000000 H
   0.5470450000000000    0.9423950000000000    0.0913100000000000 H
   0.7970300000000000    0.6923950000000000    0.0913000000000000 H
   0.7970100000000000    0.9424000000000000    0.0913100000000000 H
   0.5474050000000000    0.6737150000000001    0.1534850000000000 H
   0.5474450000000000    0.9237050000000000    0.1534800000000000 H
   0.7974450000000000    0.6737000000000000    0.1534700000000000 H
   0.7974200000000000    0.9237150000000001    0.1534800000000000 H
   0.5273550000000000    0.5526950000000000    0.0949250000000000 H
   0.5273700000000000    0.8027000000000000    0.0949700000000000 H
   0.7773650000000000    0.5526799999999999    0.0949600000000000 H
   0.7773600000000001    0.8026949999999999    0.0949500000000000 H
   0.5270650000000000    0.5713600000000000    0.1571000000000000 H
   0.5271150000000000    0.8213699999999999    0.1571550000000000 H
   0.7770900000000001    0.5713500000000000    0.1570000000000000 H
   0.7771000000000000    0.8213550000000001    0.1571000000000000 H
   0.6721450000000000    0.5673450000000000    0.1585750000000000 H
   0.6721950000000000    0.8173500000000000    0.1585750000000000 H
   0.9221650000000000    0.5673500000000000    0.1585900000000000 H
   0.9221800000000000    0.8173450000000000    0.1585650000000000 H
   0.6724400000000000    0.5486600000000000    0.0964000000000000 H
   0.6724500000000000    0.7986550000000000    0.0963950000000000 H
   0.9224450000000000    0.5486600000000000    0.0964000000000000 H
   0.9224450000000000    0.7986650000000000    0.0963850000000000 H
   0.6523000000000000    0.6973150000000000    0.4050000000000000 H
   0.6523450000000000    0.9472950000000000    0.4049750000000000 H
   0.9023399999999999    0.6973050000000001    0.4049800000000000 H
   0.9023150000000000    0.9473050000000001    0.4000000000000000 H
   0.6520300000000000    0.6786500000000000    0.3428200000000000 H
   0.6521399999999999    0.9286300000000001    0.3427900000000000 H
   0.9021250000000001    0.6786350000000000    0.3427950000000000 H
   0.9020699999999999    0.9286400000000000    0.3428100000000000 H
   0.5472100000000000    0.6826850000000000    0.3414500000000000 H
   0.5471550000000001    0.9326850000000000    0.3414300000000000 H
   0.7971200000000001    0.6826750000000000    0.3414100000000000 H
   0.7972350000000000    0.9326900000000000    0.3414600000000000 H
   0.5474300000000000    0.7013750000000000    0.4036300000000000 H
   0.5474000000000000    0.9513700000000000    0.4036100000000000 H
   0.7973950000000001    0.7013650000000000    0.4035850000000000 H
   0.7974399999999999    0.9513800000000000    0.4036400000000000 H
   0.0273050000000000    0.0723250000000000    0.8449450000000001 H
   0.0272950000000000    0.3223350000000000    0.8449550000000000 H
   0.2773000000000000    0.0723300000000000    0.8449700000000000 H
   0.2773100000000000    0.3223300000000000    0.8449500000000000 H
   0.0269900000000000    0.0536600000000000    0.9071300000000000 H
   0.0269650000000000    0.3036700000000000    0.9071400000000001 H
   0.2769900000000000    0.0536650000000000    0.9071500000000000 H
   0.2769900000000000    0.3036750000000000    0.9071350000000000 H
   0.1720800000000000    0.0576550000000000    0.9085500000000000 H
   0.1720550000000000    0.3076500000000000    0.9085799999999999 H
   0.4220800000000000    0.0576500000000000    0.9085700000000000 H
   0.4220850000000000    0.3076550000000000    0.9085600000000000 H
   0.1724000000000000    0.0763350000000000    0.8463800000000000 H
   0.1723900000000000    0.3263400000000000    0.8464050000000001 H
   0.4223950000000000    0.0763400000000000    0.8463950000000000 H
   0.4224100000000000    0.3263300000000000    0.8463849999999999 H
   0.1523600000000000    0.1776450000000000    0.6551250000000000 H
   0.1523350000000000    0.4276450000000000    0.6551300000000000 H
   0.4023300000000000    0.1776350000000000    0.6551250000000000 H
   0.4023700000000000    0.4276550000000000    0.6551200000000000 H
   0.1519500000000000    0.1963100000000000    0.5929400000000000 H
   0.1519300000000000    0.4463050000000000    0.5929000000000000 H
   0.4019200000000000    0.1963000000000000    0.5929400000000000 H
   0.4019700000000000    0.4463150000000000    0.5929350000000000 H
   0.0469950000000000    0.1924000000000000    0.5913100000000000 H
   0.0470450000000000    0.4423950000000000    0.5913100000000000 H
   0.2970300000000000    0.1923950000000000    0.5913000000000000 H
   0.2970100000000000    0.4424000000000000    0.5913100000000000 H
   0.0474050000000000    0.1737150000000000    0.6534850000000000 H
   0.0474450000000000    0.4237050000000000    0.6534800000000001 H
   0.2974450000000000    0.1737000000000000    0.6534700000000000 H
   0.2974200000000000    0.4237150000000000    0.6534800000000001 H
   0.0273550000000000    0.0526950000000000    0.5949250000000000 H
   0.0273700000000000    0.3027000000000000    0.5949700000000000 H
   0.2773650000000000    0.0526800000000000    0.5949600000000000 H
   0.2773600000000000    0.3026950000000000    0.5949500000000000 H
   0.0270650000000000    0.0713600000000000    0.6571000000000000 H
   0.0271150000000000    0.3213700000000000    0.6571549999999999 H
   0.2770900000000000    0.0713500000000000    0.6570000000000000 H
   0.2771000000000000    0.3213550000000000    0.6571000000000000 H
   0.1721450000000000    0.0673450000000000    0.6585750000000000 H
   0.1721950000000000    0.3173500000000000    0.6585750000000000 H
   0.4221650000000000    0.0673500000000000    0.6585900000000000 H
   0.4221800000000000    0.3173450000000000    0.6585650000000001 H
   0.1724400000000000    0.0486600000000000    0.5964000000000000 H
   0.1724500000000000    0.2986550000000000    0.5963950000000000 H
   0.4224450000000000    0.0486600000000000    0.5964000000000000 H
   0.4224450000000000    0.2986650000000000    0.5963849999999999 H
   0.1523000000000000    0.1973150000000000    0.9050000000000000 H
   0.1523450000000000    0.4472950000000000    0.9049750000000000 H
   0.4023400000000000    0.1973050000000000    0.9049800000000000 H
   0.4023150000000000    0.4473050000000000    0.9000000000000000 H
   0.1520300000000000    0.1786500000000000    0.8428200000000000 H
   0.1521400000000000    0.4286300000000000    0.8427899999999999 H
   0.4021250000000000    0.1786350000000000    0.8427950000000000 H