H6 O4
1.0
  31.1329182968943101    0.0000000000000000    9.0154945687357362
   1.4974446877716063   10.2717637569927263    3.0138031998780650
   0.0000000000000000    0.0000000000000000   36.7779999999999987
H O
6 4
direct
   0.3867148244667812    0.5803177920138425    0.3183158608425500 H
   0.4601129469857681    0.4596689712102693    0.2215087483170062 H
   0.4229755729498753    0.5184224832091321    0.2681272891029406 H
   0.2515538572215315    0.4763656292021800    0.2228677359305180 H
   0.2787033266276662    0.4220808357867151    0.1808758389336079 H
   0.2120047097422768    0.5461658333648818    0.2774156012654097 H
   0.4111533333333333    0.5524000000000000    0.2987200000000000 O
   0.4506833333333333    0.4867700000000000    0.2459100000000000 O
   0.2552200000000000    0.4472200000000000    0.2016250000000000 O
   0.2159966666666666    0.5144300000000001    0.2542850000000000 O
