H2 C4 O4
1.0
  35.5931715891814164    0.0000000000000000    0.7928052869958124
   0.5976162034968390    9.8567065055917062    1.2767304868076752
   0.0000000000000000    0.0000000000000000   20.3460000000000001
H C O
2 4 4
direct
   0.0928100000000000    0.0866300000000000    0.4628100000000000 H
   0.1571900000000000    0.9133500000000000    0.5371800000000000 H
   0.1368075000000000    0.9758200000000000    0.4094700000000000 C
   0.1181950000000000    0.0197500000000000    0.4696000000000000 C
   0.1131975000000000    0.0241800000000000    0.5905250000000000 C
   0.1318075000000000    0.9802400000000000    0.5303949999999999 C
   0.1661825000000000    0.8948500000000000    0.4170500000000000 O
   0.1238925000000000    0.0213200000000000    0.3523050000000000 O
   0.0838200000000000    0.1051500000000000    0.5829400000000000 O
   0.1261100000000000    0.9786800000000000    0.6476900000000000 O
