H4 O2
1.0
  14.5370725293160419    0.0000000000000000    0.7987510734921371
  -0.0269485630008146   15.9049764698023939    0.0047191084287635
   0.0000000000000000    0.0000000000000000   37.0120000000000005
H O
4 2
direct
   0.7481628698550343    1.0037192452614228    0.4390942413238157 H
   0.7329996320246035    0.9671383414078344    0.4004002385643591 H
   0.2518025238364421   -0.0037144609910046    0.3109039129863734 H
   0.2669547878750810    0.0328610971255594    0.3496010088661898 H
   0.7643100000000000    0.9570900000000000    0.4227250000000000 O
   0.2356500000000000    0.0429100000000000    0.3272750000000000 O
