H6 O4
1.0
  29.1299423399806834    0.0000000000000000   -0.0579592046245024
  -0.0026520441879541   31.7092348469180081   -0.2202689030761704
   0.0000000000000000    0.0000000000000000   37.7120000000000033
H O
6 4
direct
   0.4487620260230012    0.6666804538778632    0.2256902963426159 H
   0.5746392649893124    0.6222056428179877    0.2232627070112485 H
   0.5108077019262548    0.6401249427242137    0.2211154180525759 H
   0.4195150240665332    0.5964891214878176    0.0784890803958689 H
   0.5435540699250212    0.5480333914225800    0.0809974706941111 H
   0.4835767860224962    0.5734853158044831    0.0846349845330742 H
   0.4800850000000000    0.6683399999999999    0.2343650000000000 O
   0.5527100000000000    0.6423449999999999    0.2327200000000000 O
   0.4436200000000000    0.5816050000000000    0.0658600000000000 O
   0.5155950000000000    0.5537150000000000    0.0678600000000000 O
