Zn128 H450 C760 O448
1.0
  29.1299423399806834    0.0000000000000000   -0.0579592046245024
  -0.0026520441879541   31.7092348469180081   -0.2202689030761704
   0.0000000000000000    0.0000000000000000   37.7120000000000033
Zn H C O
128 450 760 448
direct
   0.5154300000000001    0.5353000000000000    0.0190350000000000 Zn
   0.5156950000000000    0.2849550000000000    0.2284800000000000 Zn
   0.5780300000000000    0.4312250000000000    0.9817300000000000 Zn
   0.9219500000000000    0.5679750000000000    0.0169050000000000 Zn
   0.9860700000000000    0.7149300000000001    0.7701050000000000 Zn
   0.9845050000000000    0.9632450000000000    0.4796100000000000 Zn
   0.9221150000000000    0.8170999999999999    0.2313950000000000 Zn
   0.5783150000000000    0.6817550000000000    0.2672100000000000 Zn
   0.9845050000000000    0.4632450000000000    0.9796100000000000 Zn
   0.9221150000000000    0.3171000000000000    0.7313950000000000 Zn
   0.5783150000000000    0.1817550000000000    0.7672099999999999 Zn
   0.5154300000000001    0.0353000000000000    0.5190350000000000 Zn
   0.5156950000000000    0.7849550000000001    0.7284800000000000 Zn
   0.5780300000000000    0.9312250000000000    0.4817300000000000 Zn
   0.9219500000000000    0.0679750000000000    0.5169049999999999 Zn
   0.9860700000000000    0.2149300000000000    0.2701050000000000 Zn
   0.9845050000000000    0.9632450000000000    0.9796100000000000 Zn
   0.9221150000000000    0.8170999999999999    0.7313950000000000 Zn
   0.5783150000000000    0.6817550000000000    0.7672099999999999 Zn
   0.5154300000000001    0.5353000000000000    0.5190350000000000 Zn
   0.5156950000000000    0.2849550000000000    0.7284800000000000 Zn
   0.5780300000000000    0.4312250000000000    0.4817300000000000 Zn
   0.9219500000000000    0.5679750000000000    0.5169049999999999 Zn
   0.9860700000000000    0.7149300000000001    0.2701050000000000 Zn
   0.9845050000000000    0.4632450000000000    0.4796100000000000 Zn
   0.9221150000000000    0.3171000000000000    0.2313950000000000 Zn
   0.5783150000000000    0.1817550000000000    0.2672100000000000 Zn
   0.5154300000000001    0.0353000000000000    0.0190350000000000 Zn
   0.5156950000000000    0.7849550000000001    0.2284800000000000 Zn
   0.5780300000000000    0.9312250000000000    0.9817300000000000 Zn
   0.9219500000000000    0.0679750000000000    0.0169050000000000 Zn
   0.9860700000000000    0.2149300000000000    0.7701050000000000 Zn
   0.4845050000000000    0.9632450000000000    0.4796100000000000 Zn
   0.4221150000000000    0.8170999999999999    0.2313950000000000 Zn
   0.0783150000000000    0.6817550000000000    0.2672100000000000 Zn
   0.0154300000000000    0.5353000000000000    0.0190350000000000 Zn
   0.0156950000000000    0.2849550000000000    0.2284800000000000 Zn
   0.0780300000000000    0.4312250000000000    0.9817300000000000 Zn
   0.4219500000000000    0.5679750000000000    0.0169050000000000 Zn
   0.4860700000000000    0.7149300000000001    0.7701050000000000 Zn
   0.4845050000000000    0.4632450000000000    0.9796100000000000 Zn
   0.4221150000000000    0.3171000000000000    0.7313950000000000 Zn
   0.0783150000000000    0.1817550000000000    0.7672099999999999 Zn
   0.0154300000000000    0.0353000000000000    0.5190350000000000 Zn
   0.0156950000000000    0.7849550000000001    0.7284800000000000 Zn
   0.0780300000000000    0.9312250000000000    0.4817300000000000 Zn
   0.4219500000000000    0.0679750000000000    0.5169049999999999 Zn
   0.4860700000000000    0.2149300000000000    0.2701050000000000 Zn
   0.4845050000000000    0.9632450000000000    0.9796100000000000 Zn
   0.4221150000000000    0.8170999999999999    0.7313950000000000 Zn
   0.0783150000000000    0.6817550000000000    0.7672099999999999 Zn
   0.0154300000000000    0.5353000000000000    0.5190350000000000 Zn
   0.0156950000000000    0.2849550000000000    0.7284800000000000 Zn
   0.0780300000000000    0.4312250000000000    0.4817300000000000 Zn
   0.4219500000000000    0.5679750000000000    0.5169049999999999 Zn
   0.4860700000000000    0.7149300000000001    0.2701050000000000 Zn
   0.4845050000000000    0.4632450000000000    0.4796100000000000 Zn
   0.4221150000000000    0.3171000000000000    0.2313950000000000 Zn
   0.0783150000000000    0.1817550000000000    0.2672100000000000 Zn
   0.0154300000000000    0.0353000000000000    0.0190350000000000 Zn
   0.0156950000000000    0.7849550000000001    0.2284800000000000 Zn
   0.0780300000000000    0.9312250000000000    0.9817300000000000 Zn
   0.4219500000000000    0.0679750000000000    0.0169050000000000 Zn
   0.4860700000000000    0.2149300000000000    0.7701050000000000 Zn
   0.7342900000000000    0.2849850000000000    0.4783750000000000 Zn
   0.6719550000000000    0.4315550000000000    0.2315050000000000 Zn
   0.3280600000000000    0.5683800000000000    0.2669700000000000 Zn
   0.2639400000000000    0.7149600000000000    0.0200900000000000 Zn
   0.2653800000000000    0.9643349999999999    0.7292950000000000 Zn
   0.3278450000000000    0.8171100000000000    0.4814250000000000 Zn
   0.6717350000000000    0.6817050000000000    0.5171200000000000 Zn
   0.7346350000000000    0.5355100000000000    0.2691300000000000 Zn
   0.7342900000000000    0.7849850000000000    0.9783750000000000 Zn
   0.6719550000000000    0.9315550000000000    0.7315050000000000 Zn
   0.3280600000000000    0.0683800000000000    0.7669699999999999 Zn
   0.2639400000000000    0.2149600000000000    0.5200900000000001 Zn
   0.2653800000000000    0.4643350000000000    0.2292950000000000 Zn
   0.3278450000000000    0.3171100000000000    0.9814250000000000 Zn
   0.6717350000000000    0.1817050000000000    0.0171200000000000 Zn
   0.7346350000000000    0.0355100000000000    0.7691300000000000 Zn
   0.7342900000000000    0.2849850000000000    0.9783750000000000 Zn
   0.6719550000000000    0.4315550000000000    0.7315050000000000 Zn
   0.3280600000000000    0.5683800000000000    0.7669699999999999 Zn
   0.2639400000000000    0.7149600000000000    0.5200900000000001 Zn
   0.2653800000000000    0.9643349999999999    0.2292950000000000 Zn
   0.3278450000000000    0.8171100000000000    0.9814250000000000 Zn
   0.6717350000000000    0.6817050000000000    0.0171200000000000 Zn
   0.7346350000000000    0.5355100000000000    0.7691300000000000 Zn
   0.7342900000000000    0.7849850000000000    0.4783750000000000 Zn
   0.6719550000000000    0.9315550000000000    0.2315050000000000 Zn
   0.3280600000000000    0.0683800000000000    0.2669700000000000 Zn
   0.2639400000000000    0.2149600000000000    0.0200900000000000 Zn
   0.2653800000000000    0.4643350000000000    0.7292950000000000 Zn
   0.3278450000000000    0.3171100000000000    0.4814250000000000 Zn
   0.6717350000000000    0.1817050000000000    0.5171200000000000 Zn
   0.7346350000000000    0.0355100000000000    0.2691300000000000 Zn
   0.2342900000000000    0.2849850000000000    0.4783750000000000 Zn
   0.1719550000000000    0.4315550000000000    0.2315050000000000 Zn
   0.8280600000000000    0.5683800000000000    0.2669700000000000 Zn
   0.7639400000000001    0.7149600000000000    0.0200900000000000 Zn
   0.7653799999999999    0.9643349999999999    0.7292950000000000 Zn
   0.8278449999999999    0.8171100000000000    0.4814250000000000 Zn
   0.1717350000000000    0.6817050000000000    0.5171200000000000 Zn
   0.2346350000000000    0.5355100000000000    0.2691300000000000 Zn
   0.2342900000000000    0.7849850000000000    0.9783750000000000 Zn
   0.1719550000000000    0.9315550000000000    0.7315050000000000 Zn
   0.8280600000000000    0.0683800000000000    0.7669699999999999 Zn
   0.7639400000000001    0.2149600000000000    0.5200900000000001 Zn
   0.7653799999999999    0.4643350000000000    0.2292950000000000 Zn
   0.8278449999999999    0.3171100000000000    0.9814250000000000 Zn
   0.1717350000000000    0.1817050000000000    0.0171200000000000 Zn
   0.2346350000000000    0.0355100000000000    0.7691300000000000 Zn
   0.2342900000000000    0.2849850000000000    0.9783750000000000 Zn
   0.1719550000000000    0.4315550000000000    0.7315050000000000 Zn
   0.8280600000000000    0.5683800000000000    0.7669699999999999 Zn
   0.7639400000000001    0.7149600000000000    0.5200900000000001 Zn
   0.7653799999999999    0.9643349999999999    0.2292950000000000 Zn
   0.8278449999999999    0.8171100000000000    0.9814250000000000 Zn
   0.1717350000000000    0.6817050000000000    0.0171200000000000 Zn
   0.2346350000000000    0.5355100000000000    0.7691300000000000 Zn
   0.2342900000000000    0.7849850000000000    0.4783750000000000 Zn
   0.1719550000000000    0.9315550000000000    0.2315050000000000 Zn
   0.8280600000000000    0.0683800000000000    0.2669700000000000 Zn
   0.7639400000000001    0.2149600000000000    0.0200900000000000 Zn
   0.7653799999999999    0.4643350000000000    0.7292950000000000 Zn
   0.8278449999999999    0.3171100000000000    0.4814250000000000 Zn
   0.1717350000000000    0.1817050000000000    0.5171200000000000 Zn
   0.2346350000000000    0.0355100000000000    0.2691300000000000 Zn
   0.4195150240665332    0.5964891214878176    0.0784890803958689 H
   0.5435540699250212    0.5480333914225800    0.0809974706941111 H
   0.4835767860224962    0.5734853158044831    0.0846349845330742 H
   0.5697300000000000    0.3461250000000000    0.0658700000000000 H
   0.5564600000000000    0.3143150000000000    0.1254150000000000 H
   0.4199300000000000    0.3659150000000000    0.1270600000000000 H
   0.4331150000000000    0.3976600000000000    0.0671350000000000 H
   0.9247099999999999    0.4958000000000000    0.0169950000000000 H
   0.5754350000000000    0.5031600000000001    0.9816100000000000 H
   0.6940850000000001    0.5580800000000000    0.9930399999999999 H
   0.7762450000000001    0.5732100000000000    0.0085300000000000 H
   0.7239150000000000    0.4254500000000000    0.0000000000000000 H
   0.8060600000000000    0.4405700000000000    0.0051700000000000 H
   0.0802450000000000    0.6323350000000000    0.8713200000000000 H
   0.0668750000000000    0.6005199999999999    0.9311750000000000 H
   0.9440400000000000    0.6846800000000000    0.8730750000000000 H
   0.9305200000000000    0.6526250000000000    0.9324850000000000 H
   0.9439800000000000    0.9346150000000000    0.3752000000000000 H
   0.9314750000000001    0.9038200000000001    0.3147900000000000 H
   0.0799250000000000    0.8817550000000001    0.3775350000000000 H
   0.0675400000000000    0.8511000000000000    0.3167350000000000 H
   0.4487620260230012    0.6666804538778632    0.2256902963426159 H
   0.5746392649893124    0.6222056428179877    0.2232627070112485 H
   0.5108077019262548    0.6401249427242137    0.2211154180525759 H
   0.9255350000000000    0.7451400000000000    0.2317800000000000 H
   0.5761600000000000    0.7541850000000000    0.2667300000000000 H
   0.8057700000000000    0.6907750000000000    0.2429750000000000 H
   0.7236000000000000    0.6762500000000000    0.2584600000000000 H
   0.6945250000000001    0.8089750000000000    0.2554100000000000 H
   0.7766900000000000    0.8234900000000001    0.2399500000000000 H
   0.9439800000000000    0.4346150000000000    0.8752000000000000 H
   0.9314750000000001    0.4038200000000000    0.8147900000000000 H
   0.0799250000000000    0.3817550000000000    0.8775350000000000 H
   0.0675400000000000    0.3511000000000000    0.8167350000000000 H
   0.9255350000000000    0.2451400000000000    0.7317800000000000 H
   0.5761600000000000    0.2541850000000000    0.7667300000000000 H
   0.8057700000000000    0.1907750000000000    0.7429749999999999 H
   0.7236000000000000    0.1762500000000000    0.7584600000000000 H
   0.6945250000000001    0.3089750000000000    0.7554100000000000 H
   0.7766900000000000    0.3234900000000000    0.7399500000000000 H
   0.5561199999999999    0.0645700000000000    0.6231400000000000 H
   0.5691450000000000    0.0955650000000000    0.6834050000000000 H
   0.4204350000000000    0.1180000000000000    0.6211250000000000 H
   0.4334000000000000    0.1490100000000000    0.6817350000000000 H
   0.5697300000000000    0.8461250000000000    0.5658700000000000 H
   0.5564600000000000    0.8143150000000000    0.6254150000000001 H
   0.4199300000000000    0.8659150000000000    0.6270600000000000 H
   0.4331150000000000    0.8976600000000000    0.5671349999999999 H
   0.9247099999999999    0.9958000000000000    0.5169950000000000 H
   0.5754350000000000    0.0031600000000000    0.4816100000000000 H
   0.6940850000000001    0.0580800000000000    0.4930400000000000 H
   0.7762450000000001    0.0732100000000000    0.5085300000000000 H
   0.7239150000000000    0.9254500000000000    0.5000000000000000 H
   0.8060600000000000    0.9405700000000000    0.5051700000000000 H
   0.0802450000000000    0.1323350000000000    0.3713200000000000 H
   0.0668750000000000    0.1005200000000000    0.4311750000000000 H
   0.9440400000000000    0.1846800000000000    0.3730750000000000 H
   0.9305200000000000    0.1526250000000000    0.4324850000000000 H
   0.9439800000000000    0.9346150000000000    0.8752000000000000 H
   0.9314750000000001    0.9038200000000001    0.8147900000000000 H
   0.0799250000000000    0.8817550000000001    0.8775350000000000 H
   0.0675400000000000    0.8511000000000000    0.8167350000000000 H
   0.9255350000000000    0.7451400000000000    0.7317800000000000 H
   0.5761600000000000    0.7541850000000000    0.7667300000000000 H
   0.8057700000000000    0.6907750000000000    0.7429749999999999 H
   0.7236000000000000    0.6762500000000000    0.7584600000000000 H
   0.6945250000000001    0.8089750000000000    0.7554100000000000 H
   0.7766900000000000    0.8234900000000001    0.7399500000000000 H
   0.5561199999999999    0.5645700000000000    0.6231400000000000 H
   0.5691450000000000    0.5955650000000000    0.6834050000000000 H
   0.4204350000000000    0.6180000000000000    0.6211250000000000 H
   0.4334000000000000    0.6490100000000000    0.6817350000000000 H
   0.5697300000000000    0.3461250000000000    0.5658700000000000 H
   0.5564600000000000    0.3143150000000000    0.6254150000000001 H
   0.4199300000000000    0.3659150000000000    0.6270600000000000 H
   0.4331150000000000    0.3976600000000000    0.5671349999999999 H
   0.9247099999999999    0.4958000000000000    0.5169950000000000 H
   0.5754350000000000    0.5031600000000001    0.4816100000000000 H
   0.6940850000000001    0.5580800000000000    0.4930400000000000 H
   0.7762450000000001    0.5732100000000000    0.5085300000000000 H
   0.7239150000000000    0.4254500000000000    0.5000000000000000 H
   0.8060600000000000    0.4405700000000000    0.5051700000000000 H
   0.0802450000000000    0.6323350000000000    0.3713200000000000 H
   0.0668750000000000    0.6005199999999999    0.4311750000000000 H
   0.9440400000000000    0.6846800000000000    0.3730750000000000 H
   0.9305200000000000    0.6526250000000000    0.4324850000000000 H
   0.9439800000000000    0.4346150000000000    0.3752000000000000 H
   0.9314750000000001    0.4038200000000000    0.3147900000000000 H
   0.0799250000000000    0.3817550000000000    0.3775350000000000 H
   0.0675400000000000    0.3511000000000000    0.3167350000000000 H
   0.9255350000000000    0.2451400000000000    0.2317800000000000 H
   0.5761600000000000    0.2541850000000000    0.2667300000000000 H
   0.8057700000000000    0.1907750000000000    0.2429750000000000 H
   0.7236000000000000    0.1762500000000000    0.2584600000000000 H
   0.6945250000000001    0.3089750000000000    0.2554100000000000 H
   0.7766900000000000    0.3234900000000000    0.2399500000000000 H
   0.5561199999999999    0.0645700000000000    0.1231400000000000 H
   0.5691450000000000    0.0955650000000000    0.1834050000000000 H
   0.4204350000000000    0.1180000000000000    0.1211250000000000 H
   0.4334000000000000    0.1490100000000000    0.1817350000000000 H
   0.5697300000000000    0.8461250000000000    0.0658700000000000 H
   0.5564600000000000    0.8143150000000000    0.1254150000000000 H
   0.4199300000000000    0.8659150000000000    0.1270600000000000 H
   0.4331150000000000    0.8976600000000000    0.0671350000000000 H
   0.9247099999999999    0.9958000000000000    0.0169950000000000 H
   0.5754350000000000    0.0031600000000000    0.9816100000000000 H
   0.6940850000000001    0.0580800000000000    0.9930399999999999 H
   0.7762450000000001    0.0732100000000000    0.0085300000000000 H
   0.7239150000000000    0.9254500000000000    0.0000000000000000 H
   0.8060600000000000    0.9405700000000000    0.0051700000000000 H
   0.0802450000000000    0.1323350000000000    0.8713200000000000 H
   0.0668750000000000    0.1005200000000000    0.9311750000000000 H
   0.9440400000000000    0.1846800000000000    0.8730750000000000 H
   0.9305200000000000    0.1526250000000000    0.9324850000000000 H
   0.4439800000000000    0.9346150000000000    0.3752000000000000 H
   0.4314750000000000    0.9038200000000001    0.3147900000000000 H
   0.5799250000000000    0.8817550000000001    0.3775350000000000 H
   0.5675400000000000    0.8511000000000000    0.3167350000000000 H
   0.4255350000000000    0.7451400000000000    0.2317800000000000 H
   0.0761600000000000    0.7541850000000000    0.2667300000000000 H
   0.3057700000000000    0.6907750000000000    0.2429750000000000 H
   0.2236000000000000    0.6762500000000000    0.2584600000000000 H
   0.1945250000000000    0.8089750000000000    0.2554100000000000 H
   0.2766900000000000    0.8234900000000001    0.2399500000000000 H
   0.0561200000000000    0.5645700000000000    0.1231400000000000 H
   0.0691450000000000    0.5955650000000000    0.1834050000000000 H
   0.9204350000000000    0.6180000000000000    0.1211250000000000 H
   0.9334000000000000    0.6490100000000000    0.1817350000000000 H
   0.0697300000000000    0.3461250000000000    0.0658700000000000 H
   0.0564600000000000    0.3143150000000000    0.1254150000000000 H
   0.9199300000000000    0.3659150000000000    0.1270600000000000 H
   0.9331150000000000    0.3976600000000000    0.0671350000000000 H
   0.4247100000000000    0.4958000000000000    0.0169950000000000 H
   0.0754350000000000    0.5031600000000001    0.9816100000000000 H
   0.1940850000000000    0.5580800000000000    0.9930399999999999 H
   0.2762450000000000    0.5732100000000000    0.0085300000000000 H
   0.2239150000000000    0.4254500000000000    0.0000000000000000 H
   0.3060600000000000    0.4405700000000000    0.0051700000000000 H
   0.5802450000000000    0.6323350000000000    0.8713200000000000 H
   0.5668750000000000    0.6005199999999999    0.9311750000000000 H
   0.4440400000000000    0.6846800000000000    0.8730750000000000 H
   0.4305200000000000    0.6526250000000000    0.9324850000000000 H
   0.4439800000000000    0.4346150000000000    0.8752000000000000 H
   0.4314750000000000    0.4038200000000000    0.8147900000000000 H
   0.5799250000000000    0.3817550000000000    0.8775350000000000 H
   0.5675400000000000    0.3511000000000000    0.8167350000000000 H
   0.4255350000000000    0.2451400000000000    0.7317800000000000 H
   0.0761600000000000    0.2541850000000000    0.7667300000000000 H
   0.3057700000000000    0.1907750000000000    0.7429749999999999 H
   0.2236000000000000    0.1762500000000000    0.7584600000000000 H
   0.1945250000000000    0.3089750000000000    0.7554100000000000 H
   0.2766900000000000    0.3234900000000000    0.7399500000000000 H
   0.0561200000000000    0.0645700000000000    0.6231400000000000 H
   0.0691450000000000    0.0955650000000000    0.6834050000000000 H
   0.9204350000000000    0.1180000000000000    0.6211250000000000 H
   0.9334000000000000    0.1490100000000000    0.6817350000000000 H
   0.0697300000000000    0.8461250000000000    0.5658700000000000 H
   0.0564600000000000    0.8143150000000000    0.6254150000000001 H
   0.9199300000000000    0.8659150000000000    0.6270600000000000 H
   0.9331150000000000    0.8976600000000000    0.5671349999999999 H
   0.4247100000000000    0.9958000000000000    0.5169950000000000 H
   0.0754350000000000    0.0031600000000000    0.4816100000000000 H
   0.1940850000000000    0.0580800000000000    0.4930400000000000 H
   0.2762450000000000    0.0732100000000000    0.5085300000000000 H
   0.2239150000000000    0.9254500000000000    0.5000000000000000 H
   0.3060600000000000    0.9405700000000000    0.5051700000000000 H
   0.5802450000000000    0.1323350000000000    0.3713200000000000 H
   0.5668750000000000    0.1005200000000000    0.4311750000000000 H
   0.4440400000000000    0.1846800000000000    0.3730750000000000 H
   0.4305200000000000    0.1526250000000000    0.4324850000000000 H
   0.4439800000000000    0.9346150000000000    0.8752000000000000 H
   0.4314750000000000    0.9038200000000001    0.8147900000000000 H
   0.5799250000000000    0.8817550000000001    0.8775350000000000 H
   0.5675400000000000    0.8511000000000000    0.8167350000000000 H
   0.4255350000000000    0.7451400000000000    0.7317800000000000 H
   0.0761600000000000    0.7541850000000000    0.7667300000000000 H
   0.3057700000000000    0.6907750000000000    0.7429749999999999 H
   0.2236000000000000    0.6762500000000000    0.7584600000000000 H
   0.1945250000000000    0.8089750000000000    0.7554100000000000 H
   0.2766900000000000    0.8234900000000001    0.7399500000000000 H
   0.0561200000000000    0.5645700000000000    0.6231400000000000 H
   0.0691450000000000    0.5955650000000000    0.6834050000000000 H
   0.9204350000000000    0.6180000000000000    0.6211250000000000 H
   0.9334000000000000    0.6490100000000000    0.6817350000000000 H
   0.0697300000000000    0.3461250000000000    0.5658700000000000 H
   0.0564600000000000    0.3143150000000000    0.6254150000000001 H
   0.9199300000000000    0.3659150000000000    0.6270600000000000 H
   0.9331150000000000    0.3976600000000000    0.5671349999999999 H
   0.4247100000000000    0.4958000000000000    0.5169950000000000 H
   0.0754350000000000    0.5031600000000001    0.4816100000000000 H
   0.1940850000000000    0.5580800000000000    0.4930400000000000 H
   0.2762450000000000    0.5732100000000000    0.5085300000000000 H
   0.2239150000000000    0.4254500000000000    0.5000000000000000 H
   0.3060600000000000    0.4405700000000000    0.5051700000000000 H
   0.5802450000000000    0.6323350000000000    0.3713200000000000 H
   0.5668750000000000    0.6005199999999999    0.4311750000000000 H
   0.4440400000000000    0.6846800000000000    0.3730750000000000 H
   0.4305200000000000    0.6526250000000000    0.4324850000000000 H
   0.4439800000000000    0.4346150000000000    0.3752000000000000 H
   0.4314750000000000    0.4038200000000000    0.3147900000000000 H
   0.5799250000000000    0.3817550000000000    0.3775350000000000 H
   0.5675400000000000    0.3511000000000000    0.3167350000000000 H
   0.4255350000000000    0.2451400000000000    0.2317800000000000 H
   0.0761600000000000    0.2541850000000000    0.2667300000000000 H
   0.3057700000000000    0.1907750000000000    0.2429750000000000 H
   0.2236000000000000    0.1762500000000000    0.2584600000000000 H
   0.1945250000000000    0.3089750000000000    0.2554100000000000 H
   0.2766900000000000    0.3234900000000000    0.2399500000000000 H
   0.0561200000000000    0.0645700000000000    0.1231400000000000 H
   0.0691450000000000    0.0955650000000000    0.1834050000000000 H
   0.9204350000000000    0.1180000000000000    0.1211250000000000 H
   0.9334000000000000    0.1490100000000000    0.1817350000000000 H
   0.0697300000000000    0.8461250000000000    0.0658700000000000 H
   0.0564600000000000    0.8143150000000000    0.1254150000000000 H
   0.9199300000000000    0.8659150000000000    0.1270600000000000 H
   0.9331150000000000    0.8976600000000000    0.0671350000000000 H
   0.4247100000000000    0.9958000000000000    0.0169950000000000 H
   0.0754350000000000    0.0031600000000000    0.9816100000000000 H
   0.1940850000000000    0.0580800000000000    0.9930399999999999 H
   0.2762450000000000    0.0732100000000000    0.0085300000000000 H
   0.2239150000000000    0.9254500000000000    0.0000000000000000 H
   0.3060600000000000    0.9405700000000000    0.0051700000000000 H
   0.5802450000000000    0.1323350000000000    0.8713200000000000 H
   0.5668750000000000    0.1005200000000000    0.9311750000000000 H
   0.4440400000000000    0.1846800000000000    0.8730750000000000 H
   0.4305200000000000    0.1526250000000000    0.9324850000000000 H
   0.6934899999999999    0.3143500000000000    0.3749300000000000 H
   0.6802200000000000    0.3463150000000000    0.3154400000000000 H
   0.8297500000000000    0.3665450000000000    0.3773350000000000 H
   0.8165500000000000    0.3984900000000000    0.3174700000000000 H
   0.3256500000000000    0.4961000000000000    0.2669100000000000 H
   0.6743049999999999    0.5038000000000000    0.2315400000000000 H
   0.5557700000000000    0.5588300000000000    0.2433950000000000 H
   0.4736200000000000    0.5736600000000001    0.2588650000000000 H
   0.4441700000000000    0.4409550000000000    0.2549400000000000 H
   0.5263050000000000    0.4261400000000000    0.2394450000000000 H
   0.3060800000000000    0.6851400000000000    0.1232150000000000 H
   0.3196750000000000    0.6533949999999999    0.1827800000000000 H
   0.1699250000000000    0.6326800000000000    0.1212900000000000 H
   0.1834050000000000    0.6010850000000000    0.1812600000000000 H
   0.1697800000000000    0.8825200000000000    0.6269150000000000 H
   0.1824000000000000    0.8514500000000000    0.5663400000000000 H
   0.3060550000000000    0.9346700000000000    0.6253450000000000 H
   0.3187500000000000    0.9035550000000000    0.5651250000000000 H
   0.3243400000000000    0.7451300000000000    0.4817800000000000 H
   0.6739250000000000    0.7541350000000000    0.5166050000000000 H
   0.5263400000000000    0.6759600000000000    0.5083150000000000 H
   0.4440800000000000    0.6905399999999999    0.4928150000000000 H
   0.4731700000000000    0.8232650000000000    0.5000000000000000 H
   0.5554200000000000    0.8086900000000000    0.5056050000000000 H
   0.8297550000000000    0.6178450000000000    0.3715700000000000 H
   0.8166850000000000    0.6488550000000000    0.4321250000000000 H
   0.6808250000000000    0.5956550000000000    0.4331400000000000 H
   0.6939550000000000    0.5646550000000000    0.3729300000000000 H
   0.6934899999999999    0.8143500000000000    0.8749300000000000 H
   0.6802200000000000    0.8463149999999999    0.8154399999999999 H
   0.8297500000000000    0.8665450000000000    0.8773350000000000 H
   0.8165500000000000    0.8984900000000000    0.8174699999999999 H
   0.3256500000000000    0.9961000000000000    0.7669100000000000 H
   0.6743049999999999    0.0038000000000000    0.7315400000000000 H
   0.5557700000000000    0.0588300000000000    0.7433950000000000 H
   0.4736200000000000    0.0736600000000000    0.7588650000000000 H
   0.4441700000000000    0.9409550000000000    0.7549399999999999 H
   0.5263050000000000    0.9261400000000000    0.7394450000000000 H
   0.3060800000000000    0.1851400000000000    0.6232150000000000 H
   0.3196750000000000    0.1533950000000000    0.6827799999999999 H
   0.1699250000000000    0.1326800000000000    0.6212900000000000 H
   0.1834050000000000    0.1010850000000000    0.6812600000000000 H
   0.1697800000000000    0.3825200000000000    0.1269150000000000 H
   0.1824000000000000    0.3514500000000000    0.0663400000000000 H
   0.3060550000000000    0.4346700000000000    0.1253450000000000 H
   0.3187500000000000    0.4035550000000000    0.0651250000000000 H
   0.3243400000000000    0.2451300000000000    0.9817800000000000 H
   0.6739250000000000    0.2541350000000000    0.0166050000000000 H
   0.5263400000000000    0.1759600000000000    0.0083150000000000 H
   0.4440800000000000    0.1905400000000000    0.9928150000000000 H
   0.4731700000000000    0.3232650000000000    0.0000000000000000 H
   0.5554200000000000    0.3086900000000000    0.0056050000000000 H
   0.8297550000000000    0.1178450000000000    0.8715700000000000 H
   0.8166850000000000    0.1488550000000000    0.9321250000000000 H
   0.6808250000000000    0.0956550000000000    0.9331400000000001 H
   0.6939550000000000    0.0646550000000000    0.8729300000000000 H
   0.6934899999999999    0.3143500000000000    0.8749300000000000 H
   0.6802200000000000    0.3463150000000000    0.8154399999999999 H
   0.8297500000000000    0.3665450000000000    0.8773350000000000 H
   0.8165500000000000    0.3984900000000000    0.8174699999999999 H
   0.3256500000000000    0.4961000000000000    0.7669100000000000 H
   0.6743049999999999    0.5038000000000000    0.7315400000000000 H
   0.5557700000000000    0.5588300000000000    0.7433950000000000 H
   0.4736200000000000    0.5736600000000001    0.7588650000000000 H
   0.4441700000000000    0.4409550000000000    0.7549399999999999 H
   0.5263050000000000    0.4261400000000000    0.7394450000000000 H
   0.3060800000000000    0.6851400000000000    0.6232150000000000 H
   0.3196750000000000    0.6533949999999999    0.6827799999999999 H
   0.1699250000000000    0.6326800000000000    0.6212900000000000 H
   0.1834050000000000    0.6010850000000000    0.6812600000000000 H
   0.1697800000000000    0.8825200000000000    0.1269150000000000 H
   0.1824000000000000    0.8514500000000000    0.0663400000000000 H
   0.3060550000000000    0.9346700000000000    0.1253450000000000 H
   0.3187500000000000    0.9035550000000000    0.0651250000000000 H
   0.3243400000000000    0.7451300000000000    0.9817800000000000 H
   0.6739250000000000    0.7541350000000000    0.0166050000000000 H
   0.5263400000000000    0.6759600000000000    0.0083150000000000 H
   0.4440800000000000    0.6905399999999999    0.9928150000000000 H
   0.4731700000000000    0.8232650000000000    0.0000000000000000 H
   0.5554200000000000    0.8086900000000000    0.0056050000000000 H
   0.8297550000000000    0.6178450000000000    0.8715700000000000 H