Zn48 H92 C184 O207
1.0
  27.6224151671244726    0.0000000000000000    0.0684586372314015
   0.0190612944700715   11.0958786088818311    0.8512501477307993
   0.0000000000000000    0.0000000000000000   24.3820000000000014
Zn H C O
48 92 184 207
direct
   0.1714366666666667    0.2397800000000000    0.4606050000000000 Zn
   0.2290266666666667    0.3801100000000000    0.1385000000000000 Zn
   0.0061900000000000    0.2604600000000000    0.2870700000000000 Zn
   0.2711133333333333    0.8800100000000000    0.3886750000000000 Zn
   0.1622233333333333    0.7606500000000000    0.0372550000000000 Zn
   0.1044133333333333    0.6204900000000000    0.3592850000000000 Zn
   0.3270666666666666    0.7395400000000000    0.2109350000000000 Zn
   0.0624066666666667    0.1197500000000000    0.1110550000000000 Zn
   0.5047699999999999    0.2397800000000000    0.4606050000000000 Zn
   0.5623600000000000    0.3801100000000000    0.1385000000000000 Zn
   0.3395233333333333    0.2604600000000000    0.2870700000000000 Zn
   0.6044466666666666    0.8800100000000000    0.3886750000000000 Zn
   0.4955566666666666    0.7606500000000000    0.0372550000000000 Zn
   0.4377466666666666    0.6204900000000000    0.3592850000000000 Zn
   0.6603999999999999    0.7395400000000000    0.2109350000000000 Zn
   0.3957400000000000    0.1197500000000000    0.1110550000000000 Zn
   0.8381033333333333    0.2397800000000000    0.4606050000000000 Zn
   0.8956933333333332    0.3801100000000000    0.1385000000000000 Zn
   0.6728566666666667    0.2604600000000000    0.2870700000000000 Zn
   0.9377799999999999    0.8800100000000000    0.3886750000000000 Zn
   0.8288899999999999    0.7606500000000000    0.0372550000000000 Zn
   0.7710800000000000    0.6204900000000000    0.3592850000000000 Zn
   0.9937333333333332    0.7395400000000000    0.2109350000000000 Zn
   0.7290733333333332    0.1197500000000000    0.1110550000000000 Zn
   0.1714366666666667    0.2397800000000000    0.9606049999999999 Zn
   0.2290266666666667    0.3801100000000000    0.6385000000000001 Zn
   0.0061900000000000    0.2604600000000000    0.7870699999999999 Zn
   0.2711133333333333    0.8800100000000000    0.8886750000000000 Zn
   0.1622233333333333    0.7606500000000000    0.5372550000000000 Zn
   0.1044133333333333    0.6204900000000000    0.8592850000000001 Zn
   0.3270666666666666    0.7395400000000000    0.7109350000000000 Zn
   0.0624066666666667    0.1197500000000000    0.6110550000000000 Zn
   0.5047699999999999    0.2397800000000000    0.9606049999999999 Zn
   0.5623600000000000    0.3801100000000000    0.6385000000000001 Zn
   0.3395233333333333    0.2604600000000000    0.7870699999999999 Zn
   0.6044466666666666    0.8800100000000000    0.8886750000000000 Zn
   0.4955566666666666    0.7606500000000000    0.5372550000000000 Zn
   0.4377466666666666    0.6204900000000000    0.8592850000000001 Zn
   0.6603999999999999    0.7395400000000000    0.7109350000000000 Zn
   0.3957400000000000    0.1197500000000000    0.6110550000000000 Zn
   0.8381033333333333    0.2397800000000000    0.9606049999999999 Zn
   0.8956933333333332    0.3801100000000000    0.6385000000000001 Zn
   0.6728566666666667    0.2604600000000000    0.7870699999999999 Zn
   0.9377799999999999    0.8800100000000000    0.8886750000000000 Zn
   0.8288899999999999    0.7606500000000000    0.5372550000000000 Zn
   0.7710800000000000    0.6204900000000000    0.8592850000000001 Zn
   0.9937333333333332    0.7395400000000000    0.7109350000000000 Zn
   0.7290733333333332    0.1197500000000000    0.6110550000000000 Zn
   0.1125600000000000    0.9395300000000000    0.4553000000000000 H
   0.1289300000000000    0.0675900000000000    0.3406100000000000 H
   0.0284266666666667    0.9910099999999999    0.4491150000000000 H
   0.0485333333333333    0.2335500000000000    0.4241100000000000 H
   0.2800900000000000    0.5590900000000000    0.2939450000000000 H
   0.2966833333333333    0.4306500000000000    0.4080450000000000 H
   0.1962566666666667    0.5076400000000000    0.2997500000000000 H
   0.2163800000000000    0.2662700000000000    0.3249800000000000 H
   0.2209333333333333    0.0584700000000000    0.0446650000000000 H
   0.2038033333333333    0.9305099999999999    0.1585200000000000 H
   0.3051400000000000    0.0074400000000000    0.0511650000000000 H
   0.2850466666666667    0.7674600000000000    0.0754550000000000 H
   0.4458933333333333    0.9395300000000000    0.4553000000000000 H
   0.4622633333333333    0.0675900000000000    0.3406100000000000 H
   0.3617600000000000    0.9910099999999999    0.4491150000000000 H
   0.3818666666666666    0.2335500000000000    0.4241100000000000 H
   0.6134233333333332    0.5590900000000000    0.2939450000000000 H
   0.6300166666666667    0.4306500000000000    0.4080450000000000 H
   0.5295900000000000    0.5076400000000000    0.2997500000000000 H
   0.5497133333333333    0.2662700000000000    0.3249800000000000 H
   0.5542666666666667    0.0584700000000000    0.0446650000000000 H
   0.5371366666666666    0.9305099999999999    0.1585200000000000 H
   0.6384733333333332    0.0074400000000000    0.0511650000000000 H
   0.6183799999999999    0.7674600000000000    0.0754550000000000 H
   0.3867000000000000    0.4423300000000000    0.2040450000000000 H
   0.3701966666666666    0.5701000000000001    0.0897850000000000 H
   0.4705566666666666    0.4939100000000000    0.1981900000000000 H
   0.4502400000000000    0.7351700000000000    0.1725200000000000 H
   0.7792266666666666    0.9395300000000000    0.4553000000000000 H
   0.7955966666666666    0.0675900000000000    0.3406100000000000 H
   0.6950933333333333    0.9910099999999999    0.4491150000000000 H
   0.7151999999999999    0.2335500000000000    0.4241100000000000 H
   0.9467566666666666    0.5590900000000000    0.2939450000000000 H
   0.9633499999999999    0.4306500000000000    0.4080450000000000 H
   0.8629233333333333    0.5076400000000000    0.2997500000000000 H
   0.8830466666666666    0.2662700000000000    0.3249800000000000 H
   0.8875999999999999    0.0584700000000000    0.0446650000000000 H
   0.8704700000000000    0.9305099999999999    0.1585200000000000 H
   0.9718066666666666    0.0074400000000000    0.0511650000000000 H
   0.9517133333333333    0.7674600000000000    0.0754550000000000 H
   0.7200333333333333    0.4423300000000000    0.2040450000000000 H
   0.7035300000000000    0.5701000000000001    0.0897850000000000 H
   0.8038900000000000    0.4939100000000000    0.1981900000000000 H
   0.7835733333333332    0.7351700000000000    0.1725200000000000 H
   0.1125600000000000    0.9395300000000000    0.9553000000000000 H
   0.1289300000000000    0.0675900000000000    0.8406100000000001 H
   0.0284266666666667    0.9910099999999999    0.9491149999999999 H
   0.0485333333333333    0.2335500000000000    0.9241100000000000 H
   0.2800900000000000    0.5590900000000000    0.7939450000000000 H
   0.2966833333333333    0.4306500000000000    0.9080450000000000 H
   0.1962566666666667    0.5076400000000000    0.7997500000000000 H
   0.2163800000000000    0.2662700000000000    0.8249800000000000 H
   0.2209333333333333    0.0584700000000000    0.5446650000000000 H
   0.2038033333333333    0.9305099999999999    0.6585200000000000 H
   0.3051400000000000    0.0074400000000000    0.5511650000000000 H
   0.2850466666666667    0.7674600000000000    0.5754550000000000 H
   0.0533666666666667    0.4423300000000000    0.7040450000000000 H
   0.0368633333333333    0.5701000000000001    0.5897850000000000 H
   0.1372233333333333    0.4939100000000000    0.6981900000000000 H
   0.1169066666666667    0.7351700000000000    0.6725200000000000 H
   0.4458933333333333    0.9395300000000000    0.9553000000000000 H
   0.4622633333333333    0.0675900000000000    0.8406100000000001 H
   0.3617600000000000    0.9910099999999999    0.9491149999999999 H
   0.3818666666666666    0.2335500000000000    0.9241100000000000 H
   0.6134233333333332    0.5590900000000000    0.7939450000000000 H
   0.6300166666666667    0.4306500000000000    0.9080450000000000 H
   0.5295900000000000    0.5076400000000000    0.7997500000000000 H
   0.5497133333333333    0.2662700000000000    0.8249800000000000 H
   0.5542666666666667    0.0584700000000000    0.5446650000000000 H
   0.5371366666666666    0.9305099999999999    0.6585200000000000 H
   0.6384733333333332    0.0074400000000000    0.5511650000000000 H
   0.6183799999999999    0.7674600000000000    0.5754550000000000 H
   0.3867000000000000    0.4423300000000000    0.7040450000000000 H
   0.3701966666666666    0.5701000000000001    0.5897850000000000 H
   0.4705566666666666    0.4939100000000000    0.6981900000000000 H
   0.4502400000000000    0.7351700000000000    0.6725200000000000 H
   0.7792266666666666    0.9395300000000000    0.9553000000000000 H
   0.7955966666666666    0.0675900000000000    0.8406100000000001 H
   0.6950933333333333    0.9910099999999999    0.9491149999999999 H
   0.7151999999999999    0.2335500000000000    0.9241100000000000 H
   0.9467566666666666    0.5590900000000000    0.7939450000000000 H
   0.9633499999999999    0.4306500000000000    0.9080450000000000 H
   0.8629233333333333    0.5076400000000000    0.7997500000000000 H
   0.8830466666666666    0.2662700000000000    0.8249800000000000 H
   0.8875999999999999    0.0584700000000000    0.5446650000000000 H
   0.8704700000000000    0.9305099999999999    0.6585200000000000 H
   0.9718066666666666    0.0074400000000000    0.5511650000000000 H
   0.9517133333333333    0.7674600000000000    0.5754550000000000 H
   0.7200333333333333    0.4423300000000000    0.7040450000000000 H
   0.7035300000000000    0.5701000000000001    0.5897850000000000 H
   0.8038900000000000    0.4939100000000000    0.6981900000000000 H
   0.7835733333333332    0.7351700000000000    0.6725200000000000 H
   0.0817700000000000    0.1539500000000000    0.4977750000000000 C
   0.1003133333333333    0.9651300000000000    0.4131600000000000 C
   0.1868333333333333    0.0375200000000000    0.3999200000000000 C
   0.1337933333333333    0.0619800000000000    0.3854250000000000 C
   0.0520100000000000    0.0363800000000000    0.4173700000000000 C
   0.0721033333333333    0.1560300000000000    0.4355900000000000 C
   0.0976233333333333    0.8534000000000000    0.3804600000000000 C
   0.0234133333333333    0.0590700000000000    0.3634450000000000 C
   0.2492900000000000    0.3457000000000000    0.2510650000000000 C
   0.2676733333333333    0.5340500000000000    0.3361300000000000 C
   0.0210666666666667    0.4617900000000000    0.3482750000000000 C
   0.3014833333333333    0.4368200000000000    0.3631850000000000 C
   0.2197133333333333    0.4634800000000000    0.3314300000000000 C
   0.2399066666666667    0.3435700000000000    0.3132350000000000 C
   0.2649400000000000    0.6463300000000000    0.3684750000000000 C
   0.1903866666666666    0.4406000000000000    0.3848950000000000 C
   0.2524033333333333    0.8461800000000000    0.0014150000000000 C
   0.2332900000000000    0.0345900000000000    0.0869250000000000 C
   0.1463233333333333    0.9619200000000000    0.0987650000000000 C
   0.1992400000000000    0.9373100000000000    0.1136600000000000 C
   0.2811200000000000    0.9644800000000000    0.0822050000000000 C
   0.2613900000000000    0.8446399999999999    0.0636600000000000 C
   0.2359100000000000    0.1480500000000000    0.1183550000000000 C
   0.3095300000000000    0.9414100000000000    0.1362100000000000 C
   0.3123966666666667    0.5385500000000000    0.1494300000000000 C
   0.4151033333333333    0.1539500000000000    0.4977750000000000 C
   0.4336466666666666    0.9651300000000000    0.4131600000000000 C
   0.5201666666666667    0.0375200000000000    0.3999200000000000 C
   0.4671266666666666    0.0619800000000000    0.3854250000000000 C
   0.3853433333333333    0.0363800000000000    0.4173700000000000 C
   0.4054366666666667    0.1560300000000000    0.4355900000000000 C
   0.4309566666666667    0.8534000000000000    0.3804600000000000 C
   0.3567466666666667    0.0590700000000000    0.3634450000000000 C
   0.5826233333333333    0.3457000000000000    0.2510650000000000 C
   0.6010066666666667    0.5340500000000000    0.3361300000000000 C
   0.3544000000000000    0.4617900000000000    0.3482750000000000 C
   0.6348166666666666    0.4368200000000000    0.3631850000000000 C
   0.5530466666666667    0.4634800000000000    0.3314300000000000 C
   0.5732400000000000    0.3435700000000000    0.3132350000000000 C
   0.5982733333333332    0.6463300000000000    0.3684750000000000 C
   0.5237200000000000    0.4406000000000000    0.3848950000000000 C
   0.5857366666666666    0.8461800000000000    0.0014150000000000 C
   0.5666233333333333    0.0345900000000000    0.0869250000000000 C
   0.4796566666666666    0.9619200000000000    0.0987650000000000 C
   0.5325733333333333    0.9373100000000000    0.1136600000000000 C
   0.6144533333333333    0.9644800000000000    0.0822050000000000 C
   0.5947233333333333    0.8446399999999999    0.0636600000000000 C
   0.5692433333333333    0.1480500000000000    0.1183550000000000 C
   0.6428633333333333    0.9414100000000000    0.1362100000000000 C
   0.4175733333333333    0.6562900000000000    0.2467150000000000 C
   0.3991466666666666    0.4670800000000000    0.1618450000000000 C
   0.6457299999999999    0.5385500000000000    0.1494300000000000 C
   0.3653066666666667    0.5639500000000000    0.1346350000000000 C
   0.4470733333333333    0.5378100000000000    0.1664700000000000 C
   0.4268100000000000    0.6578400000000000    0.1845050000000000 C
   0.4018333333333333    0.3545600000000000    0.1297000000000000 C
   0.4763566666666667    0.5601400000000000    0.1129300000000000 C
   0.7484366666666666    0.1539500000000000    0.4977750000000000 C
   0.7669800000000000    0.9651300000000000    0.4131600000000000 C
   0.8534999999999999    0.0375200000000000    0.3999200000000000 C
   0.8004599999999999    0.0619800000000000    0.3854250000000000 C
   0.7186766666666666    0.0363800000000000    0.4173700000000000 C
   0.7387699999999999    0.1560300000000000    0.4355900000000000 C
   0.7642899999999999    0.8534000000000000    0.3804600000000000 C
   0.6900799999999999    0.0590700000000000    0.3634450000000000 C
   0.9159566666666666    0.3457000000000000    0.2510650000000000 C
   0.9343399999999999    0.5340500000000000    0.3361300000000000 C
   0.6877333333333333    0.4617900000000000    0.3482750000000000 C
   0.9681500000000000    0.4368200000000000    0.3631850000000000 C
   0.8863799999999999    0.4634800000000000    0.3314300000000000 C
   0.9065733333333332    0.3435700000000000    0.3132350000000000 C
   0.9316066666666666    0.6463300000000000    0.3684750000000000 C
   0.8570533333333332    0.4406000000000000    0.3848950000000000 C
   0.9190699999999999    0.8461800000000000    0.0014150000000000 C
   0.8999566666666666    0.0345900000000000    0.0869250000000000 C
   0.8129900000000000    0.9619200000000000    0.0987650000000000 C
   0.8659066666666666    0.9373100000000000    0.1136600000000000 C
   0.9477866666666666    0.9644800000000000    0.0822050000000000 C
   0.9280566666666666    0.8446399999999999    0.0636600000000000 C
   0.9025766666666666    0.1480500000000000    0.1183550000000000 C
   0.9761966666666666    0.9414100000000000    0.1362100000000000 C
   0.7509066666666666    0.6562900000000000    0.2467150000000000 C
   0.7324800000000000    0.4670800000000000    0.1618450000000000 C
   0.6986399999999999    0.5639500000000000    0.1346350000000000 C
   0.7804066666666667    0.5378100000000000    0.1664700000000000 C
   0.7601433333333333    0.6578400000000000    0.1845050000000000 C
   0.7351666666666666    0.3545600000000000    0.1297000000000000 C
   0.8096900000000000    0.5601400000000000    0.1129300000000000 C
   0.0817700000000000    0.1539500000000000    0.9977750000000001 C
   0.1003133333333333    0.9651300000000000    0.9131600000000000 C
   0.1868333333333333    0.0375200000000000    0.8999200000000001 C
   0.1337933333333333    0.0619800000000000    0.8854250000000000 C
   0.0520100000000000    0.0363800000000000    0.9173700000000000 C
   0.0721033333333333    0.1560300000000000    0.9355899999999999 C
   0.0976233333333333    0.8534000000000000    0.8804600000000000 C
   0.0234133333333333    0.0590700000000000    0.8634450000000000 C
   0.2492900000000000    0.3457000000000000    0.7510650000000000 C
   0.2676733333333333    0.5340500000000000    0.8361300000000000 C
   0.0210666666666667    0.4617900000000000    0.8482750000000000 C
   0.3014833333333333    0.4368200000000000    0.8631850000000000 C
   0.2197133333333333    0.4634800000000000    0.8314300000000000 C
   0.2399066666666667    0.3435700000000000    0.8132349999999999 C
   0.2649400000000000    0.6463300000000000    0.8684750000000000 C
   0.1903866666666666    0.4406000000000000    0.8848950000000000 C
   0.2524033333333333    0.8461800000000000    0.5014150000000001 C
   0.2332900000000000    0.0345900000000000    0.5869250000000000 C
   0.1463233333333333    0.9619200000000000    0.5987650000000000 C
   0.1992400000000000    0.9373100000000000    0.6136600000000000 C
   0.2811200000000000    0.9644800000000000    0.5822050000000000 C
   0.2613900000000000    0.8446399999999999    0.5636600000000000 C
   0.2359100000000000    0.1480500000000000    0.6183550000000000 C
   0.3095300000000000    0.9414100000000000    0.6362099999999999 C
   0.0842400000000000    0.6562900000000000    0.7467150000000000 C
   0.0658133333333333    0.4670800000000000    0.6618450000000000 C
   0.3123966666666667    0.5385500000000000    0.6494300000000000 C
   0.0319733333333333    0.5639500000000000    0.6346350000000001 C
   0.1137400000000000    0.5378100000000000    0.6664700000000000 C
   0.0934766666666667    0.6578400000000000    0.6845050000000000 C
   0.0685000000000000    0.3545600000000000    0.6297000000000000 C
   0.1430233333333333    0.5601400000000000    0.6129300000000000 C
   0.4151033333333333    0.1539500000000000    0.9977750000000001 C
   0.4336466666666666    0.9651300000000000    0.9131600000000000 C
   0.5201666666666667    0.0375200000000000    0.8999200000000001 C
   0.4671266666666666    0.0619800000000000    0.8854250000000000 C
   0.3853433333333333    0.0363800000000000    0.9173700000000000 C
   0.4054366666666667    0.1560300000000000    0.9355899999999999 C
   0.4309566666666667    0.8534000000000000    0.8804600000000000 C
   0.3567466666666667    0.0590700000000000    0.8634450000000000 C
   0.5826233333333333    0.3457000000000000    0.7510650000000000 C
   0.6010066666666667    0.5340500000000000    0.8361300000000000 C
   0.3544000000000000    0.4617900000000000    0.8482750000000000 C
   0.6348166666666666    0.4368200000000000    0.8631850000000000 C
   0.5530466666666667    0.4634800000000000    0.8314300000000000 C
   0.5732400000000000    0.3435700000000000    0.8132349999999999 C
   0.5982733333333332    0.6463300000000000    0.8684750000000000 C
   0.5237200000000000    0.4406000000000000    0.8848950000000000 C
   0.5857366666666666    0.8461800000000000    0.5014150000000001 C
   0.5666233333333333    0.0345900000000000    0.5869250000000000 C
   0.4796566666666666    0.9619200000000000    0.5987650000000000 C
   0.5325733333333333    0.9373100000000000    0.6136600000000000 C
   0.6144533333333333    0.9644800000000000    0.5822050000000000 C
   0.5947233333333333    0.8446399999999999    0.5636600000000000 C
   0.5692433333333333    0.1480500000000000    0.6183550000000000 C
   0.6428633333333333    0.9414100000000000    0.6362099999999999 C
   0.4175733333333333    0.6562900000000000    0.7467150000000000 C
   0.3991466666666666    0.4670800000000000    0.6618450000000000 C
   0.6457299999999999    0.5385500000000000    0.6494300000000000 C
   0.3653066666666667    0.5639500000000000    0.6346350000000001 C
   0.4470733333333333    0.5378100000000000    0.6664700000000000 C
   0.4268100000000000    0.6578400000000000    0.6845050000000000 C
   0.4018333333333333    0.3545600000000000    0.6297000000000000 C
   0.4763566666666667    0.5601400000000000    0.6129300000000000 C
   0.7484366666666666    0.1539500000000000    0.9977750000000001 C
   0.7669800000000000    0.9651300000000000    0.9131600000000000 C
   0.8534999999999999    0.0375200000000000    0.8999200000000001 C
   0.8004599999999999    0.0619800000000000    0.8854250000000000 C
   0.7186766666666666    0.0363800000000000    0.9173700000000000 C
   0.7387699999999999    0.1560300000000000    0.9355899999999999 C
   0.7642899999999999    0.8534000000000000    0.8804600000000000 C
   0.6900799999999999    0.0590700000000000    0.8634450000000000 C
   0.9159566666666666    0.3457000000000000    0.7510650000000000 C
   0.9343399999999999    0.5340500000000000    0.8361300000000000 C
   0.6877333333333333    0.4617900000000000    0.8482750000000000 C
   0.9681500000000000    0.4368200000000000    0.8631850000000000 C
   0.8863799999999999    0.4634800000000000    0.8314300000000000 C
   0.9065733333333332    0.3435700000000000    0.8132349999999999 C
   0.9316066666666666    0.6463300000000000    0.8684750000000000 C
   0.8570533333333332    0.4406000000000000    0.8848950000000000 C
   0.9190699999999999    0.8461800000000000    0.5014150000000001 C
   0.8999566666666666    0.0345900000000000    0.5869250000000000 C
   0.8129900000000000    0.9619200000000000    0.5987650000000000 C
   0.8659066666666666    0.9373100000000000    0.6136600000000000 C
   0.9477866666666666    0.9644800000000000    0.5822050000000000 C
   0.9280566666666666    0.8446399999999999    0.5636600000000000 C
   0.9025766666666666    0.1480500000000000    0.6183550000000000 C
   0.9761966666666666    0.9414100000000000    0.6362099999999999 C
   0.7509066666666666    0.6562900000000000    0.7467150000000000 C
   0.7324800000000000    0.4670800000000000    0.6618450000000000 C
   0.9790633333333333    0.5385500000000000    0.6494300000000000 C
   0.6986399999999999    0.5639500000000000    0.6346350000000001 C
   0.7804066666666667    0.5378100000000000    0.6664700000000000 C
   0.7601433333333333    0.6578400000000000    0.6845050000000000 C
   0.7351666666666666    0.3545600000000000    0.6297000000000000 C
   0.8096900000000000    0.5601400000000000    0.6129300000000000 C
   0.1172900000000000    0.1758200000000000    0.4054550000000000 O
   0.0421300000000000    0.1388400000000000    0.3284700000000000 O
   0.1230233333333333    0.1870400000000000    0.0145350000000000 O
   0.0475266666666667    0.1201200000000000    0.0297800000000000 O
   0.1107300000000000    0.7528800000000000    0.4075700000000000 O
   0.2072966666666667    0.0930600000000000    0.4374250000000000 O
   0.3167766666666667    0.0106900000000000    0.3564700000000000 O
   0.0838033333333333    0.8642000000000000    0.3321350000000000 O
   0.2067800000000000    0.9594800000000000    0.3738050000000000 O
   0.2851933333333333    0.3235100000000000    0.3428450000000000 O
   0.2085566666666666    0.3600600000000000    0.4198800000000000 O
   0.2905866666666667    0.3134800000000000    0.2337350000000000 O
   0.2146000000000000    0.3791000000000000    0.2197300000000000 O
   0.2769833333333333    0.7468500000000000    0.3406200000000000 O
   0.0416800000000000    0.4068200000000000    0.3104700000000000 O
   0.1500400000000000    0.4896400000000000    0.3914900000000000 O
   0.2521666666666667    0.6358500000000000    0.4172250000000000 O
   0.0403333333333333    0.5414099999999999    0.3753100000000000 O
   0.2159433333333333    0.8242500000000000    0.0930900000000000 O
   0.2904833333333333    0.8617100000000000    0.1710000000000000 O
   0.2113333333333333    0.8130700000000000    0.4840450000000000 O
   0.2870266666666667    0.8793600000000000    0.4698150000000000 O
   0.2227200000000000    0.2473300000000000    0.0903250000000000 O
   0.1262600000000000    0.9073600000000001    0.0606650000000000 O
   0.0168233333333333    0.9896600000000000    0.1436500000000000 O
   0.2496700000000000    0.1400000000000000    0.1667350000000000 O
   0.1269233333333333    0.0418900000000000    0.1272400000000000 O
   0.2916900000000000    0.5933500000000000    0.1872200000000000 O
   0.2932366666666666    0.4588500000000000    0.1223550000000000 O
   0.4506233333333333    0.1758200000000000    0.4054550000000000 O
   0.3754633333333333    0.1388400000000000    0.3284700000000000 O
   0.4563566666666666    0.1870400000000000    0.0145350000000000 O
   0.3808600000000000    0.1201200000000000    0.0297800000000000 O
   0.4440633333333333    0.7528800000000000    0.4075700000000000 O
   0.5406299999999999    0.0930600000000000    0.4374250000000000 O
   0.6501100000000000    0.0106900000000000    0.3564700000000000 O
   0.4171366666666667    0.8642000000000000    0.3321350000000000 O
   0.5401133333333333    0.9594800000000000    0.3738050000000000 O
   0.6185266666666667    0.3235100000000000    0.3428450000000000 O
   0.5418900000000000    0.3600600000000000    0.4198800000000000 O
   0.6239200000000000    0.3134800000000000    0.2337350000000000 O
   0.5479333333333334    0.3791000000000000    0.2197300000000000 O
   0.6103166666666666    0.7468500000000000    0.3406200000000000 O
   0.3750133333333333    0.4068200000000000    0.3104700000000000 O
   0.4833733333333333    0.4896400000000000    0.3914900000000000 O
   0.5854999999999999    0.6358500000000000    0.4172250000000000 O
   0.3736666666666666    0.5414099999999999    0.3753100000000000 O
   0.5492766666666666    0.8242500000000000    0.0930900000000000 O
   0.6238166666666667    0.8617100000000000    0.1710000000000000 O
   0.5446666666666666    0.8130700000000000    0.4840450000000000 O
   0.6203600000000000    0.8793600000000000    0.4698150000000000 O
   0.5560533333333333    0.2473300000000000    0.0903250000000000 O
   0.4595933333333333    0.9073600000000001    0.0606650000000000 O
   0.3501566666666667    0.9896600000000000    0.1436500000000000 O
   0.5830033333333333    0.1400000000000000    0.1667350000000000 O
   0.4602566666666666    0.0418900000000000    0.1272400000000000 O
   0.3814233333333333    0.6773200000000000    0.1550100000000000 O
   0.4582066666666667    0.6405900000000000    0.0778850000000000 O
   0.3761766666666667    0.6874300000000000    0.2641550000000000 O
   0.4524566666666666    0.6244000000000000    0.2780300000000000 O
   0.3896533333333333    0.2544800000000000    0.1578550000000000 O
   0.6250233333333333    0.5933500000000000    0.1872200000000000 O
   0.5165766666666667    0.5105700000000000    0.1062500000000000 O
   0.4145966666666666    0.3643400000000000    0.0809600000000000 O
   0.6265700000000000    0.4588500000000000    0.1223550000000000 O
   0.7839566666666666    0.1758200000000000    0.4054550000000000 O
   0.7087966666666666    0.1388400000000000    0.3284700000000000 O
   0.7896900000000000    0.1870400000000000    0.0145350000000000 O
   0.7141933333333333    0.1201200000000000    0.0297800000000000 O
   0.7773966666666666    0.7528800000000000    0.4075700000000000 O
   0.8739633333333333    0.0930600000000000    0.4374250000000000 O
   0.9834433333333332    0.0106900000000000    0.3564700000000000 O
   0.7504700000000000    0.8642000000000000    0.3321350000000000 O
   0.8734466666666666    0.9594800000000000    0.3738050000000000 O
   0.9518599999999999    0.3235100000000000    0.3428450000000000 O
   0.8752233333333332    0.3600600000000000    0.4198800000000000 O
   0.9572533333333333    0.3134800000000000    0.2337350000000000 O
   0.8812666666666666    0.3791000000000000    0.2197300000000000 O
   0.9436499999999999    0.7468500000000000    0.3406200000000000 O
   0.7083466666666667    0.4068200000000000    0.3104700000000000 O
   0.8167066666666667    0.4896400000000000    0.3914900000000000 O
   0.9188333333333333    0.6358500000000000    0.4172250000000000 O
   0.7070000000000000    0.5414099999999999    0.3753100000000000 O
   0.8826099999999999    0.8242500000000000    0.0930900000000000 O
   0.9571499999999999    0.8617100000000000    0.1710000000000000 O
   0.8779999999999999    0.8130700000000000    0.4840450000000000 O
   0.9536933333333333    0.8793600000000000    0.4698150000000000 O
   0.8893866666666665    0.2473300000000000    0.0903250000000000 O
   0.7929266666666666    0.9073600000000001    0.0606650000000000 O
   0.6834899999999999    0.9896600000000000    0.1436500000000000 O
   0.9163366666666666    0.1400000000000000    0.1667350000000000 O
   0.7935900000000000    0.0418900000000000    0.1272400000000000 O
   0.7147566666666666    0.6773200000000000    0.1550100000000000 O
   0.7915399999999999    0.6405900000000000    0.0778850000000000 O
   0.7095100000000000    0.6874300000000000    0.2641550000000000 O
   0.7857900000000000    0.6244000000000000    0.2780300000000000 O
   0.7229866666666667    0.2544800000000000    0.1578550000000000 O
   0.8499099999999999    0.5105700000000000    0.1062500000000000 O
   0.7479300000000000    0.3643400000000000    0.0809600000000000 O
   0.1172900000000000    0.1758200000000000    0.9054550000000000 O
   0.0421300000000000    0.1388400000000000    0.8284700000000000 O
   0.1230233333333333    0.1870400000000000    0.5145350000000000 O
   0.0475266666666667    0.1201200000000000    0.5297800000000000 O
   0.1107300000000000    0.7528800000000000    0.9075700000000000 O
   0.2072966666666667    0.0930600000000000    0.9374250000000000 O
   0.3167766666666667    0.0106900000000000    0.8564700000000001 O
   0.0838033333333333    0.8642000000000000    0.8321350000000001 O
   0.2067800000000000    0.9594800000000000    0.8738049999999999 O
   0.2851933333333333    0.3235100000000000    0.8428450000000001 O
   0.2085566666666666    0.3600600000000000    0.9198800000000000 O
   0.2905866666666667    0.3134800000000000    0.7337350000000000 O
   0.2146000000000000    0.3791000000000000    0.7197300000000000 O