P2 H4 C2 O6
1.0
  31.5427918963936946    0.0000000000000000   -3.0405592217222503
  -2.3919486596610708   10.9845626608535660   -1.6676899470007145
   0.0000000000000000    0.0000000000000000   33.6319999999999979
P H C O
2 4 2 6
direct
   0.0866500000000000    0.2084300000000000    0.8049800000000000 P
   0.0870900000000000    0.2582000000000000    0.9389799999999999 P
   0.1367866666666667    0.2540400000000000    0.8651650000000000 H
   0.1034766666666667    0.3617500000000000    0.8634700000000000 H
   0.0397833333333333    0.2047900000000000    0.8777450000000000 H
   0.0743333333333333    0.1011400000000000    0.8819950000000000 H
   0.1031200000000000    0.2637500000000000    0.8586400000000001 C
   0.0736566666666667    0.1984500000000000    0.8856850000000001 C
   0.1207400000000000    0.2793000000000000    0.7825850000000000 O
   0.0870300000000000    0.0692200000000000    0.7997449999999999 O
   0.0400733333333333    0.2292400000000000    0.7967649999999999 O
   0.0538333333333333    0.1817200000000000    0.9614800000000000 O
   0.0835500000000000    0.3933900000000000    0.9440000000000000 O
   0.1333033333333333    0.2398600000000000    0.9521050000000000 O
