Ga96 P94 H188 C94 O282 F66
1.0
  31.5427918963936946    0.0000000000000000   -3.0405592217222503
  -2.3919486596610708   10.9845626608535660   -1.6676899470007145
   0.0000000000000000    0.0000000000000000   33.6319999999999979
Ga P H C O F
96 94 188 94 282 66
direct
   0.3261400000000000    0.7587900000000000    0.2536250000000000 Ga
   0.0117866666666667    0.2348200000000000    0.0000000000000000 Ga
   0.3330700000000000    0.2361500000000000    0.2496950000000000 Ga
   0.1780433333333333    0.7353700000000000    0.4903750000000000 Ga
   0.1721166666666666    0.7195900000000000    0.2459250000000000 Ga
   0.1541933333333333    0.2397800000000000    0.0069350000000000 Ga
   0.1659300000000000    0.2392300000000000    0.2487350000000000 Ga
   0.2487400000000000    0.0248100000000000    0.4893600000000000 Ga
   0.2535566666666667    0.9616700000000000    0.2563950000000000 Ga
   0.2503633333333333    0.4504700000000000    0.0092000000000000 Ga
   0.2445233333333333    0.5148300000000000    0.2420500000000000 Ga
   0.0838200000000000    0.9548400000000000    0.0118300000000000 Ga
   0.0926866666666667    0.9546200000000000    0.2557450000000000 Ga
   0.0825966666666667    0.5205900000000000    0.4875150000000000 Ga
   0.0732566666666667    0.5201600000000000    0.2432400000000000 Ga
   0.3210133333333333    0.7404600000000000    0.0086800000000000 Ga
   0.6594733333333334    0.7587900000000000    0.2536250000000000 Ga
   0.3451200000000000    0.2348200000000000    0.0000000000000000 Ga
   0.6664033333333332    0.2361500000000000    0.2496950000000000 Ga
   0.5113766666666666    0.7353700000000000    0.4903750000000000 Ga
   0.5054500000000000    0.7195900000000000    0.2459250000000000 Ga
   0.4875266666666667    0.2397800000000000    0.0069350000000000 Ga
   0.4992633333333333    0.2392300000000000    0.2487350000000000 Ga
   0.5820733333333333    0.0248100000000000    0.4893600000000000 Ga
   0.5868899999999999    0.9616700000000000    0.2563950000000000 Ga
   0.5836966666666666    0.4504700000000000    0.0092000000000000 Ga
   0.5778566666666667    0.5148300000000000    0.2420500000000000 Ga
   0.4171533333333333    0.9548400000000000    0.0118300000000000 Ga
   0.4260200000000000    0.9546200000000000    0.2557450000000000 Ga
   0.4159300000000000    0.5205900000000000    0.4875150000000000 Ga
   0.4065900000000000    0.5201600000000000    0.2432400000000000 Ga
   0.6543466666666666    0.7404600000000000    0.0086800000000000 Ga
   0.9928066666666666    0.7587900000000000    0.2536250000000000 Ga
   0.6784533333333334    0.2348200000000000    0.0000000000000000 Ga
   0.9997366666666666    0.2361500000000000    0.2496950000000000 Ga
   0.8447100000000000    0.7353700000000000    0.4903750000000000 Ga
   0.8387833333333332    0.7195900000000000    0.2459250000000000 Ga
   0.8208599999999999    0.2397800000000000    0.0069350000000000 Ga
   0.8325966666666667    0.2392300000000000    0.2487350000000000 Ga
   0.9154066666666666    0.0248100000000000    0.4893600000000000 Ga
   0.9202233333333333    0.9616700000000000    0.2563950000000000 Ga
   0.9170300000000000    0.4504700000000000    0.0092000000000000 Ga
   0.9111899999999999    0.5148300000000000    0.2420500000000000 Ga
   0.7504866666666666    0.9548400000000000    0.0118300000000000 Ga
   0.7593533333333333    0.9546200000000000    0.2557450000000000 Ga
   0.7492633333333333    0.5205900000000000    0.4875150000000000 Ga
   0.7399233333333333    0.5201600000000000    0.2432400000000000 Ga
   0.9876799999999999    0.7404600000000000    0.0086800000000000 Ga
   0.3261400000000000    0.7587900000000000    0.7536250000000000 Ga
   0.0117866666666667    0.2348200000000000    0.5000000000000000 Ga
   0.3330700000000000    0.2361500000000000    0.7496950000000000 Ga
   0.1780433333333333    0.7353700000000000    0.9903750000000000 Ga
   0.1721166666666666    0.7195900000000000    0.7459249999999999 Ga
   0.1541933333333333    0.2397800000000000    0.5069350000000000 Ga
   0.1659300000000000    0.2392300000000000    0.7487350000000000 Ga
   0.2487400000000000    0.0248100000000000    0.9893600000000000 Ga
   0.2535566666666667    0.9616700000000000    0.7563949999999999 Ga
   0.2503633333333333    0.4504700000000000    0.5092000000000000 Ga
   0.2445233333333333    0.5148300000000000    0.7420500000000000 Ga
   0.0838200000000000    0.9548400000000000    0.5118300000000000 Ga
   0.0926866666666667    0.9546200000000000    0.7557450000000000 Ga
   0.0825966666666667    0.5205900000000000    0.9875149999999999 Ga
   0.0732566666666667    0.5201600000000000    0.7432400000000000 Ga
   0.3210133333333333    0.7404600000000000    0.5086800000000000 Ga
   0.6594733333333334    0.7587900000000000    0.7536250000000000 Ga
   0.3451200000000000    0.2348200000000000    0.5000000000000000 Ga
   0.6664033333333332    0.2361500000000000    0.7496950000000000 Ga
   0.5113766666666666    0.7353700000000000    0.9903750000000000 Ga
   0.5054500000000000    0.7195900000000000    0.7459249999999999 Ga
   0.4875266666666667    0.2397800000000000    0.5069350000000000 Ga
   0.4992633333333333    0.2392300000000000    0.7487350000000000 Ga
   0.5820733333333333    0.0248100000000000    0.9893600000000000 Ga
   0.5868899999999999    0.9616700000000000    0.7563949999999999 Ga
   0.5836966666666666    0.4504700000000000    0.5092000000000000 Ga
   0.5778566666666667    0.5148300000000000    0.7420500000000000 Ga
   0.4171533333333333    0.9548400000000000    0.5118300000000000 Ga
   0.4260200000000000    0.9546200000000000    0.7557450000000000 Ga
   0.4159300000000000    0.5205900000000000    0.9875149999999999 Ga
   0.4065900000000000    0.5201600000000000    0.7432400000000000 Ga
   0.6543466666666666    0.7404600000000000    0.5086800000000000 Ga
   0.9928066666666666    0.7587900000000000    0.7536250000000000 Ga
   0.6784533333333334    0.2348200000000000    0.5000000000000000 Ga
   0.9997366666666666    0.2361500000000000    0.7496950000000000 Ga
   0.8447100000000000    0.7353700000000000    0.9903750000000000 Ga
   0.8387833333333332    0.7195900000000000    0.7459249999999999 Ga
   0.8208599999999999    0.2397800000000000    0.5069350000000000 Ga
   0.8325966666666667    0.2392300000000000    0.7487350000000000 Ga
   0.9154066666666666    0.0248100000000000    0.9893600000000000 Ga
   0.9202233333333333    0.9616700000000000    0.7563949999999999 Ga
   0.9170300000000000    0.4504700000000000    0.5092000000000000 Ga
   0.9111899999999999    0.5148300000000000    0.7420500000000000 Ga
   0.7504866666666666    0.9548400000000000    0.5118300000000000 Ga
   0.7593533333333333    0.9546200000000000    0.7557450000000000 Ga
   0.7492633333333333    0.5205900000000000    0.9875149999999999 Ga
   0.7399233333333333    0.5201600000000000    0.7432400000000000 Ga
   0.9876799999999999    0.7404600000000000    0.5086800000000000 Ga
   0.2501700000000000    0.7368500000000000    0.3077200000000000 P
   0.2439166666666667    0.7097200000000000    0.0588600000000000 P
   0.2522033333333333    0.2108500000000000    0.3066400000000000 P
   0.2451766666666667    0.2336000000000000    0.0571200000000000 P
   0.0759900000000000    0.7455000000000001    0.3085400000000000 P
   0.0787033333333333    0.7281100000000000    0.0566950000000000 P
   0.0866500000000000    0.2084300000000000    0.3049800000000000 P
   0.0792200000000000    0.2180400000000000    0.0596350000000000 P
   0.2550533333333333    0.7661300000000000    0.4400550000000000 P
   0.2481500000000000    0.7405100000000000    0.1913350000000000 P
   0.2542766666666667    0.2418300000000000    0.4414150000000000 P
   0.2466166666666667    0.2651500000000000    0.1919650000000000 P
   0.0870166666666667    0.7467300000000000    0.4424800000000000 P
   0.0893700000000000    0.7281700000000000    0.1903750000000000 P
   0.0870900000000000    0.2582000000000000    0.4389800000000000 P
   0.0791666666666667    0.2667600000000000    0.1935500000000000 P
   0.5835033333333333    0.7368500000000000    0.3077200000000000 P
   0.5772500000000000    0.7097200000000000    0.0588600000000000 P
   0.5855366666666666    0.2108500000000000    0.3066400000000000 P
   0.5785100000000000    0.2336000000000000    0.0571200000000000 P
   0.4093233333333333    0.7455000000000001    0.3085400000000000 P
   0.4120366666666666    0.7281100000000000    0.0566950000000000 P
   0.4199833333333333    0.2084300000000000    0.3049800000000000 P
   0.4125533333333333    0.2180400000000000    0.0596350000000000 P
   0.5883866666666666    0.7661300000000000    0.4400550000000000 P
   0.5814833333333334    0.7405100000000000    0.1913350000000000 P
   0.5876100000000000    0.2418300000000000    0.4414150000000000 P
   0.5799500000000000    0.2651500000000000    0.1919650000000000 P
   0.4203500000000000    0.7467300000000000    0.4424800000000000 P
   0.4227033333333333    0.7281700000000000    0.1903750000000000 P
   0.4204233333333333    0.2582000000000000    0.4389800000000000 P
   0.4125000000000000    0.2667600000000000    0.1935500000000000 P
   0.9168366666666666    0.7368500000000000    0.3077200000000000 P
   0.9105833333333333    0.7097200000000000    0.0588600000000000 P
   0.9188700000000000    0.2108500000000000    0.3066400000000000 P
   0.9118433333333333    0.2336000000000000    0.0571200000000000 P
   0.7426566666666666    0.7455000000000001    0.3085400000000000 P
   0.7453700000000000    0.7281100000000000    0.0566950000000000 P
   0.7533166666666666    0.2084300000000000    0.3049800000000000 P
   0.7458866666666666    0.2180400000000000    0.0596350000000000 P
   0.9217199999999999    0.7661300000000000    0.4400550000000000 P
   0.9148166666666666    0.7405100000000000    0.1913350000000000 P
   0.9209433333333332    0.2418300000000000    0.4414150000000000 P
   0.9132833333333332    0.2651500000000000    0.1919650000000000 P
   0.7536833333333333    0.7467300000000000    0.4424800000000000 P
   0.7560366666666667    0.7281700000000000    0.1903750000000000 P
   0.7537566666666666    0.2582000000000000    0.4389800000000000 P
   0.7458333333333333    0.2667600000000000    0.1935500000000000 P
   0.2501700000000000    0.7368500000000000    0.8077200000000000 P
   0.2439166666666667    0.7097200000000000    0.5588600000000000 P
   0.2522033333333333    0.2108500000000000    0.8066400000000000 P
   0.2451766666666667    0.2336000000000000    0.5571199999999999 P
   0.0759900000000000    0.7455000000000001    0.8085400000000000 P
   0.0787033333333333    0.7281100000000000    0.5566950000000001 P
   0.0792200000000000    0.2180400000000000    0.5596350000000000 P
   0.2550533333333333    0.7661300000000000    0.9400550000000000 P
   0.2481500000000000    0.7405100000000000    0.6913350000000000 P
   0.2542766666666667    0.2418300000000000    0.9414150000000000 P
   0.2466166666666667    0.2651500000000000    0.6919649999999999 P
   0.0870166666666667    0.7467300000000000    0.9424800000000000 P
   0.0893700000000000    0.7281700000000000    0.6903750000000000 P
   0.0791666666666667    0.2667600000000000    0.6935500000000000 P
   0.5835033333333333    0.7368500000000000    0.8077200000000000 P
   0.5772500000000000    0.7097200000000000    0.5588600000000000 P
   0.5855366666666666    0.2108500000000000    0.8066400000000000 P
   0.5785100000000000    0.2336000000000000    0.5571199999999999 P
   0.4093233333333333    0.7455000000000001    0.8085400000000000 P
   0.4120366666666666    0.7281100000000000    0.5566950000000001 P
   0.4199833333333333    0.2084300000000000    0.8049800000000000 P
   0.4125533333333333    0.2180400000000000    0.5596350000000000 P
   0.5883866666666666    0.7661300000000000    0.9400550000000000 P
   0.5814833333333334    0.7405100000000000    0.6913350000000000 P
   0.5876100000000000    0.2418300000000000    0.9414150000000000 P
   0.5799500000000000    0.2651500000000000    0.6919649999999999 P
   0.4203500000000000    0.7467300000000000    0.9424800000000000 P
   0.4227033333333333    0.7281700000000000    0.6903750000000000 P
   0.4204233333333333    0.2582000000000000    0.9389799999999999 P
   0.4125000000000000    0.2667600000000000    0.6935500000000000 P
   0.9168366666666666    0.7368500000000000    0.8077200000000000 P
   0.9105833333333333    0.7097200000000000    0.5588600000000000 P
   0.9188700000000000    0.2108500000000000    0.8066400000000000 P
   0.9118433333333333    0.2336000000000000    0.5571199999999999 P
   0.7426566666666666    0.7455000000000001    0.8085400000000000 P
   0.7453700000000000    0.7281100000000000    0.5566950000000001 P
   0.7533166666666666    0.2084300000000000    0.8049800000000000 P
   0.7458866666666666    0.2180400000000000    0.5596350000000000 P
   0.9217199999999999    0.7661300000000000    0.9400550000000000 P
   0.9148166666666666    0.7405100000000000    0.6913350000000000 P
   0.9209433333333332    0.2418300000000000    0.9414150000000000 P
   0.9132833333333332    0.2651500000000000    0.6919649999999999 P
   0.7536833333333333    0.7467300000000000    0.9424800000000000 P
   0.7560366666666667    0.7281700000000000    0.6903750000000000 P
   0.7537566666666666    0.2582000000000000    0.9389799999999999 P
   0.7458333333333333    0.2667600000000000    0.6935500000000000 P
   0.3042833333333334    0.7908100000000000    0.3647400000000000 H
   0.2906100000000000    0.7720600000000000    0.1203150000000000 H
   0.3013566666666667    0.2606800000000000    0.3677050000000000 H
   0.2945733333333333    0.2717400000000000    0.1174800000000000 H
   0.1291833333333333    0.7950000000000000    0.3663300000000000 H
   0.1302066666666667    0.7741200000000000    0.1153100000000000 H
   0.1367866666666667    0.2540400000000000    0.3651650000000000 H
   0.1262100000000000    0.2727000000000000    0.1210800000000000 H
   0.2656033333333333    0.8846900000000000    0.3673200000000000 H
   0.2501466666666666    0.8591299999999999    0.1177900000000000 H
   0.2660333333333333    0.3629700000000000    0.3655750000000000 H
   0.2603733333333333    0.3771100000000000    0.1174000000000000 H
   0.0897433333333333    0.8854300000000001    0.3704400000000000 H
   0.0899900000000000    0.8612900000000000    0.1195850000000000 H
   0.1034766666666667    0.3617500000000000    0.3634700000000000 H
   0.0915433333333333    0.3759000000000000    0.1164200000000000 H
   0.2085933333333333    0.7012900000000000    0.3786100000000000 H
   0.1946733333333333    0.6844300000000000    0.1338400000000000 H
   0.2045533333333333    0.2031900000000000    0.3813100000000000 H
   0.1976300000000000    0.2153400000000000    0.1307000000000000 H
   0.0352000000000000    0.7013200000000001    0.3840450000000000 H
   0.0361933333333333    0.6786200000000000    0.1325750000000000 H
   0.0397833333333333    0.2047900000000000    0.3777450000000000 H
   0.0291133333333333    0.2237400000000000    0.1333050000000000 H
   0.2496566666666667    0.6162400000000000    0.3813400000000000 H
   0.2334800000000000    0.5908900000000000    0.1321350000000000 H
   0.2389500000000000    0.0983000000000000    0.3811200000000000 H
   0.2328100000000000    0.1127600000000000    0.1331200000000000 H
   0.0751166666666667    0.6131300000000000    0.3796300000000000 H
   0.0758200000000000    0.5888000000000000    0.1284100000000000 H
   0.0743333333333333    0.1011400000000000    0.3819950000000000 H
   0.0620800000000000    0.1151400000000000    0.1347000000000000 H
   0.6376166666666667    0.7908100000000000    0.3647400000000000 H
   0.6239433333333333    0.7720600000000000    0.1203150000000000 H
   0.6346900000000000    0.2606800000000000    0.3677050000000000 H
   0.6279066666666666    0.2717400000000000    0.1174800000000000 H
   0.4625166666666666    0.7950000000000000    0.3663300000000000 H
   0.4635400000000000    0.7741200000000000    0.1153100000000000 H
   0.4701200000000000    0.2540400000000000    0.3651650000000000 H
   0.4595433333333333    0.2727000000000000    0.1210800000000000 H
   0.5989366666666667    0.8846900000000000    0.3673200000000000 H
   0.5834800000000000    0.8591299999999999    0.1177900000000000 H
   0.5993666666666666    0.3629700000000000    0.3655750000000000 H
   0.5937066666666666    0.3771100000000000    0.1174000000000000 H
   0.4230766666666667    0.8854300000000001    0.3704400000000000 H
   0.4233233333333333    0.8612900000000000    0.1195850000000000 H
   0.4368100000000000    0.3617500000000000    0.3634700000000000 H
   0.4248766666666666    0.3759000000000000    0.1164200000000000 H
   0.5419266666666667    0.7012900000000000    0.3786100000000000 H
   0.5280066666666666    0.6844300000000000    0.1338400000000000 H
   0.5378866666666666    0.2031900000000000    0.3813100000000000 H
   0.5309633333333333    0.2153400000000000    0.1307000000000000 H
   0.3685333333333333    0.7013200000000001    0.3840450000000000 H
   0.3695266666666667    0.6786200000000000    0.1325750000000000 H
   0.3731166666666667    0.2047900000000000    0.3777450000000000 H
   0.3624466666666666    0.2237400000000000    0.1333050000000000 H
   0.5829900000000000    0.6162400000000000    0.3813400000000000 H
   0.5668133333333333    0.5908900000000000    0.1321350000000000 H
   0.5722833333333333    0.0983000000000000    0.3811200000000000 H
   0.5661433333333333    0.1127600000000000    0.1331200000000000 H
   0.4084500000000000    0.6131300000000000    0.3796300000000000 H
   0.4091533333333333    0.5888000000000000    0.1284100000000000 H
   0.4076666666666666    0.1011400000000000    0.3819950000000000 H
   0.3954133333333333    0.1151400000000000    0.1347000000000000 H
   0.9709500000000000    0.7908100000000000    0.3647400000000000 H
   0.9572766666666666    0.7720600000000000    0.1203150000000000 H
   0.9680233333333332    0.2606800000000000    0.3677050000000000 H
   0.9612399999999999    0.2717400000000000    0.1174800000000000 H
   0.7958499999999999    0.7950000000000000    0.3663300000000000 H
   0.7968733333333333    0.7741200000000000    0.1153100000000000 H
   0.8034533333333334    0.2540400000000000    0.3651650000000000 H
   0.7928766666666667    0.2727000000000000    0.1210800000000000 H
   0.9322699999999999    0.8846900000000000    0.3673200000000000 H
   0.9168133333333333    0.8591299999999999    0.1177900000000000 H
   0.9327000000000000    0.3629700000000000    0.3655750000000000 H
   0.9270400000000000    0.3771100000000000    0.1174000000000000 H
   0.7564100000000000    0.8854300000000001    0.3704400000000000 H
   0.7566566666666666    0.8612900000000000    0.1195850000000000 H
   0.7701433333333333    0.3617500000000000    0.3634700000000000 H
   0.7582099999999999    0.3759000000000000    0.1164200000000000 H
   0.8752599999999999    0.7012900000000000    0.3786100000000000 H
   0.8613400000000000    0.6844300000000000    0.1338400000000000 H
   0.8712199999999999    0.2031900000000000    0.3813100000000000 H
   0.8642966666666666    0.2153400000000000    0.1307000000000000 H
   0.7018666666666666    0.7013200000000001    0.3840450000000000 H
   0.7028599999999999    0.6786200000000000    0.1325750000000000 H
   0.7064499999999999    0.2047900000000000    0.3777450000000000 H
   0.6957800000000000    0.2237400000000000    0.1333050000000000 H
   0.9163233333333333    0.6162400000000000    0.3813400000000000 H
   0.9001466666666667    0.5908900000000000    0.1321350000000000 H
   0.9056166666666666    0.0983000000000000    0.3811200000000000 H
   0.8994766666666666    0.1127600000000000    0.1331200000000000 H
   0.7417833333333332    0.6131300000000000    0.3796300000000000 H
   0.7424866666666666    0.5888000000000000    0.1284100000000000 H
   0.7410000000000000    0.1011400000000000    0.3819950000000000 H
   0.7287466666666667    0.1151400000000000    0.1347000000000000 H
   0.3042833333333334    0.7908100000000000    0.8647400000000001 H
   0.2906100000000000    0.7720600000000000    0.6203149999999999 H
   0.3013566666666667    0.2606800000000000    0.8677049999999999 H
   0.2945733333333333    0.2717400000000000    0.6174800000000000 H
   0.1291833333333333    0.7950000000000000    0.8663300000000000 H
   0.1302066666666667    0.7741200000000000    0.6153100000000000 H
   0.1262100000000000    0.2727000000000000    0.6210800000000000 H
   0.2656033333333333    0.8846900000000000    0.8673200000000000 H
   0.2501466666666666    0.8591299999999999    0.6177900000000001 H
   0.2660333333333333    0.3629700000000000    0.8655750000000000 H
   0.2603733333333333    0.3771100000000000    0.6173999999999999 H
   0.0897433333333333    0.8854300000000001    0.8704400000000000 H
   0.0899900000000000    0.8612900000000000    0.6195850000000001 H
   0.0915433333333333    0.3759000000000000    0.6164200000000000 H
   0.2085933333333333    0.7012900000000000    0.8786100000000000 H
   0.1946733333333333    0.6844300000000000    0.6338400000000000 H
   0.2045533333333333    0.2031900000000000    0.8813100000000000 H
   0.1976300000000000    0.2153400000000000    0.6307000000000000 H
   0.0352000000000000    0.7013200000000001    0.8840450000000000 H
   0.0361933333333333    0.6786200000000000    0.6325750000000000 H
   0.0291133333333333    0.2237400000000000    0.6333050000000000 H
   0.2496566666666667    0.6162400000000000    0.8813400000000000 H
   0.2334800000000000    0.5908900000000000    0.6321350000000000 H
   0.2389500000000000    0.0983000000000000    0.8811200000000000 H
   0.2328100000000000    0.1127600000000000    0.6331200000000000 H
   0.0751166666666667    0.6131300000000000    0.8796300000000000 H
   0.0758200000000000    0.5888000000000000    0.6284100000000000 H
   0.0620800000000000    0.1151400000000000    0.6347000000000000 H
   0.6376166666666667    0.7908100000000000    0.8647400000000001 H
   0.6239433333333333    0.7720600000000000    0.6203149999999999 H
   0.6346900000000000    0.2606800000000000    0.8677049999999999 H
   0.6279066666666666    0.2717400000000000    0.6174800000000000 H
   0.4625166666666666    0.7950000000000000    0.8663300000000000 H
   0.4635400000000000    0.7741200000000000    0.6153100000000000 H
   0.4701200000000000    0.2540400000000000    0.8651650000000000 H
   0.4595433333333333    0.2727000000000000    0.6210800000000000 H
   0.5989366666666667    0.8846900000000000    0.8673200000000000 H
   0.5834800000000000    0.8591299999999999    0.6177900000000001 H
   0.5993666666666666    0.3629700000000000    0.8655750000000000 H
   0.5937066666666666    0.3771100000000000    0.6173999999999999 H
   0.4230766666666667    0.8854300000000001    0.8704400000000000 H
   0.4233233333333333    0.8612900000000000    0.6195850000000001 H
   0.4368100000000000    0.3617500000000000    0.8634700000000000 H
   0.4248766666666666    0.3759000000000000    0.6164200000000000 H
   0.5419266666666667    0.7012900000000000    0.8786100000000000 H
   0.5280066666666666    0.6844300000000000    0.6338400000000000 H
   0.5378866666666666    0.2031900000000000    0.8813100000000000 H
   0.5309633333333333    0.2153400000000000    0.6307000000000000 H
   0.3685333333333333    0.7013200000000001    0.8840450000000000 H
   0.3695266666666667    0.6786200000000000    0.6325750000000000 H
   0.3731166666666667    0.2047900000000000    0.8777450000000000 H
   0.3624466666666666    0.2237400000000000    0.6333050000000000 H
   0.5829900000000000    0.6162400000000000    0.8813400000000000 H
   0.5668133333333333    0.5908900000000000    0.6321350000000000 H
   0.5722833333333333    0.0983000000000000    0.8811200000000000 H
   0.5661433333333333    0.1127600000000000    0.6331200000000000 H
   0.4084500000000000    0.6131300000000000    0.8796300000000000 H
   0.4091533333333333    0.5888000000000000    0.6284100000000000 H
   0.4076666666666666    0.1011400000000000    0.8819950000000000 H
   0.3954133333333333    0.1151400000000000    0.6347000000000000 H
   0.9709500000000000    0.7908100000000000    0.8647400000000001 H
   0.9572766666666666    0.7720600000000000    0.6203149999999999 H
   0.9680233333333332    0.2606800000000000    0.8677049999999999 H
   0.9612399999999999    0.2717400000000000    0.6174800000000000 H
   0.7958499999999999    0.7950000000000000    0.8663300000000000 H
   0.7968733333333333    0.7741200000000000    0.6153100000000000 H
   0.8034533333333334    0.2540400000000000    0.8651650000000000 H
   0.7928766666666667    0.2727000000000000    0.6210800000000000 H
   0.9322699999999999    0.8846900000000000    0.8673200000000000 H
   0.9168133333333333    0.8591299999999999    0.6177900000000001 H
   0.9327000000000000    0.3629700000000000    0.8655750000000000 H
   0.9270400000000000    0.3771100000000000    0.6173999999999999 H
   0.7564100000000000    0.8854300000000001    0.8704400000000000 H
   0.7566566666666666    0.8612900000000000    0.6195850000000001 H
   0.7701433333333333    0.3617500000000000    0.8634700000000000 H
   0.7582099999999999    0.3759000000000000    0.6164200000000000 H
   0.8752599999999999    0.7012900000000000    0.8786100000000000 H
   0.8613400000000000    0.6844300000000000    0.6338400000000000 H
   0.8712199999999999    0.2031900000000000    0.8813100000000000 H
   0.8642966666666666    0.2153400000000000    0.6307000000000000 H
   0.7018666666666666    0.7013200000000001    0.8840450000000000 H
   0.7028599999999999    0.6786200000000000    0.6325750000000000 H
   0.7064499999999999    0.2047900000000000    0.8777450000000000 H
   0.6957800000000000    0.2237400000000000    0.6333050000000000 H
   0.9163233333333333    0.6162400000000000    0.8813400000000000 H
   0.9001466666666667    0.5908900000000000    0.6321350000000000 H
   0.9056166666666666    0.0983000000000000    0.8811200000000000 H
   0.8994766666666666    0.1127600000000000    0.6331200000000000 H
   0.7417833333333332    0.6131300000000000    0.8796300000000000 H
   0.7424866666666666    0.5888000000000000    0.6284100000000000 H
   0.7410000000000000    0.1011400000000000    0.8819950000000000 H
   0.7287466666666667    0.1151400000000000    0.6347000000000000 H
   0.2694033333333333    0.7900100000000000    0.3603350000000000 C
   0.2556300000000000    0.7658900000000000    0.1126600000000000 C
   0.2672666666666667    0.2659600000000000    0.3606800000000000 C
   0.2606366666666666    0.2795100000000000    0.1112250000000000 C
   0.0940866666666667    0.7916299999999999    0.3622800000000000 C
   0.0949766666666667    0.7683600000000000    0.1108750000000000 C
   0.1031200000000000    0.2637500000000000    0.3586400000000000 C
   0.0923433333333333    0.2786900000000000    0.1128950000000000 C
   0.2436533333333333    0.7089500000000000    0.3863250000000000 C
   0.2295600000000000    0.6855700000000000    0.1386700000000000 C
   0.2385566666666667    0.1958100000000000    0.3873800000000000 C
   0.2316766666666667    0.2098600000000000    0.1378850000000000 C
   0.0703933333333333    0.7063600000000000    0.3883000000000000 C
   0.0713133333333333    0.6824000000000000    0.1366650000000000 C
   0.0736566666666667    0.1984500000000000    0.3856850000000000 C
   0.0626933333333333    0.2133000000000000    0.1397950000000000 C
   0.6027366666666667    0.7900100000000000    0.3603350000000000 C
   0.5889633333333333    0.7658900000000000    0.1126600000000000 C
   0.6006000000000000    0.2659600000000000    0.3606800000000000 C
   0.5939699999999999    0.2795100000000000    0.1112250000000000 C
   0.4274200000000000    0.7916299999999999    0.3622800000000000 C
   0.4283100000000000    0.7683600000000000    0.1108750000000000 C
   0.4364533333333333    0.2637500000000000    0.3586400000000000 C
   0.4256766666666666    0.2786900000000000    0.1128950000000000 C
   0.5769866666666666    0.7089500000000000    0.3863250000000000 C
   0.5628933333333332    0.6855700000000000    0.1386700000000000 C
   0.5718900000000000    0.1958100000000000    0.3873800000000000 C
   0.5650100000000000    0.2098600000000000    0.1378850000000000 C
   0.4037266666666667    0.7063600000000000    0.3883000000000000 C
   0.4046466666666667    0.6824000000000000    0.1366650000000000 C
   0.4069900000000000    0.1984500000000000    0.3856850000000000 C
   0.3960266666666666    0.2133000000000000    0.1397950000000000 C
   0.9360700000000000    0.7900100000000000    0.3603350000000000 C
   0.9222966666666665    0.7658900000000000    0.1126600000000000 C
   0.9339333333333333    0.2659600000000000    0.3606800000000000 C
   0.9273033333333333    0.2795100000000000    0.1112250000000000 C
   0.7607533333333333    0.7916299999999999    0.3622800000000000 C
   0.7616433333333333    0.7683600000000000    0.1108750000000000 C
   0.7697866666666666    0.2637500000000000    0.3586400000000000 C
   0.7590100000000000    0.2786900000000000    0.1128950000000000 C
   0.9103200000000000    0.7089500000000000    0.3863250000000000 C
   0.8962266666666666    0.6855700000000000    0.1386700000000000 C
   0.9052233333333333    0.1958100000000000    0.3873800000000000 C
   0.8983433333333333    0.2098600000000000    0.1378850000000000 C
   0.7370599999999999    0.7063600000000000    0.3883000000000000 C
   0.7379800000000000    0.6824000000000000    0.1366650000000000 C
   0.7403233333333333    0.1984500000000000    0.3856850000000000 C
   0.7293600000000000    0.2133000000000000    0.1397950000000000 C
   0.2694033333333333    0.7900100000000000    0.8603350000000001 C
   0.2556300000000000    0.7658900000000000    0.6126600000000000 C
   0.2672666666666667    0.2659600000000000    0.8606800000000000 C
   0.2606366666666666    0.2795100000000000    0.6112250000000000 C
   0.0940866666666667    0.7916299999999999    0.8622799999999999 C
   0.0949766666666667    0.7683600000000000    0.6108750000000001 C
   0.0923433333333333    0.2786900000000000    0.6128950000000000 C
   0.2436533333333333    0.7089500000000000    0.8863250000000000 C
   0.2295600000000000    0.6855700000000000    0.6386700000000000 C