H7 O5
1.0
  32.5335725865392860    0.0000000000000000  -11.5111578373498080
 -12.1494269300167019   37.4704025865375954   -2.6515571415644672
   0.0000000000000000    0.0000000000000000   20.1859999999999999
H O
7 5
direct
   0.8440787610098207    0.5237573313516806    0.7086471870205798 H
   0.8190338256951409    0.4019626361733833    0.5502359887927737 H
   0.9190020943691123    0.4944580626209497    0.5972776271451044 H
   0.8700077722050100    0.4511215267102373    0.5761967514803543 H
   0.7581758275063563    0.3958795898204767    0.6233858665543348 H
   0.7696213436432182    0.4502519842872058    0.7815670226457024 H
   0.7789949354554357    0.4297369799705125    0.7227586097530101 H
   0.8532400000000000    0.5483160000000000    0.7335849999999999 O
   0.8465840000000000    0.4182960000000000    0.5541400000000000 O
   0.9013280000000000    0.4696900000000001    0.5806350000000000 O
   0.7345700000000001    0.4003020000000000    0.6346849999999999 O
   0.7475500000000002    0.4356280000000000    0.7378100000000000 O
