H2 C3 O4
1.0
  27.0579983515323867    0.0000000000000000   -0.0094450235882824
  -1.4265662371981052   13.4593868164228816   -0.0777193462941166
   0.0000000000000000    0.0000000000000000   27.8730000000000011
H C O
2 3 4
direct
   0.0049125000000000    0.6830849999999999    0.8097800000000001 H
   0.9567225000000000    0.6815050000000000    0.8545000000000000 H
   0.9411550000000000    0.5771800000000000    0.7957800000000000 C
   0.9645625000000000    0.6758299999999999    0.8161700000000000 C
   0.9421524999999999    0.7578350000000000    0.7885300000000000 C
   0.9519124999999999    0.5538950000000000    0.7531000000000000 O
   0.9106875000000000    0.5248100000000000    0.8225800000000000 O
   0.9520850000000000    0.7668800000000000    0.7442100000000000 O
   0.9140125000000000    0.8093150000000000    0.8124900000000000 O
