H4 O2
1.0
  27.0579983515323867    0.0000000000000000   -0.0094450235882824
  -1.4265662371981052   13.4593868164228816   -0.0777193462941166
   0.0000000000000000    0.0000000000000000   27.8730000000000011
H O
4 2
direct
   0.6686896151721486    0.1412932342705129    0.1245023258589345 H
   0.7097082954320523    0.0726364404883823    0.1499950774068258 H
   0.8212329107807961    0.8379805588666418    0.8753086759570771 H
   0.7871386867447523    0.9207843270811699    0.8501854476549172 H
   0.6920450000000000    0.1321100000000000    0.1505100000000000 O
   0.8167350000000000    0.8850199999999999    0.8495400000000000 O
