H6 O4
1.0
  27.0579983515323867    0.0000000000000000   -0.0094450235882824
  -1.4265662371981052   13.4593868164228816   -0.0777193462941166
   0.0000000000000000    0.0000000000000000   27.8730000000000011
H O
6 4
direct
   0.8924478132403536    0.5632957780597486    0.8445573917565753 H
   0.9637495424580366    0.5975431562218793    0.7271266721574493 H
   0.9307084368835234    0.5986356185105690    0.7786492327298601 H
   0.9755953058512667    0.7579011832405368    0.7696923380370609 H
   0.9426657121833371    0.7983720567906780    0.8435466286684052 H
   0.9107664831955454    0.8201675981516927    0.8467227755804515 H
   0.9106875000000000    0.5248100000000000    0.8225800000000000 O
   0.9519124999999999    0.5538950000000000    0.7531000000000000 O
   0.9520850000000000    0.7668800000000000    0.7442100000000000 O
   0.9140125000000000    0.8093150000000000    0.8124900000000000 O
