Zn32 H274 C291 N30 O128
1.0
  27.0579983515323867    0.0000000000000000   -0.0094450235882824
  -1.4265662371981052   13.4593868164228816   -0.0777193462941166
   0.0000000000000000    0.0000000000000000   27.8730000000000011
Zn H C N O
32 274 291 30 128
direct
   0.2413650000000000    0.1585750000000000    0.7083900000000000 Zn
   0.1163600000000000    0.4086750000000000    0.7915500000000000 Zn
   0.2043150000000000    0.2322150000000000    0.2084700000000000 Zn
   0.0793250000000000    0.4829600000000000    0.2915700000000000 Zn
   0.4913650000000000    0.1585750000000000    0.7083900000000000 Zn
   0.3663600000000000    0.4086750000000000    0.7915500000000000 Zn
   0.4543150000000000    0.2322150000000000    0.2084700000000000 Zn
   0.3293250000000000    0.4829600000000000    0.2915700000000000 Zn
   0.7413650000000001    0.1585750000000000    0.7083900000000000 Zn
   0.6163600000000000    0.4086750000000000    0.7915500000000000 Zn
   0.7043150000000000    0.2322150000000000    0.2084700000000000 Zn
   0.5793250000000000    0.4829600000000000    0.2915700000000000 Zn
   0.9913650000000001    0.1585750000000000    0.7083900000000000 Zn
   0.8663600000000000    0.4086750000000000    0.7915500000000000 Zn
   0.9543150000000000    0.2322150000000000    0.2084700000000000 Zn
   0.8293250000000000    0.4829600000000000    0.2915700000000000 Zn
   0.2413650000000000    0.6585750000000000    0.7083900000000000 Zn
   0.1163600000000000    0.9086750000000000    0.7915500000000000 Zn
   0.2043150000000000    0.7322150000000001    0.2084700000000000 Zn
   0.0793250000000000    0.9829600000000001    0.2915700000000000 Zn
   0.4913650000000000    0.6585750000000000    0.7083900000000000 Zn
   0.3663600000000000    0.9086750000000000    0.7915500000000000 Zn
   0.4543150000000000    0.7322150000000001    0.2084700000000000 Zn
   0.3293250000000000    0.9829600000000001    0.2915700000000000 Zn
   0.7413650000000001    0.6585750000000000    0.7083900000000000 Zn
   0.6163600000000000    0.9086750000000000    0.7915500000000000 Zn
   0.7043150000000000    0.7322150000000001    0.2084700000000000 Zn
   0.5793250000000000    0.9829600000000001    0.2915700000000000 Zn
   0.9913650000000001    0.6585750000000000    0.7083900000000000 Zn
   0.8663600000000000    0.9086750000000000    0.7915500000000000 Zn
   0.9543150000000000    0.7322150000000001    0.2084700000000000 Zn
   0.8293250000000000    0.9829600000000001    0.2915700000000000 Zn
   0.0904625000000000    0.4121150000000000    0.1454500000000000 H
   0.0915250000000000    0.0089700000000000    0.1902300000000000 H
   0.1053025000000000    0.1665800000000000    0.3837100000000000 H
   0.1165800000000000    0.2945800000000000    0.3198400000000000 H
   0.0155475000000000    0.4636250000000000    0.3826400000000000 H
   0.0005525000000000    0.3440500000000000    0.4511000000000000 H
   0.0103425000000000    0.1766350000000000    0.4825300000000000 H
   0.0422825000000000    0.0950300000000000    0.4469200000000000 H
   0.0894600000000000    0.2488850000000000    0.5194000000000000 H
   0.2067225000000000    0.1815050000000000    0.8545000000000000 H
   0.0049125000000000    0.1830850000000000    0.8097800000000001 H
   0.0823200000000000    0.2092100000000000    0.6163100000000000 H
   0.1463875000000000    0.2313050000000000    0.6805800000000000 H
   0.2315275000000000    0.0316300000000000    0.6166100000000000 H
   0.1716425000000000    0.0021400000000000    0.5477400000000000 H
   0.0876000000000000    0.0212850000000000    0.5161900000000000 H
   0.0468100000000000    0.0851700000000000    0.5517700000000000 H
   0.1241650000000000    0.1795600000000000    0.4804400000000000 H
   0.0817025000000000    0.4305350000000000    0.6454200000000000 H
   0.1299025000000000    0.4326950000000000    0.6902199999999999 H
   0.2074375000000000    0.4604100000000000    0.8838900000000000 H
   0.0220575000000000    0.4839350000000000    0.8203200000000000 H
   0.1058625000000000    0.2804700000000000    0.8819800000000000 H
   0.0454200000000000    0.2493950000000000    0.9500900000000000 H
   0.2114475000000000    0.2685900000000000    0.9814500000000000 H
   0.1709875000000000    0.3336900000000000    0.9464000000000000 H
   0.2481350000000000    0.4262550000000000    0.0190300000000000 H
   0.2156150000000000    0.1644400000000000    0.3546300000000000 H
   0.2164225000000000    0.2603150000000000    0.3099000000000000 H
   0.2292500000000000    0.4129050000000000    0.1162100000000000 H
   0.2409900000000000    0.0421550000000000    0.1801800000000000 H
   0.1402175000000000    0.2109100000000000    0.1176200000000000 H
   0.1247150000000000    0.0899550000000000    0.0491000000000000 H
   0.1342125000000000    0.4217050000000000    0.0173800000000000 H
   0.1668200000000000    0.3407800000000000    0.0523400000000000 H
   0.2131175000000000    0.4962350000000000    0.9810100000000000 H
   0.3404625000000000    0.4121150000000000    0.1454500000000000 H
   0.3415250000000000    0.0089700000000000    0.1902300000000000 H
   0.3553025000000000    0.1665800000000000    0.3837100000000000 H
   0.3665800000000000    0.2945800000000000    0.3198400000000000 H
   0.2655475000000000    0.4636250000000000    0.3826400000000000 H
   0.2505525000000000    0.3440500000000000    0.4511000000000000 H
   0.2603425000000000    0.1766350000000000    0.4825300000000000 H
   0.2922825000000000    0.0950300000000000    0.4469200000000000 H
   0.3394600000000000    0.2488850000000000    0.5194000000000000 H
   0.4567225000000000    0.1815050000000000    0.8545000000000000 H
   0.2549125000000000    0.1830850000000000    0.8097800000000001 H
   0.3323200000000000    0.2092100000000000    0.6163100000000000 H
   0.3963875000000000    0.2313050000000000    0.6805800000000000 H
   0.4815275000000000    0.0316300000000000    0.6166100000000000 H
   0.4216425000000000    0.0021400000000000    0.5477400000000000 H
   0.3376000000000000    0.0212850000000000    0.5161900000000000 H
   0.2968100000000000    0.0851700000000000    0.5517700000000000 H
   0.3741650000000000    0.1795600000000000    0.4804400000000000 H
   0.3317025000000000    0.4305350000000000    0.6454200000000000 H
   0.3799025000000000    0.4326950000000000    0.6902199999999999 H
   0.4574375000000000    0.4604100000000000    0.8838900000000000 H
   0.2720575000000000    0.4839350000000000    0.8203200000000000 H
   0.3558625000000000    0.2804700000000000    0.8819800000000000 H
   0.2954200000000000    0.2493950000000000    0.9500900000000000 H
   0.4614475000000000    0.2685900000000000    0.9814500000000000 H
   0.4209875000000000    0.3336900000000000    0.9464000000000000 H
   0.4981350000000000    0.4262550000000000    0.0190300000000000 H
   0.4656150000000000    0.1644400000000000    0.3546300000000000 H
   0.4664225000000000    0.2603150000000000    0.3099000000000000 H
   0.4792500000000000    0.4129050000000000    0.1162100000000000 H
   0.4909900000000000    0.0421550000000000    0.1801800000000000 H
   0.3902175000000000    0.2109100000000000    0.1176200000000000 H
   0.3747150000000000    0.0899550000000000    0.0491000000000000 H
   0.3842125000000000    0.4217050000000000    0.0173800000000000 H
   0.4168200000000000    0.3407800000000000    0.0523400000000000 H
   0.4631175000000000    0.4962350000000000    0.9810100000000000 H
   0.5904625000000000    0.4121150000000000    0.1454500000000000 H
   0.5915250000000000    0.0089700000000000    0.1902300000000000 H
   0.6053025000000000    0.1665800000000000    0.3837100000000000 H
   0.6165800000000000    0.2945800000000000    0.3198400000000000 H
   0.5155475000000000    0.4636250000000000    0.3826400000000000 H
   0.5005525000000000    0.3440500000000000    0.4511000000000000 H
   0.5103425000000000    0.1766350000000000    0.4825300000000000 H
   0.5422825000000000    0.0950300000000000    0.4469200000000000 H
   0.5894600000000000    0.2488850000000000    0.5194000000000000 H
   0.7067225000000000    0.1815050000000000    0.8545000000000000 H
   0.5049125000000000    0.1830850000000000    0.8097800000000001 H
   0.5823199999999999    0.2092100000000000    0.6163100000000000 H
   0.6463875000000000    0.2313050000000000    0.6805800000000000 H
   0.7315275000000000    0.0316300000000000    0.6166100000000000 H
   0.6716425000000000    0.0021400000000000    0.5477400000000000 H
   0.5876000000000000    0.0212850000000000    0.5161900000000000 H
   0.5468100000000000    0.0851700000000000    0.5517700000000000 H
   0.6241650000000000    0.1795600000000000    0.4804400000000000 H
   0.5817025000000000    0.4305350000000000    0.6454200000000000 H
   0.6299025000000000    0.4326950000000000    0.6902199999999999 H
   0.7074374999999999    0.4604100000000000    0.8838900000000000 H
   0.5220575000000000    0.4839350000000000    0.8203200000000000 H
   0.6058625000000000    0.2804700000000000    0.8819800000000000 H
   0.5454200000000000    0.2493950000000000    0.9500900000000000 H
   0.7114475000000000    0.2685900000000000    0.9814500000000000 H
   0.6709875000000000    0.3336900000000000    0.9464000000000000 H
   0.7481350000000000    0.4262550000000000    0.0190300000000000 H
   0.7156150000000000    0.1644400000000000    0.3546300000000000 H
   0.7164225000000000    0.2603150000000000    0.3099000000000000 H
   0.7292500000000000    0.4129050000000000    0.1162100000000000 H
   0.6342125000000001    0.4217050000000000    0.0173800000000000 H
   0.6668200000000000    0.3407800000000000    0.0523400000000000 H
   0.7131175000000000    0.4962350000000000    0.9810100000000000 H
   0.8404625000000000    0.4121150000000000    0.1454500000000000 H
   0.8415250000000000    0.0089700000000000    0.1902300000000000 H
   0.8553025000000000    0.1665800000000000    0.3837100000000000 H
   0.8665800000000000    0.2945800000000000    0.3198400000000000 H
   0.7655475000000000    0.4636250000000000    0.3826400000000000 H
   0.7505525000000000    0.3440500000000000    0.4511000000000000 H
   0.7603425000000000    0.1766350000000000    0.4825300000000000 H
   0.7922825000000000    0.0950300000000000    0.4469200000000000 H
   0.8394600000000000    0.2488850000000000    0.5194000000000000 H
   0.9567225000000000    0.1815050000000000    0.8545000000000000 H
   0.7549125000000000    0.1830850000000000    0.8097800000000001 H
   0.8323199999999999    0.2092100000000000    0.6163100000000000 H
   0.8963875000000000    0.2313050000000000    0.6805800000000000 H
   0.9815275000000000    0.0316300000000000    0.6166100000000000 H
   0.9216425000000000    0.0021400000000000    0.5477400000000000 H
   0.8376000000000000    0.0212850000000000    0.5161900000000000 H
   0.7968100000000000    0.0851700000000000    0.5517700000000000 H
   0.8741650000000000    0.1795600000000000    0.4804400000000000 H
   0.8317025000000000    0.4305350000000000    0.6454200000000000 H
   0.8799025000000000    0.4326950000000000    0.6902199999999999 H
   0.9574374999999999    0.4604100000000000    0.8838900000000000 H
   0.7720575000000000    0.4839350000000000    0.8203200000000000 H
   0.8558625000000000    0.2804700000000000    0.8819800000000000 H
   0.7954200000000000    0.2493950000000000    0.9500900000000000 H
   0.9614475000000000    0.2685900000000000    0.9814500000000000 H
   0.9209875000000000    0.3336900000000000    0.9464000000000000 H
   0.9981350000000000    0.4262550000000000    0.0190300000000000 H
   0.9656150000000000    0.1644400000000000    0.3546300000000000 H
   0.9664225000000000    0.2603150000000000    0.3099000000000000 H
   0.9792500000000000    0.4129050000000000    0.1162100000000000 H
   0.9909900000000000    0.0421550000000000    0.1801800000000000 H
   0.8902175000000000    0.2109100000000000    0.1176200000000000 H
   0.8747150000000000    0.0899550000000000    0.0491000000000000 H
   0.8842125000000001    0.4217050000000000    0.0173800000000000 H
   0.9168200000000000    0.3407800000000000    0.0523400000000000 H
   0.9631175000000000    0.4962350000000000    0.9810100000000000 H
   0.0904625000000000    0.9121150000000000    0.1454500000000000 H
   0.0915250000000000    0.5089700000000000    0.1902300000000000 H
   0.1053025000000000    0.6665800000000000    0.3837100000000000 H
   0.1165800000000000    0.7945800000000001    0.3198400000000000 H
   0.0155475000000000    0.9636250000000000    0.3826400000000000 H
   0.0005525000000000    0.8440500000000000    0.4511000000000000 H
   0.0103425000000000    0.6766350000000000    0.4825300000000000 H
   0.0422825000000000    0.5950299999999999    0.4469200000000000 H
   0.0894600000000000    0.7488850000000000    0.5194000000000000 H
   0.2067225000000000    0.6815050000000000    0.8545000000000000 H
   0.0049125000000000    0.6830849999999999    0.8097800000000001 H
   0.0823200000000000    0.7092100000000000    0.6163100000000000 H
   0.1463875000000000    0.7313050000000000    0.6805800000000000 H
   0.2315275000000000    0.5316300000000000    0.6166100000000000 H
   0.1716425000000000    0.5021400000000000    0.5477400000000000 H
   0.0876000000000000    0.5212850000000000    0.5161900000000000 H
   0.0468100000000000    0.5851700000000000    0.5517700000000000 H
   0.1241650000000000    0.6795599999999999    0.4804400000000000 H
   0.0817025000000000    0.9305350000000000    0.6454200000000000 H
   0.1299025000000000    0.9326950000000001    0.6902199999999999 H
   0.2074375000000000    0.9604100000000000    0.8838900000000000 H
   0.0220575000000000    0.9839350000000000    0.8203200000000000 H
   0.1058625000000000    0.7804700000000000    0.8819800000000000 H
   0.0454200000000000    0.7493950000000000    0.9500900000000000 H
   0.2114475000000000    0.7685900000000000    0.9814500000000000 H
   0.1709875000000000    0.8336900000000000    0.9464000000000000 H
   0.2481350000000000    0.9262550000000001    0.0190300000000000 H
   0.2156150000000000    0.6644400000000000    0.3546300000000000 H
   0.2164225000000000    0.7603150000000001    0.3099000000000000 H
   0.2292500000000000    0.9129050000000001    0.1162100000000000 H
   0.2409900000000000    0.5421549999999999    0.1801800000000000 H
   0.1402175000000000    0.7109099999999999    0.1176200000000000 H
   0.1247150000000000    0.5899550000000000    0.0491000000000000 H
   0.1342125000000000    0.9217050000000000    0.0173800000000000 H
   0.1668200000000000    0.8407800000000001    0.0523400000000000 H
   0.2131175000000000    0.9962350000000000    0.9810100000000000 H
   0.3404625000000000    0.9121150000000000    0.1454500000000000 H
   0.3415250000000000    0.5089700000000000    0.1902300000000000 H
   0.3553025000000000    0.6665800000000000    0.3837100000000000 H
   0.3665800000000000    0.7945800000000001    0.3198400000000000 H
   0.2655475000000000    0.9636250000000000    0.3826400000000000 H
   0.2505525000000000    0.8440500000000000    0.4511000000000000 H
   0.2603425000000000    0.6766350000000000    0.4825300000000000 H
   0.2922825000000000    0.5950299999999999    0.4469200000000000 H
   0.3394600000000000    0.7488850000000000    0.5194000000000000 H
   0.4567225000000000    0.6815050000000000    0.8545000000000000 H
   0.2549125000000000    0.6830849999999999    0.8097800000000001 H
   0.3323200000000000    0.7092100000000000    0.6163100000000000 H
   0.3963875000000000    0.7313050000000000    0.6805800000000000 H
   0.4815275000000000    0.5316300000000000    0.6166100000000000 H
   0.4216425000000000    0.5021400000000000    0.5477400000000000 H
   0.3376000000000000    0.5212850000000000    0.5161900000000000 H
   0.2968100000000000    0.5851700000000000    0.5517700000000000 H
   0.3741650000000000    0.6795599999999999    0.4804400000000000 H
   0.3317025000000000    0.9305350000000000    0.6454200000000000 H
   0.3799025000000000    0.9326950000000001    0.6902199999999999 H
   0.4574375000000000    0.9604100000000000    0.8838900000000000 H
   0.2720575000000000    0.9839350000000000    0.8203200000000000 H
   0.3558625000000000    0.7804700000000000    0.8819800000000000 H
   0.2954200000000000    0.7493950000000000    0.9500900000000000 H
   0.4614475000000000    0.7685900000000000    0.9814500000000000 H
   0.4209875000000000    0.8336900000000000    0.9464000000000000 H
   0.4981350000000000    0.9262550000000001    0.0190300000000000 H
   0.4656150000000000    0.6644400000000000    0.3546300000000000 H
   0.4664225000000000    0.7603150000000001    0.3099000000000000 H
   0.4792500000000000    0.9129050000000001    0.1162100000000000 H
   0.4909900000000000    0.5421549999999999    0.1801800000000000 H
   0.3902175000000000    0.7109099999999999    0.1176200000000000 H
   0.3747150000000000    0.5899550000000000    0.0491000000000000 H
   0.3842125000000000    0.9217050000000000    0.0173800000000000 H
   0.4168200000000000    0.8407800000000001    0.0523400000000000 H
   0.4631175000000000    0.9962350000000000    0.9810100000000000 H
   0.5904625000000000    0.9121150000000000    0.1454500000000000 H
   0.5915250000000000    0.5089700000000000    0.1902300000000000 H
   0.6053025000000000    0.6665800000000000    0.3837100000000000 H
   0.6165800000000000    0.7945800000000001    0.3198400000000000 H
   0.5155475000000000    0.9636250000000000    0.3826400000000000 H
   0.5005525000000000    0.8440500000000000    0.4511000000000000 H
   0.5103425000000000    0.6766350000000000    0.4825300000000000 H
   0.5422825000000000    0.5950299999999999    0.4469200000000000 H
   0.5894600000000000    0.7488850000000000    0.5194000000000000 H
   0.7067225000000000    0.6815050000000000    0.8545000000000000 H
   0.5049125000000000    0.6830849999999999    0.8097800000000001 H
   0.5823199999999999    0.7092100000000000    0.6163100000000000 H
   0.6463875000000000    0.7313050000000000    0.6805800000000000 H
   0.7315275000000000    0.5316300000000000    0.6166100000000000 H
   0.6716425000000000    0.5021400000000000    0.5477400000000000 H
   0.5876000000000000    0.5212850000000000    0.5161900000000000 H
   0.5468100000000000    0.5851700000000000    0.5517700000000000 H
   0.6241650000000000    0.6795599999999999    0.4804400000000000 H
   0.5817025000000000    0.9305350000000000    0.6454200000000000 H
   0.6299025000000000    0.9326950000000001    0.6902199999999999 H
   0.5220575000000000    0.9839350000000000    0.8203200000000000 H
   0.6058625000000000    0.7804700000000000    0.8819800000000000 H
   0.5454200000000000    0.7493950000000000    0.9500900000000000 H
   0.7156150000000000    0.6644400000000000    0.3546300000000000 H
   0.7164225000000000    0.7603150000000001    0.3099000000000000 H
   0.7409900000000000    0.5421549999999999    0.1801800000000000 H
   0.6402175000000000    0.7109099999999999    0.1176200000000000 H
   0.6247150000000000    0.5899550000000000    0.0491000000000000 H
   0.8404625000000000    0.9121150000000000    0.1454500000000000 H
   0.8415250000000000    0.5089700000000000    0.1902300000000000 H
   0.8553025000000000    0.6665800000000000    0.3837100000000000 H
   0.8665800000000000    0.7945800000000001    0.3198400000000000 H
   0.7655475000000000    0.9636250000000000    0.3826400000000000 H
   0.7505525000000000    0.8440500000000000    0.4511000000000000 H
   0.7603425000000000    0.6766350000000000    0.4825300000000000 H
   0.7922825000000000    0.5950299999999999    0.4469200000000000 H
   0.8394600000000000    0.7488850000000000    0.5194000000000000 H
   0.9567225000000000    0.6815050000000000    0.8545000000000000 H
   0.7549125000000000    0.6830849999999999    0.8097800000000001 H
   0.8323199999999999    0.7092100000000000    0.6163100000000000 H
   0.8963875000000000    0.7313050000000000    0.6805800000000000 H
   0.9815275000000000    0.5316300000000000    0.6166100000000000 H
   0.9216425000000000    0.5021400000000000    0.5477400000000000 H
   0.8376000000000000    0.5212850000000000    0.5161900000000000 H
   0.7968100000000000    0.5851700000000000    0.5517700000000000 H
   0.8741650000000000    0.6795599999999999    0.4804400000000000 H
   0.8317025000000000    0.9305350000000000    0.6454200000000000 H
   0.8799025000000000    0.9326950000000001    0.6902199999999999 H
   0.9574374999999999    0.9604100000000000    0.8838900000000000 H
   0.9614475000000000    0.7685900000000000    0.9814500000000000 H
   0.9209875000000000    0.8336900000000000    0.9464000000000000 H
   0.9981350000000000    0.9262550000000001    0.0190300000000000 H
   0.9656150000000000    0.6644400000000000    0.3546300000000000 H
   0.9664225000000000    0.7603150000000001    0.3099000000000000 H
   0.9792500000000000    0.9129050000000001    0.1162100000000000 H
   0.9909900000000000    0.5421549999999999    0.1801800000000000 H
   0.8902175000000000    0.7109099999999999    0.1176200000000000 H
   0.8747150000000000    0.5899550000000000    0.0491000000000000 H
   0.8842125000000001    0.9217050000000000    0.0173800000000000 H
   0.9168200000000000    0.8407800000000001    0.0523400000000000 H
   0.9631175000000000    0.9962350000000000    0.9810100000000000 H
   0.0385100000000000    0.3818150000000000    0.2040000000000000 C
   0.0877900000000000    0.4282350000000000    0.1837800000000000 C
   0.1288600000000000    0.3835800000000000    0.2115300000000000 C
   0.0856850000000000    0.2327150000000000    0.3864700000000000 C
   0.0920550000000000    0.3029150000000000    0.3502500000000000 C
   0.0353675000000000    0.3977550000000000    0.3855200000000000 C
   0.0273425000000000    0.3307700000000000    0.4231400000000000 C
   0.0527300000000000    0.2456800000000000    0.4241300000000000 C
   0.0454450000000000    0.1696350000000000    0.4634200000000000 C
   0.1911550000000000    0.0771800000000000    0.7957800000000000 C
   0.2145625000000000    0.1758300000000000    0.8161700000000000 C
   0.1921525000000000    0.2578350000000000    0.7885300000000000 C
   0.1155025000000000    0.1703550000000000    0.6133999999999999 C
   0.1506675000000000    0.1828650000000000    0.6498400000000000 C
   0.1984200000000000    0.0708450000000000    0.6139200000000000 C
   0.1648675000000000    0.0550450000000000    0.5760800000000000 C
   0.1221425000000000    0.1053350000000000    0.5752800000000000 C
   0.0841750000000000    0.0913350000000000    0.5356200000000000 C
   0.0661225000000000    0.3270300000000000    0.7038800000000000 C
   0.0895525000000000    0.4253500000000000    0.6837500000000000 C
   0.0671700000000000    0.0077700000000000    0.7115800000000000 C
   0.2404600000000000    0.4210450000000000    0.8864800000000000 C
   0.0259250000000000    0.4343350000000000    0.8504300000000000 C
   0.0729350000000000    0.3201800000000000    0.8850600000000000 C
   0.0390775000000000    0.3035450000000000    0.9224900000000000 C
   0.2465450000000000    0.3544000000000000    0.9237100000000000 C
   0.2082100000000000    0.3392600000000000    0.9628900000000000 C
   0.1635625000000000    0.1325850000000000    0.2960300000000000 C
   0.2128275000000000    0.1797250000000000    0.3163100000000000 C
   0.0039175000000000    0.1346950000000000    0.2885300000000000 C
   0.2097525000000000    0.4791500000000000    0.1135300000000000 C
   0.2164000000000000    0.0501050000000000    0.1498000000000000 C
   0.1598600000000000    0.1447650000000000    0.1146700000000000 C
   0.1515575000000000    0.0770100000000000    0.0770100000000000 C
   0.1767800000000000    0.4916850000000000    0.0758900000000000 C
   0.1695025000000000    0.4153650000000000    0.0362700000000000 C
   0.0885700000000000    0.1778650000000000    0.4997500000000000 C
   0.2124550000000000    0.4247350000000000    0.9998200000000000 C
   0.2885100000000000    0.3818150000000000    0.2040000000000000 C
   0.3377900000000000    0.4282350000000000    0.1837800000000000 C
   0.3788600000000000    0.3835800000000000    0.2115300000000000 C
   0.3356850000000000    0.2327150000000000    0.3864700000000000 C
   0.3420550000000000    0.3029150000000000    0.3502500000000000 C
   0.2853675000000000    0.3977550000000000    0.3855200000000000 C
   0.2773425000000000    0.3307700000000000    0.4231400000000000 C
   0.3027300000000000    0.2456800000000000    0.4241300000000000 C
   0.2954450000000000    0.1696350000000000    0.4634200000000000 C
   0.4411550000000000    0.0771800000000000    0.7957800000000000 C
   0.4645625000000000    0.1758300000000000    0.8161700000000000 C
   0.4421525000000000    0.2578350000000000    0.7885300000000000 C
   0.3655025000000000    0.1703550000000000    0.6133999999999999 C
   0.4006675000000000    0.1828650000000000    0.6498400000000000 C
   0.4484200000000000    0.0708450000000000    0.6139200000000000 C
   0.4148675000000000    0.0550450000000000    0.5760800000000000 C
   0.3721425000000000    0.1053350000000000    0.5752800000000000 C
   0.3341750000000000    0.0913350000000000    0.5356200000000000 C
   0.3161225000000000    0.3270300000000000    0.7038800000000000 C
   0.3395525000000000    0.4253500000000000    0.6837500000000000 C
   0.3171700000000000    0.0077700000000000    0.7115800000000000 C
   0.4904600000000000    0.4210450000000000    0.8864800000000000 C
   0.2759250000000000    0.4343350000000000    0.8504300000000000 C
   0.3229350000000000    0.3201800000000000    0.8850600000000000 C
   0.2890775000000000    0.3035450000000000    0.9224900000000000 C
   0.4965450000000000    0.3544000000000000    0.9237100000000000 C
   0.4582100000000000    0.3392600000000000    0.9628900000000000 C
   0.4135625000000000    0.1325850000000000    0.2960300000000000 C
   0.4628275000000000    0.1797250000000000    0.3163100000000000 C
   0.2539175000000000    0.1346950000000000    0.2885300000000000 C
   0.4597525000000000    0.4791500000000000    0.1135300000000000 C
   0.4664000000000000    0.0501050000000000    0.1498000000000000 C
   0.4098600000000000    0.1447650000000000    0.1146700000000000 C
   0.4015575000000000    0.0770100000000000    0.0770100000000000 C
   0.4267800000000000    0.4916850000000000    0.0758900000000000 C
   0.4195025000000000    0.4153650000000000    0.0362700000000000 C
   0.3385700000000000    0.1778650000000000    0.4997500000000000 C
   0.4624550000000000    0.4247350000000000    0.9998200000000000 C
   0.5385100000000000    0.3818150000000000    0.2040000000000000 C
   0.5877900000000000    0.4282350000000000    0.1837800000000000 C
   0.6288600000000000    0.3835800000000000    0.2115300000000000 C
   0.5856850000000000    0.2327150000000000    0.3864700000000000 C
   0.5920550000000000    0.3029150000000000    0.3502500000000000 C
   0.5353675000000000    0.3977550000000000    0.3855200000000000 C
   0.5273425000000000    0.3307700000000000    0.4231400000000000 C
   0.5527299999999999    0.2456800000000000    0.4241300000000000 C
   0.5454450000000000    0.1696350000000000    0.4634200000000000 C
   0.6911550000000000    0.0771800000000000    0.7957800000000000 C
   0.7145625000000000    0.1758300000000000    0.8161700000000000 C
   0.6921524999999999    0.2578350000000000    0.7885300000000000 C
   0.6155025000000000    0.1703550000000000    0.6133999999999999 C
   0.6506675000000000    0.1828650000000000    0.6498400000000000 C
   0.6984200000000000    0.0708450000000000    0.6139200000000000 C
   0.6648674999999999    0.0550450000000000    0.5760800000000000 C
   0.6221425000000000    0.1053350000000000    0.5752800000000000 C
   0.5841750000000000    0.0913350000000000    0.5356200000000000 C
   0.5661225000000000    0.3270300000000000    0.7038800000000000 C
   0.5895525000000000    0.4253500000000000    0.6837500000000000 C
   0.5671700000000000    0.0077700000000000    0.7115800000000000 C
   0.7404600000000000    0.4210450000000000    0.8864800000000000 C
   0.5259250000000000    0.4343350000000000    0.8504300000000000 C
   0.5729350000000000    0.3201800000000000    0.8850600000000000 C
   0.5390775000000000    0.3035450000000000    0.9224900000000000 C
   0.7465450000000000    0.3544000000000000    0.9237100000000000 C
   0.7082100000000000    0.3392600000000000    0.9628900000000000 C
   0.6635625000000001    0.1325850000000000    0.2960300000000000 C
   0.7128274999999999    0.1797250000000000    0.3163100000000000 C
   0.5039175000000000    0.1346950000000000    0.2885300000000000 C
   0.7097525000000000    0.4791500000000000    0.1135300000000000 C
   0.6767799999999999    0.4916850000000000    0.0758900000000000 C
   0.6695025000000000    0.4153650000000000    0.0362700000000000 C
   0.5885700000000000    0.1778650000000000    0.4997500000000000 C
   0.7124550000000001    0.4247350000000000    0.9998200000000000 C
   0.7885100000000000    0.3818150000000000    0.2040000000000000 C
   0.8377900000000000    0.4282350000000000    0.1837800000000000 C
   0.8788600000000000    0.3835800000000000    0.2115300000000000 C
   0.8356850000000000    0.2327150000000000    0.3864700000000000 C
   0.8420550000000000    0.3029150000000000    0.3502500000000000 C
   0.7853675000000000    0.3977550000000000    0.3855200000000000 C
   0.7773425000000000    0.3307700000000000    0.4231400000000000 C
   0.8027299999999999    0.2456800000000000    0.4241300000000000 C
   0.7954450000000000    0.1696350000000000    0.4634200000000000 C
   0.9411550000000000    0.0771800000000000    0.7957800000000000 C
   0.9645625000000000    0.1758300000000000    0.8161700000000000 C
   0.9421524999999999    0.2578350000000000    0.7885300000000000 C
   0.8655025000000000    0.1703550000000000    0.6133999999999999 C
   0.9006675000000000    0.1828650000000000    0.6498400000000000 C
   0.9484200000000000    0.0708450000000000    0.6139200000000000 C
   0.9148674999999999    0.0550450000000000    0.5760800000000000 C
   0.8721425000000000    0.1053350000000000    0.5752800000000000 C
   0.8341750000000000    0.0913350000000000    0.5356200000000000 C
   0.8161225000000000    0.3270300000000000    0.7038800000000000 C