H6 O4
1.0
  15.3994225839484180    0.0000000000000000   -4.2532763936734090
  -3.5533745105229899   18.2425364016825711   -6.6402628879624821
   0.0000000000000000    0.0000000000000000   27.0899999999999999
H O
6 4
direct
   0.7700284618375698    0.7132075290203923    0.4718338532471392 H
   0.8840976638257091    0.5935201794654994    0.3775900556483366 H
   0.8399902780963016    0.6609771191608906    0.4284272761595690 H
   0.2298228734680999    0.7867274080484828    0.5282169433168715 H
   0.1158703116136947    0.9062937460816685    0.6226770443251528 H
   0.1598875830380903    0.8389607192662916    0.5717862757148866 H
   0.7624400000000000    0.6672500000000000    0.4414500000000000 O
   0.8295800000000000    0.5979300000000000    0.3867450000000000 O
   0.2374400000000000    0.8326600000000000    0.5586300000000000 O
   0.1703200000000000    0.9018699999999999    0.6134400000000000 O
