H4 C8 O4
1.0
  15.3994225839484180    0.0000000000000000   -4.2532763936734090
  -3.5533745105229899   18.2425364016825711   -6.6402628879624821
   0.0000000000000000    0.0000000000000000   27.0899999999999999
H C O
4 8 4
direct
   0.9956600000000000    0.6410400000000001    0.4187450000000000 H
   0.1403100000000000    0.7235000000000000    0.4806150000000000 H
   0.8596000000000000    0.7763099999999999    0.5195500000000000 H
   0.0042600000000000    0.8587800000000000    0.5814200000000000 H
   0.9978500000000000    0.6894200000000000    0.4539600000000000 C
   0.9189200000000000    0.7043199999999999    0.4650500000000000 C
   0.8327700000000000    0.6544600000000000    0.4292400000000000 C
   0.0785500000000000    0.7346100000000000    0.4886950000000000 C
   0.9213700000000000    0.7652000000000000    0.5114800000000000 C
   0.0020700000000000    0.8103900000000001    0.5462150000000000 C
   0.0810000000000000    0.7954900000000000    0.5350900000000000 C
   0.1671300000000000    0.8453900000000000    0.5709300000000000 C
   0.8295800000000000    0.5979300000000000    0.3867450000000000 O
   0.7624400000000000    0.6672500000000000    0.4414500000000000 O
   0.1703200000000000    0.9018699999999999    0.6134400000000000 O
   0.2374400000000000    0.8326600000000000    0.5586300000000000 O
