C1 N1
1.0
  27.3193321613957245    0.0000000000000000   -5.8373098474664875
   0.0000000000000050   31.0240000000000009    0.0000000000000019
   0.0000000000000000    0.0000000000000000   39.0459999999999994
C N
1 1
direct
   0.5844199999999999    0.1671550000000000    0.0114450000000000 C
   0.5590300000000000    0.1945600000000000    0.0184400000000000 N
