H16 C6 N2
1.0
  27.3193321613957245    0.0000000000000000   -5.8373098474664875
   0.0000000000000050   31.0240000000000009    0.0000000000000019
   0.0000000000000000    0.0000000000000000   39.0459999999999994
H C N
16 6 2
direct
   0.4969350000000000    0.4735700000000000    0.9313549999999999 H
   0.5851550000000000    0.4716950000000000    0.9513050000000001 H
   0.5509500000000001    0.4715050000000000    0.8861450000000000 H
   0.6423550000000000    0.4716350000000000    0.9076750000000000 H
   0.7531150000000000    0.4735700000000000    0.8186350000000000 H
   0.6648950000000000    0.4717000000000000    0.7986650000000000 H
   0.6990850000000000    0.4715050000000000    0.8638250000000001 H
   0.6076800000000000    0.4716400000000000    0.8422499999999999 H
   0.4969350000000000    0.5264200000000000    0.9313500000000000 H
   0.7531150000000000    0.5264250000000000    0.8186350000000000 H
   0.6648950000000000    0.5282950000000000    0.7986650000000000 H
   0.6990850000000000    0.5284900000000000    0.8638250000000001 H
   0.6076800000000000    0.5283550000000000    0.8422900000000000 H
   0.5851600000000000    0.5282950000000000    0.9513050000000001 H
   0.5509500000000001    0.5284900000000000    0.8861450000000000 H
   0.6423550000000000    0.5283550000000000    0.9076750000000000 H
   0.5665600000000000    0.4999950000000000    0.9377450000000001 C
   0.6797250000000000    0.4999950000000000    0.8506850000000000 C
   0.6268350000000000    0.4999950000000000    0.8557000000000000 C
   0.5703150000000000    0.4999950000000000    0.8992850000000000 C
   0.6232050000000000    0.4999950000000000    0.8942650000000000 C
   0.6834850000000000    0.5000000000000000    0.8122300000000000 C
   0.5155999999999999    0.4999950000000000    0.9430900000000000 N
   0.7344550000000000    0.5000000000000000    0.8068500000000001 N
