H4 O3
1.0
  21.5109999868947490    0.0000000000000000    0.0007508755506399
   0.0071916814521318   37.3187915690006804   -0.7334985406949361
   0.0000000000000000    0.0000000000000000   26.0910000000000011
H O
4 3
direct
   0.8490835122561917    0.5485444228158391    0.4720152320435722 H
   0.8075712588077144    0.6817910749021328    0.0827491491033572 H
   0.6445686835134047    0.6739803206631990    0.1510091307221342 H
   0.7273963248422756    0.6777123167307222    0.1240973435909316 H
   0.8266200000000000    0.5355033333333333    0.4984000000000000 O
   0.7627100000000000    0.6803100000000000    0.0796000000000000 O
   0.6691700000000000    0.6757900000000000    0.1200100000000000 O
