Zn36 H280 C420 O140
1.0
  21.5109999868947490    0.0000000000000000    0.0007508755506399
   0.0071916814521318   37.3187915690006804   -0.7334985406949361
   0.0000000000000000    0.0000000000000000   26.0910000000000011
Zn H C O
36 280 420 140
direct
   0.8824400000000000    0.1913333333333333    0.5598500000000000 Zn
   0.3835300000000000    0.3086666666666666    0.9401600000000000 Zn
   0.8824400000000000    0.3086866666666667    0.9401100000000000 Zn
   0.1175700000000000    0.1420066666666667    0.4401200000000000 Zn
   0.6165500000000000    0.1419800000000000    0.4401000000000000 Zn
   0.1175700000000000    0.0246566666666667    0.0598000000000000 Zn
   0.6164900000000000    0.0246733333333333    0.0598100000000000 Zn
   0.2505700000000000    0.1667066666666667    0.4999900000000000 Zn
   0.7494400000000000    0.1666366666666667    0.4999800000000000 Zn
   0.2505500000000000    0.3333000000000000    0.9999800000000000 Zn
   0.7494600000000000    0.0000366666666667    0.0000000000000000 Zn
   0.3834700000000000    0.1913633333333333    0.5598700000000000 Zn
   0.8824400000000000    0.5246666666666666    0.5598500000000000 Zn
   0.3835300000000000    0.6419999999999999    0.9401600000000000 Zn
   0.8824400000000000    0.6420200000000000    0.9401100000000000 Zn
   0.1175700000000000    0.4753400000000000    0.4401200000000000 Zn
   0.6165500000000000    0.4753133333333333    0.4401000000000000 Zn
   0.1175700000000000    0.3579900000000000    0.0598000000000000 Zn
   0.6164900000000000    0.3580066666666666    0.0598100000000000 Zn
   0.2505700000000000    0.5000400000000000    0.4999900000000000 Zn
   0.7494400000000000    0.4999700000000000    0.4999800000000000 Zn
   0.2505500000000000    0.6666333333333333    0.9999800000000000 Zn
   0.7494600000000000    0.3333700000000000    0.0000000000000000 Zn
   0.3834700000000000    0.5246966666666666    0.5598700000000000 Zn
   0.8824400000000000    0.8579999999999999    0.5598500000000000 Zn
   0.3835300000000000    0.9753333333333333    0.9401600000000000 Zn
   0.8824400000000000    0.9753533333333333    0.9401100000000000 Zn
   0.1175700000000000    0.8086733333333334    0.4401200000000000 Zn
   0.6165500000000000    0.8086466666666666    0.4401000000000000 Zn
   0.1175700000000000    0.6913233333333333    0.0598000000000000 Zn
   0.6164900000000000    0.6913400000000000    0.0598100000000000 Zn
   0.2505700000000000    0.8333733333333333    0.4999900000000000 Zn
   0.7494400000000000    0.8333033333333333    0.4999800000000000 Zn
   0.2505500000000000    0.9999666666666667    0.9999800000000000 Zn
   0.7494600000000000    0.6667033333333333    0.0000000000000000 Zn
   0.3834700000000000    0.8580300000000000    0.5598700000000000 Zn
   0.3133100000000000    0.3279833333333333    0.1618900000000000 H
   0.8121400000000000    0.3280966666666666    0.1618700000000000 H
   0.1825400000000000    0.3186666666666667    0.2073800000000000 H
   0.6814300000000000    0.3185933333333333    0.2073900000000000 H
   0.1745900000000000    0.2881033333333333    0.2863000000000000 H
   0.6735300000000000    0.2880433333333333    0.2862600000000000 H
   0.2200000000000000    0.2600833333333333    0.3626000000000000 H
   0.7189400000000000    0.2600600000000000    0.3626000000000000 H
   0.4031200000000000    0.2885366666666667    0.3100600000000000 H
   0.9020400000000000    0.2886433333333333    0.3101500000000000 H
   0.3578300000000000    0.3162133333333333    0.2337700000000000 H
   0.8567399999999999    0.3162733333333333    0.2338200000000000 H
   0.2691000000000000    0.2313600000000000    0.4255400000000000 H
   0.7680200000000000    0.2313866666666667    0.4255800000000000 H
   0.3964400000000000    0.2566700000000000    0.3858600000000000 H
   0.8953600000000000    0.2567600000000000    0.3859600000000000 H
   0.3493700000000000    0.0607600000000000    0.5081300000000000 H
   0.8488599999999999    0.0605800000000000    0.5079600000000000 H
   0.4809300000000000    0.0902766666666667    0.5298500000000000 H
   0.9802600000000000    0.0902600000000000    0.5298100000000000 H
   0.0646200000000000    0.0520233333333333    0.5273000000000000 H
   0.5649999999999999    0.0518466666666667    0.5273000000000000 H
   0.3858100000000000    0.0071700000000000    0.4894200000000000 H
   0.8857600000000000    0.0068566666666667    0.4893000000000000 H
   0.3131800000000000    0.1719733333333333    0.3379400000000000 H
   0.8122900000000000    0.1718900000000000    0.3381000000000000 H
   0.1823100000000000    0.1813766666666667    0.2926800000000000 H
   0.6815700000000000    0.1814600000000000    0.2926500000000000 H
   0.1742600000000000    0.2120233333333333    0.2137700000000000 H
   0.6736500000000000    0.2121266666666666    0.2138700000000000 H
   0.2196200000000000    0.2400033333333333    0.1373900000000000 H
   0.7190200000000000    0.2400900000000000    0.1370000000000000 H
   0.4027400000000000    0.2112500000000000    0.1896500000000000 H
   0.9021100000000000    0.2112200000000000    0.1896900000000000 H
   0.3575000000000000    0.1836066666666666    0.2659800000000000 H
   0.8568500000000000    0.1836033333333333    0.2660000000000000 H
   0.2688000000000000    0.2686266666666667    0.0743000000000000 H
   0.7680600000000000    0.2686366666666666    0.0744000000000000 H
   0.3960800000000000    0.2432166666666667    0.1140200000000000 H
   0.8954100000000000    0.2432166666666667    0.1139800000000000 H
   0.3493600000000000    0.1059166666666667    0.9920700000000000 H
   0.8489100000000001    0.1061033333333333    0.9920300000000000 H
   0.4809800000000000    0.0762933333333333    0.9708200000000000 H
   0.9803200000000000    0.0764200000000000    0.9701300000000000 H
   0.0646600000000000    0.1146466666666667    0.9727100000000000 H
   0.5649900000000000    0.1147700000000000    0.9727800000000000 H
   0.3858500000000000    0.1595266666666666    0.0108400000000000 H
   0.8857500000000000    0.1598366666666667    0.0105500000000000 H
   0.1878800000000000    0.0052533333333333    0.8380000000000000 H
   0.6867100000000000    0.0053666666666667    0.8380700000000000 H
   0.3185900000000000    0.0147566666666667    0.7925800000000000 H
   0.8174800000000000    0.0146833333333333    0.7925000000000000 H
   0.3264900000000000    0.0453066666666667    0.7137100000000000 H
   0.8254300000000000    0.0452466666666667    0.7136700000000000 H
   0.2810800000000000    0.0732900000000000    0.6373500000000000 H
   0.7800200000000000    0.0732700000000000    0.6373400000000000 H
   0.0979800000000000    0.0447100000000000    0.6898200000000000 H
   0.5969000000000000    0.0448133333333333    0.6899000000000000 H
   0.1432700000000000    0.0170800000000000    0.7661500000000000 H
   0.6421900000000000    0.0171400000000000    0.7662000000000000 H
   0.2320000000000000    0.1019633333333333    0.5743900000000000 H
   0.7309200000000000    0.1019900000000000    0.5744300000000000 H
   0.1046600000000000    0.0765900000000000    0.6140099999999999 H
   0.6035800000000000    0.0766800000000000    0.6141100000000000 H
   0.1511600000000000    0.2727633333333333    0.4920100000000000 H
   0.6506500000000000    0.2725866666666666    0.4918400000000000 H
   0.0197600000000000    0.2430866666666667    0.4701600000000000 H
   0.5190900000000001    0.2430733333333333    0.4701000000000000 H
   0.4350200000000000    0.2815000000000000    0.4726200000000000 H
   0.9354000000000000    0.2813233333333333    0.4726700000000000 H
   0.1142600000000000    0.3264899999999999    0.5106100000000000 H
   0.6142100000000000    0.3261766666666667    0.5105600000000000 H
   0.1877200000000000    0.1614600000000000    0.6618400000000000 H
   0.6868300000000001    0.1613733333333333    0.6620000000000000 H
   0.3184400000000000    0.1518900000000000    0.7073199999999999 H
   0.8177100000000000    0.1519766666666666    0.7072900000000000 H
   0.3263700000000000    0.1212233333333333    0.7860900000000000 H
   0.8257600000000000    0.1213300000000000    0.7862000000000000 H
   0.2810000000000000    0.0932600000000000    0.8624700000000000 H
   0.7804000000000000    0.0933466666666667    0.8625800000000000 H
   0.0979100000000000    0.1221300000000000    0.8102800000000000 H
   0.5972800000000000    0.1221000000000000    0.8103200000000000 H
   0.1431700000000000    0.1497466666666666    0.7339200000000000 H
   0.6425200000000000    0.1497433333333333    0.7339800000000000 H
   0.2319500000000000    0.0647100000000000    0.9255500000000000 H
   0.7312200000000000    0.0647233333333333    0.9256700000000000 H
   0.1046100000000000    0.0901333333333333    0.8859800000000000 H
   0.6039400000000000    0.0901333333333333    0.8859500000000000 H
   0.1511200000000000    0.2272433333333333    0.0079400000000000 H
   0.6506600000000000    0.2274300000000000    0.0070000000000000 H
   0.0197100000000000    0.2569266666666666    0.0298400000000000 H
   0.5190500000000000    0.2570566666666667    0.0291500000000000 H
   0.4350300000000000    0.2185766666666667    0.0271900000000000 H
   0.9353600000000000    0.2187000000000000    0.0272600000000000 H
   0.1142700000000000    0.1735100000000000    0.9894200000000000 H
   0.6141700000000000    0.1738233333333333    0.9891300000000000 H
   0.3133100000000000    0.6613166666666666    0.1618900000000000 H
   0.1825400000000000    0.6519999999999999    0.2073800000000000 H
   0.1745900000000000    0.6214366666666666    0.2863000000000000 H
   0.2200000000000000    0.5934166666666667    0.3626000000000000 H
   0.4031200000000000    0.6218699999999999    0.3100600000000000 H
   0.3578300000000000    0.6495466666666667    0.2337700000000000 H
   0.2691000000000000    0.5646933333333333    0.4255400000000000 H
   0.3964400000000000    0.5900033333333332    0.3858600000000000 H
   0.3493700000000000    0.3940933333333333    0.5081300000000000 H
   0.8488599999999999    0.3939133333333333    0.5079600000000000 H
   0.4809300000000000    0.4236100000000000    0.5298500000000000 H
   0.9802600000000000    0.4235933333333333    0.5298100000000000 H
   0.0646200000000000    0.3853566666666666    0.5273000000000000 H
   0.5649999999999999    0.3851800000000000    0.5273000000000000 H
   0.3858100000000000    0.3405033333333333    0.4894200000000000 H
   0.8857600000000000    0.3401900000000000    0.4893000000000000 H
   0.3131800000000000    0.5053066666666667    0.3379400000000000 H
   0.8122900000000000    0.5052233333333334    0.3381000000000000 H
   0.1823100000000000    0.5147100000000000    0.2926800000000000 H
   0.6815700000000000    0.5147933333333333    0.2926500000000000 H
   0.1742600000000000    0.5453566666666667    0.2137700000000000 H
   0.6736500000000000    0.5454599999999999    0.2138700000000000 H
   0.2196200000000000    0.5733366666666666    0.1373900000000000 H
   0.7190200000000000    0.5734233333333333    0.1370000000000000 H
   0.4027400000000000    0.5445833333333333    0.1896500000000000 H
   0.9021100000000000    0.5445533333333333    0.1896900000000000 H
   0.3575000000000000    0.5169400000000000    0.2659800000000000 H
   0.8568500000000000    0.5169366666666666    0.2660000000000000 H
   0.2688000000000000    0.6019600000000001    0.0743000000000000 H
   0.7680600000000000    0.6019699999999999    0.0744000000000000 H
   0.3960800000000000    0.5765500000000000    0.1140200000000000 H
   0.8954100000000000    0.5765500000000000    0.1139800000000000 H
   0.3493600000000000    0.4392500000000000    0.9920700000000000 H
   0.8489100000000001    0.4394366666666666    0.9920300000000000 H
   0.4809800000000000    0.4096266666666666    0.9708200000000000 H
   0.9803200000000000    0.4097533333333333    0.9701300000000000 H
   0.0646600000000000    0.4479800000000000    0.9727100000000000 H
   0.5649900000000000    0.4481033333333333    0.9727800000000000 H
   0.3858500000000000    0.4928600000000000    0.0108400000000000 H
   0.8857500000000000    0.4931700000000000    0.0105500000000000 H
   0.1878800000000000    0.3385866666666666    0.8380000000000000 H
   0.6867100000000000    0.3387000000000000    0.8380700000000000 H
   0.3185900000000000    0.3480900000000000    0.7925800000000000 H
   0.8174800000000000    0.3480166666666666    0.7925000000000000 H
   0.3264900000000000    0.3786400000000000    0.7137100000000000 H
   0.8254300000000000    0.3785800000000000    0.7136700000000000 H
   0.2810800000000000    0.4066233333333333    0.6373500000000000 H
   0.7800200000000000    0.4066033333333333    0.6373400000000000 H
   0.0979800000000000    0.3780433333333333    0.6898200000000000 H
   0.5969000000000000    0.3781466666666666    0.6899000000000000 H
   0.1432700000000000    0.3504133333333333    0.7661500000000000 H
   0.6421900000000000    0.3504733333333333    0.7662000000000000 H
   0.2320000000000000    0.4352966666666667    0.5743900000000000 H
   0.7309200000000000    0.4353233333333333    0.5744300000000000 H
   0.1046600000000000    0.4099233333333333    0.6140099999999999 H
   0.6035800000000000    0.4100133333333333    0.6141100000000000 H
   0.1511600000000000    0.6060966666666666    0.4920100000000000 H
   0.6506500000000000    0.6059200000000000    0.4918400000000000 H
   0.0197600000000000    0.5764199999999999    0.4701600000000000 H
   0.5190900000000001    0.5764066666666666    0.4701000000000000 H
   0.4350200000000000    0.6148333333333333    0.4726200000000000 H
   0.9354000000000000    0.6146566666666666    0.4726700000000000 H
   0.1142600000000000    0.6598233333333332    0.5106100000000000 H
   0.6142100000000000    0.6595100000000000    0.5105600000000000 H
   0.1877200000000000    0.4947933333333333    0.6618400000000000 H
   0.6868300000000001    0.4947066666666666    0.6620000000000000 H
   0.3184400000000000    0.4852233333333333    0.7073199999999999 H
   0.8177100000000000    0.4853100000000000    0.7072900000000000 H
   0.3263700000000000    0.4545566666666666    0.7860900000000000 H
   0.8257600000000000    0.4546633333333333    0.7862000000000000 H
   0.2810000000000000    0.4265933333333333    0.8624700000000000 H
   0.7804000000000000    0.4266799999999999    0.8625800000000000 H
   0.0979100000000000    0.4554633333333333    0.8102800000000000 H
   0.5972800000000000    0.4554333333333333    0.8103200000000000 H
   0.1431700000000000    0.4830800000000000    0.7339200000000000 H
   0.6425200000000000    0.4830766666666667    0.7339800000000000 H
   0.2319500000000000    0.3980433333333333    0.9255500000000000 H
   0.7312200000000000    0.3980566666666666    0.9256700000000000 H
   0.1046100000000000    0.4234666666666667    0.8859800000000000 H
   0.6039400000000000    0.4234666666666667    0.8859500000000000 H
   0.1511200000000000    0.5605766666666666    0.0079400000000000 H
   0.6506600000000000    0.5607633333333333    0.0070000000000000 H
   0.0197100000000000    0.5902600000000000    0.0298400000000000 H
   0.5190500000000000    0.5903900000000000    0.0291500000000000 H
   0.4350300000000000    0.5519100000000000    0.0271900000000000 H
   0.9353600000000000    0.5520333333333334    0.0272600000000000 H
   0.1142700000000000    0.5068433333333333    0.9894200000000000 H
   0.6141700000000000    0.5071566666666667    0.9891300000000000 H
   0.3133100000000000    0.9946499999999999    0.1618900000000000 H
   0.8121400000000000    0.9947633333333332    0.1618700000000000 H
   0.1825400000000000    0.9853333333333333    0.2073800000000000 H
   0.6814300000000000    0.9852599999999999    0.2073900000000000 H
   0.1745900000000000    0.9547699999999999    0.2863000000000000 H
   0.6735300000000000    0.9547099999999999    0.2862600000000000 H
   0.2200000000000000    0.9267500000000000    0.3626000000000000 H
   0.7189400000000000    0.9267266666666666    0.3626000000000000 H
   0.4031200000000000    0.9552033333333333    0.3100600000000000 H
   0.9020400000000000    0.9553099999999999    0.3101500000000000 H
   0.3578300000000000    0.9828800000000000    0.2337700000000000 H
   0.8567399999999999    0.9829399999999999    0.2338200000000000 H
   0.2691000000000000    0.8980266666666666    0.4255400000000000 H
   0.7680200000000000    0.8980533333333333    0.4255800000000000 H
   0.3964400000000000    0.9233366666666666    0.3858600000000000 H
   0.8953600000000000    0.9234266666666666    0.3859600000000000 H
   0.3493700000000000    0.7274266666666667    0.5081300000000000 H
   0.8488599999999999    0.7272466666666666    0.5079600000000000 H
   0.4809300000000000    0.7569433333333333    0.5298500000000000 H
   0.9802600000000000    0.7569266666666666    0.5298100000000000 H
   0.0646200000000000    0.7186899999999999    0.5273000000000000 H
   0.5649999999999999    0.7185133333333333    0.5273000000000000 H
   0.3858100000000000    0.6738366666666666    0.4894200000000000 H
   0.8857600000000000    0.6735233333333333    0.4893000000000000 H
   0.3131800000000000    0.8386399999999999    0.3379400000000000 H
   0.8122900000000000    0.8385566666666666    0.3381000000000000 H
   0.1823100000000000    0.8480433333333333    0.2926800000000000 H
   0.6815700000000000    0.8481266666666666    0.2926500000000000 H
   0.1742600000000000    0.8786900000000000    0.2137700000000000 H
   0.6736500000000000    0.8787933333333333    0.2138700000000000 H
   0.2196200000000000    0.9066700000000000    0.1373900000000000 H
   0.7190200000000000    0.9067566666666667    0.1370000000000000 H
   0.4027400000000000    0.8779166666666667    0.1896500000000000 H
   0.9021100000000000    0.8778866666666666    0.1896900000000000 H
   0.3575000000000000    0.8502733333333332    0.2659800000000000 H
   0.8568500000000000    0.8502700000000000    0.2660000000000000 H
   0.2688000000000000    0.9352933333333333    0.0743000000000000 H
   0.7680600000000000    0.9353033333333333    0.0744000000000000 H
   0.3960800000000000    0.9098833333333333    0.1140200000000000 H
   0.8954100000000000    0.9098833333333333    0.1139800000000000 H
   0.3493600000000000    0.7725833333333333    0.9920700000000000 H
   0.8489100000000001    0.7727700000000000    0.9920300000000000 H
   0.4809800000000000    0.7429600000000000    0.9708200000000000 H
   0.9803200000000000    0.7430866666666667    0.9701300000000000 H
   0.0646600000000000    0.7813133333333333    0.9727100000000000 H
   0.5649900000000000    0.7814366666666667    0.9727800000000000 H
   0.3858500000000000    0.8261933333333333    0.0108400000000000 H
   0.8857500000000000    0.8265033333333333    0.0105500000000000 H
   0.1878800000000000    0.6719200000000000    0.8380000000000000 H
   0.6867100000000000    0.6720333333333333    0.8380700000000000 H
   0.3185900000000000    0.6814233333333333    0.7925800000000000 H
   0.8174800000000000    0.6813500000000000    0.7925000000000000 H
   0.3264900000000000    0.7119733333333333    0.7137100000000000 H
   0.8254300000000000    0.7119133333333333    0.7136700000000000 H
   0.2810800000000000    0.7399566666666666    0.6373500000000000 H
   0.7800200000000000    0.7399366666666667    0.6373400000000000 H
   0.0979800000000000    0.7113766666666667    0.6898200000000000 H
   0.5969000000000000    0.7114800000000000    0.6899000000000000 H
   0.1432700000000000    0.6837466666666666    0.7661500000000000 H
   0.6421900000000000    0.6838066666666667    0.7662000000000000 H
   0.2320000000000000    0.7686299999999999    0.5743900000000000 H
   0.7309200000000000    0.7686566666666667    0.5744300000000000 H
   0.1046600000000000    0.7432566666666667    0.6140099999999999 H
   0.6035800000000000    0.7433466666666666    0.6141100000000000 H
   0.1511600000000000    0.9394300000000000    0.4920100000000000 H
   0.6506500000000000    0.9392533333333333    0.4918400000000000 H
   0.0197600000000000    0.9097533333333333    0.4701600000000000 H
   0.5190900000000001    0.9097400000000000    0.4701000000000000 H
   0.4350200000000000    0.9481666666666666    0.4726200000000000 H
   0.9354000000000000    0.9479899999999999    0.4726700000000000 H
   0.1142600000000000    0.9931566666666666    0.5106100000000000 H
   0.6142100000000000    0.9928433333333333    0.5105600000000000 H
   0.1877200000000000    0.8281266666666667    0.6618400000000000 H
   0.6868300000000001    0.8280399999999999    0.6620000000000000 H
   0.3184400000000000    0.8185566666666666    0.7073199999999999 H
   0.8177100000000000    0.8186433333333333    0.7072900000000000 H
   0.3263700000000000    0.7878900000000000    0.7860900000000000 H
   0.8257600000000000    0.7879966666666667    0.7862000000000000 H
   0.2810000000000000    0.7599266666666666    0.8624700000000000 H
   0.7804000000000000    0.7600133333333333    0.8625800000000000 H
   0.0979100000000000    0.7887966666666666    0.8102800000000000 H
   0.5972800000000000    0.7887666666666666    0.8103200000000000 H
   0.1431700000000000    0.8164133333333332    0.7339200000000000 H
   0.6425200000000000    0.8164100000000000    0.7339800000000000 H
   0.2319500000000000    0.7313766666666666    0.9255500000000000 H
   0.7312200000000000    0.7313900000000000    0.9256700000000000 H
   0.1046100000000000    0.7567999999999999    0.8859800000000000 H
   0.6039400000000000    0.7567999999999999    0.8859500000000000 H
   0.1511200000000000    0.8939100000000000    0.0079400000000000 H
   0.6506600000000000    0.8940966666666665    0.0070000000000000 H
   0.0197100000000000    0.9235933333333333    0.0298400000000000 H
   0.5190500000000000    0.9237233333333332    0.0291500000000000 H
   0.4350300000000000    0.8852433333333333    0.0271900000000000 H
   0.9353600000000000    0.8853666666666666    0.0272600000000000 H
   0.1142700000000000    0.8401766666666666    0.9894200000000000 H
   0.6141700000000000    0.8404900000000000    0.9891300000000000 H
   0.8859700000000000    0.0794500000000000    0.5177200000000000 C
   0.4467900000000000    0.0695133333333333    0.5203300000000000 C
   0.9462200000000000    0.0694500000000000    0.5202500000000000 C
   0.4720800000000000    0.0339066666666667    0.5101100000000000 C
   0.3664000000000000    0.0492866666666667    0.9753100000000000 C
   0.8655900000000000    0.0494866666666667    0.9747300000000000 C
   0.3866000000000000    0.0870533333333333    0.9826300000000000 C
   0.8860200000000000    0.0872300000000000    0.9822500000000000 C
   0.4468100000000000    0.0970866666666667    0.9801500000000000 C
   0.2297200000000000    0.0069533333333333    0.1183100000000000 C
   0.7285199999999999    0.0069700000000000    0.1183000000000000 C
   0.2628100000000000    0.3287700000000000    0.1652200000000000 C
   0.7616400000000000    0.3288066666666666    0.1652200000000000 C
   0.2333900000000000    0.3179500000000000    0.2079000000000000 C
   0.7322800000000000    0.3179333333333333    0.2079000000000000 C
   0.2624300000000000    0.3039566666666667    0.2538300000000000 C
   0.7613500000000000    0.3039600000000000    0.2538300000000000 C
   0.2249000000000000    0.2883666666666667    0.2918100000000000 C
   0.7238400000000000    0.2883433333333333    0.2918000000000000 C
   0.2503800000000000    0.2726499999999999    0.3347700000000000 C
   0.7493200000000000    0.2726466666666666    0.3347700000000000 C
   0.3153500000000000    0.2720033333333333    0.3420600000000000 C
   0.8142800000000000    0.2720500000000000    0.3421100000000000 C
   0.3527500000000000    0.2885933333333333    0.3048000000000000 C
   0.8516700000000000    0.2886633333333333    0.3049400000000000 C
   0.3272500000000000    0.3040800000000000    0.2618600000000000 C
   0.8261700000000000    0.3041266666666667    0.2610000000000000 C
   0.3579000000000000    0.2196500000000000    0.4628700000000000 C
   0.8568100000000000    0.2196966666666667    0.4629400000000000 C
   0.3190800000000000    0.2355100000000000    0.4222600000000000 C
   0.8179999999999999    0.2355633333333333    0.4223200000000000 C
   0.3456900000000000    0.2545633333333333    0.3846600000000000 C
   0.8446100000000000    0.2546300000000000    0.3847000000000000 C
   0.3664400000000000    0.1173300000000000    0.5252900000000000 C
   0.8655500000000000    0.1171966666666667    0.5252400000000000 C
   0.3865900000000000    0.0795666666666667    0.5178400000000000 C
   0.9717900000000000    0.0338733333333333    0.5100600000000000 C
   0.0366000000000000    0.0289366666666667    0.5155600000000000 C
   0.5368500000000000    0.0288266666666667    0.5155800000000000 C
   0.4359100000000000    0.0042533333333333    0.4941800000000000 C
   0.9358800000000000    0.0040933333333333    0.4941500000000000 C
   0.2296700000000000    0.1597066666666667    0.3816500000000000 C
   0.7286300000000000    0.1596633333333333    0.3816600000000000 C
   0.2626700000000000    0.1712166666666667    0.3347000000000000 C
   0.7617900000000000    0.1711900000000000    0.3347800000000000 C
   0.2331600000000000    0.1820600000000000    0.2920700000000000 C
   0.7324200000000000    0.1820966666666667    0.2921100000000000 C
   0.2621100000000000    0.1960233333333333    0.2460900000000000 C
   0.7614700000000000    0.1960666666666666    0.2461700000000000 C
   0.2245600000000000    0.2116833333333333    0.2081000000000000 C
   0.7239400000000000    0.2117566666666666    0.2082700000000000 C
   0.2500200000000000    0.2273800000000000    0.1651900000000000 C
   0.7494000000000000    0.2274400000000000    0.1652800000000000 C
   0.3149700000000000    0.2279333333333333    0.1578100000000000 C
   0.8143500000000000    0.2279566666666666    0.1578700000000000 C
   0.3523800000000000    0.2112666666666667    0.1949100000000000 C
   0.8517500000000000    0.2112700000000000    0.1949600000000000 C
   0.3269100000000000    0.1958000000000000    0.2379600000000000 C
   0.8262699999999999    0.1958166666666667    0.2380000000000000 C
   0.3576600000000000    0.2803099999999999    0.0370500000000000 C
   0.8568400000000000    0.2803200000000000    0.0370000000000000 C
   0.3187700000000000    0.2644500000000000    0.0776200000000000 C
   0.8180400000000000    0.2644533333333333    0.0776600000000000 C
   0.3453300000000000    0.2453600000000000    0.1152100000000000 C
   0.8446700000000000    0.2453700000000000    0.1152300000000000 C
   0.9462600000000000    0.0972300000000000    0.9797000000000000 C
   0.4720900000000000    0.1327333333333333    0.9901100000000000 C
   0.9718100000000000    0.1328066666666667    0.9899000000000000 C
   0.0366300000000000    0.1377366666666667    0.9844000000000001 C
   0.5368400000000000    0.1378133333333333    0.9844000000000001 C
   0.4359300000000000    0.1624300000000000    0.0059500000000000 C
   0.9358800000000000    0.1625933333333333    0.0057900000000000 C
   0.2715000000000000    0.3263733333333333    0.8816700000000000 C
   0.7703000000000000    0.3263933333333333    0.8816600000000000 C
   0.2383800000000000    0.0045400000000000    0.8347500000000000 C
   0.7372100000000000    0.0045800000000000    0.8347500000000000 C
   0.2677400000000000    0.0154166666666667    0.7920700000000001 C
   0.7666300000000000    0.0154033333333333    0.7920700000000001 C
   0.2386700000000000    0.0293900000000000    0.7461400000000000 C
   0.7375900000000000    0.0293933333333333    0.7461400000000000 C
   0.2761800000000000    0.0450066666666667    0.7081700000000000 C
   0.7751200000000000    0.0449833333333333    0.7081600000000000 C
   0.2507000000000000    0.0607033333333333    0.6651899999999999 C
   0.7496300000000000    0.0607000000000000    0.6652000000000000 C
   0.1857400000000000    0.0613000000000000    0.6578600000000000 C
   0.6846700000000000    0.0613466666666667    0.6579100000000000 C
   0.1483500000000000    0.0446900000000000    0.6950200000000000 C
   0.6472700000000000    0.0447566666666667    0.6950800000000000 C
   0.1738500000000000    0.0292233333333333    0.7380700000000000 C
   0.6727700000000000    0.0292700000000000    0.7381100000000000 C
   0.1432100000000000    0.1136500000000000    0.5370300000000000 C
   0.6421200000000000    0.1136966666666667    0.5371000000000000 C
   0.1820200000000000    0.0977833333333333    0.5776500000000000 C
   0.6809400000000000    0.0978366666666667    0.5777099999999999 C
   0.1554100000000000    0.0787200000000000    0.6152300000000001 C
   0.6543300000000000    0.0787866666666667    0.6153100000000000 C
   0.1344700000000000    0.2161500000000000    0.4747300000000000 C
   0.6335800000000000    0.2160166666666667    0.4746700000000000 C
   0.1140500000000000    0.2538966666666667    0.4822500000000000 C
   0.6134300000000000    0.2537800000000000    0.4821300000000000 C
   0.0538000000000000    0.2639000000000000    0.4797200000000000 C
   0.5532300000000000    0.2638333333333333    0.4796400000000000 C
   0.0282300000000000    0.2994733333333333    0.4899200000000000 C
   0.5279400000000000    0.2994366666666667    0.4898700000000000 C
   0.4631700000000000    0.3045200000000000    0.4843900000000000 C
   0.9634200000000001    0.3044100000000000    0.4844200000000000 C
   0.0641400000000000    0.3292533333333333    0.5058200000000000 C
   0.5641100000000000    0.3290933333333333    0.5057900000000000 C
   0.2713900000000000    0.1736800000000000    0.6183000000000000 C
   0.7703500000000000    0.1736400000000000    0.6183200000000000 C
   0.2382300000000000    0.1621566666666667    0.6651899999999999 C
   0.7373400000000000    0.1621300000000000    0.6652700000000000 C
   0.2675900000000000    0.1512533333333333    0.7078000000000000 C
   0.7668600000000000    0.1512900000000000    0.7079000000000000 C
   0.2385500000000000    0.1372833333333333    0.7538000000000000 C
   0.7379100000000000    0.1373266666666667    0.7538800000000000 C
   0.2760800000000000    0.1215933333333333    0.7917000000000000 C
   0.7754600000000000    0.1216666666666667    0.7917900000000000 C
   0.2506200000000000    0.1059100000000000    0.8346900000000000 C
   0.7500100000000000    0.1059733333333333    0.8347800000000000 C