H2 O2
1.0
  11.8629452591382272    0.0000000000000000   -5.0267271438471610
  -2.3645791520506134   11.8437109564103551   -5.2895653143422798
   0.0000000000000000    0.0000000000000000   32.5039999999999978
H O
2 2
direct
   0.7271294496889488    0.2027875390086843    0.8972866534384232 H
  -0.0654214941766470    0.4085873569705141    0.1028173099780670 H
   0.7290900000000000    0.1528200000000000    0.8658800000000000 O
   0.0000000000000000    0.4210400000000000    0.1338850000000000 O
