H2 O2
1.0
  11.8629452591382272    0.0000000000000000   -5.0267271438471610
  -2.3645791520506134   11.8437109564103551   -5.2895653143422798
   0.0000000000000000    0.0000000000000000   32.5039999999999978
H O
2 2
direct
   0.0662256094364099    0.5914514690579611    0.3973352594375726 H
   0.2728180339636518    0.7972046454074412    0.6026597195569570 H
   0.0015000000000000    0.5789000000000000    0.3660550000000000 O
   0.2708500000000000    0.8471700000000000    0.6340650000000000 O
