H2 O2
1.0
  11.8629452591382272    0.0000000000000000   -5.0267271438471610
  -2.3645791520506134   11.8437109564103551   -5.2895653143422798
   0.0000000000000000    0.0000000000000000   32.5039999999999978
H O
2 2
direct
   0.2051033830650702    0.5433652007579897    0.7485008908891808 H
   0.2339952347650969    0.5429752365021557    0.8119997165856654 H
   0.1297699999999999    0.5294600000000000    0.7479800000000000 O
   0.1504500000000000    0.5298500000000000    0.7936150000000000 O
