H4 C8 O4
1.0
  11.8629452591382272    0.0000000000000000   -5.0267271438471610
  -2.3645791520506134   11.8437109564103551   -5.2895653143422798
   0.0000000000000000    0.0000000000000000   32.5039999999999978
H C O
4 8 4
direct
   0.9124400000000000    0.7024600000000000    0.4200900000000000 H
   0.2481700000000000    0.6531900000000000    0.4998000000000000 H
   0.0741400000000000    0.8632800000000000    0.5807950000000000 H
   0.9078200000000000    0.8263800000000000    0.5006650000000000 H
   0.0805700000000000    0.6697800000000000    0.4548600000000000 C
   0.9845200000000000    0.7189100000000000    0.4552950000000000 C
   0.0870000000000000    0.5954800000000000    0.4073750000000000 C
   0.1734800000000000    0.6908500000000000    0.4999900000000000 C
   0.1716600000000000    0.7604200000000000    0.5453450000000000 C
   0.0751900000000000    0.8090700000000000    0.5454000000000000 C
   0.2734500000000000    0.7811600000000000    0.5925750000000000 C
   0.9822600000000000    0.7882000000000000    0.5004750000000000 C
   0.1747600000000000    0.5516600000000000    0.4092950000000000 O
   0.0015000000000000    0.5789000000000000    0.3660550000000000 O
   0.3572000000000000    0.7335800000000000    0.5902750000000000 O
   0.2708500000000000    0.8471700000000000    0.6340650000000000 O
