H3 C8 O4
1.0
  11.8629452591382272    0.0000000000000000   -5.0267271438471610
  -2.3645791520506134   11.8437109564103551   -5.2895653143422798
   0.0000000000000000    0.0000000000000000   32.5039999999999978
H C O
3 8 4
direct
   0.0875300000000000    0.2974400000000000    0.0798350000000000 H
   0.7518100000000000    0.3468000000000000    0.0001600000000000 H
   0.0920900000000000    0.1735100000000000    0.9992600000000000 H
   0.9194099999999999    0.3301600000000000    0.0450800000000000 C
   0.0154400000000000    0.2810100000000000    0.0446350000000000 C
   0.9130000000000000    0.4044800000000000    0.0925700000000000 C
   0.8282800000000000    0.2395400000000000    0.9545950000000001 C
   0.9247400000000000    0.1908700000000000    0.9545300000000000 C
   0.7265000000000000    0.2188300000000000    0.9073700000000000 C
   0.0176700000000000    0.2117300000000000    0.9994600000000000 C
   0.8264800000000000    0.3091300000000000    0.9999650000000000 C
   0.8252600000000000    0.4483100000000000    0.0906550000000000 O
   0.0000000000000000    0.4210400000000000    0.1338850000000000 O
   0.6427500000000000    0.2664000000000000    0.9096750000000000 O
   0.7290900000000000    0.1528200000000000    0.8658800000000000 O
