H5 O3
1.0
  23.8180746712289420    0.0000000000000000    1.8000874855857094
   0.1944007913705825   14.3300659610874206    0.1328227510563092
   0.0000000000000000    0.0000000000000000   14.5709999999999997
H O
5 3
direct
   0.0439811822102813    0.1687659760269970    0.2353719287515680 H
   0.0172308701391643    0.2326965865280583    0.1519311631576021 H
   0.9457616988588788    0.4727469647249645    0.2785388668108075 H
   0.9856912015058283    0.2952848772759754    0.4856567010517945 H
   0.9675326740433435    0.3797940115661268    0.3782179739523693 H
   0.0382966666666667    0.1773000000000000    0.1700000000000000 O
   0.9478700000000000    0.4486800000000000    0.3406400000000000 O
   0.9701733333333333    0.3496500000000000    0.4560000000000000 O
