H4 C6 N1 O2
1.0
  23.8180746712289420    0.0000000000000000    1.8000874855857094
   0.1944007913705825   14.3300659610874206    0.1328227510563092
   0.0000000000000000    0.0000000000000000   14.5709999999999997
H C N O
4 6 1 2
direct
   0.0697133333333333    0.1029800000000000    0.2777700000000000 H
   0.0323700000000000    0.2158900000000000    0.3996000000000000 H
   0.0000000000000000    0.3804600000000000    0.1859100000000000 H
   0.0023733333333333    0.2593700000000000    0.0721000000000000 H
   0.0461366666666667    0.1655300000000000    0.2601600000000000 C
   0.0253633333333333    0.2278800000000000    0.3274600000000000 C
   0.0000000000000000    0.3071200000000000    0.3015000000000000 C
   0.0000000000000000    0.3198900000000000    0.2079700000000000 C
   0.0092666666666667    0.2536400000000000    0.1451000000000000 C
   0.9693799999999999    0.3747100000000000    0.3719000000000000 C
   0.0382966666666667    0.1773000000000000    0.1700000000000000 N
   0.9478700000000000    0.4486800000000000    0.3406400000000000 O
   0.9701733333333333    0.3496500000000000    0.4560000000000000 O
