H1 C1 O2
1.0
  10.1034984242165660    0.0000000000000000   -0.0056428586178449
  -0.0075826559468359   11.5575712517570146   -0.2110201741269886
   0.0000000000000000    0.0000000000000000   29.7839999999999989
H C O
1 1 2
direct
   0.2907000000000000    0.4803000000000000    0.8655300000000000 H
   0.3634800000000000    0.4514600000000000    0.8399000000000000 C
   0.4121500000000000    0.3501000000000000    0.8455600000000000 O
   0.3890500000000000    0.5196400000000000    0.8088900000000000 O
