S1 O4
1.0
  27.9606223733424031    0.0000000000000000   12.0053170510130389
  13.9356492591627994   35.3359943565417893    5.9509567768588347
   0.0000000000000000    0.0000000000000000   38.4780000000000015
S O
1 4
direct
   0.2500100000000000    0.4999766666666666    0.1666766666666666 S
   0.2850733333333333    0.5170233333333333    0.1362900000000000 O
   0.2716633333333333    0.4829233333333333    0.1970900000000000 O
   0.1979733333333333    0.5304166666666666    0.1837166666666667 O
   0.2453200000000000    0.4695466666666667    0.1496000000000000 O
