H3 O2
1.0
  27.9606223733424031    0.0000000000000000   12.0053170510130389
  13.9356492591627994   35.3359943565417893    5.9509567768588347
   0.0000000000000000    0.0000000000000000   38.4780000000000015
H O
3 2
direct
   0.2530828064002178    0.5219571968442133    0.1330797512529130 H
   0.2200531187372388    0.4591559174947416    0.1516750921237262 H
   0.1902709639177015    0.4780368184857796    0.1440758303143607 H
   0.2850733333333333    0.5170233333333333    0.1362900000000000 O
   0.2453200000000000    0.4695466666666667    0.1496000000000000 O
