H5 O3
1.0
  27.9606223733424031    0.0000000000000000   12.0053170510130389
  13.9356492591627994   35.3359943565417893    5.9509567768588347
   0.0000000000000000    0.0000000000000000   38.4780000000000015
H O
5 3
direct
   0.7035724012449694    0.0747965283701473    0.4625133665423787 H
   0.7591347498076726    0.0748268412502674    0.4621031685787775 H
   0.8423785465834701    0.9638479577149843    0.4821722935044730 H
   0.7123048244823570    0.9634582607688786    0.4809752614013562 H
   0.7756581547689749    0.9670954883705418    0.4814729986112831 H
   0.7257533333333333    0.0886433333333333    0.4596533333333333 O
   0.8197966666666666    0.9517000000000000    0.4822633333333333 O
   0.7466366666666666    0.9514833333333332    0.4815900000000000 O
