Zn16 H50 C88 O52
1.0
  15.9828464755729218    0.0000000000000000    9.1627259883871996
   5.3120697660091114   15.0827331113349832    9.1628585437783148
   0.0000000000000000    0.0000000000000000   36.8599999999999994
Zn H C O
16 50 88 52
direct
   0.2066800000000000    0.3804100000000000    0.1033400000000000 Zn
   0.2066800000000000    0.2066900000000000    0.1902050000000000 Zn
   0.3805000000000000    0.2067000000000000    0.1033450000000000 Zn
   0.2062500000000000    0.2063700000000000    0.1031800000000000 Zn
   0.7933300000000000    0.7933000000000000    0.8097799999999999 Zn
   0.7933400000000000    0.6195800000000000    0.8966450000000000 Zn
   0.6195200000000000    0.7933000000000000    0.8966400000000000 Zn
   0.7937600000000000    0.7936200000000000    0.8968000000000000 Zn
   0.2066800000000000    0.3804100000000000    0.6033400000000000 Zn
   0.2066800000000000    0.2066900000000000    0.6902050000000000 Zn
   0.3805000000000000    0.2067000000000000    0.6033450000000000 Zn
   0.2062500000000000    0.2063700000000000    0.6031800000000000 Zn
   0.7933300000000000    0.7933000000000000    0.3097800000000000 Zn
   0.7933400000000000    0.6195800000000000    0.3966450000000000 Zn
   0.6195200000000000    0.7933000000000000    0.3966400000000000 Zn
   0.7937600000000000    0.7936200000000000    0.3968000000000000 Zn
   0.2805472896981017    0.1130013275848827    0.5565245207369710 H
   0.4928914460620905    0.1134505796770782    0.5565771731307210 H
   0.3944890154690174    0.1055035097425468    0.5526848609626003 H
   0.6643600000000000    0.9522400000000000    0.9761050000000000 H
   0.5681400000000000    0.0484000000000000    0.0242000000000000 H
   0.4318700000000000    0.9516000000000000    0.9757850000000000 H
   0.3356600000000000    0.0477600000000000    0.0238800000000000 H
   0.7193810723267767    0.8870067429402171    0.4434944936647780 H
   0.5071299760966956    0.8865861149448322    0.4432755842537266 H
   0.6054607665479158    0.8945566550122130    0.4472648867377785 H
   0.9518700000000000    0.4319100000000000    0.8321000000000001 H
   0.0481300000000000    0.3357200000000000    0.7840000000000000 H
   0.0481400000000000    0.5680800000000000    0.6678500000000001 H
   0.9518799999999999    0.6642700000000000    0.7155000000000000 H
   0.9518700000000000    0.4319100000000000    0.3321000000000000 H
   0.0481300000000000    0.3357200000000000    0.2840000000000000 H
   0.0481400000000000    0.5680800000000000    0.1678500000000000 H
   0.9518799999999999    0.6642700000000000    0.2155000000000000 H
   0.0484400000000000    0.0484600000000000    0.7840100000000000 H
   0.9523100000000000    0.9522600000000000    0.8321250000000000 H
   0.9515700000000000    0.9515400000000001    0.7159750000000000 H
   0.0477000000000000    0.0477300000000000    0.6678600000000000 H
   0.0484400000000000    0.0484600000000000    0.2840100000000000 H
   0.9523100000000000    0.9522600000000000    0.3321250000000000 H
   0.9515700000000000    0.9515400000000001    0.2159750000000000 H
   0.0477000000000000    0.0477300000000000    0.1678600000000000 H
   0.9523000000000000    0.6642600000000000    0.9761000000000000 H
   0.0484400000000000    0.5680300000000000    0.0242250000000000 H
   0.0477100000000000    0.3357300000000000    0.0238600000000000 H
   0.9515700000000000    0.4319600000000000    0.9757600000000000 H
   0.5682000000000000    0.3357200000000000    0.0240400000000000 H
   0.6643700000000000    0.4319200000000000    0.9759000000000000 H
   0.4318200000000000    0.6642700000000000    0.9759450000000001 H
   0.3356400000000000    0.5680700000000000    0.0240850000000000 H
   0.4318100000000000    0.9519100000000000    0.8321300000000000 H
   0.3356400000000000    0.0481700000000000    0.7840350000000000 H
   0.5682000000000000    0.0480900000000000    0.6678550000000000 H
   0.6643700000000000    0.9518200000000000    0.7159500000000000 H
   0.9523000000000000    0.6642600000000000    0.4761000000000000 H
   0.0484400000000000    0.5680300000000000    0.5242250000000001 H
   0.0477100000000000    0.3357300000000000    0.5238600000000000 H
   0.9515700000000000    0.4319600000000000    0.4757600000000000 H
   0.5682000000000000    0.3357200000000000    0.5240400000000000 H
   0.6643700000000000    0.4319200000000000    0.4759000000000000 H
   0.4318200000000000    0.6642700000000000    0.4759450000000000 H
   0.3356400000000000    0.5680700000000000    0.5240850000000000 H
   0.4318100000000000    0.9519100000000000    0.3321300000000000 H
   0.3356400000000000    0.0481700000000000    0.2840350000000000 H
   0.5682000000000000    0.0480900000000000    0.1678550000000000 H
   0.6643700000000000    0.9518200000000000    0.2159500000000000 H
   0.3889700000000000    0.1109900000000000    0.0554800000000000 C
   0.6110400000000000    0.8890000000000000    0.9445049999999999 C
   0.5923600000000000    0.9735000000000000    0.9867650000000000 C
   0.5390500000000000    0.0268400000000000    0.0133950000000000 C
   0.4609600000000000    0.9731500000000000    0.9865900000000001 C
   0.4076600000000000    0.0264900000000000    0.0132200000000000 C
   0.4463400000000000    0.0536100000000000    0.0268000000000000 C
   0.5536700000000000    0.9463800000000000    0.9731500000000000 C
   0.8889200000000000    0.6109200000000000    0.8054550000000000 C
   0.1110900000000000    0.3890700000000000    0.6945300000000000 C
   0.9733800000000000    0.4609600000000000    0.7961500000000000 C
   0.0266300000000000    0.4076900000000000    0.7695100000000000 C
   0.0537000000000000    0.4463800000000000    0.7231850000000000 C
   0.0266300000000000    0.5390300000000000    0.7038350000000000 C
   0.9733900000000000    0.5923100000000000    0.7304750000000000 C
   0.9463100000000000    0.5536100000000000    0.7767999999999999 C
   0.1110900000000000    0.3890700000000000    0.1945300000000000 C
   0.8889200000000000    0.6109200000000000    0.3054550000000000 C
   0.9733800000000000    0.4609600000000000    0.2961500000000000 C
   0.0266300000000000    0.4076900000000000    0.2695100000000000 C
   0.0537000000000000    0.4463800000000000    0.2231850000000000 C
   0.0266300000000000    0.5390300000000000    0.2038350000000000 C
   0.9733900000000000    0.5923100000000000    0.2304750000000000 C
   0.9463100000000000    0.5536100000000000    0.2768000000000000 C
   0.1109400000000000    0.1109800000000000    0.6944800000000000 C
   0.8890700000000000    0.8890200000000000    0.8055050000000000 C
   0.0268700000000000    0.0268200000000000    0.7694900000000000 C
   0.9735500000000000    0.9735800000000000    0.7961450000000000 C
   0.9731400000000000    0.9731800000000000    0.7304950000000000 C
   0.0264600000000000    0.0264200000000000    0.7038400000000000 C
   0.0535900000000000    0.0536800000000000    0.7231600000000000 C
   0.9464100000000000    0.9463200000000001    0.7768250000000000 C
   0.1109400000000000    0.1109800000000000    0.1944800000000000 C
   0.8890700000000000    0.8890200000000000    0.3055050000000000 C
   0.0268700000000000    0.0268200000000000    0.2694900000000000 C
   0.9735500000000000    0.9735800000000000    0.2961450000000000 C
   0.9731400000000000    0.9731800000000000    0.2304950000000000 C
   0.0264600000000000    0.0264200000000000    0.2038400000000000 C
   0.0535900000000000    0.0536800000000000    0.2231600000000000 C
   0.9464100000000000    0.9463200000000001    0.2768250000000000 C
   0.8890800000000000    0.6110200000000000    0.9444950000000000 C
   0.1109300000000000    0.3889800000000000    0.0554900000000000 C
   0.9735800000000000    0.5923000000000000    0.9867650000000000 C
   0.0268300000000000    0.5389900000000000    0.0134200000000000 C
   0.9463900000000000    0.5536600000000000    0.9731650000000001 C
   0.0264300000000000    0.4076900000000000    0.0132200000000000 C
   0.9731800000000000    0.4610000000000000    0.9865650000000000 C
   0.0536200000000000    0.4463300000000000    0.0268200000000000 C
   0.6109100000000000    0.6109200000000000    0.9444300000000000 C
   0.3891000000000000    0.3890700000000000    0.0555500000000000 C
   0.5391000000000000    0.4076800000000000    0.0133200000000000 C
   0.5923700000000000    0.4609700000000000    0.9866450000000000 C
   0.5536100000000000    0.5536100000000000    0.9731500000000000 C
   0.4609100000000000    0.5923100000000000    0.9866650000000000 C
   0.4076500000000000    0.5390300000000000    0.0133000000000000 C
   0.4464000000000000    0.4463800000000000    0.0268350000000000 C
   0.3891000000000000    0.1111300000000000    0.6945300000000000 C
   0.6109100000000000    0.8888700000000000    0.8054550000000000 C
   0.4609100000000000    0.9733500000000000    0.7961500000000000 C
   0.4076500000000000    0.0266800000000000    0.7695100000000000 C
   0.4464000000000000    0.0536700000000000    0.7231850000000000 C
   0.5391000000000000    0.0266400000000000    0.7038350000000000 C
   0.5923700000000000    0.9733100000000000    0.7304750000000000 C
   0.5536100000000000    0.9463200000000001    0.7767999999999999 C
   0.8890800000000000    0.6110200000000000    0.4444950000000000 C
   0.1109300000000000    0.3889800000000000    0.5554900000000000 C
   0.9735800000000000    0.5923000000000000    0.4867650000000000 C
   0.0268300000000000    0.5389900000000000    0.5134200000000000 C
   0.9463900000000000    0.5536600000000000    0.4731650000000000 C
   0.0264300000000000    0.4076900000000000    0.5132200000000000 C
   0.9731800000000000    0.4610000000000000    0.4865650000000000 C
   0.0536200000000000    0.4463300000000000    0.5268200000000000 C
   0.6109100000000000    0.6109200000000000    0.4444300000000000 C
   0.3891000000000000    0.3890700000000000    0.5555500000000000 C
   0.5391000000000000    0.4076800000000000    0.5133200000000000 C
   0.5923700000000000    0.4609700000000000    0.4866450000000000 C
   0.5536100000000000    0.5536100000000000    0.4731500000000000 C
   0.4609100000000000    0.5923100000000000    0.4866650000000000 C
   0.4076500000000000    0.5390300000000000    0.5133000000000000 C
   0.4464000000000000    0.4463800000000000    0.5268350000000001 C
   0.3891000000000000    0.1111300000000000    0.1945300000000000 C
   0.6109100000000000    0.8888700000000000    0.3054550000000000 C
   0.4609100000000000    0.9733500000000000    0.2961500000000000 C
   0.4076500000000000    0.0266800000000000    0.2695100000000000 C
   0.4464000000000000    0.0536700000000000    0.2231850000000000 C
   0.5391000000000000    0.0266400000000000    0.2038350000000000 C
   0.5923700000000000    0.9733100000000000    0.2304750000000000 C
   0.5536100000000000    0.9463200000000001    0.2768000000000000 C
   0.3051500000000000    0.1329600000000000    0.5664800000000000 O
   0.4286300000000000    0.1332000000000000    0.5665000000000000 O
   0.4286300000000000    0.1332000000000000    0.0665000000000000 O
   0.3051500000000000    0.1329600000000000    0.0664800000000000 O
   0.5713900000000000    0.8668000000000000    0.9333850000000000 O
   0.6948600000000000    0.8670300000000000    0.9335050000000000 O
   0.6948600000000000    0.8670300000000000    0.4335050000000000 O
   0.5713900000000000    0.8668000000000000    0.4333850000000000 O
   0.8667500000000000    0.5713500000000000    0.8473300000000000 O
   0.8667500000000000    0.6946700000000000    0.7856700000000000 O
   0.1332600000000000    0.4286400000000000    0.6526550000000000 O
   0.1332600000000000    0.3053200000000000    0.7143150000000000 O
   0.1332600000000000    0.4286400000000000    0.1526550000000000 O
   0.1332600000000000    0.3053200000000000    0.2143150000000000 O
   0.8667500000000000    0.5713500000000000    0.3473300000000000 O
   0.8667500000000000    0.6946700000000000    0.2856700000000000 O
   0.1332000000000000    0.1331800000000000    0.7142500000000001 O
   0.1328300000000000    0.1330200000000000    0.6525900000000000 O
   0.8668100000000000    0.8668000000000000    0.7856950000000000 O
   0.8671800000000000    0.8669800000000000    0.8473950000000000 O
   0.1332000000000000    0.1331800000000000    0.2142500000000000 O
   0.1328300000000000    0.1330200000000000    0.1525900000000000 O
   0.8668100000000000    0.8668000000000000    0.2856950000000000 O
   0.8671800000000000    0.8669800000000000    0.3473950000000000 O
   0.8668100000000000    0.5714000000000000    0.9333950000000000 O
   0.8671700000000000    0.6948000000000000    0.9334899999999999 O
   0.1332000000000000    0.4286000000000000    0.0665900000000000 O
   0.1328400000000000    0.3052000000000000    0.0664950000000000 O
   0.5713100000000000    0.6946700000000000    0.9333300000000000 O
   0.6947100000000000    0.5713500000000000    0.9333700000000000 O
   0.4287000000000000    0.3053200000000000    0.0666550000000000 O
   0.3053000000000000    0.4286400000000000    0.0666200000000000 O
   0.2500000000000000    0.2500000000000000    0.1249950000000000 O
   0.3053100000000000    0.1332400000000000    0.7143200000000001 O
   0.4287000000000000    0.1333300000000000    0.6526550000000000 O
   0.5713100000000000    0.8666700000000001    0.8473300000000000 O
   0.6947100000000000    0.8667500000000000    0.7856650000000001 O
   0.7500100000000000    0.7500000000000000    0.8749899999999999 O
   0.8668100000000000    0.5714000000000000    0.4333950000000000 O
   0.8671700000000000    0.6948000000000000    0.4334900000000000 O
   0.1332000000000000    0.4286000000000000    0.5665900000000000 O
   0.1328400000000000    0.3052000000000000    0.5664950000000000 O
   0.5713100000000000    0.6946700000000000    0.4333300000000000 O
   0.6947100000000000    0.5713500000000000    0.4333700000000000 O
   0.4287000000000000    0.3053200000000000    0.5666550000000000 O
   0.3053000000000000    0.4286400000000000    0.5666200000000000 O
   0.2500000000000000    0.2500000000000000    0.6249950000000000 O
   0.3053100000000000    0.1332400000000000    0.2143200000000000 O
   0.4287000000000000    0.1333300000000000    0.1526550000000000 O
   0.5713100000000000    0.8666700000000001    0.3473300000000000 O
   0.6947100000000000    0.8667500000000000    0.2856650000000000 O
   0.7500100000000000    0.7500000000000000    0.3749900000000000 O
