H6 O4
1.0
  15.9828464755729218    0.0000000000000000    9.1627259883871996
   5.3120697660091114   15.0827331113349832    9.1628585437783148
   0.0000000000000000    0.0000000000000000   36.8599999999999994
H O
6 4
direct
   0.2805472896981017    0.1130013275848827    0.5565245207369710 H
   0.4928914460620905    0.1134505796770782    0.5565771731307210 H
   0.3944890154690174    0.1055035097425468    0.5526848609626003 H
   0.7193810723267767    0.8870067429402171    0.4434944936647780 H
   0.5071299760966956    0.8865861149448322    0.4432755842537266 H
   0.6054607665479158    0.8945566550122130    0.4472648867377785 H
   0.3051500000000000    0.1329600000000000    0.5664800000000000 O
   0.4286300000000000    0.1332000000000000    0.5665000000000000 O
   0.6948600000000000    0.8670300000000000    0.4335050000000000 O
   0.5713900000000000    0.8668000000000000    0.4333850000000000 O
