H9 O6
1.0
   9.1251749003621931    0.0000000000000000   -1.1431514719405591
  -3.1544695858582923   10.9347489515776513   -5.6365403394162357
   0.0000000000000000    0.0000000000000000   26.9925999999999995
H O
9 6
direct
   0.3973182128214432   -0.0350586430048106    0.9330492528979063 H
   1.0562410720881479    0.8920004940849633    0.8942194874237748 H
   1.2120812264869403    0.9684893654270245    0.8580527956817460 H
   0.4618920327208994    0.3351649542758729    0.6507541063761277 H
   0.1250746969280689    0.1521854884025280    0.5121224637125059 H
   0.2886210525363878    0.2526478479312699    0.5827919160726881 H
   1.0284531140198707    0.9353736456268902    0.5891667606799094 H
   0.3712938938356307   -0.0250228152717630    0.6361418706521579 H
   1.2003481987080129    0.9815312336759349    0.6709770106241800 H
   0.3580300000000000   -0.0662899999999999    0.9570900000000000 O
   1.1021100000000001    0.8810700000000000    0.9253450000000000 O
   0.4050100000000000    0.2629400000000000    0.6154050000000000 O
   0.2158200000000000    0.1602100000000000    0.5375500000000000 O
   1.0813500000000000    0.9246200000000000    0.5590600000000000 O
   0.3299200000000000   -0.0448100000000000    0.5972300000000000 O
