Zn32 H356 C236 N59 O238
1.0
  27.1839988034359763    0.0000000000000000   -0.0080656550473092
   0.0031815149266886   21.1445460480408265    6.8030218506369557
   0.0000000000000000    0.0000000000000000   22.2220000000000013
Zn H C N O
32 356 236 59 238
direct
   0.7770699999999999    0.2499800000000000    0.4999700000000000 Zn
   0.4729650000000000    0.5000100000000000    0.7499900000000000 Zn
   0.7770750000000000    0.7499600000000000    0.5000100000000000 Zn
   0.0270600000000000    0.2499800000000000    0.4999700000000000 Zn
   0.0270650000000000    0.7499600000000000    0.5000100000000000 Zn
   0.7229550000000000    0.5000100000000000    0.7499900000000000 Zn
   0.7770699999999999    0.7499700000000000    0.9000000000000000 Zn
   0.4729650000000000    0.9999700000000000    0.2500000000000000 Zn
   0.7229550000000000    0.4999700000000000    0.2499900000000000 Zn
   0.0270650000000000    0.7499600000000000    0.0000000000000000 Zn
   0.0270550000000000    0.2499900000000000    0.9999600000000000 Zn
   0.7229550000000000    0.9999700000000000    0.2500000000000000 Zn
   0.4729650000000000    0.0000300000000000    0.7500000000000000 Zn
   0.7770650000000000    0.2499900000000000    0.9999600000000000 Zn
   0.4729600000000000    0.4999700000000000    0.2499900000000000 Zn
   0.7229550000000000    0.0000300000000000    0.7500000000000000 Zn
   0.9729650000000001    0.5000100000000000    0.7499900000000000 Zn
   0.2770700000000000    0.2499800000000000    0.4999700000000000 Zn
   0.2770750000000000    0.7499600000000000    0.5000100000000000 Zn
   0.5270600000000000    0.2499800000000000    0.4999700000000000 Zn
   0.5270650000000000    0.7499600000000000    0.5000100000000000 Zn
   0.2229550000000000    0.5000100000000000    0.7499900000000000 Zn
   0.2770700000000000    0.7499700000000000    0.9000000000000000 Zn
   0.9729650000000001    0.9999700000000000    0.2500000000000000 Zn
   0.2229550000000000    0.4999700000000000    0.2499900000000000 Zn
   0.5270650000000000    0.7499600000000000    0.0000000000000000 Zn
   0.5270550000000001    0.2499900000000000    0.9999600000000000 Zn
   0.2229550000000000    0.9999700000000000    0.2500000000000000 Zn
   0.9729650000000001    0.0000300000000000    0.7500000000000000 Zn
   0.2770650000000000    0.2499900000000000    0.9999600000000000 Zn
   0.9729600000000000    0.4999700000000000    0.2499900000000000 Zn
   0.2229550000000000    0.0000300000000000    0.7500000000000000 Zn
   0.6494800000000001    0.7813400000000000    0.3735500000000000 H
   0.6847000000000000    0.8454000000000000    0.3242000000000000 H
   0.6391750000000000    0.9177400000000000    0.3599900000000000 H
   0.6108350000000000    0.8599900000000000    0.4177800000000000 H
   0.6004750000000000    0.8733300000000001    0.2814800000000000 H
   0.5652600000000000    0.8240600000000000    0.3456000000000000 H
   0.6583050000000000    0.9861300000000000    0.5678900000000000 H
   0.6004350000000001    0.9867400000000000    0.6072700000000000 H
   0.5954950000000000    0.8746200000000000    0.6319900000000001 H
   0.6542050000000000    0.8678800000000000    0.6256800000000000 H
   0.5917500000000000    0.9321000000000000    0.5137800000000000 H
   0.6496250000000000    0.8926200000000000    0.5135000000000000 H
   0.6494100000000000    0.2186400000000000    0.6263500000000000 H
   0.6847000000000000    0.1546200000000000    0.6757000000000000 H
   0.6391950000000000    0.0822100000000000    0.6399800000000000 H
   0.6107650000000000    0.1399100000000000    0.5822000000000001 H
   0.6005400000000000    0.1265900000000000    0.7185100000000000 H
   0.5652699999999999    0.1758600000000000    0.6544300000000000 H
   0.5916350000000000    0.0677400000000000    0.4861000000000000 H
   0.6495350000000000    0.1071400000000000    0.4866000000000000 H
   0.5954200000000001    0.1252400000000000    0.3680100000000000 H
   0.6541150000000000    0.1320600000000000    0.3744000000000000 H
   0.6583400000000000    0.0138000000000000    0.4320800000000000 H
   0.6004750000000000    0.0131500000000000    0.3920000000000000 H
   0.6495299999999999    0.2813900000000000    0.3734300000000000 H
   0.6847350000000000    0.3455000000000000    0.3241300000000000 H
   0.6108600000000000    0.3599900000000000    0.4177300000000000 H
   0.6391750000000000    0.4177700000000000    0.3599600000000000 H
   0.6004900000000000    0.3733900000000000    0.2814200000000000 H
   0.5652900000000000    0.3240900000000000    0.3455300000000000 H
   0.5917050000000000    0.5677500000000000    0.4861700000000000 H
   0.6495850000000000    0.6072000000000000    0.4866300000000000 H
   0.5955550000000001    0.6254300000000000    0.3679900000000000 H
   0.6542600000000001    0.6320600000000000    0.3744800000000000 H
   0.6583000000000000    0.5137800000000000    0.4320500000000000 H
   0.6004350000000001    0.5132900000000000    0.3926000000000000 H
   0.6005700000000000    0.6265200000000000    0.7185400000000000 H
   0.5653000000000000    0.6758100000000000    0.6544700000000000 H
   0.6108000000000000    0.6399100000000000    0.5822300000000000 H
   0.6392100000000001    0.5821700000000000    0.6399800000000000 H
   0.6494700000000000    0.7185700000000000    0.6264600000000000 H
   0.6847400000000000    0.6545100000000000    0.6757700000000000 H
   0.6582950000000000    0.4861700000000000    0.5678800000000001 H
   0.6004150000000000    0.4865800000000000    0.6072000000000000 H
   0.6544350000000000    0.3679100000000000    0.6254500000000000 H
   0.5957250000000001    0.3743900000000000    0.6320000000000000 H
   0.5917700000000000    0.4321100000000000    0.5137900000000000 H
   0.6496250000000000    0.3926200000000000    0.5133500000000000 H
   0.5917250000000001    0.4321400000000000    0.0137900000000000 H
   0.6495800000000000    0.3927000000000000    0.0131700000000000 H
   0.6545799999999999    0.3679400000000000    0.1252300000000000 H
   0.5958800000000000    0.3743200000000000    0.1319800000000000 H
   0.6583850000000000    0.4861800000000000    0.0678400000000000 H
   0.6004750000000000    0.4865600000000000    0.1071800000000000 H
   0.6495500000000000    0.2814500000000000    0.8733700000000000 H
   0.6847700000000000    0.3455700000000000    0.8241100000000000 H
   0.6392100000000001    0.4178100000000000    0.8599800000000000 H
   0.6108700000000000    0.3600200000000000    0.9177100000000000 H
   0.6005549999999999    0.3735300000000000    0.7813700000000000 H
   0.5653350000000000    0.3241700000000000    0.8454300000000000 H
   0.5917000000000000    0.5677500000000000    0.9861500000000000 H
   0.6495649999999999    0.6071700000000000    0.9868300000000000 H
   0.6545200000000000    0.6320400000000000    0.8747500000000000 H
   0.5958200000000000    0.6256500000000000    0.8679800000000000 H
   0.6583600000000001    0.5137699999999999    0.9320700000000000 H
   0.6004650000000000    0.5134300000000001    0.8925999999999999 H
   0.8504849999999999    0.8733300000000001    0.2814800000000000 H
   0.8152699999999999    0.8240600000000000    0.3450000000000000 H
   0.8891850000000000    0.9177400000000000    0.3599900000000000 H
   0.8608450000000001    0.8599900000000000    0.4177800000000000 H
   0.8994900000000000    0.7813400000000000    0.3735500000000000 H
   0.9347099999999999    0.8454100000000000    0.3242000000000000 H
   0.9083100000000000    0.9861300000000000    0.5678900000000000 H
   0.8504450000000000    0.9867400000000000    0.6072700000000000 H
   0.8454999999999999    0.8746200000000000    0.6319900000000001 H
   0.9042100000000000    0.8678800000000000    0.6256900000000000 H
   0.8417600000000001    0.9321000000000000    0.5137800000000000 H
   0.8996400000000000    0.8926100000000000    0.5135100000000000 H
   0.8505499999999999    0.1265900000000000    0.7185100000000000 H
   0.8152800000000000    0.1758600000000000    0.6544300000000000 H
   0.8892050000000000    0.0822100000000000    0.6399800000000000 H
   0.8607750000000001    0.1399100000000000    0.5822000000000001 H
   0.8994200000000000    0.2186400000000000    0.6263500000000000 H
   0.9347099999999999    0.1546200000000000    0.6757000000000000 H
   0.8416399999999999    0.0677400000000000    0.4861000000000000 H
   0.8995450000000000    0.1071400000000000    0.4866000000000000 H
   0.8454300000000000    0.1252400000000000    0.3680100000000000 H
   0.9041250000000001    0.1320600000000000    0.3744000000000000 H
   0.9083500000000000    0.0138000000000000    0.4320800000000000 H
   0.8504849999999999    0.0131500000000000    0.3927000000000000 H
   0.8505000000000000    0.3733900000000000    0.2814200000000000 H
   0.8153000000000000    0.3240900000000000    0.3455300000000000 H
   0.8608700000000000    0.3599900000000000    0.4177300000000000 H
   0.8891850000000000    0.4177700000000000    0.3599600000000000 H
   0.8995400000000000    0.2813900000000000    0.3734300000000000 H
   0.9347449999999999    0.3455000000000000    0.3241300000000000 H
   0.8417150000000000    0.5677500000000000    0.4861700000000000 H
   0.8995949999999999    0.6072000000000000    0.4866300000000000 H
   0.8455650000000000    0.6254300000000000    0.3679900000000000 H
   0.9042700000000000    0.6320600000000000    0.3744800000000000 H
   0.9083100000000000    0.5137800000000000    0.4320500000000000 H
   0.8504450000000000    0.5132900000000000    0.3926200000000000 H
   0.8505800000000000    0.6265200000000000    0.7185400000000000 H
   0.8153100000000000    0.6758100000000000    0.6544700000000000 H
   0.8608100000000001    0.6399100000000000    0.5822300000000000 H
   0.8892200000000000    0.5821700000000000    0.6399800000000000 H
   0.8994800000000001    0.7185700000000000    0.6264600000000000 H
   0.9347500000000000    0.6545100000000000    0.6757700000000000 H
   0.9083049999999999    0.4861700000000000    0.5678800000000001 H
   0.8504250000000000    0.4865800000000000    0.6072800000000000 H
   0.9044449999999999    0.3679100000000000    0.6254500000000000 H
   0.8457350000000000    0.3743900000000000    0.6320000000000000 H
   0.8417800000000000    0.4321100000000000    0.5137900000000000 H
   0.8996350000000000    0.3926200000000000    0.5133000000000000 H
   0.8505600000000000    0.3735300000000000    0.7813700000000000 H
   0.8153450000000000    0.3241700000000000    0.8454300000000000 H
   0.8892200000000000    0.4178100000000000    0.8599800000000000 H
   0.8608800000000000    0.3600200000000000    0.9177100000000000 H
   0.8995600000000000    0.2814500000000000    0.8733700000000000 H
   0.9347799999999999    0.3455700000000000    0.8241100000000000 H
   0.5915500000000000    0.0677100000000000    0.9861500000000000 H
   0.6494600000000000    0.1070200000000000    0.9868400000000001 H
   0.6543300000000000    0.1320300000000000    0.8747000000000000 H
   0.5956500000000000    0.1253600000000000    0.8680099999999999 H
   0.6584750000000000    0.0138100000000000    0.9321400000000000 H
   0.6005650000000000    0.0131800000000000    0.8928400000000000 H
   0.6006200000000000    0.1264500000000000    0.2185600000000000 H
   0.5653150000000000    0.1757600000000000    0.1545400000000000 H
   0.6392400000000000    0.0821800000000000    0.1399400000000000 H
   0.6107700000000000    0.1399000000000000    0.0822200000000000 H
   0.6494250000000000    0.2186000000000000    0.1263900000000000 H
   0.6847300000000001    0.1545700000000000    0.1757100000000000 H
   0.5916050000000000    0.9321700000000001    0.0138000000000000 H
   0.6495000000000000    0.8928100000000000    0.0132300000000000 H
   0.6543550000000000    0.8679300000000000    0.1253700000000000 H
   0.5956700000000000    0.8746000000000000    0.1319700000000000 H
   0.6584600000000000    0.9861400000000000    0.0678200000000000 H
   0.6005500000000000    0.9867899999999999    0.1070800000000000 H
   0.6494800000000001    0.7813800000000000    0.8735300000000000 H
   0.6847300000000001    0.8454400000000000    0.8242000000000000 H
   0.6108300000000000    0.8600300000000000    0.9177600000000000 H
   0.6392200000000000    0.9177800000000000    0.8600000000000000 H
   0.6005500000000000    0.8734700000000000    0.7814300000000000 H
   0.5653049999999999    0.8241700000000000    0.8454900000000000 H
   0.8417100000000000    0.5677500000000000    0.9861500000000000 H
   0.8995750000000000    0.6071700000000000    0.9868300000000000 H
   0.9045300000000001    0.6320400000000000    0.8747500000000000 H
   0.8458300000000001    0.6256500000000000    0.8679800000000000 H
   0.9083700000000000    0.5137699999999999    0.9320700000000000 H
   0.8504750000000000    0.5134300000000001    0.8926700000000000 H
   0.8995150000000001    0.7185200000000000    0.1265400000000000 H
   0.9347850000000000    0.6544400000000000    0.1758200000000000 H
   0.8608300000000000    0.6399200000000000    0.0822600000000000 H
   0.8892599999999999    0.5821400000000000    0.1399600000000000 H
   0.8506450000000000    0.6263900000000000    0.2186100000000000 H
   0.8153550000000001    0.6757300000000001    0.1545900000000000 H
   0.8417350000000000    0.4321400000000000    0.0137900000000000 H
   0.8995850000000001    0.3927000000000000    0.0131700000000000 H
   0.9045900000000000    0.3679400000000000    0.1252300000000000 H
   0.8458900000000000    0.3743200000000000    0.1319800000000000 H
   0.9083950000000001    0.4861800000000000    0.0678400000000000 H
   0.8504849999999999    0.4865600000000000    0.1071800000000000 H
   0.8994900000000000    0.7813800000000000    0.8735300000000000 H
   0.9347400000000000    0.8454400000000000    0.8242000000000000 H
   0.8608400000000000    0.8600300000000000    0.9177600000000000 H
   0.8892300000000000    0.9177800000000000    0.8600000000000000 H
   0.8505600000000000    0.8734700000000000    0.7814300000000000 H
   0.8153150000000000    0.8241700000000000    0.8454900000000000 H
   0.8506250000000000    0.1264500000000000    0.2185600000000000 H
   0.8153250000000001    0.1757600000000000    0.1545400000000000 H
   0.8892500000000000    0.0821800000000000    0.1399400000000000 H
   0.8607750000000001    0.1399000000000000    0.0822200000000000 H
   0.8994350000000000    0.2186000000000000    0.1263900000000000 H
   0.9347350000000000    0.1545700000000000    0.1757100000000000 H
   0.8415600000000000    0.0677100000000000    0.9861500000000000 H
   0.8994700000000000    0.1070200000000000    0.9868400000000001 H
   0.9043399999999999    0.1320300000000000    0.8747000000000000 H
   0.8456600000000001    0.1253600000000000    0.8680099999999999 H
   0.9084850000000000    0.0138100000000000    0.9321400000000000 H
   0.8505750000000001    0.0131800000000000    0.8928400000000000 H
   0.0394853288033704    0.5761016319760188    0.6894076530977071 H
   0.0917250000000000    0.4321400000000000    0.0137900000000000 H
   0.1495800000000000    0.3927000000000000    0.0131700000000000 H
   0.1545800000000000    0.3679400000000000    0.1252300000000000 H
   0.0958800000000000    0.3743200000000000    0.1319800000000000 H
   0.1583850000000000    0.4861800000000000    0.0678400000000000 H
   0.1004750000000000    0.4865600000000000    0.1071800000000000 H
   0.1495500000000000    0.2814500000000000    0.8733700000000000 H
   0.1847700000000000    0.3455700000000000    0.8241100000000000 H
   0.1392100000000000    0.4178100000000000    0.8599800000000000 H
   0.1108700000000000    0.3600200000000000    0.9177100000000000 H
   0.1005550000000000    0.3735300000000000    0.7813700000000000 H
   0.0653350000000000    0.3241700000000000    0.8454300000000000 H
   0.0917000000000000    0.5677500000000000    0.9861500000000000 H
   0.1495650000000000    0.6071700000000000    0.9868300000000000 H
   0.1545200000000000    0.6320400000000000    0.8747500000000000 H
   0.0958200000000000    0.6256500000000000    0.8679800000000000 H
   0.1583600000000000    0.5137699999999999    0.9320700000000000 H
   0.1004650000000000    0.5134300000000001    0.8925999999999999 H
   0.1494800000000000    0.7813400000000000    0.3735500000000000 H
   0.1847000000000000    0.8454000000000000    0.3242000000000000 H
   0.1391750000000000    0.9177400000000000    0.3599900000000000 H
   0.1108350000000000    0.8599900000000000    0.4177800000000000 H
   0.1004750000000000    0.8733300000000001    0.2814800000000000 H
   0.0652600000000000    0.8240600000000000    0.3456000000000000 H
   0.1583050000000000    0.9861300000000000    0.5678900000000000 H
   0.1004350000000000    0.9867400000000000    0.6072700000000000 H
   0.0954950000000000    0.8746200000000000    0.6319900000000001 H
   0.1542050000000000    0.8678800000000000    0.6256800000000000 H
   0.0917500000000000    0.9321000000000000    0.5137800000000000 H
   0.1496250000000000    0.8926200000000000    0.5135000000000000 H
   0.1494100000000000    0.2186400000000000    0.6263500000000000 H
   0.1847000000000000    0.1546200000000000    0.6757000000000000 H
   0.1391950000000000    0.0822100000000000    0.6399800000000000 H
   0.1107650000000000    0.1399100000000000    0.5822000000000001 H
   0.1005400000000000    0.1265900000000000    0.7185100000000000 H
   0.0652700000000000    0.1758600000000000    0.6544300000000000 H
   0.0916350000000000    0.0677400000000000    0.4861000000000000 H
   0.1495350000000000    0.1071400000000000    0.4866000000000000 H
   0.0954200000000000    0.1252400000000000    0.3680100000000000 H
   0.1541150000000000    0.1320600000000000    0.3744000000000000 H
   0.1583400000000000    0.0138000000000000    0.4320800000000000 H
   0.1004750000000000    0.0131500000000000    0.3920000000000000 H
   0.2105203015667930    0.6894180399647326    0.5760743916355471 H
   0.3504850000000000    0.8733300000000001    0.2814800000000000 H
   0.3152700000000000    0.8240600000000000    0.3450000000000000 H
   0.3891850000000000    0.9177400000000000    0.3599900000000000 H
   0.3608450000000000    0.8599900000000000    0.4177800000000000 H
   0.3994900000000000    0.7813400000000000    0.3735500000000000 H
   0.4347100000000000    0.8454100000000000    0.3242000000000000 H
   0.4083100000000000    0.9861300000000000    0.5678900000000000 H
   0.3504450000000000    0.9867400000000000    0.6072700000000000 H
   0.3455000000000000    0.8746200000000000    0.6319900000000001 H
   0.4042100000000000    0.8678800000000000    0.6256900000000000 H
   0.3417600000000000    0.9321000000000000    0.5137800000000000 H
   0.3996400000000000    0.8926100000000000    0.5135100000000000 H
   0.3505500000000000    0.1265900000000000    0.7185100000000000 H
   0.3152800000000000    0.1758600000000000    0.6544300000000000 H
   0.3892050000000000    0.0822100000000000    0.6399800000000000 H
   0.3607750000000000    0.1399100000000000    0.5822000000000001 H
   0.3994200000000000    0.2186400000000000    0.6263500000000000 H
   0.4347100000000000    0.1546200000000000    0.6757000000000000 H
   0.3416400000000000    0.0677400000000000    0.4861000000000000 H
   0.3995450000000000    0.1071400000000000    0.4866000000000000 H
   0.3454300000000000    0.1252400000000000    0.3680100000000000 H
   0.4041250000000000    0.1320600000000000    0.3744000000000000 H
   0.4083500000000000    0.0138000000000000    0.4320800000000000 H
   0.3504850000000000    0.0131500000000000    0.3927000000000000 H
   0.3505000000000000    0.3733900000000000    0.2814200000000000 H
   0.3153000000000000    0.3240900000000000    0.3455300000000000 H
   0.3608700000000000    0.3599900000000000    0.4177300000000000 H
   0.3891850000000000    0.4177700000000000    0.3599600000000000 H
   0.3995400000000000    0.2813900000000000    0.3734300000000000 H
   0.4347450000000000    0.3455000000000000    0.3241300000000000 H
   0.3417150000000000    0.5677500000000000    0.4861700000000000 H
   0.3995950000000000    0.6072000000000000    0.4866300000000000 H
   0.3455650000000000    0.6254300000000000    0.3679900000000000 H
   0.4042700000000000    0.6320600000000000    0.3744800000000000 H
   0.4083100000000000    0.5137800000000000    0.4320500000000000 H
   0.3504450000000000    0.5132900000000000    0.3926200000000000 H
   0.3505800000000000    0.6265200000000000    0.7185400000000000 H
   0.3153100000000000    0.6758100000000000    0.6544700000000000 H
   0.3608100000000000    0.6399100000000000    0.5822300000000000 H
   0.3892200000000000    0.5821700000000000    0.6399800000000000 H
   0.3994800000000000    0.7185700000000000    0.6264600000000000 H
   0.4347500000000000    0.6545100000000000    0.6757700000000000 H
   0.4083050000000000    0.4861700000000000    0.5678800000000001 H
   0.3504250000000000    0.4865800000000000    0.6072800000000000 H
   0.4044450000000000    0.3679100000000000    0.6254500000000000 H
   0.3457350000000000    0.3743900000000000    0.6320000000000000 H
   0.3417800000000000    0.4321100000000000    0.5137900000000000 H
   0.3996350000000000    0.3926200000000000    0.5133000000000000 H
   0.3505600000000000    0.3735300000000000    0.7813700000000000 H
   0.3153450000000000    0.3241700000000000    0.8454300000000000 H
   0.3892200000000000    0.4178100000000000    0.8599800000000000 H
   0.3608800000000000    0.3600200000000000    0.9177100000000000 H
   0.3995600000000000    0.2814500000000000    0.8733700000000000 H
   0.4347800000000000    0.3455700000000000    0.8241100000000000 H
   0.0915500000000000    0.0677100000000000    0.9861500000000000 H
   0.1494600000000000    0.1070200000000000    0.9868400000000001 H
   0.1543300000000000    0.1320300000000000    0.8747000000000000 H
   0.0956500000000000    0.1253600000000000    0.8680099999999999 H
   0.1584750000000000    0.0138100000000000    0.9321400000000000 H
   0.1005650000000000    0.0131800000000000    0.8928400000000000 H
   0.1006200000000000    0.1264500000000000    0.2185600000000000 H
   0.0653150000000000    0.1757600000000000    0.1545400000000000 H
   0.1392400000000000    0.0821800000000000    0.1399400000000000 H
   0.1107700000000000    0.1399000000000000    0.0822200000000000 H
   0.1494250000000000    0.2186000000000000    0.1263900000000000 H
   0.1847300000000000    0.1545700000000000    0.1757100000000000 H
   0.0916050000000000    0.9321700000000001    0.0138000000000000 H
   0.1495000000000000    0.8928100000000000    0.0132300000000000 H
   0.1543550000000000    0.8679300000000000    0.1253700000000000 H
   0.0956700000000000    0.8746000000000000    0.1319700000000000 H
   0.1584600000000000    0.9861400000000000    0.0678200000000000 H
   0.1005500000000000    0.9867899999999999    0.1070800000000000 H
   0.1494800000000000    0.7813800000000000    0.8735300000000000 H
   0.1847300000000000    0.8454400000000000    0.8242000000000000 H
   0.1108300000000000    0.8600300000000000    0.9177600000000000 H
   0.1392200000000000    0.9177800000000000    0.8600000000000000 H
   0.1005500000000000    0.8734700000000000    0.7814300000000000 H
   0.0653050000000000    0.8241700000000000    0.8454900000000000 H
   0.3417100000000000    0.5677500000000000    0.9861500000000000 H
   0.3995750000000000    0.6071700000000000    0.9868300000000000 H
   0.4045300000000000    0.6320400000000000    0.8747500000000000 H
   0.3458300000000000    0.6256500000000000    0.8679800000000000 H
   0.4083700000000000    0.5137699999999999    0.9320700000000000 H
   0.3504750000000000    0.5134300000000001    0.8926700000000000 H
   0.3995150000000000    0.7185200000000000    0.1265400000000000 H
   0.4347850000000000    0.6544400000000000    0.1758200000000000 H
   0.3608300000000000    0.6399200000000000    0.0822600000000000 H
   0.3892600000000000    0.5821400000000000    0.1399600000000000 H
   0.3506450000000000    0.6263900000000000    0.2186100000000000 H
   0.3153550000000000    0.6757300000000001    0.1545900000000000 H
   0.3417350000000000    0.4321400000000000    0.0137900000000000 H
   0.3995850000000000    0.3927000000000000    0.0131700000000000 H
   0.4045900000000000    0.3679400000000000    0.1252300000000000 H
   0.3458900000000000    0.3743200000000000    0.1319800000000000 H
   0.4083950000000000    0.4861800000000000    0.0678400000000000 H
   0.3504850000000000    0.4865600000000000    0.1071800000000000 H
   0.3994900000000000    0.7813800000000000    0.8735300000000000 H
   0.4347400000000000    0.8454400000000000    0.8242000000000000 H
   0.3608400000000000    0.8600300000000000    0.9177600000000000 H
   0.3892300000000000    0.9177800000000000    0.8600000000000000 H
   0.3505600000000000    0.8734700000000000    0.7814300000000000 H
   0.3153150000000000    0.8241700000000000    0.8454900000000000 H
   0.3506250000000000    0.1264500000000000    0.2185600000000000 H
   0.3153250000000000    0.1757600000000000    0.1545400000000000 H
   0.3892500000000000    0.0821800000000000    0.1399400000000000 H
   0.3607750000000000    0.1399000000000000    0.0822200000000000 H
   0.3994350000000000    0.2186000000000000    0.1263900000000000 H
   0.4347350000000000    0.1545700000000000    0.1757100000000000 H
   0.3415600000000000    0.0677100000000000    0.9861500000000000 H
   0.3994700000000000    0.1070200000000000    0.9868400000000001 H
   0.4043400000000000    0.1320300000000000    0.8747000000000000 H
   0.3456600000000000    0.1253600000000000    0.8680099999999999 H
   0.4084850000000000    0.0138100000000000    0.9321400000000000 H
   0.3505750000000000    0.0131800000000000    0.8928400000000000 H
   0.1582950000000000    0.4861700000000000    0.5678800000000001 H
   0.1004150000000000    0.4865800000000000    0.6072000000000000 H
   0.1544350000000000    0.3679100000000000    0.6254500000000000 H
   0.0957250000000000    0.3743900000000000    0.6320000000000000 H
   0.0917700000000000    0.4321100000000000    0.5137900000000000 H
   0.1496250000000000    0.3926200000000000    0.5133500000000000 H
   0.1495300000000000    0.2813900000000000    0.3734300000000000 H
   0.1847350000000000    0.3455000000000000    0.3241300000000000 H
   0.1108600000000000    0.3599900000000000    0.4177300000000000 H
   0.1391750000000000    0.4177700000000000    0.3599600000000000 H
   0.1004900000000000    0.3733900000000000    0.2814200000000000 H
   0.0652900000000000    0.3240900000000000    0.3455300000000000 H
   0.0917050000000000    0.5677500000000000    0.4861700000000000 H
   0.1495850000000000    0.6072000000000000    0.4866300000000000 H
   0.0955550000000000    0.6254300000000000    0.3679900000000000 H
   0.1542600000000000    0.6320600000000000    0.3744800000000000 H
   0.1583000000000000    0.5137800000000000    0.4320500000000000 H
   0.1004350000000000    0.5132900000000000    0.3926000000000000 H
   0.7021150000000000    0.8200200000000000    0.4241300000000000 C
   0.5478650000000000    0.9240300000000000    0.3200900000000000 C
   0.6658450000000000    0.8274500000000000    0.3699100000000000 C
   0.5841200000000000    0.8697800000000000    0.3275600000000000 C
   0.6623000000000000    0.9544300000000000    0.6698900000000000 C
   0.5877350000000000    0.8300500000000000    0.5455700000000000 C
   0.6350650000000000    0.9609100000000000    0.6080300000000000 C
   0.6149350000000000    0.8919200000000000    0.5391500000000000 C
   0.7020500000000001    0.1799800000000000    0.5757700000000000 C
   0.5478950000000000    0.0758900000000000    0.6799300000000000 C
   0.6658150000000000    0.1725300000000000    0.6300100000000000 C
   0.5841499999999999    0.1301400000000000    0.6724400000000000 C
   0.5876700000000000    0.1698100000000000    0.4545000000000000 C
   0.6622850000000000    0.0455700000000000    0.3300900000000000 C
   0.6148450000000000    0.1079000000000000    0.4609100000000000 C
   0.6350700000000000    0.0390300000000000    0.3919500000000000 C
   0.7021400000000000    0.3200500000000000    0.4240600000000000 C
   0.5478650000000000    0.4240400000000000    0.3200800000000000 C
   0.6658800000000000    0.3275100000000000    0.3698000000000000 C
   0.5841400000000000    0.3698100000000000    0.3275100000000000 C
   0.5876900000000000    0.6698200000000000    0.4545000000000000 C
   0.6622900000000000    0.5456100000000000    0.3300600000000000 C
   0.6149050000000000    0.6079400000000000    0.4609200000000000 C
   0.6350650000000000    0.5390900000000000    0.3919100000000000 C
   0.5479150000000000    0.5758500000000000    0.6799400000000000 C
   0.7020900000000000    0.6799400000000000    0.5758300000000000 C
   0.5841750000000000    0.6301000000000000    0.6724700000000000 C
   0.6658550000000000    0.6724700000000000    0.6300700000000000 C
   0.5877450000000000    0.3300600000000000    0.5455000000000000 C
   0.6623150000000000    0.4544100000000000    0.6698800000000000 C
   0.6350899999999999    0.4608600000000000    0.6080200000000000 C
   0.6149750000000000    0.3919300000000000    0.5390800000000000 C
   0.5877400000000000    0.3300900000000000    0.0454700000000000 C
   0.6623350000000000    0.4544100000000000    0.1698500000000000 C
   0.6149650000000000    0.3919700000000000    0.0390000000000000 C
   0.6351599999999999    0.4608500000000000    0.1079600000000000 C
   0.7021550000000000    0.3200600000000000    0.9240600000000000 C
   0.5479050000000000    0.4241200000000000    0.8200000000000000 C
   0.6659050000000000    0.3275600000000000    0.8698000000000000 C
   0.5841850000000000    0.3699000000000000    0.8274600000000000 C
   0.6623150000000000    0.5456299999999999    0.8300700000000000 C
   0.5877100000000000    0.6698100000000000    0.9545500000000000 C
   0.6149400000000000    0.6079400000000000    0.9610000000000000 C
   0.6351350000000000    0.5391500000000000    0.8919500000000000 C
   0.9521250000000000    0.8200200000000000    0.4241300000000000 C
   0.7978700000000001    0.9240300000000000    0.3200900000000000 C
   0.8341300000000000    0.8697800000000000    0.3275600000000000 C
   0.9158550000000000    0.8274600000000000    0.3699000000000000 C