H8 C10 N2
1.0
  15.9411629063477047    0.0000000000000000    0.3497859249369192
   4.3751111928340620   16.8782573774764515    8.4184246715166271
   0.0000000000000000    0.0000000000000000   21.9100000000000001
H C N
8 10 2
direct
   0.7079600000000000    0.1428000000000000    0.6388600000000000 H
   0.6392400000000000    0.1579600000000000    0.5323700000000000 H
   0.4950000000000000    0.2969200000000000    0.6623700000000000 H
   0.4173000000000000    0.3204500000000000    0.5569200000000000 H
   0.2920600000000000    0.3572000000000000    0.3610900000000000 H
   0.3607900000000000    0.3420600000000000    0.4675000000000000 H
   0.5050000000000000    0.2030500000000000    0.3376000000000000 H
   0.5827100000000000    0.1795200000000000    0.4430500000000000 H
   0.6431800000000000    0.1810800000000000    0.6185700000000000 C
   0.6039000000000000    0.1907600000000000    0.5585500000000000 C
   0.5213700000000000    0.2427200000000000    0.5327400000000000 C
   0.4815800000000000    0.2801700000000000    0.5721300000000000 C
   0.5247300000000000    0.2674500000000000    0.6319100000000000 C
   0.3568300000000000    0.3189200000000000    0.3813000000000000 C
   0.3961200000000000    0.3092400000000000    0.4414000000000000 C
   0.4786500000000000    0.2572800000000000    0.4672100000000000 C
   0.5184299999999999    0.2198200000000000    0.4278300000000000 C
   0.4752800000000000    0.2325300000000000    0.3680600000000000 C
   0.6051100000000000    0.2194200000000000    0.6546700000000000 N
   0.3948900000000000    0.2805700000000000    0.3452900000000000 N
