H4 O2
1.0
  15.9411629063477047    0.0000000000000000    0.3497859249369192
   4.3751111928340620   16.8782573774764515    8.4184246715166271
   0.0000000000000000    0.0000000000000000   21.9100000000000001
H O
4 2
direct
   0.5468004871711318    0.2542620739135424    0.6381593690969763 H
   0.6327056148237469    0.1916286715959428    0.6285023694474057 H
   0.4531978692875617    0.2457259890462188    0.3618053648921232 H
   0.3672705247927407    0.3083999231265999    0.3714218261222650 H
   0.6051100000000000    0.2194200000000000    0.6546700000000000 O
   0.3948900000000000    0.2805700000000000    0.3452900000000000 O
