H4 C8 O5
1.0
  25.5489879138537326    0.0000000000000000   12.8889360529779911
   6.3711446118167903   14.1457436025424421    3.2153989280410284
   0.0000000000000000    0.0000000000000000   31.6900000000000013
H C O
4 8 5
direct
   0.8607500000000000    0.7371000000000000    0.8287599999999999 H
   0.7837850000000000    0.5985900000000000    0.8965000000000001 H
   0.7911699999999999    0.8274899999999999    0.7982800000000000 H
   0.6387650000000000    0.7741200000000000    0.8604550000000000 H
   0.6749450000000000    0.6250200000000000    0.9165500000000000 C
   0.6870149999999999    0.8860100000000000    0.7979000000000001 C
   0.7068400000000000    0.6811700000000001    0.8832249999999999 C
   0.7622550000000000    0.6592700000000000    0.8785100000000000 C
   0.7927700000000000    0.7124800000000000    0.8484950000000000 C
   0.7675900000000000    0.7866600000000000    0.8223600000000000 C
   0.7123950000000000    0.8080600000000000    0.8269000000000000 C
   0.6815400000000000    0.7560400000000000    0.8574850000000001 C
   0.6898400000000000    0.5831499999999999    0.9513450000000000 O
   0.6353650000000000    0.6168500000000000    0.9126050000000000 O
   0.6338450000000000   -0.0814400000000000    0.8078000000000001 O
   0.7209300000000000    0.9171899999999999    0.7630049999999999 O
   0.8456850000000000    0.6882900000000000    0.8459550000000000 O
