C1 N1
1.0
   6.7539998755281436    0.0000000000000000   -0.0012966749065102
  -0.0006051929285131    6.9349999735934755    0.0000000000000004
   0.0000000000000000    0.0000000000000000    6.9660000000000002
C N
1 1
direct
   0.9978700000000000    0.6879999999999999    0.6869600000000000 C
   0.9990500000000000    0.8066300000000000    0.8072000000000000 N
