Fe1 Ni1 H4 C7 N5
1.0
   6.7539998755281436    0.0000000000000000   -0.0012966749065102
  -0.0006051929285131    6.9349999735934755    0.0000000000000004
   0.0000000000000000    0.0000000000000000    6.9660000000000002
Fe Ni H C N
1 1 4 7 5
direct
   0.0001300000000000    0.0000200000000000    0.0000600000000000 Fe
   0.9970700000000000    0.5000400000000000    0.5001300000000000 Ni
   0.6863400000000000    0.7006200000000000    0.9995400000000000 H
   0.6864800000000000    0.2994300000000000    0.9995000000000001 H
   0.3136400000000000    0.7006200000000000    0.9993200000000000 H
   0.3137800000000000    0.2994300000000000    0.9992200000000000 H
   0.9978800000000000    0.6879900000000000    0.3132600000000000 C
   0.9979000000000000    0.3120600000000000    0.6869499999999999 C
   0.9979100000000000    0.3120700000000000    0.3132600000000000 C
   0.6025100000000000    0.8343100000000000    0.9993800000000000 C
   0.6026300000000000    0.1657400000000000    0.9993600000000000 C
   0.3974900000000000    0.8343000000000000    0.9993200000000000 C
   0.3976100000000000    0.1657400000000000    0.9991800000000000 C
   0.9991000000000000    0.8065700000000000    0.1929700000000000 N
   0.9991100000000001    0.1934200000000000    0.8071800000000000 N
   0.9991500000000000    0.1934700000000000    0.1929900000000000 N
   0.7084200000000000    0.0000800000000000    0.9993600000000000 N
   0.2918200000000000    0.0000700000000000    0.9991800000000000 N
