H3 O2
1.0
  37.2479988880538144    0.0000000000000000    0.0091014032663884
 -18.6082747656124816   32.3464129320153049   -0.0130260900747998
   0.0000000000000000    0.0000000000000000   27.0489999999999995
H O
3 2
direct
   0.0363448903291523    0.9696121419857058    0.7232709579477286 H
   0.0852730929665300   -0.0263049308046144    0.7487137808846678 H
   0.1261039942499814   -0.0331439098352632    0.7385181588508464 H
   0.0442600000000000    0.9938633333333333    0.7024400000000000 O
   0.1107166666666667    0.0001400000000000    0.7437200000000000 O
