H9 C5 S1 N1 O2
1.0
  37.2479988880538144    0.0000000000000000    0.0091014032663884
 -18.6082747656124816   32.3464129320153049   -0.0130260900747998
   0.0000000000000000    0.0000000000000000   27.0489999999999995
H C S N O
9 5 1 1 2
direct
   0.1115266666666667    0.0203933333333333    0.7700600000000000 H
   0.1061200000000000    0.0116433333333333    0.7109200000000000 H
   0.0672000000000000    0.9538133333333333    0.7914099999999999 H
   0.0405466666666667    0.8796599999999999    0.7857100000000000 H
   0.0446766666666667    0.8570599999999999    0.7290000000000000 H
   0.0107400000000000    0.8779899999999999    0.7336300000000000 H
   0.0820300000000000    0.9032600000000000    0.6547800000000000 H
   0.1026633333333333    0.9572233333333333    0.6586400000000000 H
   0.0481066666666667    0.9241699999999999    0.6564800000000000 H
   0.0752666666666667    0.9238999999999999    0.7276700000000000 C
   0.0715866666666667    0.9594699999999999    0.7514000000000000 C
   0.0407166666666667    0.8820033333333333    0.7452299999999999 C
   0.0770800000000000    0.9273366666666666    0.6711300000000000 C
   0.0337766666666667    0.9617433333333333    0.7300300000000000 C
   0.1258466666666667    0.9280266666666666    0.7467400000000000 S
   0.1107166666666667    0.0001400000000000    0.7437200000000000 N
   0.0442600000000000    0.9938633333333333    0.7024400000000000 O
   0.9984366666666666    0.9335933333333333    0.7397500000000000 O
