H1 O1
1.0
  32.1719996030938518    0.0000000000000000    0.0050535659217857
   0.1511677119025126   32.1934056016032315   -0.1241776692485183
   0.0000000000000000    0.0000000000000000   32.1899999999999977
H O
1 1
direct
   0.3950673587526342    0.1925005144829801    0.0730098303693681 H
   0.4090250000000000    0.2057550000000000    0.0965550000000000 O
