H4 O2
1.0
  13.5129998991507669    0.0000000000000000   -0.0016509243886478
  -0.0001248826360984    7.1534999945517654   -0.0002497042560310
   0.0000000000000000    0.0000000000000000   14.3729999999999993
H O
4 2
direct
   0.6841112752579666    0.3839433841823074    0.2500302212848249 H
   0.6841135929491253    0.6162364194303911    0.2500374518067358 H
   0.8158631234193541    0.3839415585577854    0.2499439304294021 H
   0.8158620061039954    0.6162346008095363    0.2499511640929162 H
   0.6458550000000001    0.5000900000000000    0.2500700000000000 O
   0.8541200000000000    0.5000900000000000    0.2499150000000000 O
