H4 C4 N2
1.0
  13.5129998991507669    0.0000000000000000   -0.0016509243886478
  -0.0001248826360984    7.1534999945517654   -0.0002497042560310
   0.0000000000000000    0.0000000000000000   14.3729999999999993
H C N
4 4 2
direct
   0.8429800000000001    0.7904400000000000    0.2498800000000000 H
   0.6570000000000000    0.7904400000000000    0.2501150000000000 H
   0.6569950000000000    0.2097400000000000    0.2500900000000000 H
   0.8429750000000000    0.2097400000000000    0.2498600000000000 H
   0.8012250000000001    0.6606700000000000    0.2499650000000000 C
   0.6987500000000000    0.6606700000000000    0.2500250000000000 C
   0.6987500000000000    0.3395000000000000    0.2500150000000000 C
   0.8012250000000001    0.3395000000000000    0.2499550000000000 C
   0.8541200000000000    0.5000900000000000    0.2499150000000000 N
   0.6458550000000001    0.5000900000000000    0.2500700000000000 N
