P1 H9 C7 O9
1.0
  23.4477977056121212    0.0000000000000000    0.0973999830132095
   0.0006984446037999   10.6809939238069340    0.0113715335135009
   0.0000000000000000    0.0000000000000000   35.9099999999999966
P H C O
1 9 7 9
direct
   0.8846066666666665    0.0695900000000000    0.1035500000000000 P
   0.7989100000000000    0.1154500000000000    0.1564800000000000 H
   0.7581300000000000    0.0500300000000000    0.1208900000000000 H
   0.8354400000000000    0.1991600000000000    0.0413550000000000 H
   0.7729833333333334    0.2725900000000000    0.0571950000000000 H
   0.7201299999999999    0.0768800000000000    0.0602350000000000 H
   0.7830900000000000    0.9868700000000000    0.0582200000000000 H
   0.6892633333333333    0.3776100000000000    0.1290000000000000 H
   0.8823166666666666    0.4615500000000000    0.0965700000000000 H
   0.7450800000000000    0.9376300000000000    0.9654600000000000 H
   0.7292500000000000    0.2238700000000000    0.1395650000000000 C
   0.7780100000000000    0.1378700000000000    0.1299850000000000 C
   0.8218266666666666    0.1826000000000000    0.1007000000000000 C
   0.7988966666666666    0.1877200000000000    0.0602350000000000 C
   0.7636933333333333    0.0735200000000000    0.0484600000000000 C
   0.7565933333333333    0.0622200000000000    0.0068600000000000 C
   0.8463499999999999    0.3075000000000000    0.1127650000000000 C
   0.6961966666666666    0.1968500000000000    0.1656200000000000 O
   0.7236333333333334    0.3248200000000000    0.1187600000000000 O
   0.8538733333333333    0.3315700000000000    0.1464250000000000 O
   0.8616566666666666    0.3848300000000000    0.0859250000000000 O
   0.9114266666666666    0.0862100000000000    0.1426450000000000 O
   0.8570166666666665    0.9385300000000000    0.1003400000000000 O
   0.9256166666666666    0.0986000000000000    0.0719050000000000 O
   0.7605866666666666    0.1553800000000000    0.9856750000000001 O
   0.7482400000000000    0.9495600000000000    0.9953300000000000 O
