H6 O5
1.0
  23.4477977056121212    0.0000000000000000    0.0973999830132095
   0.0006984446037999   10.6809939238069340    0.0113715335135009
   0.0000000000000000    0.0000000000000000   35.9099999999999966
H O
6 5
direct
   0.7574733499423162    0.0827498031618147    1.0021914310864852 H
   0.7221529818752493    0.2180684238685732    0.1451593769838758 H
   0.8207556485363042    0.9122174047974280    0.0900654360052758 H
   0.8052752906763093    1.0091818763938527    0.1125669944178092 H
   0.8778200808223640    0.1320991613074529    0.1505865657132213 H
   0.8479802826995235    0.3127158933864685    0.1200590162604293 H
   0.7605866666666666    0.1553800000000000    0.9856750000000001 O
   0.6961966666666666    0.1968500000000000    0.1656200000000000 O
   0.8570166666666665    0.9385300000000000    0.1003400000000000 O
   0.9114266666666666    0.0862100000000000    0.1426450000000000 O
   0.8538733333333333    0.3315700000000000    0.1464250000000000 O
