H8 C17 O4 F6
1.0
  15.8409998817766073    0.0000000000000000    0.0019353432428473
   0.0169272084517977   16.1639909373556172   -0.0025390351721895
   0.0000000000000000    0.0000000000000000   22.8380000000000010
H C O F
8 17 4 6
direct
   0.7711000000000000    0.2856700000000000    0.6172400000000000 H
   0.8342800000000000    0.1958700000000000    0.5419500000000000 H
   0.0552800000000000    0.3520700000000000    0.5397100000000000 H
   0.9909600000000000    0.4402600000000000    0.6159500000000000 H
   0.9351800000000000    0.3468900000000000    0.4335600000000000 H
   0.0033700000000000    0.4359600000000000    0.3597500000000000 H
   0.2280300000000000    0.2874800000000000    0.3694500000000000 H
   0.1604800000000000    0.1964500000000000    0.4421400000000000 H
   0.8378700000000000    0.4214200000000000    0.6687100000000000 C
   0.8762900000000000    0.3690600000000000    0.6212700000000000 C
   0.8333199999999999    0.2998700000000000    0.5997600000000000 C
   0.8694700000000000    0.2494600000000000    0.5569800000000000 C
   0.9497300000000000    0.2674700000000000    0.5345500000000000 C
   0.9927500000000000    0.3369600000000000    0.5563000000000000 C
   0.9565500000000000    0.3871700000000000    0.5989600000000000 C
   0.9963900000000000    0.2120700000000000    0.4898400000000000 C
   0.0571400000000000    0.1564000000000000    0.5268200000000000 C
   0.9363400000000000    0.1537900000000000    0.4544800000000000 C
   0.0428500000000000    0.2655300000000000    0.4441500000000000 C
   0.9994400000000000    0.3330700000000000    0.4197000000000000 C
   0.0378500000000000    0.3839000000000000    0.3783900000000000 C
   0.1208900000000000    0.3680200000000000    0.3604000000000000 C
   0.1636600000000000    0.2997700000000000    0.3837800000000000 C
   0.1251600000000000    0.2488100000000000    0.4250400000000000 C
   0.1645300000000000    0.4227600000000000    0.3170000000000000 C
   0.7733900000000000    0.3923400000000000    0.6947700000000000 O
   0.8739900000000000    0.4901600000000000    0.6799700000000000 O
   0.2330800000000000    0.3953700000000000    0.2952600000000000 O
   0.1299800000000000    0.4919700000000000    0.3046900000000000 O
   0.0153400000000000    0.1212900000000000    0.5724000000000000 F
   0.1218300000000000    0.2013800000000000    0.5499700000000000 F
   0.0925000000000000    0.0938800000000000    0.4952300000000000 F
   0.9775700000000001    0.1150100000000000    0.4101000000000000 F
   0.8999700000000000    0.0937400000000000    0.4876200000000000 F
   0.8719900000000000    0.1979500000000000    0.4298600000000000 F
