Zn8 H94 C172 N12 O32 F48
1.0
  15.8409998817766073    0.0000000000000000    0.0019353432428473
   0.0169272084517977   16.1639909373556172   -0.0025390351721895
   0.0000000000000000    0.0000000000000000   22.8380000000000010
Zn H C N O F
8 94 172 12 32 48
direct
   0.8331200000000000    0.4454300000000000    0.2526100000000000 Zn
   0.1899200000000000    0.4409000000000000    0.7404600000000000 Zn
   0.3333333333333333    0.5546500000000000    0.7475400000000000 Zn
   0.6899400000000000    0.4409200000000000    0.7594800000000000 Zn
   0.8333400000000000    0.5546300000000000    0.7524000000000000 Zn
   0.1898000000000000    0.5590700000000000    0.2403800000000000 Zn
   0.3333700000000000    0.4454100000000000    0.2474000000000000 Zn
   0.6897000000000000    0.5591600000000000    0.2598000000000000 Zn
   0.7709100000000000    0.7167300000000000    0.1185700000000000 H
   0.8346600000000000    0.8058999999999999    0.0431800000000000 H
   0.0545600000000000    0.6477600000000000    0.0409200000000000 H
   0.9895300000000000    0.5600400000000000    0.1170800000000000 H
   0.9352900000000000    0.6524300000000000    0.9347000000000000 H
   0.0034100000000000    0.5634800000000000    0.8607000000000000 H
   0.2279000000000000    0.7117400000000000    0.8703700000000000 H
   0.1604500000000000    0.8026200000000000    0.9431700000000000 H
   0.7645300000000000    0.2855000000000000    0.3907300000000000 H
   0.7038300000000000    0.1868200000000000    0.4613700000000000 H
   0.4735700000000000    0.3301100000000000    0.4634900000000000 H
   0.5343000000000000    0.4251900000000000    0.3903300000000000 H
   0.5969000000000000    0.3268600000000000    0.5726300000000000 H
   0.5216300000000000    0.4185600000000000    0.6410900000000000 H
   0.2960100000000000    0.2744200000000000    0.6187400000000000 H
   0.3717700000000000    0.1784400000000000    0.5537600000000000 H
   0.7308900000000000    0.7301700000000000    0.2706300000000000 H
   0.6616100000000000    0.8703600000000000    0.2730000000000000 H
   0.4213500000000000    0.7447500000000000    0.2637000000000000 H
   0.4997400000000000    0.6110600000000000    0.2604800000000000 H
   0.4232500000000000    0.8997600000000000    0.2640700000000000 H
   0.5936500000000000    0.1034700000000000    0.2806800000000000 H
   0.5943200000000000    0.2579600000000000    0.2864700000000000 H
   0.5189300000000000    0.3923500000000000    0.2751000000000000 H
   0.2952500000000000    0.2746500000000000    0.2310100000000000 H
   0.3621500000000000    0.1339700000000000    0.2403800000000000 H
   0.2710500000000000    0.2856400000000000    0.8826900000000000 H
   0.3342000000000000    0.1958700000000000    0.9579900000000000 H
   0.5552300000000000    0.3520500000000000    0.9602000000000001 H
   0.4909200000000000    0.4402100000000000    0.8839800000000000 H
   0.4350400000000000    0.3470600000000000    0.0663400000000000 H
   0.5032200000000000    0.4362800000000000    0.1400800000000000 H
   0.7278600000000000    0.2877400000000000    0.1304800000000000 H
   0.6603599999999999    0.1966200000000000    0.0578300000000000 H
   0.2645000000000000    0.7139000000000000    0.6092100000000000 H
   0.2039100000000000    0.8126400000000000    0.5384800000000000 H
   0.9735300000000000    0.6700300000000000    0.5365300000000000 H
   0.0341300000000000    0.5749000000000000    0.6097600000000000 H
   0.0969900000000000    0.6731600000000000    0.4270000000000000 H
   0.0214900000000000    0.5811800000000000    0.3590000000000000 H
   0.7955300000000000    0.7250000000000000    0.3822500000000000 H
   0.8715100000000000    0.8213400000000000    0.4466700000000000 H
   0.2315100000000000    0.2693600000000000    0.7325900000000000 H
   0.1622800000000000    0.1292900000000000    0.7299500000000000 H
   0.9218200000000000    0.2555400000000000    0.7345000000000000 H
   0.0001000000000000    0.3890600000000000    0.7383200000000000 H
   0.9235900000000000    0.1006100000000000    0.7349700000000000 H
   0.0937400000000000    0.8962100000000000    0.7201500000000000 H
   0.0944100000000000    0.7418400000000001    0.7142800000000000 H
   0.0190000000000000    0.6075800000000000    0.7253100000000000 H
   0.7947700000000000    0.7256300000000000    0.7681900000000000 H
   0.8616500000000000    0.8662100000000000    0.7590000000000000 H
   0.7711000000000000    0.2856700000000000    0.6172400000000000 H
   0.8342800000000000    0.1958700000000000    0.5419500000000000 H
   0.0552800000000000    0.3520700000000000    0.5397100000000000 H
   0.9909600000000000    0.4402600000000000    0.6159500000000000 H
   0.9351800000000000    0.3468900000000000    0.4335600000000000 H
   0.0033700000000000    0.4359600000000000    0.3597500000000000 H
   0.2280300000000000    0.2874800000000000    0.3694500000000000 H
   0.1604800000000000    0.1964500000000000    0.4421400000000000 H
   0.7644900000000000    0.7138600000000001    0.8907800000000000 H
   0.7039000000000000    0.8126300000000000    0.9615200000000000 H
   0.4734800000000000    0.6700400000000000    0.9634700000000000 H
   0.5341100000000000    0.5748900000000000    0.8902000000000000 H
   0.5969800000000000    0.6731900000000000    0.0728500000000000 H
   0.5216600000000000    0.5814400000000000    0.1411000000000000 H
   0.2957700000000000    0.7255200000000001    0.1183600000000000 H
   0.3715600000000000    0.8215300000000000    0.0535700000000000 H
   0.2710700000000000    0.7149799999999999    0.3820100000000000 H
   0.3345100000000000    0.8048800000000000    0.4571500000000000 H
   0.5554900000000000    0.6481700000000000    0.4592300000000000 H
   0.4909000000000000    0.5599100000000000    0.3831000000000000 H
   0.4354200000000000    0.6526400000000000    0.5654500000000000 H
   0.5035500000000001    0.5637000000000000    0.6394300000000001 H
   0.7280799999999999    0.7119100000000000    0.6297000000000000 H
   0.6606200000000000    0.8027900000000000    0.5569100000000000 H
   0.2644600000000000    0.2856000000000000    0.1092600000000000 H
   0.2037400000000000    0.1868500000000000    0.0386700000000000 H
   0.9736100000000000    0.3302900000000000    0.0364100000000000 H
   0.0343600000000000    0.4255000000000000    0.1094000000000000 H
   0.0968600000000000    0.3268200000000000    0.9272000000000000 H
   0.0215800000000000    0.4184600000000000    0.8588200000000000 H
   0.7959700000000000    0.2743500000000000    0.8812500000000000 H
   0.8717300000000000    0.1784400000000000    0.9462500000000000 H
   0.2310500000000000    0.7302900000000000    0.2305200000000000 H
   0.1617200000000000    0.8704600000000000    0.2279700000000000 H
   0.9214700000000000    0.7447500000000000    0.2365600000000000 H
   0.9998600000000000    0.6111300000000000    0.2401200000000000 H
   0.9232900000000001    0.8997700000000000    0.2360200000000000 H
   0.0936300000000000    0.1035400000000000    0.2194400000000000 H
   0.0942800000000000    0.2580400000000000    0.2135200000000000 H
   0.0189200000000000    0.3924300000000000    0.2247900000000000 H
   0.7950100000000000    0.2747700000000000    0.2684300000000000 H
   0.8619400000000000    0.1340900000000000    0.2591900000000000 H
   0.9836500000000000    0.8154600000000000    0.7358200000000000 C
   0.0279300000000000    0.7413900000000000    0.7265300000000000 C
   0.9862400000000000    0.6660700000000001    0.7324900000000000 C
   0.8609200000000000    0.7329900000000000    0.7564400000000000 C
   0.8362700000000000    0.5799100000000000    0.1694600000000000 C
   0.8753600000000000    0.6322500000000000    0.1223000000000000 C
   0.8329700000000000    0.7019600000000000    0.1010000000000000 C
   0.8694400000000000    0.7519900000000000    0.0582200000000000 C
   0.9494899999999999    0.7331400000000000    0.0357000000000000 C
   0.9921300000000000    0.6633800000000000    0.0575000000000000 C
   0.9555500000000000    0.6134700000000000    0.1001000000000000 C
   0.9959100000000000    0.7878300000000000    0.9905700000000000 C
   0.0566700000000000    0.8443800000000000    0.0270200000000000 C
   0.9357700000000000    0.8452800000000000    0.9546600000000000 C
   0.0427800000000000    0.7337900000000001    0.9452400000000000 C
   0.9995100000000000    0.6662400000000001    0.9208100000000000 C
   0.0379100000000000    0.6154400000000000    0.8793700000000000 C
   0.1208400000000000    0.6313299999999999    0.8612700000000000 C
   0.1635800000000000    0.6994300000000000    0.8847000000000000 C
   0.1251000000000000    0.7503400000000000    0.9261000000000000 C
   0.4565900000000000    0.6131200000000000    0.4001800000000000 C
   0.4960600000000000    0.7878400000000000    0.5094000000000000 C
   0.5567900000000000    0.8443700000000000    0.4729900000000000 C
   0.4357900000000000    0.8452900000000000    0.5453200000000000 C
   0.5429500000000000    0.7339599999999999    0.5548900000000000 C
   0.1644300000000000    0.5769700000000000    0.8174300000000000 C
   0.6920400000000000    0.4190600000000000    0.3413700000000000 C
   0.6540000000000000    0.3618500000000000    0.3860400000000000 C
   0.7004899999999999    0.2942300000000000    0.4060000000000000 C
   0.6658800000000000    0.2390600000000000    0.4470000000000000 C
   0.5840400000000000    0.2514900000000000    0.4685000000000000 C
   0.5373300000000000    0.3192300000000000    0.4474000000000000 C
   0.5715400000000000    0.3734500000000000    0.4066000000000000 C
   0.5407100000000000    0.1933700000000000    0.5130200000000000 C
   0.4830300000000000    0.1343300000000000    0.4764700000000000 C
   0.6046100000000000    0.1395700000000000    0.5492100000000000 C
   0.4902900000000000    0.2458300000000000    0.5575000000000000 C
   0.5313000000000000    0.3137300000000000    0.5833199999999999 C
   0.4887000000000000    0.3663700000000000    0.6213900000000000 C
   0.4031600000000000    0.3530000000000000    0.6338300000000000 C
   0.3625500000000000    0.2845400000000000    0.6091500000000000 C
   0.4057200000000000    0.2308400000000000    0.5719400000000000 C
   0.3550500000000000    0.4106500000000000    0.6730600000000000 C
   0.6626200000000000    0.7372300000000001    0.2691400000000000 C
   0.6243000000000000    0.8139800000000000    0.2705700000000000 C
   0.5356900000000000    0.8189600000000000    0.2680000000000000 C
   0.4901000000000000    0.7447300000000000    0.2653100000000000 C
   0.5333400000000000    0.6696800000000001    0.2638900000000000 C
   0.4924900000000000    0.8986800000000000    0.2668900000000000 C
   0.5259600000000000    0.1047100000000000    0.2702400000000000 C
   0.4838200000000000    0.1845500000000000    0.2643200000000000 C
   0.5279900000000000    0.2585300000000000    0.2738000000000000 C
   0.4862800000000000    0.3339100000000000    0.2677500000000000 C
   0.3612700000000000    0.2671800000000000    0.2431000000000000 C
   0.3982300000000000    0.1901000000000000    0.2483700000000000 C
   0.3378300000000000    0.4214000000000000    0.8312000000000000 C
   0.3762400000000000    0.3690300000000000    0.8786700000000000 C
   0.3332700000000000    0.2998400000000000    0.9001700000000000 C
   0.3694000000000000    0.2494500000000000    0.9429500000000000 C
   0.4496500000000000    0.2674700000000000    0.9653900000000000 C
   0.4926900000000000    0.3369500000000000    0.9436200000000000 C
   0.4565100000000000    0.3871300000000000    0.9009700000000000 C
   0.4962600000000000    0.2121200000000000    0.0101500000000000 C
   0.5570900000000000    0.1564300000000000    0.9731000000000000 C
   0.4361600000000000    0.1538500000000000    0.0455100000000000 C
   0.5427000000000000    0.2656700000000000    0.0558100000000000 C
   0.4992900000000000    0.3332600000000000    0.0802100000000000 C
   0.5377200000000000    0.3841900000000000    0.1214800000000000 C
   0.6207300000000000    0.3683000000000000    0.1394000000000000 C
   0.6635000000000000    0.3000200000000000    0.1161000000000000 C
   0.6250200000000000    0.2489900000000000    0.0749100000000000 C
   0.6644099999999999    0.4229100000000000    0.1829600000000000 C
   0.1919100000000000    0.5807300000000000    0.6587100000000000 C
   0.1538900000000000    0.6379100000000000    0.6139800000000000 C
   0.2004400000000000    0.7053500000000000    0.5932600000000000 C
   0.1659100000000000    0.7605499999999999    0.5528999999999999 C
   0.0840400000000000    0.7483400000000000    0.5314400000000000 C
   0.0372800000000000    0.6807400000000000    0.5525400000000000 C
   0.0714200000000000    0.6264999999999999    0.5934500000000000 C
   0.0407200000000000    0.8065700000000000    0.4869400000000000 C
   0.9830400000000000    0.8656500000000000    0.5235300000000001 C
   0.1045900000000000    0.8603600000000000    0.4507800000000000 C
   0.9902700000000000    0.7541300000000000    0.4425300000000000 C
   0.0312700000000000    0.6862000000000000    0.4166500000000000 C
   0.9885300000000000    0.6333800000000001    0.3788400000000000 C
   0.9028400000000000    0.6465800000000000    0.3667400000000000 C
   0.8622000000000000    0.7150400000000000    0.3915200000000000 C
   0.9055100000000000    0.7689500000000000    0.4284300000000000 C
   0.8546100000000000    0.5889799999999999    0.3276100000000000 C
   0.1631900000000000    0.2624700000000000    0.7330200000000000 C
   0.1249100000000000    0.1857800000000000    0.7314000000000001 C
   0.0362300000000000    0.1809900000000000    0.7323200000000000 C
   0.9906100000000000    0.2553700000000000    0.7340800000000000 C
   0.0338000000000000    0.3303400000000000    0.7357700000000000 C
   0.9929000000000000    0.1014000000000000    0.7332100000000000 C
   0.0259200000000000    0.8952100000000000    0.7302200000000000 C
   0.8978699999999999    0.8100300000000000    0.7512900000000000 C
   0.8378700000000000    0.4214200000000000    0.6687100000000000 C
   0.8762900000000000    0.3690600000000000    0.6212700000000000 C
   0.8333199999999999    0.2998700000000000    0.5997600000000000 C
   0.8694700000000000    0.2494600000000000    0.5569800000000000 C
   0.9497300000000000    0.2674700000000000    0.5345500000000000 C
   0.9927500000000000    0.3369600000000000    0.5563000000000000 C
   0.9565500000000000    0.3871700000000000    0.5989600000000000 C
   0.9963900000000000    0.2120700000000000    0.4898400000000000 C
   0.0571400000000000    0.1564000000000000    0.5268200000000000 C
   0.9363400000000000    0.1537900000000000    0.4544800000000000 C
   0.0428500000000000    0.2655300000000000    0.4441500000000000 C
   0.9994400000000000    0.3330700000000000    0.4197000000000000 C
   0.0378500000000000    0.3839000000000000    0.3783900000000000 C
   0.1208900000000000    0.3680200000000000    0.3604000000000000 C
   0.1636600000000000    0.2997700000000000    0.3837800000000000 C
   0.1251600000000000    0.2488100000000000    0.4250400000000000 C
   0.1645300000000000    0.4227600000000000    0.3170000000000000 C
   0.6919200000000000    0.5807000000000000    0.8412700000000000 C
   0.6538800000000000    0.6379000000000000    0.8860000000000000 C
   0.7004300000000000    0.7053300000000000    0.9067300000000000 C
   0.6658900000000000    0.7605400000000000    0.9471000000000001 C
   0.5840200000000000    0.7483300000000001    0.9685500000000000 C
   0.5372500000000000    0.6807400000000000    0.9474500000000000 C
   0.5714000000000000    0.6264900000000000    0.9065299999999999 C
   0.5407000000000000    0.8065800000000000    0.0130600000000000 C
   0.4830300000000000    0.8656600000000000    0.9764600000000000 C
   0.6045800000000000    0.8603700000000000    0.0492100000000000 C
   0.4902600000000000    0.7542200000000000    0.0575400000000000 C
   0.5313099999999999    0.6863100000000000    0.0834100000000000 C
   0.4886700000000000    0.6336300000000000    0.1213800000000000 C
   0.4030400000000000    0.6469600000000000    0.1336700000000000 C
   0.3623800000000000    0.7154199999999999    0.1089200000000000 C
   0.4055800000000000    0.7691500000000000    0.0718200000000000 C
   0.3549600000000000    0.5893400000000000    0.1728800000000000 C
   0.3376100000000000    0.5786900000000000    0.3309500000000000 C
   0.3762100000000000    0.6313200000000000    0.3780700000000000 C
   0.3333333333333333    0.7007200000000000    0.3994500000000000 C
   0.3696000000000000    0.7511500000000000    0.4420000000000000 C
   0.4498500000000000    0.7328900000000000    0.4644000000000000 C
   0.4929100000000000    0.6633500000000000    0.4427000000000000 C
   0.4996400000000000    0.6664400000000000    0.5793400000000000 C
   0.5380500000000000    0.6156600000000000    0.6207600000000000 C
   0.6210000000000000    0.6315300000000000    0.6388200000000001 C
   0.6637400000000000    0.6996200000000000    0.6153500000000000 C
   0.6252700000000000    0.7505200000000000    0.5740000000000000 C
   0.6645500000000000    0.5770999999999999    0.6826100000000001 C
   0.1920300000000000    0.4192500000000000    0.1585600000000000 C
   0.1539800000000000    0.3620400000000000    0.1138000000000000 C
   0.2004300000000000    0.2943400000000000    0.0932800000000000 C
   0.1658200000000000    0.2391300000000000    0.0529900000000000 C
   0.0839900000000000    0.2515700000000000    0.0314700000000000 C
   0.0373300000000000    0.3193900000000000    0.0524600000000000 C
   0.0715600000000000    0.3736700000000000    0.0932800000000000 C
   0.0406800000000000    0.1934000000000000    0.9869500000000000 C
   0.9830300000000000    0.1343400000000000    0.0235000000000000 C
   0.1046000000000000    0.1395900000000000    0.9507600000000000 C
   0.9902600000000000    0.2458100000000000    0.9424600000000000 C
   0.0312500000000000    0.3136800000000000    0.9166100000000000 C
   0.9886600000000000    0.3663000000000000    0.8785400000000000 C
   0.9031100000000000    0.3529200000000000    0.8661200000000000 C
   0.8625100000000000    0.2844900000000000    0.8908300000000000 C
   0.9056800000000000    0.2308200000000000    0.9280500000000000 C
   0.8550100000000000    0.4105700000000000    0.8269000000000000 C
   0.1627600000000000    0.7373300000000000    0.2318600000000000 C
   0.1244200000000000    0.8140600000000000    0.2303200000000000 C
   0.0357800000000000    0.8190200000000000    0.2323700000000000 C
   0.9902300000000001    0.7447700000000000    0.2351900000000000 C
   0.0334800000000000    0.6697400000000000    0.2367500000000000 C
   0.9925400000000000    0.8987200000000000    0.2334000000000000 C
   0.0258900000000000    0.1047800000000000    0.2297300000000000 C
   0.9837200000000000    0.1846400000000000    0.2354800000000000 C
   0.0279000000000000    0.2586200000000000    0.2260100000000000 C
   0.9862100000000000    0.3340100000000000    0.2320800000000000 C
   0.8610800000000000    0.2673000000000000    0.2564700000000000 C
   0.8980600000000000    0.1902100000000000    0.2512600000000000 C
   0.6182700000000000    0.6657700000000000    0.2655900000000000 N
   0.5354900000000000    0.9669300000000000    0.2677800000000000 N
   0.4841100000000000    0.0365200000000000    0.2629300000000000 N
   0.4041200000000000    0.3383800000000000    0.2527200000000000 N
   0.1187700000000000    0.3340900000000000    0.7353700000000000 N
   0.0357600000000000    0.0329600000000000    0.7331100000000000 N
   0.9841700000000000    0.9635600000000000    0.7374400000000000 N
   0.9039300000000000    0.6617100000000000    0.7471300000000000 N
   0.1184300000000000    0.6658300000000000    0.2352300000000000 N
   0.0354800000000000    0.9670100000000000    0.2324600000000000 N
   0.9840600000000000    0.0366000000000000    0.2370500000000000 N
   0.9039900000000000    0.3385100000000000    0.2469700000000000 N
   0.7723900000000000    0.6098000000000000    0.1958800000000000 O
   0.8711400000000000    0.5103000000000000    0.1799600000000000 O
   0.2327900000000000    0.6045700000000001    0.7956100000000000 O
   0.1299900000000000    0.5078500000000000    0.8048700000000000 O
   0.7685400000000000    0.4056800000000000    0.3273900000000000 O
   0.6442400000000000    0.4752900000000000    0.3202600000000000 O
   0.3963500000000000    0.4693600000000000    0.6970300000000000 O
   0.2768400000000000    0.3958300000000000    0.6797700000000000 O
   0.2733400000000000    0.3923200000000000    0.8051800000000000 O
   0.3739600000000000    0.4901300000000000    0.8199900000000000 O
   0.7326700000000000    0.3951600000000000    0.2048800000000000 O
   0.6301900000000000    0.4923500000000000    0.1951600000000000 O
   0.2682900000000000    0.5942400000000000    0.6728000000000000 O
   0.1442800000000000    0.5243700000000000    0.6797100000000000 O
   0.8962000000000000    0.5309300000000000    0.3028000000000000 O
   0.7761500000000000    0.6032100000000000    0.3216000000000000 O
   0.7733900000000000    0.3923400000000000    0.6947700000000000 O
   0.8739900000000000    0.4901600000000000    0.6799700000000000 O
   0.2330800000000000    0.3953700000000000    0.2952600000000000 O
   0.1299800000000000    0.4919700000000000    0.3046900000000000 O
   0.7683100000000000    0.5941800000000000    0.8271700000000000 O
   0.6442800000000000    0.5243500000000000    0.8202600000000000 O
   0.3963600000000000    0.5306300000000000    0.1968900000000000 O
   0.2767300000000000    0.6041600000000000    0.1796100000000000 O
   0.2728800000000000    0.6076100000000000    0.3050300000000000 O
   0.3738300000000000    0.5098800000000000    0.3198400000000000 O
   0.7329300000000000    0.6046500000000000    0.7044300000000000 O
   0.6300700000000000    0.5079900000000001    0.6951200000000000 O
   0.2684700000000000    0.4057800000000000    0.1726100000000000 O
   0.1442900000000000    0.4756000000000000    0.1796200000000000 O
   0.8963400000000000    0.4692500000000000    0.8029100000000000 O
   0.7768000000000000    0.3957800000000000    0.8201900000000000 O
   0.0154400000000000    0.8812900000000000    0.0723000000000000 F
   0.1210600000000000    0.7989100000000000    0.0502000000000000 F
   0.0925100000000000    0.9060800000000000    0.9950000000000000 F
   0.9776000000000000    0.8822100000000000    0.9099400000000000 F
   0.9000100000000000    0.9062700000000000    0.9874200000000000 F
   0.8708800000000000    0.8018000000000000    0.9301700000000001 F
   0.4187000000000000    0.1768700000000000    0.4504300000000000 F
   0.5262700000000000    0.0970200000000000    0.4324900000000000 F
   0.4481400000000000    0.0733600000000000    0.5096500000000000 F
   0.6441800000000000    0.0800000000000000    0.5172200000000000 F
   0.5664200000000000    0.1008500000000000    0.5947500000000000 F
   0.6666666666666666    0.1878500000000000    0.5725400000000000 F
   0.5153400000000000    0.1213000000000000    0.9275300000000000 F
   0.6218000000000000    0.2013900000000000    0.9500100000000000 F
   0.5924700000000001    0.0939000000000000    0.0047500000000000 F
   0.4774800000000000    0.1151300000000000    0.0898500000000000 F
   0.3999500000000000    0.0937200000000000    0.0123600000000000 F
   0.3716000000000000    0.1978800000000000    0.0700900000000000 F
   0.9187400000000000    0.8231700000000000    0.5495700000000000 F
   0.0262400000000000    0.9029400000000000    0.5674800000000000 F
   0.9481200000000000    0.9266500000000000    0.4903300000000000 F
   0.1441000000000000    0.9199000000000001    0.4827600000000000 F
   0.0663700000000000    0.8991300000000000    0.4052400000000000 F
   0.1667000000000000    0.8120600000000000    0.4274000000000000 F
   0.0153400000000000    0.1212900000000000    0.5724000000000000 F
   0.1218300000000000    0.2013800000000000    0.5499700000000000 F
   0.0925000000000000    0.0938800000000000    0.4952300000000000 F
   0.9775700000000001    0.1150100000000000    0.4101000000000000 F
   0.8999700000000000    0.0937400000000000    0.4876200000000000 F
   0.8719900000000000    0.1979500000000000    0.4298600000000000 F
   0.4187300000000000    0.8231700000000000    0.9504200000000000 F
   0.5262500000000000    0.9029300000000000    0.9324900000000000 F
   0.4481000000000000    0.9266600000000000    0.0096700000000000 F
   0.6441100000000000    0.9199000000000001    0.0172000000000000 F
   0.5663800000000000    0.8991500000000000    0.0947600000000000 F
   0.6666666666666666    0.8120800000000000    0.0725500000000000 F
   0.5155000000000000    0.8811800000000000    0.4277000000000000 F
   0.6212600000000000    0.7989500000000000    0.4497600000000000 F
   0.5925400000000000    0.9061200000000000    0.5049700000000000 F
   0.4775800000000000    0.8822500000000000    0.5900400000000000 F
   0.4000100000000000    0.9062400000000000    0.5125400000000000 F
   0.3709000000000000    0.8018000000000000    0.5698000000000000 F
   0.9186900000000000    0.1768800000000000    0.0495700000000000 F
   0.0262600000000000    0.0970300000000000    0.0674900000000000 F
   0.9481600000000000    0.0733700000000000    0.9903200000000000 F
   0.1441600000000000    0.0800300000000000    0.9827399999999999 F
   0.0664100000000000    0.1008600000000000    0.9052200000000000 F
   0.1666800000000000    0.1878500000000000    0.9274300000000000 F
