Cd3 H16 C15 O12
1.0
   7.6877034811175120    0.0000000000000000    0.7162794052698249
   2.0406884582853224    9.2141387981716445    3.7846348336727353
   0.0000000000000000    0.0000000000000000   13.4629999999999992
Cd H C O
3 16 15 12
direct
   0.9999800000000000    0.4999700000000000    0.0000400000000000 Cd
   0.3545700000000000    0.1592400000000000    0.0468200000000000 Cd
   0.6454200000000000    0.8406400000000001    0.9532600000000000 Cd
   0.7139612192411862    0.5120705435960569   -0.0101097075419240 H
   0.5940693619871360    0.7071438676211815    0.8296416881082969 H
   0.5237656805048261    0.8407493674743569    0.7265810637669189 H
   0.3132300000000000    0.3097100000000000    0.3646200000000000 H
   0.2795300000000000    0.7561900000000000    0.3269100000000000 H
   0.3455100000000000    0.6323900000000000    0.0520400000000000 H
   0.0673200000000000    0.6524700000000000    0.6563900000000000 H
   0.1121000000000000    0.7078300000000000    0.4621100000000000 H
   0.3428100000000000    0.2106800000000000    0.7200800000000001 H
   0.4009300000000000    0.2667100000000000    0.5263300000000000 H
   0.7302543605465021    0.8141750310341695    1.1390450285276394 H
   0.9639989451609754    0.3964315870190951    0.2061271029550402 H
   0.8518689499441141    0.5955567280062326    1.1851979383151345 H
   0.6635260666217263    0.1687130203300310    0.0136799979006166 H
   0.7901207339961762    1.0439291132891986    0.7766831401522261 H
   0.7532220556220606    0.1075078411841662   -0.1278707013073391 H
   0.1700900000000000    0.3965800000000000    0.8178800000000001 C
   0.3219300000000000    0.8618800000000000    0.1157600000000000 C
   0.3447100000000000    0.3461400000000000    0.1575800000000000 C
   0.3138700000000000    0.4223400000000000    0.3156900000000000 C
   0.2918700000000000    0.6711300000000000    0.2944900000000000 C
   0.3304400000000000    0.6034400000000000    0.1382500000000000 C
   0.3133300000000000    0.7091100000000000    0.1837100000000000 C
   0.3305600000000000    0.4598200000000000    0.2045800000000000 C
   0.2905400000000000    0.5279199999999999    0.3624000000000000 C
   0.1396500000000000    0.5686000000000000    0.6269400000000001 C
   0.1676400000000000    0.5994200000000000    0.5180200000000000 C
   0.2939900000000000    0.3197300000000000    0.6629400000000000 C
   0.3244900000000000    0.3516700000000000    0.5537100000000000 C
   0.2019900000000000    0.4282600000000000    0.7008200000000000 C
   0.2618400000000000    0.4920400000000000    0.4789600000000000 C
   0.7111100000000000    0.6109700000000000   -0.0585200000000001 O
   0.5918300000000000    0.7848200000000000    0.7916200000000000 O
   0.2215700000000000    0.2678100000000000    0.8830200000000000 O
   0.0880700000000000    0.5066200000000000    0.8422700000000000 O
   0.2803400000000000    0.9569600000000000    0.1597300000000000 O
   0.3691800000000000    0.8941200000000000    0.0173500000000000 O
   0.4081900000000000    0.2151000000000000    0.2084000000000000 O
   0.2888700000000000    0.3889600000000000    0.0585600000000000 O
   0.7784500000000000    0.7320900000000000    1.1170400000000000 O
   0.9119200000000000    0.4932800000000000    0.1577800000000000 O
   0.6307800000000000    0.1057900000000000   -0.0172799999999999 O
   0.7196200000000000    1.0429400000000000    0.8403600000000000 O
