H9 O6
1.0
   7.6877034811175120    0.0000000000000000    0.7162794052698249
   2.0406884582853224    9.2141387981716445    3.7846348336727353
   0.0000000000000000    0.0000000000000000   13.4629999999999992
H O
9 6
direct
   0.6635260666217263    0.1687130203300310    0.0136799979006166 H
   0.7901207339961762    1.0439291132891986    0.7766831401522261 H
   0.7532220556220606    0.1075078411841662   -0.1278707013073391 H
   0.7302543605465021    0.8141750310341695    1.1390450285276394 H
   0.9639989451609754    0.3964315870190951    0.2061271029550402 H
   0.8518689499441141    0.5955567280062326    1.1851979383151345 H
   0.7139612192411862    0.5120705435960569   -0.0101097075419240 H
   0.5940693619871360    0.7071438676211815    0.8296416881082969 H
   0.5237656805048261    0.8407493674743569    0.7265810637669189 H
   0.6307800000000000    0.1057900000000000   -0.0172799999999999 O
   0.7196200000000000    1.0429400000000000    0.8403600000000000 O
   0.7784500000000000    0.7320900000000000    1.1170400000000000 O
   0.9119200000000000    0.4932800000000000    0.1577800000000000 O
   0.7111100000000000    0.6109700000000000   -0.0585200000000001 O
   0.5918300000000000    0.7848200000000000    0.7916200000000000 O
