H12 O8
1.0
   9.2074717223748248    0.0000000000000000    0.0228195457438005
   0.0190612944700715   11.0958786088818311    0.8512501477307993
   0.0000000000000000    0.0000000000000000   24.3820000000000014
H O
12 8
direct
   0.8038920365214577    0.6715699975404629    0.8614807686879268 H
   0.8727967607359175    0.7103028450039957    0.7794028626463622 H
   0.5192201206710899    0.5444332444960175    0.8728456971203153 H
   0.7250365916069750    0.3314279702230510    0.9233469722751368 H
   0.6987400963384227    0.4180012541560703    0.9001645350434928 H
   0.5992566900996208    0.3896631250876885    0.7499952057166136 H
   0.5453576606953763    0.4066212989226095    0.7256040302600472 H
   0.0137765987528246    0.5598080865793396    0.8931047731627597 H
   0.0840154576089171    0.5922640482314968    0.9027782351677003 H
   0.0307043165847717    0.4230067283709232    0.8261259302167456 H
  -0.1785300544197841    0.3254059241554099    0.7679048640248892 H
   0.7641557458172904    0.3370089734940759    0.8229195461037094 H
   0.8309500000000000    0.7468500000000000    0.8406199999999999 O
   0.4501200000000000    0.4896400000000000    0.8914900000000000 O
   0.6256699999999999    0.3600600000000000    0.9198800000000000 O
   0.6438000000000000    0.3791000000000000    0.7197300000000000 O
   0.1210000000000000    0.5414099999999999    0.8753100000000000 O
   0.1250400000000000    0.4068200000000000    0.8104700000000000 O
  -0.1282400000000000    0.3134800000000000    0.7337350000000000 O
   0.8555800000000000    0.3235100000000000    0.8428450000000001 O
