Zn16 H28 C56 O63
1.0
   9.2074717223748248    0.0000000000000000    0.0228195457438005
   0.0190612944700715   11.0958786088818311    0.8512501477307993
   0.0000000000000000    0.0000000000000000   24.3820000000000014
Zn H C O
16 28 56 63
direct
   0.5143100000000000    0.2397800000000000    0.4606050000000000 Zn
   0.6870800000000000    0.3801100000000000    0.1385000000000000 Zn
   0.0185700000000000    0.2604600000000000    0.2870700000000000 Zn
   0.8133400000000000    0.8800100000000000    0.3886750000000000 Zn
   0.4866700000000000    0.7606500000000000    0.0372550000000000 Zn
   0.3132400000000000    0.6204900000000000    0.3592850000000000 Zn
   0.9812000000000000    0.7395400000000000    0.2109350000000000 Zn
   0.1872200000000000    0.1197500000000000    0.1110550000000000 Zn
   0.5143100000000000    0.2397800000000000    0.9606049999999999 Zn
   0.6870800000000000    0.3801100000000000    0.6385000000000001 Zn
   0.0185700000000000    0.2604600000000000    0.7870699999999999 Zn
   0.8133400000000000    0.8800100000000000    0.8886750000000000 Zn
   0.4866700000000000    0.7606500000000000    0.5372550000000000 Zn
   0.3132400000000000    0.6204900000000000    0.8592850000000001 Zn
   0.9812000000000000    0.7395400000000000    0.7109350000000000 Zn
   0.1872200000000000    0.1197500000000000    0.6110550000000000 Zn
   0.3376800000000000    0.9395300000000000    0.4553000000000000 H
   0.3867900000000000    0.0675900000000000    0.3406100000000000 H
   0.0852800000000000    0.9910099999999999    0.4491150000000000 H
   0.1456000000000000    0.2335500000000000    0.4241100000000000 H
   0.8402700000000000    0.5590900000000000    0.2939450000000000 H
   0.8900500000000000    0.4306500000000000    0.4080450000000000 H
   0.5887700000000000    0.5076400000000000    0.2997500000000000 H
   0.6491400000000001    0.2662700000000000    0.3249800000000000 H
   0.6627999999999999    0.0584700000000000    0.0446650000000000 H
   0.6114100000000000    0.9305099999999999    0.1585200000000000 H
   0.9154200000000000    0.0074400000000000    0.0511650000000000 H
   0.8551400000000000    0.7674600000000000    0.0754550000000000 H
   0.1601000000000000    0.4423300000000000    0.2040450000000000 H
   0.1105900000000000    0.5701000000000001    0.0897850000000000 H
   0.4116700000000000    0.4939100000000000    0.1981900000000000 H
   0.3507200000000000    0.7351700000000000    0.1725200000000000 H
   0.3376800000000000    0.9395300000000000    0.9553000000000000 H
   0.3867900000000000    0.0675900000000000    0.8406100000000001 H
   0.0852800000000000    0.9910099999999999    0.9491149999999999 H
   0.1456000000000000    0.2335500000000000    0.9241100000000000 H
   0.6627999999999999    0.0584700000000000    0.5446650000000000 H
   0.6114100000000000    0.9305099999999999    0.6585200000000000 H
   0.9154200000000000    0.0074400000000000    0.5511650000000000 H
   0.8551400000000000    0.7674600000000000    0.5754550000000000 H
   0.1601000000000000    0.4423300000000000    0.7040450000000000 H
   0.1105900000000000    0.5701000000000001    0.5897850000000000 H
   0.4116700000000000    0.4939100000000000    0.6981900000000000 H
   0.3507200000000000    0.7351700000000000    0.6725200000000000 H
   0.2453100000000000    0.1539500000000000    0.4977750000000000 C
   0.3009400000000000    0.9651300000000000    0.4131600000000000 C
   0.5605000000000000    0.0375200000000000    0.3999200000000000 C
   0.4013800000000000    0.0619800000000000    0.3854250000000000 C
   0.1560300000000000    0.0363800000000000    0.4173700000000000 C
   0.2163100000000000    0.1560300000000000    0.4355900000000000 C
   0.2928700000000000    0.8534000000000000    0.3804600000000000 C
   0.0702400000000000    0.0590700000000000    0.3634450000000000 C
   0.7478700000000000    0.3457000000000000    0.2510650000000000 C
   0.8030200000000000    0.5340500000000000    0.3361300000000000 C
   0.0632000000000000    0.4617900000000000    0.3482750000000000 C
   0.9044500000000000    0.4368200000000000    0.3631850000000000 C
   0.6591399999999999    0.4634800000000000    0.3314300000000000 C
   0.7197200000000000    0.3435700000000000    0.3132350000000000 C
   0.7948200000000000    0.6463300000000000    0.3684750000000000 C
   0.5711600000000000    0.4406000000000000    0.3848950000000000 C
   0.7572100000000000    0.8461800000000000    0.0014150000000000 C
   0.6998700000000000    0.0345900000000000    0.0869250000000000 C
   0.4389700000000000    0.9619200000000000    0.0987650000000000 C
   0.5977200000000000    0.9373100000000000    0.1136600000000000 C
   0.8433600000000000    0.9644800000000000    0.0822050000000000 C
   0.7841700000000000    0.8446399999999999    0.0636600000000000 C
   0.7077300000000000    0.1480500000000000    0.1183550000000000 C
   0.9285900000000000    0.9414100000000000    0.1362100000000000 C
   0.2527200000000000    0.6562900000000000    0.2467150000000000 C
   0.1974400000000000    0.4670800000000000    0.1618450000000000 C
   0.9371900000000000    0.5385500000000000    0.1494300000000000 C
   0.0959200000000000    0.5639500000000000    0.1346350000000000 C
   0.3412200000000000    0.5378100000000000    0.1664700000000000 C
   0.2804300000000000    0.6578400000000000    0.1845050000000000 C
   0.2055000000000000    0.3545600000000000    0.1297000000000000 C
   0.4290700000000000    0.5601400000000000    0.1129300000000000 C
   0.2453100000000000    0.1539500000000000    0.9977750000000001 C
   0.3009400000000000    0.9651300000000000    0.9131600000000000 C
   0.5605000000000000    0.0375200000000000    0.8999200000000001 C
   0.4013800000000000    0.0619800000000000    0.8854250000000000 C
   0.1560300000000000    0.0363800000000000    0.9173700000000000 C
   0.2163100000000000    0.1560300000000000    0.9355899999999999 C
   0.2928700000000000    0.8534000000000000    0.8804600000000000 C
   0.0702400000000000    0.0590700000000000    0.8634450000000000 C
   0.7572100000000000    0.8461800000000000    0.5014150000000001 C
   0.6998700000000000    0.0345900000000000    0.5869250000000000 C
   0.4389700000000000    0.9619200000000000    0.5987650000000000 C
   0.5977200000000000    0.9373100000000000    0.6136600000000000 C
   0.8433600000000000    0.9644800000000000    0.5822050000000000 C
   0.7841700000000000    0.8446399999999999    0.5636600000000000 C
   0.7077300000000000    0.1480500000000000    0.6183550000000000 C
   0.9285900000000000    0.9414100000000000    0.6362099999999999 C
   0.2527200000000000    0.6562900000000000    0.7467150000000000 C
   0.1974400000000000    0.4670800000000000    0.6618450000000000 C
   0.9371900000000000    0.5385500000000000    0.6494300000000000 C
   0.0959200000000000    0.5639500000000000    0.6346350000000001 C
   0.3412200000000000    0.5378100000000000    0.6664700000000000 C
   0.2804300000000000    0.6578400000000000    0.6845050000000000 C
   0.2055000000000000    0.3545600000000000    0.6297000000000000 C
   0.4290700000000000    0.5601400000000000    0.6129300000000000 C
   0.3518700000000000    0.1758200000000000    0.4054550000000000 O
   0.1263900000000000    0.1388400000000000    0.3284700000000000 O
   0.3690700000000000    0.1870400000000000    0.0145350000000000 O
   0.1425800000000000    0.1201200000000000    0.0297800000000000 O
   0.3321900000000000    0.7528800000000000    0.4075700000000000 O
   0.6218900000000001    0.0930600000000000    0.4374250000000000 O
   0.9503300000000000    0.0106900000000000    0.3564700000000000 O
   0.2514100000000000    0.8642000000000000    0.3321350000000000 O
   0.6203400000000000    0.9594800000000000    0.3738050000000000 O
   0.8555800000000000    0.3235100000000000    0.3428450000000000 O
   0.6256699999999999    0.3600600000000000    0.4198800000000000 O
   0.8717600000000000    0.3134800000000000    0.2337350000000000 O
   0.6438000000000000    0.3791000000000000    0.2197300000000000 O
   0.8309500000000000    0.7468500000000000    0.3406200000000000 O
   0.1250400000000000    0.4068200000000000    0.3104700000000000 O
   0.4501200000000000    0.4896400000000000    0.3914900000000000 O
   0.7565000000000000    0.6358500000000000    0.4172250000000000 O
   0.1210000000000000    0.5414099999999999    0.3753100000000000 O
   0.6478300000000000    0.8242500000000000    0.0930900000000000 O
   0.8714499999999999    0.8617100000000000    0.1710000000000000 O
   0.6340000000000000    0.8130700000000000    0.4840450000000000 O
   0.8610800000000000    0.8793600000000000    0.4698150000000000 O
   0.6681600000000000    0.2473300000000000    0.0903250000000000 O
   0.3787800000000000    0.9073600000000001    0.0606650000000000 O
   0.0504700000000000    0.9896600000000000    0.1436500000000000 O
   0.7490100000000000    0.1400000000000000    0.1667350000000000 O
   0.3807700000000000    0.0418900000000000    0.1272400000000000 O
   0.1442700000000000    0.6773200000000000    0.1550100000000000 O
   0.3746200000000000    0.6405900000000000    0.0778850000000000 O
   0.1285300000000000    0.6874300000000000    0.2641550000000000 O
   0.3573700000000000    0.6244000000000000    0.2780300000000000 O
   0.1689600000000000    0.2544800000000000    0.1578550000000000 O
   0.8750700000000000    0.5933500000000000    0.1872200000000000 O
   0.5497300000000001    0.5105700000000000    0.1062500000000000 O
   0.2437900000000000    0.3643400000000000    0.0809600000000000 O
   0.8797100000000000    0.4588500000000000    0.1223550000000000 O
   0.3518700000000000    0.1758200000000000    0.9054550000000000 O
   0.1263900000000000    0.1388400000000000    0.8284700000000000 O
   0.3690700000000000    0.1870400000000000    0.5145350000000000 O
   0.1425800000000000    0.1201200000000000    0.5297800000000000 O
   0.3321900000000000    0.7528800000000000    0.9075700000000000 O
   0.6218900000000001    0.0930600000000000    0.9374250000000000 O
   0.9503300000000000    0.0106900000000000    0.8564700000000001 O
   0.2514100000000000    0.8642000000000000    0.8321350000000001 O
   0.6203400000000000    0.9594800000000000    0.8738049999999999 O
   0.6478300000000000    0.8242500000000000    0.5930900000000000 O
   0.8714499999999999    0.8617100000000000    0.6710000000000000 O
   0.6340000000000000    0.8130700000000000    0.9840450000000001 O
   0.8610800000000000    0.8793600000000000    0.9698150000000000 O
   0.6681600000000000    0.2473300000000000    0.5903250000000000 O
   0.3787800000000000    0.9073600000000001    0.5606650000000000 O
   0.0504700000000000    0.9896600000000000    0.6436500000000001 O
   0.7490100000000000    0.1400000000000000    0.6667350000000000 O
   0.3807700000000000    0.0418900000000000    0.6272400000000000 O
   0.1442700000000000    0.6773200000000000    0.6550100000000000 O
   0.3746200000000000    0.6405900000000000    0.5778850000000000 O
   0.1285300000000000    0.6874300000000000    0.7641549999999999 O
   0.3573700000000000    0.6244000000000000    0.7780300000000000 O
   0.1689600000000000    0.2544800000000000    0.6578550000000000 O
   0.8750700000000000    0.5933500000000000    0.6872199999999999 O
   0.5497300000000001    0.5105700000000000    0.6062500000000000 O
   0.2437900000000000    0.3643400000000000    0.5809600000000000 O
   0.8797100000000000    0.4588500000000000    0.6223550000000000 O
