H6 C9 O5
1.0
  21.3444609125270830    0.0000000000000000   -1.6611048593040512
   0.7346775027223246   12.2014544774381974   -3.7128671672976692
   0.0000000000000000    0.0000000000000000   25.5199999999999996
H C O
6 9 5
direct
   0.8686900000000000    0.6526900000000000    0.1993000000000000 H
   0.8916900000000000    0.4698900000000000    0.1353600000000000 H
   0.7151400000000000    0.4997200000000000    0.0447250000000000 H
   0.6946000000000000    0.6857500000000000    0.1080000000000000 H
   0.8892700000000000    0.3010900000000000    0.0852450000000000 H
   0.8670400000000000    0.2361500000000000    0.0153850000000000 H
   0.7692400000000000    0.7950900000000000    0.1948550000000000 C
   0.7801399999999999    0.6815900000000000    0.1582900000000000 C
   0.8349600000000000    0.6184800000000000    0.1656400000000000 C
   0.8475900000000000    0.5149600000000000    0.1296650000000000 C
   0.8041700000000001    0.4719600000000000    0.0860750000000000 C
   0.7483600000000000    0.5332000000000000    0.0789350000000000 C
   0.7371200000000000    0.6372300000000000    0.1143750000000000 C
   0.8726900000000000    0.3161100000000000    0.0459200000000000 C
   0.9228700000000000    0.3747600000000000    0.0270800000000000 C
   0.8021400000000000    0.8231100000000000    0.2401150000000000 O
   0.7279700000000000   -0.1426300000000000    0.1776300000000000 O
   0.8118200000000000    0.3707900000000000    0.0486300000000000 O
  -0.0213400000000000    0.3331300000000000    0.0292800000000000 O
   0.9040000000000000    0.4568000000000000    0.0108500000000000 O
