H12 C12 N2
1.0
  21.3444609125270830    0.0000000000000000   -1.6611048593040512
   0.7346775027223246   12.2014544774381974   -3.7128671672976692
   0.0000000000000000    0.0000000000000000   25.5199999999999996
H C N
12 12 2
direct
   0.3739500000000000    0.6639699999999999    0.4069800000000000 H
   0.2899800000000000    0.8132100000000000    0.4071150000000000 H
   0.2022400000000000    0.9312300000000000    0.4590000000000000 H
   0.2209400000000000    0.1401600000000000    0.4195150000000000 H
   0.1363100000000000    0.2897900000000000    0.4268800000000000 H
   0.2969800000000000    0.0392300000000000    0.4682000000000000 H
   0.2795800000000000    0.8602100000000000    0.5809750000000000 H
   0.3641700000000000    0.7104500000000000    0.5736350000000000 H
   0.2033700000000000    0.9607500000000000    0.5321500000000000 H
   0.1260600000000000    0.3353300000000000    0.5934150000000000 H
   0.2100800000000000    0.1861700000000000    0.5932550000000000 H
   0.2981200000000000    0.0687000000000000    0.5409450000000000 H
   0.3521500000000000    0.7111200000000000    0.4445500000000000 C
   0.3056200000000000    0.7934200000000000    0.4450300000000000 C
   0.2793100000000000    0.8513400000000000    0.4945850000000000 C
   0.2329600000000000    0.9471500000000000    0.4971900000000000 C
   0.2006300000000000    0.1799700000000000    0.4588600000000000 C
   0.1538000000000000    0.2632200000000000    0.4624650000000000 C
   0.2998000000000000    0.8201500000000000    0.5416100000000000 C
   0.3465900000000000    0.7368300000000000    0.5380150000000000 C
   0.1479700000000000    0.2884100000000000    0.5558550000000000 C
   0.1945400000000000    0.2061700000000000    0.5553700000000000 C
   0.2210100000000000    0.1485500000000000    0.5058400000000000 C
   0.2673900000000000    0.0527800000000000    0.5032150000000000 C
   0.3734000000000000    0.6843000000000000    0.4904900000000000 N
   0.1268200000000000    0.3154500000000000    0.5099500000000000 N
