Zn16 H180 C228 N14 O80
1.0
  21.3444609125270830    0.0000000000000000   -1.6611048593040512
   0.7346775027223246   12.2014544774381974   -3.7128671672976692
   0.0000000000000000    0.0000000000000000   25.5199999999999996
Zn H C N O
16 180 228 14 80
direct
   0.9503200000000001    0.5778600000000000    0.4906450000000000 Zn
   0.2988300000000000    0.9809400000000000    0.2889700000000000 Zn
   0.7997500000000000    0.9814100000000000    0.2889500000000000 Zn
   0.0497500000000000    0.4221200000000000    0.0093650000000000 Zn
   0.5492899999999999    0.4220800000000000    0.0092750000000000 Zn
   0.2002700000000000    0.0185600000000000    0.2110550000000000 Zn
   0.7012000000000000    0.0190300000000000    0.2110250000000000 Zn
   0.4507300000000000    0.5779300000000001    0.4907100000000000 Zn
   0.9503200000000001    0.5778600000000000    0.9906450000000000 Zn
   0.2988300000000000    0.9809400000000000    0.7889699999999999 Zn
   0.7997500000000000    0.9814100000000000    0.7889500000000000 Zn
   0.0497500000000000    0.4221200000000000    0.5093650000000000 Zn
   0.5492899999999999    0.4220800000000000    0.5092750000000000 Zn
   0.2002700000000000    0.0185600000000000    0.7110550000000000 Zn
   0.7012000000000000    0.0190300000000000    0.7110250000000000 Zn
   0.4507300000000000    0.5779300000000001    0.9907100000000000 Zn
   0.3811500000000000    0.3988000000000000    0.3269550000000000 H
   0.8820500000000000    0.3987800000000000    0.3269800000000000 H
   0.3577600000000000    0.2712400000000000    0.2355800000000000 H
   0.8585000000000000    0.2709500000000000    0.2357100000000000 H
   0.0351000000000000    0.0886500000000000    0.2495500000000000 H
   0.5345000000000000    0.0893000000000000    0.2493000000000000 H
   0.0562700000000000    0.2153400000000000    0.3424050000000000 H
   0.5554300000000000    0.2155200000000000    0.3423700000000000 H
   0.3601000000000000    0.1718100000000000    0.1510000000000000 H
   0.8612900000000000    0.1721000000000000    0.1509650000000000 H
   0.3824500000000000    0.0324400000000000    0.1179800000000000 H
   0.8831700000000000    0.0324300000000000    0.1180300000000000 H
   0.8739900000000000    0.6646400000000000    0.4065650000000000 H
   0.7899900000000000    0.8138200000000000    0.4067300000000000 H
   0.2795800000000000    0.8602100000000000    0.0809750000000000 H
   0.7791100000000000    0.8598000000000000    0.0804750000000000 H
   0.3641700000000000    0.7104500000000000    0.0736350000000000 H
   0.8637200000000000    0.7101400000000000    0.0730950000000000 H
   0.7019100000000000    0.9312300000000000    0.4590000000000000 H
   0.2033700000000000    0.9607500000000000    0.0321500000000000 H
   0.7030600000000000    0.9607100000000000    0.0317500000000000 H
   0.3684000000000000    0.6534500000000000    0.1993950000000000 H
   0.8686900000000000    0.6526900000000000    0.1993000000000000 H
   0.3919700000000000    0.4706900000000000    0.1356400000000000 H
   0.8916900000000000    0.4698900000000000    0.1353600000000000 H
   0.2155100000000000    0.4987400000000000    0.0445650000000000 H
   0.7151400000000000    0.4997200000000000    0.0447250000000000 H
   0.1943400000000000    0.6847000000000000    0.1077250000000000 H
   0.6946000000000000    0.6857500000000000    0.1080000000000000 H
   0.3895300000000000    0.3013300000000000    0.0860500000000000 H
   0.8892700000000000    0.3010900000000000    0.0852450000000000 H
   0.3678400000000000    0.2358700000000000    0.0161350000000000 H
   0.8670400000000000    0.2361500000000000    0.0153850000000000 H
   0.3755200000000000    0.8135100000000000    0.3326500000000000 H
   0.8761800000000000    0.8136800000000000    0.3323750000000000 H
   0.4595400000000000    0.8140100000000000    0.4071500000000000 H
   0.9599800000000001    0.8140600000000000    0.4070550000000000 H
   0.4700700000000000    0.1609300000000000    0.4296400000000000 H
   0.9705700000000000    0.1610700000000000    0.4298000000000000 H
   0.3854000000000000    0.1460900000000000    0.3549550000000000 H
   0.8861500000000000    0.1463000000000000    0.3548900000000000 H
   0.0480100000000000    0.9184400000000000    0.4654950000000000 H
   0.5478100000000000    0.9184099999999999    0.4652250000000000 H
   0.0466800000000000    0.0637600000000000    0.4801500000000000 H
   0.5464500000000000    0.0637300000000000    0.4798750000000000 H
   0.1179400000000000    0.6011600000000000    0.1730300000000000 H
   0.6189400000000000    0.6012400000000000    0.1730350000000000 H
   0.1415200000000000    0.7290400000000000    0.2642850000000000 H
   0.6422900000000000    0.7287500000000000    0.2644250000000000 H
   0.4655500000000000    0.9107000000000000    0.2505000000000000 H
   0.9649300000000000    0.9113900000000000    0.2504400000000000 H
   0.4446200000000000    0.7844400000000000    0.1576000000000000 H
   0.9437900000000000    0.7847499999999999    0.1575700000000000 H
   0.1387300000000000    0.8279000000000000    0.3490500000000000 H
   0.6399800000000000    0.8281700000000000    0.3489650000000000 H
   0.1168400000000000    0.9675500000000000    0.3819750000000000 H
   0.6176500000000000    0.9675800000000000    0.3820050000000000 H
   0.1260600000000000    0.3353300000000000    0.0934150000000000 H
   0.6260599999999999    0.3360700000000000    0.0930050000000000 H
   0.2100800000000000    0.1861700000000000    0.0932550000000000 H
   0.7099700000000000    0.1867100000000000    0.0928500000000000 H
   0.7204000000000000    0.1397600000000000    0.4190000000000000 H
   0.6358900000000000    0.2896500000000000    0.4263650000000000 H
   0.2981200000000000    0.0687000000000000    0.0409450000000000 H
   0.7977500000000000    0.0687900000000000    0.0405000000000000 H
   0.7966100000000000    0.0392600000000000    0.4677850000000000 H
   0.1313300000000000    0.3472100000000000    0.3006750000000000 H
   0.6315900000000000    0.3465300000000000    0.3006750000000000 H
   0.1083200000000000    0.5300100000000000    0.3646200000000000 H
   0.6080800000000000    0.5293600000000001    0.3643800000000000 H
   0.2848800000000000    0.5002600000000000    0.4552500000000000 H
   0.7845500000000000    0.5012900000000000    0.4554350000000000 H
   0.3054500000000000    0.3142300000000000    0.3919700000000000 H
   0.8057400000000000    0.3153800000000000    0.3922550000000000 H
   0.1107400000000000    0.6988500000000000    0.4147200000000000 H
   0.6105000000000000    0.6987900000000000    0.4139800000000000 H
   0.1329800000000000    0.7638200000000001    0.4845500000000000 H
   0.6321700000000000    0.7641000000000000    0.4839100000000000 H
   0.1238600000000000    0.1862600000000000    0.1676200000000000 H
   0.6244900000000000    0.1864800000000000    0.1673600000000000 H
   0.0400100000000000    0.1859400000000000    0.0929950000000000 H
   0.5405000000000000    0.1859700000000000    0.0928450000000000 H
   0.0294700000000000    0.8388900000000000    0.0701650000000000 H
   0.5299500000000000    0.8390500000000000    0.0703700000000000 H
   0.1138700000000000    0.8536400000000000    0.1451000000000000 H
   0.6145800000000000    0.8539200000000000    0.1450850000000000 H
   0.4522300000000000    0.0815800000000000    0.0347650000000000 H
   0.9520300000000000    0.0815600000000000    0.0345000000000000 H
   0.4535800000000000    0.9362500000000000    0.0201200000000000 H
   0.9533400000000000    0.9362500000000000    0.0198350000000000 H
   0.3811500000000000    0.3988000000000000    0.8269550000000000 H
   0.8820500000000000    0.3987800000000000    0.8269800000000000 H
   0.3577600000000000    0.2712400000000000    0.7355800000000000 H
   0.8585000000000000    0.2709500000000000    0.7357100000000000 H
   0.0351000000000000    0.0886500000000000    0.7495499999999999 H
   0.5345000000000000    0.0893000000000000    0.7493000000000000 H
   0.0562700000000000    0.2153400000000000    0.8424050000000001 H
   0.5554300000000000    0.2155200000000000    0.8423700000000001 H
   0.3601000000000000    0.1718100000000000    0.6510000000000000 H
   0.8612900000000000    0.1721000000000000    0.6509650000000000 H
   0.3824500000000000    0.0324400000000000    0.6179800000000000 H
   0.8831700000000000    0.0324300000000000    0.6180300000000000 H
   0.3739500000000000    0.6639699999999999    0.9069800000000000 H
   0.8739900000000000    0.6646400000000000    0.9065650000000001 H
   0.2899800000000000    0.8132100000000000    0.9071150000000000 H
   0.7899900000000000    0.8138200000000000    0.9067300000000000 H
   0.7791100000000000    0.8598000000000000    0.5804750000000000 H
   0.8637200000000000    0.7101400000000000    0.5730950000000000 H
   0.2022400000000000    0.9312300000000000    0.9590000000000001 H
   0.7019100000000000    0.9312300000000000    0.9590000000000001 H
   0.7030600000000000    0.9607100000000000    0.5317499999999999 H
   0.3684000000000000    0.6534500000000000    0.6993950000000000 H
   0.8686900000000000    0.6526900000000000    0.6993000000000000 H
   0.3919700000000000    0.4706900000000000    0.6356400000000000 H
   0.8916900000000000    0.4698900000000000    0.6353600000000000 H
   0.2155100000000000    0.4987400000000000    0.5445650000000000 H
   0.7151400000000000    0.4997200000000000    0.5447250000000000 H
   0.1943400000000000    0.6847000000000000    0.6077250000000000 H
   0.6946000000000000    0.6857500000000000    0.6080000000000000 H
   0.3895300000000000    0.3013300000000000    0.5860500000000000 H
   0.8892700000000000    0.3010900000000000    0.5852450000000000 H
   0.3678400000000000    0.2358700000000000    0.5161350000000000 H
   0.8670400000000000    0.2361500000000000    0.5153850000000000 H
   0.3755200000000000    0.8135100000000000    0.8326500000000000 H
   0.8761800000000000    0.8136800000000000    0.8323750000000000 H
   0.4595400000000000    0.8140100000000000    0.9071500000000000 H
   0.9599800000000001    0.8140600000000000    0.9070549999999999 H
   0.4700700000000000    0.1609300000000000    0.9296400000000000 H
   0.9705700000000000    0.1610700000000000    0.9298000000000000 H
   0.3854000000000000    0.1460900000000000    0.8549550000000000 H
   0.8861500000000000    0.1463000000000000    0.8548899999999999 H
   0.0480100000000000    0.9184400000000000    0.9654950000000000 H
   0.5478100000000000    0.9184099999999999    0.9652250000000000 H
   0.0466800000000000    0.0637600000000000    0.9801500000000001 H
   0.5464500000000000    0.0637300000000000    0.9798750000000001 H
   0.1179400000000000    0.6011600000000000    0.6730300000000000 H
   0.6189400000000000    0.6012400000000000    0.6730350000000000 H
   0.1415200000000000    0.7290400000000000    0.7642850000000000 H
   0.6422900000000000    0.7287500000000000    0.7644250000000000 H
   0.4655500000000000    0.9107000000000000    0.7504999999999999 H
   0.9649300000000000    0.9113900000000000    0.7504400000000000 H
   0.4446200000000000    0.7844400000000000    0.6576000000000000 H
   0.9437900000000000    0.7847499999999999    0.6575700000000000 H
   0.1387300000000000    0.8279000000000000    0.8490500000000001 H
   0.6399800000000000    0.8281700000000000    0.8489650000000000 H
   0.1168400000000000    0.9675500000000000    0.8819750000000000 H
   0.6176500000000000    0.9675800000000000    0.8820049999999999 H
   0.6260599999999999    0.3360700000000000    0.5930050000000000 H
   0.7099700000000000    0.1867100000000000    0.5928500000000000 H
   0.2209400000000000    0.1401600000000000    0.9195150000000001 H
   0.7204000000000000    0.1397600000000000    0.9190000000000000 H
   0.1363100000000000    0.2897900000000000    0.9268799999999999 H
   0.6358900000000000    0.2896500000000000    0.9263650000000000 H
   0.7977500000000000    0.0687900000000000    0.5405000000000000 H
   0.2969800000000000    0.0392300000000000    0.9681999999999999 H
   0.7966100000000000    0.0392600000000000    0.9677850000000000 H
   0.1313300000000000    0.3472100000000000    0.8006750000000000 H
   0.6315900000000000    0.3465300000000000    0.8006750000000000 H
   0.1083200000000000    0.5300100000000000    0.8646199999999999 H
   0.6080800000000000    0.5293600000000001    0.8643799999999999 H
   0.2848800000000000    0.5002600000000000    0.9552499999999999 H
   0.7845500000000000    0.5012900000000000    0.9554350000000000 H
   0.3054500000000000    0.3142300000000000    0.8919699999999999 H
   0.8057400000000000    0.3153800000000000    0.8922550000000000 H
   0.1107400000000000    0.6988500000000000    0.9147200000000000 H
   0.6105000000000000    0.6987900000000000    0.9139800000000000 H
   0.1329800000000000    0.7638200000000001    0.9845500000000000 H
   0.6321700000000000    0.7641000000000000    0.9839100000000001 H
   0.1238600000000000    0.1862600000000000    0.6676200000000000 H
   0.6244900000000000    0.1864800000000000    0.6673600000000000 H
   0.0400100000000000    0.1859400000000000    0.5929949999999999 H
   0.5405000000000000    0.1859700000000000    0.5928450000000000 H
   0.0294700000000000    0.8388900000000000    0.5701650000000000 H
   0.5299500000000000    0.8390500000000000    0.5703700000000000 H
   0.1138700000000000    0.8536400000000000    0.6451000000000000 H
   0.6145800000000000    0.8539200000000000    0.6450850000000000 H
   0.4522300000000000    0.0815800000000000    0.5347650000000000 H
   0.9520300000000000    0.0815600000000000    0.5345000000000000 H
   0.4535800000000000    0.9362500000000000    0.5201200000000000 H
   0.9533400000000000    0.9362500000000000    0.5198350000000000 H
   0.6652100000000000    0.3811500000000000    0.3343550000000000 C
   0.1524300000000000    0.4849600000000000    0.3703150000000000 C
   0.6522900000000000    0.4847000000000000    0.3702050000000000 C
   0.1958400000000000    0.5279800000000000    0.4139000000000000 C
   0.4810800000000000    0.3895800000000000    0.3974900000000000 C
   0.9821500000000000    0.3897300000000000    0.3974300000000000 C
   0.4698500000000000    0.3164100000000000    0.3408100000000000 C
   0.9707700000000000    0.3164100000000000    0.3408000000000000 C
   0.4148300000000000    0.3314000000000000    0.3095950000000000 C
   0.9156900000000000    0.3312900000000000    0.3096450000000000 C
   0.4019900000000000    0.2596200000000000    0.2578400000000000 C
   0.9027500000000001    0.2593600000000000    0.2579500000000000 C
   0.4453900000000000    0.1724200000000000    0.2359900000000000 C
   0.9460800000000000    0.1720000000000000    0.2361500000000000 C
   0.0020100000000000    0.1573200000000000    0.2664650000000000 C
   0.5013200000000000    0.1577900000000000    0.2663200000000000 C
   0.0136000000000000    0.2282400000000000    0.3183500000000000 C
   0.5128000000000000    0.2284700000000000    0.3183000000000000 C
   0.3768200000000000    0.0929400000000000    0.1581750000000000 C
   0.8775400000000000    0.0930900000000000    0.1581500000000000 C
   0.3268100000000000    0.0548400000000000    0.1875000000000000 C
   0.8270300000000000    0.0556800000000000    0.1872950000000000 C
   0.8520700000000000    0.7115300000000000    0.4441250000000000 C
   0.8055200000000000    0.7938100000000000    0.4446100000000000 C
   0.7790500000000000    0.8514100000000000    0.4941450000000000 C
   0.2998000000000000    0.8201500000000000    0.0416100000000000 C
   0.7994200000000000    0.8199900000000000    0.0411250000000000 C
   0.3465900000000000    0.7368300000000000    0.0380150000000000 C
   0.8462200000000000    0.7366900000000000    0.0375100000000000 C
   0.7326500000000000    0.9471600000000000    0.4967700000000000 C
   0.2684000000000000    0.7947300000000000    0.1947550000000000 C
   0.7692400000000000    0.7950900000000000    0.1948550000000000 C
   0.2797700000000000    0.6813600000000000    0.1582150000000000 C
   0.7801399999999999    0.6815900000000000    0.1582900000000000 C
   0.3348100000000000    0.6188500000000000    0.1656850000000000 C
   0.8349600000000000    0.6184800000000000    0.1656400000000000 C
   0.3477500000000000    0.5153300000000000    0.1298200000000000 C
   0.8475900000000000    0.5149600000000000    0.1296650000000000 C
   0.3045000000000000    0.4718200000000000    0.0861800000000000 C
   0.8041700000000001    0.4719600000000000    0.0860750000000000 C
   0.2485600000000000    0.5325600000000000    0.0788500000000000 C
   0.7483600000000000    0.5332000000000000    0.0789350000000000 C
   0.2369800000000000    0.6365600000000000    0.1141950000000000 C
   0.7371200000000000    0.6372300000000000    0.1143750000000000 C
   0.3732900000000000    0.3159900000000000    0.0465800000000000 C
   0.8726900000000000    0.3161100000000000    0.0459200000000000 C
   0.4237100000000000    0.3744600000000000    0.0279350000000000 C
   0.9228700000000000    0.3747600000000000    0.0270800000000000 C
   0.3973300000000000    0.8885800000000000    0.3559950000000000 C
   0.8979900000000000    0.8887000000000000    0.3557950000000000 C
   0.4439100000000000    0.8896500000000001    0.3970800000000000 C
   0.9444300000000000    0.8897000000000000    0.3969700000000000 C
   0.4703300000000000    0.9885800000000000    0.4257150000000000 C
   0.9708000000000000    0.9886300000000000    0.4256800000000000 C
   0.4497900000000000    0.0823600000000000    0.4095000000000000 C
   0.9503700000000000    0.0824900000000000    0.4099100000000000 C
   0.4029500000000000    0.0750600000000000    0.3683200000000000 C
   0.9036800000000000    0.0752500000000000    0.3682350000000000 C
   0.0171900000000000    0.9938800000000000    0.4735100000000000 C
   0.5169899999999999    0.9938600000000000    0.4734000000000000 C
   0.0178700000000000    0.6102700000000000    0.1025700000000000 C
   0.5189700000000000    0.6104200000000000    0.1024500000000000 C
   0.0292500000000000    0.6836000000000000    0.1591500000000000 C
   0.5302200000000000    0.6835599999999999    0.1591800000000000 C
   0.0843200000000000    0.6686900000000000    0.1903500000000000 C
   0.5852500000000000    0.6686299999999999    0.1903950000000000 C
   0.0972700000000000    0.7406400000000000    0.2420450000000000 C
   0.5980600000000000    0.7403800000000000    0.2421600000000000 C
   0.0539400000000000    0.8280000000000000    0.2638450000000000 C
   0.5546600000000000    0.8275600000000000    0.2600000000000000 C
   0.4987200000000000    0.8421999999999999    0.2336500000000000 C
   0.9980200000000000    0.8427100000000000    0.2335000000000000 C
   0.4872700000000000    0.7715100000000000    0.1816500000000000 C
   0.9864400000000000    0.7718100000000000    0.1815900000000000 C
   0.1224700000000000    0.9068900000000000    0.3418000000000000 C
   0.6232600000000000    0.9070400000000000    0.3418150000000000 C
   0.1729800000000000    0.9443100000000000    0.3127100000000000 C
   0.6732700000000000    0.9451000000000001    0.3124650000000000 C
   0.1479700000000000    0.2884100000000000    0.0558550000000000 C
   0.6478800000000000    0.2889200000000000    0.0554350000000000 C
   0.1945400000000000    0.2061700000000000    0.0553700000000000 C
   0.6943500000000000    0.2065400000000000    0.0549500000000000 C
   0.2210100000000000    0.1485500000000000    0.0058400000000000 C
   0.7206600000000000    0.1486400000000000    0.0053900000000000 C
   0.7001900000000000    0.1798400000000000    0.4583650000000000 C
   0.6534600000000000    0.2632500000000000    0.4619800000000000 C
   0.2673900000000000    0.0527800000000000    0.0032150000000000 C
   0.7670200000000000    0.0528300000000000    0.0027850000000000 C
   0.2307900000000000    0.2048600000000000    0.3051000000000000 C
   0.7316200000000000    0.2052700000000000    0.3052700000000000 C
   0.2199000000000000    0.3183600000000000    0.3416850000000000 C
   0.7202600000000000    0.3186600000000000    0.3418150000000000 C
   0.1650600000000000    0.3814500000000000    0.3343400000000000 C
   0.6955400000000000    0.5282300000000000    0.4138350000000000 C
   0.2516600000000000    0.4667600000000000    0.4210400000000000 C
   0.7514800000000000    0.4674900000000000    0.4211500000000000 C
   0.2629200000000000    0.3627400000000000    0.3855950000000000 C
   0.7630800000000000    0.3635000000000000    0.3858000000000000 C
   0.1273300000000000    0.6838500000000000    0.4540450000000000 C
   0.6267400000000000    0.6840200000000000    0.4534250000000000 C
   0.0771500000000000    0.6252300000000000    0.4729050000000000 C
   0.5763200000000001    0.6255200000000000    0.4720500000000000 C
   0.1020400000000000    0.1112600000000000    0.1442100000000000 C
   0.6026800000000000    0.1114100000000000    0.1440150000000000 C
   0.0555800000000000    0.1102800000000000    0.1030550000000000 C
   0.5561199999999999    0.1103400000000000    0.1029200000000000 C
   0.0292200000000000    0.0113500000000000    0.0743250000000000 C
   0.5296999999999999    0.0114000000000000    0.0742850000000000 C
   0.0496700000000000    0.9174600000000001    0.0900750000000000 C
   0.5502300000000000    0.9176200000000000    0.0901150000000000 C
   0.0963600000000000    0.9247000000000000    0.1317500000000000 C
   0.5970500000000000    0.9249400000000000    0.1317000000000000 C
   0.4830400000000000    0.0061200000000000    0.0266000000000000 C
   0.9828400000000000    0.0061200000000000    0.0264950000000000 C
   0.6652100000000000    0.3811500000000000    0.8343550000000000 C
   0.1524300000000000    0.4849600000000000    0.8703149999999999 C
   0.6522900000000000    0.4847000000000000    0.8702050000000000 C
   0.1958400000000000    0.5279800000000000    0.9138999999999999 C
   0.4810800000000000    0.3895800000000000    0.8974900000000000 C
   0.9821500000000000    0.3897300000000000    0.8974299999999999 C
   0.4698500000000000    0.3164100000000000    0.8408100000000001 C
   0.9707700000000000    0.3164100000000000    0.8408000000000000 C
   0.4148300000000000    0.3314000000000000    0.8095950000000001 C
   0.9156900000000000    0.3312900000000000    0.8096449999999999 C
   0.4019900000000000    0.2596200000000000    0.7578400000000001 C
   0.9027500000000001    0.2593600000000000    0.7579500000000000 C
   0.4453900000000000    0.1724200000000000    0.7359900000000000 C
   0.9460800000000000    0.1720000000000000    0.7361500000000000 C
   0.0020100000000000    0.1573200000000000    0.7664650000000000 C
   0.5013200000000000    0.1577900000000000    0.7663200000000000 C
   0.0136000000000000    0.2282400000000000    0.8183500000000000 C
   0.5128000000000000    0.2284700000000000    0.8183000000000000 C
   0.3768200000000000    0.0929400000000000    0.6581750000000000 C
   0.8775400000000000    0.0930900000000000    0.6581500000000000 C
   0.3268100000000000    0.0548400000000000    0.6875000000000000 C
   0.8270300000000000    0.0556800000000000    0.6872950000000000 C
   0.3521500000000000    0.7111200000000000    0.9445500000000000 C
   0.8520700000000000    0.7115300000000000    0.9441250000000000 C
   0.3056200000000000    0.7934200000000000    0.9450300000000000 C
   0.8055200000000000    0.7938100000000000    0.9446099999999999 C
   0.2793100000000000    0.8513400000000000    0.9945850000000001 C
   0.7790500000000000    0.8514100000000000    0.9941450000000001 C
   0.7994200000000000    0.8199900000000000    0.5411250000000000 C
   0.8462200000000000    0.7366900000000000    0.5375100000000000 C
   0.2329600000000000    0.9471500000000000    0.9971900000000000 C
   0.7326500000000000    0.9471600000000000    0.9967699999999999 C
   0.2684000000000000    0.7947300000000000    0.6947550000000000 C
   0.7692400000000000    0.7950900000000000    0.6948550000000000 C
   0.2797700000000000    0.6813600000000000    0.6582150000000000 C
   0.7801399999999999    0.6815900000000000    0.6582900000000000 C
   0.3348100000000000    0.6188500000000000    0.6656850000000000 C
   0.8349600000000000    0.6184800000000000    0.6656400000000000 C
   0.3477500000000000    0.5153300000000000    0.6298200000000000 C
   0.8475900000000000    0.5149600000000000    0.6296650000000000 C
   0.3045000000000000    0.4718200000000000    0.5861800000000000 C
   0.8041700000000001    0.4719600000000000    0.5860750000000000 C
   0.2485600000000000    0.5325600000000000    0.5788500000000000 C
   0.7483600000000000    0.5332000000000000    0.5789350000000000 C
   0.2369800000000000    0.6365600000000000    0.6141950000000000 C
   0.7371200000000000    0.6372300000000000    0.6143750000000000 C
   0.3732900000000000    0.3159900000000000    0.5465800000000000 C
   0.8726900000000000    0.3161100000000000    0.5459200000000000 C
   0.4237100000000000    0.3744600000000000    0.5279350000000000 C
   0.9228700000000000    0.3747600000000000    0.5270800000000000 C
   0.3973300000000000    0.8885800000000000    0.8559950000000001 C
   0.8979900000000000    0.8887000000000000    0.8557950000000000 C
   0.4439100000000000    0.8896500000000001    0.8970800000000000 C
   0.9444300000000000    0.8897000000000000    0.8969700000000000 C
   0.4703300000000000    0.9885800000000000    0.9257150000000001 C
   0.9708000000000000    0.9886300000000000    0.9256800000000001 C
   0.4497900000000000    0.0823600000000000    0.9095000000000000 C
   0.9503700000000000    0.0824900000000000    0.9099100000000000 C
   0.4029500000000000    0.0750600000000000    0.8683200000000000 C
   0.9036800000000000    0.0752500000000000    0.8682350000000000 C
   0.0171900000000000    0.9938800000000000    0.9735100000000000 C
   0.5169899999999999    0.9938600000000000    0.9734000000000000 C
   0.0178700000000000    0.6102700000000000    0.6025700000000001 C
   0.5189700000000000    0.6104200000000000    0.6024500000000000 C
   0.0292500000000000    0.6836000000000000    0.6591500000000000 C
   0.5302200000000000    0.6835599999999999    0.6591800000000000 C
   0.0843200000000000    0.6686900000000000    0.6903500000000000 C
   0.5852500000000000    0.6686299999999999    0.6903950000000000 C
   0.0972700000000000    0.7406400000000000    0.7420450000000001 C
   0.5980600000000000    0.7403800000000000    0.7421599999999999 C
   0.0539400000000000    0.8280000000000000    0.7638450000000000 C
   0.5546600000000000    0.8275600000000000    0.7600000000000000 C
   0.4987200000000000    0.8421999999999999    0.7336500000000000 C
   0.9980200000000000    0.8427100000000000    0.7335000000000000 C
   0.4872700000000000    0.7715100000000000    0.6816500000000000 C
   0.9864400000000000    0.7718100000000000    0.6815900000000000 C
   0.1224700000000000    0.9068900000000000    0.8418000000000000 C
   0.6232600000000000    0.9070400000000000    0.8418150000000000 C
   0.1729800000000000    0.9443100000000000    0.8127100000000000 C
   0.6732700000000000    0.9451000000000001    0.8124650000000000 C
   0.6478800000000000    0.2889200000000000    0.5554350000000000 C
   0.6943500000000000    0.2065400000000000    0.5549500000000001 C
   0.7206600000000000    0.1486400000000000    0.5053900000000000 C
   0.2006300000000000    0.1799700000000000    0.9588600000000000 C
   0.7001900000000000    0.1798400000000000    0.9583650000000000 C
   0.1538000000000000    0.2632200000000000    0.9624650000000000 C
   0.6534600000000000    0.2632500000000000    0.9619800000000001 C
   0.7670200000000000    0.0528300000000000    0.5027850000000000 C
   0.2307900000000000    0.2048600000000000    0.8050999999999999 C
   0.7316200000000000    0.2052700000000000    0.8052699999999999 C
   0.2199000000000000    0.3183600000000000    0.8416850000000000 C
   0.7202600000000000    0.3186600000000000    0.8418150000000000 C
   0.1650600000000000    0.3814500000000000    0.8343400000000001 C
   0.6955400000000000    0.5282300000000000    0.9138350000000000 C
   0.2516600000000000    0.4667600000000000    0.9210400000000001 C
   0.7514800000000000    0.4674900000000000    0.9211500000000000 C
   0.2629200000000000    0.3627400000000000    0.8855950000000000 C
   0.7630800000000000    0.3635000000000000    0.8857999999999999 C
   0.1273300000000000    0.6838500000000000    0.9540450000000000 C
   0.6267400000000000    0.6840200000000000    0.9534250000000000 C
   0.0771500000000000    0.6252300000000000    0.9729050000000000 C
   0.5763200000000001    0.6255200000000000    0.9720500000000001 C
   0.1020400000000000    0.1112600000000000    0.6442099999999999 C
   0.6026800000000000    0.1114100000000000    0.6440150000000000 C
   0.0555800000000000    0.1102800000000000    0.6030550000000000 C
   0.5561199999999999    0.1103400000000000    0.6029200000000000 C
   0.0292200000000000    0.0113500000000000    0.5743250000000000 C
   0.5296999999999999    0.0114000000000000    0.5742850000000000 C
   0.0496700000000000    0.9174600000000001    0.5900750000000000 C
   0.5502300000000000    0.9176200000000000    0.5901149999999999 C
   0.0963600000000000    0.9247000000000000    0.6317500000000000 C
   0.5970500000000000    0.9249400000000000    0.6317000000000000 C
   0.4830400000000000    0.0061200000000000    0.5266000000000000 C
   0.9828400000000000    0.0061200000000000    0.5264950000000000 C
   0.8732400000000000    0.6845400000000000    0.4900350000000000 N
   0.3760400000000000    0.9801900000000000    0.3423750000000000 N
   0.8768100000000000    0.9803900000000000    0.3422000000000000 N
   0.1268200000000000    0.3154500000000000    0.0099500000000000 N
   0.6266200000000000    0.3157200000000000    0.0094950000000000 N
   0.1232300000000000    0.0195600000000000    0.1577800000000000 N
   0.6239600000000000    0.0198100000000000    0.1576500000000000 N
   0.3734000000000000    0.6843000000000000    0.9904900000000000 N
   0.8732400000000000    0.6845400000000000    0.9900350000000000 N
   0.3760400000000000    0.9801900000000000    0.8423750000000000 N
   0.8768100000000000    0.9803900000000000    0.8422000000000001 N
   0.6266200000000000    0.3157200000000000    0.5094950000000000 N
   0.1232300000000000    0.0195600000000000    0.6577800000000000 N