Zn16 H98 C168 O70
1.0
  15.2282301230589709    0.0000000000000000    1.2321896441536022
   0.8393796667693515   12.6254618327635608    2.0852173230732545
   0.0000000000000000    0.0000000000000000   25.8580000000000005
Zn H C O
16 98 168 70
direct
   0.0339200000000000    0.7737700000000000    0.3579050000000000 Zn
   0.2848600000000000    0.7159300000000000    0.3866150000000000 Zn
   0.4660800000000000    0.2262100000000000    0.1421100000000000 Zn
   0.2151350000000000    0.2840500000000000    0.1134000000000000 Zn
   0.5339200000000000    0.7737700000000000    0.3579050000000000 Zn
   0.7848600000000000    0.7159300000000000    0.3866150000000000 Zn
   0.9660800000000000    0.2262100000000000    0.1421100000000000 Zn
   0.7151350000000000    0.2840500000000000    0.1134000000000000 Zn
   0.0339200000000000    0.7737700000000000    0.8579049999999999 Zn
   0.2848600000000000    0.7159300000000000    0.8866149999999999 Zn
   0.4660800000000000    0.2262100000000000    0.6421100000000000 Zn
   0.2151350000000000    0.2840500000000000    0.6133999999999999 Zn
   0.5339200000000000    0.7737700000000000    0.8579049999999999 Zn
   0.7848600000000000    0.7159300000000000    0.8866149999999999 Zn
   0.9660800000000000    0.2262100000000000    0.6421100000000000 Zn
   0.7151350000000000    0.2840500000000000    0.6133999999999999 Zn
   0.3477350000000000    0.4641300000000000    0.4757400000000000 H
   0.1071650000000000    0.4482700000000000    0.3981150000000000 H
   0.0331750000000000    0.2024300000000000    0.0253750000000000 H
   0.2452100000000000    0.3694700000000000    0.4295150000000000 H
   0.2051300000000000    0.3042000000000000    0.3809300000000000 H
   0.2484750000000000    0.1196000000000000    0.4982250000000000 H
   0.4024350000000000    0.0506800000000000    0.2671400000000000 H
   0.1424150000000000    0.2046400000000000    0.2754100000000000 H
   0.2183500000000000    0.9512900000000000    0.3981850000000000 H
   0.0048850000000000    0.1406500000000000    0.3155750000000000 H
   0.0448450000000000    0.2398800000000000    0.3471850000000000 H
   0.0030150000000000    0.0029500000000000    0.4391950000000000 H
   0.3928350000000000    0.5517200000000000    0.1019000000000000 H
   0.4668250000000000    0.7975500000000000    0.4746400000000000 H
   0.2547950000000000    0.6305100000000000    0.0705050000000000 H
   0.2948700000000000    0.6957900000000000    0.1190850000000000 H
   0.2515300000000000    0.8803800000000001    0.0017900000000000 H
   0.0975650000000000    0.9493000000000000    0.2328800000000000 H
   0.3575850000000000    0.7953400000000000    0.2246050000000000 H
   0.2816450000000000    0.0486900000000000    0.1018300000000000 H
   0.4951150000000000    0.8593400000000000    0.1844400000000000 H
   0.4551600000000000    0.7601100000000000    0.1528300000000000 H
   0.4969850000000000    0.9970300000000000    0.0608200000000000 H
   0.3760250000000000    0.9865200000000000    0.0057750000000000 H
   0.3751200000000000    0.2860700000000000    0.3575700000000000 H
   0.1239750000000000    0.0134700000000000    0.4942400000000000 H
   0.1248800000000000    0.7139100000000000    0.1424450000000000 H
   0.8477350000000000    0.4641300000000000    0.4757400000000000 H
   0.6071650000000000    0.4482700000000000    0.3981150000000000 H
   0.5331750000000000    0.2024300000000000    0.0253750000000000 H
   0.7452100000000000    0.3694700000000000    0.4295150000000000 H
   0.7051300000000000    0.3042000000000000    0.3809300000000000 H
   0.7484750000000000    0.1196000000000000    0.4982250000000000 H
   0.9024350000000000    0.0506800000000000    0.2671400000000000 H
   0.6424150000000000    0.2046400000000000    0.2754100000000000 H
   0.7183500000000000    0.9512900000000000    0.3981850000000000 H
   0.5048850000000000    0.1406500000000000    0.3155750000000000 H
   0.5448450000000000    0.2398800000000000    0.3471850000000000 H
   0.5030150000000000    0.0029500000000000    0.4391950000000000 H
   0.6522650000000000    0.5358400000000000    0.0242750000000000 H
   0.9668250000000000    0.7975500000000000    0.4746400000000000 H
   0.8760250000000001    0.9865200000000000    0.0057750000000000 H
   0.8751200000000000    0.2860700000000000    0.3575700000000000 H
   0.6239749999999999    0.0134700000000000    0.4942400000000000 H
   0.3477350000000000    0.4641300000000000    0.9757400000000001 H
   0.1071650000000000    0.4482700000000000    0.8981150000000000 H
   0.0331750000000000    0.2024300000000000    0.5253750000000000 H
   0.2452100000000000    0.3694700000000000    0.9295150000000000 H
   0.2051300000000000    0.3042000000000000    0.8809300000000000 H
   0.2484750000000000    0.1196000000000000    0.9982249999999999 H
   0.4024350000000000    0.0506800000000000    0.7671399999999999 H
   0.1424150000000000    0.2046400000000000    0.7754099999999999 H
   0.2183500000000000    0.9512900000000000    0.8981850000000000 H
   0.0048850000000000    0.1406500000000000    0.8155749999999999 H
   0.0448450000000000    0.2398800000000000    0.8471850000000001 H
   0.0030150000000000    0.0029500000000000    0.9391950000000000 H
   0.1522650000000000    0.5358400000000000    0.5242750000000000 H
   0.3928350000000000    0.5517200000000000    0.6019000000000000 H
   0.4668250000000000    0.7975500000000000    0.9746400000000000 H
   0.2547950000000000    0.6305100000000000    0.5705050000000000 H
   0.2948700000000000    0.6957900000000000    0.6190850000000000 H
   0.2515300000000000    0.8803800000000001    0.5017900000000000 H
   0.0975650000000000    0.9493000000000000    0.7328800000000000 H
   0.3575850000000000    0.7953400000000000    0.7246049999999999 H
   0.2816450000000000    0.0486900000000000    0.6018300000000000 H
   0.4951150000000000    0.8593400000000000    0.6844399999999999 H
   0.4551600000000000    0.7601100000000000    0.6528300000000000 H
   0.4969850000000000    0.9970300000000000    0.5608200000000000 H
   0.3760250000000000    0.9865200000000000    0.5057750000000000 H
   0.3751200000000000    0.2860700000000000    0.8575699999999999 H
   0.1239750000000000    0.0134700000000000    0.9942400000000000 H
   0.1248800000000000    0.7139100000000000    0.6424449999999999 H
   0.8477350000000000    0.4641300000000000    0.9757400000000001 H
   0.6071650000000000    0.4482700000000000    0.8981150000000000 H
   0.5331750000000000    0.2024300000000000    0.5253750000000000 H
   0.7452100000000000    0.3694700000000000    0.9295150000000000 H
   0.7051300000000000    0.3042000000000000    0.8809300000000000 H
   0.7484750000000000    0.1196000000000000    0.9982249999999999 H
   0.9024350000000000    0.0506800000000000    0.7671399999999999 H
   0.6424150000000000    0.2046400000000000    0.7754099999999999 H
   0.7183500000000000    0.9512900000000000    0.8981850000000000 H
   0.5048850000000000    0.1406500000000000    0.8155749999999999 H
   0.5448450000000000    0.2398800000000000    0.8471850000000001 H
   0.5030150000000000    0.0029500000000000    0.9391950000000000 H
   0.6522650000000000    0.5358400000000000    0.5242750000000000 H
   0.8928350000000000    0.5517200000000000    0.6019000000000000 H
   0.7547950000000000    0.6305100000000000    0.5705050000000000 H
   0.7948700000000000    0.6957900000000000    0.6190850000000000 H
   0.7515300000000000    0.8803800000000001    0.5017900000000000 H
   0.5975650000000000    0.9493000000000000    0.7328800000000000 H
   0.8575850000000000    0.7953400000000000    0.7246049999999999 H
   0.7816449999999999    0.0486900000000000    0.6018300000000000 H
   0.9951150000000000    0.8593400000000000    0.6844399999999999 H
   0.9551600000000000    0.7601100000000000    0.6528300000000000 H
   0.9969850000000000    0.9970300000000000    0.5608200000000000 H
   0.8760250000000001    0.9865200000000000    0.5057750000000000 H
   0.8751200000000000    0.2860700000000000    0.8575699999999999 H
   0.6248800000000000    0.7139100000000000    0.6424449999999999 H
   0.4333150000000000    0.3287400000000000    0.0054200000000000 C
   0.4119400000000000    0.4224200000000000    0.4713300000000000 C
   0.4747250000000000    0.4640100000000000    0.4328650000000000 C
   0.0589250000000000    0.4123000000000000    0.4275350000000000 C
   0.0784150000000000    0.3164800000000000    0.4602450000000000 C
   0.0157900000000000    0.2755000000000000    0.0000000000000000 C
   0.3695900000000000    0.2874700000000000    0.0491500000000000 C
   0.2263400000000000    0.2925600000000000    0.4214450000000000 C
   0.3030700000000000    0.2107700000000000    0.4271550000000000 C
   0.3040250000000000    0.1266200000000000    0.4691000000000000 C
   0.4513850000000000    0.5671700000000000    0.3988800000000000 C
   0.3176000000000000    0.9912700000000000    0.3349450000000000 C
   0.3383650000000000    0.0593100000000000    0.2880950000000000 C
   0.2750850000000000    0.1357600000000000    0.2673850000000000 C
   0.1910300000000000    0.1461800000000000    0.2933250000000000 C
   0.1721600000000000    0.0809100000000000    0.3411900000000000 C
   0.2352800000000000    0.0000000000000000    0.3616250000000000 C
   0.3817400000000000    0.9041000000000000    0.3554700000000000 C
   0.0240150000000000    0.1579100000000000    0.3534500000000000 C
   0.4477150000000000    0.1460800000000000    0.3944150000000000 C
   0.4473150000000000    0.0613300000000000    0.4360750000000000 C
   0.2978600000000000    0.2033500000000000    0.2158150000000000 C
   0.0666850000000000    0.6712399999999999    0.4945950000000000 C
   0.4410750000000000    0.5876900000000000    0.0724800000000000 C
   0.4215850000000000    0.6835000000000000    0.0397700000000000 C
   0.4842100000000000    0.7244800000000000    0.0005500000000000 C
   0.1304050000000000    0.7125100000000000    0.4508650000000000 C
   0.2736600000000000    0.7074300000000000    0.0785700000000000 C
   0.1969300000000000    0.7892100000000000    0.0728600000000000 C
   0.1959750000000000    0.8733700000000000    0.0309200000000000 C
   0.1824000000000000    0.0087100000000000    0.1650700000000000 C
   0.1616350000000000    0.9406800000000000    0.2119250000000000 C
   0.2249150000000000    0.8642200000000000    0.2326300000000000 C
   0.3089650000000000    0.8538000000000000    0.2066900000000000 C
   0.3278350000000000    0.9190700000000001    0.1588250000000000 C
   0.2647200000000000    0.9970599999999999    0.1383900000000000 C
   0.1182600000000000    0.0958800000000000    0.1445500000000000 C
   0.4759850000000000    0.8420700000000000    0.1465650000000000 C
   0.0522850000000000    0.8539099999999999    0.1056000000000000 C
   0.0526850000000000    0.9386600000000000    0.0639400000000000 C
   0.2021400000000000    0.7966299999999999    0.2842000000000000 C
   0.3758100000000000    0.0523000000000000    0.4732150000000000 C
   0.3753100000000000    0.2201300000000000    0.3902050000000000 C
   0.1241900000000000    0.9476800000000000    0.0268000000000000 C
   0.1246900000000000    0.7798600000000000    0.1098100000000000 C
   0.9333150000000000    0.3287400000000000    0.0054200000000000 C
   0.9119400000000000    0.4224200000000000    0.4713300000000000 C
   0.9747250000000001    0.4640100000000000    0.4328650000000000 C
   0.5589250000000000    0.4123000000000000    0.4275350000000000 C
   0.5784150000000000    0.3164800000000000    0.4602450000000000 C
   0.5157900000000000    0.2755000000000000    0.0000000000000000 C
   0.8695900000000000    0.2874700000000000    0.0491500000000000 C
   0.7263400000000000    0.2925600000000000    0.4214450000000000 C
   0.8030700000000000    0.2107700000000000    0.4271550000000000 C
   0.8040250000000000    0.1266200000000000    0.4691000000000000 C
   0.9513849999999999    0.5671700000000000    0.3988800000000000 C
   0.8176000000000000    0.9912700000000000    0.3349450000000000 C
   0.8383650000000000    0.0593100000000000    0.2880950000000000 C
   0.7750850000000000    0.1357600000000000    0.2673850000000000 C
   0.6910300000000000    0.1461800000000000    0.2933250000000000 C
   0.6721600000000000    0.0809100000000000    0.3411900000000000 C
   0.7352799999999999    0.0000000000000000    0.3616250000000000 C
   0.8817400000000000    0.9041000000000000    0.3554700000000000 C
   0.5240150000000000    0.1579100000000000    0.3534500000000000 C
   0.9477150000000000    0.1460800000000000    0.3944150000000000 C
   0.9473150000000000    0.0613300000000000    0.4360750000000000 C
   0.7978600000000000    0.2033500000000000    0.2158150000000000 C
   0.5666850000000000    0.6712399999999999    0.4945950000000000 C
   0.5880600000000000    0.5775600000000000    0.0286900000000000 C
   0.5252750000000000    0.5359699999999999    0.0671500000000000 C
   0.6304050000000000    0.7125100000000000    0.4508650000000000 C
   0.5486150000000000    0.4328100000000000    0.1011300000000000 C
   0.8758100000000000    0.0523000000000000    0.4732150000000000 C
   0.8753100000000000    0.2201300000000000    0.3902050000000000 C
   0.4333150000000000    0.3287400000000000    0.5054200000000000 C
   0.4119400000000000    0.4224200000000000    0.9713300000000000 C
   0.4747250000000000    0.4640100000000000    0.9328650000000001 C
   0.0589250000000000    0.4123000000000000    0.9275350000000000 C
   0.0784150000000000    0.3164800000000000    0.9602450000000000 C
   0.0157900000000000    0.2755000000000000    0.5000000000000000 C
   0.3695900000000000    0.2874700000000000    0.5491500000000000 C
   0.2263400000000000    0.2925600000000000    0.9214450000000001 C
   0.3030700000000000    0.2107700000000000    0.9271550000000000 C
   0.3040250000000000    0.1266200000000000    0.9691000000000001 C
   0.4513850000000000    0.5671700000000000    0.8988800000000000 C
   0.3176000000000000    0.9912700000000000    0.8349450000000000 C
   0.3383650000000000    0.0593100000000000    0.7880950000000000 C
   0.2750850000000000    0.1357600000000000    0.7673850000000000 C
   0.1910300000000000    0.1461800000000000    0.7933250000000001 C
   0.1721600000000000    0.0809100000000000    0.8411900000000000 C
   0.2352800000000000    0.0000000000000000    0.8616250000000000 C
   0.3817400000000000    0.9041000000000000    0.8554700000000000 C
   0.0240150000000000    0.1579100000000000    0.8534500000000000 C
   0.4477150000000000    0.1460800000000000    0.8944150000000000 C
   0.4473150000000000    0.0613300000000000    0.9360750000000000 C
   0.2978600000000000    0.2033500000000000    0.7158150000000000 C
   0.0880600000000000    0.5775600000000000    0.5286900000000000 C
   0.0252750000000000    0.5359699999999999    0.5671500000000000 C
   0.4410750000000000    0.5876900000000000    0.5724800000000000 C
   0.4215850000000000    0.6835000000000000    0.5397700000000000 C
   0.4842100000000000    0.7244800000000000    0.5005500000000001 C
   0.2736600000000000    0.7074300000000000    0.5785700000000000 C
   0.1969300000000000    0.7892100000000000    0.5728600000000000 C
   0.1959750000000000    0.8733700000000000    0.5309199999999999 C
   0.0486150000000000    0.4328100000000000    0.6011299999999999 C
   0.1824000000000000    0.0087100000000000    0.6650700000000001 C
   0.1616350000000000    0.9406800000000000    0.7119250000000000 C
   0.2249150000000000    0.8642200000000000    0.7326300000000000 C
   0.3089650000000000    0.8538000000000000    0.7066900000000000 C
   0.3278350000000000    0.9190700000000001    0.6588250000000000 C
   0.2647200000000000    0.9970599999999999    0.6383900000000000 C
   0.1182600000000000    0.0958800000000000    0.6445500000000000 C
   0.4759850000000000    0.8420700000000000    0.6465650000000001 C
   0.0522850000000000    0.8539099999999999    0.6056000000000000 C
   0.0526850000000000    0.9386600000000000    0.5639400000000000 C
   0.2021400000000000    0.7966299999999999    0.7842000000000000 C
   0.3758100000000000    0.0523000000000000    0.9732149999999999 C
   0.3753100000000000    0.2201300000000000    0.8902050000000000 C
   0.1241900000000000    0.9476800000000000    0.5268000000000000 C
   0.1246900000000000    0.7798600000000000    0.6098100000000000 C
   0.9333150000000000    0.3287400000000000    0.5054200000000000 C
   0.9119400000000000    0.4224200000000000    0.9713300000000000 C
   0.9747250000000001    0.4640100000000000    0.9328650000000001 C
   0.5589250000000000    0.4123000000000000    0.9275350000000000 C
   0.5784150000000000    0.3164800000000000    0.9602450000000000 C
   0.5157900000000000    0.2755000000000000    0.5000000000000000 C
   0.8695900000000000    0.2874700000000000    0.5491500000000000 C
   0.7263400000000000    0.2925600000000000    0.9214450000000001 C
   0.8030700000000000    0.2107700000000000    0.9271550000000000 C
   0.8040250000000000    0.1266200000000000    0.9691000000000001 C
   0.9513849999999999    0.5671700000000000    0.8988800000000000 C
   0.8176000000000000    0.9912700000000000    0.8349450000000000 C
   0.8383650000000000    0.0593100000000000    0.7880950000000000 C
   0.7750850000000000    0.1357600000000000    0.7673850000000000 C
   0.6910300000000000    0.1461800000000000    0.7933250000000001 C
   0.6721600000000000    0.0809100000000000    0.8411900000000000 C
   0.7352799999999999    0.0000000000000000    0.8616250000000000 C
   0.8817400000000000    0.9041000000000000    0.8554700000000000 C
   0.5240150000000000    0.1579100000000000    0.8534500000000000 C
   0.9477150000000000    0.1460800000000000    0.8944150000000000 C
   0.9473150000000000    0.0613300000000000    0.9360750000000000 C
   0.7978600000000000    0.2033500000000000    0.7158150000000000 C
   0.5666850000000000    0.6712399999999999    0.9945950000000000 C
   0.5880600000000000    0.5775600000000000    0.5286900000000000 C
   0.5252750000000000    0.5359699999999999    0.5671500000000000 C
   0.9410750000000000    0.5876900000000000    0.5724800000000000 C
   0.9215850000000000    0.6835000000000000    0.5397700000000000 C
   0.9842100000000000    0.7244800000000000    0.5005500000000001 C
   0.6304050000000000    0.7125100000000000    0.9508650000000001 C
   0.7736600000000000    0.7074300000000000    0.5785700000000000 C
   0.6969300000000000    0.7892100000000000    0.5728600000000000 C
   0.6959750000000000    0.8733700000000000    0.5309199999999999 C
   0.5486150000000000    0.4328100000000000    0.6011299999999999 C
   0.6824000000000000    0.0087100000000000    0.6650700000000001 C
   0.6616350000000000    0.9406800000000000    0.7119250000000000 C
   0.7249150000000000    0.8642200000000000    0.7326300000000000 C
   0.8089649999999999    0.8538000000000000    0.7066900000000000 C
   0.8278350000000000    0.9190700000000001    0.6588250000000000 C
   0.7647200000000001    0.9970599999999999    0.6383900000000000 C
   0.6182600000000000    0.0958800000000000    0.6445500000000000 C
   0.9759850000000000    0.8420700000000000    0.6465650000000001 C
   0.5522850000000000    0.8539099999999999    0.6056000000000000 C
   0.5526850000000000    0.9386600000000000    0.5639400000000000 C
   0.7021400000000000    0.7966299999999999    0.7842000000000000 C
   0.8758100000000000    0.0523000000000000    0.9732149999999999 C
   0.8753100000000000    0.2201300000000000    0.8902050000000000 C
   0.6241900000000000    0.9476800000000000    0.5268000000000000 C
   0.6246900000000000    0.7798600000000000    0.6098100000000000 C
   0.2920550000000000    0.3332300000000000    0.0509400000000000 O
   0.3926650000000000    0.2089400000000000    0.0837850000000000 O
   0.3700000000000000    0.5907100000000000    0.3936050000000000 O
   0.0150850000000000    0.6221900000000000    0.3777800000000000 O
   0.1556300000000000    0.2559200000000000    0.4579700000000000 O
   0.4594900000000000    0.9014200000000000    0.3329300000000000 O
   0.3589600000000000    0.8336800000000000    0.3943250000000000 O
   0.3791400000000000    0.2143500000000000    0.2037400000000000 O
   0.2337350000000000    0.2445600000000000    0.1886850000000000 O
   0.0951650000000000    0.0851900000000000    0.3715150000000000 O
   0.2079450000000000    0.6667500000000000    0.4490750000000000 O
   0.1073300000000000    0.7910400000000000    0.4162300000000000 O
   0.4849150000000000    0.3777900000000000    0.1222350000000000 O
   0.3443700000000000    0.7440700000000000    0.0420450000000000 O
   0.0405100000000000    0.0985600000000000    0.1670850000000000 O
   0.1410400000000000    0.1663000000000000    0.1056900000000000 O
   0.1208600000000000    0.7856300000000001    0.2962750000000000 O
   0.2662650000000000    0.7554200000000000    0.3113300000000000 O
   0.4048300000000000    0.9147900000000000    0.1285000000000000 O
   0.7920550000000000    0.3332300000000000    0.0509400000000000 O
   0.8926650000000000    0.2089400000000000    0.0837850000000000 O
   0.8700000000000000    0.5907100000000000    0.3936050000000000 O
   0.5150850000000000    0.6221900000000000    0.3777800000000000 O
   0.6556299999999999    0.2559200000000000    0.4579700000000000 O
   0.9594900000000000    0.9014200000000000    0.3329300000000000 O
   0.8589599999999999    0.8336800000000000    0.3943250000000000 O
   0.8791400000000000    0.2143500000000000    0.2037400000000000 O
   0.7337350000000000    0.2445600000000000    0.1886850000000000 O
   0.5951649999999999    0.0851900000000000    0.3715150000000000 O
   0.7079450000000000    0.6667500000000000    0.4490750000000000 O
   0.6073300000000000    0.7910400000000000    0.4162300000000000 O
   0.6299950000000000    0.4092600000000000    0.1064050000000000 O
   0.2920550000000000    0.3332300000000000    0.5509400000000000 O
   0.3926650000000000    0.2089400000000000    0.5837850000000000 O
   0.3700000000000000    0.5907100000000000    0.8936050000000000 O
   0.0150850000000000    0.6221900000000000    0.8777800000000000 O
   0.1556300000000000    0.2559200000000000    0.9579700000000000 O
   0.4594900000000000    0.9014200000000000    0.8329299999999999 O
   0.3589600000000000    0.8336800000000000    0.8943250000000000 O
   0.3791400000000000    0.2143500000000000    0.7037400000000000 O
   0.2337350000000000    0.2445600000000000    0.6886850000000000 O
   0.0951650000000000    0.0851900000000000    0.8715150000000000 O
   0.1299950000000000    0.4092600000000000    0.6064050000000000 O
   0.4849150000000000    0.3777900000000000    0.6222350000000000 O
   0.3443700000000000    0.7440700000000000    0.5420450000000000 O
   0.0405100000000000    0.0985600000000000    0.6670850000000000 O
   0.1410400000000000    0.1663000000000000    0.6056900000000001 O
   0.1208600000000000    0.7856300000000001    0.7962750000000001 O
   0.2662650000000000    0.7554200000000000    0.8113300000000000 O
   0.4048300000000000    0.9147900000000000    0.6285000000000001 O
   0.7920550000000000    0.3332300000000000    0.5509400000000000 O
   0.8926650000000000    0.2089400000000000    0.5837850000000000 O
   0.8700000000000000    0.5907100000000000    0.8936050000000000 O
   0.5150850000000000    0.6221900000000000    0.8777800000000000 O
   0.6556299999999999    0.2559200000000000    0.9579700000000000 O
   0.9594900000000000    0.9014200000000000    0.8329299999999999 O
   0.8589599999999999    0.8336800000000000    0.8943250000000000 O
   0.8791400000000000    0.2143500000000000    0.7037400000000000 O
   0.7337350000000000    0.2445600000000000    0.6886850000000000 O
   0.5951649999999999    0.0851900000000000    0.8715150000000000 O
   0.7079450000000000    0.6667500000000000    0.9490750000000000 O
   0.6073300000000000    0.7910400000000000    0.9162300000000000 O
   0.6299950000000000    0.4092600000000000    0.6064050000000000 O
   0.9849150000000000    0.3777900000000000    0.6222350000000000 O
   0.8443700000000001    0.7440700000000000    0.5420450000000000 O
   0.5405100000000000    0.0985600000000000    0.6670850000000000 O
   0.6410400000000001    0.1663000000000000    0.6056900000000001 O
   0.6208600000000000    0.7856300000000001    0.7962750000000001 O
   0.7662650000000000    0.7554200000000000    0.8113300000000000 O
   0.9048300000000000    0.9147900000000000    0.6285000000000001 O
