H4 O2
1.0
  14.0477848962767151    0.0000000000000000   -0.4804950654687301
  -0.7005738146549603   17.6117006678425803   -3.2069332572620004
   0.0000000000000000    0.0000000000000000   35.8340000000000032
H O
4 2
direct
   0.0329419757635031    0.2862680794830194    0.7491283450603438 H
   0.0286747670819023    0.2822800423073348    0.7018193307490622 H
   0.6041982410733636    0.3287139366992841    0.7481161888497312 H
   0.5938736071054898    0.2637885826581846    0.7078023863343238 H
   0.0662900000000000    0.2833900000000000    0.7254150000000000 O
   0.5636100000000001    0.2966400000000000    0.7284650000000000 O
