Zn12 H180 C258 N12 O44
1.0
  14.0477848962767151    0.0000000000000000   -0.4804950654687301
  -0.7005738146549603   17.6117006678425803   -3.2069332572620004
   0.0000000000000000    0.0000000000000000   35.8340000000000032
Zn H C N O
12 180 258 12 44
direct
   0.8993300000000000    0.0814100000000000    0.4548400000000000 Zn
   0.4167700000000000    0.2938700000000000    0.2298750000000000 Zn
   0.2132600000000000    0.2836500000000000    0.2251800000000000 Zn
   0.5832000000000001    0.5402900000000000    0.3530950000000000 Zn
   0.7867200000000000    0.5496300000000000    0.3583500000000000 Zn
   0.1006600000000000    0.0902900000000000    0.4593250000000000 Zn
   0.8993300000000000    0.0814100000000000    0.9548400000000000 Zn
   0.4167700000000000    0.2938700000000000    0.7298750000000001 Zn
   0.2132600000000000    0.2836500000000000    0.7251799999999999 Zn
   0.5832000000000001    0.5402900000000000    0.8530949999999999 Zn
   0.7867200000000000    0.5496300000000000    0.8583499999999999 Zn
   0.1006600000000000    0.0902900000000000    0.9593250000000000 Zn
   0.8495400000000000    0.3192900000000000    0.4442050000000000 H
   0.1483100000000000    0.3320500000000000    0.4746150000000000 H
   0.2403100000000000    0.4463300000000000    0.4813700000000000 H
   0.2059000000000000    0.5037700000000001    0.4478450000000000 H
   0.1782900000000000    0.5314800000000000    0.4959050000000000 H
   0.8564800000000000    0.4570600000000000    0.4398950000000000 H
   0.8526700000000000    0.6931700000000000    0.4414350000000000 H
   0.2427200000000000    0.7511700000000000    0.4664800000000000 H
   0.1852900000000000    0.7010300000000000    0.4984650000000000 H
   0.1922000000000000    0.6572100000000000    0.4507300000000000 H
   0.1468800000000000    0.8590700000000000    0.4630500000000000 H
   0.8446000000000000    0.8324500000000000    0.4417000000000000 H
   0.2504200000000000    0.1097700000000000    0.4040850000000000 H
   0.2584100000000000    0.0666200000000000    0.0136200000000000 H
   0.4367200000000000    0.0607400000000000    0.0150800000000000 H
   0.4284900000000000    0.1110100000000000    0.4015100000000000 H
   0.1504700000000000    0.1115000000000000    0.3404050000000000 H
   0.8516899999999999    0.0508800000000000    0.3338800000000000 H
   0.7597500000000000    0.0374000000000000    0.2767000000000000 H
   0.7941500000000000    0.1043500000000000    0.2479700000000000 H
   0.8217800000000000    0.0000000000000000    0.2341900000000000 H
   0.1435800000000000    0.1200500000000000    0.2715200000000000 H
   0.1474400000000000    0.1172200000000000    0.1534500000000000 H
   0.7574600000000000    0.0669200000000000    0.1243150000000000 H
   0.8149999999999999    0.0029800000000000    0.1494200000000000 H
   0.8079499999999999    0.0984700000000000    0.1713000000000000 H
   0.8532600000000000    0.0737700000000000    0.0704100000000000 H
   0.1554800000000000    0.1166200000000000    0.0838500000000000 H
   0.7492799999999999    0.1917800000000000    0.4449250000000000 H
   0.7418300000000000    0.9729300000000000    0.4668400000000000 H
   0.5635500000000000    0.9700000000000000    0.4698150000000000 H
   0.5712100000000000    0.1968900000000000    0.4443300000000000 H
   0.5326300000000000    0.3148800000000000    0.4351300000000000 H
   0.5273099999999999    0.3992500000000000    0.4158650000000000 H
   0.4667800000000000    0.3905900000000000    0.4580300000000000 H
   0.1787800000000000    0.2429800000000000    0.4122300000000000 H
   0.1728300000000000    0.2480400000000000    0.3430300000000000 H
   0.4533400000000000    0.3552000000000000    0.3550500000000000 H
   0.4748000000000000    0.0580200000000000    0.2342500000000000 H
   0.1727200000000000    0.0387100000000000    0.2105700000000000 H
   0.1733800000000000    0.9015300000000001    0.2145350000000000 H
   0.5632900000000000    0.9527900000000000    0.2456100000000000 H
   0.4996100000000000    0.8830200000000000    0.2657000000000000 H
   0.5208400000000000    0.8656199999999999    0.2169100000000000 H
   0.1750400000000000    0.6571700000000000    0.2099500000000000 H
   0.5261300000000000    0.7092800000000000    0.2425250000000000 H
   0.4656600000000000    0.7486600000000000    0.2832700000000000 H
   0.5309300000000000    0.6646900000000000    0.2830500000000000 H
   0.4553700000000000    0.5440900000000000    0.2627500000000000 H
   0.1724300000000000    0.5181000000000000    0.2114350000000000 H
   0.5570300000000000    0.2168900000000000    0.1787800000000000 H
   0.5834900000000000    0.3779300000000000    0.2775900000000000 H
   0.7601300000000000    0.3776400000000000    0.2779050000000000 H
   0.7339500000000000    0.2102500000000000    0.1744500000000000 H
   0.8878400000000000    0.2927300000000000    0.2865300000000000 H
   0.8772700000000000    0.2836500000000000    0.1649950000000000 H
   0.0547900000000000    0.2783400000000000    0.1672550000000000 H
   0.0654600000000000    0.2873100000000000    0.2834350000000000 H
   0.5323800000000000    0.7733300000000000    0.3540700000000000 H
   0.8363699999999999    0.7972300000000000    0.3695200000000000 H
   0.8286400000000000    0.9367500000000000    0.3700550000000000 H
   0.4952500000000000    0.9553199999999999    0.3292750000000000 H
   0.4377600000000000    0.8780100000000000    0.3457950000000000 H
   0.4784400000000000    0.9610000000000000    0.3781750000000000 H
   0.4671900000000000    0.1301800000000000    0.3426350000000000 H
   0.4723900000000000    0.1685100000000000    0.3003950000000000 H
   0.5328000000000001    0.0840900000000000    0.3047850000000000 H
   0.8212300000000000    0.1753400000000000    0.3784150000000000 H
   0.8272200000000000    0.3137700000000000    0.3759000000000000 H
   0.5465200000000000    0.2901100000000000    0.3223950000000000 H
   0.5252100000000000    0.5315400000000000    0.4710000000000000 H
   0.8273100000000000    0.5786200000000000    0.4808000000000000 H
   0.8266300000000000    0.5707700000000000    0.0493850000000000 H
   0.4367200000000000    0.5089700000000000    0.0236150000000000 H
   0.5003600000000000    0.4687700000000000    0.0585600000000000 H
   0.4791700000000000    0.5664300000000000    0.0671850000000000 H
   0.8247400000000000    0.5805000000000000    0.1716100000000000 H
   0.4737200000000000    0.5151800000000000    0.1453850000000000 H
   0.5343400000000000    0.4337100000000000    0.1257250000000000 H
   0.4691200000000000    0.4341400000000000    0.1676850000000000 H
   0.5446100000000000    0.4747000000000000    0.2279900000000000 H
   0.8273600000000000    0.5775000000000000    0.2411000000000000 H
   0.4428800000000000    0.6425200000000000    0.3915750000000000 H
   0.4165500000000000    0.4448300000000000    0.3111000000000000 H
   0.2399000000000000    0.4441700000000000    0.3112000000000000 H
   0.2659700000000000    0.6511100000000000    0.3948900000000000 H
   0.1123600000000000    0.4269000000000000    0.3536350000000000 H
   0.1224800000000000    0.6700000000000000    0.3582500000000000 H
   0.9449900000000000    0.6654500000000000    0.3609600000000000 H
   0.9347600000000000    0.4330600000000000    0.3564100000000000 H
   0.8495400000000000    0.3192900000000000    0.9442050000000000 H
   0.1483100000000000    0.3320500000000000    0.9746150000000000 H
   0.2403100000000000    0.4463300000000000    0.9813700000000001 H
   0.2059000000000000    0.5037700000000001    0.9478450000000000 H
   0.1782900000000000    0.5314800000000000    0.9959050000000000 H
   0.8564800000000000    0.4570600000000000    0.9398949999999999 H
   0.8526700000000000    0.6931700000000000    0.9414350000000000 H
   0.2427200000000000    0.7511700000000000    0.9664800000000000 H
   0.1852900000000000    0.7010300000000000    0.9984649999999999 H
   0.1922000000000000    0.6572100000000000    0.9507300000000001 H
   0.1468800000000000    0.8590700000000000    0.9630500000000000 H
   0.8446000000000000    0.8324500000000000    0.9417000000000000 H
   0.2504200000000000    0.1097700000000000    0.9040850000000000 H
   0.2584100000000000    0.0666200000000000    0.5136200000000000 H
   0.4367200000000000    0.0607400000000000    0.5150800000000000 H
   0.4284900000000000    0.1110100000000000    0.9015100000000000 H
   0.1504700000000000    0.1115000000000000    0.8404050000000001 H
   0.8516899999999999    0.0508800000000000    0.8338800000000000 H
   0.7597500000000000    0.0374000000000000    0.7766999999999999 H
   0.7941500000000000    0.1043500000000000    0.7479700000000000 H
   0.8217800000000000    0.0000000000000000    0.7341900000000000 H
   0.1435800000000000    0.1200500000000000    0.7715200000000000 H
   0.1474400000000000    0.1172200000000000    0.6534500000000000 H
   0.7574600000000000    0.0669200000000000    0.6243150000000000 H
   0.8149999999999999    0.0029800000000000    0.6494200000000000 H
   0.8079499999999999    0.0984700000000000    0.6713000000000000 H
   0.8532600000000000    0.0737700000000000    0.5704100000000000 H
   0.1554800000000000    0.1166200000000000    0.5838500000000000 H
   0.7492799999999999    0.1917800000000000    0.9449250000000000 H
   0.7418300000000000    0.9729300000000000    0.9668399999999999 H
   0.5635500000000000    0.9700000000000000    0.9698150000000000 H
   0.5712100000000000    0.1968900000000000    0.9443300000000000 H
   0.4675000000000000    0.2920700000000000    0.6133850000000000 H
   0.1635100000000000    0.2612800000000000    0.6013550000000000 H
   0.1711600000000000    0.2601700000000000    0.5316000000000000 H
   0.5045500000000001    0.3414800000000000    0.5223700000000000 H
   0.5620700000000000    0.3084300000000000    0.5610600000000000 H
   0.5213200000000000    0.2436600000000000    0.5195800000000000 H
   0.4748000000000000    0.0580200000000000    0.7342500000000001 H
   0.1727200000000000    0.0387100000000000    0.7105700000000000 H
   0.1733800000000000    0.9015300000000001    0.7145350000000000 H
   0.5632900000000000    0.9527900000000000    0.7456100000000000 H
   0.4996100000000000    0.8830200000000000    0.7657000000000000 H
   0.5208400000000000    0.8656199999999999    0.7169099999999999 H
   0.1750400000000000    0.6571700000000000    0.7099500000000000 H
   0.5261300000000000    0.7092800000000000    0.7425250000000000 H
   0.4656600000000000    0.7486600000000000    0.7832700000000000 H
   0.5309300000000000    0.6646900000000000    0.7830500000000000 H
   0.4553700000000000    0.5440900000000000    0.7627500000000000 H
   0.1724300000000000    0.5181000000000000    0.7114350000000000 H
   0.5570300000000000    0.2168900000000000    0.6787799999999999 H
   0.5834900000000000    0.3779300000000000    0.7775900000000000 H
   0.7601300000000000    0.3776400000000000    0.7779050000000001 H
   0.7339500000000000    0.2102500000000000    0.6744500000000000 H
   0.8878400000000000    0.2927300000000000    0.7865300000000000 H
   0.8772700000000000    0.2836500000000000    0.6649950000000000 H
   0.0547900000000000    0.2783400000000000    0.6672549999999999 H
   0.0654600000000000    0.2873100000000000    0.7834350000000000 H
   0.5323800000000000    0.7733300000000000    0.8540700000000000 H
   0.8363699999999999    0.7972300000000000    0.8695200000000001 H
   0.8286400000000000    0.9367500000000000    0.8700550000000000 H
   0.4952500000000000    0.9553199999999999    0.8292750000000000 H
   0.4377600000000000    0.8780100000000000    0.8457950000000001 H
   0.4784400000000000    0.9610000000000000    0.8781749999999999 H
   0.4671900000000000    0.1301800000000000    0.8426350000000000 H
   0.4723900000000000    0.1685100000000000    0.8003950000000000 H
   0.5328000000000001    0.0840900000000000    0.8047850000000000 H
   0.8212300000000000    0.1753400000000000    0.8784149999999999 H
   0.8272200000000000    0.3137700000000000    0.8759000000000000 H
   0.5465200000000000    0.2901100000000000    0.8223950000000000 H
   0.5252100000000000    0.5315400000000000    0.9710000000000000 H
   0.8273100000000000    0.5786200000000000    0.9808000000000000 H
   0.8266300000000000    0.5707700000000000    0.5493850000000000 H
   0.4367200000000000    0.5089700000000000    0.5236150000000001 H
   0.5003600000000000    0.4687700000000000    0.5585599999999999 H
   0.4791700000000000    0.5664300000000000    0.5671850000000001 H
   0.8247400000000000    0.5805000000000000    0.6716100000000000 H
   0.4737200000000000    0.5151800000000000    0.6453850000000000 H
   0.5343400000000000    0.4337100000000000    0.6257250000000000 H
   0.4691200000000000    0.4341400000000000    0.6676850000000000 H
   0.5446100000000000    0.4747000000000000    0.7279900000000000 H
   0.8273600000000000    0.5775000000000000    0.7411000000000000 H
   0.4428800000000000    0.6425200000000000    0.8915750000000000 H
   0.4165500000000000    0.4448300000000000    0.8110999999999999 H
   0.2399000000000000    0.4441700000000000    0.8111999999999999 H
   0.2659700000000000    0.6511100000000000    0.8948900000000000 H
   0.1123600000000000    0.4269000000000000    0.8536349999999999 H
   0.1224800000000000    0.6700000000000000    0.8582500000000000 H
   0.9449900000000000    0.6654500000000000    0.8609599999999999 H
   0.9347600000000000    0.4330600000000000    0.8564100000000000 H
   0.5901000000000000    0.8872000000000000    0.3566500000000000 C
   0.4953900000000000    0.9217700000000000    0.3521300000000000 C
   0.6757800000000000    0.9329300000000000    0.3606300000000000 C
   0.6738499999999999    0.0108400000000000    0.3583950000000000 C
   0.9966300000000000    0.2339700000000000    0.4609400000000000 C
   0.9987100000000000    0.3172200000000000    0.4597300000000000 C
   0.9162100000000000    0.3526500000000000    0.4500500000000000 C
   0.0846700000000000    0.3601900000000000    0.4672550000000000 C
   0.0906800000000000    0.4372700000000000    0.4654700000000000 C
   0.1838900000000000    0.4818200000000000    0.4731800000000000 C
   0.9198900000000000    0.4292500000000000    0.4478650000000000 C
   0.0064300000000000    0.4726800000000000    0.4558700000000000 C
   0.0081300000000000    0.5512400000000000    0.4547900000000000 C
   0.0073900000000000    0.6193900000000000    0.4546100000000000 C
   0.0044700000000000    0.6980100000000000    0.4539750000000000 C
   0.9166000000000000    0.7301600000000000    0.4469000000000000 C
   0.0891800000000000    0.7449700000000000    0.4602700000000000 C
   0.1825000000000000    0.7121700000000000    0.4692000000000000 C
   0.0829600000000000    0.8218900000000000    0.4587000000000000 C
   0.9122900000000000    0.8073900000000001    0.4466950000000000 C
   0.9955500000000000    0.8540400000000000    0.4523500000000000 C
   0.9914400000000000    0.9376200000000000    0.4522200000000000 C
   0.2950900000000000    0.1000000000000000    0.4280250000000000 C
   0.2995500000000000    0.0745100000000000    0.4892950000000000 C
   0.3982700000000000    0.0714900000000000    0.4897900000000000 C
   0.3937500000000000    0.1001200000000000    0.4268200000000000 C
   0.4473900000000000    0.0849700000000000    0.4580850000000000 C
   0.0033400000000000    0.0781900000000000    0.3830000000000000 C
   0.0012800000000000    0.0805800000000000    0.3413750000000000 C
   0.0838000000000000    0.0998500000000000    0.3237000000000000 C
   0.9153400000000000    0.0655600000000000    0.3198450000000000 C
   0.9093800000000000    0.0690900000000000    0.2813000000000000 C
   0.8161700000000000    0.0536900000000000    0.2589850000000000 C
   0.0801600000000000    0.1041700000000000    0.2853900000000000 C
   0.9936300000000000    0.0882200000000000    0.2636400000000000 C
   0.9919600000000000    0.0903800000000000    0.2243650000000000 C
   0.9927600000000000    0.0907700000000000    0.1902950000000000 C
   0.9956800000000000    0.0920400000000000    0.1509950000000000 C
   0.0835200000000000    0.1062100000000000    0.1349600000000000 C
   0.9109800000000000    0.0794000000000000    0.1274850000000000 C
   0.8176900000000000    0.0615100000000000    0.1438450000000000 C
   0.9171800000000000    0.0824200000000000    0.0890250000000000 C
   0.0878000000000000    0.1066300000000000    0.0963450000000000 C
   0.0045500000000000    0.0952500000000000    0.0729850000000000 C
   0.0086200000000000    0.0955100000000000    0.0312000000000000 C
   0.7047400000000000    0.1439500000000000    0.4498950000000000 C
   0.7005900000000000    0.0215400000000000    0.4628250000000000 C
   0.6018800000000000    0.0205500000000000    0.4643550000000000 C
   0.6060700000000000    0.1463400000000000    0.4498500000000000 C
   0.5526000000000000    0.0838800000000000    0.4575250000000000 C
   0.3259500000000000    0.2832700000000000    0.4945950000000000 C
   0.3242100000000000    0.2893200000000000    0.4611550000000000 C
   0.3205100000000000    0.2952000000000000    0.4223300000000000 C
   0.3987400000000000    0.3284700000000000    0.4062350000000000 C
   0.4857200000000000    0.3603900000000000    0.4299950000000000 C
   0.2385900000000000    0.2674900000000000    0.3993450000000000 C
   0.2352800000000000    0.2703300000000000    0.3608600000000000 C
   0.3935400000000000    0.3298500000000000    0.3674650000000000 C
   0.3138500000000000    0.2999900000000000    0.3443750000000000 C
   0.3138200000000000    0.2982200000000000    0.3024300000000000 C
   0.3231200000000000    0.1407100000000000    0.2224650000000000 C
   0.3239800000000000    0.0570800000000000    0.2226450000000000 C
   0.4092500000000000    0.0228000000000000    0.2300750000000000 C
   0.2389400000000000    0.0126000000000000    0.2166650000000000 C
   0.2394300000000000    0.9361100000000000    0.2188850000000000 C
   0.4117900000000000    0.9461000000000001    0.2326400000000000 C
   0.5038100000000000    0.9104800000000000    0.2407050000000000 C
   0.3247700000000000    0.9018000000000000    0.2272650000000000 C
   0.3227200000000000    0.8240300000000000    0.2302650000000000 C
   0.3194300000000000    0.7568000000000000    0.2327950000000000 C
   0.3174200000000000    0.6787000000000000    0.2351500000000000 C
   0.2362000000000000    0.6317199999999999    0.2215200000000000 C
   0.3974500000000000    0.6466000000000000    0.2507500000000000 C
   0.4846400000000000    0.6946300000000000    0.2659150000000000 C
   0.3941100000000000    0.5687700000000000    0.2509100000000000 C
   0.2345900000000000    0.5544500000000000    0.2222400000000000 C
   0.3146400000000000    0.5219400000000000    0.2363300000000000 C
   0.3164100000000000    0.4379100000000000    0.2348750000000000 C
   0.6053600000000000    0.2513200000000000    0.1999600000000000 C
   0.6194800000000000    0.3407900000000000    0.2555150000000000 C
   0.7183500000000000    0.3401000000000000    0.2555900000000000 C
   0.7035700000000000    0.2483500000000000    0.1977500000000000 C
   0.7624300000000001    0.2927500000000000    0.2263500000000000 C
   0.8673100000000000    0.2893900000000000    0.2258550000000000 C
   0.9219100000000000    0.2907700000000000    0.2595200000000000 C
   0.9157300000000000    0.2843500000000000    0.1919750000000000 C
   0.0144400000000000    0.2818600000000000    0.1928900000000000 C
   0.0202900000000000    0.2873600000000000    0.2581250000000000 C
   0.6884900000000000    0.6931700000000000    0.3606450000000000 C
   0.6846000000000000    0.7769800000000000    0.3615500000000000 C
   0.5966300000000000    0.8100100000000000    0.3573800000000000 C
   0.7683600000000000    0.8229500000000000    0.3660150000000000 C
   0.7642000000000000    0.9002300000000000    0.3659750000000000 C
   0.6756500000000000    0.0777000000000000    0.3553200000000000 C
   0.6793800000000000    0.1553400000000000    0.3523500000000000 C
   0.6011000000000000    0.1876500000000000    0.3357500000000000 C
   0.5140000000000000    0.1402400000000000    0.3198400000000000 C
   0.7613900000000000    0.2012000000000000    0.3661800000000000 C
   0.7647300000000000    0.2781800000000000    0.3647650000000000 C
   0.6063499999999999    0.2651900000000000    0.3350500000000000 C
   0.6861300000000000    0.3112600000000000    0.3499600000000000 C
   0.6861699999999999    0.3951800000000000    0.3509150000000000 C
   0.6768800000000000    0.5550100000000000    0.4297500000000000 C
   0.6760400000000000    0.5546000000000000    0.4715550000000000 C
   0.5907700000000000    0.5398300000000000    0.4886700000000000 C
   0.7610900000000000    0.5665000000000000    0.4938300000000000 C
   0.7605900000000000    0.5621200000000000    0.0320700000000000 C
   0.5882200000000000    0.5347800000000000    0.0270150000000000 C
   0.4961900000000000    0.5187700000000000    0.0447900000000000 C
   0.6752400000000000    0.5454900000000000    0.0491950000000000 C
   0.6772700000000000    0.5396000000000000    0.0880900000000000 C
   0.6805000000000000    0.5346300000000000    0.1217150000000000 C
   0.6824700000000000    0.5300000000000000    0.1607700000000000 C
   0.7636300000000000    0.5573100000000000    0.1843000000000000 C
   0.6024800000000000    0.4987400000000000    0.1767750000000000 C
   0.5153300000000000    0.4684200000000000    0.1527250000000000 C
   0.6058100000000000    0.4984600000000000    0.2156850000000000 C
   0.7652400000000000    0.5558700000000000    0.2229300000000000 C
   0.6852400000000000    0.5276300000000000    0.2391350000000000 C
   0.6834700000000000    0.5304000000000000    0.2811000000000000 C
   0.3945800000000000    0.6001400000000000    0.3743650000000000 C
   0.3805400000000000    0.4890000000000000    0.3296500000000000 C
   0.2816600000000000    0.4888300000000000    0.3299950000000000 C
   0.2963700000000000    0.6044800000000000    0.3758450000000000 C
   0.2375400000000000    0.5473000000000000    0.3536550000000000 C
   0.1326700000000000    0.5482700000000000    0.3553450000000000 C
   0.0781900000000000    0.4809200000000000    0.3546450000000000 C
   0.0841300000000000    0.6160300000000000    0.3578950000000000 C
   0.9854300000000000    0.6141799999999999    0.3591750000000000 C
   0.9798100000000000    0.4836900000000000    0.3563900000000000 C
   0.5901000000000000    0.8872000000000000    0.8566500000000000 C
   0.4953900000000000    0.9217700000000000    0.8521300000000001 C
   0.6757800000000000    0.9329300000000000    0.8606300000000000 C
   0.6738499999999999    0.0108400000000000    0.8583950000000000 C
   0.9966300000000000    0.2339700000000000    0.9609400000000000 C
   0.9987100000000000    0.3172200000000000    0.9597300000000000 C
   0.9162100000000000    0.3526500000000000    0.9500500000000001 C
   0.0846700000000000    0.3601900000000000    0.9672550000000000 C
   0.0906800000000000    0.4372700000000000    0.9654700000000001 C
   0.1838900000000000    0.4818200000000000    0.9731799999999999 C
   0.9198900000000000    0.4292500000000000    0.9478650000000000 C
   0.0064300000000000    0.4726800000000000    0.9558700000000000 C
   0.0081300000000000    0.5512400000000000    0.9547900000000000 C
   0.0073900000000000    0.6193900000000000    0.9546100000000000 C
   0.0044700000000000    0.6980100000000000    0.9539750000000000 C
   0.9166000000000000    0.7301600000000000    0.9469000000000001 C
   0.0891800000000000    0.7449700000000000    0.9602700000000000 C
   0.1825000000000000    0.7121700000000000    0.9692000000000001 C
   0.0829600000000000    0.8218900000000000    0.9587000000000000 C
   0.9122900000000000    0.8073900000000001    0.9466950000000001 C
   0.9955500000000000    0.8540400000000000    0.9523500000000000 C
   0.9914400000000000    0.9376200000000000    0.9522200000000001 C
   0.2950900000000000    0.1000000000000000    0.9280250000000000 C
   0.2995500000000000    0.0745100000000000    0.9892950000000000 C
   0.3982700000000000    0.0714900000000000    0.9897899999999999 C
   0.3937500000000000    0.1001200000000000    0.9268200000000000 C
   0.4473900000000000    0.0849700000000000    0.9580850000000001 C
   0.0033400000000000    0.0781900000000000    0.8830000000000000 C
   0.0012800000000000    0.0805800000000000    0.8413750000000000 C
   0.0838000000000000    0.0998500000000000    0.8237000000000000 C
   0.9153400000000000    0.0655600000000000    0.8198449999999999 C
   0.9093800000000000    0.0690900000000000    0.7813000000000000 C
   0.8161700000000000    0.0536900000000000    0.7589850000000000 C
   0.0801600000000000    0.1041700000000000    0.7853900000000000 C
   0.9936300000000000    0.0882200000000000    0.7636400000000000 C
   0.9919600000000000    0.0903800000000000    0.7243650000000000 C
   0.9927600000000000    0.0907700000000000    0.6902950000000000 C
   0.9956800000000000    0.0920400000000000    0.6509950000000000 C
   0.0835200000000000    0.1062100000000000    0.6349600000000000 C
   0.9109800000000000    0.0794000000000000    0.6274850000000000 C
   0.8176900000000000    0.0615100000000000    0.6438450000000000 C
   0.9171800000000000    0.0824200000000000    0.5890250000000000 C
   0.0878000000000000    0.1066300000000000    0.5963450000000000 C
   0.0045500000000000    0.0952500000000000    0.5729850000000000 C
   0.0086200000000000    0.0955100000000000    0.5312000000000000 C
   0.7047400000000000    0.1439500000000000    0.9498949999999999 C
   0.7005900000000000    0.0215400000000000    0.9628250000000000 C
   0.6018800000000000    0.0205500000000000    0.9643550000000001 C
   0.6060700000000000    0.1463400000000000    0.9498500000000001 C
   0.5526000000000000    0.0838800000000000    0.9575250000000000 C
   0.3114500000000000    0.2789000000000000    0.6534200000000000 C
   0.3152800000000000    0.2771400000000000    0.6115200000000000 C
   0.4032300000000000    0.2854700000000000    0.5950299999999999 C
   0.2315000000000000    0.2682600000000000    0.5885000000000000 C
   0.2356200000000000    0.2683100000000000    0.5498800000000000 C
   0.4097200000000000    0.2868000000000000    0.5564350000000000 C
   0.5044100000000000    0.2958000000000000    0.5391500000000000 C
   0.3240200000000000    0.2789200000000000    0.5335500000000000 C
   0.3231200000000000    0.1407100000000000    0.7224650000000000 C
   0.3239800000000000    0.0570800000000000    0.7226450000000000 C
   0.4092500000000000    0.0228000000000000    0.7300750000000000 C
   0.2389400000000000    0.0126000000000000    0.7166650000000000 C
   0.2394300000000000    0.9361100000000000    0.7188850000000000 C
   0.4117900000000000    0.9461000000000001    0.7326400000000000 C
   0.5038100000000000    0.9104800000000000    0.7407049999999999 C
   0.3247700000000000    0.9018000000000000    0.7272650000000001 C
   0.3227200000000000    0.8240300000000000    0.7302649999999999 C
   0.3194300000000000    0.7568000000000000    0.7327950000000000 C
   0.3174200000000000    0.6787000000000000    0.7351500000000000 C
   0.2362000000000000    0.6317199999999999    0.7215199999999999 C
   0.3974500000000000    0.6466000000000000    0.7507500000000000 C
   0.4846400000000000    0.6946300000000000    0.7659150000000000 C
   0.3941100000000000    0.5687700000000000    0.7509100000000000 C
   0.2345900000000000    0.5544500000000000    0.7222400000000000 C
   0.3146400000000000    0.5219400000000000    0.7363300000000000 C
   0.3164100000000000    0.4379100000000000    0.7348749999999999 C
   0.6053600000000000    0.2513200000000000    0.6999600000000000 C
   0.6194800000000000    0.3407900000000000    0.7555149999999999 C
   0.7183500000000000    0.3401000000000000    0.7555900000000000 C
   0.7035700000000000    0.2483500000000000    0.6977500000000000 C
   0.7624300000000001    0.2927500000000000    0.7263500000000001 C
   0.8673100000000000    0.2893900000000000    0.7258550000000000 C
   0.9219100000000000    0.2907700000000000    0.7595200000000000 C
   0.9157300000000000    0.2843500000000000    0.6919750000000000 C
   0.0144400000000000    0.2818600000000000    0.6928900000000000 C
   0.0202900000000000    0.2873600000000000    0.7581249999999999 C
   0.6884900000000000    0.6931700000000000    0.8606450000000000 C
   0.6846000000000000    0.7769800000000000    0.8615500000000000 C
   0.5966300000000000    0.8100100000000000    0.8573800000000000 C
   0.7683600000000000    0.8229500000000000    0.8660150000000000 C
   0.7642000000000000    0.9002300000000000    0.8659749999999999 C
   0.6756500000000000    0.0777000000000000    0.8553200000000001 C
   0.6793800000000000    0.1553400000000000    0.8523499999999999 C
   0.6011000000000000    0.1876500000000000    0.8357500000000000 C
   0.5140000000000000    0.1402400000000000    0.8198400000000000 C
   0.7613900000000000    0.2012000000000000    0.8661799999999999 C
   0.7647300000000000    0.2781800000000000    0.8647650000000000 C
   0.6063499999999999    0.2651900000000000    0.8350500000000001 C
   0.6861300000000000    0.3112600000000000    0.8499600000000000 C
   0.6861699999999999    0.3951800000000000    0.8509150000000000 C
   0.6768800000000000    0.5550100000000000    0.9297500000000001 C
   0.6760400000000000    0.5546000000000000    0.9715549999999999 C
   0.5907700000000000    0.5398300000000000    0.9886699999999999 C
   0.7610900000000000    0.5665000000000000    0.9938300000000000 C
   0.7605900000000000    0.5621200000000000    0.5320700000000000 C
   0.5882200000000000    0.5347800000000000    0.5270150000000000 C
   0.4961900000000000    0.5187700000000000    0.5447900000000000 C
   0.6752400000000000    0.5454900000000000    0.5491950000000000 C
   0.6772700000000000    0.5396000000000000    0.5880900000000000 C
   0.6805000000000000    0.5346300000000000    0.6217150000000000 C
   0.6824700000000000    0.5300000000000000    0.6607700000000000 C
   0.7636300000000000    0.5573100000000000    0.6843000000000000 C
   0.6024800000000000    0.4987400000000000    0.6767750000000000 C
   0.5153300000000000    0.4684200000000000    0.6527250000000000 C
   0.6058100000000000    0.4984600000000000    0.7156850000000000 C