H12 C6 N4
1.0
  13.4041534204628263    0.0000000000000000    2.7829428813209041
   3.3396257397221754   16.3488981405061260    0.6955792621552803
   0.0000000000000000    0.0000000000000000   33.4020000000000010
H C N
12 6 4
direct
   0.6113900000000000    0.7194900000000000    0.1973450000000000 H
   0.6876300000000000    0.7958000000000000    0.1953400000000000 H
   0.5167500000000000    0.7131900000000000    0.1455850000000000 H
   0.6682000000000000    0.7804800000000000    0.0526300000000000 H
   0.7804700000000000    0.7041600000000000    0.0546850000000000 H
   0.5189500000000000    0.7867600000000000    0.1043100000000000 H
   0.6914100000000000    0.8947100000000000    0.1402550000000000 H
   0.6171700000000000    0.8906700000000000    0.1020750000000000 H
   0.8375800000000000    0.7912300000000000    0.1434350000000000 H
   0.7786800000000000    0.6052300000000000    0.1097900000000000 H
   0.6644200000000000    0.6092900000000000    0.1479050000000000 H
   0.8764200000000000    0.7086700000000000    0.1066650000000000 H
   0.6595299999999999    0.7557600000000000    0.1771450000000000 C
   0.7143100000000000    0.7441900000000000    0.0728500000000000 C
   0.6633900000000000    0.8542900000000000    0.1221050000000000 C
   0.7124600000000000    0.6456499999999999    0.1279000000000000 C
   0.5632800000000000    0.7499700000000000    0.1249600000000000 C
   0.8115700000000000    0.7499600000000000    0.1250350000000000 C
   0.5980500000000000    0.8060000000000000    0.1498900000000000 N
   0.6507500000000001    0.6939400000000000    0.1000700000000000 N
   0.7519900000000000    0.7998100000000000    0.0970050000000000 N
   0.7489200000000000    0.7001300000000000    0.1530300000000000 N
