H2 O1
1.0
  13.4041534204628263    0.0000000000000000    2.7829428813209041
   3.3396257397221754   16.3488981405061260    0.6955792621552803
   0.0000000000000000    0.0000000000000000   33.4020000000000010
H O
2 1
direct
   0.6410919513370259    0.8378104657187784    0.1315869602402929 H
   0.6386057026015682    0.7728588402943594    0.1678689472089418 H
   0.5980500000000000    0.8060000000000000    0.1498900000000000 O
