H2 O2
1.0
  13.1899996604871319    0.0000000000000000    0.0029927160427188
  -0.0306724669784916   13.9469648362714196    0.0063289476229558
   0.0000000000000000    0.0000000000000000   16.9879999999999995
H O
2 2
direct
   0.9737180384731972    0.3317257979849088    0.4166178816612789 H
   0.0295500253232770    0.3070907338612144    0.5207382393555139 H
   0.9842800000000000    0.3943600000000000    0.4412600000000000 O
   0.0245700000000000    0.3768400000000000    0.5159100000000000 O
