H8 O4
1.0
  30.9329124118216683    0.0000000000000000   -9.4612729573017269
  -3.4949153032120339   13.0101875696959937   -7.0765581623203113
   0.0000000000000000    0.0000000000000000   30.4600000000000009
H O
8 4
direct
   0.0971665133304806    0.2715664214129488    0.0623043414890957 H
   0.1377335107608745    0.3581923263422147    0.1205302113634127 H
   0.2933876751147860    0.4117982207039200    0.1158559133472322 H
   0.3082997654651533    0.5373150142857265    0.1841817802972337 H
   0.0399147080106841    0.5881829361918378    0.8841446760684505 H
   0.0223742726766411    0.4599224129802694    0.8498658931785735 H
   0.1956359080834216    0.6417042053280605    0.8794731327969036 H
   0.2361962917894941    0.7283041702922149    0.9377065327780986 H
   0.1113466666666667    0.2997000000000000    0.1008650000000000 O
   0.3150666666666667    0.4746000000000000    0.1468350000000000 O
   0.0182266666666667    0.5253900000000000    0.8531700000000000 O
   0.2220466666666666    0.7001400000000000    0.8991400000000001 O
