H14 C28 O8
1.0
  35.2287234774498899    0.0000000000000000   -4.1982765689471622
  -2.3109108898179667   17.4441034849232253   -2.0798811183839852
   0.0000000000000000    0.0000000000000000   35.4260000000000019
H C O
14 28 8
direct
   0.1058300000000000    0.4781700000000000    0.9093000000000000 H
   0.0904400000000000    0.6111400000000000    0.9090549999999999 H
   0.2159000000000000    0.5653500000000000    0.9744300000000000 H
   0.2010250000000000    0.6982100000000000    0.9717300000000000 H
   0.1126900000000000    0.3869500000000000    0.9457550000000000 H
   0.0713500000000000    0.3054600000000000    0.9457850000000000 H
   0.2396300000000000    0.2087300000000000    0.9108499999999999 H
   0.3060800000000000    0.1781700000000000    0.9105350000000000 H
   0.2831700000000000    0.4301700000000000    0.9747900000000000 H
   0.3495450000000000    0.4005700000000000    0.9720200000000000 H
   0.1937900000000000    0.2238600000000000    0.9467000000000000 H
   0.1527800000000000    0.1413600000000000    0.9455100000000001 H
   0.2310100000000000    0.4600900000000000    0.9396450000000001 H
   0.0325850000000000    0.0650100000000000    0.9352300000000000 H
   0.1447500000000000    0.6629600000000000    0.9403750000000000 C
   0.1265700000000000    0.5260100000000000    0.9238050000000000 C
   0.1179100000000000    0.6004100000000000    0.9231650000000000 C
   0.1619650000000000    0.5116400000000000    0.9421100000000000 C
   0.1886050000000000    0.5749200000000000    0.9593499999999999 C
   0.1803050000000000    0.6494900000000000    0.9583150000000000 C
   0.1355450000000000    0.7427500000000000    0.9397850000000000 C
   0.0085650000000000    0.2061200000000000    0.9399750000000000 C
   0.1708200000000000    0.4322800000000000    0.9433300000000000 C
   0.1415650000000000    0.3726100000000000    0.9446749999999999 C
   0.0487050000000000    0.1877700000000000    0.9408449999999999 C
   0.0788450000000000    0.2475000000000000    0.9440950000000000 C
   0.3319450000000000    0.2875400000000000    0.9411400000000000 C
   0.2635350000000000    0.2505700000000000    0.9250499999999999 C
   0.3007100000000000    0.2333600000000000    0.9243800000000000 C
   0.2563600000000000    0.3217700000000000    0.9429000000000001 C
   0.2879600000000000    0.3753500000000000    0.9599500000000001 C
   0.3252050000000000    0.3588500000000000    0.9588500000000000 C
   0.3718300000000000    0.2696300000000000    0.9402100000000000 C
   0.1030200000000000    0.0161500000000000    0.9399350000000000 C
   0.2167500000000000    0.3398500000000000    0.9438000000000000 C
   0.1867800000000000    0.2816700000000000    0.9451849999999999 C
   0.0939600000000000    0.0965900000000000    0.9407600000000000 C
   0.1239050000000000    0.1567000000000000    0.9439850000000001 C
   0.2083450000000000    0.4150400000000000    0.9426550000000000 C
   0.1487500000000000    0.2964600000000000    0.9451950000000000 C
   0.1170500000000000    0.2333300000000000    0.9447800000000000 C
   0.0559950000000000    0.1116100000000000    0.9383650000000000 C
   0.1629850000000000    0.7971600000000000    0.9513499999999999 O
   0.0044650000000000    0.2757000000000000    0.9511100000000000 O
   0.1009250000000000    0.7508700000000000    0.9278500000000001 O
   0.3988800000000000    0.3249400000000000    0.9515000000000000 O
   0.0754850000000000    0.9622900000000000    0.9282699999999999 O
   0.1377900000000000    1.0079400000000001    0.9510750000000000 O
   0.3760500000000000    0.2004300000000000    0.9282600000000000 O
   0.9816650000000000    0.1509500000000000    0.9283399999999999 O
