Cu24 H154 C308 O88
1.0
  35.2287234774498899    0.0000000000000000   -4.1982765689471622
  -2.3109108898179667   17.4441034849232253   -2.0798811183839852
   0.0000000000000000    0.0000000000000000   35.4260000000000019
Cu H C O
24 154 308 88
direct
   0.4524150000000000    0.3049500000000000    0.4519000000000000 Cu
   0.4522700000000000    0.9044200000000000    0.1521750000000000 Cu
   0.4279100000000000    0.1711500000000000    0.4271500000000000 Cu
   0.4276000000000000    0.8549600000000001    0.0852000000000000 Cu
   0.0859150000000000    0.8546600000000000    0.4269000000000000 Cu
   0.1526350000000000    0.9040899999999999    0.4518900000000000 Cu
   0.9524150000000000    0.3049500000000000    0.4519000000000000 Cu
   0.9522699999999999    0.9044200000000000    0.1521750000000000 Cu
   0.9279100000000000    0.1711500000000000    0.4271500000000000 Cu
   0.9276000000000000    0.8549600000000001    0.0852000000000000 Cu
   0.5859150000000000    0.8546600000000000    0.4269000000000000 Cu
   0.6526350000000000    0.9040899999999999    0.4518900000000000 Cu
   0.4524150000000000    0.3049500000000000    0.9519000000000000 Cu
   0.4522700000000000    0.9044200000000000    0.6521749999999999 Cu
   0.4279100000000000    0.1711500000000000    0.9271499999999999 Cu
   0.4276000000000000    0.8549600000000001    0.5851999999999999 Cu
   0.0859150000000000    0.8546600000000000    0.9269000000000001 Cu
   0.1526350000000000    0.9040899999999999    0.9518900000000000 Cu
   0.9524150000000000    0.3049500000000000    0.9519000000000000 Cu
   0.9522699999999999    0.9044200000000000    0.6521749999999999 Cu
   0.9279100000000000    0.1711500000000000    0.9271499999999999 Cu
   0.9276000000000000    0.8549600000000001    0.5851999999999999 Cu
   0.5859150000000000    0.8546600000000000    0.9269000000000001 Cu
   0.6526350000000000    0.9040899999999999    0.9518900000000000 Cu
   0.1058300000000000    0.4781700000000000    0.4093000000000000 H
   0.0904400000000000    0.6111400000000000    0.4090550000000000 H
   0.2159000000000000    0.5653500000000000    0.4744300000000000 H
   0.2010250000000000    0.6982100000000000    0.4717300000000000 H
   0.1126900000000000    0.3869500000000000    0.4457550000000000 H
   0.0713500000000000    0.3054600000000000    0.4457850000000000 H
   0.4097900000000000    0.2107900000000000    0.2387400000000000 H
   0.4093850000000000    0.1800000000000000    0.3052350000000000 H
   0.4747200000000000    0.4309500000000000    0.2826750000000000 H
   0.4718850000000000    0.4011900000000000    0.3491000000000000 H
   0.4466150000000000    0.2246400000000000    0.1932750000000000 H
   0.4467050000000000    0.1420700000000000    0.1524450000000000 H
   0.2393850000000000    0.8225300000000000    0.1038050000000000 H
   0.3057950000000000    0.8222100000000000    0.0885100000000000 H
   0.2829700000000000    0.9499800000000000    0.2146950000000000 H
   0.3493350000000000    0.9447200000000000    0.1998850000000000 H
   0.1933750000000000    0.8938100000000000    0.1115400000000000 H
   0.1523250000000000    0.8901400000000000    0.0702450000000000 H
   0.2396300000000000    0.2087300000000000    0.4108500000000000 H
   0.3060800000000000    0.1781700000000000    0.4105350000000000 H
   0.2831700000000000    0.4301700000000000    0.4747900000000000 H
   0.3495450000000000    0.4005700000000000    0.4720200000000000 H
   0.1937900000000000    0.2238600000000000    0.4467000000000000 H
   0.1527800000000000    0.1413600000000000    0.4455100000000000 H
   0.1060550000000000    0.8173800000000000    0.2388250000000000 H
   0.0908300000000000    0.8173400000000000    0.3053550000000000 H
   0.2158350000000000    0.9486400000000000    0.2822950000000000 H
   0.2011500000000000    0.9437000000000000    0.3487850000000000 H
   0.1124350000000000    0.8900700000000000    0.1930450000000000 H
   0.0710300000000000    0.8915600000000000    0.1522500000000000 H
   0.4107900000000000    0.4785100000000000    0.1045900000000000 H
   0.4102050000000000    0.6115200000000000    0.0893200000000000 H
   0.4750150000000000    0.5659999999999999    0.2152050000000000 H
   0.4720350000000000    0.6988600000000000    0.2004050000000000 H
   0.4474300000000000    0.3873100000000000    0.1119650000000000 H
   0.4466750000000000    0.3053400000000000    0.0706150000000000 H
   0.2310100000000000    0.4600900000000000    0.4396450000000000 H
   0.0325850000000000    0.0650100000000000    0.4352300000000000 H
   0.4397650000000000    0.4612900000000000    0.2300950000000000 H
   0.4365250000000000    0.0647500000000000    0.0321000000000000 H
   0.2310400000000000    0.8792900000000000    0.2296550000000000 H
   0.0321300000000000    0.8706199999999999    0.0319050000000000 H
   0.6058300000000000    0.4781700000000000    0.4093000000000000 H
   0.5904400000000000    0.6111400000000000    0.4090550000000000 H
   0.7159000000000000    0.5653500000000000    0.4744300000000000 H
   0.7010250000000000    0.6982100000000000    0.4717300000000000 H
   0.6126900000000000    0.3869500000000000    0.4457550000000000 H
   0.5713500000000000    0.3054600000000000    0.4457850000000000 H
   0.9097900000000000    0.2107900000000000    0.2387400000000000 H
   0.9093850000000000    0.1800000000000000    0.3052350000000000 H
   0.9747200000000000    0.4309500000000000    0.2826750000000000 H
   0.9718850000000000    0.4011900000000000    0.3491000000000000 H
   0.9466150000000000    0.2246400000000000    0.1932750000000000 H
   0.9467050000000000    0.1420700000000000    0.1524450000000000 H
   0.7393850000000000    0.8225300000000000    0.1038050000000000 H
   0.8057950000000000    0.8222100000000000    0.0885100000000000 H
   0.7829699999999999    0.9499800000000000    0.2146950000000000 H
   0.8493350000000000    0.9447200000000000    0.1998850000000000 H
   0.6933750000000000    0.8938100000000000    0.1115400000000000 H
   0.6523250000000000    0.8901400000000000    0.0702450000000000 H
   0.7396300000000000    0.2087300000000000    0.4108500000000000 H
   0.8060800000000000    0.1781700000000000    0.4105350000000000 H
   0.7831699999999999    0.4301700000000000    0.4747900000000000 H
   0.8495450000000000    0.4005700000000000    0.4720200000000000 H
   0.6937900000000000    0.2238600000000000    0.4467000000000000 H
   0.6527800000000000    0.1413600000000000    0.4455100000000000 H
   0.6060550000000000    0.8173800000000000    0.2388250000000000 H
   0.5908300000000000    0.8173400000000000    0.3053550000000000 H
   0.7158350000000000    0.9486400000000000    0.2822950000000000 H
   0.7011499999999999    0.9437000000000000    0.3487850000000000 H
   0.6124350000000000    0.8900700000000000    0.1930450000000000 H
   0.5710300000000000    0.8915600000000000    0.1522500000000000 H
   0.9107900000000000    0.4785100000000000    0.1045900000000000 H
   0.9102049999999999    0.6115200000000000    0.0893200000000000 H
   0.9750150000000000    0.5659999999999999    0.2152050000000000 H
   0.9720350000000000    0.6988600000000000    0.2004050000000000 H
   0.9474300000000000    0.3873100000000000    0.1119650000000000 H
   0.9466749999999999    0.3053400000000000    0.0706150000000000 H
   0.7310099999999999    0.4600900000000000    0.4396450000000000 H
   0.5325850000000000    0.0650100000000000    0.4352300000000000 H
   0.9397650000000000    0.4612900000000000    0.2300950000000000 H
   0.9365250000000001    0.0647500000000000    0.0321000000000000 H
   0.7310400000000000    0.8792900000000000    0.2296550000000000 H
   0.5321300000000000    0.8706199999999999    0.0319050000000000 H
   0.4097900000000000    0.2107900000000000    0.7387400000000000 H
   0.4093850000000000    0.1800000000000000    0.8052349999999999 H
   0.4747200000000000    0.4309500000000000    0.7826750000000000 H
   0.4718850000000000    0.4011900000000000    0.8491000000000000 H
   0.4466150000000000    0.2246400000000000    0.6932750000000000 H
   0.4467050000000000    0.1420700000000000    0.6524449999999999 H
   0.2393850000000000    0.8225300000000000    0.6038050000000000 H
   0.3057950000000000    0.8222100000000000    0.5885100000000000 H
   0.2829700000000000    0.9499800000000000    0.7146950000000000 H
   0.3493350000000000    0.9447200000000000    0.6998850000000000 H
   0.1933750000000000    0.8938100000000000    0.6115400000000000 H
   0.1523250000000000    0.8901400000000000    0.5702450000000000 H
   0.1060550000000000    0.8173800000000000    0.7388250000000001 H
   0.0908300000000000    0.8173400000000000    0.8053550000000000 H
   0.2158350000000000    0.9486400000000000    0.7822950000000000 H
   0.2011500000000000    0.9437000000000000    0.8487850000000000 H
   0.1124350000000000    0.8900700000000000    0.6930450000000000 H
   0.0710300000000000    0.8915600000000000    0.6522500000000000 H
   0.4107900000000000    0.4785100000000000    0.6045900000000000 H
   0.4102050000000000    0.6115200000000000    0.5893200000000000 H
   0.4750150000000000    0.5659999999999999    0.7152050000000000 H
   0.4720350000000000    0.6988600000000000    0.7004049999999999 H
   0.4474300000000000    0.3873100000000000    0.6119650000000000 H
   0.4466750000000000    0.3053400000000000    0.5706150000000000 H
   0.4397650000000000    0.4612900000000000    0.7300949999999999 H
   0.4365250000000000    0.0647500000000000    0.5321000000000000 H
   0.2310400000000000    0.8792900000000000    0.7296549999999999 H
   0.0321300000000000    0.8706199999999999    0.5319050000000000 H
   0.6058300000000000    0.4781700000000000    0.9093000000000000 H
   0.5904400000000000    0.6111400000000000    0.9090549999999999 H
   0.7159000000000000    0.5653500000000000    0.9744300000000000 H
   0.7010250000000000    0.6982100000000000    0.9717300000000000 H
   0.6126900000000000    0.3869500000000000    0.9457550000000000 H
   0.5713500000000000    0.3054600000000000    0.9457850000000000 H
   0.9097900000000000    0.2107900000000000    0.7387400000000000 H
   0.9093850000000000    0.1800000000000000    0.8052349999999999 H
   0.9747200000000000    0.4309500000000000    0.7826750000000000 H
   0.9718850000000000    0.4011900000000000    0.8491000000000000 H
   0.9466150000000000    0.2246400000000000    0.6932750000000000 H
   0.9467050000000000    0.1420700000000000    0.6524449999999999 H
   0.7393850000000000    0.8225300000000000    0.6038050000000000 H
   0.8057950000000000    0.8222100000000000    0.5885100000000000 H
   0.7829699999999999    0.9499800000000000    0.7146950000000000 H
   0.8493350000000000    0.9447200000000000    0.6998850000000000 H
   0.6933750000000000    0.8938100000000000    0.6115400000000000 H
   0.6523250000000000    0.8901400000000000    0.5702450000000000 H
   0.7396300000000000    0.2087300000000000    0.9108499999999999 H
   0.8060800000000000    0.1781700000000000    0.9105350000000000 H
   0.7831699999999999    0.4301700000000000    0.9747900000000000 H
   0.8495450000000000    0.4005700000000000    0.9720200000000000 H
   0.6937900000000000    0.2238600000000000    0.9467000000000000 H
   0.6527800000000000    0.1413600000000000    0.9455100000000001 H
   0.6060550000000000    0.8173800000000000    0.7388250000000001 H
   0.5908300000000000    0.8173400000000000    0.8053550000000000 H
   0.7158350000000000    0.9486400000000000    0.7822950000000000 H
   0.7011499999999999    0.9437000000000000    0.8487850000000000 H
   0.6124350000000000    0.8900700000000000    0.6930450000000000 H
   0.5710300000000000    0.8915600000000000    0.6522500000000000 H
   0.9107900000000000    0.4785100000000000    0.6045900000000000 H
   0.9102049999999999    0.6115200000000000    0.5893200000000000 H
   0.9750150000000000    0.5659999999999999    0.7152050000000000 H
   0.9720350000000000    0.6988600000000000    0.7004049999999999 H
   0.9474300000000000    0.3873100000000000    0.6119650000000000 H
   0.9466749999999999    0.3053400000000000    0.5706150000000000 H
   0.7310099999999999    0.4600900000000000    0.9396450000000001 H
   0.5325850000000000    0.0650100000000000    0.9352300000000000 H
   0.9397650000000000    0.4612900000000000    0.7300949999999999 H
   0.9365250000000001    0.0647500000000000    0.5321000000000000 H
   0.7310400000000000    0.8792900000000000    0.7296549999999999 H
   0.5321300000000000    0.8706199999999999    0.5319050000000000 H
   0.1447500000000000    0.6629600000000000    0.4403750000000000 C
   0.1265700000000000    0.5260100000000000    0.4238050000000000 C
   0.1179100000000000    0.6004100000000000    0.4231650000000000 C
   0.1619650000000000    0.5116400000000000    0.4421100000000000 C
   0.1886050000000000    0.5749200000000000    0.4593500000000000 C
   0.1803050000000000    0.6494900000000000    0.4583150000000000 C
   0.1355450000000000    0.7427500000000000    0.4397850000000000 C
   0.0085650000000000    0.2061200000000000    0.4399750000000000 C
   0.1708200000000000    0.4322800000000000    0.4433300000000000 C
   0.1415650000000000    0.3726100000000000    0.4446750000000000 C
   0.0487050000000000    0.1877700000000000    0.4408450000000000 C
   0.0788450000000000    0.2475000000000000    0.4440950000000000 C
   0.4406150000000000    0.2886300000000000    0.3312900000000000 C
   0.4241900000000000    0.2522700000000000    0.2627500000000000 C
   0.4234900000000000    0.2349400000000000    0.2999400000000000 C
   0.4425200000000000    0.3230600000000000    0.2556900000000000 C
   0.4596500000000000    0.3763800000000000    0.2874050000000000 C
   0.4585400000000000    0.3597600000000000    0.3246700000000000 C
   0.4400250000000000    0.2702000000000000    0.3711700000000000 C
   0.4409650000000000    0.0165500000000000    0.1027000000000000 C
   0.4438100000000000    0.3408900000000000    0.2160550000000000 C
   0.4454250000000000    0.2824600000000000    0.1861800000000000 C
   0.4419750000000000    0.0968800000000000    0.0935600000000000 C
   0.4451450000000000    0.1571700000000000    0.1234950000000000 C
   0.3317050000000000    0.8831599999999999    0.1432950000000000 C
   0.2632900000000000    0.8508900000000000    0.1247700000000000 C
   0.3004550000000000    0.8497300000000000    0.1161500000000000 C
   0.2561400000000000    0.8864000000000000    0.1604350000000000 C
   0.2877500000000000    0.9204300000000000    0.1872500000000000 C
   0.3249850000000000    0.9184400000000000    0.1789500000000000 C
   0.3715850000000000    0.8812000000000000    0.1343650000000000 C
   0.1026200000000000    0.8799500000000000    0.0076050000000000 C
   0.2165450000000000    0.8877000000000000    0.1695200000000000 C
   0.1864600000000000    0.8903799999999999    0.1404350000000000 C
   0.0935200000000000    0.8812800000000000    0.0477900000000000 C
   0.1234750000000000    0.8873700000000000    0.0775000000000000 C
   0.3319450000000000    0.2875400000000000    0.4411400000000000 C
   0.2635350000000000    0.2505700000000000    0.4250500000000000 C
   0.3007100000000000    0.2333600000000000    0.4243800000000000 C
   0.2563600000000000    0.3217700000000000    0.4429000000000000 C
   0.2879600000000000    0.3753500000000000    0.4599500000000000 C
   0.3252050000000000    0.3588500000000000    0.4588500000000000 C
   0.3718300000000000    0.2696300000000000    0.4402100000000000 C
   0.1030200000000000    0.0161500000000000    0.4399350000000000 C
   0.2167500000000000    0.3398500000000000    0.4438000000000000 C
   0.1867800000000000    0.2816700000000000    0.4451850000000000 C
   0.0939600000000000    0.0965900000000000    0.4407600000000000 C
   0.1239050000000000    0.1567000000000000    0.4439850000000000 C
   0.1449950000000000    0.8805800000000000    0.3312000000000000 C
   0.1267700000000000    0.8466900000000001    0.2627300000000000 C
   0.1182050000000000    0.8456900000000001    0.2999650000000000 C
   0.1620200000000000    0.8835300000000000    0.2554500000000000 C
   0.1886400000000000    0.9183800000000000    0.2871200000000000 C
   0.1804400000000000    0.9165500000000000    0.3244450000000000 C
   0.1358000000000000    0.8798300000000000    0.3711550000000000 C
   0.0082250000000000    0.8801000000000000    0.1025500000000000 C
   0.1707250000000000    0.8859800000000000    0.2157500000000000 C
   0.1413350000000000    0.8884100000000000    0.1859000000000000 C
   0.0483250000000000    0.8816500000000000    0.0933500000000000 C
   0.0784900000000000    0.8879700000000000    0.1232650000000000 C
   0.4410150000000000    0.6634100000000001    0.1439250000000000 C
   0.4250000000000000    0.5264500000000000    0.1254750000000000 C
   0.4241800000000000    0.6008300000000000    0.1168800000000000 C
   0.4431000000000000    0.5122400000000000    0.1610000000000000 C
   0.4600700000000000    0.5755400000000001    0.1878250000000000 C
   0.4588650000000000    0.6500700000000000    0.1795750000000000 C
   0.4401200000000000    0.7431500000000000    0.1348450000000000 C
   0.4410900000000000    0.2057000000000000    0.0079200000000000 C
   0.4441900000000000    0.4329800000000000    0.1699850000000000 C
   0.4458600000000000    0.3731400000000000    0.1408350000000000 C
   0.4420000000000000    0.1875900000000000    0.0481150000000000 C
   0.4451550000000000    0.2475100000000000    0.0782000000000000 C
   0.2083450000000000    0.4150400000000000    0.4426550000000000 C
   0.1487500000000000    0.2964600000000000    0.4451950000000000 C
   0.1170500000000000    0.2333300000000000    0.4447800000000000 C
   0.0559950000000000    0.1116100000000000    0.4383650000000000 C
   0.4429900000000000    0.4160400000000000    0.2075400000000000 C
   0.4460450000000000    0.2970200000000000    0.1481400000000000 C
   0.4458500000000000    0.2336800000000000    0.1165150000000000 C
   0.4396300000000000    0.1115500000000000    0.0555050000000000 C
   0.2082600000000000    0.8851400000000000    0.2071250000000000 C
   0.1484300000000000    0.8898500000000000    0.1478200000000000 C
   0.1166700000000000    0.8890900000000000    0.1162250000000000 C
   0.0555600000000000    0.8766900000000000    0.0552500000000000 C
   0.6447499999999999    0.6629600000000000    0.4403750000000000 C
   0.6265700000000000    0.5260100000000000    0.4238050000000000 C
   0.6179100000000000    0.6004100000000000    0.4231650000000000 C
   0.6619650000000000    0.5116400000000000    0.4421100000000000 C
   0.6886050000000000    0.5749200000000000    0.4593500000000000 C
   0.6803049999999999    0.6494900000000000    0.4583150000000000 C
   0.6355450000000000    0.7427500000000000    0.4397850000000000 C
   0.5085650000000000    0.2061200000000000    0.4399750000000000 C
   0.6708200000000000    0.4322800000000000    0.4433300000000000 C
   0.6415649999999999    0.3726100000000000    0.4446750000000000 C
   0.5487050000000000    0.1877700000000000    0.4408450000000000 C
   0.5788450000000001    0.2475000000000000    0.4440950000000000 C
   0.9406150000000000    0.2886300000000000    0.3312900000000000 C
   0.9241900000000001    0.2522700000000000    0.2627500000000000 C
   0.9234899999999999    0.2349400000000000    0.2999400000000000 C
   0.9425200000000000    0.3230600000000000    0.2556900000000000 C
   0.9596500000000000    0.3763800000000000    0.2874050000000000 C
   0.9585399999999999    0.3597600000000000    0.3246700000000000 C
   0.9400250000000000    0.2702000000000000    0.3711700000000000 C
   0.9409650000000001    0.0165500000000000    0.1027000000000000 C
   0.9438100000000000    0.3408900000000000    0.2160550000000000 C
   0.9454250000000000    0.2824600000000000    0.1861800000000000 C
   0.9419750000000000    0.0968800000000000    0.0935600000000000 C
   0.9451450000000000    0.1571700000000000    0.1234950000000000 C
   0.8317050000000000    0.8831599999999999    0.1432950000000000 C
   0.7632900000000000    0.8508900000000000    0.1247700000000000 C
   0.8004550000000000    0.8497300000000000    0.1161500000000000 C
   0.7561400000000000    0.8864000000000000    0.1604350000000000 C
   0.7877500000000000    0.9204300000000000    0.1872500000000000 C
   0.8249850000000001    0.9184400000000000    0.1789500000000000 C
   0.8715850000000001    0.8812000000000000    0.1343650000000000 C
   0.6026200000000000    0.8799500000000000    0.0076050000000000 C
   0.7165450000000000    0.8877000000000000    0.1695200000000000 C
   0.6864600000000000    0.8903799999999999    0.1404350000000000 C
   0.5935200000000000    0.8812800000000000    0.0477900000000000 C
   0.6234750000000000    0.8873700000000000    0.0775000000000000 C
   0.8319449999999999    0.2875400000000000    0.4411400000000000 C
   0.7635350000000001    0.2505700000000000    0.4250500000000000 C
   0.8007100000000000    0.2333600000000000    0.4243800000000000 C
   0.7563599999999999    0.3217700000000000    0.4429000000000000 C
   0.7879600000000000    0.3753500000000000    0.4599500000000000 C
   0.8252050000000000    0.3588500000000000    0.4588500000000000 C
   0.8718300000000000    0.2696300000000000    0.4402100000000000 C
   0.6030200000000000    0.0161500000000000    0.4399350000000000 C
   0.7167500000000000    0.3398500000000000    0.4438000000000000 C
   0.6867799999999999    0.2816700000000000    0.4451850000000000 C
   0.5939600000000000    0.0965900000000000    0.4407600000000000 C
   0.6239050000000000    0.1567000000000000    0.4439850000000000 C
   0.6449950000000000    0.8805800000000000    0.3312000000000000 C
   0.6267700000000000    0.8466900000000001    0.2627300000000000 C
   0.6182050000000000    0.8456900000000001    0.2999650000000000 C
   0.6620200000000001    0.8835300000000000    0.2554500000000000 C
   0.6886400000000000    0.9183800000000000    0.2871200000000000 C
   0.6804399999999999    0.9165500000000000    0.3244450000000000 C
   0.6358000000000000    0.8798300000000000    0.3711550000000000 C
   0.5082250000000000    0.8801000000000000    0.1025500000000000 C
   0.6707250000000000    0.8859800000000000    0.2157500000000000 C
   0.6413350000000000    0.8884100000000000    0.1859000000000000 C
   0.5483250000000000    0.8816500000000000    0.0933500000000000 C
   0.5784899999999999    0.8879700000000000    0.1232650000000000 C
   0.9410149999999999    0.6634100000000001    0.1439250000000000 C
   0.9250000000000000    0.5264500000000000    0.1254750000000000 C
   0.9241800000000000    0.6008300000000000    0.1168800000000000 C
   0.9431000000000000    0.5122400000000000    0.1610000000000000 C
   0.9600700000000000    0.5755400000000001    0.1878250000000000 C
   0.9588650000000001    0.6500700000000000    0.1795750000000000 C
   0.9401200000000001    0.7431500000000000    0.1348450000000000 C
   0.9410900000000000    0.2057000000000000    0.0079200000000000 C
   0.9441900000000000    0.4329800000000000    0.1699850000000000 C
   0.9458599999999999    0.3731400000000000    0.1408350000000000 C
   0.9419999999999999    0.1875900000000000    0.0481150000000000 C
   0.9451550000000000    0.2475100000000000    0.0782000000000000 C
   0.7083450000000000    0.4150400000000000    0.4426550000000000 C
   0.6487499999999999    0.2964600000000000    0.4451950000000000 C
   0.6170500000000000    0.2333300000000000    0.4447800000000000 C
   0.5559950000000000    0.1116100000000000    0.4383650000000000 C
   0.9429900000000000    0.4160400000000000    0.2075400000000000 C
   0.9460450000000000    0.2970200000000000    0.1481400000000000 C
   0.9458500000000001    0.2336800000000000    0.1165150000000000 C
   0.9396300000000000    0.1115500000000000    0.0555050000000000 C
   0.7082600000000000    0.8851400000000000    0.2071250000000000 C
   0.6484300000000001    0.8898500000000000    0.1478200000000000 C
   0.6166700000000001    0.8890900000000000    0.1162250000000000 C
   0.5555600000000001    0.8766900000000000    0.0552500000000000 C
   0.4406150000000000    0.2886300000000000    0.8312900000000000 C
   0.4241900000000000    0.2522700000000000    0.7627500000000000 C
   0.4234900000000000    0.2349400000000000    0.7999400000000000 C
   0.4425200000000000    0.3230600000000000    0.7556900000000000 C
   0.4596500000000000    0.3763800000000000    0.7874050000000000 C
   0.4585400000000000    0.3597600000000000    0.8246700000000000 C
   0.4400250000000000    0.2702000000000000    0.8711700000000000 C
   0.4409650000000000    0.0165500000000000    0.6027000000000000 C
   0.4438100000000000    0.3408900000000000    0.7160550000000000 C
   0.4454250000000000    0.2824600000000000    0.6861800000000000 C
   0.4419750000000000    0.0968800000000000    0.5935600000000000 C
   0.4451450000000000    0.1571700000000000    0.6234950000000000 C
   0.3317050000000000    0.8831599999999999    0.6432950000000000 C
   0.2632900000000000    0.8508900000000000    0.6247700000000000 C
   0.3004550000000000    0.8497300000000000    0.6161500000000000 C
   0.2561400000000000    0.8864000000000000    0.6604350000000000 C
   0.2877500000000000    0.9204300000000000    0.6872500000000000 C
   0.3249850000000000    0.9184400000000000    0.6789499999999999 C
   0.3715850000000000    0.8812000000000000    0.6343650000000001 C
   0.1026200000000000    0.8799500000000000    0.5076050000000000 C
   0.2165450000000000    0.8877000000000000    0.6695200000000000 C
   0.1864600000000000    0.8903799999999999    0.6404350000000000 C
   0.0935200000000000    0.8812800000000000    0.5477900000000000 C
   0.1234750000000000    0.8873700000000000    0.5775000000000000 C
   0.1449950000000000    0.8805800000000000    0.8311999999999999 C
   0.1267700000000000    0.8466900000000001    0.7627300000000000 C
   0.1182050000000000    0.8456900000000001    0.7999650000000000 C
   0.1620200000000000    0.8835300000000000    0.7554500000000000 C
   0.1886400000000000    0.9183800000000000    0.7871200000000000 C
   0.1804400000000000    0.9165500000000000    0.8244450000000000 C
   0.1358000000000000    0.8798300000000000    0.8711550000000000 C
   0.0082250000000000    0.8801000000000000    0.6025500000000000 C
   0.1707250000000000    0.8859800000000000    0.7157500000000000 C
   0.1413350000000000    0.8884100000000000    0.6859000000000000 C
   0.0483250000000000    0.8816500000000000    0.5933500000000000 C
   0.0784900000000000    0.8879700000000000    0.6232650000000000 C
   0.4410150000000000    0.6634100000000001    0.6439250000000000 C
   0.4250000000000000    0.5264500000000000    0.6254750000000000 C
   0.4241800000000000    0.6008300000000000    0.6168800000000000 C
   0.4431000000000000    0.5122400000000000    0.6610000000000000 C
   0.4600700000000000    0.5755400000000001    0.6878250000000000 C
   0.4588650000000000    0.6500700000000000    0.6795750000000000 C
   0.4401200000000000    0.7431500000000000    0.6348450000000000 C
   0.4410900000000000    0.2057000000000000    0.5079200000000000 C
   0.4441900000000000    0.4329800000000000    0.6699850000000001 C
   0.4458600000000000    0.3731400000000000    0.6408350000000000 C
   0.4420000000000000    0.1875900000000000    0.5481150000000000 C
   0.4451550000000000    0.2475100000000000    0.5782000000000000 C
   0.4429900000000000    0.4160400000000000    0.7075400000000001 C
   0.4460450000000000    0.2970200000000000    0.6481399999999999 C
   0.4458500000000000    0.2336800000000000    0.6165150000000000 C
   0.4396300000000000    0.1115500000000000    0.5555050000000000 C
   0.2082600000000000    0.8851400000000000    0.7071250000000000 C
   0.1484300000000000    0.8898500000000000    0.6478200000000001 C
   0.1166700000000000    0.8890900000000000    0.6162250000000000 C
   0.0555600000000000    0.8766900000000000    0.5552500000000000 C
   0.6447499999999999    0.6629600000000000    0.9403750000000000 C
   0.6265700000000000    0.5260100000000000    0.9238050000000000 C
   0.6179100000000000    0.6004100000000000    0.9231650000000000 C
   0.6619650000000000    0.5116400000000000    0.9421100000000000 C
   0.6886050000000000    0.5749200000000000    0.9593499999999999 C
   0.6803049999999999    0.6494900000000000    0.9583150000000000 C
   0.6355450000000000    0.7427500000000000    0.9397850000000000 C
   0.5085650000000000    0.2061200000000000    0.9399750000000000 C
   0.6708200000000000    0.4322800000000000    0.9433300000000000 C
   0.6415649999999999    0.3726100000000000    0.9446749999999999 C
   0.5487050000000000    0.1877700000000000    0.9408449999999999 C
   0.5788450000000001    0.2475000000000000    0.9440950000000000 C
   0.9406150000000000    0.2886300000000000    0.8312900000000000 C
   0.9241900000000001    0.2522700000000000    0.7627500000000000 C
   0.9234899999999999    0.2349400000000000    0.7999400000000000 C
   0.9425200000000000    0.3230600000000000    0.7556900000000000 C
   0.9596500000000000    0.3763800000000000    0.7874050000000000 C
   0.9585399999999999    0.3597600000000000    0.8246700000000000 C
   0.9400250000000000    0.2702000000000000    0.8711700000000000 C
   0.9409650000000001    0.0165500000000000    0.6027000000000000 C
   0.9438100000000000    0.3408900000000000    0.7160550000000000 C
   0.9454250000000000    0.2824600000000000    0.6861800000000000 C
   0.9419750000000000    0.0968800000000000    0.5935600000000000 C
   0.9451450000000000    0.1571700000000000    0.6234950000000000 C
   0.8317050000000000    0.8831599999999999    0.6432950000000000 C
   0.7632900000000000    0.8508900000000000    0.6247700000000000 C
   0.8004550000000000    0.8497300000000000    0.6161500000000000 C
   0.7561400000000000    0.8864000000000000    0.6604350000000000 C
   0.7877500000000000    0.9204300000000000    0.6872500000000000 C
   0.8249850000000001    0.9184400000000000    0.6789499999999999 C
   0.8715850000000001    0.8812000000000000    0.6343650000000001 C
   0.6026200000000000    0.8799500000000000    0.5076050000000000 C
   0.7165450000000000    0.8877000000000000    0.6695200000000000 C
   0.6864600000000000    0.8903799999999999    0.6404350000000000 C
   0.5935200000000000    0.8812800000000000    0.5477900000000000 C