H1 O1
1.0
  21.2943139352363637    0.0000000000000000    6.9892730686101014
   9.5335941632438388   33.7135360799351389    6.8032468217369724
   0.0000000000000000    0.0000000000000000   35.7520000000000024
H O
1 1
direct
   0.4116046711515259    0.6400003315589718    0.8926641498903777 H
   0.3784100000000000    0.6308300000000000    0.9143450000000000 O
