Zn80 H319 C477 N477 O319
1.0
  21.2943139352363637    0.0000000000000000    6.9892730686101014
   9.5335941632438388   33.7135360799351389    6.8032468217369724
   0.0000000000000000    0.0000000000000000   35.7520000000000024
Zn H C N O
80 319 477 477 319
direct
   0.4217500000000000    0.7859750000000000    0.5890000000000000 Zn
   0.1716300000000000    0.8394900000000001    0.5358000000000001 Zn
   0.6716200000000000    0.8394950000000000    0.5358000000000001 Zn
   0.9217400000000000    0.7859700000000001    0.5893500000000000 Zn
   0.3747600000000000    0.6249950000000000    0.6250300000000000 Zn
   0.2967600000000000    0.4104600000000000    0.7142050000000000 Zn
   0.5467700000000000    0.4639850000000000    0.6606350000000000 Zn
   0.0467800000000000    0.4639850000000000    0.6606400000000000 Zn
   0.7967400000000000    0.4104550000000000    0.7142050000000000 Zn
   0.8747400000000000    0.6249950000000000    0.6250350000000000 Zn
   0.5782200000000000    0.2140150000000000    0.9106550000000000 Zn
   0.8283300000000000    0.1605000000000000    0.9641999999999999 Zn
   0.3283500000000000    0.1604950000000000    0.9641999999999999 Zn
   0.0782200000000000    0.2140200000000000    0.9106550000000000 Zn
   0.6252100000000000    0.3749900000000000    0.8749650000000000 Zn
   0.4532000000000000    0.5360000000000000    0.8393500000000000 Zn
   0.7032100000000000    0.5895350000000000    0.7857950000000000 Zn
   0.2032200000000000    0.5895350000000000    0.7857950000000000 Zn
   0.9531900000000000    0.5360050000000000    0.8393600000000000 Zn
   0.1252300000000000    0.3749950000000000    0.8749650000000000 Zn
   0.4217500000000000    0.2859750000000000    0.0890000000000000 Zn
   0.1716300000000000    0.3394900000000000    0.0358000000000000 Zn
   0.6716200000000000    0.3394950000000000    0.0358000000000000 Zn
   0.9217400000000000    0.2859700000000000    0.0893500000000000 Zn
   0.3747600000000000    0.1249950000000000    0.1250300000000000 Zn
   0.2967600000000000    0.9104600000000000    0.2142050000000000 Zn
   0.5467700000000000    0.9639850000000000    0.1606350000000000 Zn
   0.0467800000000000    0.9639850000000000    0.1606400000000000 Zn
   0.7967400000000000    0.9104550000000000    0.2142050000000000 Zn
   0.8747400000000000    0.1249950000000000    0.1250350000000000 Zn
   0.5782200000000000    0.7140150000000001    0.4106550000000000 Zn
   0.8283300000000000    0.6605000000000000    0.4642000000000000 Zn
   0.3283500000000000    0.6604950000000001    0.4642000000000000 Zn
   0.0782200000000000    0.7140200000000000    0.4106550000000000 Zn
   0.6252100000000000    0.8749899999999999    0.3749650000000000 Zn
   0.4532000000000000    0.0360000000000000    0.3393500000000000 Zn
   0.7032100000000000    0.0895350000000000    0.2857950000000000 Zn
   0.2032200000000000    0.0895350000000000    0.2857950000000000 Zn
   0.9531900000000000    0.0360050000000000    0.3393600000000000 Zn
   0.1252300000000000    0.8749950000000000    0.3749650000000000 Zn
   0.4217500000000000    0.7859750000000000    0.0890000000000000 Zn
   0.1716300000000000    0.8394900000000001    0.0358000000000000 Zn
   0.6716200000000000    0.8394950000000000    0.0358000000000000 Zn
   0.9217400000000000    0.7859700000000001    0.0893500000000000 Zn
   0.3747600000000000    0.6249950000000000    0.1250300000000000 Zn
   0.2967600000000000    0.4104600000000000    0.2142050000000000 Zn
   0.5467700000000000    0.4639850000000000    0.1606350000000000 Zn
   0.0467800000000000    0.4639850000000000    0.1606400000000000 Zn
   0.7967400000000000    0.4104550000000000    0.2142050000000000 Zn
   0.8747400000000000    0.6249950000000000    0.1250350000000000 Zn
   0.5782200000000000    0.2140150000000000    0.4106550000000000 Zn
   0.8283300000000000    0.1605000000000000    0.4642000000000000 Zn
   0.3283500000000000    0.1604950000000000    0.4642000000000000 Zn
   0.0782200000000000    0.2140200000000000    0.4106550000000000 Zn
   0.6252100000000000    0.3749900000000000    0.3749650000000000 Zn
   0.4532000000000000    0.5360000000000000    0.3393500000000000 Zn
   0.7032100000000000    0.5895350000000000    0.2857950000000000 Zn
   0.2032200000000000    0.5895350000000000    0.2857950000000000 Zn
   0.9531900000000000    0.5360050000000000    0.3393600000000000 Zn
   0.1252300000000000    0.3749950000000000    0.3749650000000000 Zn
   0.4217500000000000    0.2859750000000000    0.5890000000000000 Zn
   0.1716300000000000    0.3394900000000000    0.5358000000000001 Zn
   0.6716200000000000    0.3394950000000000    0.5358000000000001 Zn
   0.9217400000000000    0.2859700000000000    0.5893500000000000 Zn
   0.3747600000000000    0.1249950000000000    0.6250300000000000 Zn
   0.2967600000000000    0.9104600000000000    0.7142050000000000 Zn
   0.5467700000000000    0.9639850000000000    0.6606350000000000 Zn
   0.0467800000000000    0.9639850000000000    0.6606400000000000 Zn
   0.7967400000000000    0.9104550000000000    0.7142050000000000 Zn
   0.8747400000000000    0.1249950000000000    0.6250350000000000 Zn
   0.5782200000000000    0.7140150000000001    0.9106550000000000 Zn
   0.8283300000000000    0.6605000000000000    0.9641999999999999 Zn
   0.3283500000000000    0.6604950000000001    0.9641999999999999 Zn
   0.0782200000000000    0.7140200000000000    0.9106550000000000 Zn
   0.6252100000000000    0.8749899999999999    0.8749650000000000 Zn
   0.4532000000000000    0.0360000000000000    0.8393500000000000 Zn
   0.7032100000000000    0.0895350000000000    0.7857950000000000 Zn
   0.2032200000000000    0.0895350000000000    0.7857950000000000 Zn
   0.9531900000000000    0.0360050000000000    0.8393600000000000 Zn
   0.1252300000000000    0.8749950000000000    0.8749650000000000 Zn
   0.4116046711515259    0.6400003315589718    0.8926641498903777 H
   0.4348500000000000    0.1716700000000000    0.3834500000000000 H
   0.4895200000000000    0.1171900000000000    0.3286800000000000 H
   0.4348500000000000    0.1716700000000000    0.8834500000000001 H
   0.4895200000000000    0.1171900000000000    0.8286800000000001 H
   0.4348500000000000    0.6716700000000000    0.3834500000000000 H
   0.4895200000000000    0.6171900000000000    0.3286800000000000 H
   0.0104800000000000    0.3827950000000000    0.6713300000000000 H
   0.0651400000000000    0.3283150000000000    0.6165600000000000 H
   0.0104800000000000    0.8827950000000000    0.1713300000000000 H
   0.0651400000000000    0.8283150000000000    0.1165600000000000 H
   0.9348300000000000    0.1716750000000000    0.3834450000000000 H
   0.9895000000000000    0.1171900000000000    0.3286800000000000 H
   0.9348300000000000    0.6716750000000000    0.8834450000000000 H
   0.9895000000000000    0.6171900000000000    0.8286800000000001 H
   0.5104500000000000    0.3828000000000000    0.6713249999999999 H
   0.5651200000000000    0.3283200000000000    0.6165550000000000 H
   0.5104500000000000    0.8828000000000000    0.1713250000000000 H
   0.5651200000000000    0.8283199999999999    0.1165550000000000 H
   0.7400000000000000    0.0785600000000000    0.3666200000000000 H
   0.6849900000000000    0.1329000000000000    0.4215200000000000 H
   0.7400000000000000    0.5785600000000000    0.8666199999999999 H
   0.6849900000000000    0.6329000000000000    0.9215200000000000 H
   0.7599399999999999    0.9214350000000000    0.1333800000000000 H
   0.8149600000000000    0.8670900000000000    0.0784800000000000 H
   0.2599600000000000    0.9214350000000000    0.1333800000000000 H
   0.3149700000000000    0.8670900000000000    0.0784800000000000 H
   0.1850000000000000    0.1329000000000000    0.4215250000000000 H
   0.2400200000000000    0.0785550000000000    0.3666250000000000 H
   0.2599600000000000    0.4214350000000000    0.6333800000000001 H
   0.3149700000000000    0.3670900000000000    0.5784800000000000 H
   0.1850000000000000    0.6329000000000000    0.9215249999999999 H
   0.2400200000000000    0.5785550000000000    0.8666250000000000 H
   0.7599399999999999    0.4214350000000000    0.6333800000000001 H
   0.8149600000000000    0.3670900000000000    0.5784800000000000 H
   0.3774000000000000    0.6689750000000000    0.6967550000000000 H
   0.4051900000000000    0.7419800000000000    0.6803049999999999 H
   0.1728500000000000    0.6806099999999999    0.7416800000000000 H
   0.2567000000000000    0.6969250000000000    0.6686850000000000 H
   0.8271300000000000    0.3193750000000000    0.7583250000000000 H
   0.7432800000000001    0.3030600000000000    0.8313200000000001 H
   0.3271500000000000    0.3193800000000000    0.7583250000000000 H
   0.2433000000000000    0.3030650000000000    0.8313200000000001 H
   0.1551100000000000    0.9306050000000000    0.4917500000000000 H
   0.1281900000000000    0.9469550000000000    0.4185850000000000 H
   0.6550900000000000    0.9306099999999999    0.4917500000000000 H
   0.6281700000000000    0.9469600000000000    0.4185850000000000 H
   0.9051600000000000    0.7419750000000001    0.6803049999999999 H
   0.8773800000000000    0.6689750000000000    0.6967550000000000 H
   0.6742500000000000    0.7486100000000000    0.5593550000000000 H
   0.5590800000000000    0.7252000000000001    0.5859000000000000 H
   0.4240700000000000    0.8097099999999999    0.4987350000000000 H
   0.3088800000000000    0.8362600000000000    0.4752950000000000 H
   0.9240600000000000    0.8097099999999999    0.4987350000000000 H
   0.8088700000000000    0.8362650000000000    0.4752950000000000 H
   0.1742600000000000    0.7486100000000000    0.5593500000000000 H
   0.0591000000000000    0.7251950000000000    0.5859100000000000 H
   0.6728200000000000    0.6806099999999999    0.7416750000000000 H
   0.7566800000000000    0.6969200000000000    0.6686799999999999 H
   0.5764600000000000    0.5079300000000000    0.5696500000000000 H
   0.4924800000000000    0.5810649999999999    0.5532750000000000 H
   0.0764600000000000    0.5079250000000000    0.5696500000000000 H
   0.9924600000000000    0.5810600000000000    0.5532500000000000 H
   0.4825400000000000    0.4403200000000000    0.7513200000000000 H
   0.3704100000000000    0.4138800000000000    0.7747950000000000 H
   0.7323600000000000    0.5014000000000000    0.6904350000000000 H
   0.6202299999999999    0.5248300000000000    0.6639200000000001 H
   0.2323700000000000    0.5014000000000000    0.6904300000000000 H
   0.1202400000000000    0.5248300000000000    0.6639150000000000 H
   0.9825199999999999    0.4403200000000000    0.7513200000000000 H
   0.8703900000000000    0.4138850000000000    0.7747950000000000 H
   0.8448600000000001    0.0693850000000000    0.0082500000000000 H
   0.8717700000000000    0.0530300000000000    0.0814150000000000 H
   0.0948100000000000    0.2580100000000000    0.8196950000000001 H
   0.1225900000000000    0.3310150000000000    0.8032450000000000 H
   0.5947900000000000    0.2580100000000000    0.8196950000000001 H
   0.6225700000000000    0.3310150000000000    0.8032450000000000 H
   0.3448700000000000    0.0693800000000000    0.0082500000000000 H
   0.3717900000000000    0.0530300000000000    0.0814150000000000 H
   0.3257200000000000    0.2513750000000000    0.9406399999999999 H
   0.4408800000000000    0.2747900000000000    0.9141000000000000 H
   0.5758900000000000    0.1902850000000000    0.0012700000000000 H
   0.6910800000000000    0.1637300000000000    0.0247100000000000 H
   0.0759100000000000    0.1902800000000000    0.0012700000000000 H
   0.1910900000000000    0.1637300000000000    0.0247100000000000 H
   0.8257100000000001    0.2513800000000000    0.9406350000000000 H
   0.9408600000000000    0.2747950000000000    0.9140950000000000 H
   0.4235100000000000    0.4920600000000000    0.9303450000000000 H
   0.5074900000000000    0.4189250000000000    0.9467250000000000 H
   0.9235000000000000    0.4920600000000000    0.9303000000000000 H
   0.0075100000000000    0.4189300000000000    0.9467250000000000 H
   0.2676100000000000    0.4985900000000000    0.8095650000000000 H
   0.3797400000000000    0.4751600000000000    0.8360750000000000 H
   0.5174200000000000    0.5596750000000000    0.7486800000000000 H
   0.6295500000000001    0.5861149999999999    0.7252050000000000 H
   0.0174300000000000    0.5596750000000000    0.7486800000000000 H
   0.1295700000000000    0.5861100000000000    0.7252050000000000 H
   0.7675999999999999    0.4985900000000000    0.8095700000000000 H
   0.8797199999999999    0.4751600000000000    0.8360799999999999 H
   0.3774000000000000    0.1689750000000000    0.1967550000000000 H
   0.4051900000000000    0.2419800000000000    0.1803050000000000 H
   0.1728500000000000    0.1806100000000000    0.2416800000000000 H
   0.2567000000000000    0.1969250000000000    0.1686850000000000 H
   0.3271500000000000    0.8193800000000000    0.2583250000000000 H
   0.2433000000000000    0.8030649999999999    0.3313200000000000 H
   0.8271300000000000    0.8193750000000000    0.2583250000000000 H
   0.7432800000000001    0.8030600000000000    0.3313200000000000 H
   0.1551100000000000    0.4306050000000000    0.9917500000000000 H
   0.1281900000000000    0.4469550000000000    0.9185850000000000 H
   0.6550900000000000    0.4306100000000000    0.9917500000000000 H
   0.6281700000000000    0.4469600000000000    0.9185850000000000 H
   0.9051600000000000    0.2419750000000000    0.1803050000000000 H
   0.8773800000000000    0.1689750000000000    0.1967550000000000 H
   0.6742500000000000    0.2486100000000000    0.0593550000000000 H
   0.5590800000000000    0.2252000000000000    0.0859000000000000 H
   0.4240700000000000    0.3097100000000000    0.9987349999999999 H
   0.3088800000000000    0.3362600000000000    0.9752950000000000 H
   0.9240600000000000    0.3097100000000000    0.9987349999999999 H
   0.8088700000000000    0.3362650000000000    0.9752950000000000 H
   0.1742600000000000    0.2486100000000000    0.0593500000000000 H
   0.0591000000000000    0.2251950000000000    0.0859100000000000 H
   0.6728200000000000    0.1806100000000000    0.2416750000000000 H
   0.7566800000000000    0.1969200000000000    0.1686800000000000 H
   0.5764600000000000    0.0079300000000000    0.0696500000000000 H
   0.4924800000000000    0.0810650000000000    0.0532750000000000 H
   0.0764600000000000    0.0079250000000000    0.0696500000000000 H
   0.9924600000000000    0.0810600000000000    0.0532500000000000 H
   0.4825400000000000    0.9403200000000000    0.2513200000000000 H
   0.3704100000000000    0.9138800000000000    0.2747950000000000 H
   0.7323600000000000    0.0014000000000000    0.1904350000000000 H
   0.6202299999999999    0.0248300000000000    0.1639200000000000 H
   0.2323700000000000    0.0014000000000000    0.1904300000000000 H
   0.1202400000000000    0.0248300000000000    0.1639150000000000 H
   0.9825199999999999    0.9403200000000000    0.2513200000000000 H
   0.8703900000000000    0.9138850000000001    0.2747950000000000 H
   0.8448600000000001    0.5693850000000000    0.5082500000000000 H
   0.8717700000000000    0.5530300000000000    0.5814150000000000 H
   0.0948100000000000    0.7580100000000001    0.3196950000000000 H
   0.1225900000000000    0.8310150000000001    0.3032450000000000 H
   0.5947900000000000    0.7580100000000001    0.3196950000000000 H
   0.6225700000000000    0.8310150000000001    0.3032450000000000 H
   0.3448700000000000    0.5693800000000000    0.5082500000000000 H
   0.3717900000000000    0.5530300000000000    0.5814150000000000 H
   0.3257200000000000    0.7513750000000000    0.4406400000000000 H
   0.4408800000000000    0.7747900000000000    0.4141000000000000 H
   0.5758900000000000    0.6902850000000000    0.5012700000000000 H
   0.6910800000000000    0.6637299999999999    0.5247100000000000 H
   0.0759100000000000    0.6902800000000000    0.5012700000000000 H
   0.1910900000000000    0.6637299999999999    0.5247100000000000 H
   0.8257100000000001    0.7513799999999999    0.4406350000000000 H
   0.9408600000000000    0.7747950000000000    0.4140950000000000 H
   0.4235100000000000    0.9920599999999999    0.4303450000000000 H
   0.5074900000000000    0.9189250000000000    0.4467250000000000 H
   0.9235000000000000    0.9920599999999999    0.4303000000000000 H
   0.0075100000000000    0.9189300000000000    0.4467250000000000 H
   0.2676100000000000    0.9985900000000000    0.3095650000000000 H
   0.3797400000000000    0.9751600000000000    0.3360750000000000 H
   0.5174200000000000    0.0596750000000000    0.2486800000000000 H
   0.6295500000000001    0.0861150000000000    0.2252050000000000 H
   0.0174300000000000    0.0596750000000000    0.2486800000000000 H
   0.1295700000000000    0.0861100000000000    0.2252050000000000 H
   0.7675999999999999    0.9985900000000000    0.3095700000000000 H
   0.8797199999999999    0.9751600000000000    0.3360800000000000 H
   0.0104800000000000    0.3827950000000000    0.1713300000000000 H
   0.0651400000000000    0.3283150000000000    0.1165600000000000 H
   0.0104800000000000    0.8827950000000000    0.6713300000000000 H
   0.0651400000000000    0.8283150000000000    0.6165600000000000 H
   0.9348300000000000    0.1716750000000000    0.8834450000000000 H
   0.9895000000000000    0.1171900000000000    0.8286800000000001 H
   0.9348300000000000    0.6716750000000000    0.3834450000000000 H
   0.9895000000000000    0.6171900000000000    0.3286800000000000 H
   0.5104500000000000    0.3828000000000000    0.1713250000000000 H
   0.5651200000000000    0.3283200000000000    0.1165550000000000 H
   0.5104500000000000    0.8828000000000000    0.6713249999999999 H
   0.5651200000000000    0.8283199999999999    0.6165550000000000 H
   0.7400000000000000    0.5785600000000000    0.3666200000000000 H
   0.6849900000000000    0.6329000000000000    0.4215200000000000 H
   0.7400000000000000    0.0785600000000000    0.8666199999999999 H
   0.6849900000000000    0.1329000000000000    0.9215200000000000 H
   0.2599600000000000    0.9214350000000000    0.6333800000000001 H
   0.3149700000000000    0.8670900000000000    0.5784800000000000 H
   0.1850000000000000    0.1329000000000000    0.9215249999999999 H
   0.2400200000000000    0.0785550000000000    0.8666250000000000 H
   0.1850000000000000    0.6329000000000000    0.4215250000000000 H
   0.2400200000000000    0.5785550000000000    0.3666250000000000 H
   0.7599399999999999    0.4214350000000000    0.1333800000000000 H
   0.8149600000000000    0.3670900000000000    0.0784800000000000 H
   0.2599600000000000    0.4214350000000000    0.1333800000000000 H
   0.3149700000000000    0.3670900000000000    0.0784800000000000 H
   0.7599399999999999    0.9214350000000000    0.6333800000000001 H
   0.8149600000000000    0.8670900000000000    0.5784800000000000 H
   0.3774000000000000    0.6689750000000000    0.1967550000000000 H
   0.4051900000000000    0.7419800000000000    0.1803050000000000 H
   0.1728500000000000    0.6806099999999999    0.2416800000000000 H
   0.2567000000000000    0.6969250000000000    0.1686850000000000 H
   0.8271300000000000    0.3193750000000000    0.2583250000000000 H
   0.7432800000000001    0.3030600000000000    0.3313200000000000 H
   0.3271500000000000    0.3193800000000000    0.2583250000000000 H
   0.2433000000000000    0.3030650000000000    0.3313200000000000 H
   0.1551100000000000    0.9306050000000000    0.9917500000000000 H
   0.1281900000000000    0.9469550000000000    0.9185850000000000 H
   0.6550900000000000    0.9306099999999999    0.9917500000000000 H
   0.6281700000000000    0.9469600000000000    0.9185850000000000 H
   0.9051600000000000    0.7419750000000001    0.1803050000000000 H
   0.8773800000000000    0.6689750000000000    0.1967550000000000 H
   0.6742500000000000    0.7486100000000000    0.0593550000000000 H
   0.5590800000000000    0.7252000000000001    0.0859000000000000 H
   0.4240700000000000    0.8097099999999999    0.9987349999999999 H
   0.3088800000000000    0.8362600000000000    0.9752950000000000 H
   0.9240600000000000    0.8097099999999999    0.9987349999999999 H
   0.8088700000000000    0.8362650000000000    0.9752950000000000 H
   0.1742600000000000    0.7486100000000000    0.0593500000000000 H
   0.0591000000000000    0.7251950000000000    0.0859100000000000 H
   0.6728200000000000    0.6806099999999999    0.2416750000000000 H
   0.7566800000000000    0.6969200000000000    0.1686800000000000 H
   0.5764600000000000    0.5079300000000000    0.0696500000000000 H
   0.4924800000000000    0.5810649999999999    0.0532750000000000 H
   0.0764600000000000    0.5079250000000000    0.0696500000000000 H
   0.9924600000000000    0.5810600000000000    0.0532500000000000 H
   0.4825400000000000    0.4403200000000000    0.2513200000000000 H
   0.3704100000000000    0.4138800000000000    0.2747950000000000 H
   0.7323600000000000    0.5014000000000000    0.1904350000000000 H
   0.6202299999999999    0.5248300000000000    0.1639200000000000 H
   0.2323700000000000    0.5014000000000000    0.1904300000000000 H
   0.1202400000000000    0.5248300000000000    0.1639150000000000 H
   0.9825199999999999    0.4403200000000000    0.2513200000000000 H
   0.8703900000000000    0.4138850000000000    0.2747950000000000 H
   0.8448600000000001    0.0693850000000000    0.5082500000000000 H
   0.8717700000000000    0.0530300000000000    0.5814150000000000 H
   0.0948100000000000    0.2580100000000000    0.3196950000000000 H
   0.1225900000000000    0.3310150000000000    0.3032450000000000 H
   0.5947900000000000    0.2580100000000000    0.3196950000000000 H
   0.6225700000000000    0.3310150000000000    0.3032450000000000 H
   0.3448700000000000    0.0693800000000000    0.5082500000000000 H
   0.3717900000000000    0.0530300000000000    0.5814150000000000 H
   0.3257200000000000    0.2513750000000000    0.4406400000000000 H
   0.4408800000000000    0.2747900000000000    0.4141000000000000 H
   0.5758900000000000    0.1902850000000000    0.5012700000000000 H
   0.6910800000000000    0.1637300000000000    0.5247100000000000 H
   0.0759100000000000    0.1902800000000000    0.5012700000000000 H
   0.1910900000000000    0.1637300000000000    0.5247100000000000 H
   0.8257100000000001    0.2513800000000000    0.4406350000000000 H
   0.9408600000000000    0.2747950000000000    0.4140950000000000 H
   0.4235100000000000    0.4920600000000000    0.4303450000000000 H
   0.5074900000000000    0.4189250000000000    0.4467250000000000 H
   0.9235000000000000    0.4920600000000000    0.4303000000000000 H
   0.0075100000000000    0.4189300000000000    0.4467250000000000 H
   0.2676100000000000    0.4985900000000000    0.3095650000000000 H
   0.3797400000000000    0.4751600000000000    0.3360750000000000 H
   0.5174200000000000    0.5596750000000000    0.2486800000000000 H
   0.6295500000000001    0.5861149999999999    0.2252050000000000 H
   0.0174300000000000    0.5596750000000000    0.2486800000000000 H
   0.1295700000000000    0.5861100000000000    0.2252050000000000 H
   0.7675999999999999    0.4985900000000000    0.3095700000000000 H
   0.8797199999999999    0.4751600000000000    0.3360800000000000 H
   0.3774000000000000    0.1689750000000000    0.6967550000000000 H
   0.4051900000000000    0.2419800000000000    0.6803049999999999 H
   0.1728500000000000    0.1806100000000000    0.7416800000000000 H
   0.2567000000000000    0.1969250000000000    0.6686850000000000 H
   0.8271300000000000    0.8193750000000000    0.7583250000000000 H
   0.7432800000000001    0.8030600000000000    0.8313200000000001 H
   0.3271500000000000    0.8193800000000000    0.7583250000000000 H
   0.2433000000000000    0.8030649999999999    0.8313200000000001 H
   0.1551100000000000    0.4306050000000000    0.4917500000000000 H
   0.1281900000000000    0.4469550000000000    0.4185850000000000 H
   0.6550900000000000    0.4306100000000000    0.4917500000000000 H
   0.6281700000000000    0.4469600000000000    0.4185850000000000 H
   0.9051600000000000    0.2419750000000000    0.6803049999999999 H
   0.8773800000000000    0.1689750000000000    0.6967550000000000 H
   0.6742500000000000    0.2486100000000000    0.5593550000000000 H
   0.5590800000000000    0.2252000000000000    0.5859000000000000 H
   0.4240700000000000    0.3097100000000000    0.4987350000000000 H
   0.3088800000000000    0.3362600000000000    0.4752950000000000 H
   0.9240600000000000    0.3097100000000000    0.4987350000000000 H
   0.8088700000000000    0.3362650000000000    0.4752950000000000 H
   0.1742600000000000    0.2486100000000000    0.5593500000000000 H
   0.0591000000000000    0.2251950000000000    0.5859100000000000 H
   0.6728200000000000    0.1806100000000000    0.7416750000000000 H
   0.7566800000000000    0.1969200000000000    0.6686799999999999 H
   0.5764600000000000    0.0079300000000000    0.5696500000000000 H
   0.4924800000000000    0.0810650000000000    0.5532750000000000 H
   0.0764600000000000    0.0079250000000000    0.5696500000000000 H
   0.9924600000000000    0.0810600000000000    0.5532500000000000 H
   0.4825400000000000    0.9403200000000000    0.7513200000000000 H
   0.3704100000000000    0.9138800000000000    0.7747950000000000 H
   0.7323600000000000    0.0014000000000000    0.6904350000000000 H
   0.6202299999999999    0.0248300000000000    0.6639200000000001 H
   0.2323700000000000    0.0014000000000000    0.6904300000000000 H
   0.1202400000000000    0.0248300000000000    0.6639150000000000 H
   0.9825199999999999    0.9403200000000000    0.7513200000000000 H
   0.8703900000000000    0.9138850000000001    0.7747950000000000 H
   0.8448600000000001    0.5693850000000000    0.0082500000000000 H
   0.8717700000000000    0.5530300000000000    0.0814150000000000 H
   0.0948100000000000    0.7580100000000001    0.8196950000000001 H
   0.1225900000000000    0.8310150000000001    0.8032450000000000 H
   0.5947900000000000    0.7580100000000001    0.8196950000000001 H
   0.6225700000000000    0.8310150000000001    0.8032450000000000 H
   0.3448700000000000    0.5693800000000000    0.0082500000000000 H
   0.3717900000000000    0.5530300000000000    0.0814150000000000 H
   0.3257200000000000    0.7513750000000000    0.9406399999999999 H
   0.4408800000000000    0.7747900000000000    0.9141000000000000 H
   0.5758900000000000    0.6902850000000000    0.0012700000000000 H
   0.6910800000000000    0.6637299999999999    0.0247100000000000 H
   0.0759100000000000    0.6902800000000000    0.0012700000000000 H
   0.1910900000000000    0.6637299999999999    0.0247100000000000 H
   0.8257100000000001    0.7513799999999999    0.9406350000000000 H
   0.9408600000000000    0.7747950000000000    0.9140950000000000 H
   0.4235100000000000    0.9920599999999999    0.9303450000000000 H
   0.5074900000000000    0.9189250000000000    0.9467250000000000 H
   0.9235000000000000    0.9920599999999999    0.9303000000000000 H
   0.0075100000000000    0.9189300000000000    0.9467250000000000 H
   0.2676100000000000    0.9985900000000000    0.8095650000000000 H
   0.3797400000000000    0.9751600000000000    0.8360750000000000 H
   0.5174200000000000    0.0596750000000000    0.7486800000000000 H
   0.6295500000000001    0.0861150000000000    0.7252050000000000 H
   0.0174300000000000    0.0596750000000000    0.7486800000000000 H
   0.1295700000000000    0.0861100000000000    0.7252050000000000 H
   0.7675999999999999    0.9985900000000000    0.8095700000000000 H
   0.8797199999999999    0.9751600000000000    0.8360799999999999 H
   0.4248700000000000    0.1436650000000000    0.3840000000000000 C
   0.4525100000000000    0.1161200000000000    0.3565950000000000 C
   0.3790200000000000    0.0962600000000000    0.4036850000000000 C
   0.4248700000000000    0.1436650000000000    0.8840000000000000 C
   0.4525100000000000    0.1161200000000000    0.8565950000000000 C
   0.3790200000000000    0.0962600000000000    0.9036850000000001 C
   0.4248700000000000    0.6436649999999999    0.3840000000000000 C
   0.4525100000000000    0.6161200000000000    0.3565950000000000 C
   0.3790200000000000    0.5962600000000000    0.4036850000000000 C
   0.0474700000000000    0.3838600000000000    0.6434100000000000 C
   0.0751200000000000    0.3563200000000000    0.6157100000000000 C
   0.1209600000000000    0.4037250000000000    0.5963000000000001 C
   0.0474700000000000    0.8838600000000000    0.1434100000000000 C
   0.0751200000000000    0.8563200000000000    0.1157100000000000 C
   0.1209600000000000    0.9037250000000000    0.0963000000000000 C
   0.9248499999999999    0.1436700000000000    0.3842950000000000 C
   0.9524899999999999    0.1161250000000000    0.3565900000000000 C
   0.8790100000000000    0.0962650000000000    0.4036850000000000 C
   0.9248499999999999    0.6436700000000000    0.8842950000000001 C
   0.9524899999999999    0.6161250000000000    0.8565900000000000 C
   0.8790100000000000    0.5962650000000000    0.9036850000000001 C
   0.5474599999999999    0.3838650000000000    0.6434100000000000 C
   0.5750999999999999    0.3563250000000000    0.6157049999999999 C
   0.6209400000000000    0.4037300000000000    0.5963150000000000 C
   0.5474599999999999    0.8838650000000000    0.1434100000000000 C
   0.5750999999999999    0.8563250000000000    0.1157050000000000 C
   0.6209400000000000    0.9037299999999999    0.0963150000000000 C
   0.7027900000000000    0.1064950000000000    0.3657600000000000 C
   0.6749500000000000    0.1339700000000000    0.3935300000000000 C
   0.6288899999999999    0.1537700000000000    0.3462600000000000 C
   0.7027900000000000    0.6064950000000000    0.8657600000000000 C
   0.6749500000000000    0.6339700000000000    0.8935299999999999 C
   0.6288899999999999    0.6537700000000000    0.8462600000000000 C
   0.7971500000000000    0.8934900000000000    0.1342450000000000 C
   0.8249900000000000    0.8660150000000000    0.1064750000000000 C
   0.8710400000000000    0.8462149999999999    0.1537500000000000 C
   0.2971600000000000    0.8934949999999999    0.1342450000000000 C