H2 C3 N3 O2
1.0
  21.2943139352363637    0.0000000000000000    6.9892730686101014
   9.5335941632438388   33.7135360799351389    6.8032468217369724
   0.0000000000000000    0.0000000000000000   35.7520000000000024
H C N O
2 3 3 2
direct
   0.4348500000000000    0.6716700000000000    0.8834500000000001 H
   0.4895200000000000    0.6171900000000000    0.8286800000000001 H
   0.4248700000000000    0.6436649999999999    0.8840000000000000 C
   0.4525100000000000    0.6161200000000000    0.8565950000000000 C
   0.3790200000000000    0.5962600000000000    0.9036850000000001 C
   0.3784100000000000    0.6308300000000000    0.9143450000000000 N
   0.4235100000000000    0.5858850000000000    0.8691200000000000 N
   0.3333333333333333    0.5746300000000000    0.9249950000000000 N
   0.2921500000000000    0.5876800000000000    0.9558100000000000 O
   0.3359500000000000    0.5440400000000000    0.9114000000000000 O
