C1 N1
1.0
  35.1696350956505341    0.0000000000000000   -3.4862201936748032
  -1.4810551350201493   26.3359790035462353   -2.6109821642060873
   0.0000000000000000    0.0000000000000000   13.7029999999999994
C N
1 1
direct
   0.2082650000000000    0.4512900000000000    0.4774600000000000 C
   0.1805050000000000    0.4236200000000000    0.4626600000000000 N
