Ca48 Fe24 H96 C47 N47 O48
1.0
  35.1696350956505341    0.0000000000000000   -3.4862201936748032
  -1.4810551350201493   26.3359790035462353   -2.6109821642060873
   0.0000000000000000    0.0000000000000000   13.7029999999999994
Ca Fe H C N O
48 24 96 47 47 48
direct
   0.2121225000000000    0.1747900000000000    0.1036400000000000 Ca
   0.1310825000000000    0.2828200000000000    0.6036300000000000 Ca
   0.0378600000000000    0.1585266666666666    0.8963700000000000 Ca
   0.1188975000000000    0.0505000000000000    0.3963800000000000 Ca
   0.4621225000000000    0.1747900000000000    0.1036400000000000 Ca
   0.3810825000000000    0.2828200000000000    0.6036300000000000 Ca
   0.2878600000000000    0.1585266666666666    0.8963700000000000 Ca
   0.3688975000000000    0.0505000000000000    0.3963800000000000 Ca
   0.7121225000000000    0.1747900000000000    0.1036400000000000 Ca
   0.6310825000000000    0.2828200000000000    0.6036300000000000 Ca
   0.5378600000000000    0.1585266666666666    0.8963700000000000 Ca
   0.6188975000000000    0.0505000000000000    0.3963800000000000 Ca
   0.9621225000000000    0.1747900000000000    0.1036400000000000 Ca
   0.8810825000000000    0.2828200000000000    0.6036300000000000 Ca
   0.7878600000000000    0.1585266666666666    0.8963700000000000 Ca
   0.8688975000000000    0.0505000000000000    0.3963800000000000 Ca
   0.2121225000000000    0.5081233333333333    0.1036400000000000 Ca
   0.1310825000000000    0.6161533333333333    0.6036300000000000 Ca
   0.0378600000000000    0.4918600000000000    0.8963700000000000 Ca
   0.1188975000000000    0.3838333333333333    0.3963800000000000 Ca
   0.4621225000000000    0.5081233333333333    0.1036400000000000 Ca
   0.3810825000000000    0.6161533333333333    0.6036300000000000 Ca
   0.2878600000000000    0.4918600000000000    0.8963700000000000 Ca
   0.3688975000000000    0.3838333333333333    0.3963800000000000 Ca
   0.7121225000000000    0.5081233333333333    0.1036400000000000 Ca
   0.6310825000000000    0.6161533333333333    0.6036300000000000 Ca
   0.5378600000000000    0.4918600000000000    0.8963700000000000 Ca
   0.6188975000000000    0.3838333333333333    0.3963800000000000 Ca
   0.9621225000000000    0.5081233333333333    0.1036400000000000 Ca
   0.8810825000000000    0.6161533333333333    0.6036300000000000 Ca
   0.7878600000000000    0.4918600000000000    0.8963700000000000 Ca
   0.8688975000000000    0.3838333333333333    0.3963800000000000 Ca
   0.2121225000000000    0.8414566666666666    0.1036400000000000 Ca
   0.1310825000000000    0.9494866666666666    0.6036300000000000 Ca
   0.0378600000000000    0.8251933333333332    0.8963700000000000 Ca
   0.1188975000000000    0.7171666666666666    0.3963800000000000 Ca
   0.4621225000000000    0.8414566666666666    0.1036400000000000 Ca
   0.3810825000000000    0.9494866666666666    0.6036300000000000 Ca
   0.2878600000000000    0.8251933333333332    0.8963700000000000 Ca
   0.3688975000000000    0.7171666666666666    0.3963800000000000 Ca
   0.7121225000000000    0.8414566666666666    0.1036400000000000 Ca
   0.6310825000000000    0.9494866666666666    0.6036300000000000 Ca
   0.5378600000000000    0.8251933333333332    0.8963700000000000 Ca
   0.6188975000000000    0.7171666666666666    0.3963800000000000 Ca
   0.9621225000000000    0.8414566666666666    0.1036400000000000 Ca
   0.8810825000000000    0.9494866666666666    0.6036300000000000 Ca
   0.7878600000000000    0.8251933333333332    0.8963700000000000 Ca
   0.8688975000000000    0.7171666666666666    0.3963800000000000 Ca
   0.2499925000000000    0.1666600000000000    0.5000100000000000 Fe
   0.1249875000000000    0.3333199999999999    0.0000000000000000 Fe
   0.4999925000000000    0.1666600000000000    0.5000100000000000 Fe
   0.3749875000000000    0.3333199999999999    0.0000000000000000 Fe
   0.7499925000000001    0.1666600000000000    0.5000100000000000 Fe
   0.6249875000000000    0.3333199999999999    0.0000000000000000 Fe
   0.9999925000000001    0.1666600000000000    0.5000100000000000 Fe
   0.8749875000000000    0.3333199999999999    0.0000000000000000 Fe
   0.2499925000000000    0.4999933333333333    0.5000100000000000 Fe
   0.1249875000000000    0.6666533333333333    0.0000000000000000 Fe
   0.4999925000000000    0.4999933333333333    0.5000100000000000 Fe
   0.3749875000000000    0.6666533333333333    0.0000000000000000 Fe
   0.7499925000000001    0.4999933333333333    0.5000100000000000 Fe
   0.6249875000000000    0.6666533333333333    0.0000000000000000 Fe
   0.9999925000000001    0.4999933333333333    0.5000100000000000 Fe
   0.8749875000000000    0.6666533333333333    0.0000000000000000 Fe
   0.2499925000000000    0.8333266666666665    0.5000100000000000 Fe
   0.1249875000000000    0.9999866666666666    0.0000000000000000 Fe
   0.4999925000000000    0.8333266666666665    0.5000100000000000 Fe
   0.3749875000000000    0.9999866666666666    0.0000000000000000 Fe
   0.7499925000000001    0.8333266666666665    0.5000100000000000 Fe
   0.6249875000000000    0.9999866666666666    0.0000000000000000 Fe
   0.9999925000000001    0.8333266666666665    0.5000100000000000 Fe
   0.8749875000000000    0.9999866666666666    0.0000000000000000 Fe
   0.0789175000000000    0.0347433333333333    0.5580700000000000 H
   0.1182975000000000    0.0612066666666667    0.6140700000000000 H
   0.2239475000000000    0.2280966666666666    0.9418800000000001 H
   0.2040800000000000    0.1755833333333333    0.8859600000000000 H
   0.1710675000000000    0.2985833333333333    0.4419400000000000 H
   0.1316875000000000    0.2721200000000000    0.3859400000000000 H
   0.0260375000000000    0.1052300000000000    0.0581300000000000 H
   0.0459050000000000    0.1577433333333333    0.1140500000000000 H
   0.3289175000000000    0.0347433333333333    0.5580700000000000 H
   0.3682975000000000    0.0612066666666667    0.6140700000000000 H
   0.4739475000000000    0.2280966666666666    0.9418800000000001 H
   0.4540800000000000    0.1755833333333333    0.8859600000000000 H
   0.4210675000000000    0.2985833333333333    0.4419400000000000 H
   0.3816875000000000    0.2721200000000000    0.3859400000000000 H
   0.2760375000000000    0.1052300000000000    0.0581300000000000 H
   0.2959050000000000    0.1577433333333333    0.1140500000000000 H
   0.5789175000000000    0.0347433333333333    0.5580700000000000 H
   0.6182974999999999    0.0612066666666667    0.6140700000000000 H
   0.7239475000000000    0.2280966666666666    0.9418800000000001 H
   0.7040800000000000    0.1755833333333333    0.8859600000000000 H
   0.6710675000000000    0.2985833333333333    0.4419400000000000 H
   0.6316875000000000    0.2721200000000000    0.3859400000000000 H
   0.5260375000000000    0.1052300000000000    0.0581300000000000 H
   0.5459050000000000    0.1577433333333333    0.1140500000000000 H
   0.8289175000000000    0.0347433333333333    0.5580700000000000 H
   0.8682974999999999    0.0612066666666667    0.6140700000000000 H
   0.9739475000000000    0.2280966666666666    0.9418800000000001 H
   0.9540800000000000    0.1755833333333333    0.8859600000000000 H
   0.9210675000000000    0.2985833333333333    0.4419400000000000 H
   0.8816875000000000    0.2721200000000000    0.3859400000000000 H
   0.7760375000000000    0.1052300000000000    0.0581300000000000 H
   0.7959050000000000    0.1577433333333333    0.1140500000000000 H
   0.0789175000000000    0.3680766666666667    0.5580700000000000 H
   0.1182975000000000    0.3945400000000000    0.6140700000000000 H
   0.2239475000000000    0.5614300000000000    0.9418800000000001 H
   0.2040800000000000    0.5089166666666667    0.8859600000000000 H
   0.1710675000000000    0.6319166666666667    0.4419400000000000 H
   0.1316875000000000    0.6054533333333333    0.3859400000000000 H
   0.0260375000000000    0.4385633333333333    0.0581300000000000 H
   0.0459050000000000    0.4910766666666666    0.1140500000000000 H
   0.3289175000000000    0.3680766666666667    0.5580700000000000 H
   0.3682975000000000    0.3945400000000000    0.6140700000000000 H
   0.4739475000000000    0.5614300000000000    0.9418800000000001 H
   0.4540800000000000    0.5089166666666667    0.8859600000000000 H
   0.4210675000000000    0.6319166666666667    0.4419400000000000 H
   0.3816875000000000    0.6054533333333333    0.3859400000000000 H
   0.2760375000000000    0.4385633333333333    0.0581300000000000 H
   0.2959050000000000    0.4910766666666666    0.1140500000000000 H
   0.5789175000000000    0.3680766666666667    0.5580700000000000 H
   0.6182974999999999    0.3945400000000000    0.6140700000000000 H
   0.7239475000000000    0.5614300000000000    0.9418800000000001 H
   0.7040800000000000    0.5089166666666667    0.8859600000000000 H
   0.6710675000000000    0.6319166666666667    0.4419400000000000 H
   0.6316875000000000    0.6054533333333333    0.3859400000000000 H
   0.5260375000000000    0.4385633333333333    0.0581300000000000 H
   0.5459050000000000    0.4910766666666666    0.1140500000000000 H
   0.8289175000000000    0.3680766666666667    0.5580700000000000 H
   0.8682974999999999    0.3945400000000000    0.6140700000000000 H
   0.9739475000000000    0.5614300000000000    0.9418800000000001 H
   0.9540800000000000    0.5089166666666667    0.8859600000000000 H
   0.9210675000000000    0.6319166666666667    0.4419400000000000 H
   0.8816875000000000    0.6054533333333333    0.3859400000000000 H
   0.7760375000000000    0.4385633333333333    0.0581300000000000 H
   0.7959050000000000    0.4910766666666666    0.1140500000000000 H
   0.0789175000000000    0.7014100000000000    0.5580700000000000 H
   0.1182975000000000    0.7278733333333333    0.6140700000000000 H
   0.2239475000000000    0.8947633333333332    0.9418800000000001 H
   0.2040800000000000    0.8422499999999999    0.8859600000000000 H
   0.1710675000000000    0.9652499999999999    0.4419400000000000 H
   0.1316875000000000    0.9387866666666667    0.3859400000000000 H
   0.0260375000000000    0.7718966666666667    0.0581300000000000 H
   0.0459050000000000    0.8244100000000000    0.1140500000000000 H
   0.3289175000000000    0.7014100000000000    0.5580700000000000 H
   0.3682975000000000    0.7278733333333333    0.6140700000000000 H
   0.4739475000000000    0.8947633333333332    0.9418800000000001 H
   0.4540800000000000    0.8422499999999999    0.8859600000000000 H
   0.4210675000000000    0.9652499999999999    0.4419400000000000 H
   0.3816875000000000    0.9387866666666667    0.3859400000000000 H
   0.2760375000000000    0.7718966666666667    0.0581300000000000 H
   0.2959050000000000    0.8244100000000000    0.1140500000000000 H
   0.5789175000000000    0.7014100000000000    0.5580700000000000 H
   0.6182974999999999    0.7278733333333333    0.6140700000000000 H
   0.7239475000000000    0.8947633333333332    0.9418800000000001 H
   0.7040800000000000    0.8422499999999999    0.8859600000000000 H
   0.6710675000000000    0.9652499999999999    0.4419400000000000 H
   0.6316875000000000    0.9387866666666667    0.3859400000000000 H
   0.5260375000000000    0.7718966666666667    0.0581300000000000 H
   0.5459050000000000    0.8244100000000000    0.1140500000000000 H
   0.8289175000000000    0.7014100000000000    0.5580700000000000 H
   0.8682974999999999    0.7278733333333333    0.6140700000000000 H
   0.9739475000000000    0.8947633333333332    0.9418800000000001 H
   0.9540800000000000    0.8422499999999999    0.8859600000000000 H
   0.9210675000000000    0.9652499999999999    0.4419400000000000 H
   0.8816875000000000    0.9387866666666667    0.3859400000000000 H
   0.7760375000000000    0.7718966666666667    0.0581300000000000 H
   0.7959050000000000    0.8244100000000000    0.1140500000000000 H
   0.2082650000000000    0.1179566666666667    0.4774600000000000 C
   0.1615200000000000    0.0556266666666667    0.0225700000000000 C
   0.0417125000000000    0.2153600000000000    0.5225500000000000 C
   0.0884575000000000    0.2776900000000000    0.9774500000000000 C
   0.4582650000000000    0.1179566666666667    0.4774600000000000 C
   0.4115200000000000    0.0556266666666667    0.0225700000000000 C
   0.2917125000000000    0.2153600000000000    0.5225500000000000 C
   0.3384575000000000    0.2776900000000000    0.9774500000000000 C
   0.7082650000000000    0.1179566666666667    0.4774600000000000 C
   0.6615200000000000    0.0556266666666667    0.0225700000000000 C
   0.5417125000000000    0.2153600000000000    0.5225500000000000 C
   0.5884575000000000    0.2776900000000000    0.9774500000000000 C
   0.9582650000000000    0.1179566666666667    0.4774600000000000 C
   0.9115200000000000    0.0556266666666667    0.0225700000000000 C
   0.7917125000000000    0.2153600000000000    0.5225500000000000 C
   0.8384575000000000    0.2776900000000000    0.9774500000000000 C
   0.1615200000000000    0.3889600000000000    0.0225700000000000 C
   0.0417125000000000    0.5486933333333333    0.5225500000000000 C
   0.0884575000000000    0.6110233333333333    0.9774500000000000 C
   0.4582650000000000    0.4512900000000000    0.4774600000000000 C
   0.4115200000000000    0.3889600000000000    0.0225700000000000 C
   0.2917125000000000    0.5486933333333333    0.5225500000000000 C
   0.3384575000000000    0.6110233333333333    0.9774500000000000 C
   0.7082650000000000    0.4512900000000000    0.4774600000000000 C
   0.6615200000000000    0.3889600000000000    0.0225700000000000 C
   0.5417125000000000    0.5486933333333333    0.5225500000000000 C
   0.5884575000000000    0.6110233333333333    0.9774500000000000 C
   0.9582650000000000    0.4512900000000000    0.4774600000000000 C
   0.9115200000000000    0.3889600000000000    0.0225700000000000 C
   0.7917125000000000    0.5486933333333333    0.5225500000000000 C
   0.8384575000000000    0.6110233333333333    0.9774500000000000 C
   0.2082650000000000    0.7846233333333333    0.4774600000000000 C
   0.1615200000000000    0.7222933333333333    0.0225700000000000 C
   0.0417125000000000    0.8820266666666666    0.5225500000000000 C
   0.0884575000000000    0.9443566666666666    0.9774500000000000 C
   0.4582650000000000    0.7846233333333333    0.4774600000000000 C
   0.4115200000000000    0.7222933333333333    0.0225700000000000 C
   0.2917125000000000    0.8820266666666666    0.5225500000000000 C
   0.3384575000000000    0.9443566666666666    0.9774500000000000 C
   0.7082650000000000    0.7846233333333333    0.4774600000000000 C
   0.6615200000000000    0.7222933333333333    0.0225700000000000 C
   0.5417125000000000    0.8820266666666666    0.5225500000000000 C
   0.5884575000000000    0.9443566666666666    0.9774500000000000 C
   0.9582650000000000    0.7846233333333333    0.4774600000000000 C
   0.9115200000000000    0.7222933333333333    0.0225700000000000 C
   0.7917125000000000    0.8820266666666666    0.5225500000000000 C
   0.8384575000000000    0.9443566666666666    0.9774500000000000 C
   0.1805050000000000    0.0902866666666667    0.4626600000000000 N
   0.1822850000000000    0.0926333333333333    0.0373900000000000 N
   0.0694725000000000    0.2430300000000000    0.5373500000000000 N
   0.0676925000000000    0.2406833333333333    0.9626200000000000 N
   0.4305050000000000    0.0902866666666667    0.4626600000000000 N
   0.4322850000000000    0.0926333333333333    0.0373900000000000 N
   0.3194725000000000    0.2430300000000000    0.5373500000000000 N
   0.3176925000000000    0.2406833333333333    0.9626200000000000 N
   0.6805050000000000    0.0902866666666667    0.4626600000000000 N
   0.6822850000000000    0.0926333333333333    0.0373900000000000 N
   0.5694725000000000    0.2430300000000000    0.5373500000000000 N
   0.5676925000000000    0.2406833333333333    0.9626200000000000 N
   0.9305050000000000    0.0902866666666667    0.4626600000000000 N
   0.9322850000000000    0.0926333333333333    0.0373900000000000 N
   0.8194725000000000    0.2430300000000000    0.5373500000000000 N
   0.8176925000000000    0.2406833333333333    0.9626200000000000 N
   0.1822850000000000    0.4259666666666666    0.0373900000000000 N
   0.0694725000000000    0.5763633333333333    0.5373500000000000 N
   0.0676925000000000    0.5740166666666666    0.9626200000000000 N
   0.4305050000000000    0.4236200000000000    0.4626600000000000 N
   0.4322850000000000    0.4259666666666666    0.0373900000000000 N
   0.3194725000000000    0.5763633333333333    0.5373500000000000 N
   0.3176925000000000    0.5740166666666666    0.9626200000000000 N
   0.6805050000000000    0.4236200000000000    0.4626600000000000 N
   0.6822850000000000    0.4259666666666666    0.0373900000000000 N
   0.5694725000000000    0.5763633333333333    0.5373500000000000 N
   0.5676925000000000    0.5740166666666666    0.9626200000000000 N
   0.9305050000000000    0.4236200000000000    0.4626600000000000 N
   0.9322850000000000    0.4259666666666666    0.0373900000000000 N
   0.8194725000000000    0.5763633333333333    0.5373500000000000 N
   0.8176925000000000    0.5740166666666666    0.9626200000000000 N
   0.1805050000000000    0.7569533333333333    0.4626600000000000 N
   0.1822850000000000    0.7593000000000000    0.0373900000000000 N
   0.0694725000000000    0.9096966666666666    0.5373500000000000 N
   0.0676925000000000    0.9073499999999999    0.9626200000000000 N
   0.4305050000000000    0.7569533333333333    0.4626600000000000 N
   0.4322850000000000    0.7593000000000000    0.0373900000000000 N
   0.3194725000000000    0.9096966666666666    0.5373500000000000 N
   0.3176925000000000    0.9073499999999999    0.9626200000000000 N
   0.6805050000000000    0.7569533333333333    0.4626600000000000 N
   0.6822850000000000    0.7593000000000000    0.0373900000000000 N
   0.5694725000000000    0.9096966666666666    0.5373500000000000 N
   0.5676925000000000    0.9073499999999999    0.9626200000000000 N
   0.9305050000000000    0.7569533333333333    0.4626600000000000 N
   0.9322850000000000    0.7593000000000000    0.0373900000000000 N
   0.8194725000000000    0.9096966666666666    0.5373500000000000 N
   0.8176925000000000    0.9073499999999999    0.9626200000000000 N
   0.1062575000000000    0.0293666666666667    0.5663899999999999 O
   0.2279700000000000    0.1916400000000000    0.9336100000000001 O
   0.1437275000000000    0.3039600000000000    0.4336300000000000 O
   0.0220150000000000    0.1416866666666667    0.0664000000000000 O
   0.3562575000000000    0.0293666666666667    0.5663899999999999 O
   0.4779700000000000    0.1916400000000000    0.9336100000000001 O
   0.3937275000000000    0.3039600000000000    0.4336300000000000 O
   0.2720150000000000    0.1416866666666667    0.0664000000000000 O
   0.6062575000000000    0.0293666666666667    0.5663899999999999 O
   0.7279700000000000    0.1916400000000000    0.9336100000000001 O
   0.6437275000000000    0.3039600000000000    0.4336300000000000 O
   0.5220150000000000    0.1416866666666667    0.0664000000000000 O
   0.8562575000000000    0.0293666666666667    0.5663899999999999 O
   0.9779700000000000    0.1916400000000000    0.9336100000000001 O
   0.8937275000000000    0.3039600000000000    0.4336300000000000 O
   0.7720150000000000    0.1416866666666667    0.0664000000000000 O
   0.1062575000000000    0.3627000000000000    0.5663899999999999 O
   0.2279700000000000    0.5249733333333333    0.9336100000000001 O
   0.1437275000000000    0.6372933333333333    0.4336300000000000 O
   0.0220150000000000    0.4750200000000000    0.0664000000000000 O
   0.3562575000000000    0.3627000000000000    0.5663899999999999 O
   0.4779700000000000    0.5249733333333333    0.9336100000000001 O
   0.3937275000000000    0.6372933333333333    0.4336300000000000 O
   0.2720150000000000    0.4750200000000000    0.0664000000000000 O
   0.6062575000000000    0.3627000000000000    0.5663899999999999 O
   0.7279700000000000    0.5249733333333333    0.9336100000000001 O
   0.6437275000000000    0.6372933333333333    0.4336300000000000 O
   0.5220150000000000    0.4750200000000000    0.0664000000000000 O
   0.8562575000000000    0.3627000000000000    0.5663899999999999 O
   0.9779700000000000    0.5249733333333333    0.9336100000000001 O
   0.8937275000000000    0.6372933333333333    0.4336300000000000 O
   0.7720150000000000    0.4750200000000000    0.0664000000000000 O
   0.1062575000000000    0.6960333333333333    0.5663899999999999 O
   0.2279700000000000    0.8583066666666666    0.9336100000000001 O
   0.1437275000000000    0.9706266666666666    0.4336300000000000 O
   0.0220150000000000    0.8083533333333333    0.0664000000000000 O
   0.3562575000000000    0.6960333333333333    0.5663899999999999 O
   0.4779700000000000    0.8583066666666666    0.9336100000000001 O
   0.3937275000000000    0.9706266666666666    0.4336300000000000 O
   0.2720150000000000    0.8083533333333333    0.0664000000000000 O
   0.6062575000000000    0.6960333333333333    0.5663899999999999 O
   0.7279700000000000    0.8583066666666666    0.9336100000000001 O
   0.6437275000000000    0.9706266666666666    0.4336300000000000 O
   0.5220150000000000    0.8083533333333333    0.0664000000000000 O
   0.8562575000000000    0.6960333333333333    0.5663899999999999 O
   0.9779700000000000    0.8583066666666666    0.9336100000000001 O
   0.8937275000000000    0.9706266666666666    0.4336300000000000 O
   0.7720150000000000    0.8083533333333333    0.0664000000000000 O
