Zn96 H764 C665 N570 O2
1.0
  21.4956767899838717    0.0000000000000000   -2.0372391466268098
  -0.0231912079788013   37.7549827336042796    0.0276758580032235
   0.0000000000000000    0.0000000000000000   34.3479999999999990
Zn H C N O
96 764 665 570 2
direct
   0.1041300000000000    0.9135099999999999    0.7285000000000000 Zn
   0.1041300000000000    0.9135099999999999    0.2285000000000000 Zn
   0.1041300000000000    0.2468433333333333    0.7285000000000000 Zn
   0.1041300000000000    0.2468433333333333    0.2285000000000000 Zn
   0.1041300000000000    0.5801766666666667    0.7285000000000000 Zn
   0.1041300000000000    0.5801766666666667    0.2285000000000000 Zn
   0.8958400000000000    0.4198233333333333    0.7713300000000001 Zn
   0.8958400000000000    0.4198233333333333    0.2713300000000000 Zn
   0.8958400000000000    0.0864900000000000    0.7713300000000001 Zn
   0.8958400000000000    0.7531566666666666    0.7713300000000001 Zn
   0.8958400000000000    0.0864900000000000    0.2713300000000000 Zn
   0.8958400000000000    0.7531566666666666    0.2713300000000000 Zn
   0.3648600000000000    0.9119466666666667    0.3000650000000000 Zn
   0.8537500000000000    0.9198166666666666    0.4798600000000000 Zn
   0.1147300000000000    0.9214766666666666    0.5501199999999999 Zn
   0.6052800000000000    0.9133899999999999    0.2298100000000000 Zn
   0.8646300000000000    0.9118733333333333    0.3013150000000000 Zn
   0.3546600000000000    0.9199066666666667    0.9784800000000000 Zn
   0.6136700000000000    0.9214300000000000    0.0512350000000000 Zn
   0.3648600000000000    0.9119466666666667    0.8000650000000000 Zn
   0.8537500000000000    0.9198166666666666    0.9798600000000000 Zn
   0.1147300000000000    0.9214766666666666    0.0501200000000000 Zn
   0.6052800000000000    0.9133899999999999    0.7298100000000000 Zn
   0.8646300000000000    0.9118733333333333    0.8013150000000000 Zn
   0.3546600000000000    0.9199066666666667    0.4784800000000000 Zn
   0.6136700000000000    0.9214300000000000    0.5512350000000000 Zn
   0.1462200000000000    0.7468500000000000    0.0201250000000000 Zn
   0.1462200000000000    0.7468500000000000    0.5201249999999999 Zn
   0.6351100000000000    0.7547199999999999    0.1999200000000000 Zn
   0.6453100000000001    0.7467600000000000    0.5215100000000000 Zn
   0.8852400000000000    0.7451900000000000    0.9498599999999999 Zn
   0.3863000000000000    0.7452333333333333    0.4487450000000000 Zn
   0.3946900000000000    0.7532766666666666    0.2701750000000000 Zn
   0.1353400000000000    0.7547900000000000    0.1986650000000000 Zn
   0.6351100000000000    0.7547199999999999    0.6999200000000000 Zn
   0.6453100000000001    0.7467600000000000    0.0215100000000000 Zn
   0.8852400000000000    0.7451900000000000    0.4498600000000000 Zn
   0.3863000000000000    0.7452333333333333    0.9487449999999999 Zn
   0.3946900000000000    0.7532766666666666    0.7701750000000001 Zn
   0.1353400000000000    0.7547900000000000    0.6986650000000000 Zn
   0.3648600000000000    0.5786133333333333    0.3000650000000000 Zn
   0.8537500000000000    0.5864833333333332    0.4798600000000000 Zn
   0.1147300000000000    0.5881433333333332    0.5501199999999999 Zn
   0.6052800000000000    0.5800566666666667    0.2298100000000000 Zn
   0.8646300000000000    0.5785400000000001    0.3013150000000000 Zn
   0.3546600000000000    0.5865733333333333    0.9784800000000000 Zn
   0.6136700000000000    0.5880966666666667    0.0512350000000000 Zn
   0.3648600000000000    0.5786133333333333    0.8000650000000000 Zn
   0.8537500000000000    0.5864833333333332    0.9798600000000000 Zn
   0.1147300000000000    0.5881433333333332    0.0501200000000000 Zn
   0.6052800000000000    0.5800566666666667    0.7298100000000000 Zn
   0.8646300000000000    0.5785400000000001    0.8013150000000000 Zn
   0.3546600000000000    0.5865733333333333    0.4784800000000000 Zn
   0.6136700000000000    0.5880966666666667    0.5512350000000000 Zn
   0.1462200000000000    0.4135166666666666    0.5201249999999999 Zn
   0.1462200000000000    0.4135166666666666    0.0201250000000000 Zn
   0.6351100000000000    0.4213866666666666    0.1999200000000000 Zn
   0.6453100000000001    0.4134266666666666    0.5215100000000000 Zn
   0.8852400000000000    0.4118566666666666    0.9498599999999999 Zn
   0.3863000000000000    0.4119000000000000    0.4487450000000000 Zn
   0.3946900000000000    0.4199433333333333    0.2701750000000000 Zn
   0.1353400000000000    0.4214566666666666    0.1986650000000000 Zn
   0.6351100000000000    0.4213866666666666    0.6999200000000000 Zn
   0.6453100000000001    0.4134266666666666    0.0215100000000000 Zn
   0.8852400000000000    0.4118566666666666    0.4498600000000000 Zn
   0.3863000000000000    0.4119000000000000    0.9487449999999999 Zn
   0.3946900000000000    0.4199433333333333    0.7701750000000001 Zn
   0.1353400000000000    0.4214566666666666    0.6986650000000000 Zn
   0.3648600000000000    0.2452800000000000    0.3000650000000000 Zn
   0.8537500000000000    0.2531500000000000    0.4798600000000000 Zn
   0.1147300000000000    0.2548100000000000    0.5501199999999999 Zn
   0.6052800000000000    0.2467233333333333    0.2298100000000000 Zn
   0.8646300000000000    0.2452066666666667    0.3013150000000000 Zn
   0.3546600000000000    0.2532400000000000    0.9784800000000000 Zn
   0.6136700000000000    0.2547633333333333    0.0512350000000000 Zn
   0.3648600000000000    0.2452800000000000    0.8000650000000000 Zn
   0.8537500000000000    0.2531500000000000    0.9798600000000000 Zn
   0.1147300000000000    0.2548100000000000    0.0501200000000000 Zn
   0.6052800000000000    0.2467233333333333    0.7298100000000000 Zn
   0.8646300000000000    0.2452066666666667    0.8013150000000000 Zn
   0.3546600000000000    0.2532400000000000    0.4784800000000000 Zn
   0.6136700000000000    0.2547633333333333    0.5512350000000000 Zn
   0.1462200000000000    0.0801833333333333    0.5201249999999999 Zn
   0.1462200000000000    0.0801833333333333    0.0201250000000000 Zn
   0.6351100000000000    0.0880533333333333    0.6999200000000000 Zn
   0.8852400000000000    0.0785233333333333    0.4498600000000000 Zn
   0.3863000000000000    0.0785666666666667    0.9487449999999999 Zn
   0.3946900000000000    0.0866100000000000    0.7701750000000001 Zn
   0.1353400000000000    0.0881233333333333    0.6986650000000000 Zn
   0.6453100000000001    0.0800933333333333    0.0215100000000000 Zn
   0.6351100000000000    0.0880533333333333    0.1999200000000000 Zn
   0.6453100000000001    0.0800933333333333    0.5215100000000000 Zn
   0.8852400000000000    0.0785233333333333    0.9498599999999999 Zn
   0.3863000000000000    0.0785666666666667    0.4487450000000000 Zn
   0.3946900000000000    0.0866100000000000    0.2701750000000000 Zn
   0.1353400000000000    0.0881233333333333    0.1986650000000000 Zn
   0.8877780268724732    0.0062099370997947    0.9676182539735763 H
   0.8460479968193333    0.0261310467411287    0.9943638674972454 H
   0.8086500000000000    0.7934966666666666    0.8193850000000000 H
   0.8218600000000000    0.8357599999999999    0.8419250000000000 H
   0.7638400000000000    0.8306100000000000    0.8020650000000000 H
   0.9826600000000000    0.8753233333333332    0.7124950000000000 H
   0.9115900000000000    0.8994300000000000    0.7065399999999999 H
   0.9400100000000000    0.0000000000000000    0.8180900000000000 H
   0.0155100000000000    0.9947366666666666    0.8415049999999999 H
   0.9508600000000000    0.9685100000000000    0.8532800000000000 H
   0.8086500000000000    0.7934966666666666    0.3193850000000000 H
   0.8218600000000000    0.8357599999999999    0.3419250000000000 H
   0.7638400000000000    0.8306100000000000    0.3020650000000000 H
   0.9826600000000000    0.8753233333333332    0.2124950000000000 H
   0.9115900000000000    0.8994300000000000    0.2065400000000000 H
   0.9400100000000000    0.0000000000000000    0.3180900000000000 H
   0.0155100000000000    0.9947366666666666    0.3415050000000000 H
   0.9508600000000000    0.9685100000000000    0.3532800000000000 H
   0.8086500000000000    0.1268300000000000    0.8193850000000000 H
   0.8218600000000000    0.1690933333333333    0.8419250000000000 H
   0.7638400000000000    0.1639433333333333    0.8020650000000000 H
   0.9826600000000000    0.2086566666666667    0.7124950000000000 H
   0.9115900000000000    0.2327633333333333    0.7065399999999999 H
   0.9400100000000000    0.3333333333333333    0.8180900000000000 H
   0.0155100000000000    0.3280700000000000    0.8415049999999999 H
   0.9508600000000000    0.3018433333333333    0.8532800000000000 H
   0.8086500000000000    0.1268300000000000    0.3193850000000000 H
   0.8218600000000000    0.1690933333333333    0.3419250000000000 H
   0.7638400000000000    0.1639433333333333    0.3020650000000000 H
   0.9826600000000000    0.2086566666666667    0.2124950000000000 H
   0.9115900000000000    0.2327633333333333    0.2065400000000000 H
   0.9400100000000000    0.3333333333333333    0.3180900000000000 H
   0.0155100000000000    0.3280700000000000    0.3415050000000000 H
   0.9508600000000000    0.3018433333333333    0.3532800000000000 H
   0.8086500000000000    0.4601633333333333    0.8193850000000000 H
   0.8218600000000000    0.5024266666666666    0.8419250000000000 H
   0.7638400000000000    0.4972766666666666    0.8020650000000000 H
   0.9826600000000000    0.5419900000000000    0.7124950000000000 H
   0.9115900000000000    0.5660966666666667    0.7065399999999999 H
   0.9400100000000000    0.6666666666666666    0.8180900000000000 H
   0.0155100000000000    0.6614033333333333    0.8415049999999999 H
   0.9508600000000000    0.6351766666666666    0.8532800000000000 H
   0.8086500000000000    0.4601633333333333    0.3193850000000000 H
   0.8218600000000000    0.5024266666666666    0.3419250000000000 H
   0.7638400000000000    0.4972766666666666    0.3020650000000000 H
   0.9826600000000000    0.5419900000000000    0.2124950000000000 H
   0.9115900000000000    0.5660966666666667    0.2065400000000000 H
   0.9400100000000000    0.6666666666666666    0.3180900000000000 H
   0.0155100000000000    0.6614033333333333    0.3415050000000000 H
   0.9508600000000000    0.6351766666666666    0.3532800000000000 H
   0.7848870777078318    0.0869319970739646    0.9882663079415853 H
   0.7770822552541206    0.1163750105810419    0.9570417010150910 H
   0.1913200000000000    0.5398333333333334    0.6805900000000000 H
   0.1781200000000000    0.4975700000000000    0.6580550000000001 H
   0.2361300000000000    0.5027233333333333    0.6979150000000001 H
   0.0173100000000000    0.4580100000000000    0.7874800000000000 H
   0.0883800000000000    0.4339066666666667    0.7934399999999999 H
   0.9844700000000000    0.3385900000000000    0.6584750000000000 H
   0.0491200000000000    0.3648200000000000    0.6467000000000001 H
   0.0599700000000000    0.3302300000000000    0.6818900000000000 H
   0.1913200000000000    0.5398333333333334    0.1805900000000000 H
   0.1781200000000000    0.4975700000000000    0.1580550000000000 H
   0.2361300000000000    0.5027233333333333    0.1979150000000000 H
   0.0173100000000000    0.4580100000000000    0.2874800000000000 H
   0.0883800000000000    0.4339066666666667    0.2934400000000000 H
   0.9844700000000000    0.3385900000000000    0.1584750000000000 H
   0.0491200000000000    0.3648200000000000    0.1467000000000000 H
   0.0599700000000000    0.3302300000000000    0.1818900000000000 H
   0.1913200000000000    0.2065000000000000    0.6805900000000000 H
   0.1781200000000000    0.1642366666666666    0.6580550000000001 H
   0.2361300000000000    0.1693900000000000    0.6979150000000001 H
   0.0173100000000000    0.1246766666666667    0.7874800000000000 H
   0.0883800000000000    0.1005733333333333    0.7934399999999999 H
   0.9844700000000000    0.0052566666666667    0.6584750000000000 H
   0.0491200000000000    0.0314866666666667    0.6467000000000001 H
   0.0599700000000000    0.9968966666666665    0.6818900000000000 H
   0.1913200000000000    0.8731666666666666    0.6805900000000000 H
   0.1781200000000000    0.8309033333333333    0.6580550000000001 H
   0.2361300000000000    0.8360566666666667    0.6979150000000001 H
   0.0173100000000000    0.7913433333333333    0.7874800000000000 H
   0.0883800000000000    0.7672399999999999    0.7934399999999999 H
   0.9844700000000000    0.6719233333333333    0.6584750000000000 H
   0.0491200000000000    0.6981533333333333    0.6467000000000001 H
   0.0599700000000000    0.6635633333333333    0.6818900000000000 H
   0.1913200000000000    0.2065000000000000    0.1805900000000000 H
   0.1781200000000000    0.1642366666666666    0.1580550000000000 H
   0.2361300000000000    0.1693900000000000    0.1979150000000000 H
   0.0173100000000000    0.1246766666666667    0.2874800000000000 H
   0.0883800000000000    0.1005733333333333    0.2934400000000000 H
   0.9844700000000000    0.0052566666666667    0.1584750000000000 H
   0.0491200000000000    0.0314866666666667    0.1467000000000000 H
   0.0599700000000000    0.9968966666666665    0.1818900000000000 H
   0.1913200000000000    0.8731666666666666    0.1805900000000000 H
   0.1781200000000000    0.8309033333333333    0.1580550000000000 H
   0.2361300000000000    0.8360566666666667    0.1979150000000000 H
   0.0173100000000000    0.7913433333333333    0.2874800000000000 H
   0.0883800000000000    0.7672399999999999    0.2934400000000000 H
   0.9844700000000000    0.6719233333333333    0.1584750000000000 H
   0.0491200000000000    0.6981533333333333    0.1467000000000000 H
   0.0599700000000000    0.6635633333333333    0.1818900000000000 H
   0.0336600000000000    0.8788366666666666    0.1020000000000000 H
   0.0023600000000000    0.8929133333333332    0.1455450000000000 H
   0.0615200000000000    0.8601900000000000    0.1477600000000000 H
   0.2408100000000000    0.9826633333333332    0.1779250000000000 H
   0.1746100000000000    0.9954133333333333    0.2012050000000000 H
   0.2433600000000000    0.8908133333333332    0.3330950000000000 H
   0.1778600000000000    0.8761833333333333    0.3015100000000000 H
   0.1720700000000000    0.9150233333333333    0.3294850000000000 H
   0.5574700000000000    0.0396400000000000    0.5690450000000000 H
   0.5706800000000000    0.9974033333333333    0.5916800000000000 H
   0.5129300000000000    0.0024233333333333    0.5516600000000000 H
   0.7326100000000000    0.9579666666666666    0.4629150000000000 H
   0.6614400000000000    0.9339333333333333    0.4566750000000000 H
   0.7639300000000000    0.8385066666666666    0.5920250000000000 H
   0.6990600000000000    0.8646266666666667    0.6034750000000000 H
   0.6886600000000000    0.8299966666666666    0.5683500000000000 H
   0.7836600000000000    0.9546166666666667    0.3528750000000000 H
   0.7518700000000000    0.9404466666666667    0.3962100000000000 H
   0.8111100000000000    0.9731833333333333    0.3987000000000000 H
   0.9898400000000001    0.8504566666666666    0.4288850000000000 H
   0.9236400000000000    0.8377966666666666    0.4522600000000000 H
   0.9938900000000001    0.9428699999999999    0.5835049999999999 H
   0.9282200000000000    0.9573933333333333    0.5520100000000000 H
   0.9225000000000000    0.9187299999999999    0.5803550000000000 H
   0.3085500000000000    0.7938466666666666    0.3184650000000000 H
   0.3217100000000000    0.8362233333333333    0.3407250000000000 H
   0.2637000000000000    0.8308733333333334    0.3009000000000000 H
   0.4841400000000000    0.8753899999999999    0.2123250000000000 H
   0.4131000000000000    0.8994466666666666    0.2056850000000000 H
   0.4391200000000000    0.0000000000000000    0.3173500000000000 H
   0.5145700000000000    0.9951466666666666    0.3409350000000000 H
   0.4500500000000000    0.9687833333333333    0.3526100000000000 H
   0.5339000000000000    0.8788533333333333    0.1029450000000000 H
   0.5023300000000001    0.8929466666666666    0.1463400000000000 H
   0.5614200000000000    0.8601566666666667    0.1487050000000000 H
   0.7416400000000000    0.9823000000000000    0.1784600000000000 H
   0.6756700000000000    0.9954499999999999    0.2017100000000000 H
   0.7435500000000000    0.8909733333333333    0.3340150000000000 H
   0.6783800000000000    0.8763099999999999    0.3021850000000000 H
   0.6721300000000000    0.9150833333333332    0.3302150000000000 H
   0.0590000000000000    0.0397800000000000    0.0683400000000000 H
   0.0725600000000000    0.9975933333333333    0.0910300000000000 H
   0.0143200000000000    0.0025166666666667    0.0512650000000000 H
   0.2332800000000000    0.9580599999999999    0.9617400000000000 H
   0.1621100000000000    0.9340233333333332    0.9555650000000000 H
   0.2655300000000000    0.8388266666666666    0.0910000000000000 H
   0.2007600000000000    0.8649499999999999    0.1026150000000000 H
   0.1901000000000000    0.8302099999999999    0.0676300000000000 H
   0.2842100000000000    0.9544266666666666    0.8517300000000000 H
   0.2528900000000000    0.9404633333333332    0.8953000000000000 H
   0.3120400000000000    0.9732466666666666    0.8973599999999999 H
   0.4917600000000000    0.8511199999999999    0.9279299999999999 H
   0.4254900000000000    0.8379633333333333    0.9509099999999999 H
   0.4923300000000000    0.9422333333333333    0.0833900000000000 H
   0.4268900000000000    0.9566433333333333    0.0516300000000000 H
   0.4212400000000000    0.9177700000000000    0.0796550000000000 H
   0.0336600000000000    0.8788366666666666    0.6020000000000000 H
   0.0023600000000000    0.8929133333333332    0.6455450000000000 H
   0.0615200000000000    0.8601900000000000    0.6477600000000000 H
   0.2408100000000000    0.9826633333333332    0.6779250000000000 H
   0.1746100000000000    0.9954133333333333    0.7012050000000000 H
   0.2433600000000000    0.8908133333333332    0.8330949999999999 H
   0.1778600000000000    0.8761833333333333    0.8015099999999999 H
   0.1720700000000000    0.9150233333333333    0.8294850000000000 H
   0.5574700000000000    0.0396400000000000    0.0690450000000000 H
   0.5706800000000000    0.9974033333333333    0.0916800000000000 H
   0.5129300000000000    0.0024233333333333    0.0516600000000000 H
   0.7326100000000000    0.9579666666666666    0.9629150000000000 H
   0.6614400000000000    0.9339333333333333    0.9566749999999999 H
   0.7639300000000000    0.8385066666666666    0.0920250000000000 H
   0.6990600000000000    0.8646266666666667    0.1034750000000000 H
   0.6886600000000000    0.8299966666666666    0.0683500000000000 H
   0.7836600000000000    0.9546166666666667    0.8528750000000000 H
   0.7518700000000000    0.9404466666666667    0.8962100000000000 H
   0.8111100000000000    0.9731833333333333    0.8987000000000001 H
   0.9898400000000001    0.8504566666666666    0.9288850000000000 H
   0.9236400000000000    0.8377966666666666    0.9522600000000000 H
   0.9938900000000001    0.9428699999999999    0.0835050000000000 H
   0.9282200000000000    0.9573933333333333    0.0520100000000000 H
   0.9225000000000000    0.9187299999999999    0.0803550000000000 H
   0.3085500000000000    0.7938466666666666    0.8184650000000000 H
   0.3217100000000000    0.8362233333333333    0.8407249999999999 H
   0.2637000000000000    0.8308733333333334    0.8008999999999999 H
   0.4841400000000000    0.8753899999999999    0.7123250000000000 H
   0.4131000000000000    0.8994466666666666    0.7056850000000000 H
   0.4391200000000000    0.0000000000000000    0.8173500000000000 H
   0.5145700000000000    0.9951466666666666    0.8409350000000000 H
   0.4500500000000000    0.9687833333333333    0.8526100000000000 H
   0.5339000000000000    0.8788533333333333    0.6029450000000000 H
   0.5023300000000001    0.8929466666666666    0.6463400000000000 H
   0.5614200000000000    0.8601566666666667    0.6487050000000000 H
   0.7416400000000000    0.9823000000000000    0.6784600000000001 H
   0.6756700000000000    0.9954499999999999    0.7017100000000001 H
   0.7435500000000000    0.8909733333333333    0.8340150000000000 H
   0.6783800000000000    0.8763099999999999    0.8021849999999999 H
   0.6721300000000000    0.9150833333333332    0.8302149999999999 H
   0.0590000000000000    0.0397800000000000    0.5683400000000000 H
   0.0725600000000000    0.9975933333333333    0.5910299999999999 H
   0.0143200000000000    0.0025166666666667    0.5512650000000000 H
   0.2332800000000000    0.9580599999999999    0.4617400000000000 H
   0.1621100000000000    0.9340233333333332    0.4555650000000000 H
   0.2655300000000000    0.8388266666666666    0.5910000000000000 H
   0.2007600000000000    0.8649499999999999    0.6026150000000000 H
   0.1901000000000000    0.8302099999999999    0.5676300000000000 H
   0.2842100000000000    0.9544266666666666    0.3517300000000000 H
   0.2528900000000000    0.9404633333333332    0.3953000000000000 H
   0.3120400000000000    0.9732466666666666    0.3973600000000000 H
   0.4917600000000000    0.8511199999999999    0.4279300000000000 H
   0.4254900000000000    0.8379633333333333    0.4509100000000000 H
   0.4923300000000000    0.9422333333333333    0.5833900000000000 H
   0.4268900000000000    0.9566433333333333    0.5516300000000000 H
   0.4212400000000000    0.9177700000000000    0.5796550000000000 H
   0.4425000000000000    0.6270233333333333    0.9309000000000001 H
   0.4293000000000000    0.6692633333333333    0.9083000000000000 H
   0.4870500000000000    0.6642366666666666    0.9483200000000001 H
   0.2673600000000000    0.7087000000000000    0.0370650000000000 H
   0.3385400000000000    0.7327333333333332    0.0433050000000000 H
   0.2360400000000000    0.8281600000000000    0.9079600000000000 H
   0.3009100000000000    0.8020433333333332    0.8965099999999999 H
   0.3113000000000000    0.8366733333333333    0.9316000000000000 H
   0.4425000000000000    0.6270233333333333    0.4309000000000000 H
   0.4293000000000000    0.6692633333333333    0.4083000000000000 H
   0.4870500000000000    0.6642366666666666    0.4483200000000000 H
   0.2673600000000000    0.7087000000000000    0.5370650000000000 H
   0.3385400000000000    0.7327333333333332    0.5433050000000000 H
   0.2360400000000000    0.8281600000000000    0.4079600000000000 H
   0.3009100000000000    0.8020433333333332    0.3965100000000000 H
   0.3113000000000000    0.8366733333333333    0.4316000000000000 H
   0.9663200000000000    0.7878299999999999    0.3979450000000000 H
   0.9976100000000000    0.7737533333333333    0.3544300000000000 H
   0.9384500000000000    0.8064766666666666    0.3522150000000000 H
   0.7591700000000000    0.6839966666666666    0.3220500000000000 H
   0.8253700000000000    0.6712533333333333    0.2987750000000000 H
   0.7566000000000001    0.7758499999999999    0.1668500000000000 H
   0.8221000000000001    0.7904833333333333    0.1984650000000000 H
   0.8278900000000000    0.7516433333333333    0.1704900000000000 H
   0.9409700000000000    0.6268833333333332    0.4316450000000000 H
   0.9274100000000000    0.6690733333333333    0.4089500000000000 H
   0.9856500000000000    0.6641500000000000    0.4487150000000000 H
   0.7666900000000000    0.7086066666666666    0.5382400000000001 H
   0.8378600000000000    0.7326433333333333    0.5444150000000000 H
   0.7344400000000000    0.8278366666666666    0.4089500000000000 H
   0.7992100000000000    0.8017133333333333    0.3973650000000000 H
   0.8098700000000000    0.8364533333333333    0.4323500000000000 H
   0.2163100000000000    0.7120500000000000    0.1471100000000000 H
   0.2481000000000000    0.7262200000000000    0.1037750000000000 H
   0.1888600000000000    0.6934833333333333    0.1012850000000000 H
   0.0101300000000000    0.8162099999999999    0.0710950000000000 H
   0.0763300000000000    0.8288700000000000    0.0477200000000000 H
   0.0060800000000000    0.7237966666666666    0.9164500000000000 H
   0.0717500000000000    0.7092700000000000    0.9479750000000000 H
   0.0774800000000000    0.7479366666666666    0.9196250000000000 H
   0.7157600000000000    0.7122400000000000    0.6482500000000000 H
   0.7470700000000000    0.7262033333333333    0.6046850000000000 H
   0.6879300000000000    0.6934199999999999    0.6026250000000000 H
   0.5082000000000000    0.8155399999999999    0.5720550000000000 H
   0.5744600000000000    0.8287000000000000    0.5490699999999999 H
   0.5076400000000000    0.7244299999999999    0.4165950000000000 H
   0.5730900000000000    0.7100200000000000    0.4483550000000000 H
   0.5787400000000000    0.7488933333333333    0.4203300000000000 H
   0.6914100000000000    0.8728199999999999    0.1815200000000000 H
   0.6782600000000000    0.8304433333333333    0.1592600000000000 H
   0.7362700000000000    0.8357933333333333    0.1990850000000000 H
   0.5158300000000000    0.7912733333333333    0.2876500000000000 H
   0.5868700000000000    0.7672200000000000    0.2942950000000000 H
   0.4854000000000000    0.6715166666666667    0.1590000000000000 H
   0.5499200000000000    0.6978799999999999    0.1473750000000000 H
   0.5608500000000000    0.6633433333333333    0.1826350000000000 H
   0.4660700000000000    0.7878099999999999    0.3970350000000000 H
   0.4976300000000000    0.7737166666666666    0.3536400000000000 H
   0.4385500000000000    0.8065033333333333    0.3512700000000000 H
   0.2583300000000000    0.6843633333333333    0.3215150000000000 H
   0.3243000000000000    0.6712100000000000    0.2982700000000000 H
   0.2564300000000000    0.7756933333333333    0.1659650000000000 H
   0.3215900000000000    0.7903566666666666    0.1977950000000000 H
   0.3278400000000000    0.7515866666666666    0.1697650000000000 H
   0.9663200000000000    0.7878299999999999    0.8979450000000000 H
   0.9976100000000000    0.7737533333333333    0.8544300000000000 H
   0.9384500000000000    0.8064766666666666    0.8522149999999999 H
   0.7591700000000000    0.6839966666666666    0.8220499999999999 H
   0.8253700000000000    0.6712533333333333    0.7987750000000000 H
   0.7566000000000001    0.7758499999999999    0.6668499999999999 H
   0.8221000000000001    0.7904833333333333    0.6984650000000000 H
   0.8278900000000000    0.7516433333333333    0.6704900000000000 H
   0.9409700000000000    0.6268833333333332    0.9316450000000001 H
   0.9274100000000000    0.6690733333333333    0.9089499999999999 H
   0.9856500000000000    0.6641500000000000    0.9487150000000000 H
   0.7666900000000000    0.7086066666666666    0.0382400000000000 H
   0.8378600000000000    0.7326433333333333    0.0444150000000000 H
   0.7344400000000000    0.8278366666666666    0.9089499999999999 H
   0.7992100000000000    0.8017133333333333    0.8973650000000000 H
   0.8098700000000000    0.8364533333333333    0.9323500000000000 H
   0.2163100000000000    0.7120500000000000    0.6471100000000000 H
   0.2481000000000000    0.7262200000000000    0.6037750000000000 H
   0.1888600000000000    0.6934833333333333    0.6012850000000000 H
   0.0101300000000000    0.8162099999999999    0.5710950000000000 H
   0.0763300000000000    0.8288700000000000    0.5477200000000000 H
   0.0060800000000000    0.7237966666666666    0.4164500000000000 H
   0.0717500000000000    0.7092700000000000    0.4479750000000000 H
   0.0774800000000000    0.7479366666666666    0.4196250000000000 H
   0.7157600000000000    0.7122400000000000    0.1482500000000000 H
   0.7470700000000000    0.7262033333333333    0.1046850000000000 H
   0.6879300000000000    0.6934199999999999    0.1026250000000000 H
   0.5082000000000000    0.8155399999999999    0.0720550000000000 H
   0.5744600000000000    0.8287000000000000    0.0490700000000000 H
   0.5076400000000000    0.7244299999999999    0.9165950000000000 H
   0.5730900000000000    0.7100200000000000    0.9483550000000001 H
   0.5787400000000000    0.7488933333333333    0.9203300000000000 H
   0.6914100000000000    0.8728199999999999    0.6815200000000000 H
   0.6782600000000000    0.8304433333333333    0.6592600000000000 H
   0.7362700000000000    0.8357933333333333    0.6990850000000000 H
   0.5158300000000000    0.7912733333333333    0.7876500000000000 H
   0.5868700000000000    0.7672200000000000    0.7942950000000000 H
   0.4854000000000000    0.6715166666666667    0.6590000000000000 H
   0.5499200000000000    0.6978799999999999    0.6473750000000000 H
   0.5608500000000000    0.6633433333333333    0.6826350000000000 H
   0.4660700000000000    0.7878099999999999    0.8970350000000000 H
   0.4976300000000000    0.7737166666666666    0.8536400000000000 H
   0.4385500000000000    0.8065033333333333    0.8512700000000000 H
   0.2583300000000000    0.6843633333333333    0.8215150000000000 H
   0.3243000000000000    0.6712100000000000    0.7982700000000000 H
   0.2564300000000000    0.7756933333333333    0.6659650000000000 H
   0.3215900000000000    0.7903566666666666    0.6977949999999999 H
   0.3278400000000000    0.7515866666666666    0.6697649999999999 H
   0.0336600000000000    0.5455033333333333    0.1020000000000000 H
   0.0023600000000000    0.5595800000000000    0.1455450000000000 H
   0.0615200000000000    0.5268566666666666    0.1477600000000000 H
   0.2408100000000000    0.6493300000000000    0.1779250000000000 H
   0.1746100000000000    0.6620800000000000    0.2012050000000000 H
   0.2433600000000000    0.5574800000000000    0.3330950000000000 H
   0.1778600000000000    0.5428500000000001    0.3015100000000000 H
   0.1720700000000000    0.5816900000000000    0.3294850000000000 H
   0.5574700000000000    0.7063066666666666    0.5690450000000000 H
   0.5706800000000000    0.6640699999999999    0.5916800000000000 H
   0.5129300000000000    0.6690900000000000    0.5516600000000000 H
   0.7326100000000000    0.6246333333333334    0.4629150000000000 H
   0.6614400000000000    0.6006000000000000    0.4566750000000000 H
   0.7639300000000000    0.5051733333333333    0.5920250000000000 H
   0.6990600000000000    0.5312933333333333    0.6034750000000000 H