H4 O2
1.0
  13.3816134145644021    0.0000000000000000   -3.9696582249798333
  -4.7479531499564160   13.4120168211819024   -1.2565168817618855
   0.0000000000000000    0.0000000000000000   28.5839999999999996
H O
4 2
direct
   0.5316396998601663    0.1059385718305954    0.9470255256402166 H
   0.5566629899599240    0.2153322686609449    0.9272139692563159 H
   0.9688629874288381    0.1059638527971232    0.9474661723705339 H
   0.9453094111787277    0.1448008911255326    0.8927215837818605 H
   0.5097600000000000    0.1629100000000000    0.9381800000000000 O
   0.9914900000000000    0.1231900000000000    0.9190100000000000 O
