H6 O4
1.0
  13.3816134145644021    0.0000000000000000   -3.9696582249798333
  -4.7479531499564160   13.4120168211819024   -1.2565168817618855
   0.0000000000000000    0.0000000000000000   28.5839999999999996
H O
6 4
direct
   0.3602961051137487   -0.0142071075405461    0.9242844724615001 H
   0.0571991934143060   -0.0655236536198269    0.9167504259420434 H
   0.2039979075546045   -0.0502160954811626    0.9200584320194304 H
   0.1410639940637076    0.3026552782300919    0.9164280418880030 H
   0.4535283379964670    0.3549088954397577    0.9564478558266951 H
   0.3029987691071846    0.3400893220444345    0.9373195136413196 H
   0.3001600000000000    0.0069800000000000    0.9239100000000000 O
   0.1279700000000000   -0.0234300000000000    0.9195850000000000 O
   0.2019600000000000    0.2801400000000000    0.9237500000000001 O
   0.3803500000000000    0.3114900000000000    0.9466200000000000 O
