Zn8 H56 C110 S16 N6 O32
1.0
  13.3816134145644021    0.0000000000000000   -3.9696582249798333
  -4.7479531499564160   13.4120168211819024   -1.2565168817618855
   0.0000000000000000    0.0000000000000000   28.5839999999999996
Zn H C S N O
8 56 110 16 6 32
direct
   0.3607400000000000    0.1619800000000000    0.4361750000000000 Zn
   0.8593300000000000    0.8727600000000000    0.0803850000000000 Zn
   0.6392600000000001    0.8380200000000000    0.0638250000000000 Zn
   0.1406700000000000    0.1272300000000000    0.4196150000000000 Zn
   0.3607400000000000    0.1619800000000000    0.9361750000000000 Zn
   0.8593300000000000    0.8727600000000000    0.5803850000000000 Zn
   0.6392600000000001    0.8380200000000000    0.5638250000000000 Zn
   0.1406700000000000    0.1272300000000000    0.9196150000000001 Zn
   0.4527700000000000    0.6884100000000000    0.4550600000000000 H
   0.4839400000000000    0.5161200000000000    0.4573650000000000 H
   0.0341800000000000    0.7769700000000000    0.4200150000000000 H
   0.0728800000000000    0.6083100000000000    0.4290850000000000 H
   0.7839600000000000    0.1864000000000000    0.3550350000000000 H
   0.9554800000000000    0.1697000000000000    0.3514350000000000 H
   0.0152100000000000    0.0776200000000000    0.4868650000000000 H
   0.8453200000000000    0.0848400000000000    0.4954450000000000 H
   0.0489800000000000    0.0902600000000000    0.1571700000000000 H
   0.0183700000000000    0.0859300000000000    0.2435300000000000 H
   0.4664200000000000    0.1613700000000000    0.1104000000000000 H
   0.4286900000000000    0.1445000000000000    0.1951250000000000 H
   0.7191000000000000    0.2901600000000000    0.4062700000000000 H
   0.5475600000000000    0.2979300000000000    0.4144400000000000 H
   0.4842000000000000    0.0272700000000000    0.4614400000000000 H
   0.6539900000000000    0.0095900000000000    0.4580400000000000 H
   0.5472300000000000    0.3115800000000000    0.0449350000000000 H
   0.5160600000000000    0.4838700000000000    0.0426300000000000 H
   0.9658200000000000    0.2230200000000000    0.0799850000000000 H
   0.9271300000000000    0.3916900000000000    0.0709150000000000 H
   0.2160500000000000    0.8136100000000001    0.1449650000000000 H
   0.0445200000000000    0.8303000000000000    0.1485650000000000 H
   0.0000000000000000    0.9223600000000000    0.0131300000000000 H
   0.1546800000000000    0.9151500000000000    0.0045500000000000 H
   0.9510200000000000    0.9097300000000000    0.3428300000000000 H
   0.9816300000000000    0.9140600000000000    0.2564650000000000 H
   0.5335800000000001    0.8386200000000000    0.3895950000000000 H
   0.5713100000000000    0.8554900000000000    0.3048750000000000 H
   0.2809000000000000    0.7098400000000000    0.0937300000000000 H
   0.4524400000000000    0.7020600000000000    0.0855600000000000 H
   0.5158000000000000    0.9727100000000000    0.0385500000000000 H
   0.3460000000000000    0.9903999999999999    0.0419550000000000 H
   0.4527700000000000    0.6884100000000000    0.9550600000000000 H
   0.4839400000000000    0.5161200000000000    0.9573650000000000 H
   0.0341800000000000    0.7769700000000000    0.9200150000000000 H
   0.0728800000000000    0.6083100000000000    0.9290849999999999 H
   0.0489800000000000    0.0902600000000000    0.6571700000000000 H
   0.0183700000000000    0.0859300000000000    0.7435300000000000 H
   0.4664200000000000    0.1613700000000000    0.6104000000000001 H
   0.4286900000000000    0.1445000000000000    0.6951250000000000 H
   0.5472300000000000    0.3115800000000000    0.5449349999999999 H
   0.5160600000000000    0.4838700000000000    0.5426299999999999 H
   0.9658200000000000    0.2230200000000000    0.5799850000000000 H
   0.9271300000000000    0.3916900000000000    0.5709150000000001 H
   0.2160500000000000    0.8136100000000001    0.6449650000000000 H
   0.0445200000000000    0.8303000000000000    0.6485650000000001 H
   0.0000000000000000    0.9223600000000000    0.5131300000000000 H
   0.1546800000000000    0.9151500000000000    0.5045500000000001 H
   0.9510200000000000    0.9097300000000000    0.8428300000000000 H
   0.9816300000000000    0.9140600000000000    0.7564649999999999 H
   0.5335800000000001    0.8386200000000000    0.8895950000000000 H
   0.5713100000000000    0.8554900000000000    0.8048750000000000 H
   0.2809000000000000    0.7098400000000000    0.5937300000000000 H
   0.4524400000000000    0.7020600000000000    0.5855600000000000 H
   0.5158000000000000    0.9727100000000000    0.5385500000000000 H
   0.3460000000000000    0.9903999999999999    0.5419550000000000 H
   0.2082600000000000    0.9497900000000000    0.4211200000000000 C
   0.2979400000000000    0.3377800000000000    0.4359700000000000 C
   0.3136900000000000    0.4450100000000000    0.4379000000000000 C
   0.2822100000000000    0.6077200000000000    0.4347850000000000 C
   0.1963500000000000    0.8439100000000000    0.4213900000000000 C
   0.3890700000000000    0.6171900000000000    0.4468000000000000 C
   0.4063800000000000    0.5249200000000001    0.4483950000000000 C
   0.2338700000000000    0.6844200000000000    0.4296900000000000 C
   0.1094600000000000    0.7668199999999999    0.4221450000000000 C
   0.1304200000000000    0.6769100000000000    0.4269250000000000 C
   0.8329800000000001    0.1623100000000000    0.3852550000000000 C
   0.9278100000000000    0.1529900000000000    0.3827600000000000 C
   0.9603200000000000    0.0994600000000000    0.4582100000000000 C
   0.8657000000000000    0.1046900000000000    0.4628000000000000 C
   0.8004200000000000    0.1384200000000000    0.4261600000000000 C
   0.2915500000000000    0.1567300000000000    0.0248150000000000 C
   0.2046200000000000    0.1297800000000000    0.3317050000000000 C
   0.1886100000000000    0.1256800000000000    0.2781500000000000 C
   0.2195400000000000    0.1316200000000000    0.1965700000000000 C
   0.3040900000000000    0.1570300000000000    0.0777600000000000 C
   0.1128000000000000    0.1071400000000000    0.1924350000000000 C
   0.0958000000000000    0.1041100000000000    0.2386950000000000 C
   0.2675000000000000    0.1416300000000000    0.1578950000000000 C
   0.3912900000000000    0.1567300000000000    0.1158950000000000 C
   0.3708500000000000    0.1478400000000000    0.1610700000000000 C
   0.6692600000000000    0.2298700000000000    0.4185050000000000 C
   0.5744300000000000    0.2351900000000000    0.4230600000000000 C
   0.5399000000000000    0.0844300000000000    0.4503650000000000 C
   0.6344400000000000    0.0749400000000000    0.4478650000000000 C
   0.7007800000000000    0.1479800000000000    0.4307950000000000 C
   0.7917400000000000    0.0502000000000000    0.0788750000000000 C
   0.7020500000000000    0.6622100000000000    0.0640300000000000 C
   0.6863000000000000    0.5549800000000000    0.0620950000000000 C
   0.7177900000000000    0.3922700000000000    0.0652100000000000 C
   0.8036500000000000    0.1560800000000000    0.0786100000000000 C
   0.6109300000000000    0.3828000000000000    0.0531950000000000 C
   0.5936200000000000    0.4750700000000000    0.0516000000000000 C
   0.7661300000000000    0.3155800000000000    0.0703050000000000 C
   0.8905500000000000    0.2331800000000000    0.0778550000000000 C
   0.8695800000000000    0.3230800000000000    0.0730700000000000 C
   0.1670200000000000    0.8376900000000000    0.1147400000000000 C
   0.0721900000000000    0.8470000000000000    0.1172400000000000 C
   0.0396800000000000    0.9005200000000000    0.0417850000000000 C
   0.1343000000000000    0.8953000000000000    0.0372000000000000 C
   0.1995900000000000    0.8615800000000000    0.0738350000000000 C
   0.7084500000000000    0.8432600000000000    0.4751850000000000 C
   0.7953800000000000    0.8702100000000000    0.1682950000000000 C
   0.8113899999999999    0.8743200000000000    0.2218500000000000 C
   0.7804600000000000    0.8683800000000000    0.3034300000000000 C
   0.6959100000000000    0.8429600000000000    0.4222400000000000 C
   0.8872000000000000    0.8928600000000000    0.3075600000000000 C
   0.9042000000000000    0.8958900000000000    0.2613050000000000 C
   0.7325000000000000    0.8583600000000000    0.3421050000000000 C
   0.6087100000000000    0.8432600000000000    0.3841050000000000 C
   0.6291600000000001    0.8521500000000000    0.3389300000000000 C
   0.3307400000000000    0.7701200000000000    0.0815000000000000 C
   0.4255700000000000    0.7648000000000000    0.0769400000000000 C
   0.4601000000000000    0.9155600000000000    0.0496300000000000 C
   0.3655600000000000    0.9250500000000000    0.0521300000000000 C
   0.2992300000000000    0.8520100000000000    0.0692050000000000 C
   0.2082600000000000    0.9497900000000000    0.9211199999999999 C
   0.2979400000000000    0.3377800000000000    0.9359700000000000 C
   0.3136900000000000    0.4450100000000000    0.9379000000000000 C
   0.2822100000000000    0.6077200000000000    0.9347850000000000 C
   0.1963500000000000    0.8439100000000000    0.9213899999999999 C
   0.3890700000000000    0.6171900000000000    0.9468000000000000 C
   0.4063800000000000    0.5249200000000001    0.9483950000000000 C
   0.2338700000000000    0.6844200000000000    0.9296900000000000 C
   0.1094600000000000    0.7668199999999999    0.9221450000000000 C
   0.1304200000000000    0.6769100000000000    0.9269250000000000 C
   0.2915500000000000    0.1567300000000000    0.5248150000000000 C
   0.2046200000000000    0.1297800000000000    0.8317050000000000 C
   0.1886100000000000    0.1256800000000000    0.7781500000000000 C
   0.2195400000000000    0.1316200000000000    0.6965700000000000 C
   0.3040900000000000    0.1570300000000000    0.5777600000000001 C
   0.1128000000000000    0.1071400000000000    0.6924350000000000 C
   0.0958000000000000    0.1041100000000000    0.7386950000000000 C
   0.2675000000000000    0.1416300000000000    0.6578950000000000 C
   0.3912900000000000    0.1567300000000000    0.6158950000000000 C
   0.3708500000000000    0.1478400000000000    0.6610700000000000 C
   0.7917400000000000    0.0502000000000000    0.5788750000000000 C
   0.7020500000000000    0.6622100000000000    0.5640300000000000 C
   0.6863000000000000    0.5549800000000000    0.5620950000000000 C
   0.7177900000000000    0.3922700000000000    0.5652100000000000 C
   0.8036500000000000    0.1560800000000000    0.5786100000000000 C
   0.6109300000000000    0.3828000000000000    0.5531950000000000 C
   0.5936200000000000    0.4750700000000000    0.5516000000000000 C
   0.7661300000000000    0.3155800000000000    0.5703050000000001 C
   0.8905500000000000    0.2331800000000000    0.5778550000000000 C
   0.8695800000000000    0.3230800000000000    0.5730700000000000 C
   0.1670200000000000    0.8376900000000000    0.6147400000000000 C
   0.0721900000000000    0.8470000000000000    0.6172400000000000 C
   0.0396800000000000    0.9005200000000000    0.5417850000000000 C
   0.1343000000000000    0.8953000000000000    0.5372000000000000 C
   0.1995900000000000    0.8615800000000000    0.5738350000000000 C
   0.7084500000000000    0.8432600000000000    0.9751850000000000 C
   0.7953800000000000    0.8702100000000000    0.6682950000000000 C
   0.8113899999999999    0.8743200000000000    0.7218500000000000 C
   0.7804600000000000    0.8683800000000000    0.8034300000000000 C
   0.6959100000000000    0.8429600000000000    0.9222399999999999 C
   0.8872000000000000    0.8928600000000000    0.8075600000000001 C
   0.9042000000000000    0.8958900000000000    0.7613050000000000 C
   0.7325000000000000    0.8583600000000000    0.8421050000000000 C
   0.6087100000000000    0.8432600000000000    0.8841049999999999 C
   0.6291600000000001    0.8521500000000000    0.8389300000000000 C
   0.3307400000000000    0.7701200000000000    0.5815000000000000 C
   0.4255700000000000    0.7648000000000000    0.5769400000000000 C
   0.4601000000000000    0.9155600000000000    0.5496300000000000 C
   0.3655600000000000    0.9250500000000000    0.5521300000000000 C
   0.2992300000000000    0.8520100000000000    0.5692050000000000 C
   0.3041200000000000    0.8042200000000000    0.4256200000000000 S
   0.2039200000000000    0.4835600000000000    0.4254300000000000 S
   0.1966900000000000    0.1482500000000000    0.0982500000000000 S
   0.2981100000000000    0.1510300000000000    0.2582400000000000 S
   0.6958800000000001    0.1957700000000000    0.0743750000000000 S
   0.7960800000000000    0.5164299999999999    0.0745650000000000 S
   0.8033100000000000    0.8517400000000001    0.4017450000000000 S
   0.7018799999999999    0.8489700000000000    0.2417600000000000 S
   0.3041200000000000    0.8042200000000000    0.9256200000000000 S
   0.2039200000000000    0.4835600000000000    0.9254300000000000 S
   0.1966900000000000    0.1482500000000000    0.5982499999999999 S
   0.2981100000000000    0.1510300000000000    0.7582400000000000 S
   0.6958800000000001    0.1957700000000000    0.5743750000000000 S
   0.7960800000000000    0.5164299999999999    0.5745650000000000 S
   0.8033100000000000    0.8517400000000001    0.9017450000000000 S
   0.7018799999999999    0.8489700000000000    0.7417600000000000 S
   0.9914900000000000    0.1231900000000000    0.4190100000000000 N
   0.5097600000000000    0.1629100000000000    0.4381800000000000 N
   0.0085200000000000    0.8768100000000000    0.0809900000000000 N
   0.4902400000000000    0.8370700000000000    0.0618100000000000 N
   0.0085200000000000    0.8768100000000000    0.5809900000000000 N
   0.4902400000000000    0.8370700000000000    0.5618100000000000 N
   0.1279700000000000    0.9765700000000000    0.4195850000000000 O
   0.3803500000000000    0.3114900000000000    0.4466200000000000 O
   0.3001600000000000    0.0069800000000000    0.4239100000000000 O
   0.2019600000000000    0.2801400000000000    0.4237500000000000 O
   0.3716600000000000    0.1605600000000000    0.0109100000000000 O
   0.1222400000000000    0.1072000000000000    0.3452200000000000 O
   0.1993500000000000    0.1496800000000000    0.4967300000000000 O
   0.3006500000000000    0.1556900000000000    0.3600950000000000 O
   0.8720200000000000    0.0234200000000000    0.0804100000000000 O
   0.6196500000000000    0.6885100000000000    0.0533800000000000 O
   0.6998400000000000    0.9930099999999999    0.0760850000000000 O
   0.7980400000000000    0.7198500000000000    0.0762500000000000 O
   0.6283300000000001    0.8394200000000001    0.4890850000000000 O
   0.8777600000000000    0.8927900000000000    0.1547750000000000 O
   0.8006500000000000    0.8503100000000000    0.0032650000000000 O
   0.6993400000000000    0.8443100000000000    0.1399050000000000 O
   0.1279700000000000    0.9765700000000000    0.9195850000000000 O
   0.3803500000000000    0.3114900000000000    0.9466200000000000 O
   0.3001600000000000    0.0069800000000000    0.9239100000000000 O
   0.2019600000000000    0.2801400000000000    0.9237500000000001 O
   0.3716600000000000    0.1605600000000000    0.5109100000000000 O
   0.1222400000000000    0.1072000000000000    0.8452200000000001 O
   0.1993500000000000    0.1496800000000000    0.9967300000000000 O
   0.3006500000000000    0.1556900000000000    0.8600950000000001 O
   0.8720200000000000    0.0234200000000000    0.5804100000000000 O
   0.6196500000000000    0.6885100000000000    0.5533800000000000 O
   0.6998400000000000    0.9930099999999999    0.5760850000000000 O
   0.7980400000000000    0.7198500000000000    0.5762500000000000 O
   0.6283300000000001    0.8394200000000001    0.9890850000000000 O
   0.8777600000000000    0.8927900000000000    0.6547750000000000 O
   0.8006500000000000    0.8503100000000000    0.5032650000000000 O
   0.6993400000000000    0.8443100000000000    0.6399049999999999 O
