Zn128 H316 C886 N126 O514
1.0
  29.2739545169643236    0.0000000000000000   -0.0516036694825411
   0.0095594656342793   30.2208401919138439   -2.0750881213629495
   0.0000000000000000    0.0000000000000000   32.1640000000000015
Zn H C N O
128 316 886 126 514
direct
   0.4240150000000000    0.6873899999999999    0.3505950000000000 Zn
   0.3124400000000000    0.6758500000000001    0.2259350000000000 Zn
   0.4275250000000000    0.4351700000000000    0.0985950000000000 Zn
   0.3107950000000000    0.4220250000000000    0.9807049999999999 Zn
   0.4240150000000000    0.1873900000000000    0.8505950000000000 Zn
   0.3124400000000000    0.1758500000000000    0.7259350000000000 Zn
   0.4275250000000000    0.9351700000000001    0.5985950000000000 Zn
   0.3107950000000000    0.9220250000000000    0.4807050000000000 Zn
   0.0779600000000000    0.3107950000000000    0.1510400000000000 Zn
   0.1877500000000000    0.3224600000000000    0.2724500000000000 Zn
   0.0742000000000000    0.5628299999999999    0.4025600000000000 Zn
   0.1911150000000000    0.5777150000000000    0.5177750000000000 Zn
   0.0779600000000000    0.8107949999999999    0.6510400000000001 Zn
   0.1877500000000000    0.8224600000000000    0.7724500000000001 Zn
   0.0742000000000000    0.0628300000000000    0.9025600000000000 Zn
   0.1911150000000000    0.0777150000000000    0.0177750000000000 Zn
   0.8263900000000000    0.4368300000000000    0.8456850000000000 Zn
   0.8244800000000000    0.6872650000000000    0.0990700000000000 Zn
   0.9373800000000000    0.6776800000000001    0.9787150000000000 Zn
   0.9413450000000000    0.4200750000000000    0.7296549999999999 Zn
   0.8263900000000000    0.9368300000000001    0.3456850000000000 Zn
   0.8244800000000000    0.1872650000000000    0.5990700000000000 Zn
   0.9373800000000000    0.1776800000000000    0.4787150000000000 Zn
   0.9413450000000000    0.9200750000000000    0.2296550000000000 Zn
   0.1737750000000000    0.5614550000000000    0.1527150000000000 Zn
   0.1758100000000000    0.3110800000000000    0.8994050000000000 Zn
   0.0644850000000000    0.3207100000000000    0.0224800000000000 Zn
   0.0589850000000000    0.5780950000000000    0.2705050000000000 Zn
   0.1737750000000000    0.0614550000000000    0.6527149999999999 Zn
   0.1758100000000000    0.8110800000000000    0.3994050000000000 Zn
   0.0644850000000000    0.8207100000000001    0.5224800000000001 Zn
   0.0589850000000000    0.0780950000000000    0.7705050000000000 Zn
   0.9240150000000000    0.6873899999999999    0.3505950000000000 Zn
   0.8124400000000001    0.6758500000000001    0.2259350000000000 Zn
   0.9275249999999999    0.4351700000000000    0.0985950000000000 Zn
   0.8107949999999999    0.4220250000000000    0.9807049999999999 Zn
   0.9240150000000000    0.1873900000000000    0.8505950000000000 Zn
   0.8124400000000001    0.1758500000000000    0.7259350000000000 Zn
   0.9275249999999999    0.9351700000000001    0.5985950000000000 Zn
   0.8107949999999999    0.9220250000000000    0.4807050000000000 Zn
   0.5779600000000000    0.3107950000000000    0.1510400000000000 Zn
   0.6877500000000000    0.3224600000000000    0.2724500000000000 Zn
   0.5742000000000000    0.5628299999999999    0.4025600000000000 Zn
   0.6911150000000000    0.5777150000000000    0.5177750000000000 Zn
   0.5779600000000000    0.8107949999999999    0.6510400000000001 Zn
   0.6877500000000000    0.8224600000000000    0.7724500000000001 Zn
   0.5742000000000000    0.0628300000000000    0.9025600000000000 Zn
   0.6911150000000000    0.0777150000000000    0.0177750000000000 Zn
   0.3263900000000000    0.9368300000000001    0.3456850000000000 Zn
   0.3244800000000000    0.1872650000000000    0.5990700000000000 Zn
   0.4373800000000000    0.1776800000000000    0.4787150000000000 Zn
   0.4413450000000000    0.9200750000000000    0.2296550000000000 Zn
   0.3263900000000000    0.4368300000000000    0.8456850000000000 Zn
   0.3244800000000000    0.6872650000000000    0.0990700000000000 Zn
   0.4373800000000000    0.6776800000000001    0.9787150000000000 Zn
   0.4413450000000000    0.4200750000000000    0.7296549999999999 Zn
   0.6737750000000000    0.0614550000000000    0.6527149999999999 Zn
   0.6758100000000000    0.8110800000000000    0.3994050000000000 Zn
   0.5644850000000000    0.8207100000000001    0.5224800000000001 Zn
   0.5589850000000000    0.0780950000000000    0.7705050000000000 Zn
   0.6737750000000000    0.5614550000000000    0.1527150000000000 Zn
   0.6758100000000000    0.3110800000000000    0.8994050000000000 Zn
   0.5644850000000000    0.3207100000000000    0.0224800000000000 Zn
   0.5589850000000000    0.5780950000000000    0.2705050000000000 Zn
   0.9240150000000000    0.6873899999999999    0.8505950000000000 Zn
   0.8124400000000001    0.6758500000000001    0.7259350000000000 Zn
   0.9275249999999999    0.4351700000000000    0.5985950000000000 Zn
   0.8107949999999999    0.4220250000000000    0.4807050000000000 Zn
   0.9240150000000000    0.1873900000000000    0.3505950000000000 Zn
   0.8124400000000001    0.1758500000000000    0.2259350000000000 Zn
   0.9275249999999999    0.9351700000000001    0.0985950000000000 Zn
   0.8107949999999999    0.9220250000000000    0.9807049999999999 Zn
   0.5779600000000000    0.3107950000000000    0.6510400000000001 Zn
   0.6877500000000000    0.3224600000000000    0.7724500000000001 Zn
   0.5742000000000000    0.5628299999999999    0.9025600000000000 Zn
   0.6911150000000000    0.5777150000000000    0.0177750000000000 Zn
   0.5779600000000000    0.8107949999999999    0.1510400000000000 Zn
   0.6877500000000000    0.8224600000000000    0.2724500000000000 Zn
   0.5742000000000000    0.0628300000000000    0.4025600000000000 Zn
   0.6911150000000000    0.0777150000000000    0.5177750000000000 Zn
   0.3263900000000000    0.9368300000000001    0.8456850000000000 Zn
   0.3244800000000000    0.1872650000000000    0.0990700000000000 Zn
   0.4373800000000000    0.1776800000000000    0.9787150000000000 Zn
   0.4413450000000000    0.9200750000000000    0.7296549999999999 Zn
   0.3263900000000000    0.4368300000000000    0.3456850000000000 Zn
   0.3244800000000000    0.6872650000000000    0.5990700000000000 Zn
   0.4373800000000000    0.6776800000000001    0.4787150000000000 Zn
   0.4413450000000000    0.4200750000000000    0.2296550000000000 Zn
   0.6737750000000000    0.0614550000000000    0.1527150000000000 Zn
   0.6758100000000000    0.8110800000000000    0.8994050000000000 Zn
   0.5644850000000000    0.8207100000000001    0.0224800000000000 Zn
   0.5589850000000000    0.0780950000000000    0.2705050000000000 Zn
   0.6737750000000000    0.5614550000000000    0.6527149999999999 Zn
   0.6758100000000000    0.3110800000000000    0.3994050000000000 Zn
   0.5644850000000000    0.3207100000000000    0.5224800000000001 Zn
   0.5589850000000000    0.5780950000000000    0.7705050000000000 Zn
   0.4240150000000000    0.6873899999999999    0.8505950000000000 Zn
   0.3124400000000000    0.6758500000000001    0.7259350000000000 Zn
   0.4275250000000000    0.4351700000000000    0.5985950000000000 Zn
   0.3107950000000000    0.4220250000000000    0.4807050000000000 Zn
   0.4240150000000000    0.1873900000000000    0.3505950000000000 Zn
   0.3124400000000000    0.1758500000000000    0.2259350000000000 Zn
   0.4275250000000000    0.9351700000000001    0.0985950000000000 Zn
   0.3107950000000000    0.9220250000000000    0.9807049999999999 Zn
   0.0779600000000000    0.3107950000000000    0.6510400000000001 Zn
   0.1877500000000000    0.3224600000000000    0.7724500000000001 Zn
   0.0742000000000000    0.5628299999999999    0.9025600000000000 Zn
   0.1911150000000000    0.5777150000000000    0.0177750000000000 Zn
   0.0779600000000000    0.8107949999999999    0.1510400000000000 Zn
   0.1877500000000000    0.8224600000000000    0.2724500000000000 Zn
   0.0742000000000000    0.0628300000000000    0.4025600000000000 Zn
   0.1911150000000000    0.0777150000000000    0.5177750000000000 Zn
   0.8263900000000000    0.4368300000000000    0.3456850000000000 Zn
   0.8244800000000000    0.6872650000000000    0.5990700000000000 Zn
   0.9373800000000000    0.6776800000000001    0.4787150000000000 Zn
   0.9413450000000000    0.4200750000000000    0.2296550000000000 Zn
   0.8263900000000000    0.9368300000000001    0.8456850000000000 Zn
   0.8244800000000000    0.1872650000000000    0.0990700000000000 Zn
   0.9373800000000000    0.1776800000000000    0.9787150000000000 Zn
   0.9413450000000000    0.9200750000000000    0.7296549999999999 Zn
   0.1737750000000000    0.5614550000000000    0.6527149999999999 Zn
   0.1758100000000000    0.3110800000000000    0.3994050000000000 Zn
   0.0644850000000000    0.3207100000000000    0.5224800000000001 Zn
   0.0589850000000000    0.5780950000000000    0.7705050000000000 Zn
   0.1737750000000000    0.0614550000000000    0.1527150000000000 Zn
   0.1758100000000000    0.8110800000000000    0.8994050000000000 Zn
   0.0644850000000000    0.8207100000000001    0.0224800000000000 Zn
   0.0589850000000000    0.0780950000000000    0.2705050000000000 Zn
   0.2373000000000000    0.5536350000000000    0.3489600000000000 H
   0.2023350000000000    0.6725750000000000    0.4252250000000000 H
   0.1249450000000000    0.6420550000000000    0.4316200000000000 H
   0.1590100000000000    0.5279250000000000    0.3588600000000000 H
   0.2590800000000000    0.7019350000000000    0.4000600000000000 H
   0.3045250000000000    0.5700400000000000    0.3575250000000000 H
   0.3793700000000000    0.6021450000000000    0.3435700000000000 H
   0.3366950000000000    0.7282200000000000    0.3866600000000000 H
   0.3827000000000000    0.5427950000000000    0.1873650000000000 H
   0.3956900000000000    0.3115900000000000    0.9240450000000000 H
   0.2373000000000000    0.0536350000000000    0.8489599999999999 H
   0.2023350000000000    0.1725750000000000    0.9252250000000000 H
   0.1249450000000000    0.1420550000000000    0.9316200000000000 H
   0.1590100000000000    0.0279250000000000    0.8588600000000000 H
   0.2590800000000000    0.2019350000000000    0.9000600000000001 H
   0.3045250000000000    0.0700400000000000    0.8575250000000000 H
   0.3793700000000000    0.1021450000000000    0.8435699999999999 H
   0.3366950000000000    0.2282200000000000    0.8866600000000000 H
   0.3827000000000000    0.0427950000000000    0.6873650000000000 H
   0.3956900000000000    0.8115900000000000    0.4240450000000000 H
   0.2635950000000000    0.4456100000000000    0.1499700000000000 H
   0.2980600000000000    0.3271650000000000    0.0728000000000000 H
   0.3757650000000000    0.3572100000000000    0.0670900000000000 H
   0.3421650000000000    0.4708850000000000    0.1406450000000000 H
   0.2417550000000000    0.2974950000000000    0.0986250000000000 H
   0.1961400000000000    0.4292350000000000    0.1414500000000000 H
   0.1218400000000000    0.3967250000000000    0.1567850000000000 H
   0.1646100000000000    0.2708200000000000    0.1132350000000000 H
   0.1175350000000000    0.4563350000000000    0.3131250000000000 H
   0.1066300000000000    0.6876000000000000    0.5762000000000000 H
   0.2635950000000000    0.9456100000000001    0.6499699999999999 H
   0.2980600000000000    0.8271649999999999    0.5728000000000000 H
   0.3757650000000000    0.8572100000000000    0.5670900000000000 H
   0.3421650000000000    0.9708850000000000    0.6406450000000000 H
   0.2417550000000000    0.7974950000000001    0.5986250000000000 H
   0.1961400000000000    0.9292350000000000    0.6414500000000000 H
   0.1218400000000000    0.8967250000000000    0.6567850000000000 H
   0.1646100000000000    0.7708200000000001    0.6132350000000000 H
   0.1175350000000000    0.9563349999999999    0.8131250000000000 H
   0.1066300000000000    0.1876000000000000    0.0762000000000000 H
   0.8548500000000000    0.3097150000000000    0.6722950000000000 H
   0.8686900000000000    0.5438600000000000    0.9367850000000000 H
   0.8548500000000000    0.8097150000000000    0.1722950000000000 H
   0.8686900000000000    0.0438600000000000    0.4367850000000000 H
   0.0121150000000000    0.5557600000000000    0.0947850000000000 H
   0.0446900000000000    0.6698450000000000    0.1785250000000000 H
   0.1221150000000000    0.6389300000000000    0.1850200000000000 H
   0.0903500000000000    0.5293700000000000    0.1050750000000000 H
   0.9903200000000000    0.7020000000000000    0.1477350000000000 H
   0.9435100000000001    0.5695500000000000    0.1089600000000000 H
   0.8684900000000000    0.6017350000000000    0.0947000000000000 H
   0.9126650000000001    0.7285300000000000    0.1339850000000000 H
   0.9878050000000000    0.4425900000000000    0.9044550000000000 H
   0.9555300000000000    0.3281950000000000    0.8209949999999999 H
   0.8781399999999999    0.3590050000000000    0.8142150000000000 H
   0.9096450000000000    0.4688800000000000    0.8938600000000000 H
   0.0100300000000000    0.2963400000000000    0.8513250000000000 H
   0.0564650000000000    0.4286950000000000    0.8909150000000000 H
   0.1316100000000000    0.3965950000000000    0.9048600000000000 H
   0.0877650000000000    0.2699150000000000    0.8648650000000000 H
   0.1455550000000000    0.6881950000000000    0.3262850000000000 H
   0.1328300000000000    0.4547100000000000    0.0615050000000000 H
   0.0121150000000000    0.0557600000000000    0.5947850000000000 H
   0.0446900000000000    0.1698450000000000    0.6785250000000000 H
   0.1221150000000000    0.1389300000000000    0.6850200000000000 H
   0.0903500000000000    0.0293700000000000    0.6050750000000000 H
   0.9903200000000000    0.2020000000000000    0.6477349999999999 H
   0.9435100000000001    0.0695500000000000    0.6089599999999999 H
   0.8684900000000000    0.1017350000000000    0.5947000000000000 H
   0.9126650000000001    0.2285300000000000    0.6339850000000000 H
   0.9878050000000000    0.9425900000000000    0.4044550000000000 H
   0.9555300000000000    0.8281950000000000    0.3209950000000000 H
   0.8781399999999999    0.8590050000000000    0.3142150000000000 H
   0.9096450000000000    0.9688800000000000    0.3938600000000000 H
   0.0100300000000000    0.7963400000000000    0.3513250000000000 H
   0.0564650000000000    0.9286950000000000    0.3909150000000000 H
   0.1316100000000000    0.8965950000000000    0.4048600000000000 H
   0.0877650000000000    0.7699150000000000    0.3648650000000000 H
   0.1455550000000000    0.1881950000000000    0.8262849999999999 H
   0.1328300000000000    0.9547099999999999    0.5615050000000000 H
   0.7373000000000001    0.5536350000000000    0.3489600000000000 H
   0.7023349999999999    0.6725750000000000    0.4252250000000000 H
   0.6249450000000000    0.6420550000000000    0.4316200000000000 H
   0.6590100000000000    0.5279250000000000    0.3588600000000000 H
   0.7590800000000000    0.7019350000000000    0.4000600000000000 H
   0.8045249999999999    0.5700400000000000    0.3575250000000000 H
   0.8793700000000000    0.6021450000000000    0.3435700000000000 H
   0.8366950000000000    0.7282200000000000    0.3866600000000000 H
   0.8827000000000000    0.5427950000000000    0.1873650000000000 H
   0.8956900000000000    0.3115900000000000    0.9240450000000000 H
   0.7373000000000001    0.0536350000000000    0.8489599999999999 H
   0.7023349999999999    0.1725750000000000    0.9252250000000000 H
   0.6249450000000000    0.1420550000000000    0.9316200000000000 H
   0.6590100000000000    0.0279250000000000    0.8588600000000000 H
   0.7590800000000000    0.2019350000000000    0.9000600000000001 H
   0.8045249999999999    0.0700400000000000    0.8575250000000000 H
   0.8793700000000000    0.1021450000000000    0.8435699999999999 H
   0.8366950000000000    0.2282200000000000    0.8866600000000000 H
   0.8827000000000000    0.0427950000000000    0.6873650000000000 H
   0.8956900000000000    0.8115900000000000    0.4240450000000000 H
   0.7635950000000000    0.4456100000000000    0.1499700000000000 H
   0.7980600000000000    0.3271650000000000    0.0728000000000000 H
   0.8757650000000000    0.3572100000000000    0.0670900000000000 H
   0.8421650000000001    0.4708850000000000    0.1406450000000000 H
   0.7417549999999999    0.2974950000000000    0.0986250000000000 H
   0.6961400000000000    0.4292350000000000    0.1414500000000000 H
   0.6218399999999999    0.3967250000000000    0.1567850000000000 H
   0.6646100000000000    0.2708200000000000    0.1132350000000000 H
   0.6175349999999999    0.4563350000000000    0.3131250000000000 H
   0.6066300000000000    0.6876000000000000    0.5762000000000000 H
   0.7635950000000000    0.9456100000000001    0.6499699999999999 H
   0.7980600000000000    0.8271649999999999    0.5728000000000000 H
   0.8757650000000000    0.8572100000000000    0.5670900000000000 H
   0.8421650000000001    0.9708850000000000    0.6406450000000000 H
   0.7417549999999999    0.7974950000000001    0.5986250000000000 H
   0.6961400000000000    0.9292350000000000    0.6414500000000000 H
   0.6218399999999999    0.8967250000000000    0.6567850000000000 H
   0.6646100000000000    0.7708200000000001    0.6132350000000000 H
   0.6175349999999999    0.9563349999999999    0.8131250000000000 H
   0.6066300000000000    0.1876000000000000    0.0762000000000000 H
   0.3548500000000000    0.8097150000000000    0.1722950000000000 H
   0.3686900000000000    0.0438600000000000    0.4367850000000000 H
   0.3548500000000000    0.3097150000000000    0.6722950000000000 H
   0.3686900000000000    0.5438600000000000    0.9367850000000000 H
   0.5121150000000000    0.0557600000000000    0.5947850000000000 H
   0.5446900000000000    0.1698450000000000    0.6785250000000000 H
   0.6221150000000000    0.1389300000000000    0.6850200000000000 H
   0.5903500000000000    0.0293700000000000    0.6050750000000000 H
   0.4903200000000000    0.2020000000000000    0.6477349999999999 H
   0.4435100000000000    0.0695500000000000    0.6089599999999999 H
   0.3684900000000000    0.1017350000000000    0.5947000000000000 H
   0.4126650000000000    0.2285300000000000    0.6339850000000000 H
   0.4878050000000000    0.9425900000000000    0.4044550000000000 H
   0.4555300000000000    0.8281950000000000    0.3209950000000000 H
   0.3781400000000000    0.8590050000000000    0.3142150000000000 H
   0.4096450000000000    0.9688800000000000    0.3938600000000000 H
   0.5100300000000000    0.7963400000000000    0.3513250000000000 H
   0.5564650000000000    0.9286950000000000    0.3909150000000000 H
   0.6316100000000000    0.8965950000000000    0.4048600000000000 H
   0.5877650000000000    0.7699150000000000    0.3648650000000000 H
   0.6455550000000000    0.1881950000000000    0.8262849999999999 H
   0.6328300000000000    0.9547099999999999    0.5615050000000000 H
   0.5121150000000000    0.5557600000000000    0.0947850000000000 H
   0.5446900000000000    0.6698450000000000    0.1785250000000000 H
   0.6221150000000000    0.6389300000000000    0.1850200000000000 H
   0.5903500000000000    0.5293700000000000    0.1050750000000000 H
   0.4903200000000000    0.7020000000000000    0.1477350000000000 H
   0.4435100000000000    0.5695500000000000    0.1089600000000000 H
   0.3684900000000000    0.6017350000000000    0.0947000000000000 H
   0.4126650000000000    0.7285300000000000    0.1339850000000000 H
   0.4878050000000000    0.4425900000000000    0.9044550000000000 H
   0.4555300000000000    0.3281950000000000    0.8209949999999999 H
   0.3781400000000000    0.3590050000000000    0.8142150000000000 H
   0.4096450000000000    0.4688800000000000    0.8938600000000000 H
   0.5100300000000000    0.2963400000000000    0.8513250000000000 H
   0.5564650000000000    0.4286950000000000    0.8909150000000000 H
   0.6316100000000000    0.3965950000000000    0.9048600000000000 H
   0.5877650000000000    0.2699150000000000    0.8648650000000000 H
   0.6455550000000000    0.6881950000000000    0.3262850000000000 H
   0.6328300000000000    0.4547100000000000    0.0615050000000000 H
   0.7373000000000001    0.5536350000000000    0.8489599999999999 H
   0.7023349999999999    0.6725750000000000    0.9252250000000000 H
   0.6249450000000000    0.6420550000000000    0.9316200000000000 H
   0.6590100000000000    0.5279250000000000    0.8588600000000000 H
   0.7590800000000000    0.7019350000000000    0.9000600000000001 H
   0.8045249999999999    0.5700400000000000    0.8575250000000000 H
   0.8793700000000000    0.6021450000000000    0.8435699999999999 H
   0.8366950000000000    0.7282200000000000    0.8866600000000000 H
   0.8827000000000000    0.5427950000000000    0.6873650000000000 H
   0.8956900000000000    0.3115900000000000    0.4240450000000000 H
   0.7373000000000001    0.0536350000000000    0.3489600000000000 H
   0.7023349999999999    0.1725750000000000    0.4252250000000000 H
   0.6249450000000000    0.1420550000000000    0.4316200000000000 H
   0.6590100000000000    0.0279250000000000    0.3588600000000000 H
   0.7590800000000000    0.2019350000000000    0.4000600000000000 H
   0.8045249999999999    0.0700400000000000    0.3575250000000000 H
   0.8793700000000000    0.1021450000000000    0.3435700000000000 H
   0.8366950000000000    0.2282200000000000    0.3866600000000000 H
   0.8827000000000000    0.0427950000000000    0.1873650000000000 H
   0.8956900000000000    0.8115900000000000    0.9240450000000000 H
   0.7635950000000000    0.4456100000000000    0.6499699999999999 H
   0.7980600000000000    0.3271650000000000    0.5728000000000000 H
   0.8757650000000000    0.3572100000000000    0.5670900000000000 H
   0.8421650000000001    0.4708850000000000    0.6406450000000000 H
   0.7417549999999999    0.2974950000000000    0.5986250000000000 H
   0.6961400000000000    0.4292350000000000    0.6414500000000000 H
   0.6218399999999999    0.3967250000000000    0.6567850000000000 H
   0.6646100000000000    0.2708200000000000    0.6132350000000000 H
   0.6175349999999999    0.4563350000000000    0.8131250000000000 H
   0.6066300000000000    0.6876000000000000    0.0762000000000000 H
   0.7635950000000000    0.9456100000000001    0.1499700000000000 H
   0.7980600000000000    0.8271649999999999    0.0728000000000000 H
   0.8757650000000000    0.8572100000000000    0.0670900000000000 H
   0.8421650000000001    0.9708850000000000    0.1406450000000000 H
   0.7417549999999999    0.7974950000000001    0.0986250000000000 H
   0.6961400000000000    0.9292350000000000    0.1414500000000000 H
   0.6218399999999999    0.8967250000000000    0.1567850000000000 H
   0.6646100000000000    0.7708200000000001    0.1132350000000000 H
   0.6175349999999999    0.9563349999999999    0.3131250000000000 H
   0.6066300000000000    0.1876000000000000    0.5762000000000000 H
   0.3998457987110776    0.8870023778637797    0.8396287391886472 H
   0.4126487474580228    0.9316375368471447    0.8715999357934396 H
   0.3548500000000000    0.8097150000000000    0.6722950000000000 H
   0.3686900000000000    0.0438600000000000    0.9367850000000000 H
   0.3548500000000000    0.3097150000000000    0.1722950000000000 H
   0.3686900000000000    0.5438600000000000    0.4367850000000000 H
   0.5121150000000000    0.0557600000000000    0.0947850000000000 H
   0.5446900000000000    0.1698450000000000    0.1785250000000000 H
   0.6221150000000000    0.1389300000000000    0.1850200000000000 H
   0.5903500000000000    0.0293700000000000    0.1050750000000000 H
   0.4903200000000000    0.2020000000000000    0.1477350000000000 H
   0.4435100000000000    0.0695500000000000    0.1089600000000000 H
   0.3684900000000000    0.1017350000000000    0.0947000000000000 H
   0.4126650000000000    0.2285300000000000    0.1339850000000000 H
   0.5889078235184870    0.8124509394313334    0.8737217025714040 H
   0.6066009662955620    0.8636766976790972    0.8900121007510742 H
   0.6455550000000000    0.1881950000000000    0.3262850000000000 H
   0.6328300000000000    0.9547099999999999    0.0615050000000000 H
   0.5121150000000000    0.5557600000000000    0.5947850000000000 H
   0.5446900000000000    0.6698450000000000    0.6785250000000000 H
   0.6221150000000000    0.6389300000000000    0.6850200000000000 H
   0.5903500000000000    0.5293700000000000    0.6050750000000000 H
   0.4903200000000000    0.7020000000000000    0.6477349999999999 H
   0.4435100000000000    0.5695500000000000    0.6089599999999999 H
   0.3684900000000000    0.6017350000000000    0.5947000000000000 H
   0.4126650000000000    0.7285300000000000    0.6339850000000000 H
   0.4878050000000000    0.4425900000000000    0.4044550000000000 H
   0.4555300000000000    0.3281950000000000    0.3209950000000000 H
   0.3781400000000000    0.3590050000000000    0.3142150000000000 H
   0.4096450000000000    0.4688800000000000    0.3938600000000000 H
   0.5100300000000000    0.2963400000000000    0.3513250000000000 H
   0.5564650000000000    0.4286950000000000    0.3909150000000000 H
   0.6316100000000000    0.3965950000000000    0.4048600000000000 H
   0.5877650000000000    0.2699150000000000    0.3648650000000000 H
   0.6455550000000000    0.6881950000000000    0.8262849999999999 H
   0.6328300000000000    0.4547100000000000    0.5615050000000000 H
   0.2373000000000000    0.5536350000000000    0.8489599999999999 H
   0.2023350000000000    0.6725750000000000    0.9252250000000000 H
   0.1249450000000000    0.6420550000000000    0.9316200000000000 H
   0.1590100000000000    0.5279250000000000    0.8588600000000000 H
   0.2590800000000000    0.7019350000000000    0.9000600000000001 H
   0.3045250000000000    0.5700400000000000    0.8575250000000000 H
   0.3793700000000000    0.6021450000000000    0.8435699999999999 H
   0.3366950000000000    0.7282200000000000    0.8866600000000000 H
   0.3827000000000000    0.5427950000000000    0.6873650000000000 H
   0.3956900000000000    0.3115900000000000    0.4240450000000000 H
   0.2373000000000000    0.0536350000000000    0.3489600000000000 H
   0.2023350000000000    0.1725750000000000    0.4252250000000000 H
   0.1249450000000000    0.1420550000000000    0.4316200000000000 H
   0.1590100000000000    0.0279250000000000    0.3588600000000000 H
   0.2590800000000000    0.2019350000000000    0.4000600000000000 H
   0.3045250000000000    0.0700400000000000    0.3575250000000000 H
   0.3793700000000000    0.1021450000000000    0.3435700000000000 H
   0.3366950000000000    0.2282200000000000    0.3866600000000000 H
   0.3827000000000000    0.0427950000000000    0.1873650000000000 H
   0.3956900000000000    0.8115900000000000    0.9240450000000000 H
   0.2635950000000000    0.4456100000000000    0.6499699999999999 H
   0.2980600000000000    0.3271650000000000    0.5728000000000000 H
   0.3757650000000000    0.3572100000000000    0.5670900000000000 H
   0.3421650000000000    0.4708850000000000    0.6406450000000000 H
   0.2417550000000000    0.2974950000000000    0.5986250000000000 H
   0.1961400000000000    0.4292350000000000    0.6414500000000000 H
   0.1218400000000000    0.3967250000000000    0.6567850000000000 H
   0.1646100000000000    0.2708200000000000    0.6132350000000000 H
   0.1175350000000000    0.4563350000000000    0.8131250000000000 H
   0.1066300000000000    0.6876000000000000    0.0762000000000000 H
   0.2635950000000000    0.9456100000000001    0.1499700000000000 H
   0.2980600000000000    0.8271649999999999    0.0728000000000000 H
   0.3757650000000000    0.8572100000000000    0.0670900000000000 H
   0.3421650000000000    0.9708850000000000    0.1406450000000000 H
   0.2417550000000000    0.7974950000000001    0.0986250000000000 H
   0.1961400000000000    0.9292350000000000    0.1414500000000000 H
   0.1218400000000000    0.8967250000000000    0.1567850000000000 H
   0.1646100000000000    0.7708200000000001    0.1132350000000000 H
   0.1175350000000000    0.9563349999999999    0.3131250000000000 H
   0.1066300000000000    0.1876000000000000    0.5762000000000000 H
   0.8548500000000000    0.3097150000000000    0.1722950000000000 H
   0.8686900000000000    0.5438600000000000    0.4367850000000000 H
   0.8548500000000000    0.8097150000000000    0.6722950000000000 H
   0.8686900000000000    0.0438600000000000    0.9367850000000000 H
   0.0121150000000000    0.5557600000000000    0.5947850000000000 H
   0.0446900000000000    0.6698450000000000    0.6785250000000000 H
   0.1221150000000000    0.6389300000000000    0.6850200000000000 H
   0.0903500000000000    0.5293700000000000    0.6050750000000000 H
   0.9903200000000000    0.7020000000000000    0.6477349999999999 H
   0.9435100000000001    0.5695500000000000    0.6089599999999999 H
   0.8684900000000000    0.6017350000000000    0.5947000000000000 H
   0.9126650000000001    0.7285300000000000    0.6339850000000000 H
   0.9878050000000000    0.4425900000000000    0.4044550000000000 H
   0.9555300000000000    0.3281950000000000    0.3209950000000000 H
   0.8781399999999999    0.3590050000000000    0.3142150000000000 H
   0.9096450000000000    0.4688800000000000    0.3938600000000000 H
   0.0100300000000000    0.2963400000000000    0.3513250000000000 H
   0.0564650000000000    0.4286950000000000    0.3909150000000000 H
   0.1316100000000000    0.3965950000000000    0.4048600000000000 H
   0.0877650000000000    0.2699150000000000    0.3648650000000000 H
   0.1455550000000000    0.6881950000000000    0.8262849999999999 H
   0.1328300000000000    0.4547100000000000    0.5615050000000000 H
   0.0121150000000000    0.0557600000000000    0.0947850000000000 H
   0.0446900000000000    0.1698450000000000    0.1785250000000000 H
   0.1221150000000000    0.1389300000000000    0.1850200000000000 H
   0.0903500000000000    0.0293700000000000    0.1050750000000000 H
   0.9903200000000000    0.2020000000000000    0.1477350000000000 H
   0.9435100000000001    0.0695500000000000    0.1089600000000000 H
   0.8684900000000000    0.1017350000000000    0.0947000000000000 H
   0.9126650000000001    0.2285300000000000    0.1339850000000000 H
   0.9878050000000000    0.9425900000000000    0.9044550000000000 H