H4 C6 O4
1.0
  27.5799981475026890    0.0000000000000000   -0.0101085977353781
   0.0456150588252982   28.7339028555716460   -0.0591773012242554
   0.0000000000000000    0.0000000000000000   21.4559999999999995
H C O
4 6 4
direct
   0.2646100000000000    0.3098700000000000    0.1806200000000000 H
   0.2273000000000000    0.3929950000000000    0.2578100000000000 H
   0.2604050000000000    0.2920050000000000    0.2938100000000000 H
   0.2201900000000000    0.3729550000000000    0.3729900000000000 H
   0.2459600000000000    0.3754950000000000    0.1349000000000000 C
   0.2515250000000000    0.3450350000000000    0.1905300000000000 C
   0.2406550000000000    0.3576350000000000    0.2496400000000000 C
   0.2460050000000000    0.3269950000000000    0.3022800000000000 C
   0.2348050000000000    0.3386750000000000    0.3616800000000000 C
   0.2418450000000000    0.3066450000000000    0.4151400000000000 C
   0.2372950000000000    0.4191600000000000    0.1440200000000000 O
   0.2499900000000000    0.3569750000000000    0.0817800000000000 O
   0.2621950000000000    0.2675900000000000    0.4052100000000000 O
   0.2271050000000000    0.3221200000000000    0.4678800000000000 O
