H12 O8
1.0
  13.5751360375096475    0.0000000000000000    0.6354380875481634
   0.5709741157569139   13.5683114912220333    0.6527846783647084
   0.0000000000000000    0.0000000000000000   13.6039999999999992
H O
12 8
direct
   1.1461067489037404    0.9654821274399366    0.3159930947342634 H
   0.2106299483186203    0.0236483166634436    0.5871446329314585 H
   0.1910905929161489   -0.0059108606820613    0.4481818268681002 H
   0.3168591795989304    0.9653226596720277    1.1454076347349367 H
   0.5888840778440495    0.0235929553547738    0.2082429856388384 H
   0.4496684625851421   -0.0060252794103660    0.1895939709597089 H
   0.6837228921912950    0.0416358212025961   -0.1449628793161577 H
   0.4140870271731759    0.9758374397218494    0.7912256630413257 H
   0.5523640107911393    1.0092284763184145    0.8104860706811292 H
  -0.1432619864113377    0.0404746613006364    0.6836529236092040 H
   0.7927587142830718    0.9754223432116780    0.4143345324853663 H
   0.8120541098275220    1.0084099262867170    0.5524943071769192 H
   1.1246000000000000    0.9791900000000000    0.3831300000000000 O
   0.1618600000000000    0.0127200000000000    0.5394300000000000 O
   0.3839900000000000    0.9791400000000000    1.1234800000000000 O
   0.5407900000000000    0.0127300000000000    0.1598300000000000 O
   0.6168700000000000    0.0263000000000000   -0.1234000000000000 O
   0.4614800000000000    0.9883800000000000    0.8398000000000000 O
  -0.1216600000000000    0.0254100000000000    0.6168800000000000 O
   0.8414500000000000    0.9879100000000000    0.4616300000000000 O
