Cu6 H12 C32 O16
1.0
  13.5751360375096475    0.0000000000000000    0.6354380875481634
   0.5709741157569139   13.5683114912220333    0.6527846783647084
   0.0000000000000000    0.0000000000000000   13.6039999999999992
Cu H C O
6 12 32 16
direct
   0.0212000000000000    0.0210900000000000    0.5837700000000000 Cu
   0.5838700000000000    0.0215600000000000    0.0192700000000000 Cu
   0.4161900000000000    0.9819099999999999    0.9803600000000000 Cu
   0.9818200000000000    0.9818700000000000    0.4163600000000000 Cu
   0.9786200000000000    0.4171900000000000    0.9807000000000000 Cu
   0.0183600000000000    0.5848100000000001    0.0197600000000000 Cu
   0.9983500000000000    0.4357300000000000    0.6650000000000000 H
   0.4329400000000000    0.6666666666666666    0.0000000000000000 H
   0.0011000000000000    0.3363000000000000    0.5657000000000000 H
   0.3330500000000000    0.5666000000000000    0.0007100000000000 H
   0.9982300000000000    0.5675600000000000    0.3351600000000000 H
   0.5643300000000000    0.3367900000000000    0.9996300000000000 H
   0.0000000000000000    0.6666666666666666    0.4344500000000000 H
   0.6634200000000000    0.4360500000000000    0.0000000000000000 H
   0.0164300000000000    0.7375500000000000    0.7365500000000000 H
   0.7354500000000000    0.7380600000000000    0.0158900000000000 H
   0.9834000000000001    0.2653900000000000    0.2639900000000000 H
   0.2623100000000000    0.2642400000000000    0.9837000000000000 H
   0.0064500000000000    0.5514800000000000    0.8169200000000000 C
   0.0023000000000000    0.5122800000000000    0.6389000000000000 C
   0.0075800000000000    0.5827500000000000    0.7099600000000000 C
   0.5495600000000000    0.8184000000000000    0.0080200000000000 C
   0.5095100000000000    0.6404100000000000    0.0036300000000000 C
   0.5803800000000000    0.7114300000000000    0.0085000000000000 C
   0.9931700000000000    0.1848000000000000    0.4496800000000000 C
   0.9972600000000000    0.3627500000000000    0.4892500000000000 C
   0.9920200000000000    0.2918200000000000    0.4187000000000000 C
   0.1815600000000000    0.4499200000000000    0.9930600000000001 C
   0.3595200000000000    0.4901400000000000    0.9972000000000000 C
   0.2886200000000000    0.4192000000000000    0.9921600000000000 C
   0.9911700000000000    0.4513600000000000    0.1836400000000000 C
   0.9958100000000000    0.4908900000000000    0.3614900000000000 C
   0.9908500000000000    0.4203000000000000    0.2905600000000000 C
   0.4487800000000000    0.1847500000000000    0.9921400000000000 C
   0.4876900000000000    0.3628300000000000    0.9967100000000000 C
   0.4172300000000000    0.2915200000000000    0.9916500000000000 C
   0.0089900000000000    0.8181800000000000    0.5504400000000000 C
   0.0040300000000000    0.6402900000000000    0.5110500000000000 C
   0.0090500000000000    0.7111900000000000    0.5816600000000000 C
   0.8153400000000000    0.5518999999999999    0.0073000000000000 C
   0.6372100000000001    0.5125900000000000    0.0032300000000000 C
   0.7084400000000000    0.5831700000000000    0.0080700000000000 C
   0.0017800000000000    0.5392700000000000    0.5379000000000000 C
   0.0121100000000000    0.6826600000000000    0.6815000000000000 C
   0.5361900000000001    0.5394200000000000    0.0021100000000000 C
   0.6803000000000000    0.6830600000000000    0.0118700000000000 C
   0.9978900000000001    0.4638600000000000    0.4624300000000000 C
   0.9876500000000000    0.3203200000000000    0.3189200000000000 C
   0.4606400000000000    0.4637200000000000    0.9983300000000001 C
   0.3172100000000000    0.3194400000000000    0.9880500000000000 C
   0.0245000000000000    0.6173600000000000    0.8768000000000000 O
   0.9868700000000000    0.4619500000000000    0.8401100000000000 O
   0.6162200000000000    0.8784700000000000    0.0239100000000000 O
   0.4594800000000000    0.8413800000000000    0.9908400000000001 O
   0.9752300000000000    0.1248800000000000    0.3837500000000000 O
   0.0128100000000000    0.1616800000000000    0.5390900000000000 O
   0.1214800000000000    0.3838900000000000    0.9752200000000000 O
   0.1585600000000000    0.5393900000000000    0.0124600000000000 O
   0.9747700000000000    0.3848500000000000    0.1238000000000000 O
   0.0087400000000000    0.5413700000000000    0.1604700000000000 O
   0.3830000000000000    0.1244800000000000    0.9741500000000000 O
   0.5383800000000000    0.1620800000000000    0.0114600000000000 O
   0.0253000000000000    0.8782400000000000    0.6167500000000000 O
   0.9917100000000000    0.8412300000000000    0.4604400000000000 O
   0.8756400000000000    0.6181500000000000    0.0237000000000000 O
   0.8380400000000000    0.4619800000000000    0.9895200000000000 O
