Y48 H150 C423 O288
1.0
  35.0152377587538055    0.0000000000000000   -0.0125281898734082
  -0.0021711130776691   27.0311697927551897   -0.0025476277489206
   0.0000000000000000    0.0000000000000000   14.8989999999999991
Y H C O
48 150 423 288
direct
   0.8747700000000000    0.1667966666666666    0.4864600000000000 Y
   0.9998000000000000    0.1668200000000000    0.7930400000000000 Y
   0.6247700000000000    0.1667966666666666    0.4864600000000000 Y
   0.7498000000000000    0.1668200000000000    0.7930400000000000 Y
   0.1247700000000000    0.1667966666666666    0.4864600000000000 Y
   0.2498000000000000    0.1668200000000000    0.7930400000000000 Y
   0.3747700000000000    0.1667966666666666    0.4864600000000000 Y
   0.4998000000000000    0.1668200000000000    0.7930400000000000 Y
   0.6247700000000000    0.5001300000000000    0.4864600000000000 Y
   0.7498000000000000    0.5001533333333333    0.7930400000000000 Y
   0.3747700000000000    0.5001300000000000    0.4864600000000000 Y
   0.4998000000000000    0.5001533333333333    0.7930400000000000 Y
   0.1247700000000000    0.5001300000000000    0.4864600000000000 Y
   0.2498000000000000    0.5001533333333333    0.7930400000000000 Y
   0.8747700000000000    0.5001300000000000    0.4864600000000000 Y
   0.9998000000000000    0.5001533333333333    0.7930400000000000 Y
   0.0001500000000000    0.3334633333333333    0.9864700000000000 Y
   0.1251725000000000    0.3334766666666666    0.2930300000000000 Y
   0.7501500000000000    0.3334633333333333    0.9864700000000000 Y
   0.8751725000000000    0.3334766666666666    0.2930300000000000 Y
   0.5001500000000000    0.3334633333333333    0.9864700000000000 Y
   0.6251725000000000    0.3334766666666666    0.2930300000000000 Y
   0.2501500000000000    0.3334633333333333    0.9864700000000000 Y
   0.3751725000000000    0.3334766666666666    0.2930300000000000 Y
   0.6247700000000000    0.8334633333333332    0.4864600000000000 Y
   0.7498000000000000    0.8334866666666666    0.7930400000000000 Y
   0.3747700000000000    0.8334633333333332    0.4864600000000000 Y
   0.4998000000000000    0.8334866666666666    0.7930400000000000 Y
   0.7501500000000000    0.0001300000000000    0.9864700000000000 Y
   0.8751725000000000    0.0001433333333333    0.2930300000000000 Y
   0.5001500000000000    0.0001300000000000    0.9864700000000000 Y
   0.6251725000000000    0.0001433333333333    0.2930300000000000 Y
   0.2501500000000000    0.0001300000000000    0.9864700000000000 Y
   0.3751725000000000    0.0001433333333333    0.2930300000000000 Y
   0.8747700000000000    0.8334633333333332    0.4864600000000000 Y
   0.0001500000000000    0.6667966666666666    0.9864700000000000 Y
   0.9998000000000000    0.8334866666666666    0.7930400000000000 Y
   0.1247700000000000    0.8334633333333332    0.4864600000000000 Y
   0.1251725000000000    0.0001433333333333    0.2930300000000000 Y
   0.0001500000000000    0.0001300000000000    0.9864700000000000 Y
   0.1251725000000000    0.6668100000000000    0.2930300000000000 Y
   0.2498000000000000    0.8334866666666666    0.7930400000000000 Y
   0.7501500000000000    0.6667966666666666    0.9864700000000000 Y
   0.8751725000000000    0.6668100000000000    0.2930300000000000 Y
   0.5001500000000000    0.6667966666666666    0.9864700000000000 Y
   0.6251725000000000    0.6668100000000000    0.2930300000000000 Y
   0.2501500000000000    0.6667966666666666    0.9864700000000000 Y
   0.3751725000000000    0.6668100000000000    0.2930300000000000 Y
   0.0617587431532288    0.1432523572983111    0.7343225665548843 H
   0.9203650000000000    0.2838833333333333    0.5006500000000000 H
   0.9374350000000000    0.4216700000000000    0.6399899999999999 H
   0.9542500000000000    0.2837733333333333    0.7790400000000000 H
   0.8293475000000000    0.0498700000000000    0.5005700000000000 H
   0.7953600000000000    0.0497333333333333    0.7788400000000000 H
   0.8124275000000000    0.9119533333333333    0.6395100000000000 H
   0.6703650000000000    0.2838833333333333    0.5006500000000000 H
   0.6874350000000000    0.4216700000000000    0.6399899999999999 H
   0.7042500000000000    0.2837733333333333    0.7790400000000000 H
   0.5793475000000000    0.0498700000000000    0.5005700000000000 H
   0.5453600000000000    0.0497333333333333    0.7788400000000000 H
   0.5624275000000000    0.9119533333333333    0.6395100000000000 H
   0.1097432208741518    0.1387063481638460    0.5640953397175436 H
   0.1134563353822338    0.1473267428271202    0.6396968630221571 H
   0.1703650000000000    0.2838833333333333    0.5006500000000000 H
   0.1874350000000000    0.4216700000000000    0.6399899999999999 H
   0.2042500000000000    0.2837733333333333    0.7790400000000000 H
   0.4203650000000000    0.2838833333333333    0.5006500000000000 H
   0.4374350000000000    0.4216700000000000    0.6399899999999999 H
   0.4542500000000000    0.2837733333333333    0.7790400000000000 H
   0.3293475000000000    0.0498700000000000    0.5005700000000000 H
   0.2953600000000000    0.0497333333333333    0.7788400000000000 H
   0.3124275000000000    0.9119533333333333    0.6395100000000000 H
   0.6703650000000000    0.6172166666666666    0.5006500000000000 H
   0.6874350000000000    0.7550033333333332    0.6399899999999999 H
   0.7042500000000000    0.6171066666666667    0.7790400000000000 H
   0.5793475000000000    0.3832033333333333    0.5005700000000000 H
   0.5453600000000000    0.3830666666666667    0.7788400000000000 H
   0.5624275000000000    0.2452866666666667    0.6395100000000000 H
   0.4203650000000000    0.6172166666666666    0.5006500000000000 H
   0.4374350000000000    0.7550033333333332    0.6399899999999999 H
   0.4542500000000000    0.6171066666666667    0.7790400000000000 H
   0.3293475000000000    0.3832033333333333    0.5005700000000000 H
   0.2953600000000000    0.3830666666666667    0.7788400000000000 H
   0.3124275000000000    0.2452866666666667    0.6395100000000000 H
   0.1703650000000000    0.6172166666666666    0.5006500000000000 H
   0.1874350000000000    0.7550033333333332    0.6399899999999999 H
   0.2042500000000000    0.6171066666666667    0.7790400000000000 H
   0.0793475000000000    0.3832033333333333    0.5005700000000000 H
   0.0453600000000000    0.3830666666666667    0.7788400000000000 H
   0.0624275000000000    0.2452866666666667    0.6395100000000000 H
   0.9203650000000000    0.6172166666666666    0.5006500000000000 H
   0.9374350000000000    0.7550033333333332    0.6399899999999999 H
   0.9542500000000000    0.6171066666666667    0.7790400000000000 H
   0.8293475000000000    0.3832033333333333    0.5005700000000000 H
   0.7953600000000000    0.3830666666666667    0.7788400000000000 H
   0.8124275000000000    0.2452866666666667    0.6395100000000000 H
   0.0456325000000000    0.2165100000000000    0.0004900000000000 H
   0.0795300000000000    0.2163666666666667    0.2788700000000000 H
   0.0624825000000000    0.0785933333333333    0.1394900000000000 H
   0.2045750000000000    0.4505433333333333    0.0006400000000000 H
   0.1705900000000000    0.4504033333333333    0.2789100000000000 H
   0.1875100000000000    0.5883133333333332    0.1400000000000000 H
   0.7956325000000000    0.2165100000000000    0.0004900000000000 H
   0.8295300000000000    0.2163666666666667    0.2788700000000000 H
   0.8124825000000000    0.0785933333333333    0.1394900000000000 H
   0.9545750000000000    0.4505433333333333    0.0006400000000000 H
   0.9205900000000000    0.4504033333333333    0.2789100000000000 H
   0.9375100000000001    0.5883133333333332    0.1400000000000000 H
   0.5456325000000000    0.2165100000000000    0.0004900000000000 H
   0.5795300000000000    0.2163666666666667    0.2788700000000000 H
   0.5624825000000000    0.0785933333333333    0.1394900000000000 H
   0.7045750000000000    0.4505433333333333    0.0006400000000000 H
   0.6705900000000000    0.4504033333333333    0.2789100000000000 H
   0.6875100000000001    0.5883133333333332    0.1400000000000000 H
   0.2956325000000000    0.2165100000000000    0.0004900000000000 H
   0.3295300000000000    0.2163666666666667    0.2788700000000000 H
   0.3124825000000000    0.0785933333333333    0.1394900000000000 H
   0.4545750000000000    0.4505433333333333    0.0006400000000000 H
   0.4205900000000000    0.4504033333333333    0.2789100000000000 H
   0.4375100000000000    0.5883133333333332    0.1400000000000000 H
   0.6703650000000000    0.9505500000000000    0.5006500000000000 H
   0.6874350000000000    0.0883366666666667    0.6399899999999999 H
   0.7042500000000000    0.9504400000000000    0.7790400000000000 H
   0.5793475000000000    0.7165366666666666    0.5005700000000000 H
   0.5453600000000000    0.7163999999999999    0.7788400000000000 H
   0.5624275000000000    0.5786199999999999    0.6395100000000000 H
   0.4203650000000000    0.9505500000000000    0.5006500000000000 H
   0.4374350000000000    0.0883366666666667    0.6399899999999999 H
   0.4542500000000000    0.9504400000000000    0.7790400000000000 H
   0.3293475000000000    0.7165366666666666    0.5005700000000000 H
   0.2953600000000000    0.7163999999999999    0.7788400000000000 H
   0.3124275000000000    0.5786199999999999    0.6395100000000000 H
   0.7956325000000000    0.8831766666666666    0.0004900000000000 H
   0.8295300000000000    0.8830333333333333    0.2788700000000000 H
   0.8124825000000000    0.7452599999999999    0.1394900000000000 H
   0.9545750000000000    0.1172100000000000    0.0006400000000000 H
   0.9205900000000000    0.1170700000000000    0.2789100000000000 H
   0.9375100000000001    0.2549800000000000    0.1400000000000000 H
   0.5456325000000000    0.8831766666666666    0.0004900000000000 H
   0.5795300000000000    0.8830333333333333    0.2788700000000000 H
   0.5624825000000000    0.7452599999999999    0.1394900000000000 H
   0.7045750000000000    0.1172100000000000    0.0006400000000000 H
   0.6705900000000000    0.1170700000000000    0.2789100000000000 H
   0.6875100000000001    0.2549800000000000    0.1400000000000000 H
   0.2956325000000000    0.8831766666666666    0.0004900000000000 H
   0.3295300000000000    0.8830333333333333    0.2788700000000000 H
   0.3124825000000000    0.7452599999999999    0.1394900000000000 H
   0.4545750000000000    0.1172100000000000    0.0006400000000000 H
   0.4205900000000000    0.1170700000000000    0.2789100000000000 H
   0.4375100000000000    0.2549800000000000    0.1400000000000000 H
   0.9203650000000000    0.9505500000000000    0.5006500000000000 H
   0.9374350000000000    0.0883366666666667    0.6399899999999999 H
   0.9542500000000000    0.9504400000000000    0.7790400000000000 H
   0.8293475000000000    0.7165366666666666    0.5005700000000000 H
   0.7953600000000000    0.7163999999999999    0.7788400000000000 H
   0.8124275000000000    0.5786199999999999    0.6395100000000000 H
   0.0456325000000000    0.5498433333333334    0.0004900000000000 H
   0.0795300000000000    0.5497000000000000    0.2788700000000000 H
   0.0624825000000000    0.4119266666666667    0.1394900000000000 H
   0.2045750000000000    0.1172100000000000    0.0006400000000000 H
   0.1705900000000000    0.1170700000000000    0.2789100000000000 H
   0.1875100000000000    0.2549800000000000    0.1400000000000000 H
   0.1703650000000000    0.9505500000000000    0.5006500000000000 H
   0.1874350000000000    0.0883366666666667    0.6399899999999999 H
   0.2042500000000000    0.9504400000000000    0.7790400000000000 H
   0.0793475000000000    0.7165366666666666    0.5005700000000000 H
   0.0453600000000000    0.7163999999999999    0.7788400000000000 H
   0.0624275000000000    0.5786199999999999    0.6395100000000000 H
   0.0545156619966922    0.9491985194128842    0.8978943904361700 H
   0.0445717496657049    0.8713115102205865    0.7888409280209284 H
   0.2045750000000000    0.7838766666666667    0.0006400000000000 H
   0.1705900000000000    0.7837366666666666    0.2789100000000000 H
   0.1875100000000000    0.9216466666666666    0.1400000000000000 H
   0.0959453216766108    0.9446686272835148    0.3727621890673920 H
   0.0968228645288609    0.8690245617346944    0.4909529038424301 H
   0.1075838894502780    0.8437991610972367    0.4181455334439999 H
   0.0456325000000000    0.8831766666666666    0.0004900000000000 H
   0.0795300000000000    0.8830333333333333    0.2788700000000000 H
   0.0624825000000000    0.7452599999999999    0.1394900000000000 H
   0.0857718881971451    0.8323206514338156    0.8645703206783233 H
   0.7956325000000000    0.5498433333333334    0.0004900000000000 H
   0.8295300000000000    0.5497000000000000    0.2788700000000000 H
   0.8124825000000000    0.4119266666666667    0.1394900000000000 H
   0.9545750000000000    0.7838766666666667    0.0006400000000000 H
   0.9205900000000000    0.7837366666666666    0.2789100000000000 H
   0.9375100000000001    0.9216466666666666    0.1400000000000000 H
   0.5456325000000000    0.5498433333333334    0.0004900000000000 H
   0.5795300000000000    0.5497000000000000    0.2788700000000000 H
   0.5624825000000000    0.4119266666666667    0.1394900000000000 H
   0.7045750000000000    0.7838766666666667    0.0006400000000000 H
   0.6705900000000000    0.7837366666666666    0.2789100000000000 H
   0.6875100000000001    0.9216466666666666    0.1400000000000000 H
   0.2956325000000000    0.5498433333333334    0.0004900000000000 H
   0.3295300000000000    0.5497000000000000    0.2788700000000000 H
   0.3124825000000000    0.4119266666666667    0.1394900000000000 H
   0.4545750000000000    0.7838766666666667    0.0006400000000000 H
   0.4205900000000000    0.7837366666666666    0.2789100000000000 H
   0.4375100000000000    0.9216466666666666    0.1400000000000000 H
   0.9372199999999999    0.2222633333333333    0.6398900000000000 C
   0.9151724999999999    0.3837066666666666    0.4800500000000000 C
   0.9597000000000000    0.3834566666666667    0.7999100000000000 C
   0.9275949999999999    0.3038300000000000    0.5618500000000000 C
   0.9373975000000000    0.3813933333333333    0.6399600000000000 C
   0.9493475000000000    0.3068300000000000    0.7178800000000000 C
   0.9473850000000000    0.3555800000000000    0.7179300000000000 C
   0.9273899999999999    0.3556500000000000    0.5619100000000000 C
   0.9372950000000000    0.2777400000000000    0.6398500000000000 C
   0.8122725000000000    0.1113833333333333    0.6397000000000000 C
   0.8347650000000000    0.9501900000000000    0.4796700000000000 C
   0.7901700000000000    0.9499333333333333    0.7994200000000000 C
   0.8221200000000000    0.0298766666666667    0.5617000000000000 C
   0.8026100000000000    0.0297966666666667    0.7176500000000000 C
   0.8124150000000000    0.9522299999999999    0.6395500000000000 C
   0.8224200000000000    0.9780533333333332    0.5616200000000000 C
   0.8023825000000000    0.9779766666666666    0.7175700000000000 C
   0.8123250000000000    0.0559033333333333    0.6396900000000000 C
   0.6872199999999999    0.2222633333333333    0.6398900000000000 C
   0.6651724999999999    0.3837066666666666    0.4800500000000000 C
   0.7097000000000000    0.3834566666666667    0.7999100000000000 C
   0.6775949999999999    0.3038300000000000    0.5618500000000000 C
   0.6873975000000000    0.3813933333333333    0.6399600000000000 C
   0.6993475000000000    0.3068300000000000    0.7178800000000000 C
   0.6973850000000000    0.3555800000000000    0.7179300000000000 C
   0.6773899999999999    0.3556500000000000    0.5619100000000000 C
   0.6872950000000000    0.2777400000000000    0.6398500000000000 C
   0.5622725000000000    0.1113833333333333    0.6397000000000000 C
   0.5847650000000000    0.9501900000000000    0.4796700000000000 C
   0.5401700000000000    0.9499333333333333    0.7994200000000000 C
   0.5721200000000000    0.0298766666666667    0.5617000000000000 C
   0.5526100000000000    0.0297966666666667    0.7176500000000000 C
   0.5624150000000000    0.9522299999999999    0.6395500000000000 C
   0.5724200000000000    0.9780533333333332    0.5616200000000000 C
   0.5523825000000000    0.9779766666666666    0.7175700000000000 C
   0.5623250000000000    0.0559033333333333    0.6396900000000000 C
   0.1872200000000000    0.2222633333333333    0.6398900000000000 C
   0.1651725000000000    0.3837066666666666    0.4800500000000000 C
   0.2097000000000000    0.3834566666666667    0.7999100000000000 C
   0.1775950000000000    0.3038300000000000    0.5618500000000000 C
   0.1873975000000000    0.3813933333333333    0.6399600000000000 C
   0.1993475000000000    0.3068300000000000    0.7178800000000000 C
   0.1973850000000000    0.3555800000000000    0.7179300000000000 C
   0.1773900000000000    0.3556500000000000    0.5619100000000000 C
   0.1872950000000000    0.2777400000000000    0.6398500000000000 C
   0.4372200000000000    0.2222633333333333    0.6398900000000000 C
   0.4151725000000000    0.3837066666666666    0.4800500000000000 C
   0.4597000000000000    0.3834566666666667    0.7999100000000000 C
   0.4275950000000000    0.3038300000000000    0.5618500000000000 C
   0.4373975000000000    0.3813933333333333    0.6399600000000000 C
   0.4493475000000000    0.3068300000000000    0.7178800000000000 C
   0.4473850000000000    0.3555800000000000    0.7179300000000000 C
   0.4273900000000000    0.3556500000000000    0.5619100000000000 C
   0.4372950000000000    0.2777400000000000    0.6398500000000000 C
   0.3122725000000000    0.1113833333333333    0.6397000000000000 C
   0.3347650000000000    0.9501900000000000    0.4796700000000000 C
   0.2901700000000000    0.9499333333333333    0.7994200000000000 C
   0.3221200000000000    0.0298766666666667    0.5617000000000000 C
   0.3026100000000000    0.0297966666666667    0.7176500000000000 C
   0.3124150000000000    0.9522299999999999    0.6395500000000000 C
   0.3224200000000000    0.9780533333333332    0.5616200000000000 C
   0.3023825000000000    0.9779766666666666    0.7175700000000000 C
   0.3123250000000000    0.0559033333333333    0.6396900000000000 C
   0.6872199999999999    0.5555966666666666    0.6398900000000000 C
   0.6651724999999999    0.7170400000000000    0.4800500000000000 C
   0.7097000000000000    0.7167899999999999    0.7999100000000000 C
   0.6775949999999999    0.6371633333333333    0.5618500000000000 C
   0.6873975000000000    0.7147266666666666    0.6399600000000000 C
   0.6993475000000000    0.6401633333333333    0.7178800000000000 C
   0.6973850000000000    0.6889133333333333    0.7179300000000000 C
   0.6773899999999999    0.6889833333333333    0.5619100000000000 C
   0.6872950000000000    0.6110733333333334    0.6398500000000000 C
   0.5622725000000000    0.4447166666666666    0.6397000000000000 C
   0.5847650000000000    0.2835233333333333    0.4796700000000000 C
   0.5401700000000000    0.2832666666666667    0.7994200000000000 C
   0.5721200000000000    0.3632100000000000    0.5617000000000000 C
   0.5526100000000000    0.3631300000000000    0.7176500000000000 C
   0.5624150000000000    0.2855633333333333    0.6395500000000000 C
   0.5724200000000000    0.3113866666666666    0.5616200000000000 C
   0.5523825000000000    0.3113100000000000    0.7175700000000000 C
   0.5623250000000000    0.3892366666666667    0.6396900000000000 C
   0.4372200000000000    0.5555966666666666    0.6398900000000000 C
   0.4151725000000000    0.7170400000000000    0.4800500000000000 C
   0.4597000000000000    0.7167899999999999    0.7999100000000000 C
   0.4275950000000000    0.6371633333333333    0.5618500000000000 C
   0.4373975000000000    0.7147266666666666    0.6399600000000000 C
   0.4493475000000000    0.6401633333333333    0.7178800000000000 C
   0.4473850000000000    0.6889133333333333    0.7179300000000000 C
   0.4273900000000000    0.6889833333333333    0.5619100000000000 C
   0.4372950000000000    0.6110733333333334    0.6398500000000000 C
   0.3122725000000000    0.4447166666666666    0.6397000000000000 C
   0.3347650000000000    0.2835233333333333    0.4796700000000000 C
   0.2901700000000000    0.2832666666666667    0.7994200000000000 C
   0.3221200000000000    0.3632100000000000    0.5617000000000000 C
   0.3026100000000000    0.3631300000000000    0.7176500000000000 C
   0.3124150000000000    0.2855633333333333    0.6395500000000000 C
   0.3224200000000000    0.3113866666666666    0.5616200000000000 C
   0.3023825000000000    0.3113100000000000    0.7175700000000000 C
   0.3123250000000000    0.3892366666666667    0.6396900000000000 C
   0.1872200000000000    0.5555966666666666    0.6398900000000000 C
   0.1651725000000000    0.7170400000000000    0.4800500000000000 C
   0.2097000000000000    0.7167899999999999    0.7999100000000000 C
   0.1775950000000000    0.6371633333333333    0.5618500000000000 C
   0.1873975000000000    0.7147266666666666    0.6399600000000000 C
   0.1993475000000000    0.6401633333333333    0.7178800000000000 C
   0.1973850000000000    0.6889133333333333    0.7179300000000000 C
   0.1773900000000000    0.6889833333333333    0.5619100000000000 C
   0.1872950000000000    0.6110733333333334    0.6398500000000000 C
   0.0622725000000000    0.4447166666666666    0.6397000000000000 C
   0.0847650000000000    0.2835233333333333    0.4796700000000000 C
   0.0401700000000000    0.2832666666666667    0.7994200000000000 C
   0.0721200000000000    0.3632100000000000    0.5617000000000000 C
   0.0526100000000000    0.3631300000000000    0.7176500000000000 C
   0.0624150000000000    0.2855633333333333    0.6395500000000000 C
   0.0724200000000000    0.3113866666666666    0.5616200000000000 C
   0.0523825000000000    0.3113100000000000    0.7175700000000000 C
   0.0623250000000000    0.3892366666666667    0.6396900000000000 C
   0.9372199999999999    0.5555966666666666    0.6398900000000000 C
   0.9151724999999999    0.7170400000000000    0.4800500000000000 C
   0.9597000000000000    0.7167899999999999    0.7999100000000000 C
   0.9275949999999999    0.6371633333333333    0.5618500000000000 C
   0.9373975000000000    0.7147266666666666    0.6399600000000000 C
   0.9493475000000000    0.6401633333333333    0.7178800000000000 C
   0.9473850000000000    0.6889133333333333    0.7179300000000000 C
   0.9273899999999999    0.6889833333333333    0.5619100000000000 C
   0.9372950000000000    0.6110733333333334    0.6398500000000000 C
   0.8122725000000000    0.4447166666666666    0.6397000000000000 C
   0.8347650000000000    0.2835233333333333    0.4796700000000000 C
   0.7901700000000000    0.2832666666666667    0.7994200000000000 C
   0.8221200000000000    0.3632100000000000    0.5617000000000000 C
   0.8026100000000000    0.3631300000000000    0.7176500000000000 C
   0.8124150000000000    0.2855633333333333    0.6395500000000000 C
   0.8224200000000000    0.3113866666666666    0.5616200000000000 C
   0.8023825000000000    0.3113100000000000    0.7175700000000000 C
   0.8123250000000000    0.3892366666666667    0.6396900000000000 C
   0.0626675000000000    0.2780166666666666    0.1397000000000000 C
   0.0847575000000000    0.1165766666666667    0.2994300000000000 C
   0.0402225000000000    0.1168233333333333    0.9796000000000000 C
   0.0528350000000000    0.1965133333333333    0.0616500000000000 C
   0.0722925000000000    0.1964333333333333    0.2176600000000000 C
   0.0625050000000000    0.1188700000000000    0.1395300000000000 C
   0.0525150000000000    0.1446933333333333    0.0615800000000000 C
   0.0725125000000000    0.1446133333333333    0.2175800000000000 C
   0.0625875000000000    0.2225400000000000    0.1396800000000000 C
   0.1876800000000000    0.3889066666666666    0.1397900000000000 C
   0.1651950000000000    0.5501000000000000    0.2998300000000000 C
   0.2097925000000000    0.5503600000000000    0.9801200000000000 C
   0.1973150000000000    0.4704866666666666    0.0618200000000000 C
   0.1778100000000000    0.4704033333333333    0.2177800000000000 C
   0.1875100000000000    0.5480366666666666    0.1399400000000000 C
   0.1775125000000000    0.5222166666666667    0.2178700000000000 C
   0.1975500000000000    0.5223066666666667    0.0619200000000000 C
   0.1876125000000000    0.4443833333333333    0.1397800000000000 C
   0.8126675000000000    0.2780166666666666    0.1397000000000000 C
   0.8347575000000000    0.1165766666666667    0.2994300000000000 C
   0.7902225000000000    0.1168233333333333    0.9796000000000000 C
   0.8028350000000000    0.1965133333333333    0.0616500000000000 C
   0.8222925000000000    0.1964333333333333    0.2176600000000000 C
   0.8125050000000000    0.1188700000000000    0.1395300000000000 C
   0.8025150000000000    0.1446933333333333    0.0615800000000000 C
   0.8225125000000000    0.1446133333333333    0.2175800000000000 C
   0.8125875000000000    0.2225400000000000    0.1396800000000000 C
   0.9376800000000001    0.3889066666666666    0.1397900000000000 C
   0.9151950000000000    0.5501000000000000    0.2998300000000000 C
   0.9597925000000000    0.5503600000000000    0.9801200000000000 C
   0.9473150000000000    0.4704866666666666    0.0618200000000000 C
   0.9278100000000000    0.4704033333333333    0.2177800000000000 C
   0.9375100000000001    0.5480366666666666    0.1399400000000000 C
   0.9275125000000000    0.5222166666666667    0.2178700000000000 C
   0.9475500000000000    0.5223066666666667    0.0619200000000000 C
   0.9376125000000000    0.4443833333333333    0.1397800000000000 C
   0.5626675000000000    0.2780166666666666    0.1397000000000000 C
   0.5847575000000000    0.1165766666666667    0.2994300000000000 C
   0.5402225000000000    0.1168233333333333    0.9796000000000000 C
   0.5528350000000000    0.1965133333333333    0.0616500000000000 C
   0.5722925000000000    0.1964333333333333    0.2176600000000000 C
   0.5625050000000000    0.1188700000000000    0.1395300000000000 C
   0.5525150000000000    0.1446933333333333    0.0615800000000000 C
   0.5725125000000000    0.1446133333333333    0.2175800000000000 C
   0.5625875000000000    0.2225400000000000    0.1396800000000000 C
   0.6876800000000001    0.3889066666666666    0.1397900000000000 C
   0.6651950000000000    0.5501000000000000    0.2998300000000000 C
   0.7097925000000000    0.5503600000000000    0.9801200000000000 C
   0.6973150000000000    0.4704866666666666    0.0618200000000000 C
   0.6778100000000000    0.4704033333333333    0.2177800000000000 C
   0.6875100000000001    0.5480366666666666    0.1399400000000000 C
   0.6775125000000000    0.5222166666666667    0.2178700000000000 C
   0.6975500000000000    0.5223066666666667    0.0619200000000000 C
   0.6876125000000000    0.4443833333333333    0.1397800000000000 C
   0.3126675000000000    0.2780166666666666    0.1397000000000000 C
   0.3347575000000000    0.1165766666666667    0.2994300000000000 C
   0.2902225000000000    0.1168233333333333    0.9796000000000000 C
   0.3028350000000000    0.1965133333333333    0.0616500000000000 C
   0.3222925000000000    0.1964333333333333    0.2176600000000000 C
   0.3125050000000000    0.1188700000000000    0.1395300000000000 C
   0.3025150000000000    0.1446933333333333    0.0615800000000000 C
   0.3225125000000000    0.1446133333333333    0.2175800000000000 C
   0.3125875000000000    0.2225400000000000    0.1396800000000000 C
   0.4376800000000000    0.3889066666666666    0.1397900000000000 C
   0.4151950000000000    0.5501000000000000    0.2998300000000000 C
   0.4597925000000000    0.5503600000000000    0.9801200000000000 C
   0.4473150000000000    0.4704866666666666    0.0618200000000000 C
   0.4278100000000000    0.4704033333333333    0.2177800000000000 C
   0.4375100000000000    0.5480366666666666    0.1399400000000000 C
   0.4275125000000000    0.5222166666666667    0.2178700000000000 C
   0.4475500000000000    0.5223066666666667    0.0619200000000000 C
   0.4376125000000000    0.4443833333333333    0.1397800000000000 C
   0.6872199999999999    0.8889300000000000    0.6398900000000000 C
   0.6651724999999999    0.0503733333333333    0.4800500000000000 C
   0.7097000000000000    0.0501233333333333    0.7999100000000000 C
   0.6775949999999999    0.9704966666666666    0.5618500000000000 C
   0.6873975000000000    0.0480600000000000    0.6399600000000000 C
   0.6993475000000000    0.9734966666666667    0.7178800000000000 C
   0.6973850000000000    0.0222466666666667    0.7179300000000000 C
   0.6773899999999999    0.0223166666666667    0.5619100000000000 C
   0.6872950000000000    0.9444066666666666    0.6398500000000000 C
   0.5622725000000000    0.7780499999999999    0.6397000000000000 C
   0.5847650000000000    0.6168566666666666    0.4796700000000000 C
   0.5401700000000000    0.6166000000000000    0.7994200000000000 C
   0.5721200000000000    0.6965433333333333    0.5617000000000000 C
   0.5526100000000000    0.6964633333333333    0.7176500000000000 C
   0.5624150000000000    0.6188966666666667    0.6395500000000000 C
   0.5724200000000000    0.6447200000000000    0.5616200000000000 C
   0.5523825000000000    0.6446433333333332    0.7175700000000000 C
   0.5623250000000000    0.7225699999999999    0.6396900000000000 C
   0.4372200000000000    0.8889300000000000    0.6398900000000000 C
   0.4151725000000000    0.0503733333333333    0.4800500000000000 C
   0.4597000000000000    0.0501233333333333    0.7999100000000000 C
   0.4275950000000000    0.9704966666666666    0.5618500000000000 C
   0.4373975000000000    0.0480600000000000    0.6399600000000000 C
   0.4493475000000000    0.9734966666666667    0.7178800000000000 C
   0.4473850000000000    0.0222466666666667    0.7179300000000000 C
   0.4273900000000000    0.0223166666666667    0.5619100000000000 C
   0.4372950000000000    0.9444066666666666    0.6398500000000000 C
   0.3122725000000000    0.7780499999999999    0.6397000000000000 C
   0.3347650000000000    0.6168566666666666    0.4796700000000000 C
   0.2901700000000000    0.6166000000000000    0.7994200000000000 C
   0.3221200000000000    0.6965433333333333    0.5617000000000000 C
   0.3026100000000000    0.6964633333333333    0.7176500000000000 C