H9 O6
1.0
  35.0152377587538055    0.0000000000000000   -0.0125281898734082
  -0.0021711130776691   27.0311697927551897   -0.0025476277489206
   0.0000000000000000    0.0000000000000000   14.8989999999999991
H O
9 6
direct
   0.0617587431532288    0.1432523572983111    0.7343225665548843 H
   0.1097432208741518    0.1387063481638460    0.5640953397175436 H
   0.1134563353822338    0.1473267428271202    0.6396968630221571 H
   0.0959453216766108    0.9446686272835148    0.3727621890673920 H
   0.0968228645288609    0.8690245617346944    0.4909529038424301 H
   0.1075838894502780    0.8437991610972367    0.4181455334439999 H
   0.0545156619966922    0.9491985194128842    0.8978943904361700 H
   0.0445717496657049    0.8713115102205865    0.7888409280209284 H
   0.0857718881971451    0.8323206514338156    0.8645703206783233 H
   0.0408300000000000    0.1337833333333333    0.6952600000000000 O
   0.0836475000000000    0.1338400000000000    0.5840600000000000 O
   0.0882400000000000    0.9737666666666667    0.4062800000000000 O
   0.0915850000000000    0.9042166666666667    0.4877400000000000 O
   0.0368750000000000    0.9732700000000000    0.8731400000000000 O
   0.0332225000000000    0.9040266666666666    0.7908300000000000 O
