H2 C6 S1 O4
1.0
  14.8827259348112833    0.0000000000000000   -1.1357573461332422
   0.0050061833107173   39.9879996622705107    0.0013958445222903
   0.0000000000000000    0.0000000000000000   20.5249999999999986
H C S O
2 6 1 4
direct
   0.2381600000000000    0.3938850000000000    0.3300800000000000 H
   0.3095300000000000    0.3336350000000000    0.3314500000000000 H
   0.5033300000000001    0.3282350000000000    0.3311900000000000 C
   0.3601500000000000    0.4505600000000000    0.3262900000000000 C
   0.3738800000000000    0.4139250000000000    0.3276700000000000 C
   0.3098200000000000    0.3888200000000000    0.3293100000000000 C
   0.3484000000000000    0.3565750000000000    0.3303900000000000 C
   0.4413700000000000    0.3572250000000000    0.3298000000000000 C
   0.4816600000000000    0.3977450000000000    0.3280000000000000 S
   0.2814000000000000    0.4626650000000000    0.3278000000000000 O
   0.4300900000000000    0.4689900000000000    0.3240200000000000 O
   0.5877900000000000    0.3332550000000000    0.3330600000000000 O
   0.4693200000000000    0.2987400000000000    0.3304500000000000 O
