H4 O2
1.0
  14.8827259348112833    0.0000000000000000   -1.1357573461332422
   0.0050061833107173   39.9879996622705107    0.0013958445222903
   0.0000000000000000    0.0000000000000000   20.5249999999999986
H O
4 2
direct
   0.3452693323694189    0.2081256649478732    0.8043577636596393 H
   0.3998572056997897    0.2447855364247389    0.8079215249082335 H
   0.3477316603720607    0.2131523432460756    0.5255438305492173 H
   0.3823181681695885    0.2528194059710397    0.5332833596757435 H
   0.3750200000000000    0.2260450000000000    0.7817400000000000 O
   0.3655200000000000    0.2319700000000000    0.5541400000000000 O
