H6 O4
1.0
  24.6611206442229616    0.0000000000000000   -6.7756736617903934
  -0.0275108979718007   12.7698145943510735    0.0630743719043191
   0.0000000000000000    0.0000000000000000   35.4299999999999997
H O
6 4
direct
   0.3026526524082622    0.0003838092472132    0.5852036006458494 H
   0.2365665341993432    0.8813209048259901    0.5712179640982626 H
   0.2182035583891751    0.8106977729102521    0.5740035624985086 H
   0.2632078112784288    0.1192732777929769    0.4289204633384758 H
   0.2815165915435589    0.1892677716993429    0.4260468934077120 H
   0.1969522066945757    1.0006679091040926    0.4149104717518144 H
   0.3223700000000000   -0.0493300000000000    0.6045250000000000 O
   0.2533200000000000    0.8390800000000000    0.5876350000000000 O
   0.2464100000000000    0.1609300000000000    0.4123700000000000 O
   0.1771400000000000    1.0497999999999998    0.3953900000000000 O
