C8 O4 F4
1.0
  24.6611206442229616    0.0000000000000000   -6.7756736617903934
  -0.0275108979718007   12.7698145943510735    0.0630743719043191
   0.0000000000000000    0.0000000000000000   35.4299999999999997
C O F
8 4 4
direct
   0.2186300000000000    0.0848000000000000    0.4202100000000000 C
   0.2354300000000000    0.0403400000000000    0.4612450000000000 C
   0.2762900000000000    0.9653700000000000    0.4728650000000000 C
   0.2089100000000000    0.0740000000000000    0.4888350000000000 C
   0.2900500000000000    0.9261700000000000    0.5110749999999999 C
   0.2808500000000000    0.9155500000000000    0.5797600000000001 C
   0.2637800000000000    0.9600700000000000    0.5387150000000001 C
   0.2229900000000000    0.0350500000000000    0.5271000000000000 C
   0.1771400000000000    1.0497999999999998    0.3953900000000000 O
   0.2464100000000000    0.1609300000000000    0.4123700000000000 O
   0.3223700000000000   -0.0493300000000000    0.6045250000000000 O
   0.2533200000000000    0.8390800000000000    0.5876350000000000 O
   0.3020900000000000    0.9291500000000000    0.4470850000000000 F
   0.1690900000000000    0.1461200000000000    0.4782550000000000 F
   0.3293900000000000    0.8533800000000000    0.5216650000000000 F
   0.1976000000000000    0.0711300000000000    0.5530850000000000 F
