Zn32 H6 C248 O128 F124
1.0
  24.6611206442229616    0.0000000000000000   -6.7756736617903934
  -0.0275108979718007   12.7698145943510735    0.0630743719043191
   0.0000000000000000    0.0000000000000000   35.4299999999999997
Zn H C O F
32 6 248 128 124
direct
   0.0425700000000000    0.7431500000000000    0.8832050000000000 Zn
   0.0425700000000000    0.7431500000000000    0.3832050000000000 Zn
   0.2933500000000000    0.7521300000000000    0.6325850000000000 Zn
   0.2066100000000000    0.2479600000000000    0.3673850000000000 Zn
   0.7933400000000000    0.7521300000000000    0.6325850000000000 Zn
   0.7066000000000000    0.2479600000000000    0.3673850000000000 Zn
   0.3753700000000000    0.0622100000000000    0.6046800000000000 Zn
   0.1244900000000000    0.9377700000000000    0.3953650000000000 Zn
   0.6244800000000000    0.9377700000000000    0.3953650000000000 Zn
   0.8753600000000000    0.0622100000000000    0.6046800000000000 Zn
   0.5425600000000000    0.7431500000000000    0.3832050000000000 Zn
   0.9573199999999999    0.2568000000000000    0.1168250000000000 Zn
   0.4573300000000000    0.2568000000000000    0.1168250000000000 Zn
   0.6246600000000000    0.4399900000000000    0.3546250000000000 Zn
   0.3752900000000000    0.5599800000000000    0.1453650000000000 Zn
   0.1246700000000000    0.4399900000000000    0.3546250000000000 Zn
   0.8752799999999999    0.5599800000000000    0.1453650000000000 Zn
   0.2933500000000000    0.7521300000000000    0.1325850000000000 Zn
   0.7933400000000000    0.7521300000000000    0.1325850000000000 Zn
   0.2066100000000000    0.2479600000000000    0.8673850000000001 Zn
   0.7066000000000000    0.2479600000000000    0.8673850000000001 Zn
   0.6244800000000000    0.9377700000000000    0.8953650000000000 Zn
   0.8753600000000000    0.0622100000000000    0.1046800000000000 Zn
   0.1244900000000000    0.9377700000000000    0.8953650000000000 Zn
   0.3753700000000000    0.0622100000000000    0.1046800000000000 Zn
   0.5425600000000000    0.7431500000000000    0.8832050000000000 Zn
   0.9573199999999999    0.2568000000000000    0.6168250000000000 Zn
   0.4573300000000000    0.2568000000000000    0.6168250000000000 Zn
   0.6246600000000000    0.4399900000000000    0.8546250000000000 Zn
   0.3752900000000000    0.5599800000000000    0.6453650000000000 Zn
   0.1246700000000000    0.4399900000000000    0.8546250000000000 Zn
   0.8752799999999999    0.5599800000000000    0.6453650000000000 Zn
   0.2365665341993432    0.8813209048259901    0.5712179640982626 H
   0.2182035583891751    0.8106977729102521    0.5740035624985086 H
   0.2632078112784288    0.1192732777929769    0.4289204633384758 H
   0.2815165915435589    0.1892677716993429    0.4260468934077120 H
   0.3026526524082622    0.0003838092472132    0.5852036006458494 H
   0.1969522066945757    1.0006679091040926    0.4149104717518144 H
   0.1516900000000000    0.7396900000000000    0.9380450000000000 C
   0.3063100000000000    0.5802600000000000    0.0773650000000000 C
   0.2445900000000000    0.6708200000000000    0.9730449999999999 C
   0.2811700000000000    0.6316400000000000    0.0064400000000000 C
   0.1742000000000000    0.6672600000000000    0.0065600000000000 C
   0.2115100000000000    0.6314900000000000    0.0402900000000000 C
   0.2653100000000000    0.6132000000000000    0.0406600000000000 C
   0.1904400000000000    0.6894700000000000    0.9726450000000000 C
   0.1516900000000000    0.7396900000000000    0.4380450000000000 C
   0.3063100000000000    0.5802600000000000    0.5773650000000000 C
   0.2445900000000000    0.6708200000000000    0.4730450000000000 C
   0.2811700000000000    0.6316400000000000    0.5064400000000000 C
   0.1742000000000000    0.6672600000000000    0.5065600000000000 C
   0.2115100000000000    0.6314900000000000    0.5402900000000000 C
   0.2653100000000000    0.6132000000000000    0.5406600000000000 C
   0.1904400000000000    0.6894700000000000    0.4726450000000000 C
   0.5539500000000001    0.9202200000000000    0.8277250000000000 C
   0.4008700000000000    0.7572600000000000    0.6886500000000000 C
   0.4930300000000000    0.8275700000000000    0.7238500000000000 C
   0.5290200000000000    0.8685500000000000    0.7570150000000000 C
   0.4223000000000000    0.8306300000000000    0.7568500000000000 C
   0.4591500000000000    0.8671100000000000    0.7905949999999999 C
   0.5129600000000000    0.8867400000000000    0.7911300000000000 C
   0.4389400000000000    0.8080100000000000    0.7232600000000000 C
   0.9459800000000000    0.0797300000000000    0.1722800000000000 C
   0.0990900000000000    0.2427600000000000    0.3113000000000000 C
   0.0069400000000000    0.1723900000000000    0.2761450000000000 C
   0.9709500000000000    0.1313900000000000    0.2429850000000000 C
   0.0776700000000000    0.1693200000000000    0.2431400000000000 C
   0.0408300000000000    0.1328100000000000    0.2094000000000000 C
   0.9870000000000000    0.1131500000000000    0.2088700000000000 C
   0.0610300000000000    0.1919600000000000    0.2767300000000000 C
   0.0539500000000000    0.9202200000000000    0.8277000000000000 C
   0.9008600000000000    0.7572600000000000    0.6886800000000000 C
   0.9930200000000000    0.8275700000000000    0.7238500000000000 C
   0.0290200000000000    0.8685500000000000    0.7570150000000000 C
   0.9222900000000001    0.8306300000000000    0.7568550000000001 C
   0.9591400000000000    0.8671100000000000    0.7905949999999999 C
   0.0129700000000000    0.8867400000000000    0.7911300000000000 C
   0.9389300000000000    0.8080100000000000    0.7232600000000000 C
   0.4459900000000000    0.0797200000000000    0.1722800000000000 C
   0.5990799999999999    0.2427600000000000    0.3113000000000000 C
   0.5069300000000000    0.1723900000000000    0.2761450000000000 C
   0.4709500000000000    0.1313800000000000    0.2429850000000000 C
   0.5776700000000000    0.1693200000000000    0.2431400000000000 C
   0.5408200000000000    0.1328100000000000    0.2094000000000000 C
   0.4870000000000000    0.1131500000000000    0.2088700000000000 C
   0.5610200000000000    0.1919600000000000    0.2767300000000000 C
   0.4659600000000000    0.0811500000000000    0.5667949999999999 C
   0.5338000000000001    0.9186600000000000    0.4332200000000000 C
   0.4629000000000000    0.9997000000000000    0.4633050000000000 C
   0.4484400000000000    0.0397400000000000    0.4956500000000000 C
   0.5147000000000000    0.9587900000000000    0.4671950000000000 C
   0.5369100000000000    0.0000000000000000    0.5367150000000001 C
   0.5513500000000000    0.9601200000000000    0.5043700000000000 C
   0.4851000000000000    0.0410200000000000    0.5328000000000001 C
   0.0338100000000000    0.9186600000000000    0.4332200000000000 C
   0.9659500000000000    0.0811500000000000    0.5667949999999999 C
   0.9629000000000000    0.9997000000000000    0.4633050000000000 C
   0.9484399999999999    0.0397400000000000    0.4956500000000000 C
   0.0147000000000000    0.9588000000000000    0.4671950000000000 C
   0.0369200000000000    0.0000000000000000    0.5367150000000001 C
   0.0513500000000000    0.9601200000000000    0.5043700000000000 C
   0.9850900000000000    0.0410200000000000    0.5328349999999999 C
   0.7808400000000000    0.9155500000000000    0.5797600000000001 C
   0.7186200000000000    0.0848000000000000    0.4202100000000000 C
   0.7762800000000000    0.9653700000000000    0.4728650000000000 C
   0.7900400000000000    0.9261700000000000    0.5110749999999999 C
   0.7089000000000000    0.0740000000000000    0.4888350000000000 C
   0.7229800000000000    0.0350400000000000    0.5271000000000000 C
   0.7637699999999999    0.9600600000000000    0.5387150000000001 C
   0.7354200000000000    0.0403400000000000    0.4612450000000000 C
   0.6516800000000000    0.7396900000000000    0.4380450000000000 C
   0.8063000000000000    0.5802600000000000    0.5773650000000000 C
   0.7445800000000000    0.6708200000000000    0.4730450000000000 C
   0.7811600000000000    0.6316400000000000    0.5064400000000000 C
   0.6741900000000000    0.6672600000000000    0.5065600000000000 C
   0.7115000000000000    0.6314900000000000    0.5402900000000000 C
   0.7653000000000000    0.6131900000000000    0.5406600000000000 C
   0.6904200000000000    0.6894700000000000    0.4726450000000000 C
   0.8482100000000000    0.2602800000000000    0.0619700000000000 C
   0.6936300000000000    0.4197200000000000    0.9226300000000001 C
   0.7553400000000000    0.3290800000000000    0.0269450000000000 C
   0.7187600000000000    0.3682300000000000    0.9935450000000000 C
   0.8257300000000000    0.3326700000000000    0.9934350000000001 C
   0.7884300000000000    0.3684400000000000    0.9597000000000000 C
   0.7346200000000001    0.3867000000000000    0.9593250000000000 C
   0.8094900000000000    0.3104500000000000    0.0273500000000000 C
   0.3482300000000000    0.2602800000000000    0.0619700000000000 C
   0.1936400000000000    0.4197200000000000    0.9226300000000001 C
   0.2553500000000000    0.3290800000000000    0.0269450000000000 C
   0.2187700000000000    0.3682300000000000    0.9935450000000000 C
   0.3257400000000000    0.3326700000000000    0.9934350000000001 C
   0.2884400000000000    0.3684400000000000    0.9597000000000000 C
   0.2346300000000000    0.3867000000000000    0.9593250000000000 C
   0.3095000000000000    0.3104500000000000    0.0273500000000000 C
   0.7837200000000000    0.5751100000000000    0.1820350000000000 C
   0.7162200000000000    0.4248900000000000    0.3179550000000000 C
   0.7871500000000000    0.5029400000000001    0.2867150000000000 C
   0.8013600000000000    0.5387000000000000    0.2535550000000000 C
   0.7352500000000000    0.4631300000000000    0.2835800000000000 C
   0.6985700000000000    0.4612800000000000    0.2464350000000000 C
   0.7127700000000000    0.4970400000000000    0.2132700000000000 C
   0.7646700000000000    0.5368500000000000    0.2164050000000000 C
   0.5298900000000000    0.5847800000000000    0.3295700000000000 C
   0.4700700000000000    0.4152000000000000    0.1704400000000000 C
   0.4718400000000000    0.4669700000000000    0.2765500000000000 C
   0.4586600000000000    0.4274200000000000    0.2385300000000000 C
   0.5133900000000000    0.5406700000000000    0.2886000000000000 C
   0.5281300000000000    0.5330200000000000    0.2234500000000000 C
   0.5413100000000000    0.5725700000000000    0.2614750000000000 C
   0.4865800000000000    0.4593200000000000    0.2113850000000000 C
   0.2837300000000000    0.5751100000000000    0.1820000000000000 C
   0.2162400000000000    0.4248900000000000    0.3179550000000000 C
   0.1985800000000000    0.4612800000000000    0.2464350000000000 C
   0.2127900000000000    0.4970400000000000    0.2132700000000000 C
   0.2646900000000000    0.5368500000000000    0.2164050000000000 C
   0.2871700000000000    0.5029400000000001    0.2867000000000000 C
   0.3013700000000000    0.5387000000000000    0.2535550000000000 C
   0.2352700000000000    0.4631300000000000    0.2835800000000000 C
   0.0299000000000000    0.5847700000000000    0.3295700000000000 C
   0.9700600000000000    0.4152000000000000    0.1704400000000000 C
   0.9718300000000000    0.4669700000000000    0.2765500000000000 C
   0.9586500000000000    0.4274200000000000    0.2385300000000000 C
   0.0134000000000000    0.5406600000000000    0.2886200000000000 C
   0.0281400000000000    0.5330200000000000    0.2234500000000000 C
   0.0413200000000000    0.5725700000000000    0.2614750000000000 C
   0.9865699999999999    0.4593200000000000    0.2113850000000000 C
   0.5539500000000001    0.9202200000000000    0.3277250000000000 C
   0.4008700000000000    0.7572600000000000    0.1886500000000000 C
   0.4930300000000000    0.8275700000000000    0.2238500000000000 C
   0.5290200000000000    0.8685500000000000    0.2570150000000000 C
   0.4223000000000000    0.8306300000000000    0.2568500000000000 C
   0.4591500000000000    0.8671100000000000    0.2905950000000000 C
   0.5129600000000000    0.8867400000000000    0.2911300000000000 C
   0.4389400000000000    0.8080100000000000    0.2232600000000000 C
   0.0539500000000000    0.9202200000000000    0.3277000000000000 C
   0.9008600000000000    0.7572600000000000    0.1886800000000000 C
   0.9930200000000000    0.8275700000000000    0.2238500000000000 C
   0.0290200000000000    0.8685500000000000    0.2570150000000000 C
   0.9222900000000001    0.8306300000000000    0.2568550000000000 C
   0.9591400000000000    0.8671100000000000    0.2905950000000000 C
   0.0129700000000000    0.8867400000000000    0.2911300000000000 C
   0.9389300000000000    0.8080100000000000    0.2232600000000000 C
   0.9459800000000000    0.0797300000000000    0.6722800000000000 C
   0.0990900000000000    0.2427600000000000    0.8113000000000000 C
   0.0069400000000000    0.1723900000000000    0.7761450000000000 C
   0.9709500000000000    0.1313900000000000    0.7429850000000000 C
   0.0776700000000000    0.1693200000000000    0.7431400000000000 C
   0.0408300000000000    0.1328100000000000    0.7094000000000000 C
   0.9870000000000000    0.1131500000000000    0.7088700000000000 C
   0.0610300000000000    0.1919600000000000    0.7767299999999999 C
   0.4459900000000000    0.0797200000000000    0.6722800000000000 C
   0.5990799999999999    0.2427600000000000    0.8113000000000000 C
   0.5069300000000000    0.1723900000000000    0.7761450000000000 C
   0.4709500000000000    0.1313800000000000    0.7429850000000000 C
   0.5776700000000000    0.1693200000000000    0.7431400000000000 C
   0.5408200000000000    0.1328100000000000    0.7094000000000000 C
   0.4870000000000000    0.1131500000000000    0.7088700000000000 C
   0.5610200000000000    0.1919600000000000    0.7767299999999999 C
   0.0338100000000000    0.9186600000000000    0.9332199999999999 C
   0.9659500000000000    0.0811500000000000    0.0667950000000000 C
   0.9629000000000000    0.9997000000000000    0.9633050000000001 C
   0.9484399999999999    0.0397400000000000    0.9956499999999999 C
   0.0147000000000000    0.9588000000000000    0.9671950000000000 C
   0.0369200000000000    0.0000000000000000    0.0367150000000000 C
   0.0513500000000000    0.9601200000000000    0.0043700000000000 C
   0.9850900000000000    0.0410200000000000    0.0328350000000000 C
   0.7808400000000000    0.9155500000000000    0.0797600000000000 C
   0.7186200000000000    0.0848000000000000    0.9202100000000000 C
   0.7762800000000000    0.9653700000000000    0.9728650000000000 C
   0.7900400000000000    0.9261700000000000    0.0110750000000000 C
   0.7089000000000000    0.0740000000000000    0.9888350000000000 C
   0.7229800000000000    0.0350400000000000    0.0271000000000000 C
   0.7637699999999999    0.9600600000000000    0.0387150000000000 C
   0.7354200000000000    0.0403400000000000    0.9612450000000000 C
   0.4659600000000000    0.0811500000000000    0.0667950000000000 C
   0.5338000000000001    0.9186600000000000    0.9332199999999999 C
   0.4629000000000000    0.9997000000000000    0.9633050000000001 C
   0.4484400000000000    0.0397400000000000    0.9956499999999999 C
   0.5147000000000000    0.9587900000000000    0.9671950000000000 C
   0.5369100000000000    0.0000000000000000    0.0367150000000000 C
   0.5513500000000000    0.9601200000000000    0.0043700000000000 C
   0.4851000000000000    0.0410200000000000    0.0328000000000000 C
   0.2808500000000000    0.9155500000000000    0.0797600000000000 C
   0.2186300000000000    0.0848000000000000    0.9202100000000000 C
   0.2762900000000000    0.9653700000000000    0.9728650000000000 C
   0.2900500000000000    0.9261700000000000    0.0110750000000000 C
   0.2089100000000000    0.0740000000000000    0.9888350000000000 C
   0.2229900000000000    0.0350500000000000    0.0271000000000000 C
   0.2637800000000000    0.9600700000000000    0.0387150000000000 C
   0.2354300000000000    0.0403400000000000    0.9612450000000000 C
   0.6516800000000000    0.7396900000000000    0.9380450000000000 C
   0.8063000000000000    0.5802600000000000    0.0773650000000000 C
   0.7445800000000000    0.6708200000000000    0.9730449999999999 C
   0.7811600000000000    0.6316400000000000    0.0064400000000000 C
   0.6741900000000000    0.6672600000000000    0.0065600000000000 C
   0.7115000000000000    0.6314900000000000    0.0402900000000000 C
   0.7653000000000000    0.6131900000000000    0.0406600000000000 C
   0.6904200000000000    0.6894700000000000    0.9726450000000000 C
   0.8482100000000000    0.2602800000000000    0.5619700000000000 C
   0.6936300000000000    0.4197200000000000    0.4226300000000000 C
   0.7553400000000000    0.3290800000000000    0.5269450000000000 C
   0.7187600000000000    0.3682300000000000    0.4935450000000000 C
   0.8257300000000000    0.3326700000000000    0.4934350000000000 C
   0.7884300000000000    0.3684400000000000    0.4597000000000000 C
   0.7346200000000001    0.3867000000000000    0.4593250000000000 C
   0.8094900000000000    0.3104500000000000    0.5273500000000000 C
   0.3482300000000000    0.2602800000000000    0.5619700000000000 C
   0.1936400000000000    0.4197200000000000    0.4226300000000000 C
   0.2553500000000000    0.3290800000000000    0.5269450000000000 C
   0.2187700000000000    0.3682300000000000    0.4935450000000000 C
   0.3257400000000000    0.3326700000000000    0.4934350000000000 C
   0.2884400000000000    0.3684400000000000    0.4597000000000000 C
   0.2346300000000000    0.3867000000000000    0.4593250000000000 C
   0.3095000000000000    0.3104500000000000    0.5273500000000000 C
   0.7837200000000000    0.5751100000000000    0.6820349999999999 C
   0.7162200000000000    0.4248900000000000    0.8179550000000000 C
   0.7871500000000000    0.5029400000000001    0.7867150000000001 C
   0.8013600000000000    0.5387000000000000    0.7535550000000000 C
   0.7352500000000000    0.4631300000000000    0.7835799999999999 C
   0.6985700000000000    0.4612800000000000    0.7464350000000000 C
   0.7127700000000000    0.4970400000000000    0.7132700000000000 C
   0.7646700000000000    0.5368500000000000    0.7164050000000000 C
   0.5298900000000000    0.5847800000000000    0.8295699999999999 C
   0.4700700000000000    0.4152000000000000    0.6704400000000000 C
   0.4718400000000000    0.4669700000000000    0.7765500000000001 C
   0.4586600000000000    0.4274200000000000    0.7385300000000000 C
   0.5133900000000000    0.5406700000000000    0.7886000000000000 C
   0.5281300000000000    0.5330200000000000    0.7234500000000000 C
   0.5413100000000000    0.5725700000000000    0.7614750000000000 C
   0.4865800000000000    0.4593200000000000    0.7113849999999999 C
   0.2837300000000000    0.5751100000000000    0.6819999999999999 C
   0.2162400000000000    0.4248900000000000    0.8179550000000000 C
   0.1985800000000000    0.4612800000000000    0.7464350000000000 C
   0.2127900000000000    0.4970400000000000    0.7132700000000000 C
   0.2646900000000000    0.5368500000000000    0.7164050000000000 C
   0.2871700000000000    0.5029400000000001    0.7867000000000000 C
   0.3013700000000000    0.5387000000000000    0.7535550000000000 C
   0.2352700000000000    0.4631300000000000    0.7835799999999999 C
   0.0299000000000000    0.5847700000000000    0.8295699999999999 C
   0.9700600000000000    0.4152000000000000    0.6704400000000000 C
   0.9718300000000000    0.4669700000000000    0.7765500000000001 C
   0.9586500000000000    0.4274200000000000    0.7385300000000000 C
   0.0134000000000000    0.5406600000000000    0.7886200000000000 C
   0.0281400000000000    0.5330200000000000    0.7234500000000000 C
   0.0413200000000000    0.5725700000000000    0.7614750000000000 C
   0.9865699999999999    0.4593200000000000    0.7113849999999999 C
   0.1051300000000000    0.6978900000000000    0.9259200000000001 O
   0.1693600000000000    0.8218900000000000    0.9251900000000000 O
   0.3185600000000000    0.4880200000000000    0.0855000000000000 O
   0.3301900000000000    0.6563800000000000    0.1007050000000000 O
   0.1051300000000000    0.6978900000000000    0.4259200000000000 O
   0.1693600000000000    0.8218900000000000    0.4251900000000000 O
   0.3185600000000000    0.4880200000000000    0.5855000000000000 O
   0.3301900000000000    0.6563800000000000    0.6007050000000000 O
   0.2533200000000000    0.8390800000000000    0.5876350000000000 O
   0.5665500000000000    0.0124500000000000    0.8357150000000000 O
   0.5777700000000000    0.8440200000000000    0.8512299999999999 O
   0.3545400000000000    0.7990900000000000    0.6757500000000000 O
   0.4189100000000000    0.6750000000000000    0.6765099999999999 O
   0.2464100000000000    0.1609300000000000    0.4123700000000000 O
   0.9333700000000000    0.9875000000000000    0.1642500000000000 O
   0.9221200000000001    0.1559700000000000    0.1488200000000000 O
   0.1454400000000000    0.2010300000000000    0.3241900000000000 O
   0.0810200000000000    0.3249700000000000    0.3234500000000000 O
   0.0665600000000000    0.0124500000000000    0.8357150000000000 O
   0.0777800000000000    0.8440200000000000    0.8512299999999999 O
   0.8545300000000000    0.7990900000000000    0.6757600000000000 O
   0.9189000000000001    0.6750000000000000    0.6765099999999999 O
   0.4333800000000000    0.9875000000000000    0.1642500000000000 O
   0.4221200000000000    0.1559700000000000    0.1488200000000000 O
   0.6454299999999999    0.2010300000000000    0.3241500000000000 O
   0.5810100000000000    0.3249700000000000    0.3234800000000000 O
   0.4253200000000000    0.0318500000000000    0.5720900000000000 O
   0.4905500000000000    0.1593000000000000    0.5857500000000000 O
   0.5743800000000000    0.9680500000000000    0.4278700000000000 O
   0.5092300000000000    0.8404500000000000    0.4142500000000000 O
   0.3223700000000000   -0.0493300000000000    0.6045250000000000 O
   0.1771400000000000    1.0497999999999998    0.3953900000000000 O
   0.0743900000000000    0.9680400000000000    0.4278700000000000 O
   0.0000000000000000    0.8404500000000000    0.4142800000000000 O
   0.9253100000000000    0.0318500000000000    0.5720900000000000 O
   0.9905600000000000    0.1593000000000000    0.5857500000000000 O
   0.8223600000000000    0.9506700000000000    0.6045250000000000 O
   0.7533100000000000    0.8390700000000000    0.5876350000000000 O
   0.6771200000000001    0.0498000000000000    0.3953900000000000 O
   0.7464000000000000    0.1609300000000000    0.4123700000000000 O
   0.6051200000000000    0.6978900000000000    0.4259200000000000 O
   0.6693500000000000    0.8218900000000000    0.4251900000000000 O
   0.8185500000000000    0.4880200000000000    0.5855000000000000 O
   0.8301800000000000    0.6563800000000000    0.6007050000000000 O
   0.8305200000000000    0.1781300000000000    0.0748350000000000 O
   0.8947700000000000    0.3020900000000000    0.0741100000000000 O
   0.6814400000000000    0.5119800000000000    0.9142550000000000 O
   0.6697000000000000    0.3436500000000000    0.8992800000000001 O
   0.3947800000000000    0.3020900000000000    0.0741100000000000 O
   0.3305300000000000    0.1781300000000000    0.0748350000000000 O
   0.1814600000000000    0.5119800000000000    0.9142550000000000 O
   0.1697200000000000    0.3436500000000000    0.8992800000000001 O
   0.8240100000000000    0.5254100000000000    0.1767300000000000 O
   0.7593800000000001    0.6532700000000000    0.1628050000000000 O
   0.6759200000000000    0.4745600000000000    0.3232600000000000 O
   0.7406000000000000    0.3467700000000000    0.3372050000000000 O
   0.5719100000000000    0.5511800000000000    0.3543000000000000 O
   0.5017600000000000    0.6593800000000000    0.3376450000000000 O
   0.4280500000000000    0.4487900000000000    0.1457000000000000 O
   0.4981800000000000    0.3405600000000000    0.1623650000000000 O
   0.3240200000000000    0.5254100000000000    0.1767300000000000 O
   0.2593900000000000    0.6532700000000000    0.1628050000000000 O
   0.1759300000000000    0.4745600000000000    0.3232600000000000 O
   0.2406100000000000    0.3467700000000000    0.3372050000000000 O
   0.0719200000000000    0.5511800000000000    0.3543000000000000 O
   0.0000000000000000    0.6593700000000000    0.3375000000000000 O
   0.9280400000000000    0.4487900000000000    0.1457100000000000 O
   0.9981800000000000    0.3405700000000000    0.1623650000000000 O
   0.5665500000000000    0.0124500000000000    0.3357150000000000 O
   0.5777700000000000    0.8440200000000000    0.3512300000000000 O
   0.3545400000000000    0.7990900000000000    0.1757500000000000 O
   0.4189100000000000    0.6750000000000000    0.1765100000000000 O
   0.0665600000000000    0.0124500000000000    0.3357150000000000 O
   0.0777800000000000    0.8440200000000000    0.3512300000000000 O
   0.8545300000000000    0.7990900000000000    0.1757600000000000 O
   0.9189000000000001    0.6750000000000000    0.1765100000000000 O
   0.9333700000000000    0.9875000000000000    0.6642500000000000 O
   0.9221200000000001    0.1559700000000000    0.6488200000000000 O
   0.1454400000000000    0.2010300000000000    0.8241900000000000 O
   0.0810200000000000    0.3249700000000000    0.8234500000000000 O
   0.4333800000000000    0.9875000000000000    0.6642500000000000 O
   0.4221200000000000    0.1559700000000000    0.6488200000000000 O
   0.6454299999999999    0.2010300000000000    0.8241499999999999 O
   0.5810100000000000    0.3249700000000000    0.8234800000000000 O
   0.0743900000000000    0.9680400000000000    0.9278700000000000 O
   0.0000000000000000    0.8404500000000000    0.9142800000000000 O
   0.9253100000000000    0.0318500000000000    0.0720900000000000 O
   0.9905600000000000    0.1593000000000000    0.0857500000000000 O
   0.8223600000000000    0.9506700000000000    0.1045250000000000 O
   0.7533100000000000    0.8390700000000000    0.0876350000000000 O
   0.6771200000000001    0.0498000000000000    0.8953900000000000 O
   0.7464000000000000    0.1609300000000000    0.9123700000000000 O
   0.4253200000000000    0.0318500000000000    0.0720900000000000 O
   0.4905500000000000    0.1593000000000000    0.0857500000000000 O
   0.5743800000000000    0.9680500000000000    0.9278700000000000 O
   0.5092300000000000    0.8404500000000000    0.9142500000000000 O
   0.3223700000000000    0.9506700000000000    0.1045250000000000 O
   0.2533200000000000    0.8390800000000000    0.0876350000000000 O
   0.1771400000000000    0.0498000000000000    0.8953900000000000 O
   0.2464100000000000    0.1609300000000000    0.9123700000000000 O
   0.6051200000000000    0.6978900000000000    0.9259200000000001 O
   0.6693500000000000    0.8218900000000000    0.9251900000000000 O
   0.8185500000000000    0.4880200000000000    0.0855000000000000 O
   0.8301800000000000    0.6563800000000000    0.1007050000000000 O
   0.8305200000000000    0.1781300000000000    0.5748350000000000 O
   0.8947700000000000    0.3020900000000000    0.5741100000000000 O
   0.6814400000000000    0.5119800000000000    0.4142550000000000 O
   0.6697000000000000    0.3436500000000000    0.3992800000000000 O
   0.3947800000000000    0.3020900000000000    0.5741100000000000 O
   0.3305300000000000    0.1781300000000000    0.5748350000000000 O
   0.1814600000000000    0.5119800000000000    0.4142550000000000 O
   0.1697200000000000    0.3436500000000000    0.3992800000000000 O
   0.8240100000000000    0.5254100000000000    0.6767300000000001 O
   0.7593800000000001    0.6532700000000000    0.6628050000000000 O
   0.6759200000000000    0.4745600000000000    0.8232600000000000 O
   0.7406000000000000    0.3467700000000000    0.8372050000000000 O
   0.5719100000000000    0.5511800000000000    0.8543000000000001 O
   0.5017600000000000    0.6593800000000000    0.8376450000000000 O
   0.4280500000000000    0.4487900000000000    0.6456999999999999 O
   0.4981800000000000    0.3405600000000000    0.6623650000000000 O
   0.3240200000000000    0.5254100000000000    0.6767300000000001 O
   0.2593900000000000    0.6532700000000000    0.6628050000000000 O
   0.1759300000000000    0.4745600000000000    0.8232600000000000 O
   0.2406100000000000    0.3467700000000000    0.8372050000000000 O
   0.0719200000000000    0.5511800000000000    0.8543000000000001 O
   0.0000000000000000    0.6593700000000000    0.8375000000000000 O
   0.9280400000000000    0.4487900000000000    0.6457100000000000 O
   0.9981800000000000    0.3405700000000000    0.6623650000000000 O
   0.2621000000000000    0.6889700000000000    0.9410650000000000 F
   0.3330400000000000    0.6133700000000000    0.0061700000000000 F
   0.1228300000000000    0.6844400000000000    0.0078500000000000 F
   0.1956200000000000    0.6175700000000000    0.0734200000000000 F
   0.2621000000000000    0.6889700000000000    0.4410650000000000 F
   0.3330400000000000    0.6133700000000000    0.5061700000000000 F
   0.1228300000000000    0.6844400000000000    0.5078500000000000 F
   0.1956200000000000    0.6175700000000000    0.5734200000000000 F
   0.5110900000000000    0.8088000000000000    0.6922400000000000 F
   0.5805100000000000    0.8888900000000000    0.7563299999999999 F
   0.3708600000000000    0.8131500000000000    0.7578750000000001 F
   0.4424900000000000    0.8802700000000000    0.8233900000000001 F
   0.9888900000000000    0.1911700000000000    0.3077550000000000 F
   0.9194400000000000    0.1110800000000000    0.2436650000000000 F
   0.1291100000000000    0.1868200000000000    0.2421150000000000 F
   0.0574900000000000    0.1196900000000000    0.1766050000000000 F
   0.0110900000000000    0.8088100000000000    0.6922400000000000 F
   0.0805200000000000    0.8888900000000000    0.7563299999999999 F
   0.8708500000000000    0.8131500000000000    0.7578500000000000 F
   0.9424900000000000    0.8802700000000000    0.8233900000000001 F
   0.4888900000000000    0.1911700000000000    0.3077550000000000 F
   0.4194500000000000    0.1110800000000000    0.2436650000000000 F