H5 O3
1.0
   7.9828544401006649    0.0000000000000000    0.0482077604239693
   1.0877398435903378   14.3998747850284232    0.0539370760117913
   0.0000000000000000    0.0000000000000000   28.9059999999999988
H O
5 3
direct
   0.6332130967727359    0.2382540141906951    0.3362771221903191 H
   0.5522385654618933    0.1529159006845360    0.3664874832603632 H
   0.3026236890053143    0.3388352345365560    0.4429462152058152 H
   0.3986383147922378    0.4832855079812275    0.3962171734194443 H
   0.2999050807551225    0.4551192763710121    0.3361065679626850 H
   0.6158500000000000    0.1721800000000000    0.3395250000000000 O
   0.3402700000000000    0.3396600000000000    0.4747750000000000 O
   0.4076600000000000    0.4574800000000000    0.4272100000000000 O
