H6 C14 S1 O6
1.0
  13.9404455561273970    0.0000000000000000   -0.1243330070734106
  -4.0460609141672030   20.2772709412030601    0.0018044086448853
   0.0000000000000000    0.0000000000000000   22.2139999999999986
H C S O
6 14 1 6
direct
   0.3634900000000000    0.8011500000000000    0.1635300000000000 H
   0.0117700000000000    0.8815600000000000    0.3041400000000000 H
   0.0328500000000000    0.9682300000000000    0.3827000000000000 H
   0.0534100000000000    0.7330200000000000    0.1397700000000000 H
   0.0186100000000000    0.8023300000000000    0.2240000000000000 H
   0.3460200000000000    0.9989000000000000    0.3675000000000000 H
   0.2013900000000000    0.0435800000000000    0.4254200000000000 C
   0.1676800000000000    0.8907400000000000    0.2903500000000000 C
   0.2606500000000000    0.9242600000000000    0.3094700000000000 C
   0.1719700000000000    0.8435900000000000    0.2414700000000000 C
   0.2681000000000000    0.8416700000000000    0.2237000000000000 C
   0.2889200000000000    0.8022600000000000    0.1770200000000000 C
   0.2098100000000000    0.7634400000000000    0.1460300000000000 C
   0.0850800000000000    0.9065500000000000    0.3175200000000000 C
   0.0969000000000000    0.9555900000000001    0.3615800000000000 C
   0.1902800000000000    0.9892300000000001    0.3794700000000000 C
   0.1136000000000000    0.7641500000000000    0.1637000000000000 C
   0.0941500000000000    0.8033800000000000    0.2113200000000000 C
   0.2266400000000000    0.7215800000000000    0.0933600000000000 C
   0.2738200000000000    0.9728300000000000    0.3533300000000000 C
   0.3544700000000000    0.8970000000000000    0.2681400000000000 S
   0.2882100000000000    0.0708500000000000    0.4405000000000000 O
   0.1229600000000000    0.0580900000000000    0.4455600000000000 O
   0.3129100000000000    0.7111600000000000    0.0857800000000000 O
   0.1525000000000000    0.7000000000000000    1.0602300000000000 O
   0.4107700000000000    0.8610700000000000    0.3073500000000000 O
   0.4083300000000000    0.9504500000000000    0.2314800000000000 O
