H6 O4
1.0
  13.9404455561273970    0.0000000000000000   -0.1243330070734106
  -4.0460609141672030   20.2772709412030601    0.0018044086448853
   0.0000000000000000    0.0000000000000000   22.2139999999999986
H O
6 4
direct
   0.3473151115746889    0.0579727313669067    0.4262275638159573 H
   0.0565733783744625    0.0362981033700487    0.4356842078002779 H
   0.1989211809795975    0.0415402886958396    0.4272172360814204 H
   0.0883310258654446    0.7098713024396315    1.0673453046210846 H
   0.3705849877983652    0.7277147138650258    0.1101336727841005 H
   0.2337859731165199    0.7233318822864547    1.0945535788473462 H
   0.2882100000000000    0.0708500000000000    0.4405000000000000 O
   0.1229600000000000    0.0580900000000000    0.4455600000000000 O
   0.1525000000000000    0.7000000000000000    1.0602300000000000 O
   0.3129100000000000    0.7111600000000000    0.0857800000000000 O
