H6 O4
1.0
  21.3444609125270830    0.0000000000000000   -1.6611048593040512
   0.7346775027223246   12.2014544774381974   -3.7128671672976692
   0.0000000000000000    0.0000000000000000   12.7599999999999998
H O
6 4
direct
   0.6114526727765843   -0.0157734503604236    0.5141860640746394 H
   0.7453216761385500    0.9196458106763927    0.7310616135405302 H
   0.6767395246738523   -0.0512737079794912    0.6314989047076410 H
   0.4521306259898580    0.7128589557947812    1.1680830025793816 H
   0.5821035235087350    0.4926726983012081    0.2247036692883658 H
   0.5191115361973672    0.6075826561344709    1.2090171034366004 H
   0.6544100000000000   -0.0223400000000000    0.5429700000000000 O
   0.7290500000000000    0.9407300000000000    0.6665500000000000 O
   0.4774500000000000    0.6448500000000000    1.1430899999999999 O
   0.5518000000000000    0.5197800000000000    0.1767500000000000 O
