H12 C12 N2
1.0
  21.3444609125270830    0.0000000000000000   -1.6611048593040512
   0.7346775027223246   12.2014544774381974   -3.7128671672976692
   0.0000000000000000    0.0000000000000000   12.7599999999999998
H C N
12 12 2
direct
   0.8739900000000000    0.6646400000000000    0.8131300000000000 H
   0.7899900000000000    0.8138200000000000    0.8134600000000000 H
   0.7791100000000000    0.8598000000000000    0.1609500000000000 H
   0.8637200000000000    0.7101400000000000    0.1461900000000000 H
   0.7019100000000000    0.9312300000000000    0.9180000000000000 H
   0.7030600000000000    0.9607100000000000    0.0635000000000000 H
   0.6260599999999999    0.3360700000000000    0.1860100000000000 H
   0.7099700000000000    0.1867100000000000    0.1857000000000000 H
   0.7204000000000000    0.1397600000000000    0.8380000000000000 H
   0.6358900000000000    0.2896500000000000    0.8527300000000000 H
   0.7977500000000000    0.0687900000000000    0.0810000000000000 H
   0.7966100000000000    0.0392600000000000    0.9355700000000000 H
   0.8520700000000000    0.7115300000000000    0.8882500000000000 C
   0.8055200000000000    0.7938100000000000    0.8892200000000000 C
   0.7790500000000000    0.8514100000000000    0.9882900000000000 C
   0.7994200000000000    0.8199900000000000    0.0822500000000000 C
   0.8462200000000000    0.7366900000000000    0.0750200000000000 C
   0.7326500000000000    0.9471600000000000    0.9935400000000000 C
   0.6478800000000000    0.2889200000000000    0.1108700000000000 C
   0.6943500000000000    0.2065400000000000    0.1099000000000000 C
   0.7206600000000000    0.1486400000000000    0.0107800000000000 C
   0.7001900000000000    0.1798400000000000    0.9167300000000000 C
   0.6534600000000000    0.2632500000000000    0.9239600000000000 C
   0.7670200000000000    0.0528300000000000    0.0055700000000000 C
   0.8732400000000000    0.6845400000000000    0.9800700000000000 N
   0.6266200000000000    0.3157200000000000    0.0189900000000000 N
