H6 C9 O5
1.0
  21.3444609125270830    0.0000000000000000   -1.6611048593040512
   0.7346775027223246   12.2014544774381974   -3.7128671672976692
   0.0000000000000000    0.0000000000000000   12.7599999999999998
H C O
6 9 5
direct
   0.6189400000000000    0.6012400000000000    0.3460700000000000 H
   0.6422900000000000    0.7287500000000000    0.5288500000000000 H
   0.4655500000000000    0.9107000000000000    0.5010000000000000 H
   0.4446200000000000    0.7844400000000000    0.3152000000000000 H
   0.6399800000000000    0.8281700000000000    0.6979300000000001 H
   0.6176500000000000    0.9675800000000000    0.7640100000000000 H
   0.5189700000000000    0.6104200000000000    0.2049000000000000 C
   0.5302200000000000    0.6835599999999999    0.3183600000000000 C
   0.5852500000000000    0.6686299999999999    0.3807900000000000 C
   0.5980600000000000    0.7403800000000000    0.4843200000000000 C
   0.5546600000000000    0.8275600000000000    0.5200000000000000 C
   0.4987200000000000    0.8421999999999999    0.4673000000000000 C
   0.4872700000000000    0.7715100000000000    0.3633000000000000 C
   0.6232600000000000    0.9070400000000000    0.6836300000000000 C
   0.6732700000000000    0.9451000000000001    0.6249300000000000 C
   0.5623800000000000    0.9021300000000000    0.6293600000000000 O
   0.7290500000000000    0.9407300000000000    0.6665500000000000 O
   0.5518000000000000    0.5197800000000000    0.1767500000000000 O
   0.4774500000000000    0.6448500000000000    1.1430899999999999 O
   0.6544100000000000   -0.0223400000000000    0.5429700000000000 O
