H12 C12 N2
1.0
  29.8345259450120537    0.0000000000000000    4.4731740002377185
   9.6166029358411027   33.9511686292844530   12.2874863857610563
   0.0000000000000000    0.0000000000000000   25.5410000000000004
H C N
12 12 2
direct
   0.1774650000000000    0.9581566666666665    0.8966200000000000 H
   0.1362900000000000    0.9084733333333332    0.8985700000000000 H
   0.2025700000000000    0.8349433333333333    0.0512000000000000 H
   0.2382750000000000    0.8884333333333333    0.0446700000000000 H
   0.1715750000000000    0.8064600000000000    0.9842300000000000 H
   0.1315100000000000    0.8412400000000000    0.9357300000000000 H
   0.0729550000000000    0.7087533333333333    0.1011000000000000 H
   0.1141400000000000    0.7584000000000000    0.0993100000000000 H
   0.0476300000000000    0.8321766666666666    0.9468000000000000 H
   0.0119500000000000    0.7787033333333333    0.9532800000000000 H
   0.0787550000000000    0.8605166666666666    0.0138800000000000 H
   0.1188150000000000    0.8256966666666666    0.0623700000000000 H
   0.1808550000000000    0.9306433333333333    0.9303900000000001 C
   0.1590200000000000    0.9025066666666666    0.9316000000000000 C
   0.1668200000000000    0.8668233333333333    0.9745800000000000 C
   0.1955000000000000    0.8618600000000000    0.0163500000000000 C
   0.2157500000000000    0.8913000000000000    0.0130900000000000 C
   0.1450900000000000    0.8351333333333333    0.9763200000000000 C
   0.0695300000000000    0.7363066666666667    0.0674300000000000 C
   0.0913500000000000    0.7644333333333333    0.0662600000000000 C
   0.0835050000000000    0.8001633333333333    0.0234300000000000 C
   0.0547400000000000    0.8052133333333333    0.9816900000000000 C
   0.0345150000000000    0.7757799999999999    0.9848500000000000 C
   0.1052300000000000    0.8318366666666666    0.0217700000000000 C
   0.2092550000000000    0.9250266666666667    0.9700000000000000 N
   0.0410600000000000    0.7420000000000000    0.0275500000000000 N
