Zn48 H668 C946 N48 O191
1.0
  29.8345259450120537    0.0000000000000000    4.4731740002377185
   9.6166029358411027   33.9511686292844530   12.2874863857610563
   0.0000000000000000    0.0000000000000000   25.5410000000000004
Zn H C N O
48 668 946 48 191
direct
   0.9591650000000000    0.5344866666666667    0.5336300000000000 Zn
   0.2433450000000000    0.2993233333333333    0.9643300000000000 Zn
   0.4591650000000000    0.5344866666666667    0.5336300000000000 Zn
   0.7433450000000000    0.2993233333333333    0.9643300000000000 Zn
   0.0410100000000000    0.4660366666666667    0.4642500000000000 Zn
   0.7569600000000001    0.7010533333333333    0.0335200000000000 Zn
   0.5410100000000000    0.4660366666666667    0.4642500000000000 Zn
   0.2569600000000000    0.7010533333333333    0.0335200000000000 Zn
   0.9591650000000000    0.8678199999999999    0.5336300000000000 Zn
   0.2433450000000000    0.6326566666666666    0.9643300000000000 Zn
   0.4591650000000000    0.8678199999999999    0.5336300000000000 Zn
   0.7433450000000000    0.6326566666666666    0.9643300000000000 Zn
   0.5410100000000000    0.7993699999999999    0.4642500000000000 Zn
   0.2569600000000000    0.0343866666666667    0.0335200000000000 Zn
   0.0410100000000000    0.7993699999999999    0.4642500000000000 Zn
   0.7569600000000001    0.0343866666666667    0.0335200000000000 Zn
   0.4591650000000000    0.2011533333333333    0.5336300000000000 Zn
   0.7433450000000000    0.9659899999999999    0.9643300000000000 Zn
   0.9591650000000000    0.2011533333333333    0.5336300000000000 Zn
   0.2433450000000000    0.9659899999999999    0.9643300000000000 Zn
   0.0410100000000000    0.1327033333333333    0.4642500000000000 Zn
   0.7569600000000001    0.3677200000000000    0.0335200000000000 Zn
   0.5410100000000000    0.1327033333333333    0.4642500000000000 Zn
   0.2569600000000000    0.3677200000000000    0.0335200000000000 Zn
   0.7091550000000000    0.2011466666666666    0.5336100000000000 Zn
   0.9932900000000000    0.9660233333333332    0.9643300000000000 Zn
   0.2091550000000000    0.2011466666666666    0.5336100000000000 Zn
   0.4932900000000000    0.9660233333333332    0.9643300000000000 Zn
   0.7909999999999999    0.1326900000000000    0.4642000000000000 Zn
   0.5069150000000000    0.3677500000000000    0.0335100000000000 Zn
   0.2910000000000000    0.1326900000000000    0.4642000000000000 Zn
   0.0069150000000000    0.3677500000000000    0.0335100000000000 Zn
   0.7091550000000000    0.5344800000000000    0.5336100000000000 Zn
   0.9932900000000000    0.2993566666666667    0.9643300000000000 Zn
   0.2091550000000000    0.5344800000000000    0.5336100000000000 Zn
   0.4932900000000000    0.2993566666666667    0.9643300000000000 Zn
   0.7909999999999999    0.4660233333333333    0.4642000000000000 Zn
   0.5069150000000000    0.7010833333333333    0.0335100000000000 Zn
   0.2910000000000000    0.4660233333333333    0.4642000000000000 Zn
   0.0069150000000000    0.7010833333333333    0.0335100000000000 Zn
   0.2091550000000000    0.8678133333333333    0.5336100000000000 Zn
   0.4932900000000000    0.6326900000000000    0.9643300000000000 Zn
   0.7091550000000000    0.8678133333333333    0.5336100000000000 Zn
   0.9932900000000000    0.6326900000000000    0.9643300000000000 Zn
   0.7909999999999999    0.7993566666666666    0.4642000000000000 Zn
   0.5069150000000000    0.0344166666666667    0.0335100000000000 Zn
   0.2910000000000000    0.7993566666666666    0.4642000000000000 Zn
   0.0069150000000000    0.0344166666666667    0.0335100000000000 Zn
   0.2540700000000000    0.3416433333333333    0.4357000000000000 H
   0.2278150000000000    0.3067466666666666    0.4837100000000000 H
   0.2079700000000000    0.4088200000000000    0.3985900000000000 H
   0.1585850000000000    0.3350433333333333    0.5509900000000000 H
   0.1298900000000000    0.4584133333333333    0.3966700000000000 H
   0.0843000000000000    0.3884833333333333    0.5445000000000000 H
   0.2461450000000000    0.3255666666666667    0.5624000000000000 H
   0.2724050000000000    0.3604566666666666    0.5144400000000000 H
   0.2922750000000000    0.2583833333333333    0.5995700000000000 H
   0.3415850000000000    0.3321700000000000    0.4471300000000000 H
   0.4158450000000000    0.2787133333333333    0.4535200000000000 H
   0.3703300000000000    0.2087600000000000    0.6013900000000000 H
   0.2540700000000000    0.6749766666666667    0.4357000000000000 H
   0.2278150000000000    0.6400800000000000    0.4837100000000000 H
   0.2079700000000000    0.7421533333333333    0.3985900000000000 H
   0.1585850000000000    0.6683766666666666    0.5509900000000000 H
   0.1298900000000000    0.7917466666666666    0.3966700000000000 H
   0.0843000000000000    0.7218166666666667    0.5445000000000000 H
   0.2461450000000000    0.6589000000000000    0.5624000000000000 H
   0.2724050000000000    0.6937899999999999    0.5144400000000000 H
   0.2922750000000000    0.5917166666666667    0.5995700000000000 H
   0.3415850000000000    0.6655033333333333    0.4471300000000000 H
   0.4158450000000000    0.6120466666666666    0.4535200000000000 H
   0.3703300000000000    0.5420933333333333    0.6013900000000000 H
   0.2540700000000000    0.0083100000000000    0.4357000000000000 H
   0.2278150000000000    0.9734133333333332    0.4837100000000000 H
   0.2079700000000000    0.0754866666666667    0.3985900000000000 H
   0.1585850000000000    0.0017100000000000    0.5509900000000000 H
   0.1298900000000000    0.1250800000000000    0.3966700000000000 H
   0.0843000000000000    0.0551500000000000    0.5445000000000000 H
   0.2461450000000000    0.9922333333333333    0.5624000000000000 H
   0.2724050000000000    0.0271233333333333    0.5144400000000000 H
   0.2922750000000000    0.9250499999999999    0.5995700000000000 H
   0.3415850000000000    0.9988366666666666    0.4471300000000000 H
   0.4158450000000000    0.9453799999999999    0.4535200000000000 H
   0.3703300000000000    0.8754266666666666    0.6013900000000000 H
   0.7540700000000000    0.3416433333333333    0.4357000000000000 H
   0.7278150000000000    0.3067466666666666    0.4837100000000000 H
   0.7079700000000000    0.4088200000000000    0.3985900000000000 H
   0.6585850000000000    0.3350433333333333    0.5509900000000000 H
   0.6298900000000001    0.4584133333333333    0.3966700000000000 H
   0.5843000000000000    0.3884833333333333    0.5445000000000000 H
   0.7461450000000001    0.3255666666666667    0.5624000000000000 H
   0.7724050000000000    0.3604566666666666    0.5144400000000000 H
   0.7922750000000001    0.2583833333333333    0.5995700000000000 H
   0.8415850000000000    0.3321700000000000    0.4471300000000000 H
   0.9158450000000000    0.2787133333333333    0.4535200000000000 H
   0.8703300000000000    0.2087600000000000    0.6013900000000000 H
   0.7540700000000000    0.0083100000000000    0.4357000000000000 H
   0.7278150000000000    0.9734133333333332    0.4837100000000000 H
   0.7079700000000000    0.0754866666666667    0.3985900000000000 H
   0.6585850000000000    0.0017100000000000    0.5509900000000000 H
   0.6298900000000001    0.1250800000000000    0.3966700000000000 H
   0.5843000000000000    0.0551500000000000    0.5445000000000000 H
   0.7461450000000001    0.9922333333333333    0.5624000000000000 H
   0.7724050000000000    0.0271233333333333    0.5144400000000000 H
   0.7922750000000001    0.9250499999999999    0.5995700000000000 H
   0.8415850000000000    0.9988366666666666    0.4471300000000000 H
   0.9158450000000000    0.9453799999999999    0.4535200000000000 H
   0.8703300000000000    0.8754266666666666    0.6013900000000000 H
   0.7540700000000000    0.6749766666666667    0.4357000000000000 H
   0.7278150000000000    0.6400800000000000    0.4837100000000000 H
   0.7079700000000000    0.7421533333333333    0.3985900000000000 H
   0.6585850000000000    0.6683766666666666    0.5509900000000000 H
   0.6298900000000001    0.7917466666666666    0.3966700000000000 H
   0.5843000000000000    0.7218166666666667    0.5445000000000000 H
   0.7461450000000001    0.6589000000000000    0.5624000000000000 H
   0.7724050000000000    0.6937899999999999    0.5144400000000000 H
   0.7922750000000001    0.5917166666666667    0.5995700000000000 H
   0.8415850000000000    0.6655033333333333    0.4471300000000000 H
   0.9158450000000000    0.6120466666666666    0.4535200000000000 H
   0.8703300000000000    0.5420933333333333    0.6013900000000000 H
   0.4961300000000000    0.6588533333333333    0.5624800000000000 H
   0.5223800000000000    0.6937566666666666    0.5144700000000000 H
   0.5422400000000001    0.5916433333333333    0.5995100000000000 H
   0.5915850000000000    0.6655199999999999    0.4471800000000000 H
   0.6658550000000000    0.6120699999999999    0.4535500000000000 H
   0.6203100000000000    0.5420333333333334    0.6013100000000000 H
   0.5040550000000000    0.6749499999999999    0.4357100000000000 H
   0.4777950000000000    0.6400566666666667    0.4837000000000000 H
   0.4579350000000000    0.7421000000000000    0.3985400000000000 H
   0.4085850000000000    0.6683800000000000    0.5510200000000000 H
   0.3798600000000000    0.7917033333333333    0.3966200000000000 H
   0.3343050000000000    0.7218233333333333    0.5445000000000000 H
   0.4961300000000000    0.3255200000000000    0.5624800000000000 H
   0.5223800000000000    0.3604233333333333    0.5144700000000000 H
   0.5422400000000001    0.2583100000000000    0.5995100000000000 H
   0.5915850000000000    0.3321866666666666    0.4471800000000000 H
   0.6658550000000000    0.2787366666666666    0.4535500000000000 H
   0.6203100000000000    0.2087000000000000    0.6013100000000000 H
   0.5040550000000000    0.3416166666666666    0.4357100000000000 H
   0.4777950000000000    0.3067233333333333    0.4837000000000000 H
   0.4579350000000000    0.4087666666666666    0.3985400000000000 H
   0.4085850000000000    0.3350466666666667    0.5510200000000000 H
   0.3798600000000000    0.4583699999999999    0.3966200000000000 H
   0.3343050000000000    0.3884900000000000    0.5445000000000000 H
   0.9961300000000000    0.3255200000000000    0.5624800000000000 H
   0.0223800000000000    0.3604233333333333    0.5144700000000000 H
   0.0422400000000000    0.2583100000000000    0.5995100000000000 H
   0.0915850000000000    0.3321866666666666    0.4471800000000000 H
   0.1658550000000000    0.2787366666666666    0.4535500000000000 H
   0.1203100000000000    0.2087000000000000    0.6013100000000000 H
   0.0040550000000000    0.3416166666666666    0.4357100000000000 H
   0.9777950000000000    0.3067233333333333    0.4837000000000000 H
   0.9579350000000000    0.4087666666666666    0.3985400000000000 H
   0.9085850000000000    0.3350466666666667    0.5510200000000000 H
   0.8798600000000000    0.4583699999999999    0.3966200000000000 H
   0.8343050000000001    0.3884900000000000    0.5445000000000000 H
   0.4961300000000000    0.9921866666666666    0.5624800000000000 H
   0.5223800000000000    0.0270900000000000    0.5144700000000000 H
   0.5422400000000001    0.9249766666666666    0.5995100000000000 H
   0.5915850000000000    0.9988533333333333    0.4471800000000000 H
   0.6658550000000000    0.9454033333333333    0.4535500000000000 H
   0.6203100000000000    0.8753666666666666    0.6013100000000000 H
   0.5040550000000000    0.0082833333333333    0.4357100000000000 H
   0.4777950000000000    0.9733900000000000    0.4837000000000000 H
   0.4579350000000000    0.0754333333333333    0.3985400000000000 H
   0.4085850000000000    0.0017133333333333    0.5510200000000000 H
   0.3798600000000000    0.1250366666666667    0.3966200000000000 H
   0.3343050000000000    0.0551566666666667    0.5445000000000000 H
   0.9961300000000000    0.6588533333333333    0.5624800000000000 H
   0.0223800000000000    0.6937566666666666    0.5144700000000000 H
   0.0422400000000000    0.5916433333333333    0.5995100000000000 H
   0.0915850000000000    0.6655199999999999    0.4471800000000000 H
   0.1658550000000000    0.6120699999999999    0.4535500000000000 H
   0.1203100000000000    0.5420333333333334    0.6013100000000000 H
   0.0040550000000000    0.6749499999999999    0.4357100000000000 H
   0.9777950000000000    0.6400566666666667    0.4837000000000000 H
   0.9579350000000000    0.7421000000000000    0.3985400000000000 H
   0.9085850000000000    0.6683800000000000    0.5510200000000000 H
   0.8798600000000000    0.7917033333333333    0.3966200000000000 H
   0.8343050000000001    0.7218233333333333    0.5445000000000000 H
   0.9961300000000000    0.9921866666666666    0.5624800000000000 H
   0.0223800000000000    0.0270900000000000    0.5144700000000000 H
   0.0422400000000000    0.9249766666666666    0.5995100000000000 H
   0.0915850000000000    0.9988533333333333    0.4471800000000000 H
   0.1658550000000000    0.9454033333333333    0.4535500000000000 H
   0.1203100000000000    0.8753666666666666    0.6013100000000000 H
   0.0040550000000000    0.0082833333333333    0.4357100000000000 H
   0.9777950000000000    0.9733900000000000    0.4837000000000000 H
   0.9579350000000000    0.0754333333333333    0.3985400000000000 H
   0.9085850000000000    0.0017133333333333    0.5510200000000000 H
   0.8798600000000000    0.1250366666666667    0.3966200000000000 H
   0.8343050000000001    0.0551566666666667    0.5445000000000000 H
   0.3688600000000000    0.1590066666666667    0.0623600000000000 H
   0.3287600000000000    0.1938333333333333    0.0139200000000000 H
   0.3642100000000000    0.0917033333333333    0.0992800000000000 H
   0.2976100000000000    0.1655066666666667    0.9469100000000000 H
   0.2619450000000000    0.1120233333333333    0.9533100000000000 H
   0.3230300000000000    0.0420533333333333    0.1011000000000000 H
   0.4215650000000000    0.1398200000000000    0.9841000000000000 H
   0.3814600000000000    0.1746166666666667    0.9350000000000001 H
   0.3862400000000000    0.2418433333333333    0.8985600000000000 H
   0.4525750000000000    0.1682800000000000    0.0511900000000000 H
   0.4274150000000000    0.2915266666666667    0.8966000000000000 H
   0.4882700000000000    0.2217733333333333    0.0446300000000000 H
   0.8688600000000000    0.8256733333333333    0.0623600000000000 H
   0.8287599999999999    0.8604999999999999    0.0139200000000000 H
   0.8642099999999999    0.7583700000000000    0.0992800000000000 H
   0.7976099999999999    0.8321733333333333    0.9469100000000000 H
   0.7619450000000000    0.7786900000000000    0.9533100000000000 H
   0.8230299999999999    0.7087200000000000    0.1011000000000000 H
   0.9215650000000000    0.8064866666666666    0.9841000000000000 H
   0.8814600000000000    0.8412833333333333    0.9350000000000001 H
   0.8862400000000000    0.9085099999999999    0.8985600000000000 H
   0.9525749999999999    0.8349466666666666    0.0511900000000000 H
   0.9274150000000000    0.9581933333333332    0.8966000000000000 H
   0.9882700000000000    0.8884399999999999    0.0446300000000000 H
   0.3688600000000000    0.8256733333333333    0.0623600000000000 H
   0.3287600000000000    0.8604999999999999    0.0139200000000000 H
   0.3642100000000000    0.7583700000000000    0.0992800000000000 H
   0.2976100000000000    0.8321733333333333    0.9469100000000000 H
   0.2619450000000000    0.7786900000000000    0.9533100000000000 H
   0.3230300000000000    0.7087200000000000    0.1011000000000000 H
   0.4215650000000000    0.8064866666666666    0.9841000000000000 H
   0.3814600000000000    0.8412833333333333    0.9350000000000001 H
   0.3862400000000000    0.9085099999999999    0.8985600000000000 H
   0.4525750000000000    0.8349466666666666    0.0511900000000000 H
   0.4274150000000000    0.9581933333333332    0.8966000000000000 H
   0.4882700000000000    0.8884399999999999    0.0446300000000000 H
   0.8688600000000000    0.1590066666666667    0.0623600000000000 H
   0.8287599999999999    0.1938333333333333    0.0139200000000000 H
   0.8642099999999999    0.0917033333333333    0.0992800000000000 H
   0.7976099999999999    0.1655066666666667    0.9469100000000000 H
   0.7619450000000000    0.1120233333333333    0.9533100000000000 H
   0.8230299999999999    0.0420533333333333    0.1011000000000000 H
   0.9215650000000000    0.1398200000000000    0.9841000000000000 H
   0.8814600000000000    0.1746166666666667    0.9350000000000001 H
   0.8862400000000000    0.2418433333333333    0.8985600000000000 H
   0.9525749999999999    0.1682800000000000    0.0511900000000000 H
   0.9274150000000000    0.2915266666666667    0.8966000000000000 H
   0.9882700000000000    0.2217733333333333    0.0446300000000000 H
   0.8688600000000000    0.4923400000000000    0.0623600000000000 H
   0.8287599999999999    0.5271666666666667    0.0139200000000000 H
   0.8642099999999999    0.4250366666666666    0.0992800000000000 H
   0.7976099999999999    0.4988400000000000    0.9469100000000000 H
   0.7619450000000000    0.4453566666666666    0.9533100000000000 H
   0.8230299999999999    0.3753866666666666    0.1011000000000000 H
   0.9215650000000000    0.4731533333333333    0.9841000000000000 H
   0.8814600000000000    0.5079500000000000    0.9350000000000001 H
   0.8862400000000000    0.5751766666666667    0.8985600000000000 H
   0.9525749999999999    0.5016133333333332    0.0511900000000000 H
   0.9274150000000000    0.6248600000000000    0.8966000000000000 H
   0.9882700000000000    0.5551066666666666    0.0446300000000000 H
   0.1188150000000000    0.8256966666666666    0.0623700000000000 H
   0.0787550000000000    0.8605166666666666    0.0138800000000000 H
   0.1141400000000000    0.7584000000000000    0.0993100000000000 H
   0.0476300000000000    0.8321766666666666    0.9468000000000000 H
   0.0119500000000000    0.7787033333333333    0.9532800000000000 H
   0.0729550000000000    0.7087533333333333    0.1011000000000000 H
   0.1315100000000000    0.8412400000000000    0.9357300000000000 H
   0.1715750000000000    0.8064600000000000    0.9842300000000000 H
   0.1362900000000000    0.9084733333333332    0.8985700000000000 H
   0.2025700000000000    0.8349433333333333    0.0512000000000000 H
   0.2382750000000000    0.8884333333333333    0.0446700000000000 H
   0.1774650000000000    0.9581566666666665    0.8966200000000000 H
   0.6188150000000000    0.8256966666666666    0.0623700000000000 H
   0.5787550000000000    0.8605166666666666    0.0138800000000000 H
   0.6141400000000000    0.7584000000000000    0.0993100000000000 H
   0.5476300000000000    0.8321766666666666    0.9468000000000000 H
   0.5119500000000000    0.7787033333333333    0.9532800000000000 H
   0.5729550000000000    0.7087533333333333    0.1011000000000000 H
   0.6315100000000000    0.8412400000000000    0.9357300000000000 H
   0.6715750000000000    0.8064600000000000    0.9842300000000000 H
   0.6362900000000000    0.9084733333333332    0.8985700000000000 H
   0.7025700000000000    0.8349433333333333    0.0512000000000000 H
   0.7382750000000000    0.8884333333333333    0.0446700000000000 H
   0.6774650000000000    0.9581566666666665    0.8966200000000000 H
   0.6188150000000000    0.1590300000000000    0.0623700000000000 H
   0.5787550000000000    0.1938500000000000    0.0138800000000000 H
   0.6141400000000000    0.0917333333333333    0.0993100000000000 H
   0.5476300000000000    0.1655100000000000    0.9468000000000000 H
   0.5119500000000000    0.1120366666666667    0.9532800000000000 H
   0.5729550000000000    0.0420866666666667    0.1011000000000000 H
   0.6315100000000000    0.1745733333333333    0.9357300000000000 H
   0.6715750000000000    0.1397933333333333    0.9842300000000000 H
   0.6362900000000000    0.2418066666666666    0.8985700000000000 H
   0.7025700000000000    0.1682766666666667    0.0512000000000000 H
   0.7382750000000000    0.2217666666666667    0.0446700000000000 H
   0.6774650000000000    0.2914900000000000    0.8966200000000000 H
   0.1188150000000000    0.1590300000000000    0.0623700000000000 H
   0.0787550000000000    0.1938500000000000    0.0138800000000000 H
   0.1141400000000000    0.0917333333333333    0.0993100000000000 H
   0.0476300000000000    0.1655100000000000    0.9468000000000000 H
   0.0119500000000000    0.1120366666666667    0.9532800000000000 H
   0.0729550000000000    0.0420866666666667    0.1011000000000000 H
   0.1315100000000000    0.1745733333333333    0.9357300000000000 H
   0.1715750000000000    0.1397933333333333    0.9842300000000000 H
   0.1362900000000000    0.2418066666666666    0.8985700000000000 H
   0.2025700000000000    0.1682766666666667    0.0512000000000000 H
   0.2382750000000000    0.2217666666666667    0.0446700000000000 H
   0.1774650000000000    0.2914900000000000    0.8966200000000000 H
   0.9764555113251565    0.5076168442547461    0.6352484545448734 H
   0.3688600000000000    0.4923400000000000    0.0623600000000000 H
   0.3287600000000000    0.5271666666666667    0.0139200000000000 H
   0.2018249142367060    0.3636460664077556    0.9939475684059531 H
   0.3642100000000000    0.4250366666666666    0.0992800000000000 H
   0.2976100000000000    0.4988400000000000    0.9469100000000000 H
   0.2283861238597040    0.4395368046132084   -0.0109790655231739 H
   0.2216323695816182    0.4222565025398595   -0.0279888025363366 H
   0.2619450000000000    0.4453566666666666    0.9533100000000000 H
   0.3230300000000000    0.3753866666666666    0.1011000000000000 H
   0.4215650000000000    0.4731533333333333    0.9841000000000000 H
   0.3814600000000000    0.5079500000000000    0.9350000000000001 H
   0.3862400000000000    0.5751766666666667    0.8985600000000000 H
   0.4525750000000000    0.5016133333333332    0.0511900000000000 H
   0.4274150000000000    0.6248600000000000    0.8966000000000000 H
   0.4882700000000000    0.5551066666666666    0.0446300000000000 H
   0.1188150000000000    0.4923633333333333    0.0623700000000000 H
   0.0787550000000000    0.5271833333333333    0.0138800000000000 H
   0.1141400000000000    0.4250666666666666    0.0993100000000000 H
   0.0476300000000000    0.4988433333333333    0.9468000000000000 H
   0.0119500000000000    0.4453700000000000    0.9532800000000000 H
   0.0729550000000000    0.3754200000000000    0.1011000000000000 H
   0.1315100000000000    0.5079066666666666    0.9357300000000000 H
   0.1715750000000000    0.4731266666666666    0.9842300000000000 H
   0.1362900000000000    0.5751400000000000    0.8985700000000000 H
   0.2025700000000000    0.5016100000000000    0.0512000000000000 H
   0.2382750000000000    0.5550999999999999    0.0446700000000000 H
   0.1774650000000000    0.6248233333333333    0.8966200000000000 H
   0.4891900000000000    0.3808566666666666    0.6107399999999999 H
   0.4390400000000000    0.3479300000000000    0.6849000000000000 H
   0.3701500000000000    0.4785833333333333    0.5524300000000000 H
   0.3198000000000000    0.4458500000000000    0.6248700000000000 H
   0.4021850000000000    0.3515900000000000    0.7663400000000000 H
   0.3531650000000000    0.3238133333333333    0.8460800000000001 H
   0.2344650000000000    0.3712299999999999    0.7460000000000000 H
   0.2829750000000000    0.3991266666666666    0.6646500000000000 H
   0.6775300000000000    0.4529566666666667    0.8872900000000000 H
   0.6211900000000000    0.4860099999999999    0.8132100000000000 H
   0.6171550000000000    0.3553066666666667    0.9454700000000000 H
   0.5603200000000000    0.3881566666666666    0.8731400000000000 H
   0.5574450000000000    0.5102400000000000    0.6520100000000000 H
   0.6073450000000000    0.4824800000000000    0.7317100000000000 H
   0.4492900000000000    0.4627966666666666    0.7521800000000000 H
   0.4983550000000000    0.4349533333333333    0.8334900000000000 H
   0.9891900000000000    0.3808566666666666    0.6107399999999999 H
   0.9390400000000000    0.3479300000000000    0.6849000000000000 H
   0.8701500000000000    0.4785833333333333    0.5524300000000000 H
   0.8198000000000000    0.4458500000000000    0.6248700000000000 H
   0.9021850000000000    0.3515900000000000    0.7663400000000000 H
   0.8531650000000000    0.3238133333333333    0.8460800000000001 H
   0.7344650000000000    0.3712299999999999    0.7460000000000000 H
   0.7829750000000000    0.3991266666666666    0.6646500000000000 H
   0.9426250000000000    0.4902333333333333    0.3460300000000000 H
   0.8927149999999999    0.5179966666666667    0.2663000000000000 H
   0.0507700000000000    0.5376966666666667    0.2458700000000000 H
   0.0016900000000000    0.5655600000000000    0.1645000000000000 H
   0.8226400000000000    0.5473733333333333    0.1107000000000000 H
   0.8789500000000000    0.5143933333333333    0.1848600000000000 H
   0.8829500000000000    0.6450700000000000    0.0524800000000000 H
   0.9397300000000000    0.6122900000000000    0.1248900000000000 H
   0.5110050000000000    0.6196900000000000    0.3871700000000000 H
   0.5611600000000000    0.6525966666666667    0.3129800000000000 H
   0.6300350000000000    0.5219733333333333    0.4455200000000000 H
   0.6803950000000000    0.5546866666666667    0.3730700000000000 H
   0.6470450000000000    0.6767433333333333    0.1518200000000000 H
   0.5980350000000000    0.6489333333333334    0.2315400000000000 H
   0.7657499999999999    0.6292966666666666    0.2519000000000000 H
   0.7172250000000000    0.6014233333333333    0.3332500000000000 H
   0.4426250000000000    0.4902333333333333    0.3460300000000000 H
   0.3927150000000000    0.5179966666666667    0.2663000000000000 H
   0.5507700000000000    0.5376966666666667    0.2458700000000000 H
   0.5016900000000000    0.5655600000000000    0.1645000000000000 H
   0.3226400000000000    0.5473733333333333    0.1107000000000000 H
   0.3789500000000000    0.5143933333333333    0.1848600000000000 H
   0.3829500000000000    0.6450700000000000    0.0524800000000000 H
   0.4397300000000000    0.6122900000000000    0.1248900000000000 H
   0.0110050000000000    0.6196900000000000    0.3871700000000000 H
   0.0611600000000000    0.6525966666666667    0.3129800000000000 H
   0.1300350000000000    0.5219733333333333    0.4455200000000000 H
   0.1803950000000000    0.5546866666666667    0.3730700000000000 H
   0.1470450000000000    0.6767433333333333    0.1518200000000000 H
   0.0980350000000000    0.6489333333333334    0.2315400000000000 H
   0.2657500000000000    0.6292966666666666    0.2519000000000000 H
   0.2172250000000000    0.6014233333333333    0.3332500000000000 H
   0.1775300000000000    0.7862899999999999    0.8872900000000000 H
   0.1211900000000000    0.8193433333333333    0.8132100000000000 H
   0.1171550000000000    0.6886399999999999    0.9454700000000000 H
   0.0603200000000000    0.7214900000000000    0.8731400000000000 H
   0.0574450000000000    0.8435733333333333    0.6520100000000000 H
   0.1073450000000000    0.8158133333333333    0.7317100000000000 H
   0.9492900000000000    0.7961300000000000    0.7521800000000000 H
   0.9983550000000000    0.7682866666666667    0.8334900000000000 H
   0.4891900000000000    0.7141900000000000    0.6107399999999999 H
   0.4390400000000000    0.6812633333333333    0.6849000000000000 H
   0.3701500000000000    0.8119166666666666    0.5524300000000000 H
   0.3198000000000000    0.7791833333333333    0.6248700000000000 H
   0.4021850000000000    0.6849233333333333    0.7663400000000000 H
   0.3531650000000000    0.6571466666666665    0.8460800000000001 H
   0.2344650000000000    0.7045633333333333    0.7460000000000000 H
   0.2829750000000000    0.7324600000000000    0.6646500000000000 H
   0.6775300000000000    0.7862899999999999    0.8872900000000000 H
   0.6211900000000000    0.8193433333333333    0.8132100000000000 H
   0.6171550000000000    0.6886399999999999    0.9454700000000000 H
   0.5603200000000000    0.7214900000000000    0.8731400000000000 H
   0.5574450000000000    0.8435733333333333    0.6520100000000000 H
   0.6073450000000000    0.8158133333333333    0.7317100000000000 H
   0.4492900000000000    0.7961300000000000    0.7521800000000000 H
   0.4983550000000000    0.7682866666666667    0.8334900000000000 H
   0.9891900000000000    0.7141900000000000    0.6107399999999999 H
   0.9390400000000000    0.6812633333333333    0.6849000000000000 H
   0.8701500000000000    0.8119166666666666    0.5524300000000000 H
   0.8198000000000000    0.7791833333333333    0.6248700000000000 H
   0.9021850000000000    0.6849233333333333    0.7663400000000000 H
   0.8531650000000000    0.6571466666666665    0.8460800000000001 H
   0.7344650000000000    0.7045633333333333    0.7460000000000000 H
   0.7829750000000000    0.7324600000000000    0.6646500000000000 H
   0.4426250000000000    0.8235666666666666    0.3460300000000000 H
   0.3927150000000000    0.8513299999999999    0.2663000000000000 H
   0.5507700000000000    0.8710300000000000    0.2458700000000000 H
   0.5016900000000000    0.8988933333333333    0.1645000000000000 H
   0.3226400000000000    0.8807066666666666    0.1107000000000000 H
   0.3789500000000000    0.8477266666666666    0.1848600000000000 H
   0.3829500000000000    0.9784033333333333    0.0524800000000000 H
   0.4397300000000000    0.9456233333333333    0.1248900000000000 H
   0.0110050000000000    0.9530233333333333    0.3871700000000000 H
   0.0611600000000000    0.9859300000000000    0.3129800000000000 H
   0.1300350000000000    0.8553066666666667    0.4455200000000000 H
   0.1803950000000000    0.8880199999999999    0.3730700000000000 H
   0.1470450000000000    0.0100766666666667    0.1518200000000000 H
   0.0980350000000000    0.9822666666666666    0.2315400000000000 H
   0.2657500000000000    0.9626299999999999    0.2519000000000000 H
   0.2172250000000000    0.9347566666666667    0.3332500000000000 H
   0.9426250000000000    0.8235666666666666    0.3460300000000000 H
   0.8927149999999999    0.8513299999999999    0.2663000000000000 H
   0.0507700000000000    0.8710300000000000    0.2458700000000000 H
   0.0016900000000000    0.8988933333333333    0.1645000000000000 H