H4 O3
1.0
  29.8345259450120537    0.0000000000000000    4.4731740002377185
   9.6166029358411027   33.9511686292844530   12.2874863857610563
   0.0000000000000000    0.0000000000000000   25.5410000000000004
H O
4 3
direct
   0.9764555113251565    0.5076168442547461    0.6352484545448734 H
   0.2018249142367060    0.3636460664077556    0.9939475684059531 H
   0.2283861238597040    0.4395368046132084   -0.0109790655231739 H
   0.2216323695816182    0.4222565025398595   -0.0279888025363366 H
   0.9927650000000000    0.5184599999999999    0.6002500000000000 O
   0.1942150000000000    0.3430766666666666    0.9847300000000000 O
   0.2135000000000000    0.3993000000000000   -0.0290100000000000 O
