H4 C8 O4
1.0
  15.9828464755729218    0.0000000000000000    9.1627259883871996
   5.3120697660091114   15.0827331113349832    9.1628585437783148
   0.0000000000000000    0.0000000000000000   18.4299999999999997
H C O
4 8 4
direct
   0.0484400000000000    0.5680300000000000    0.0484500000000000 H
   0.0477100000000000    0.3357300000000000    0.0477200000000000 H
   0.9515700000000000    0.4319600000000000    0.9515200000000000 H
   0.9523000000000000    0.6642600000000000    0.9522000000000000 H
   0.0268300000000000    0.5389900000000000    0.0268400000000000 C
   0.0264300000000000    0.4076900000000000    0.0264400000000000 C
   0.9731800000000000    0.4610000000000000    0.9731300000000001 C
   0.9735800000000000    0.5923000000000000    0.9735300000000000 C
   0.1109300000000000    0.3889800000000000    0.1109800000000000 C
   0.0536200000000000    0.4463300000000000    0.0536400000000000 C
   0.8890800000000000    0.6110200000000000    0.8889899999999999 C
   0.9463900000000000    0.5536600000000000    0.9463300000000000 C
   0.1332000000000000    0.4286000000000000    0.1331800000000000 O
   0.1328400000000000    0.3052000000000000    0.1329900000000000 O
   0.8668100000000000    0.5714000000000000    0.8667899999999999 O
   0.8671700000000000    0.6948000000000000    0.8669800000000000 O
