Zn8 H26 C40 O26
1.0
  15.9828464755729218    0.0000000000000000    9.1627259883871996
   5.3120697660091114   15.0827331113349832    9.1628585437783148
   0.0000000000000000    0.0000000000000000   18.4299999999999997
Zn H C O
8 26 40 26
direct
   0.2066800000000000    0.3804100000000000    0.2066800000000000 Zn
   0.2066800000000000    0.2066900000000000    0.3804100000000000 Zn
   0.3805000000000000    0.2067000000000000    0.2066900000000000 Zn
   0.2062500000000000    0.2063700000000000    0.2063600000000000 Zn
   0.7933300000000000    0.7933000000000000    0.6195600000000000 Zn
   0.7933400000000000    0.6195800000000000    0.7932900000000001 Zn
   0.6195200000000000    0.7933000000000000    0.7932800000000000 Zn
   0.7937600000000000    0.7936200000000000    0.7936000000000000 Zn
   0.6643600000000000    0.9522400000000000    0.9522100000000000 H
   0.5681400000000000    0.0484000000000000    0.0484000000000000 H
   0.4318700000000000    0.9516000000000000    0.9515700000000000 H
   0.3356600000000000    0.0477600000000000    0.0477600000000000 H
   0.9518700000000000    0.4319100000000000    0.6642000000000000 H
   0.0481300000000000    0.3357200000000000    0.5679999999999999 H
   0.0481400000000000    0.5680800000000000    0.3357000000000000 H
   0.9518799999999999    0.6642700000000000    0.4310000000000000 H
   0.0484400000000000    0.0484600000000000    0.5680200000000000 H
   0.9523100000000000    0.9522600000000000    0.6642500000000000 H
   0.9515700000000000    0.9515400000000001    0.4319500000000000 H
   0.0477000000000000    0.0477300000000000    0.3357200000000000 H
   0.1128096380062283    0.2807196817943067    0.1130235128678239 H
   0.1134563300474332    0.4928273023877159    0.1133779561523552 H
   0.1053642415771773    0.3945802342114739    0.1054330070831236 H
   0.8871981601166465    0.7192819238940419    0.8869469975602331 H
   0.8865531981173277    0.5071726064676463    0.8865942804795149 H
   0.8946439184910060    0.6054234884383314    0.8945389184910060 H
   0.5682000000000000    0.3357200000000000    0.0480800000000000 H
   0.6643700000000000    0.4319200000000000    0.9518000000000000 H
   0.4318200000000000    0.6642700000000000    0.9518900000000000 H
   0.3356400000000000    0.5680700000000000    0.0481700000000000 H
   0.4318100000000000    0.9519100000000000    0.6642600000000000 H
   0.3356400000000000    0.0481700000000000    0.5680700000000000 H
   0.5682000000000000    0.0480900000000000    0.3357100000000000 H
   0.6643700000000000    0.9518200000000000    0.4319000000000000 H
   0.3889700000000000    0.1109900000000000    0.1109600000000000 C
   0.6110400000000000    0.8890000000000000    0.8890100000000000 C
   0.5923600000000000    0.9735000000000000    0.9735300000000000 C
   0.5390500000000000    0.0268400000000000    0.0267900000000000 C
   0.4609600000000000    0.9731500000000000    0.9731800000000000 C
   0.4076600000000000    0.0264900000000000    0.0264400000000000 C
   0.4463400000000000    0.0536100000000000    0.0536000000000000 C
   0.5536700000000000    0.9463800000000000    0.9463000000000000 C
   0.1110900000000000    0.3890700000000000    0.3890600000000000 C
   0.8889200000000000    0.6109200000000000    0.6109100000000000 C
   0.9733800000000000    0.4609600000000000    0.5923000000000000 C
   0.0266300000000000    0.4076900000000000    0.5390200000000001 C
   0.0537000000000000    0.4463800000000000    0.4463700000000000 C
   0.0266300000000000    0.5390300000000000    0.4076700000000000 C
   0.9733900000000000    0.5923100000000000    0.4609500000000000 C
   0.9463100000000000    0.5536100000000000    0.5536000000000000 C
   0.1109400000000000    0.1109800000000000    0.3889600000000000 C
   0.8890700000000000    0.8890200000000000    0.6110100000000001 C
   0.0268700000000000    0.0268200000000000    0.5389800000000000 C
   0.9735500000000000    0.9735800000000000    0.5922900000000000 C
   0.9731400000000000    0.9731800000000000    0.4609900000000000 C
   0.0264600000000000    0.0264200000000000    0.4076800000000000 C
   0.0535900000000000    0.0536800000000000    0.4463200000000000 C
   0.9464100000000000    0.9463200000000001    0.5536500000000000 C
   0.6109100000000000    0.6109200000000000    0.8888600000000000 C
   0.3891000000000000    0.3890700000000000    0.1111000000000000 C
   0.5391000000000000    0.4076800000000000    0.0266400000000000 C
   0.5923700000000000    0.4609700000000000    0.9732900000000000 C
   0.5536100000000000    0.5536100000000000    0.9463000000000000 C
   0.4609100000000000    0.5923100000000000    0.9733300000000000 C
   0.4076500000000000    0.5390300000000000    0.0266000000000000 C
   0.4464000000000000    0.4463800000000000    0.0536700000000000 C
   0.3891000000000000    0.1111300000000000    0.3890600000000000 C
   0.6109100000000000    0.8888700000000000    0.6109100000000000 C
   0.4609100000000000    0.9733500000000000    0.5923000000000000 C
   0.4076500000000000    0.0266800000000000    0.5390200000000001 C
   0.4464000000000000    0.0536700000000000    0.4463700000000000 C
   0.5391000000000000    0.0266400000000000    0.4076700000000000 C
   0.5923700000000000    0.9733100000000000    0.4609500000000000 C
   0.5536100000000000    0.9463200000000001    0.5536000000000000 C
   0.4286300000000000    0.1332000000000000    0.1330000000000000 O
   0.3051500000000000    0.1329600000000000    0.1329600000000000 O
   0.5713900000000000    0.8668000000000000    0.8667700000000000 O
   0.6948600000000000    0.8670300000000000    0.8670099999999999 O
   0.1332600000000000    0.4286400000000000    0.3053100000000000 O
   0.1332600000000000    0.3053200000000000    0.4286300000000000 O
   0.8667500000000000    0.5713500000000000    0.6946600000000001 O
   0.8667500000000000    0.6946700000000000    0.5713400000000000 O
   0.1332000000000000    0.1331800000000000    0.4285000000000000 O
   0.1328300000000000    0.1330200000000000    0.3051800000000000 O
   0.8668100000000000    0.8668000000000000    0.5713900000000000 O
   0.8671800000000000    0.8669800000000000    0.6947900000000000 O
   0.1328400000000000    0.3052000000000000    0.1329900000000000 O
   0.1332000000000000    0.4286000000000000    0.1331800000000000 O
   0.8671700000000000    0.6948000000000000    0.8669800000000000 O
   0.8668100000000000    0.5714000000000000    0.8667899999999999 O
   0.5713100000000000    0.6946700000000000    0.8666600000000000 O
   0.6947100000000000    0.5713500000000000    0.8667400000000000 O
   0.4287000000000000    0.3053200000000000    0.1333100000000000 O
   0.3053000000000000    0.4286400000000000    0.1332400000000000 O
   0.2500000000000000    0.2500000000000000    0.2499900000000000 O
   0.3053100000000000    0.1332400000000000    0.4286400000000000 O
   0.4287000000000000    0.1333300000000000    0.3053100000000000 O
   0.5713100000000000    0.8666700000000001    0.6946600000000001 O
   0.6947100000000000    0.8667500000000000    0.5713300000000000 O
   0.7500100000000000    0.7500000000000000    0.7499800000000000 O
