H6 O4
1.0
  26.3676180568015930    0.0000000000000000   -9.4799323842857994
 -14.9193071706727416   28.9905994486903147   -8.0107985340232783
   0.0000000000000000    0.0000000000000000   33.6360000000000028
H O
6 4
direct
   0.4011810047614415    0.5445899423364897    0.7054820136176453 H
   0.5558039468153074    0.5892540159290014    0.7139457179221459 H
   0.4809483152942329    0.5636822765413564    0.7121286155391929 H
   0.5988483449908417    0.4554146935219894    0.7945041105741589 H
   0.4442387493697756    0.4107705303778513    0.7860663238174258 H
   0.5190891896028264    0.4363340469529471    0.7878689262927823 H
   0.4306450000000000    0.5646949999999999    0.7004000000000000 O
   0.5194950000000000    0.5899850000000000    0.7054800000000000 O
   0.5693900000000000    0.4353150000000000    0.7995950000000001 O
   0.4805450000000000    0.4100350000000000    0.7945300000000000 O
