H8 C10 N4
1.0
  26.3676180568015930    0.0000000000000000   -9.4799323842857994
 -14.9193071706727416   28.9905994486903147   -8.0107985340232783
   0.0000000000000000    0.0000000000000000   33.6360000000000028
H C N
8 10 4
direct
   0.0727300000000000    0.3754550000000000    0.4783750000000000 H
   0.9711449999999999    0.3278500000000000    0.4167850000000000 H
   0.9119500000000000    0.3879050000000000    0.4990500000000000 H
   0.0114550000000000    0.4401200000000000    0.5627800000000001 H
   0.2384350000000000    0.4369600000000000    0.5597500000000000 H
   0.2788000000000000    0.5831600000000000    0.6719250000000000 H
   0.1772000000000000    0.5215150000000000    0.6243650000000001 H
   0.3379650000000000    0.5007450000000000    0.6119150000000000 H
   0.0379700000000000    0.3786750000000000    0.4840600000000000 C
   0.9818800000000000    0.3520950000000000    0.4501600000000000 C
   0.9486200000000000    0.3860700000000000    0.4958800000000000 C
   0.0495000000000000    0.4116800000000000    0.5251650000000000 C
   0.0036300000000000    0.4147000000000000    0.5312500000000000 C
   0.2004050000000000    0.4746600000000000    0.5881600000000000 C
   0.2462650000000000    0.4685400000000000    0.5851500000000001 C
   0.2680650000000000    0.5497400000000000    0.6476999999999999 C
   0.2119550000000000    0.5158100000000000    0.6211450000000001 C
   0.3013000000000000    0.5039400000000001    0.6137500000000000 C
   0.9375200000000000    0.3558500000000000    0.4553750000000000 N
   0.1048250000000000    0.4449350000000000    0.5606949999999999 N
   0.1450800000000000    0.4391200000000000    0.5549100000000000 N
   0.3124150000000000    0.5445000000000000    0.6439400000000000 N
