Zn64 H280 C534 N60 O288
1.0
  26.3676180568015930    0.0000000000000000   -9.4799323842857994
 -14.9193071706727416   28.9905994486903147   -8.0107985340232783
   0.0000000000000000    0.0000000000000000   33.6360000000000028
Zn H C N O
64 280 534 60 288
direct
   0.2701050000000000    0.1803100000000000    0.1375950000000000 Zn
   0.1061750000000000    0.3985650000000000    0.3307850000000000 Zn
   0.4800200000000000    0.3625300000000000    0.3200500000000000 Zn
   0.3560750000000000    0.3305300000000000    0.3985200000000000 Zn
   0.2299250000000000    0.3197050000000000    0.3624150000000000 Zn
   0.3938600000000000    0.1014550000000000    0.1692250000000000 Zn
   0.0200100000000000    0.1374950000000000    0.1799600000000000 Zn
   0.1439550000000000    0.1694850000000000    0.1014900000000000 Zn
   0.7701050000000000    0.1803100000000000    0.1375950000000000 Zn
   0.6061750000000000    0.3985650000000000    0.3307850000000000 Zn
   0.9800200000000000    0.3625300000000000    0.3200500000000000 Zn
   0.8560749999999999    0.3305300000000000    0.3985200000000000 Zn
   0.7299249999999999    0.3197050000000000    0.3624150000000000 Zn
   0.8938600000000000    0.1014550000000000    0.1692250000000000 Zn
   0.5200100000000000    0.1374950000000000    0.1799600000000000 Zn
   0.6439550000000001    0.1694850000000000    0.1014900000000000 Zn
   0.2701050000000000    0.6803100000000000    0.1375950000000000 Zn
   0.1061750000000000    0.8985650000000001    0.3307850000000000 Zn
   0.4800200000000000    0.8625300000000000    0.3200500000000000 Zn
   0.3560750000000000    0.8305300000000000    0.3985200000000000 Zn
   0.2299250000000000    0.8197050000000000    0.3624150000000000 Zn
   0.3938600000000000    0.6014550000000000    0.1692250000000000 Zn
   0.0200100000000000    0.6374950000000000    0.1799600000000000 Zn
   0.1439550000000000    0.6694850000000000    0.1014900000000000 Zn
   0.7701050000000000    0.6803100000000000    0.1375950000000000 Zn
   0.6061750000000000    0.8985650000000001    0.3307850000000000 Zn
   0.9800200000000000    0.8625300000000000    0.3200500000000000 Zn
   0.8560749999999999    0.8305300000000000    0.3985200000000000 Zn
   0.7299249999999999    0.8197050000000000    0.3624150000000000 Zn
   0.8938600000000000    0.6014550000000000    0.1692250000000000 Zn
   0.5200100000000000    0.6374950000000000    0.1799600000000000 Zn
   0.6439550000000001    0.6694850000000000    0.1014900000000000 Zn
   0.2701050000000000    0.1803100000000000    0.6375950000000000 Zn
   0.1061750000000000    0.3985650000000000    0.8307850000000000 Zn
   0.4800200000000000    0.3625300000000000    0.8200499999999999 Zn
   0.3560750000000000    0.3305300000000000    0.8985200000000000 Zn
   0.2299250000000000    0.3197050000000000    0.8624149999999999 Zn
   0.3938600000000000    0.1014550000000000    0.6692250000000000 Zn
   0.0200100000000000    0.1374950000000000    0.6799600000000000 Zn
   0.1439550000000000    0.1694850000000000    0.6014900000000000 Zn
   0.7701050000000000    0.1803100000000000    0.6375950000000000 Zn
   0.6061750000000000    0.3985650000000000    0.8307850000000000 Zn
   0.9800200000000000    0.3625300000000000    0.8200499999999999 Zn
   0.8560749999999999    0.3305300000000000    0.8985200000000000 Zn
   0.7299249999999999    0.3197050000000000    0.8624149999999999 Zn
   0.8938600000000000    0.1014550000000000    0.6692250000000000 Zn
   0.5200100000000000    0.1374950000000000    0.6799600000000000 Zn
   0.6439550000000001    0.1694850000000000    0.6014900000000000 Zn
   0.2701050000000000    0.6803100000000000    0.6375950000000000 Zn
   0.1061750000000000    0.8985650000000001    0.8307850000000000 Zn
   0.4800200000000000    0.8625300000000000    0.8200499999999999 Zn
   0.3560750000000000    0.8305300000000000    0.8985200000000000 Zn
   0.2299250000000000    0.8197050000000000    0.8624149999999999 Zn
   0.3938600000000000    0.6014550000000000    0.6692250000000000 Zn
   0.0200100000000000    0.6374950000000000    0.6799600000000000 Zn
   0.1439550000000000    0.6694850000000000    0.6014900000000000 Zn
   0.7701050000000000    0.6803100000000000    0.6375950000000000 Zn
   0.6061750000000000    0.8985650000000001    0.8307850000000000 Zn
   0.9800200000000000    0.8625300000000000    0.8200499999999999 Zn
   0.8560749999999999    0.8305300000000000    0.8985200000000000 Zn
   0.7299249999999999    0.8197050000000000    0.8624149999999999 Zn
   0.8938600000000000    0.6014550000000000    0.6692250000000000 Zn
   0.5200100000000000    0.6374950000000000    0.6799600000000000 Zn
   0.6439550000000001    0.6694850000000000    0.6014900000000000 Zn
   0.3244000000000000    0.2382000000000000    0.0542150000000000 H
   0.0637950000000000    0.0318200000000000    0.0207650000000000 H
   0.1760700000000000    0.2435450000000000    0.2756000000000000 H
   0.0288800000000000    0.1721600000000000    0.0832250000000000 H
   0.4273050000000000    0.1245500000000000    0.0216350000000000 H
   0.4885850000000000    0.0598950000000000    0.4372300000000000 H
   0.0880850000000000    0.1121200000000000    0.0009600000000000 H
   0.1458600000000000    0.2152900000000000    0.0237500000000000 H
   0.2529500000000000    0.0813200000000000    0.0691950000000000 H
   0.4257850000000000    0.4459350000000000    0.2620150000000000 H
   0.1863600000000000    0.4794850000000000    0.4683150000000000 H
   0.0738800000000000    0.2243400000000000    0.2558800000000000 H
   0.2212300000000000    0.4168550000000000    0.3280500000000000 H
   0.3228300000000000    0.4785000000000000    0.3756450000000000 H
   0.2616050000000000    0.0630650000000000    0.4402500000000000 H
   0.1620700000000000    0.4992800000000000    0.3880900000000000 H
   0.1041900000000000    0.4761350000000000    0.2847150000000000 H
   0.4972300000000000    0.4309900000000000    0.4189000000000000 H
   0.1756350000000000    0.2618100000000000    0.4457950000000000 H
   0.4362350000000000    0.4681950000000000    0.4792500000000000 H
   0.3239600000000000    0.2564750000000000    0.2244100000000000 H
   0.4711450000000000    0.3278500000000000    0.4167850000000000 H
   0.0114550000000000    0.4401200000000000    0.0627800000000000 H
   0.4119500000000000    0.3879050000000000    0.4990500000000000 H
   0.3541750000000000    0.2847150000000000    0.4762150000000000 H
   0.2470800000000000    0.4187000000000000    0.4308200000000000 H
   0.0742500000000000    0.0540850000000000    0.2379900000000000 H
   0.3136700000000000    0.0205350000000000    0.0316950000000000 H
   0.4261500000000000    0.2756800000000000    0.2441000000000000 H
   0.2788000000000000    0.0831600000000000    0.1719250000000000 H
   0.1772000000000000    0.0215150000000000    0.1243650000000000 H
   0.2384350000000000    0.4369600000000000    0.0597500000000000 H
   0.3379650000000000    0.0007450000000000    0.1119150000000000 H
   0.3958450000000000    0.0238800000000000    0.2152900000000000 H
   0.0028000000000000    0.0690250000000000    0.0811100000000000 H
   0.8244000000000000    0.2382000000000000    0.0542150000000000 H
   0.5637950000000000    0.0318200000000000    0.0207650000000000 H
   0.6760699999999999    0.2435450000000000    0.2756000000000000 H
   0.5288800000000000    0.1721600000000000    0.0832250000000000 H
   0.9273050000000000    0.1245500000000000    0.0216350000000000 H
   0.9885850000000000    0.0598950000000000    0.4372300000000000 H
   0.5880850000000000    0.1121200000000000    0.0009600000000000 H
   0.6458600000000000    0.2152900000000000    0.0237500000000000 H
   0.7529500000000000    0.0813200000000000    0.0691950000000000 H
   0.9257850000000001    0.4459350000000000    0.2620150000000000 H
   0.6863600000000000    0.4794850000000000    0.4683150000000000 H
   0.5738799999999999    0.2243400000000000    0.2558800000000000 H
   0.7212300000000000    0.4168550000000000    0.3280500000000000 H
   0.8228300000000000    0.4785000000000000    0.3756450000000000 H
   0.7616050000000000    0.0630650000000000    0.4402500000000000 H
   0.6620699999999999    0.4992800000000000    0.3880900000000000 H
   0.6041900000000000    0.4761350000000000    0.2847150000000000 H
   0.9972300000000001    0.4309900000000000    0.4189000000000000 H
   0.6756350000000000    0.2618100000000000    0.4457950000000000 H
   0.9362349999999999    0.4681950000000000    0.4792500000000000 H
   0.8239600000000000    0.2564750000000000    0.2244100000000000 H
   0.5727300000000000    0.3754550000000000    0.4783750000000000 H
   0.5114550000000000    0.4401200000000000    0.0627800000000000 H
   0.8541750000000000    0.2847150000000000    0.4762150000000000 H
   0.7470800000000000    0.4187000000000000    0.4308200000000000 H
   0.5742500000000000    0.0540850000000000    0.2379900000000000 H
   0.8136700000000000    0.0205350000000000    0.0316950000000000 H
   0.9261500000000000    0.2756800000000000    0.2441000000000000 H
   0.7787999999999999    0.0831600000000000    0.1719250000000000 H
   0.6772000000000000    0.0215150000000000    0.1243650000000000 H
   0.7384350000000000    0.4369600000000000    0.0597500000000000 H
   0.8379650000000001    0.0007450000000000    0.1119150000000000 H
   0.8958450000000000    0.0238800000000000    0.2152900000000000 H
   0.5028000000000000    0.0690250000000000    0.0811100000000000 H
   0.3244000000000000    0.7382000000000000    0.0542150000000000 H
   0.0637950000000000    0.5318200000000000    0.0207650000000000 H
   0.1760700000000000    0.7435450000000000    0.2756000000000000 H
   0.0288800000000000    0.6721600000000000    0.0832250000000000 H
   0.4273050000000000    0.6245499999999999    0.0216350000000000 H
   0.4885850000000000    0.5598950000000000    0.4372300000000000 H
   0.0880850000000000    0.6121200000000000    0.0009600000000000 H
   0.1458600000000000    0.7152900000000000    0.0237500000000000 H
   0.2529500000000000    0.5813200000000001    0.0691950000000000 H
   0.4257850000000000    0.9459350000000000    0.2620150000000000 H
   0.1863600000000000    0.9794849999999999    0.4683150000000000 H
   0.0738800000000000    0.7243400000000000    0.2558800000000000 H
   0.2212300000000000    0.9168550000000000    0.3280500000000000 H
   0.3228300000000000    0.9784999999999999    0.3756450000000000 H
   0.2616050000000000    0.5630650000000000    0.4402500000000000 H
   0.1620700000000000    0.9992799999999999    0.3880900000000000 H
   0.1041900000000000    0.9761350000000000    0.2847150000000000 H
   0.4972300000000000    0.9309900000000000    0.4189000000000000 H
   0.1756350000000000    0.7618100000000000    0.4457950000000000 H
   0.4362350000000000    0.9681949999999999    0.4792500000000000 H
   0.3239600000000000    0.7564750000000000    0.2244100000000000 H
   0.4711450000000000    0.8278500000000000    0.4167850000000000 H
   0.0727300000000000    0.8754550000000000    0.4783750000000000 H
   0.0114550000000000    0.9401200000000001    0.0627800000000000 H
   0.4119500000000000    0.8879049999999999    0.4990500000000000 H
   0.3541750000000000    0.7847150000000001    0.4762150000000000 H
   0.2470800000000000    0.9187000000000001    0.4308200000000000 H
   0.0742500000000000    0.5540850000000000    0.2379900000000000 H
   0.3136700000000000    0.5205350000000000    0.0316950000000000 H
   0.4261500000000000    0.7756799999999999    0.2441000000000000 H
   0.2788000000000000    0.5831600000000000    0.1719250000000000 H
   0.1772000000000000    0.5215150000000000    0.1243650000000000 H
   0.2384350000000000    0.9369600000000000    0.0597500000000000 H
   0.3379650000000000    0.5007450000000000    0.1119150000000000 H
   0.3958450000000000    0.5238800000000000    0.2152900000000000 H
   0.0028000000000000    0.5690250000000000    0.0811100000000000 H
   0.8244000000000000    0.7382000000000000    0.0542150000000000 H
   0.5637950000000000    0.5318200000000000    0.0207650000000000 H
   0.6760699999999999    0.7435450000000000    0.2756000000000000 H
   0.5288800000000000    0.6721600000000000    0.0832250000000000 H
   0.9273050000000000    0.6245499999999999    0.0216350000000000 H
   0.9885850000000000    0.5598950000000000    0.4372300000000000 H
   0.5880850000000000    0.6121200000000000    0.0009600000000000 H
   0.6458600000000000    0.7152900000000000    0.0237500000000000 H
   0.7529500000000000    0.5813200000000001    0.0691950000000000 H
   0.9257850000000001    0.9459350000000000    0.2620150000000000 H
   0.6863600000000000    0.9794849999999999    0.4683150000000000 H
   0.5738799999999999    0.7243400000000000    0.2558800000000000 H
   0.7212300000000000    0.9168550000000000    0.3280500000000000 H
   0.8228300000000000    0.9784999999999999    0.3756450000000000 H
   0.7616050000000000    0.5630650000000000    0.4402500000000000 H
   0.6620699999999999    0.9992799999999999    0.3880900000000000 H
   0.6041900000000000    0.9761350000000000    0.2847150000000000 H
   0.9972300000000001    0.9309900000000000    0.4189000000000000 H
   0.6756350000000000    0.7618100000000000    0.4457950000000000 H
   0.9362349999999999    0.9681949999999999    0.4792500000000000 H
   0.8239600000000000    0.7564750000000000    0.2244100000000000 H
   0.9711449999999999    0.8278500000000000    0.4167850000000000 H
   0.5727300000000000    0.8754550000000000    0.4783750000000000 H
   0.5114550000000000    0.9401200000000001    0.0627800000000000 H
   0.9119500000000000    0.8879049999999999    0.4990500000000000 H
   0.8541750000000000    0.7847150000000001    0.4762150000000000 H
   0.7470800000000000    0.9187000000000001    0.4308200000000000 H
   0.5742500000000000    0.5540850000000000    0.2379900000000000 H
   0.8136700000000000    0.5205350000000000    0.0316950000000000 H
   0.9261500000000000    0.7756799999999999    0.2441000000000000 H
   0.7787999999999999    0.5831600000000000    0.1719250000000000 H
   0.6772000000000000    0.5215150000000000    0.1243650000000000 H
   0.7384350000000000    0.9369600000000000    0.0597500000000000 H
   0.8379650000000001    0.5007450000000000    0.1119150000000000 H
   0.8958450000000000    0.5238800000000000    0.2152900000000000 H
   0.5028000000000000    0.5690250000000000    0.0811100000000000 H
   0.3244000000000000    0.2382000000000000    0.5542150000000000 H
   0.0637950000000000    0.0318200000000000    0.5207650000000000 H
   0.1760700000000000    0.2435450000000000    0.7756000000000001 H
   0.0288800000000000    0.1721600000000000    0.5832250000000000 H
   0.4273050000000000    0.1245500000000000    0.5216350000000000 H
   0.4885850000000000    0.0598950000000000    0.9372300000000000 H
   0.0880850000000000    0.1121200000000000    0.5009600000000000 H
   0.1458600000000000    0.2152900000000000    0.5237500000000000 H
   0.2529500000000000    0.0813200000000000    0.5691950000000000 H
   0.4257850000000000    0.4459350000000000    0.7620150000000000 H
   0.1863600000000000    0.4794850000000000    0.9683150000000000 H
   0.0738800000000000    0.2243400000000000    0.7558800000000000 H
   0.2212300000000000    0.4168550000000000    0.8280500000000000 H
   0.3228300000000000    0.4785000000000000    0.8756450000000000 H
   0.2616050000000000    0.0630650000000000    0.9402500000000000 H
   0.1620700000000000    0.4992800000000000    0.8880900000000000 H
   0.1041900000000000    0.4761350000000000    0.7847150000000001 H
   0.4972300000000000    0.4309900000000000    0.9189000000000001 H
   0.1756350000000000    0.2618100000000000    0.9457949999999999 H
   0.4362350000000000    0.4681950000000000    0.9792500000000000 H
   0.3239600000000000    0.2564750000000000    0.7244100000000000 H
   0.4711450000000000    0.3278500000000000    0.9167850000000000 H
   0.0727300000000000    0.3754550000000000    0.9783750000000000 H
   0.4119500000000000    0.3879050000000000    0.9990500000000000 H
   0.3541750000000000    0.2847150000000000    0.9762150000000001 H
   0.2470800000000000    0.4187000000000000    0.9308200000000000 H
   0.0742500000000000    0.0540850000000000    0.7379900000000000 H
   0.3136700000000000    0.0205350000000000    0.5316950000000000 H
   0.4261500000000000    0.2756800000000000    0.7441000000000000 H
   0.2788000000000000    0.0831600000000000    0.6719250000000000 H
   0.1772000000000000    0.0215150000000000    0.6243650000000001 H
   0.3379650000000000    0.0007450000000000    0.6119150000000000 H
   0.3958450000000000    0.0238800000000000    0.7152900000000000 H
   0.0028000000000000    0.0690250000000000    0.5811100000000000 H
   0.8244000000000000    0.2382000000000000    0.5542150000000000 H
   0.5637950000000000    0.0318200000000000    0.5207650000000000 H
   0.6760699999999999    0.2435450000000000    0.7756000000000001 H
   0.5288800000000000    0.1721600000000000    0.5832250000000000 H
   0.9273050000000000    0.1245500000000000    0.5216350000000000 H
   0.9885850000000000    0.0598950000000000    0.9372300000000000 H
   0.5880850000000000    0.1121200000000000    0.5009600000000000 H
   0.6458600000000000    0.2152900000000000    0.5237500000000000 H
   0.7529500000000000    0.0813200000000000    0.5691950000000000 H
   0.9257850000000001    0.4459350000000000    0.7620150000000000 H
   0.6863600000000000    0.4794850000000000    0.9683150000000000 H
   0.5738799999999999    0.2243400000000000    0.7558800000000000 H
   0.7212300000000000    0.4168550000000000    0.8280500000000000 H
   0.8228300000000000    0.4785000000000000    0.8756450000000000 H
   0.7616050000000000    0.0630650000000000    0.9402500000000000 H
   0.6620699999999999    0.4992800000000000    0.8880900000000000 H
   0.6041900000000000    0.4761350000000000    0.7847150000000001 H
   0.9972300000000001    0.4309900000000000    0.9189000000000001 H
   0.6756350000000000    0.2618100000000000    0.9457949999999999 H
   0.9362349999999999    0.4681950000000000    0.9792500000000000 H
   0.8239600000000000    0.2564750000000000    0.7244100000000000 H
   0.9711449999999999    0.3278500000000000    0.9167850000000000 H
   0.5727300000000000    0.3754550000000000    0.9783750000000000 H
   0.5114550000000000    0.4401200000000000    0.5627800000000001 H
   0.9119500000000000    0.3879050000000000    0.9990500000000000 H
   0.8541750000000000    0.2847150000000000    0.9762150000000001 H
   0.7470800000000000    0.4187000000000000    0.9308200000000000 H
   0.5742500000000000    0.0540850000000000    0.7379900000000000 H
   0.8136700000000000    0.0205350000000000    0.5316950000000000 H
   0.9261500000000000    0.2756800000000000    0.7441000000000000 H
   0.7787999999999999    0.0831600000000000    0.6719250000000000 H
   0.6772000000000000    0.0215150000000000    0.6243650000000001 H
   0.7384350000000000    0.4369600000000000    0.5597500000000000 H
   0.8379650000000001    0.0007450000000000    0.6119150000000000 H
   0.8958450000000000    0.0238800000000000    0.7152900000000000 H
   0.5028000000000000    0.0690250000000000    0.5811100000000000 H
   0.3244000000000000    0.7382000000000000    0.5542150000000000 H
   0.0637950000000000    0.5318200000000000    0.5207650000000000 H
   0.1760700000000000    0.7435450000000000    0.7756000000000001 H
   0.0288800000000000    0.6721600000000000    0.5832250000000000 H
   0.4273050000000000    0.6245499999999999    0.5216350000000000 H
   0.4885850000000000    0.5598950000000000    0.9372300000000000 H
   0.0880850000000000    0.6121200000000000    0.5009600000000000 H
   0.1458600000000000    0.7152900000000000    0.5237500000000000 H
   0.2529500000000000    0.5813200000000001    0.5691950000000000 H
   0.4257850000000000    0.9459350000000000    0.7620150000000000 H
   0.1863600000000000    0.9794849999999999    0.9683150000000000 H
   0.0738800000000000    0.7243400000000000    0.7558800000000000 H
   0.2212300000000000    0.9168550000000000    0.8280500000000000 H
   0.3228300000000000    0.9784999999999999    0.8756450000000000 H
   0.2616050000000000    0.5630650000000000    0.9402500000000000 H
   0.1620700000000000    0.9992799999999999    0.8880900000000000 H
   0.1041900000000000    0.9761350000000000    0.7847150000000001 H
   0.4972300000000000    0.9309900000000000    0.9189000000000001 H
   0.1756350000000000    0.7618100000000000    0.9457949999999999 H
   0.4362350000000000    0.9681949999999999    0.9792500000000000 H
   0.3239600000000000    0.7564750000000000    0.7244100000000000 H
   0.4711450000000000    0.8278500000000000    0.9167850000000000 H
   0.0727300000000000    0.8754550000000000    0.9783750000000000 H
   0.0114550000000000    0.9401200000000001    0.5627800000000001 H
   0.4119500000000000    0.8879049999999999    0.9990500000000000 H
   0.3541750000000000    0.7847150000000001    0.9762150000000001 H
   0.2470800000000000    0.9187000000000001    0.9308200000000000 H
   0.0742500000000000    0.5540850000000000    0.7379900000000000 H
   0.3136700000000000    0.5205350000000000    0.5316950000000000 H
   0.4261500000000000    0.7756799999999999    0.7441000000000000 H
   0.2384350000000000    0.9369600000000000    0.5597500000000000 H
   0.3958450000000000    0.5238800000000000    0.7152900000000000 H
   0.0028000000000000    0.5690250000000000    0.5811100000000000 H
   0.8244000000000000    0.7382000000000000    0.5542150000000000 H
   0.5637950000000000    0.5318200000000000    0.5207650000000000 H
   0.6760699999999999    0.7435450000000000    0.7756000000000001 H
   0.5288800000000000    0.6721600000000000    0.5832250000000000 H
   0.9273050000000000    0.6245499999999999    0.5216350000000000 H
   0.9885850000000000    0.5598950000000000    0.9372300000000000 H
   0.5880850000000000    0.6121200000000000    0.5009600000000000 H
   0.6458600000000000    0.7152900000000000    0.5237500000000000 H
   0.7529500000000000    0.5813200000000001    0.5691950000000000 H
   0.9257850000000001    0.9459350000000000    0.7620150000000000 H
   0.6863600000000000    0.9794849999999999    0.9683150000000000 H
   0.5738799999999999    0.7243400000000000    0.7558800000000000 H
   0.7212300000000000    0.9168550000000000    0.8280500000000000 H
   0.8228300000000000    0.9784999999999999    0.8756450000000000 H
   0.7616050000000000    0.5630650000000000    0.9402500000000000 H
   0.6620699999999999    0.9992799999999999    0.8880900000000000 H
   0.6041900000000000    0.9761350000000000    0.7847150000000001 H
   0.9972300000000001    0.9309900000000000    0.9189000000000001 H
   0.6756350000000000    0.7618100000000000    0.9457949999999999 H
   0.9362349999999999    0.9681949999999999    0.9792500000000000 H
   0.8239600000000000    0.7564750000000000    0.7244100000000000 H
   0.9711449999999999    0.8278500000000000    0.9167850000000000 H
   0.5727300000000000    0.8754550000000000    0.9783750000000000 H
   0.5114550000000000    0.9401200000000001    0.5627800000000001 H
   0.9119500000000000    0.8879049999999999    0.9990500000000000 H
   0.8541750000000000    0.7847150000000001    0.9762150000000001 H
   0.7470800000000000    0.9187000000000001    0.9308200000000000 H
   0.5742500000000000    0.5540850000000000    0.7379900000000000 H
   0.8136700000000000    0.5205350000000000    0.5316950000000000 H
   0.9261500000000000    0.7756799999999999    0.7441000000000000 H
   0.7787999999999999    0.5831600000000000    0.6719250000000000 H
   0.6772000000000000    0.5215150000000000    0.6243650000000001 H
   0.7384350000000000    0.9369600000000000    0.5597500000000000 H
   0.8379650000000001    0.5007450000000000    0.6119150000000000 H
   0.8958450000000000    0.5238800000000000    0.7152900000000000 H
   0.5028000000000000    0.5690250000000000    0.5811100000000000 H
   0.2296000000000000    0.2114350000000000    0.0643750000000000 C
   0.2393100000000000    0.2314250000000000    0.0312200000000000 C
   0.2918950000000000    0.2434050000000000    0.0303500000000000 C
   0.1965450000000000    0.2381650000000000    0.0000000000000000 C
   0.1741900000000000    0.0910400000000000    0.0728600000000000 C
   0.1499650000000000    0.0463600000000000    0.0338950000000000 C
   0.0904850000000000    0.0203350000000000    0.0090100000000000 C
   0.1853250000000000    0.0310850000000000    0.0196550000000000 C
   0.1301700000000000    0.1903600000000000    0.1882300000000000 C
   0.1920550000000000    0.2207700000000000    0.2185150000000000 C
   0.2340650000000000    0.2237950000000000    0.2031800000000000 C
   0.2090100000000000    0.2467150000000000    0.2646600000000000 C
   0.0181550000000000    0.1479200000000000    0.0498500000000000 C
   0.4620600000000000    0.1213350000000000    0.0159500000000000 C
   0.4505350000000000    0.0883350000000000    0.4748450000000000 C
   0.4964050000000000    0.0853150000000000    0.4687650000000000 C
   0.0514150000000000    0.1139500000000000    0.0041350000000000 C
   0.0205350000000000    0.4356600000000000    0.2887100000000000 C
   0.0107850000000000    0.4688250000000000    0.2686800000000000 C
   0.4582250000000000    0.4697350000000000    0.2567150000000000 C
   0.0534700000000000    0.4996750000000000    0.2618050000000000 C
   0.0759500000000000    0.4273900000000000    0.4091350000000000 C
   0.1001950000000000    0.4663250000000000    0.4538250000000000 C
   0.1596700000000000    0.4912200000000000    0.4798300000000000 C
   0.0648300000000000    0.4805300000000000    0.4691250000000000 C
   0.1198700000000000    0.3116450000000000    0.3096750000000000 C
   0.0579850000000000    0.2814300000000000    0.2792400000000000 C
   0.0160250000000000    0.2968100000000000    0.2765500000000000 C
   0.0409650000000000    0.2353100000000000    0.2529700000000000 C
   0.2319700000000000    0.4502750000000000    0.3523100000000000 C
   0.2880800000000000    0.4842100000000000    0.3788650000000000 C
   0.2996300000000000    0.0253600000000000    0.4118450000000000 C
   0.2537700000000000    0.0314850000000000    0.4148550000000000 C
   0.1987350000000000    0.4960800000000000    0.3862500000000000 C
   0.2704200000000000    0.2885500000000000    0.4356150000000000 C
   0.2607300000000000    0.2686000000000000    0.4688000000000000 C
   0.2081350000000000    0.2566050000000000    0.4696550000000000 C
   0.3034850000000000    0.2618400000000000    0.4997000000000000 C
   0.3258400000000000    0.4089850000000000    0.4271400000000000 C
   0.3500650000000000    0.4536550000000000    0.4661250000000000 C
   0.4095400000000000    0.4796750000000000    0.4910050000000000 C
   0.3147000000000000    0.4689350000000000    0.4803550000000000 C
   0.3698600000000000    0.3096650000000000    0.3117800000000000 C
   0.3079750000000000    0.2792500000000000    0.2814950000000000 C
   0.2659600000000000    0.2762250000000000    0.2968300000000000 C
   0.2910200000000000    0.2533100000000000    0.2353500000000000 C
   0.4818800000000000    0.3520950000000000    0.4501600000000000 C
   0.0495000000000000    0.4116800000000000    0.0251650000000000 C
   0.0036300000000000    0.4147000000000000    0.0312500000000000 C
   0.4486200000000000    0.3860700000000000    0.4958800000000000 C
   0.4795050000000000    0.0643600000000000    0.2113000000000000 C
   0.4892550000000000    0.0311900000000000    0.2313250000000000 C
   0.0418150000000000    0.0302800000000000    0.2432900000000000 C
   0.4465700000000000    0.0000000000000000    0.2382000000000000 C
   0.4240750000000000    0.0726350000000000    0.0908700000000000 C
   0.3998350000000000    0.0336900000000000    0.0461900000000000 C
   0.3403600000000000    0.0088000000000000    0.0201850000000000 C
   0.4351950000000000    0.0194850000000000    0.0308850000000000 C
   0.3801600000000000    0.1883700000000000    0.1903500000000000 C
   0.4420450000000000    0.2185850000000000    0.2207700000000000 C
   0.4840050000000000    0.2032050000000000    0.2234500000000000 C
   0.4590650000000000    0.2647100000000000    0.2470450000000000 C
   0.2680650000000000    0.0497400000000000    0.1477000000000000 C
   0.2119550000000000    0.0158100000000000    0.1211450000000000 C
   0.2004050000000000    0.4746600000000000    0.0881600000000000 C
   0.2462650000000000    0.4685400000000000    0.0851500000000000 C
   0.3013000000000000    0.0039400000000000    0.1137500000000000 C
   0.7296000000000000    0.2114350000000000    0.0643750000000000 C
   0.7393100000000000    0.2314250000000000    0.0312200000000000 C
   0.7918950000000000    0.2434050000000000    0.0303500000000000 C
   0.6965450000000000    0.2381650000000000    0.0000000000000000 C
   0.6741900000000001    0.0910400000000000    0.0728600000000000 C
   0.6499650000000000    0.0463600000000000    0.0338950000000000 C
   0.5904850000000000    0.0203350000000000    0.0090100000000000 C
   0.6853250000000000    0.0310850000000000    0.0196550000000000 C
   0.6301700000000000    0.1903600000000000    0.1882300000000000 C
   0.6920550000000000    0.2207700000000000    0.2185150000000000 C
   0.7340650000000000    0.2237950000000000    0.2031800000000000 C
   0.7090100000000000    0.2467150000000000    0.2646600000000000 C
   0.5181550000000000    0.1479200000000000    0.0498500000000000 C
   0.9620600000000000    0.1213350000000000    0.0159500000000000 C
   0.9505350000000000    0.0883350000000000    0.4748450000000000 C
   0.9964050000000000    0.0853150000000000    0.4687650000000000 C
   0.5514150000000000    0.1139500000000000    0.0041350000000000 C
   0.5205350000000000    0.4356600000000000    0.2887100000000000 C
   0.5107850000000000    0.4688250000000000    0.2686800000000000 C
   0.9582250000000000    0.4697350000000000    0.2567150000000000 C
   0.5534700000000000    0.4996750000000000    0.2618050000000000 C
   0.5759500000000000    0.4273900000000000    0.4091350000000000 C
   0.6001950000000000    0.4663250000000000    0.4538250000000000 C
   0.6596700000000000    0.4912200000000000    0.4798300000000000 C
   0.5648299999999999    0.4805300000000000    0.4691250000000000 C