H4 C6 N5
1.0
  12.4159996804100263    0.0000000000000000    0.0028171010148898
  -0.0090222767294857   15.6619957887356822    0.0071071899097106
   0.0000000000000000    0.0000000000000000   30.9660000000000011
H C N
4 6 5
direct
   0.7273300000000000    0.2213000000000000    0.2942100000000000 H
   0.8322500000000000    0.0982100000000000    0.3240850000000000 H
   0.6570000000000000    0.0985200000000000    0.4378250000000000 H
   0.5425100000000000    0.2216400000000000    0.4122050000000000 H
   0.5668500000000000    0.3054700000000000    0.3356650000000000 C
   0.6264500000000000    0.2314300000000000    0.3510550000000000 C
   0.7087000000000000    0.1951100000000000    0.3259200000000000 C
   0.7664200000000000    0.1266900000000000    0.3423150000000000 C
   0.6673800000000000    0.1272100000000000    0.4059550000000000 C
   0.6058100000000000    0.1955700000000000    0.3917750000000000 C
   0.5166700000000000    0.4082200000000000    0.2964000000000000 N
   0.4600700000000000    0.4102600000000000    0.3334100000000000 N
   0.4900000000000000    0.3462600000000000    0.3588400000000000 N
   0.5842300000000000    0.3428600000000000    0.2969050000000000 N
   0.7469700000000000    0.0932100000000000    0.3817450000000000 N
