H5 O3
1.0
  12.4159996804100263    0.0000000000000000    0.0028171010148898
  -0.0090222767294857   15.6619957887356822    0.0071071899097106
   0.0000000000000000    0.0000000000000000   30.9660000000000011
H O
5 3
direct
   0.6892823419639225    0.1178535528738112    0.3992926592669109 H
   0.7610656910915014    0.1174734312464507    0.3531695192936812 H
   0.5012612193465389    0.4087753694793827    0.3064756002117420 H
   0.4754787806534611    0.4097046305206173    0.3233343997882580 H
   0.4821294505465656    0.3630897749756030    0.3521527940995378 H
   0.7469700000000000    0.0932100000000000    0.3817450000000000 O
   0.5166700000000000    0.4082200000000000    0.2964000000000000 O
   0.4600700000000000    0.4102600000000000    0.3334100000000000 O
