Zn16 H51 C105 N15 O64
1.0
  14.5746304682200201    0.0000000000000000   -0.1037868721593224
  -0.0485091059343362   14.6998695848811760   -0.0384844660450445
   0.0000000000000000    0.0000000000000000   26.0130000000000017
Zn H C N O
16 51 105 15 64
direct
   0.2616600000000000    0.0580600000000000    0.1067700000000000 Zn
   0.2337800000000000    0.9485900000000000    0.8470000000000000 Zn
   0.2344900000000000    0.5587299999999999    0.1067700000000000 Zn
   0.2694000000000000    0.4484700000000000    0.8482400000000000 Zn
   0.7656200000000000    0.0619300000000000    0.3930400000000000 Zn
   0.7309500000000000    0.9527200000000000    0.6530300000000000 Zn
   0.7345800000000000    0.5584700000000000    0.3930000000000000 Zn
   0.7660900000000000    0.4529700000000000    0.6534000000000000 Zn
   0.2630700000000000    0.4413500000000000    0.6068300000000000 Zn
   0.2344100000000000    0.9376800000000000    0.6068800000000000 Zn
   0.2689600000000000    0.0470900000000000    0.3471000000000000 Zn
   0.2309200000000000    0.5473500000000000    0.3465100000000000 Zn
   0.7653000000000000    0.4373700000000000    0.8932400000000000 Zn
   0.7299800000000000    0.5469600000000000    0.1526200000000000 Zn
   0.7382500000000000    0.9377000000000000    0.8932099999999999 Zn
   0.7663100000000000    0.0471600000000000    0.1530200000000000 Zn
   0.9252400000000000    0.8412400000000000    0.8050300000000000 H
   0.7825000000000000    0.8787199999999999    0.7562700000000000 H
   0.9324200000000000    0.9700600000000000    0.6309600000000000 H
   0.2487900000000000    0.3271800000000000    0.0324200000000000 H
   0.2627600000000000    0.4460000000000000    0.9641999999999999 H
   0.2855500000000000    0.2487400000000000    0.8502000000000000 H
   0.5751900000000000    0.3399600000000000    0.8050900000000000 H
   0.7170700000000000    0.3778100000000000    0.7564900000000000 H
   0.5647400000000000    0.4726300000000000    0.6319500000000000 H
   0.2187400000000000    0.7485500000000000    0.8494800000000000 H
   0.2420000000000000    0.9464000000000000    0.9633000000000000 H
   0.2552300000000000    0.8281200000000000    0.0318900000000000 H
   0.7470000000000000    0.3297600000000000    0.4686700000000000 H
   0.7597699999999999    0.4495600000000000    0.5368400000000000 H
   0.7810600000000000    0.2539500000000000    0.6514500000000000 H
   0.4250500000000000    0.8434000000000000    0.6941400000000000 H
   0.2830100000000000    0.8781400000000000    0.7433000000000000 H
   0.4351200000000000    0.9676300000000000    0.8697000000000000 H
   0.0741400000000000    0.3455500000000000    0.6940300000000000 H
   0.2172200000000000    0.3795000000000000    0.7436400000000000 H
   0.0680200000000000    0.4651200000000000    0.8705400000000000 H
   0.7500100000000000    0.8287200000000000    0.4681500000000000 H
   0.7365000000000000    0.9489200000000000    0.5359100000000000 H
   0.7155500000000000    0.7539500000000000    0.6507900000000000 H
   0.2729166093929433    0.2085584827510433    0.3936601700121102 H
   0.2652003807602055    0.1290830638792835    0.4400594286859251 H
   0.2974296541694313    0.2772780974307433    0.5727944711917904 H
   0.1692341285591352    0.4477995233408050    0.4749209255070009 H
   0.2272485104868414    0.3658162273346557    0.5167618684042514 H
   0.2484200000000000    0.6685600000000000    0.5315000000000000 H
   0.2357300000000000    0.5498800000000000    0.4627400000000000 H
   0.2166200000000000    0.7473100000000000    0.3490200000000000 H
   0.5745700000000000    0.1538000000000000    0.3054800000000000 H
   0.7167800000000000    0.1191900000000000    0.2564100000000000 H
   0.5649999999999999    0.0275600000000000    0.1303800000000000 H
   0.2574281111252919    0.4051871555121029    0.3970174478554539 H
   0.9256300000000000    0.6557100000000000    0.3047700000000000 H
   0.7821900000000001    0.6191700000000000    0.2559300000000000 H
   0.9307299999999999    0.5293700000000000    0.1290000000000000 H
   0.7454700000000000    0.1677900000000000    0.9679800000000000 H
   0.7587200000000000    0.0493300000000000    0.0364100000000000 H
   0.7810900000000000    0.2469700000000000    0.1504700000000000 H
   0.4233900000000000    0.6559300000000000    0.1941400000000000 H
   0.2812700000000000    0.6201500000000000    0.2429500000000000 H
   0.4327900000000000    0.5283300000000000    0.3685200000000000 H
   0.7519100000000000    0.6690700000000001    0.9681500000000000 H
   0.7368000000000000    0.5497200000000000    0.0359700000000000 H
   0.7135800000000000    0.7460700000000000    0.1504400000000000 H
   0.0746800000000000    0.1548200000000000    0.1942900000000000 H
   0.2175000000000000    0.1184400000000000    0.2432900000000000 H
   0.0677400000000000    0.0303700000000000    0.3693900000000000 H
   0.1034700000000000    0.9336000000000000    0.6645400000000000 C
   0.1010200000000000    0.8679800000000000    0.7758400000000000 C
   0.9297200000000000    0.8694700000000000    0.7664400000000000 C
   0.0000000000000000    0.8854600000000000    0.7441400000000000 C
   0.8499400000000000    0.8901500000000000    0.7396100000000000 C
   0.9337100000000000    0.9408700000000000    0.6694600000000001 C
   0.0000000000000000    0.9207300000000000    0.6938700000000000 C
   0.2763500000000000    0.0966800000000000    0.9065299999999999 C
   0.2426700000000000    0.1444900000000000    0.0193200000000000 C
   0.2560000000000000    0.3076500000000000    0.9922700000000000 C
   0.2641400000000000    0.3739000000000000    0.9546600000000000 C
   0.2751400000000000    0.2628600000000000    0.8909400000000000 C
   0.2668300000000000    0.1925300000000000    0.9265300000000000 C
   0.2560600000000000    0.2155400000000000    0.9786000000000000 C
   0.3989700000000000    0.3681300000000000    0.7761900000000000 C
   0.3941700000000000    0.4367000000000000    0.6653500000000000 C
   0.5699900000000000    0.3691200000000000    0.7667100000000000 C
   0.6492800000000000    0.3899600000000000    0.7399700000000000 C
   0.5641000000000000    0.4427600000000000    0.6702700000000000 C
   0.4814100000000000    0.4226500000000000    0.6946000000000000 C
   0.4838300000000000    0.3860900000000000    0.7445900000000000 C
   0.2280200000000000    0.5969100000000001    0.9063099999999999 C
   0.2599600000000000    0.6447400000000000    0.0189900000000000 C
   0.2292400000000000    0.7630100000000000    0.8902600000000001 C
   0.2404000000000000    0.8742799999999999    0.9530000000000000 C
   0.2373200000000000    0.6929500000000000    0.9260500000000000 C
   0.2481500000000000    0.8082500000000000    0.9917100000000000 C
   0.2477200000000000    0.7160900000000000    0.9782000000000000 C
   0.7729600000000000    0.1011400000000000    0.5949400000000000 C
   0.7403100000000000    0.1468200000000000    0.4822300000000000 C
   0.7535700000000000    0.3107600000000000    0.5089399999999999 C
   0.7610100000000000    0.3776000000000000    0.5465300000000000 C
   0.7710600000000000    0.2675600000000000    0.6105900000000000 C
   0.7635300000000000    0.1967900000000000    0.5750100000000000 C
   0.7535400000000000    0.2188800000000000    0.5227800000000000 C
   0.6011200000000000    0.8706600000000000    0.7239800000000000 C
   0.6058700000000000    0.9337700000000000    0.8356900000000000 C
   0.4301100000000000    0.8706100000000000    0.7330600000000000 C
   0.3508000000000000    0.8896700000000000    0.7601000000000000 C
   0.4358600000000000    0.9393899999999999    0.8309000000000000 C
   0.5185200000000000    0.9208300000000000    0.8062700000000000 C
   0.5161600000000000    0.8868300000000000    0.7556400000000000 C
   0.8984300000000000    0.3708000000000000    0.7240200000000000 C
   0.8966400000000000    0.4320500000000000    0.8359799999999999 C
   0.0699100000000000    0.3716600000000000    0.7331800000000001 C
   0.1498700000000000    0.3902900000000000    0.7605000000000000 C
   0.0665200000000000    0.4377400000000000    0.8315600000000000 C
   0.9832600000000000    0.4195500000000000    0.8066500000000000 C
   0.9843200000000000    0.3868800000000000    0.7557500000000000 C
   0.7242200000000000    0.6009400000000000    0.5948400000000000 C
   0.7575600000000000    0.6455800000000000    0.4823200000000000 C
   0.7432900000000000    0.8099300000000000    0.5083900000000000 C
   0.7354100000000000    0.8770200000000000    0.5457700000000000 C
   0.7255300000000000    0.7674100000000000    0.6099800000000000 C
   0.7335300000000000    0.6964399999999999    0.5746500000000000 C
   0.7436800000000000    0.7181300000000000    0.5224299999999999 C
   0.2245500000000000    0.8993200000000000    0.4061800000000000 C
   0.2556200000000000    0.8515200000000001    0.5189800000000000 C
   0.2422900000000000    0.6881699999999999    0.4913100000000000 C
   0.2348900000000000    0.6219600000000000    0.4533700000000000 C
   0.2260200000000000    0.7330600000000000    0.3898500000000000 C
   0.2334800000000000    0.8033000000000000    0.4258100000000000 C
   0.2428500000000000    0.7802800000000000    0.4779600000000000 C
   0.3988100000000000    0.1253400000000000    0.2759200000000000 C
   0.3940700000000000    0.0609100000000000    0.1643000000000000 C
   0.5696400000000000    0.1260300000000000    0.2666800000000000 C
   0.6490300000000000    0.1070600000000000    0.2397000000000000 C
   0.5641600000000000    0.0561100000000000    0.1691000000000000 C
   0.4813900000000000    0.0744400000000000    0.1936900000000000 C
   0.4836600000000000    0.1090500000000000    0.2441900000000000 C
   0.1007200000000000    0.6288000000000000    0.2750200000000000 C
   0.1025400000000000    0.5646400000000000    0.1634600000000000 C
   0.9295800000000000    0.6281099999999999    0.2659300000000000 C
   0.0000000000000000    0.6122700000000000    0.2433100000000000 C
   0.8495000000000000    0.6080200000000000    0.2390900000000000 C
   0.9325800000000000    0.5581500000000000    0.1683600000000000 C
   0.0000000000000000    0.5776600000000000    0.1928100000000000 C
   0.7719300000000000    0.3987300000000000    0.0938600000000000 C
   0.7401700000000000    0.3510900000000000    0.9809400000000000 C
   0.7523700000000000    0.1875700000000000    0.0081800000000000 C
   0.7601200000000000    0.1214400000000000    0.0459000000000000 C
   0.7707700000000000    0.2325600000000000    0.1096000000000000 C
   0.7627000000000000    0.3027500000000000    0.0739300000000000 C
   0.7525500000000001    0.2797300000000000    0.0217400000000000 C
   0.5997200000000000    0.6281700000000000    0.2237400000000000 C
   0.6034300000000000    0.5626200000000000    0.3348800000000000 C
   0.4283900000000000    0.6279500000000000    0.2328000000000000 C
   0.3489300000000000    0.6082500000000000    0.2596800000000000 C
   0.4335700000000000    0.5571900000000000    0.3299500000000000 C
   0.5163700000000000    0.5762600000000000    0.3054700000000000 C
   0.5144000000000000    0.6113600000000000    0.2551800000000000 C
   0.7241300000000001    0.8985100000000000    0.0945300000000000 C
   0.7592800000000000    0.8520300000000000    0.9820000000000000 C
   0.7443000000000000    0.6883200000000000    0.0083300000000000 C
   0.7355300000000000    0.6217400000000000    0.0457300000000000 C
   0.7243000000000001    0.7322100000000000    0.1097000000000000 C
   0.7332400000000000    0.8027900000000000    0.0743500000000000 C
   0.7445400000000000    0.7803099999999999    0.0222500000000000 C
   0.8989300000000000    0.1291200000000000    0.2239800000000000 C
   0.8967400000000000    0.0660100000000000    0.3356300000000000 C
   0.0702700000000000    0.1276600000000000    0.2331000000000000 C
   0.1500700000000000    0.1076100000000000    0.2600900000000000 C
   0.0663900000000000    0.0587300000000000    0.3307000000000000 C
   0.9832900000000000    0.0783400000000000    0.3061700000000000 C
   0.9846000000000000    0.1123100000000000    0.2556300000000000 C
   0.8516700000000000    0.9263800000000000    0.6917000000000000 N
   0.2733600000000000    0.3515300000000000    0.9044700000000000 N
   0.6465900000000000    0.4272200000000000    0.6923600000000000 N
   0.2310800000000000    0.8517500000000000    0.9036400000000000 N
   0.7694900000000000    0.3560200000000000    0.5968800000000000 N
   0.3534600000000000    0.9246200000000000    0.8083700000000000 N
   0.1484500000000000    0.4238800000000000    0.8090900000000000 N
   0.7268300000000000    0.8558200000000000    0.5961200000000000 N
   0.2270500000000000    0.6443400000000000    0.4030000000000000 N
   0.6464900000000000    0.0715600000000000    0.1915000000000000 N
   0.8508200000000000    0.5725100000000000    0.1909600000000000 N
   0.7691700000000000    0.1438200000000000    0.0962400000000000 N
   0.3512100000000000    0.5724600000000000    0.3076600000000000 N
   0.7259000000000000    0.6436400000000000    0.0959700000000000 N
   0.1483900000000000    0.0725900000000000    0.3082400000000000 N
   0.1770700000000000    0.8949500000000000    0.6798100000000000 O
   0.1020400000000000    0.9800900000000000    0.6229100000000000 O
   0.1288100000000000    0.7890400000000000    0.7821800000000000 O
   0.1331600000000000    0.9423100000000000    0.7957300000000000 O
   0.3451100000000000    0.0515200000000000    0.9182000000000000 O
   0.2109700000000000    0.0712200000000000    0.8753600000000000 O
   0.2693200000000000    0.1680300000000000    0.0652200000000000 O
   0.2071600000000000    0.0690700000000000    0.0000000000000000 O
   0.3711600000000000    0.2890000000000000    0.7822600000000000 O
   0.3675000000000000    0.4421700000000000    0.7962200000000000 O
   0.3204000000000000    0.3977600000000000    0.6798999999999999 O
   0.3952200000000000    0.4844300000000000    0.6241700000000000 O
   0.1598400000000000    0.5508500000000000    0.9179800000000000 O
   0.2930400000000000    0.5719400000000000    0.8754100000000000 O
   0.2304500000000000    0.6674500000000000    0.0642600000000000 O
   0.2968100000000000    0.5702000000000000    0.0000000000000000 O
   0.8399200000000000    0.0545700000000000    0.5821499999999999 O
   0.7093900000000000    0.0770300000000000    0.6270000000000000 O
   0.6996400000000000    0.0741500000000000    0.4920900000000000 O
   0.7728400000000000    0.1678700000000000    0.4373600000000000 O
   0.6293800000000001    0.7919500000000000    0.7174800000000000 O
   0.6322900000000000    0.9453400000000000    0.7045100000000000 O
   0.6792300000000000    0.8952000000000000    0.8203400000000000 O
   0.6054300000000000    0.9802600000000000    0.8774400000000000 O
   0.8694300000000000    0.2920400000000000    0.7177100000000000 O
   0.8672299999999999    0.4453800000000000    0.7044500000000000 O
   0.8223700000000000    0.3948000000000000    0.8201000000000001 O
   0.8986100000000000    0.4773000000000000    0.8781800000000000 O
   0.6564600000000000    0.5544200000000000    0.5822400000000000 O
   0.7884900000000000    0.5770300000000000    0.6269500000000000 O
   0.7973300000000000    0.5730300000000000    0.4933400000000000 O
   0.7267200000000000    0.6656300000000001    0.4367400000000000 O
   0.2720900000000000    0.1444600000000000    0.4037100000000000 O
   0.2702300000000000    0.3348300000000000    0.5629100000000000 O
   0.1984600000000000    0.4267300000000000    0.5063000000000000 O
   0.1564000000000000    0.9450300000000000    0.4178500000000000 O
   0.2897800000000000    0.9242300000000000    0.3753300000000000 O
   0.2926000000000000    0.9262200000000000    0.5090000000000000 O
   0.2269100000000000    0.8285800000000000    0.5643400000000000 O
   0.3705900000000000    0.2040900000000000    0.2824000000000000 O
   0.3676800000000000    0.0508500000000000    0.2956200000000000 O
   0.3203000000000000    0.0980800000000000    0.1800900000000000 O
   0.3948100000000000    0.0156000000000000    0.1221800000000000 O
   0.2092800000000000    0.4230000000000000    0.3726800000000000 O
   0.1289100000000000    0.7076000000000000    0.2821700000000000 O
   0.1326200000000000    0.5539400000000000    0.2939000000000000 O
   0.1759600000000000    0.6048600000000000    0.1782000000000000 O
   0.1014900000000000    0.5161900000000000    0.1224100000000000 O
   0.8398800000000000    0.4450100000000000    0.0820400000000000 O
   0.7071600000000000    0.4232800000000000    0.1250000000000000 O
   0.7033900000000000    0.4256500000000000    0.9910500000000000 O
   0.7694200000000000    0.3283800000000000    0.9356100000000001 O
   0.6286200000000000    0.7069400000000000    0.2177100000000000 O
   0.6306100000000000    0.5537000000000000    0.2039000000000000 O
   0.6772100000000000    0.6014300000000000    0.3201600000000000 O
   0.6021500000000000    0.5153500000000000    0.3762000000000000 O
   0.6565800000000001    0.9448500000000000    0.0820100000000000 O
   0.7885200000000000    0.9228000000000000    0.1266300000000000 O
   0.7971000000000000    0.9259600000000000    0.9931200000000000 O
   0.7311299999999999    0.8299900000000000    0.9360700000000000 O
   0.8708900000000001    0.2079300000000000    0.2176000000000000 O
   0.8669200000000000    0.0545100000000000    0.2043400000000000 O
   0.8231700000000000    0.1049800000000000    0.3204600000000000 O
   0.8981200000000000    0.0195300000000000    0.3772400000000000 O
