H3 C7 N1 O4
1.0
  14.5746304682200201    0.0000000000000000   -0.1037868721593224
  -0.0485091059343362   14.6998695848811760   -0.0384844660450445
   0.0000000000000000    0.0000000000000000   26.0130000000000017
H C N O
3 7 1 4
direct
   0.2613800000000000    0.0512800000000000    0.4638500000000000 H
   0.2464600000000000    0.1713700000000000    0.5315299999999999 H
   0.2838200000000000    0.2463000000000000    0.3490900000000000 H
   0.2625600000000000    0.1231900000000000    0.4539900000000000 C
   0.2538200000000000    0.1902500000000000    0.4913300000000000 C
   0.2534000000000000    0.2820500000000000    0.4773100000000000 C
   0.2642300000000000    0.3037700000000000    0.4251300000000000 C
   0.2732300000000000    0.2328600000000000    0.3898500000000000 C
   0.2389300000000000    0.3545900000000000    0.5173800000000000 C
   0.2732600000000000    0.3993300000000000    0.4050200000000000 C
   0.2720900000000000    0.1444600000000000    0.4037100000000000 N
   0.2702300000000000    0.3348300000000000    0.5629100000000000 O
   0.1984600000000000    0.4267300000000000    0.5063000000000000 O
   0.2092800000000000    0.4230000000000000    0.3726800000000000 O
   0.3405500000000000    0.4462200000000000    0.4179400000000000 O
