H6 C12 N2 O4
1.0
   3.9493274318676370    0.0000000000000000   -0.2208915704543127
  -0.0005786167372762   16.2329999884762657   -0.0001983235082258
   0.0000000000000000    0.0000000000000000   26.6392999999999986
H C N O
6 12 2 4
direct
   0.0826500000000000    0.8325899999999999    0.6176400000000000 H
   0.5817900000000000    0.5981300000000001    0.6192600000000000 H
   0.7110100000000000    0.6232450000000000    0.5284600000000000 H
   0.9219700000000000    0.6676650000000000    0.3823900000000000 H
   0.4147900000000000    0.9011050000000000    0.3803000000000000 H
   0.2928700000000000    0.8770750000000000    0.4716100000000000 H
   0.4623200000000000    0.7414000000000001    0.5264000000000000 C
   0.2244100000000000    0.7853000000000000    0.5986600000000000 C
   0.3203400000000000    0.7138200000000000    0.6253500000000000 C
   0.4970100000000000    0.6539699999999999    0.5995700000000000 C
   0.5677000000000000    0.6674249999999999    0.5497200000000000 C
   0.2312300000000000    0.7028150000000000    0.6792500000000000 C
   0.5378700000000000    0.7583750000000000    0.4733800000000000 C
   0.7782400000000000    0.7147200000000000    0.4012600000000000 C
   0.6802900000000000    0.7859499999999999    0.3744800000000000 C
   0.5011900000000000    0.8455200000000000    0.4001100000000000 C
   0.4303900000000000    0.8320900000000000    0.4499500000000000 C
   0.7696000000000000    0.7971800000000000    0.3206100000000000 C
   0.2921400000000000    0.8000050000000001    0.5508100000000000 N
   0.7101700000000000    0.7000050000000000    0.4491000000000000 N
   1.2876500000000000    0.6321900000000000    0.6996900000000000 O
   1.1089599999999999    0.7637200000000000    0.7018100000000000 O
  -0.2923600000000000    0.8675050000000000    0.3000800000000000 O
  -0.1027400000000001    0.7367950000000000    0.2982100000000000 O
