H3 O2
1.0
  20.3649994758013975    0.0000000000000000   -0.0046206718885470
   0.0071816238930929   17.8939973569474589   -0.0065584933965502
   0.0000000000000000    0.0000000000000000   39.6899999999999977
H O
3 2
direct
   1.0316683925601988    0.7570134679201024    0.9271689670446822 H
   0.2097987695172054    0.6885624971565212    0.9408233587173164 H
   0.1297446973872232    0.7176002144429861    0.9391732456396944 H
   1.0726000000000000    0.7469700000000000    0.9155200000000000 O
   0.1748200000000000    0.7065399999999999    0.9263450000000000 O
