H5 C7 O2
1.0
  20.3649994758013975    0.0000000000000000   -0.0046206718885470
   0.0071816238930929   17.8939973569474589   -0.0065584933965502
   0.0000000000000000    0.0000000000000000   39.6899999999999977
H C O
5 7 2
direct
   0.1539800000000000    0.6078500000000000    0.0398600000000000 H
   0.0460900000000000    0.6496400000000000    0.0623600000000000 H
   0.9703800000000000    0.7241700000000000    0.0260700000000000 H
   0.1861000000000000    0.6407500000000000    0.9809350000000000 H
   0.0023300000000000    0.7546300000000000    0.9671500000000000 H
   0.1211600000000000    0.6410200000000000    0.0241150000000000 C
   0.0604700000000000    0.6645700000000000    0.0367650000000000 C
   0.0179000000000000    0.7060000000000000    0.0164400000000000 C
   0.0965500000000000    0.7004700000000000    0.9706800000000000 C
   0.1392300000000000    0.6590300000000000    0.9912750000000000 C
   0.0356600000000000    0.7235900000000000    0.9834000000000001 C
   0.1157300000000000    0.7188000000000000    0.9353150000000000 C
   1.0726000000000000    0.7469700000000000    0.9155200000000000 O
   0.1748200000000000    0.7065399999999999    0.9263450000000000 O
