La16 H282 C374 N30 O96
1.0
  20.3649994758013975    0.0000000000000000   -0.0046206718885470
   0.0071816238930929   17.8939973569474589   -0.0065584933965502
   0.0000000000000000    0.0000000000000000   39.6899999999999977
La H C N O
16 282 374 30 96
direct
   0.5170300000000000    0.2503800000000000    0.6250050000000000 La
   0.4832400000000000    0.7500100000000000    0.8749850000000000 La
   0.5170300000000000    0.2503800000000000    0.1250050000000000 La
   0.4832400000000000    0.7500100000000000    0.3749850000000000 La
   0.2664900000000000    0.2507000000000000    0.6249850000000000 La
   0.2341400000000000    0.7497800000000000    0.8753750000000000 La
   0.2664900000000000    0.2507000000000000    0.1249850000000000 La
   0.2341400000000000    0.7497800000000000    0.3753750000000000 La
   0.9830300000000000    0.7496200000000000    0.8750550000000000 La
   0.0169000000000000    0.2499100000000000    0.1250300000000000 La
   0.9830300000000000    0.7496200000000000    0.3750550000000000 La
   0.0169000000000000    0.2499100000000000    0.6250300000000000 La
   0.7670000000000000    0.2500000000000000    0.6249750000000001 La
   0.7331400000000000    0.7499800000000000    0.3749950000000000 La
   0.7670000000000000    0.2500000000000000    0.1249750000000000 La
   0.7331400000000000    0.7499800000000000    0.8749950000000000 La
   0.6050600000000000    0.0601100000000000    0.7444999999999999 H
   0.6199300000000000    0.1210800000000000    0.6894000000000000 H
   0.4359500000000000    0.0528300000000000    0.6562800000000000 H
   0.4124100000000000    0.9877500000000000    0.7098300000000000 H
   0.5636000000000000    0.9478100000000000    0.8439500000000000 H
   0.5872500000000000    0.0128000000000000    0.7903899999999999 H
   0.3799600000000000    0.8788500000000000    0.8106300000000000 H
   0.3949800000000000    0.9396600000000001    0.7552099999999999 H
   0.3799600000000000    0.6212400000000000    0.4392600000000000 H
   0.3950600000000000    0.5605100000000000    0.4947050000000000 H
   0.5634800000000000    0.5519200000000000    0.4059000000000000 H
   0.5872100000000000    0.4870000000000000    0.4594800000000000 H
   0.6200300000000000    0.3787000000000000    0.5604400000000000 H
   0.6049500000000000    0.4393800000000000    0.5000000000000000 H
   0.4367000000000000    0.4485100000000000    0.5938500000000000 H
   0.4129900000000000    0.5133900000000000    0.5402749999999999 H
   0.6050600000000000    0.0601100000000000    0.2445000000000000 H
   0.6199300000000000    0.1210800000000000    0.1894000000000000 H
   0.4359500000000000    0.0528300000000000    0.1562800000000000 H
   0.4124100000000000    0.9877500000000000    0.2098300000000000 H
   0.5636000000000000    0.9478100000000000    0.3439500000000000 H
   0.5872500000000000    0.0128000000000000    0.2903900000000000 H
   0.3799600000000000    0.8788500000000000    0.3106300000000000 H
   0.3949800000000000    0.9396600000000001    0.2552100000000000 H
   0.3799600000000000    0.6212400000000000    0.9392600000000000 H
   0.3950600000000000    0.5605100000000000    0.9947050000000000 H
   0.5634800000000000    0.5519200000000000    0.9058999999999999 H
   0.5872100000000000    0.4870000000000000    0.9594800000000000 H
   0.6200300000000000    0.3787000000000000    0.0604400000000000 H
   0.6049500000000000    0.4393800000000000    0.0000000000000000 H
   0.4367000000000000    0.4485100000000000    0.0938500000000000 H
   0.4129900000000000    0.5133900000000000    0.0402750000000000 H
   0.8144800000000000    0.1397800000000000    0.7308200000000000 H
   0.8468400000000000    0.1070100000000000    0.7897000000000001 H
   0.9544400000000000    0.1495900000000000    0.8122700000000000 H
   0.9975700000000000    0.2548800000000000    0.7170799999999999 H
   0.0297000000000000    0.2246400000000000    0.7760000000000000 H
   0.0638500000000000    0.3594100000000000    0.7310449999999999 H
   0.0962100000000000    0.3923400000000000    0.7899400000000000 H
   0.2042400000000000    0.3507000000000000    0.8123250000000000 H
   0.2476800000000000    0.2458000000000000    0.7170449999999999 H
   0.2798800000000000    0.2762900000000000    0.7759350000000000 H
   0.3146900000000000    0.1417500000000000    0.7306500000000000 H
   0.3473200000000000    0.1078300000000000    0.7894150000000000 H
   0.4552300000000000    0.1494900000000000    0.8119050000000000 H
   0.4980800000000000    0.2563000000000000    0.7170250000000000 H
   0.5305299999999999    0.2248600000000000    0.7757750000000000 H
   0.5649200000000000    0.3603500000000000    0.7309200000000000 H
   0.5975000000000000    0.3929900000000000    0.7898000000000001 H
   0.7051200000000000    0.3501300000000000    0.8122500000000000 H
   0.7478000000000000    0.2447000000000000    0.7170000000000000 H
   0.7801800000000000    0.2748600000000000    0.7758950000000000 H
   0.8144800000000000    0.1397800000000000    0.2308200000000000 H
   0.8468400000000000    0.1070100000000000    0.2897000000000000 H
   0.9544400000000000    0.1495900000000000    0.3122700000000000 H
   0.9975700000000000    0.2548800000000000    0.2170800000000000 H
   0.0297000000000000    0.2246400000000000    0.2760000000000000 H
   0.0638500000000000    0.3594100000000000    0.2310450000000000 H
   0.0962100000000000    0.3923400000000000    0.2899400000000000 H
   0.2042400000000000    0.3507000000000000    0.3123250000000000 H
   0.2476800000000000    0.2458000000000000    0.2170450000000000 H
   0.2798800000000000    0.2762900000000000    0.2759350000000000 H
   0.3146900000000000    0.1417500000000000    0.2306500000000000 H
   0.3473200000000000    0.1078300000000000    0.2894150000000000 H
   0.4552300000000000    0.1494900000000000    0.3119050000000000 H
   0.4980800000000000    0.2563000000000000    0.2170250000000000 H
   0.5305299999999999    0.2248600000000000    0.2757750000000000 H
   0.5649200000000000    0.3603500000000000    0.2309200000000000 H
   0.5975000000000000    0.3929900000000000    0.2898000000000000 H
   0.7051200000000000    0.3501300000000000    0.3122500000000000 H
   0.7478000000000000    0.2447000000000000    0.2170000000000000 H
   0.7801800000000000    0.2748600000000000    0.2758950000000000 H
   0.1861000000000000    0.6407500000000000    0.9809350000000000 H
   0.1539800000000000    0.6078500000000000    0.0398600000000000 H
   0.0460900000000000    0.6496400000000000    0.0623600000000000 H
   0.0023300000000000    0.7546300000000000    0.9671500000000000 H
   0.9703800000000000    0.7241700000000000    0.0260700000000000 H
   0.9357200000000000    0.8596200000000001    0.9810000000000000 H
   0.9033600000000001    0.8922600000000001    0.0399300000000000 H
   0.7956100000000000    0.8499600000000000    0.0623550000000000 H
   0.7523900000000000    0.7450800000000000    0.9670350000000000 H
   0.7202200000000000    0.7752300000000000    0.0259650000000000 H
   0.6858600000000000    0.6397900000000000    0.9807900000000001 H
   0.6536500000000000    0.6069300000000000    0.0397000000000000 H
   0.5026700000000000    0.7549300000000000    0.9671500000000000 H
   0.4706600000000000    0.7246100000000000    0.0260800000000000 H
   0.5460600000000000    0.6494700000000000    0.0622950000000000 H
   0.4365200000000000    0.8599400000000000    0.9810500000000000 H
   0.4042400000000000    0.8930700000000000    0.0399600000000000 H
   0.2965300000000000    0.8509400000000000    0.0624900000000000 H
   0.2532400000000000    0.7451100000000001    0.9673950000000000 H
   0.2211200000000000    0.7758400000000000    0.0262700000000000 H
   0.1861000000000000    0.6407500000000000    0.4809350000000000 H
   0.1539800000000000    0.6078500000000000    0.5398600000000000 H
   0.0460900000000000    0.6496400000000000    0.5623600000000000 H
   0.0023300000000000    0.7546300000000000    0.4671500000000000 H
   0.9703800000000000    0.7241700000000000    0.5260700000000000 H
   0.9357200000000000    0.8596200000000001    0.4810000000000000 H
   0.9033600000000001    0.8922600000000001    0.5399300000000000 H
   0.7956100000000000    0.8499600000000000    0.5623550000000000 H
   0.7523900000000000    0.7450800000000000    0.4670350000000000 H
   0.7202200000000000    0.7752300000000000    0.5259650000000000 H
   0.6858600000000000    0.6397900000000000    0.4807900000000000 H
   0.6536500000000000    0.6069300000000000    0.5397000000000000 H
   0.5026700000000000    0.7549300000000000    0.4671500000000000 H
   0.4706600000000000    0.7246100000000000    0.5260800000000000 H
   0.5460600000000000    0.6494700000000000    0.5622950000000000 H
   0.4365200000000000    0.8599400000000000    0.4810500000000000 H
   0.4042400000000000    0.8930700000000000    0.5399600000000000 H
   0.2965300000000000    0.8509400000000000    0.5624900000000000 H
   0.2532400000000000    0.7451100000000001    0.4673950000000000 H
   0.2211200000000000    0.7758400000000000    0.5262700000000000 H
   0.3142700000000000    0.3600200000000000    0.0192100000000000 H
   0.3464700000000000    0.3928100000000000    0.9602800000000000 H
   0.4540800000000000    0.3503000000000000    0.9377100000000000 H
   0.4975200000000000    0.2450000000000000    0.0328850000000000 H
   0.5295100000000000    0.2752500000000000    0.9739500000000000 H
   0.5643000000000000    0.1402600000000000    0.0190600000000000 H
   0.5966300000000000    0.1075300000000000    0.9601299999999999 H
   0.7043700000000001    0.1498200000000000    0.9376800000000001 H
   0.7476300000000000    0.2548600000000000    0.0329550000000000 H
   0.7797700000000000    0.2246100000000000    0.9740000000000000 H
   0.0643000000000000    0.1401700000000000    0.0189500000000000 H
   0.0969200000000000    0.1072800000000000    0.9600850000000001 H
   0.2047700000000000    0.1494900000000000    0.9377500000000000 H
   0.2475400000000000    0.2548400000000000    0.0330100000000000 H
   0.2799800000000000    0.2244200000000000    0.9741550000000000 H
   0.8143600000000000    0.3598300000000000    0.0190650000000000 H
   0.8467900000000000    0.3926000000000000    0.9601700000000000 H
   0.9545800000000000    0.3502900000000000    0.9377450000000001 H
   0.9977100000000000    0.2451500000000000    0.0329500000000000 H
   0.0299200000000000    0.2754400000000000    0.9740949999999999 H
   0.3142700000000000    0.3600200000000000    0.5192099999999999 H
   0.3464700000000000    0.3928100000000000    0.4602800000000000 H
   0.4540800000000000    0.3503000000000000    0.4377100000000000 H
   0.4975200000000000    0.2450000000000000    0.5328850000000001 H
   0.5295100000000000    0.2752500000000000    0.4739500000000000 H
   0.5643000000000000    0.1402600000000000    0.5190600000000000 H
   0.5966300000000000    0.1075300000000000    0.4601300000000000 H
   0.7043700000000001    0.1498200000000000    0.4376800000000000 H
   0.7476300000000000    0.2548600000000000    0.5329550000000000 H
   0.7797700000000000    0.2246100000000000    0.4740000000000000 H
   0.0643000000000000    0.1401700000000000    0.5189500000000000 H
   0.0969200000000000    0.1072800000000000    0.4600850000000000 H
   0.2047700000000000    0.1494900000000000    0.4377500000000000 H
   0.2475400000000000    0.2548400000000000    0.5330100000000000 H
   0.2799800000000000    0.2244200000000000    0.4741550000000000 H
   0.8143600000000000    0.3598300000000000    0.5190650000000000 H
   0.8467900000000000    0.3926000000000000    0.4601700000000000 H
   0.9545800000000000    0.3502900000000000    0.4377450000000000 H
   0.9977100000000000    0.2451500000000000    0.5329500000000000 H
   0.0299200000000000    0.2754400000000000    0.4740950000000000 H
   0.3707800000000000    0.1216600000000000    0.0612400000000000 H
   0.3563600000000000    0.0610300000000000    0.0000000000000000 H
   0.1868400000000000    0.0524600000000000    0.0939600000000000 H
   0.1637800000000000    0.9876300000000000    0.0402650000000000 H
   0.1319700000000000    0.8795900000000000    0.9392300000000000 H
   0.1463800000000000    0.9405900000000000    0.9946699999999999 H
   0.3160800000000000    0.9481400000000000    0.9064900000000000 H
   0.3391600000000000    0.0133300000000000    0.9601100000000000 H
   0.3689900000000000    0.3802700000000000    0.6886000000000000 H
   0.3553000000000000    0.4405700000000000    0.7442500000000000 H
   0.1841000000000000    0.4485500000000000    0.6568000000000001 H
   0.1617400000000000    0.5130600000000000    0.7106600000000000 H
   0.1311700000000000    0.6199700000000000    0.8120750000000000 H
   0.1449000000000000    0.5596100000000001    0.7564350000000000 H
   0.3160900000000000    0.5518600000000000    0.8435000000000000 H
   0.3385200000000000    0.4873300000000000    0.7900450000000000 H
   0.3707800000000000    0.1216600000000000    0.5612400000000000 H
   0.3563600000000000    0.0610300000000000    0.5000000000000000 H
   0.1868400000000000    0.0524600000000000    0.5939600000000000 H
   0.1637800000000000    0.9876300000000000    0.5402650000000000 H
   0.1319700000000000    0.8795900000000000    0.4392300000000000 H
   0.1463800000000000    0.9405900000000000    0.4946700000000000 H
   0.3160800000000000    0.9481400000000000    0.4064900000000000 H
   0.3391600000000000    0.0133300000000000    0.4601100000000000 H
   0.3689900000000000    0.3802700000000000    0.1886000000000000 H
   0.3553000000000000    0.4405700000000000    0.2442500000000000 H
   0.1841000000000000    0.4485500000000000    0.1568000000000000 H
   0.1617400000000000    0.5130600000000000    0.2106600000000000 H
   0.1311700000000000    0.6199700000000000    0.3120750000000000 H
   0.1449000000000000    0.5596100000000001    0.2564350000000000 H
   0.3160900000000000    0.5518600000000000    0.3435000000000000 H
   0.3385200000000000    0.4873300000000000    0.2900450000000000 H
   0.1201900000000000    0.3791400000000000    0.0608400000000000 H
   0.1050800000000000    0.4400100000000000    0.0000000000000000 H
   0.9364500000000000    0.4478100000000000    0.0941300000000000 H
   0.9126800000000000    0.5128000000000000    0.0405700000000000 H
   0.0872400000000000    0.4872900000000000    0.9599249999999999 H
   0.0635200000000000    0.5521000000000000    0.9063000000000000 H
   0.8797400000000000    0.6208500000000000    0.9395300000000000 H
   0.8948000000000000    0.5601400000000000    0.9949800000000000 H
   0.1200000000000000    0.1211400000000000    0.1894300000000000 H
   0.1049600000000000    0.0602500000000000    0.2448250000000000 H
   0.9365300000000000    0.0519200000000000    0.1560100000000000 H
   0.9128600000000000    0.9868400000000001    0.2095500000000000 H
   0.8801600000000001    0.8783800000000000    0.3105000000000000 H
   0.8951300000000000    0.9392100000000000    0.2550800000000000 H
   0.0636600000000000    0.9476700000000000    0.3435000000000000 H
   0.0872600000000000    0.0126800000000000    0.2902950000000000 H
   0.1201900000000000    0.3791400000000000    0.5608400000000000 H
   0.1050800000000000    0.4400100000000000    0.5000000000000000 H
   0.9364500000000000    0.4478100000000000    0.5941300000000000 H
   0.9126800000000000    0.5128000000000000    0.5405700000000000 H
   0.0872400000000000    0.4872900000000000    0.4599250000000000 H
   0.0635200000000000    0.5521000000000000    0.4063000000000000 H
   0.8797400000000000    0.6208500000000000    0.4395300000000000 H
   0.8948000000000000    0.5601400000000000    0.4949800000000000 H
   0.1200000000000000    0.1211400000000000    0.6894300000000000 H
   0.1049600000000000    0.0602500000000000    0.7448250000000000 H
   0.9365300000000000    0.0519200000000000    0.6560100000000000 H
   0.9128600000000000    0.9868400000000001    0.7095500000000000 H
   0.8801600000000001    0.8783800000000000    0.8105000000000000 H
   0.8951300000000000    0.9392100000000000    0.7550800000000000 H
   0.0636600000000000    0.9476700000000000    0.8435000000000000 H
   0.0872600000000000    0.0126800000000000    0.7902950000000000 H
   0.1860400000000000    0.8595300000000000    0.2701400000000000 H
   0.1544600000000000    0.8930600000000000    0.2112000000000000 H
   0.0471500000000000    0.8508200000000000    0.1881850000000000 H
   0.0029300000000000    0.7439200000000000    0.2828500000000000 H
   0.9714699999999999    0.7751400000000001    0.2239650000000000 H
   0.4359400000000000    0.6406800000000000    0.2688900000000000 H
   0.4032400000000000    0.6078000000000000    0.2100300000000000 H
   0.2950800000000000    0.6494700000000000    0.1878250000000000 H
   0.2522400000000000    0.7543500000000000    0.2831800000000000 H
   0.2196600000000000    0.7239000000000000    0.2243350000000000 H
   0.6857300000000000    0.8600000000000000    0.2691600000000000 H
   0.6534500000000000    0.8927800000000000    0.2102350000000000 H
   0.5458200000000000    0.8503200000000000    0.1876500000000000 H
   0.5025200000000000    0.7451100000000001    0.2828750000000000 H
   0.4704400000000000    0.7753700000000000    0.2239400000000000 H
   0.9356200000000000    0.6402000000000000    0.2690200000000000 H
   0.9032800000000000    0.6076800000000000    0.2100700000000000 H
   0.7955700000000000    0.6502000000000000    0.1876150000000000 H
   0.7523600000000000    0.7550500000000000    0.2829350000000000 H
   0.7202000000000000    0.7250200000000000    0.2239900000000000 H
   0.1860400000000000    0.8595300000000000    0.7701400000000000 H
   0.1544600000000000    0.8930600000000000    0.7112000000000001 H
   0.0471500000000000    0.8508200000000000    0.6881850000000000 H
   0.0029300000000000    0.7439200000000000    0.7828500000000000 H
   0.9714699999999999    0.7751400000000001    0.7239650000000000 H
   0.4359400000000000    0.6406800000000000    0.7688900000000001 H
   0.4032400000000000    0.6078000000000000    0.7100299999999999 H
   0.2950800000000000    0.6494700000000000    0.6878250000000000 H
   0.2522400000000000    0.7543500000000000    0.7831800000000000 H
   0.2196600000000000    0.7239000000000000    0.7243350000000000 H
   0.6857300000000000    0.8600000000000000    0.7691600000000001 H
   0.6534500000000000    0.8927800000000000    0.7102349999999999 H
   0.5458200000000000    0.8503200000000000    0.6876500000000000 H
   0.5025200000000000    0.7451100000000001    0.7828750000000000 H
   0.4704400000000000    0.7753700000000000    0.7239400000000000 H
   0.9356200000000000    0.6402000000000000    0.7690200000000000 H
   0.9032800000000000    0.6076800000000000    0.7100700000000000 H
   0.7955700000000000    0.6502000000000000    0.6876150000000000 H
   0.7523600000000000    0.7550500000000000    0.7829349999999999 H
   0.7202000000000000    0.7250200000000000    0.7239900000000000 H
   0.7187097449532717    0.5988686379609834    0.3367580766177016 H
   0.6865800000000000    0.4481700000000000    0.6559850000000000 H
   0.6629000000000000    0.5131800000000000    0.7095650000000000 H
   0.8701000000000000    0.3788300000000000    0.6893600000000000 H
   0.8550500000000000    0.4396600000000000    0.7448000000000000 H
   0.8135400000000000    0.5520200000000000    0.8439400000000000 H
   0.8372800000000000    0.4871900000000000    0.7903249999999999 H
   0.6299500000000000    0.6212100000000000    0.8106000000000000 H
   0.6450600000000000    0.5605500000000000    0.7551300000000001 H
   0.8701300000000000    0.1209300000000000    0.5606449999999999 H
   0.8550600000000000    0.0601200000000000    0.5000000000000000 H
   0.6864800000000000    0.0521000000000000    0.5939300000000000 H
   0.6627500000000000    0.9871600000000000    0.5403400000000000 H
   0.8135000000000000    0.9478799999999999    0.4060450000000000 H
   0.8372200000000000    0.0127600000000000    0.4596550000000000 H
   0.6299000000000000    0.8788899999999999    0.4393400000000000 H
   0.6449800000000000    0.9396200000000000    0.4948000000000000 H
   0.7813560803710875    0.4012071951090392    0.1631964527685535 H
   0.8701300000000000    0.1209300000000000    0.0606450000000000 H
   0.8550600000000000    0.0601200000000000    0.0000000000000000 H
   0.6864800000000000    0.0521000000000000    0.0939300000000000 H
   0.6627500000000000    0.9871600000000000    0.0403400000000000 H
   0.8135000000000000    0.9478799999999999    0.9060450000000000 H
   0.8372200000000000    0.0127600000000000    0.9596549999999999 H
   0.6299000000000000    0.8788899999999999    0.9393400000000001 H
   0.6449800000000000    0.9396200000000000    0.9948000000000000 H
   0.5655400000000000    0.0562000000000000    0.7264349999999999 C
   0.5756700000000000    0.0905800000000000    0.6960500000000001 C
   0.4707500000000000    0.0512300000000000    0.6770300000000000 C
   0.4593400000000000    0.0161400000000000    0.7071250000000000 C
   0.5289100000000000    0.9492200000000000    0.8231550000000001 C
   0.5403900000000000    0.9842300000000000    0.7930450000000000 C
   0.4241800000000000    0.9094700000000000    0.8040200000000000 C
   0.4343800000000000    0.9438000000000000    0.7736300000000000 C
   0.4939200000000000    0.9828000000000000    0.7660050000000000 C
   0.5059399999999999    0.0173700000000000    0.7341100000000000 C
   0.4241900000000000    0.5905899999999999    0.4458800000000000 C
   0.4344400000000000    0.5563300000000000    0.4762850000000000 C
   0.5288400000000000    0.5506200000000000    0.4267200000000000 C
   0.5403800000000000    0.5156500000000001    0.4568350000000000 C
   0.5758500000000000    0.4094500000000000    0.5538400000000000 C
   0.5656099999999999    0.4437000000000000    0.5234300000000000 C
   0.4713000000000000    0.4496700000000000    0.5730300000000000 C
   0.4597700000000000    0.4846200000000000    0.5429050000000000 C
   0.4939800000000000    0.5172700000000000    0.4839000000000000 C
   0.5061200000000000    0.4828600000000000    0.5158250000000000 C
   0.5655400000000000    0.0562000000000000    0.2264350000000000 C
   0.5756700000000000    0.0905800000000000    0.1960500000000000 C
   0.4707500000000000    0.0512300000000000    0.1770300000000000 C
   0.4593400000000000    0.0161400000000000    0.2071250000000000 C
   0.5289100000000000    0.9492200000000000    0.3231550000000000 C
   0.5403900000000000    0.9842300000000000    0.2930450000000000 C
   0.4241800000000000    0.9094700000000000    0.3040200000000000 C
   0.4343800000000000    0.9438000000000000    0.2736300000000000 C
   0.4939200000000000    0.9828000000000000    0.2660050000000000 C
   0.5059399999999999    0.0173700000000000    0.2341100000000000 C
   0.4241900000000000    0.5905899999999999    0.9458800000000001 C
   0.4344400000000000    0.5563300000000000    0.9762850000000001 C
   0.5288400000000000    0.5506200000000000    0.9267200000000000 C
   0.5403800000000000    0.5156500000000001    0.9568350000000000 C
   0.5758500000000000    0.4094500000000000    0.0538400000000000 C
   0.5656099999999999    0.4437000000000000    0.0234300000000000 C
   0.4713000000000000    0.4496700000000000    0.0730300000000000 C
   0.4597700000000000    0.4846200000000000    0.0429050000000000 C
   0.5061200000000000    0.4828600000000000    0.0158250000000000 C
   0.4939800000000000    0.5172700000000000    0.9839000000000000 C
   0.8843600000000000    0.2185200000000000    0.6852450000000000 C
   0.8612400000000000    0.1583600000000000    0.7411650000000000 C
   0.8794300000000000    0.1404400000000000    0.7740000000000000 C
   0.9399800000000000    0.1644200000000000    0.7866750000000000 C
   0.9644200000000001    0.2236400000000000    0.7333550000000000 C
   0.9822900000000000    0.2061500000000000    0.7663599999999999 C
   0.9036600000000000    0.2001400000000000    0.7205950000000000 C
   0.1341000000000000    0.2813000000000000    0.6853400000000001 C
   0.1107800000000000    0.3411700000000000    0.7413300000000000 C
   0.1289800000000000    0.3592000000000000    0.7741549999999999 C
   0.1897600000000000    0.3357300000000000    0.7867450000000000 C
   0.2143600000000000    0.2767200000000000    0.7333750000000000 C
   0.2322700000000000    0.2943600000000000    0.7663650000000000 C
   0.1533900000000000    0.2997300000000000    0.7206900000000001 C
   0.3845600000000000    0.2209400000000000    0.6852450000000000 C
   0.3615700000000000    0.1599800000000000    0.7410050000000000 C
   0.3799300000000000    0.1413900000000000    0.7737450000000000 C
   0.4406400000000000    0.1648700000000000    0.7863950000000000 C
   0.4649300000000000    0.2249400000000000    0.7332500000000000 C
   0.4829700000000000    0.2067500000000000    0.7661549999999999 C
   0.4040100000000000    0.2019300000000000    0.7205000000000000 C
   0.6345700000000000    0.2814600000000000    0.6852000000000000 C
   0.6116800000000000    0.3416100000000000    0.7412200000000000 C
   0.6300000000000000    0.3594700000000000    0.7740500000000000 C
   0.6905500000000000    0.3353200000000000    0.7866649999999999 C
   0.7147400000000000    0.2760300000000000    0.7333050000000000 C
   0.7327399999999999    0.2934900000000000    0.7663000000000000 C
   0.6539900000000000    0.2997200000000000    0.7205950000000000 C
   0.8843600000000000    0.2185200000000000    0.1852450000000000 C
   0.8612400000000000    0.1583600000000000    0.2411650000000000 C
   0.8794300000000000    0.1404400000000000    0.2740000000000000 C
   0.9399800000000000    0.1644200000000000    0.2866750000000000 C
   0.9644200000000001    0.2236400000000000    0.2333550000000000 C
   0.9822900000000000    0.2061500000000000    0.2663600000000000 C
   0.9036600000000000    0.2001400000000000    0.2205950000000000 C
   0.1341000000000000    0.2813000000000000    0.1853400000000000 C
   0.1107800000000000    0.3411700000000000    0.2413300000000000 C
   0.1289800000000000    0.3592000000000000    0.2741550000000000 C
   0.1897600000000000    0.3357300000000000    0.2867450000000000 C
   0.2143600000000000    0.2767200000000000    0.2333750000000000 C
   0.2322700000000000    0.2943600000000000    0.2663650000000000 C
   0.1533900000000000    0.2997300000000000    0.2206900000000000 C
   0.3845600000000000    0.2209400000000000    0.1852450000000000 C
   0.3615700000000000    0.1599800000000000    0.2410050000000000 C
   0.3799300000000000    0.1413900000000000    0.2737450000000000 C
   0.4406400000000000    0.1648700000000000    0.2863950000000000 C
   0.4649300000000000    0.2249400000000000    0.2332500000000000 C
   0.4829700000000000    0.2067500000000000    0.2661550000000000 C
   0.4040100000000000    0.2019300000000000    0.2205000000000000 C
   0.6345700000000000    0.2814600000000000    0.1852000000000000 C
   0.6116800000000000    0.3416100000000000    0.2412200000000000 C
   0.6300000000000000    0.3594700000000000    0.2740500000000000 C
   0.6905500000000000    0.3353200000000000    0.2866650000000000 C
   0.7147400000000000    0.2760300000000000    0.2333050000000000 C
   0.7327399999999999    0.2934900000000000    0.2663000000000000 C
   0.6539900000000000    0.2997200000000000    0.2205950000000000 C
   0.1157300000000000    0.7188000000000000    0.9353150000000000 C
   0.1392300000000000    0.6590300000000000    0.9912750000000000 C
   0.1211600000000000    0.6410200000000000    0.0241150000000000 C
   0.0604700000000000    0.6645700000000000    0.0367650000000000 C
   0.0356600000000000    0.7235900000000000    0.9834000000000001 C
   0.0179000000000000    0.7060000000000000    0.0164400000000000 C
   0.0965500000000000    0.7004700000000000    0.9706800000000000 C
   0.8656900000000000    0.7813600000000001    0.9352800000000000 C
   0.8889000000000000    0.8411400000000000    0.9912950000000000 C
   0.8707000000000000    0.8590000000000000    0.0241450000000000 C
   0.8100800000000000    0.8351600000000000    0.0367500000000000 C
   0.7855900000000000    0.7761900000000000    0.9833499999999999 C
   0.7677100000000000    0.7936299999999999    0.0163700000000000 C
   0.8464000000000000    0.7995800000000000    0.9706500000000000 C
   0.6158000000000000    0.7185000000000000    0.9352549999999999 C
   0.6391000000000000    0.6583500000000000    0.9911500000000000 C
   0.6210000000000000    0.6403900000000000    0.0240000000000000 C
   0.5358600000000000    0.7236399999999999    0.9834050000000000 C
   0.5180800000000000    0.7061200000000000    0.0164150000000000 C
   0.5604600000000000    0.6643500000000000    0.0365000000000000 C
   0.5966000000000000    0.7001500000000001    0.9706000000000000 C
   0.3664500000000000    0.7811200000000000    0.9355400000000000 C
   0.3897400000000000    0.8414900000000000    0.9914250000000000 C
   0.3715900000000000    0.8596200000000001    0.0242450000000000 C
   0.3109900000000000    0.8358800000000000    0.0369200000000000 C
   0.2864500000000000    0.7763800000000000    0.9836500000000000 C
   0.2686000000000000    0.7941300000000000    0.0166300000000000 C
   0.3472500000000000    0.7996799999999999    0.9708800000000000 C
   0.1157300000000000    0.7188000000000000    0.4353150000000000 C
   0.1392300000000000    0.6590300000000000    0.4912750000000000 C
   0.1211600000000000    0.6410200000000000    0.5241150000000000 C
   0.0604700000000000    0.6645700000000000    0.5367650000000000 C
   0.0356600000000000    0.7235900000000000    0.4834000000000000 C
   0.0179000000000000    0.7060000000000000    0.5164400000000000 C
   0.0965500000000000    0.7004700000000000    0.4706800000000000 C
   0.8656900000000000    0.7813600000000001    0.4352800000000000 C
   0.8889000000000000    0.8411400000000000    0.4912950000000000 C
   0.8707000000000000    0.8590000000000000    0.5241450000000000 C
   0.8100800000000000    0.8351600000000000    0.5367499999999999 C
   0.7855900000000000    0.7761900000000000    0.4833500000000000 C
   0.7677100000000000    0.7936299999999999    0.5163700000000000 C
   0.8464000000000000    0.7995800000000000    0.4706500000000000 C
   0.6158000000000000    0.7185000000000000    0.4352550000000000 C