Cd16 H651 C589 N62 O124
1.0
  27.9419998936047520    0.0000000000000000   -0.0024383994948645
  -0.0038265133501218   15.6609993798668761    0.0021866881061323
   0.0000000000000000    0.0000000000000000   39.2120000000000033
Cd H C N O
16 651 589 62 124
direct
   0.4048350000000000    0.1407600000000000    0.2640850000000000 Cd
   0.1546100000000000    0.3602800000000000    0.2357100000000000 Cd
   0.0953400000000000    0.6398400000000000    0.4857500000000000 Cd
   0.3454450000000000    0.8600100000000001    0.0142500000000000 Cd
   0.9048350000000001    0.1407600000000000    0.2640850000000000 Cd
   0.6546100000000000    0.3602800000000000    0.2357100000000000 Cd
   0.5953400000000000    0.6398400000000000    0.4857500000000000 Cd
   0.8454450000000000    0.8600100000000001    0.0142500000000000 Cd
   0.4048350000000000    0.1407600000000000    0.7640850000000000 Cd
   0.1546100000000000    0.3602800000000000    0.7357100000000000 Cd
   0.0953400000000000    0.6398400000000000    0.9857500000000000 Cd
   0.3454450000000000    0.8600100000000001    0.5142500000000000 Cd
   0.9048350000000001    0.1407600000000000    0.7640850000000000 Cd
   0.6546100000000000    0.3602800000000000    0.7357100000000000 Cd
   0.5953400000000000    0.6398400000000000    0.9857500000000000 Cd
   0.8454450000000000    0.8600100000000001    0.5142500000000000 Cd
   0.3716500000000000    0.9645600000000000    0.4451300000000000 H
   0.3288850000000000    0.9128600000000000    0.1480200000000000 H
   0.2772900000000000    0.7686300000000000    0.1811600000000000 H
   0.3815150000000000    0.8285700000000000    0.4444750000000000 H
   0.4557650000000000    0.7863800000000000    0.4710450000000000 H
   0.0306600000000000    0.8744600000000000    0.0468000000000000 H
   0.4449650000000000    0.9514800000000000    0.3827850000000000 H
   0.4859600000000000    0.8944100000000000    0.3309700000000000 H
   0.0576450000000000    0.9420900000000000    0.4935950000000000 H
   0.4109850000000000    0.6953300000000000    0.4486650000000000 H
   0.4868600000000000    0.6041600000000000    0.3394000000000000 H
   0.0011500000000000    0.0182800000000000    0.0353450000000000 H
   0.4970200000000000    0.0580700000000000    0.4931000000000000 H
   0.4195200000000000    0.0091700000000000    0.4859500000000000 H
   0.4177450000000000    0.9950599999999999    0.0307700000000000 H
   0.3533950000000000    0.6995500000000000    0.1871950000000000 H
   0.4944800000000000    0.9544300000000000    0.4454000000000000 H
   0.0222050000000000    0.8528700000000000    0.4484000000000000 H
   0.3290200000000000    0.9401200000000000    0.0852100000000000 H
   0.4056150000000000    0.5497700000000000    0.0515050000000000 H
   0.3882500000000000    0.6227800000000000    0.1562950000000000 H
   0.4615950000000000    0.4956700000000000    0.3828050000000000 H
   0.3745200000000000    0.6909300000000000    0.0325150000000000 H
   0.4483750000000000    0.8607399999999999    0.0535900000000000 H
   0.4516900000000000    0.7690900000000001    0.0269350000000000 H
   0.4143850000000000    0.4901500000000000    0.4901350000000000 H
   0.4476700000000000    0.5880500000000000    0.4862900000000000 H
   0.3843150000000000    0.5872800000000000    0.4781550000000000 H
   0.4462100000000000    0.4178600000000000    0.1461900000000000 H
   0.4565150000000000    0.5282200000000000    0.1565200000000000 H
   0.3983450000000000    0.4814700000000000    0.1629000000000000 H
   0.3818550000000000    0.8862500000000000    0.1934950000000000 H
   0.3623300000000000    0.7538200000000000    0.2477450000000000 H
   0.3574850000000000    0.8657100000000000    0.2498450000000000 H
   0.0047500000000000    0.8498000000000000    0.1974950000000000 H
   0.4593450000000000    0.9245900000000000    0.1868900000000000 H
   0.4268900000000000    0.6672400000000001    0.2031950000000000 H
   0.4869650000000000    0.6998400000000000    0.1984950000000000 H
   0.4930350000000000    0.7336000000000000    0.2573050000000000 H
   0.4379900000000000    0.6794600000000000    0.2623000000000000 H
   0.4278750000000000    0.8256900000000000    0.2846600000000000 H
   0.4952200000000000    0.8903100000000000    0.2543100000000000 H
   0.3787350000000000    0.0360900000000000    0.1952300000000000 H
   0.4212250000000000    0.0872300000000000    0.3979350000000000 H
   0.4727150000000000    0.2310800000000000    0.4310150000000000 H
   0.3685300000000000    0.1722000000000000    0.1944100000000000 H
   0.2942950000000000    0.2137900000000000    0.2209000000000000 H
   0.2195300000000000    0.1257600000000000    0.2967400000000000 H
   0.3057300000000000    0.0486200000000000    0.1326400000000000 H
   0.2646550000000000    0.1052300000000000    0.0807600000000000 H
   0.1925350000000000    0.0580500000000000    0.2435550000000000 H
   0.3382150000000000    0.3051000000000000    0.1985000000000000 H
   0.2626550000000000    0.3954400000000000    0.0890000000000000 H
   0.2490850000000000    0.9821200000000000    0.2853650000000000 H
   0.2531800000000000    0.9421400000000000    0.2431850000000000 H
   0.3306500000000000    0.9911600000000000    0.2359300000000000 H
   0.3325000000000000    0.0053100000000000    0.2807250000000000 H
   0.3966600000000000    0.3005500000000000    0.4370550000000000 H
   0.2556550000000000    0.0456600000000000    0.1953650000000000 H
   0.2279350000000000    0.1472000000000000    0.1983600000000000 H
   0.4211450000000000    0.0599700000000000    0.3351150000000000 H
   0.3446800000000000    0.4503300000000000    0.3013000000000000 H
   0.3614950000000000    0.3771400000000000    0.4061300000000000 H
   0.2870150000000000    0.5041600000000001    0.1327700000000000 H
   0.3758250000000000    0.3092200000000000    0.2823750000000000 H
   0.3017950000000000    0.1397000000000000    0.3035100000000000 H
   0.2984150000000000    0.2312700000000000    0.2768050000000000 H
   0.3334000000000000    0.5098500000000000    0.2403250000000000 H
   0.3010450000000000    0.4110000000000000    0.2363650000000000 H
   0.3643800000000000    0.4137600000000000    0.2281750000000000 H
   0.3027050000000000    0.5814200000000000    0.3957800000000000 H
   0.2925750000000000    0.4708400000000000    0.4058200000000000 H
   0.3504450000000000    0.5181300000000000    0.4128500000000000 H
   0.3680600000000000    0.1139300000000000    0.4434100000000000 H
   0.3877450000000000    0.2463300000000000    0.4976350000000000 H
   0.3925550000000000    0.1344300000000000    0.4997400000000000 H
   0.2452150000000000    0.1506600000000000    0.4474850000000000 H
   0.2905400000000000    0.0757900000000000    0.4368300000000000 H
   0.3232250000000000    0.3330300000000000    0.4531600000000000 H
   0.2631100000000000    0.3006100000000000    0.4484500000000000 H
   0.2570650000000000    0.2666800000000000    0.0072750000000000 H
   0.3121350000000000    0.3207500000000000    0.0122900000000000 H
   0.3222300000000000    0.1744700000000000    0.0345900000000000 H
   0.2548300000000000    0.1099400000000000    0.0042850000000000 H
   0.1287950000000000    0.4644700000000000    0.3048000000000000 H
   0.1710900000000000    0.4129600000000000    0.1018950000000000 H
   0.2227100000000000    0.2686900000000000    0.0688000000000000 H
   0.1184950000000000    0.3284400000000000    0.3054400000000000 H
   0.0441500000000000    0.2871600000000000    0.2788800000000000 H
   0.4694950000000000    0.3764700000000000    0.2031750000000000 H
   0.0551100000000000    0.4516100000000000    0.3671650000000000 H
   0.0140150000000000    0.3945000000000000    0.4189450000000000 H
   0.4426800000000000    0.4438700000000000    0.2564450000000000 H
   0.0889650000000000    0.1955500000000000    0.3012400000000000 H
   0.0130450000000000    0.1042700000000000    0.4104600000000000 H
   0.4993750000000000    0.5198700000000001    0.2147750000000000 H
   0.0036650000000000    0.5593800000000000    0.2570250000000000 H
   0.0810000000000000    0.5097100000000000    0.2641150000000000 H
   0.0827100000000000    0.4958700000000000    0.2193000000000000 H
   0.1466350000000000    0.1994600000000000    0.0628650000000000 H
   0.0058450000000000    0.4553100000000000    0.3046750000000000 H
   0.4778550000000000    0.3539900000000000    0.3014850000000000 H
   0.1709900000000000    0.4404100000000000    0.1646950000000000 H
   0.0943800000000000    0.0501400000000000    0.1986650000000000 H
   0.1117600000000000    0.1227800000000000    0.0938250000000000 H
   0.0383450000000000    0.9957900000000000    0.3671150000000000 H
   0.1254650000000000    0.1914100000000000    0.2175550000000000 H
   0.0517300000000000    0.3618900000000000    0.1963500000000000 H
   0.0480850000000000    0.2701700000000000    0.2229750000000000 H
   0.0857400000000000    0.9902900000000000    0.2598250000000000 H
   0.0524250000000000    0.0881500000000000    0.2636150000000000 H
   0.1157550000000000    0.0874900000000000    0.2718000000000000 H
   0.0538150000000000    0.9178600000000000    0.1040000000000000 H
   0.0435650000000000    0.0000000000000000    0.0936000000000000 H
   0.1017300000000000    0.9814100000000000    0.0873400000000000 H
   0.1180650000000000    0.3860700000000000    0.0564450000000000 H
   0.1375700000000000    0.2534700000000000    0.0022700000000000 H
   0.1424300000000000    0.3653600000000000    0.0000000000000000 H
   0.4951900000000000    0.3493000000000000    0.0525300000000000 H
   0.0405600000000000    0.4242100000000000    0.0631100000000000 H
   0.0731500000000000    0.1669400000000000    0.0468500000000000 H
   0.0130550000000000    0.1993700000000000    0.0515950000000000 H
   0.0068700000000000    0.2331200000000000    0.4927750000000000 H
   0.0619150000000000    0.1790500000000000    0.4877300000000000 H
   0.0719950000000000    0.3252700000000000    0.4653500000000000 H
   0.0046800000000000    0.3898700000000000    0.4957050000000000 H
   0.1209950000000000    0.5360600000000000    0.0547750000000000 H
   0.0787300000000000    0.5871700000000000    0.3519400000000000 H
   0.0272500000000000    0.7310400000000000    0.3189200000000000 H
   0.1314400000000000    0.6721900000000000    0.0555150000000000 H
   0.2057600000000000    0.7133100000000000    0.0290050000000000 H
   0.2806250000000000    0.6252400000000000    0.4533900000000000 H
   0.1941600000000000    0.5485100000000001    0.1173450000000000 H
   0.2353250000000000    0.6051299999999999    0.1691900000000000 H
   0.3074250000000000    0.5574300000000000    0.0066000000000000 H
   0.1618050000000000    0.8049100000000000    0.0512200000000000 H
   0.2373850000000000    0.8953400000000000    0.1606550000000000 H
   0.2508850000000000    0.4815900000000000    0.4647150000000000 H
   0.2467550000000000    0.4415400000000000    0.0068950000000000 H
   0.1693200000000000    0.4907000000000000    0.0141800000000000 H
   0.1674650000000000    0.5046100000000000    0.4693650000000000 H
   0.1032850000000000    0.8006300000000000    0.3129250000000000 H
   0.2441150000000000    0.5450600000000000    0.0547050000000000 H
   0.2719700000000000    0.6465300000000000    0.0517600000000000 H
   0.0788250000000000    0.5596500000000000    0.4147450000000000 H
   0.1553100000000000    0.9499500000000000    0.4487500000000000 H
   0.1384500000000000    0.8771600000000001    0.3439000000000000 H
   0.2130000000000000    0.0040500000000000    0.1171250000000000 H
   0.1241750000000000    0.8087000000000000    0.4676250000000000 H
   0.1983750000000000    0.6388900000000000    0.4464900000000000 H
   0.2016500000000000    0.7306200000000000    0.4731100000000000 H
   0.1664700000000000    0.0096900000000000    0.0095950000000000 H
   0.1988600000000000    0.9108800000000000    0.0135400000000000 H
   0.1355400000000000    0.9135700000000000    0.0217950000000000 H
   0.1972400000000000    0.0814300000000000    0.3543200000000000 H
   0.2073500000000000    0.9708900000000000    0.3442250000000000 H
   0.1494750000000000    0.0181700000000000    0.3372100000000000 H
   0.1319200000000000    0.6140600000000001    0.3065100000000000 H
   0.1123350000000000    0.7466900000000000    0.2523350000000000 H
   0.1074400000000000    0.6348100000000000    0.2501800000000000 H
   0.2547700000000000    0.6509200000000001    0.3025200000000000 H
   0.2094400000000000    0.5759800000000000    0.3131500000000000 H
   0.1767600000000000    0.8332100000000000    0.2968400000000000 H
   0.2368700000000000    0.8008500000000000    0.3015500000000000 H
   0.2429950000000000    0.7670200000000000    0.2427600000000000 H
   0.1879350000000000    0.8210600000000000    0.2377200000000000 H
   0.1778400000000000    0.6748300000000000    0.2153850000000000 H
   0.2452100000000000    0.6103000000000000    0.2457150000000000 H
   0.8716500000000000    0.9645600000000000    0.4451300000000000 H
   0.8288850000000000    0.9128600000000000    0.1480200000000000 H
   0.7772900000000000    0.7686300000000000    0.1811600000000000 H
   0.8815150000000000    0.8285700000000000    0.4444750000000000 H
   0.9557650000000000    0.7863800000000000    0.4710450000000000 H
   0.5306600000000000    0.8744600000000000    0.0468000000000000 H
   0.9449650000000001    0.9514800000000000    0.3827850000000000 H
   0.9859599999999999    0.8944100000000000    0.3309700000000000 H
   0.5576449999999999    0.9420900000000000    0.4935950000000000 H
   0.9109849999999999    0.6953300000000000    0.4486650000000000 H
   0.9868600000000001    0.6041600000000000    0.3394000000000000 H
   0.5011500000000000    0.0182800000000000    0.0353450000000000 H
   0.9970200000000000    0.0580700000000000    0.4931000000000000 H
   0.9195200000000000    0.0091700000000000    0.4859500000000000 H
   0.9177450000000000    0.9950599999999999    0.0307700000000000 H
   0.8533950000000000    0.6995500000000000    0.1871950000000000 H
   0.9944800000000000    0.9544300000000000    0.4454000000000000 H
   0.5222050000000000    0.8528700000000000    0.4484000000000000 H
   0.8290200000000000    0.9401200000000000    0.0852100000000000 H
   0.9056150000000001    0.5497700000000000    0.0515050000000000 H
   0.8882500000000000    0.6227800000000000    0.1562950000000000 H
   0.9615950000000000    0.4956700000000000    0.3828050000000000 H
   0.8745200000000000    0.6909300000000000    0.0325150000000000 H
   0.9483750000000000    0.8607399999999999    0.0535900000000000 H
   0.9516899999999999    0.7690900000000001    0.0269350000000000 H
   0.9143850000000000    0.4901500000000000    0.4901350000000000 H
   0.9476700000000000    0.5880500000000000    0.4862900000000000 H
   0.8843150000000000    0.5872800000000000    0.4781550000000000 H
   0.9462100000000000    0.4178600000000000    0.1461900000000000 H
   0.9565150000000000    0.5282200000000000    0.1565200000000000 H
   0.8983449999999999    0.4814700000000000    0.1629000000000000 H
   0.8818550000000001    0.8862500000000000    0.1934950000000000 H
   0.8623300000000000    0.7538200000000000    0.2477450000000000 H
   0.8574850000000001    0.8657100000000000    0.2498450000000000 H
   0.5047500000000000    0.8498000000000000    0.1974950000000000 H
   0.9593450000000000    0.9245900000000000    0.1868900000000000 H
   0.9268900000000000    0.6672400000000001    0.2031950000000000 H
   0.9869650000000000    0.6998400000000000    0.1984950000000000 H
   0.9930350000000000    0.7336000000000000    0.2573050000000000 H
   0.9379900000000000    0.6794600000000000    0.2623000000000000 H
   0.9278750000000000    0.8256900000000000    0.2846600000000000 H
   0.9952200000000000    0.8903100000000000    0.2543100000000000 H
   0.8787350000000000    0.0360900000000000    0.1952300000000000 H
   0.9212250000000000    0.0872300000000000    0.3979350000000000 H
   0.9727150000000000    0.2310800000000000    0.4310150000000000 H
   0.8685300000000000    0.1722000000000000    0.1944100000000000 H
   0.7942950000000000    0.2137900000000000    0.2209000000000000 H
   0.7195300000000000    0.1257600000000000    0.2967400000000000 H
   0.8057300000000001    0.0486200000000000    0.1326400000000000 H
   0.7646550000000000    0.1052300000000000    0.0807600000000000 H
   0.6925350000000000    0.0580500000000000    0.2435550000000000 H
   0.8382149999999999    0.3051000000000000    0.1985000000000000 H
   0.7626550000000001    0.3954400000000000    0.0890000000000000 H
   0.7490850000000000    0.9821200000000000    0.2853650000000000 H
   0.7531800000000000    0.9421400000000000    0.2431850000000000 H
   0.8306500000000000    0.9911600000000000    0.2359300000000000 H
   0.8325000000000000    0.0053100000000000    0.2807250000000000 H
   0.8966600000000000    0.3005500000000000    0.4370550000000000 H
   0.7556550000000000    0.0456600000000000    0.1953650000000000 H
   0.7279350000000000    0.1472000000000000    0.1983600000000000 H
   0.9211450000000000    0.0599700000000000    0.3351150000000000 H
   0.8446800000000000    0.4503300000000000    0.3013000000000000 H
   0.8614950000000000    0.3771400000000000    0.4061300000000000 H
   0.7870150000000000    0.5041600000000001    0.1327700000000000 H
   0.8758250000000001    0.3092200000000000    0.2823750000000000 H
   0.8017950000000000    0.1397000000000000    0.3035100000000000 H
   0.7984150000000000    0.2312700000000000    0.2768050000000000 H
   0.8333999999999999    0.5098500000000000    0.2403250000000000 H
   0.8010450000000000    0.4110000000000000    0.2363650000000000 H
   0.8643799999999999    0.4137600000000000    0.2281750000000000 H
   0.8027050000000000    0.5814200000000000    0.3957800000000000 H
   0.7925750000000000    0.4708400000000000    0.4058200000000000 H
   0.8504450000000000    0.5181300000000000    0.4128500000000000 H
   0.8680600000000001    0.1139300000000000    0.4434100000000000 H
   0.8877450000000000    0.2463300000000000    0.4976350000000000 H
   0.8925550000000000    0.1344300000000000    0.4997400000000000 H
   0.7452150000000000    0.1506600000000000    0.4474850000000000 H
   0.7905400000000000    0.0757900000000000    0.4368300000000000 H
   0.8232250000000000    0.3330300000000000    0.4531600000000000 H
   0.7631100000000000    0.3006100000000000    0.4484500000000000 H
   0.7570650000000000    0.2666800000000000    0.0072750000000000 H
   0.8121350000000001    0.3207500000000000    0.0122900000000000 H
   0.8222300000000000    0.1744700000000000    0.0345900000000000 H
   0.7548300000000000    0.1099400000000000    0.0042850000000000 H
   0.6287950000000000    0.4644700000000000    0.3048000000000000 H
   0.6710900000000000    0.4129600000000000    0.1018950000000000 H
   0.7227100000000000    0.2686900000000000    0.0688000000000000 H
   0.6184950000000000    0.3284400000000000    0.3054400000000000 H
   0.5441500000000000    0.2871600000000000    0.2788800000000000 H
   0.9694950000000000    0.3764700000000000    0.2031750000000000 H
   0.5551100000000000    0.4516100000000000    0.3671650000000000 H
   0.5140150000000000    0.3945000000000000    0.4189450000000000 H
   0.9426800000000000    0.4438700000000000    0.2564450000000000 H
   0.5889650000000000    0.1955500000000000    0.3012400000000000 H
   0.5130450000000000    0.1042700000000000    0.4104600000000000 H
   0.9993750000000000    0.5198700000000001    0.2147750000000000 H
   0.5036650000000000    0.5593800000000000    0.2570250000000000 H
   0.5810000000000000    0.5097100000000000    0.2641150000000000 H
   0.5827100000000001    0.4958700000000000    0.2193000000000000 H
   0.6466350000000000    0.1994600000000000    0.0628650000000000 H
   0.5058450000000000    0.4553100000000000    0.3046750000000000 H
   0.9778549999999999    0.3539900000000000    0.3014850000000000 H
   0.6709900000000000    0.4404100000000000    0.1646950000000000 H
   0.5943800000000000    0.0501400000000000    0.1986650000000000 H
   0.6117600000000000    0.1227800000000000    0.0938250000000000 H
   0.5383450000000000    0.9957900000000000    0.3671150000000000 H
   0.6254649999999999    0.1914100000000000    0.2175550000000000 H
   0.5517300000000001    0.3618900000000000    0.1963500000000000 H
   0.5480850000000000    0.2701700000000000    0.2229750000000000 H
   0.5857400000000000    0.9902900000000000    0.2598250000000000 H
   0.5524249999999999    0.0881500000000000    0.2636150000000000 H
   0.6157550000000001    0.0874900000000000    0.2718000000000000 H
   0.5538149999999999    0.9178600000000000    0.1040000000000000 H
   0.5435650000000000    0.0000000000000000    0.0936000000000000 H
   0.6017300000000000    0.9814100000000000    0.0873400000000000 H
   0.6180650000000000    0.3860700000000000    0.0564450000000000 H
   0.6375700000000000    0.2534700000000000    0.0022700000000000 H
   0.6424300000000001    0.3653600000000000    0.0000000000000000 H
   0.9951900000000000    0.3493000000000000    0.0525300000000000 H
   0.5405600000000000    0.4242100000000000    0.0631100000000000 H
   0.5731500000000000    0.1669400000000000    0.0468500000000000 H
   0.5130550000000000    0.1993700000000000    0.0515950000000000 H
   0.5068700000000000    0.2331200000000000    0.4927750000000000 H
   0.5619149999999999    0.1790500000000000    0.4877300000000000 H
   0.5719950000000000    0.3252700000000000    0.4653500000000000 H
   0.5046800000000000    0.3898700000000000    0.4957050000000000 H
   0.6209950000000000    0.5360600000000000    0.0547750000000000 H
   0.5787300000000000    0.5871700000000000    0.3519400000000000 H
   0.5272500000000000    0.7310400000000000    0.3189200000000000 H
   0.6314400000000000    0.6721900000000000    0.0555150000000000 H
   0.7057599999999999    0.7133100000000000    0.0290050000000000 H
   0.7806250000000000    0.6252400000000000    0.4533900000000000 H
   0.6941600000000000    0.5485100000000001    0.1173450000000000 H
   0.7353250000000000    0.6051299999999999    0.1691900000000000 H
   0.8074250000000001    0.5574300000000000    0.0066000000000000 H
   0.6618050000000000    0.8049100000000000    0.0512200000000000 H
   0.7373850000000000    0.8953400000000000    0.1606550000000000 H
   0.7508850000000000    0.4815900000000000    0.4647150000000000 H
   0.7467550000000001    0.4415400000000000    0.0068950000000000 H
   0.6693200000000000    0.4907000000000000    0.0141800000000000 H
   0.6674650000000000    0.5046100000000000    0.4693650000000000 H
   0.6032850000000000    0.8006300000000000    0.3129250000000000 H
   0.7441150000000000    0.5450600000000000    0.0547050000000000 H
   0.7719700000000000    0.6465300000000000    0.0517600000000000 H
   0.5788250000000000    0.5596500000000000    0.4147450000000000 H
   0.6553100000000001    0.9499500000000000    0.4487500000000000 H
   0.6384500000000000    0.8771600000000001    0.3439000000000000 H
   0.7130000000000000    0.0040500000000000    0.1171250000000000 H
   0.6241750000000000    0.8087000000000000    0.4676250000000000 H
   0.6983750000000000    0.6388900000000000    0.4464900000000000 H
   0.7016500000000000    0.7306200000000000    0.4731100000000000 H
   0.6664700000000000    0.0096900000000000    0.0095950000000000 H
   0.6988600000000000    0.9108800000000000    0.0135400000000000 H
   0.6355400000000000    0.9135700000000000    0.0217950000000000 H
   0.6972400000000000    0.0814300000000000    0.3543200000000000 H
   0.7073500000000000    0.9708900000000000    0.3442250000000000 H
   0.6494750000000000    0.0181700000000000    0.3372100000000000 H
   0.6319200000000000    0.6140600000000001    0.3065100000000000 H
   0.6123350000000000    0.7466900000000000    0.2523350000000000 H
   0.6074400000000000    0.6348100000000000    0.2501800000000000 H
   0.7547699999999999    0.6509200000000001    0.3025200000000000 H
   0.7094400000000000    0.5759800000000000    0.3131500000000000 H
   0.6767600000000000    0.8332100000000000    0.2968400000000000 H
   0.7368700000000000    0.8008500000000000    0.3015500000000000 H
   0.7429950000000000    0.7670200000000000    0.2427600000000000 H
   0.6879350000000000    0.8210600000000000    0.2377200000000000 H
   0.6778400000000000    0.6748300000000000    0.2153850000000000 H
   0.7452100000000000    0.6103000000000000    0.2457150000000000 H
   0.3716500000000000    0.9645600000000000    0.9451300000000000 H
   0.3288850000000000    0.9128600000000000    0.6480200000000000 H
   0.2772900000000000    0.7686300000000000    0.6811600000000000 H
   0.3815150000000000    0.8285700000000000    0.9444750000000000 H
   0.4557650000000000    0.7863800000000000    0.9710449999999999 H
   0.0306600000000000    0.8744600000000000    0.5468000000000000 H
   0.4449650000000000    0.9514800000000000    0.8827849999999999 H
   0.4859600000000000    0.8944100000000000    0.8309700000000000 H
   0.0576450000000000    0.9420900000000000    0.9935950000000000 H
   0.4109850000000000    0.6953300000000000    0.9486650000000000 H
   0.4868600000000000    0.6041600000000000    0.8393999999999999 H
   0.0011500000000000    0.0182800000000000    0.5353450000000000 H
   0.4970200000000000    0.0580700000000000    0.9931000000000000 H
   0.4195200000000000    0.0091700000000000    0.9859500000000000 H
   0.4177450000000000    0.9950599999999999    0.5307700000000000 H
   0.3533950000000000    0.6995500000000000    0.6871950000000000 H
   0.4944800000000000    0.9544300000000000    0.9454000000000000 H
   0.0222050000000000    0.8528700000000000    0.9484000000000000 H
   0.3290200000000000    0.9401200000000000    0.5852100000000000 H
   0.4056150000000000    0.5497700000000000    0.5515050000000000 H
   0.3882500000000000    0.6227800000000000    0.6562950000000000 H
   0.4615950000000000    0.4956700000000000    0.8828050000000001 H
   0.3745200000000000    0.6909300000000000    0.5325150000000000 H
   0.4483750000000000    0.8607399999999999    0.5535900000000000 H
   0.4516900000000000    0.7690900000000001    0.5269350000000000 H
   0.4143850000000000    0.4901500000000000    0.9901350000000000 H
   0.4476700000000000    0.5880500000000000    0.9862900000000000 H
   0.3843150000000000    0.5872800000000000    0.9781550000000000 H
   0.4462100000000000    0.4178600000000000    0.6461900000000000 H
   0.4565150000000000    0.5282200000000000    0.6565200000000000 H
   0.3983450000000000    0.4814700000000000    0.6629000000000000 H
   0.3818550000000000    0.8862500000000000    0.6934950000000000 H
   0.3623300000000000    0.7538200000000000    0.7477450000000000 H
   0.3574850000000000    0.8657100000000000    0.7498450000000000 H
   0.0047500000000000    0.8498000000000000    0.6974950000000000 H
   0.4593450000000000    0.9245900000000000    0.6868900000000000 H
   0.4268900000000000    0.6672400000000001    0.7031950000000000 H
   0.4869650000000000    0.6998400000000000    0.6984950000000000 H
   0.4930350000000000    0.7336000000000000    0.7573050000000000 H
   0.4379900000000000    0.6794600000000000    0.7623000000000000 H
   0.4278750000000000    0.8256900000000000    0.7846600000000000 H
   0.4952200000000000    0.8903100000000000    0.7543100000000000 H
   0.3787350000000000    0.0360900000000000    0.6952300000000000 H
   0.4212250000000000    0.0872300000000000    0.8979349999999999 H
   0.4727150000000000    0.2310800000000000    0.9310149999999999 H
   0.3685300000000000    0.1722000000000000    0.6944100000000000 H
   0.2942950000000000    0.2137900000000000    0.7209000000000000 H
   0.2195300000000000    0.1257600000000000    0.7967400000000000 H
   0.3057300000000000    0.0486200000000000    0.6326400000000000 H
   0.2646550000000000    0.1052300000000000    0.5807599999999999 H
   0.1925350000000000    0.0580500000000000    0.7435550000000000 H
   0.3382150000000000    0.3051000000000000    0.6985000000000000 H
   0.2626550000000000    0.3954400000000000    0.5890000000000000 H
   0.2490850000000000    0.9821200000000000    0.7853650000000000 H
   0.2531800000000000    0.9421400000000000    0.7431850000000000 H
   0.3306500000000000    0.9911600000000000    0.7359300000000000 H
   0.3325000000000000    0.0053100000000000    0.7807250000000000 H
   0.3966600000000000    0.3005500000000000    0.9370550000000000 H
   0.2556550000000000    0.0456600000000000    0.6953650000000000 H
   0.2279350000000000    0.1472000000000000    0.6983600000000000 H
   0.4211450000000000    0.0599700000000000    0.8351150000000001 H
   0.3446800000000000    0.4503300000000000    0.8013000000000000 H
   0.3614950000000000    0.3771400000000000    0.9061300000000000 H
   0.2870150000000000    0.5041600000000001    0.6327700000000001 H
   0.3758250000000000    0.3092200000000000    0.7823750000000000 H
   0.3017950000000000    0.1397000000000000    0.8035099999999999 H
   0.2984150000000000    0.2312700000000000    0.7768050000000000 H
   0.3334000000000000    0.5098500000000000    0.7403250000000000 H
   0.3010450000000000    0.4110000000000000    0.7363649999999999 H
   0.3643800000000000    0.4137600000000000    0.7281750000000000 H
   0.3027050000000000    0.5814200000000000    0.8957800000000000 H
   0.2925750000000000    0.4708400000000000    0.9058200000000001 H
   0.3504450000000000    0.5181300000000000    0.9128499999999999 H
   0.3680600000000000    0.1139300000000000    0.9434100000000001 H
   0.3877450000000000    0.2463300000000000    0.9976350000000000 H
   0.3925550000000000    0.1344300000000000    0.9997400000000001 H
   0.2452150000000000    0.1506600000000000    0.9474850000000000 H
   0.2905400000000000    0.0757900000000000    0.9368300000000001 H
   0.3232250000000000    0.3330300000000000    0.9531600000000000 H
   0.2631100000000000    0.3006100000000000    0.9484500000000000 H
   0.2570650000000000    0.2666800000000000    0.5072750000000000 H
   0.3121350000000000    0.3207500000000000    0.5122900000000000 H
   0.3222300000000000    0.1744700000000000    0.5345900000000000 H
   0.2548300000000000    0.1099400000000000    0.5042850000000000 H
   0.1287950000000000    0.4644700000000000    0.8048000000000000 H