H4 C6 N5
1.0
  24.8319993608200527    0.0000000000000000    0.0056342020297796
  -0.0090222767294857   15.6619957887356822    0.0071071899097106
   0.0000000000000000    0.0000000000000000   30.9660000000000011
H C N
4 6 5
direct
   0.1363550000000000    0.7785100000000000    0.7058000000000000 H
   0.0838700000000000    0.9016600000000000    0.6759999999999999 H
   0.1714400000000000    0.9014900000000000    0.5622199999999999 H
   0.2287000000000000    0.7783300000000000    0.5877750000000000 H
   0.2166050000000000    0.6944800000000000    0.6643350000000000 C
   0.1867700000000000    0.7684800000000001    0.6489400000000000 C
   0.1456600000000000    0.8047800000000001    0.6741000000000000 C
   0.1167750000000000    0.8732000000000000    0.6577400000000000 C
   0.1662700000000000    0.8727600000000000    0.5940799999999999 C
   0.1970700000000000    0.8043900000000000    0.6082350000000000 C
   0.2416800000000000    0.5917200000000000    0.7036050000000000 N
   0.2699950000000000    0.5897100000000000    0.6666000000000000 N
   0.2550100000000000    0.6536800000000000    0.6411600000000000 N
   0.2078900000000000    0.6570600000000000    0.7030800000000000 N
   0.1265000000000000    0.9067499999999999    0.6183200000000000 N
