H24 C33 O12
1.0
  31.0104061167973555    0.0000000000000000   -9.5513044382061931
  -6.3368650190515305   28.3342396530131211  -13.1662221239025090
   0.0000000000000000    0.0000000000000000   36.9939999999999998
H C O
24 33 12
direct
   0.8037833333333333    0.7488300000000000    0.0186700000000000 H
   0.9356733333333332    0.5871250000000000    0.0686650000000000 H
   0.9467399999999999    0.7090900000000000    0.0187250000000000 H
   0.9744466666666667    0.7317100000000000    0.0957200000000000 H
   0.7922699999999999    0.6089550000000000    0.0093300000000000 H
   0.7627066666666666    0.6345550000000000    0.0681700000000000 H
   0.7722566666666666    0.7733050000000000    0.0772550000000000 H
   0.7094199999999999    0.4898250000000000    0.8349500000000001 H
   0.8427233333333333    0.4936850000000000    0.8350500000000001 H
   0.6876599999999999    0.4052300000000000    0.7811699999999999 H
   0.8204166666666666    0.4099400000000000    0.7811900000000001 H
   0.8560733333333332    0.6575800000000001    0.8121499999999999 H
   0.8873466666666666    0.6811500000000000    0.9636899999999999 H
   0.8962200000000000    0.6475299999999999    0.9153600000000000 H
   0.8088733333333333    0.6815300000000000    0.9182500000000000 H
   0.7728733333333333    0.6258800000000000    0.8791450000000001 H
   0.7520966666666666    0.6843850000000000    0.8643050000000000 H
   0.9095899999999999    0.5635550000000000    0.9906550000000001 H
   0.8358466666666666    0.6038100000000000    0.9700500000000001 H
   0.7814366666666667    0.5998900000000000    0.9369799999999999 H
   0.8234299999999999    0.6928700000000000    0.7645999999999999 H
   0.8523299999999999    0.5518950000000000    0.9023350000000000 H
   0.8423200000000000    0.5700149999999999    0.8612100000000000 H
   0.7196266666666666    0.7184000000000000    0.8164000000000000 H
   0.7942533333333333    0.7241600000000000    0.0297300000000000 C
   0.9381900000000000    0.6133800000000000    0.0573000000000000 C
   0.9234399999999999    0.6003100000000000    0.0141750000000000 C
   0.9438233333333332    0.6823350000000000    0.0294800000000000 C
   0.9594300000000000    0.6950350000000000    0.0727150000000000 C
   0.7880033333333333    0.6450100000000000    0.0238600000000000 C
   0.7653000000000000    0.7053450000000000    0.0760300000000000 C
   0.7488033333333333    0.7210950000000000    0.1121500000000000 C
   0.9252400000000000    0.6348750000000000    0.0001000000000000 C
   0.7712300000000000    0.6592400000000000    0.0567600000000000 C
   0.9559966666666666    0.6609750000000000    0.0871000000000000 C
   0.7768200000000000    0.7375200000000000    0.0618800000000000 C
   0.7998733333333332    0.6777650000000000    0.0105650000000000 C
   0.9685733333333333    0.6748650000000000    0.1328600000000000 C
   0.7335066666666666    0.4717750000000000    0.8231750000000000 C
   0.8087433333333333    0.4747200000000000    0.8235600000000001 C
   0.7217033333333333    0.4246200000000000    0.7934450000000000 C
   0.7772200000000000    0.4971200000000000    0.8385800000000000 C
   0.7963066666666666    0.4275600000000000    0.7932900000000001 C
   0.7410099999999999    0.3515100000000000    0.7461150000000000 C
   0.7529533333333333    0.4017750000000000    0.7780500000000000 C
   0.8260466666666666    0.6706550000000000    0.8126150000000000 C
   0.8836733333333333    0.6453550000000000    0.9391600000000000 C
   0.8075699999999999    0.6455100000000000    0.8953350000000000 C
   0.7677499999999999    0.6856350000000000    0.8424000000000000 C
   0.8158700000000000    0.6200800000000000    0.9519850000000001 C
   0.8079000000000000    0.6904950000000000    0.7862899999999999 C
   0.8343233333333333    0.6199500000000000    0.9181300000000000 C
   0.8058833333333333    0.6679250000000000    0.8406050000000000 C
   0.8311033333333333    0.5691250000000000    0.8862850000000000 C
   0.7487933333333333    0.7272650000000001    0.7580600000000000 C
   0.7691300000000000    0.7076500000000000    0.7871250000000001 C
   0.7494566666666667    0.7049900000000000    0.8154399999999999 C
   0.9898333333333333    0.7168600000000001    0.1611350000000000 O
   0.9555933333333333    0.6445850000000000    0.1440900000000000 O
   0.7474466666666666    0.6950900000000000    0.1305700000000000 O
   0.7377433333333333    0.7611550000000000    0.1246000000000000 O
   0.7045366666666666    0.3243700000000000    0.7387300000000000 O
   0.7660533333333333    0.3351300000000000    0.7257200000000000 O
   0.7859799999999999    0.5432900000000001    0.8680150000000000 O
   0.9095033333333333    0.6188300000000000    0.9569150000000000 O
   0.7673366666666667    0.7326600000000000    0.7343450000000000 O
   0.7102433333333333    0.7380500000000000    0.7578849999999999 O
   0.8178099999999999    0.6683500000000000    0.9794250000000000 O
   0.8258833333333333    0.6471850000000000    0.8649300000000000 O
