H6 O4
1.0
  32.8019996802540632    0.0000000000000000    0.0045800231950291
 -16.3812852564938751   28.4741273600500975   -0.0080267691500478
   0.0000000000000000    0.0000000000000000   32.1580000000000013
H O
6 4
direct
   0.7740380372511215    0.4279575988571374    0.6808912334684233 H
   0.6536971958858513    0.4281655422874752    0.6808818267107194 H
   0.7157559641007114    0.4318955322492671    0.6844572352525493 H
   0.7259625901060028    0.5720495867694588    0.8191139435559851 H
   0.8462884278181532    0.5718408800576718    0.8191226255352857 H
   0.7842336438102738    0.5681067897604813    0.8155442216184310 H
   0.7425200000000001    0.4165250000000000    0.6702000000000000 O
   0.6737400000000000    0.4166550000000000    0.6702049999999999 O
   0.7574799999999999    0.5834900000000000    0.8298099999999999 O
   0.8262550000000000    0.5833600000000000    0.8298050000000000 O
