H4 O2
1.0
  14.0589723447047223    0.0000000000000000   -3.2065084766499208
  -1.6316453436159739   14.6994119244394419   -7.1629959896892217
   0.0000000000000000    0.0000000000000000   18.9909999999999997
H O
4 2
direct
   0.8692496317531541    0.1186767218059623    0.9363469630007798 H
   0.8659482390897206    0.2317033535056112    0.9730877903149562 H
   0.1426001081057795    0.4735525051205913    0.4816382863289310 H
   0.2398415072469437    0.4192291188272527    0.4916307398259046 H
   0.8493200000000000    0.1710400000000000    0.9274000000000000 O
   0.2029900000000000    0.4698800000000000    0.5153500000000000 O
