H9 C12 N5
1.0
  14.0589723447047223    0.0000000000000000   -3.2065084766499208
  -1.6316453436159739   14.6994119244394419   -7.1629959896892217
   0.0000000000000000    0.0000000000000000   18.9909999999999997
H C N
9 12 5
direct
   0.8561500000000000    0.0322900000000000    0.8879000000000000 H
   0.9518799999999999    0.0481600000000000    0.0213200000000000 H
   0.9425900000000000    0.3385000000000000    0.1159000000000000 H
   0.8481900000000000    0.3111200000000000    0.9780600000000000 H
   0.1780500000000000    0.1436200000000000    0.2533300000000000 H
   0.0153200000000000    0.4172200000000000    0.3548800000000000 H
   0.0814700000000000    0.5327800000000000    0.4978000000000000 H
   0.3203400000000000    0.3988100000000000    0.5226300000000000 H
   0.2681100000000000    0.2793300000000000    0.3797800000000000 H
   0.8768300000000000    0.0987600000000000    0.9397500000000000 C
   0.9306300000000000    0.1076200000000000    0.0134300000000000 C
   0.9579500000000000    0.1950900000000000    0.0769400000000000 C
   0.9256600000000000    0.2702000000000000    0.0664600000000000 C
   0.8722600000000000    0.2547300000000000    0.9904300000000000 C
   0.1016000000000000    0.2696900000000000    0.2712000000000000 C
   0.1269700000000000    0.1804900000000000    0.2309300000000000 C
   0.1366100000000000    0.3382500000000000    0.3548500000000000 C
   0.0839000000000000    0.4110400000000000    0.3892700000000000 C
   0.1196200000000000    0.4749500000000000    0.4688100000000000 C
   0.2538100000000000    0.4000300000000000    0.4826400000000000 C
   0.2234400000000000    0.3334800000000000    0.4033100000000000 C
   0.8493200000000000    0.1710400000000000    0.9274000000000000 N
   0.2029900000000000    0.4698800000000000    0.5153500000000000 N
   0.0201500000000000    0.2069500000000000    0.1501500000000000 N
   0.0338400000000000    0.2850300000000000    0.2183000000000000 N
   0.0751300000000000    0.1414300000000000    0.1547100000000000 N
