Zn24 P46 H138 C138 O184
1.0
  37.0511699661985006    0.0000000000000000   -6.0879477770321495
  -1.8123302258589966   10.3802471012707311   -0.1909195354028790
   0.0000000000000000    0.0000000000000000   31.7085000000000008
Zn P H C O
24 46 138 138 184
direct
   0.0624650000000000    0.0203400000000000    0.3263266666666667 Zn
   0.1875300000000000    0.9796600000000000    0.0070100000000000 Zn
   0.3124650000000000    0.0203400000000000    0.3263266666666667 Zn
   0.4375300000000000    0.9796600000000000    0.0070100000000000 Zn
   0.5624650000000000    0.0203400000000000    0.3263266666666667 Zn
   0.6875300000000000    0.9796600000000000    0.0070100000000000 Zn
   0.8124650000000000    0.0203400000000000    0.3263266666666667 Zn
   0.9375300000000000    0.9796600000000000    0.0070100000000000 Zn
   0.0624650000000000    0.0203400000000000    0.6596599999999999 Zn
   0.1875300000000000    0.9796600000000000    0.3403433333333333 Zn
   0.3124650000000000    0.0203400000000000    0.6596599999999999 Zn
   0.4375300000000000    0.9796600000000000    0.3403433333333333 Zn
   0.5624650000000000    0.0203400000000000    0.6596599999999999 Zn
   0.6875300000000000    0.9796600000000000    0.3403433333333333 Zn
   0.8124650000000000    0.0203400000000000    0.6596599999999999 Zn
   0.9375300000000000    0.9796600000000000    0.3403433333333333 Zn
   0.0624650000000000    0.0203400000000000    0.9929933333333333 Zn
   0.1875300000000000    0.9796600000000000    0.6736766666666666 Zn
   0.3124650000000000    0.0203400000000000    0.9929933333333333 Zn
   0.4375300000000000    0.9796600000000000    0.6736766666666666 Zn
   0.5624650000000000    0.0203400000000000    0.9929933333333333 Zn
   0.6875300000000000    0.9796600000000000    0.6736766666666666 Zn
   0.8124650000000000    0.0203400000000000    0.9929933333333333 Zn
   0.9375300000000000    0.9796600000000000    0.6736766666666666 Zn
   0.2473175000000000    0.7986000000000000    0.0140900000000000 P
   0.1271500000000000    0.9594200000000001    0.0672166666666667 P
   0.0026825000000000    0.2014000000000000    0.3192500000000000 P
   0.1228450000000000    0.0405800000000000    0.2661233333333333 P
   0.4973175000000000    0.7986000000000000    0.0140900000000000 P
   0.3771500000000000    0.9594200000000001    0.0672166666666667 P
   0.2526825000000000    0.2014000000000000    0.3192500000000000 P
   0.3728450000000000    0.0405800000000000    0.2661233333333333 P
   0.7473175000000000    0.7986000000000000    0.0140900000000000 P
   0.6271500000000000    0.9594200000000001    0.0672166666666667 P
   0.5026825000000000    0.2014000000000000    0.3192500000000000 P
   0.6228450000000000    0.0405800000000000    0.2661233333333333 P
   0.9973175000000000    0.7986000000000000    0.0140900000000000 P
   0.8771500000000000    0.9594200000000001    0.0672166666666667 P
   0.7526825000000000    0.2014000000000000    0.3192500000000000 P
   0.8728450000000000    0.0405800000000000    0.2661233333333333 P
   0.2473175000000000    0.7986000000000000    0.3474233333333333 P
   0.1271500000000000    0.9594200000000001    0.4005500000000000 P
   0.0026825000000000    0.2014000000000000    0.6525833333333333 P
   0.1228450000000000    0.0405800000000000    0.5994566666666666 P
   0.4973175000000000    0.7986000000000000    0.3474233333333333 P
   0.3771500000000000    0.9594200000000001    0.4005500000000000 P
   0.3728450000000000    0.0405800000000000    0.5994566666666666 P
   0.7473175000000000    0.7986000000000000    0.3474233333333333 P
   0.6271500000000000    0.9594200000000001    0.4005500000000000 P
   0.5026825000000000    0.2014000000000000    0.6525833333333333 P
   0.6228450000000000    0.0405800000000000    0.5994566666666666 P
   0.9973175000000000    0.7986000000000000    0.3474233333333333 P
   0.8771500000000000    0.9594200000000001    0.4005500000000000 P
   0.7526825000000000    0.2014000000000000    0.6525833333333333 P
   0.8728450000000000    0.0405800000000000    0.5994566666666666 P
   0.1271500000000000    0.9594200000000001    0.7338833333333333 P
   0.0026825000000000    0.2014000000000000    0.9859166666666666 P
   0.1228450000000000    0.0405800000000000    0.9327900000000000 P
   0.4973175000000000    0.7986000000000000    0.6807566666666667 P
   0.3771500000000000    0.9594200000000001    0.7338833333333333 P
   0.2526825000000000    0.2014000000000000    0.9859166666666666 P
   0.3728450000000000    0.0405800000000000    0.9327900000000000 P
   0.7473175000000000    0.7986000000000000    0.6807566666666667 P
   0.6271500000000000    0.9594200000000001    0.7338833333333333 P
   0.5026825000000000    0.2014000000000000    0.9859166666666666 P
   0.6228450000000000    0.0405800000000000    0.9327900000000000 P
   0.9973175000000000    0.7986000000000000    0.6807566666666667 P
   0.8771500000000000    0.9594200000000001    0.7338833333333333 P
   0.7526825000000000    0.2014000000000000    0.9859166666666666 P
   0.8728450000000000    0.0405800000000000    0.9327900000000000 P
   0.0004800000000000    0.8045400000000000    0.0837500000000000 H
   0.1831625000000000    0.6639200000000000    0.3192866666666667 H
   0.0560125000000000    0.6584300000000000    0.0273100000000000 H
   0.1250525000000000    0.7501300000000000    0.0647166666666667 H
   0.1915800000000000    0.0440100000000000    0.1114633333333333 H
   0.0687075000000000    0.9203000000000000    0.1143500000000000 H
   0.2495200000000000    0.1954600000000000    0.2495866666666667 H
   0.0668375000000000    0.3360800000000000    0.0140533333333333 H
   0.1939875000000000    0.3415700000000000    0.3060266666666667 H
   0.1249450000000000    0.2498700000000000    0.2686233333333333 H
   0.0584175000000000    0.9560000000000000    0.2218766666666667 H
   0.1812900000000000    0.0797100000000000    0.2189866666666667 H
   0.2504800000000000    0.8045400000000000    0.0837500000000000 H
   0.4331625000000000    0.6639200000000000    0.3192866666666667 H
   0.3060125000000000    0.6584300000000000    0.0273100000000000 H
   0.3750525000000000    0.7501300000000000    0.0647166666666667 H
   0.4415800000000000    0.0440100000000000    0.1114633333333333 H
   0.3187075000000000    0.9203000000000000    0.1143500000000000 H
   0.4995200000000000    0.1954600000000000    0.2495866666666667 H
   0.3168375000000000    0.3360800000000000    0.0140533333333333 H
   0.4439875000000000    0.3415700000000000    0.3060266666666667 H
   0.3749450000000000    0.2498700000000000    0.2686233333333333 H
   0.3084175000000000    0.9560000000000000    0.2218766666666667 H
   0.4312900000000000    0.0797100000000000    0.2189866666666667 H
   0.5004800000000000    0.8045400000000000    0.0837500000000000 H
   0.6831625000000000    0.6639200000000000    0.3192866666666667 H
   0.5560125000000000    0.6584300000000000    0.0273100000000000 H
   0.6250525000000000    0.7501300000000000    0.0647166666666667 H
   0.6915800000000000    0.0440100000000000    0.1114633333333333 H
   0.5687075000000000    0.9203000000000000    0.1143500000000000 H
   0.7495200000000000    0.1954600000000000    0.2495866666666667 H
   0.5668375000000000    0.3360800000000000    0.0140533333333333 H
   0.6939875000000000    0.3415700000000000    0.3060266666666667 H
   0.6249450000000000    0.2498700000000000    0.2686233333333333 H
   0.5584175000000000    0.9560000000000000    0.2218766666666667 H
   0.6812900000000000    0.0797100000000000    0.2189866666666667 H
   0.7504800000000000    0.8045400000000000    0.0837500000000000 H
   0.9331625000000000    0.6639200000000000    0.3192866666666667 H
   0.8060125000000000    0.6584300000000000    0.0273100000000000 H
   0.8750525000000000    0.7501300000000000    0.0647166666666667 H
   0.9415800000000000    0.0440100000000000    0.1114633333333333 H
   0.8187075000000000    0.9203000000000000    0.1143500000000000 H
   0.9995200000000000    0.1954600000000000    0.2495866666666667 H
   0.8168375000000000    0.3360800000000000    0.0140533333333333 H
   0.9439875000000000    0.3415700000000000    0.3060266666666667 H
   0.8749450000000000    0.2498700000000000    0.2686233333333333 H
   0.8084175000000000    0.9560000000000000    0.2218766666666667 H
   0.9312900000000000    0.0797100000000000    0.2189866666666667 H
   0.0004800000000000    0.8045400000000000    0.4170833333333333 H
   0.0560125000000000    0.6584300000000000    0.3606433333333333 H
   0.1250525000000000    0.7501300000000000    0.3980500000000000 H
   0.1915800000000000    0.0440100000000000    0.4447966666666666 H
   0.0687075000000000    0.9203000000000000    0.4476833333333333 H
   0.0668375000000000    0.3360800000000000    0.3473866666666666 H
   0.1249450000000000    0.2498700000000000    0.6019566666666667 H
   0.0584175000000000    0.9560000000000000    0.5552100000000000 H
   0.1812900000000000    0.0797100000000000    0.5523199999999999 H
   0.2504800000000000    0.8045400000000000    0.4170833333333333 H
   0.4331625000000000    0.6639200000000000    0.6526200000000000 H
   0.3060125000000000    0.6584300000000000    0.3606433333333333 H
   0.3750525000000000    0.7501300000000000    0.3980500000000000 H
   0.4415800000000000    0.0440100000000000    0.4447966666666666 H
   0.3187075000000000    0.9203000000000000    0.4476833333333333 H
   0.4995200000000000    0.1954600000000000    0.5829200000000000 H
   0.3168375000000000    0.3360800000000000    0.3473866666666666 H
   0.4439875000000000    0.3415700000000000    0.6393599999999999 H
   0.3749450000000000    0.2498700000000000    0.6019566666666667 H
   0.3084175000000000    0.9560000000000000    0.5552100000000000 H
   0.4312900000000000    0.0797100000000000    0.5523199999999999 H
   0.5004800000000000    0.8045400000000000    0.4170833333333333 H
   0.6831625000000000    0.6639200000000000    0.6526200000000000 H
   0.5560125000000000    0.6584300000000000    0.3606433333333333 H
   0.6250525000000000    0.7501300000000000    0.3980500000000000 H
   0.6915800000000000    0.0440100000000000    0.4447966666666666 H
   0.5687075000000000    0.9203000000000000    0.4476833333333333 H
   0.7495200000000000    0.1954600000000000    0.5829200000000000 H
   0.5668375000000000    0.3360800000000000    0.3473866666666666 H
   0.6939875000000000    0.3415700000000000    0.6393599999999999 H
   0.6249450000000000    0.2498700000000000    0.6019566666666667 H
   0.5584175000000000    0.9560000000000000    0.5552100000000000 H
   0.6812900000000000    0.0797100000000000    0.5523199999999999 H
   0.7504800000000000    0.8045400000000000    0.4170833333333333 H
   0.9331625000000000    0.6639200000000000    0.6526200000000000 H
   0.8060125000000000    0.6584300000000000    0.3606433333333333 H
   0.8750525000000000    0.7501300000000000    0.3980500000000000 H
   0.9415800000000000    0.0440100000000000    0.4447966666666666 H
   0.8187075000000000    0.9203000000000000    0.4476833333333333 H
   0.9995200000000000    0.1954600000000000    0.5829200000000000 H
   0.8168375000000000    0.3360800000000000    0.3473866666666666 H
   0.9439875000000000    0.3415700000000000    0.6393599999999999 H
   0.8749450000000000    0.2498700000000000    0.6019566666666667 H
   0.8084175000000000    0.9560000000000000    0.5552100000000000 H
   0.9312900000000000    0.0797100000000000    0.5523199999999999 H
   0.0004800000000000    0.8045400000000000    0.7504166666666666 H
   0.1831625000000000    0.6639200000000000    0.9859533333333332 H
   0.0560125000000000    0.6584300000000000    0.6939766666666667 H
   0.1250525000000000    0.7501300000000000    0.7313833333333333 H
   0.1915800000000000    0.0440100000000000    0.7781300000000000 H
   0.0687075000000000    0.9203000000000000    0.7810166666666667 H
   0.2495200000000000    0.1954600000000000    0.9162533333333333 H
   0.0668375000000000    0.3360800000000000    0.6807200000000000 H
   0.1939875000000000    0.3415700000000000    0.9726933333333333 H
   0.1249450000000000    0.2498700000000000    0.9352900000000000 H
   0.0584175000000000    0.9560000000000000    0.8885433333333332 H
   0.1812900000000000    0.0797100000000000    0.8856533333333333 H
   0.4331625000000000    0.6639200000000000    0.9859533333333332 H
   0.3750525000000000    0.7501300000000000    0.7313833333333333 H
   0.4415800000000000    0.0440100000000000    0.7781300000000000 H
   0.3187075000000000    0.9203000000000000    0.7810166666666667 H
   0.4995200000000000    0.1954600000000000    0.9162533333333333 H
   0.4439875000000000    0.3415700000000000    0.9726933333333333 H
   0.3749450000000000    0.2498700000000000    0.9352900000000000 H
   0.3084175000000000    0.9560000000000000    0.8885433333333332 H
   0.4312900000000000    0.0797100000000000    0.8856533333333333 H
   0.5004800000000000    0.8045400000000000    0.7504166666666666 H
   0.6831625000000000    0.6639200000000000    0.9859533333333332 H
   0.5560125000000000    0.6584300000000000    0.6939766666666667 H
   0.6250525000000000    0.7501300000000000    0.7313833333333333 H
   0.6915800000000000    0.0440100000000000    0.7781300000000000 H
   0.5687075000000000    0.9203000000000000    0.7810166666666667 H
   0.7495200000000000    0.1954600000000000    0.9162533333333333 H
   0.5668375000000000    0.3360800000000000    0.6807200000000000 H
   0.6939875000000000    0.3415700000000000    0.9726933333333333 H
   0.6249450000000000    0.2498700000000000    0.9352900000000000 H
   0.5584175000000000    0.9560000000000000    0.8885433333333332 H
   0.6812900000000000    0.0797100000000000    0.8856533333333333 H
   0.7504800000000000    0.8045400000000000    0.7504166666666666 H
   0.9331625000000000    0.6639200000000000    0.9859533333333332 H
   0.8060125000000000    0.6584300000000000    0.6939766666666667 H
   0.8750525000000000    0.7501300000000000    0.7313833333333333 H
   0.9415800000000000    0.0440100000000000    0.7781300000000000 H
   0.8187075000000000    0.9203000000000000    0.7810166666666667 H
   0.9995200000000000    0.1954600000000000    0.9162533333333333 H
   0.8168375000000000    0.3360800000000000    0.6807200000000000 H
   0.9439875000000000    0.3415700000000000    0.9726933333333333 H
   0.8749450000000000    0.2498700000000000    0.9352900000000000 H
   0.8084175000000000    0.9560000000000000    0.8885433333333332 H
   0.9312900000000000    0.0797100000000000    0.8856533333333333 H
   0.2153325000000000    0.5400199999999999    0.3234500000000000 C
   0.2474125000000000    0.6302300000000000    0.0059133333333333 C
   0.0313375000000000    0.5890300000000001    0.0154133333333333 C
   0.1596275000000000    0.0296500000000000    0.1530400000000000 C
   0.1273725000000000    0.9833400000000000    0.1232633333333333 C
   0.0935000000000000    0.9549600000000000    0.1372833333333333 C
   0.0346675000000000    0.4599800000000000    0.0098900000000000 C
   0.0025875000000000    0.3697700000000000    0.3274233333333333 C
   0.2186625000000000    0.4109700000000000    0.3179266666666666 C
   0.0903700000000000    0.9703500000000000    0.1803000000000000 C
   0.1226250000000000    0.0166600000000000    0.2100733333333333 C
   0.1564975000000000    0.0450400000000000    0.1960566666666667 C
   0.4653325000000000    0.5400199999999999    0.3234500000000000 C
   0.4974125000000000    0.6302300000000000    0.0059133333333333 C
   0.2813375000000000    0.5890300000000001    0.0154133333333333 C
   0.4096275000000000    0.0296500000000000    0.1530400000000000 C
   0.3773725000000000    0.9833400000000000    0.1232633333333333 C
   0.3435000000000000    0.9549600000000000    0.1372833333333333 C
   0.2846675000000000    0.4599800000000000    0.0098900000000000 C
   0.2525875000000000    0.3697700000000000    0.3274233333333333 C
   0.4686625000000000    0.4109700000000000    0.3179266666666666 C
   0.3403700000000000    0.9703500000000000    0.1803000000000000 C
   0.3726250000000000    0.0166600000000000    0.2100733333333333 C
   0.4064975000000000    0.0450400000000000    0.1960566666666667 C
   0.7153325000000000    0.5400199999999999    0.3234500000000000 C
   0.7474125000000000    0.6302300000000000    0.0059133333333333 C
   0.5313375000000000    0.5890300000000001    0.0154133333333333 C
   0.6596275000000000    0.0296500000000000    0.1530400000000000 C
   0.6273725000000000    0.9833400000000000    0.1232633333333333 C
   0.5935000000000000    0.9549600000000000    0.1372833333333333 C
   0.5346675000000000    0.4599800000000000    0.0098900000000000 C
   0.5025875000000000    0.3697700000000000    0.3274233333333333 C
   0.7186625000000000    0.4109700000000000    0.3179266666666666 C
   0.5903700000000001    0.9703500000000000    0.1803000000000000 C
   0.6226250000000000    0.0166600000000000    0.2100733333333333 C
   0.6564975000000000    0.0450400000000000    0.1960566666666667 C
   0.9653325000000000    0.5400199999999999    0.3234500000000000 C
   0.9974125000000000    0.6302300000000000    0.0059133333333333 C
   0.7813375000000000    0.5890300000000001    0.0154133333333333 C
   0.9096275000000000    0.0296500000000000    0.1530400000000000 C
   0.8773725000000000    0.9833400000000000    0.1232633333333333 C
   0.8435000000000000    0.9549600000000000    0.1372833333333333 C
   0.7846675000000000    0.4599800000000000    0.0098900000000000 C
   0.7525875000000000    0.3697700000000000    0.3274233333333333 C
   0.9686625000000000    0.4109700000000000    0.3179266666666666 C
   0.8403700000000001    0.9703500000000000    0.1803000000000000 C
   0.8726250000000000    0.0166600000000000    0.2100733333333333 C
   0.9064975000000000    0.0450400000000000    0.1960566666666667 C
   0.2474125000000000    0.6302300000000000    0.3392466666666666 C
   0.0313375000000000    0.5890300000000001    0.3487466666666666 C
   0.1596275000000000    0.0296500000000000    0.4863733333333333 C
   0.1273725000000000    0.9833400000000000    0.4565966666666667 C
   0.0935000000000000    0.9549600000000000    0.4706166666666666 C
   0.0346675000000000    0.4599800000000000    0.3432233333333333 C
   0.0025875000000000    0.3697700000000000    0.6607566666666667 C
   0.0903700000000000    0.9703500000000000    0.5136333333333334 C
   0.1226250000000000    0.0166600000000000    0.5434066666666666 C
   0.1564975000000000    0.0450400000000000    0.5293900000000000 C
   0.4653325000000000    0.5400199999999999    0.6567833333333333 C
   0.4974125000000000    0.6302300000000000    0.3392466666666666 C
   0.2813375000000000    0.5890300000000001    0.3487466666666666 C
   0.4096275000000000    0.0296500000000000    0.4863733333333333 C
   0.3773725000000000    0.9833400000000000    0.4565966666666667 C
   0.3435000000000000    0.9549600000000000    0.4706166666666666 C
   0.2846675000000000    0.4599800000000000    0.3432233333333333 C
   0.4686625000000000    0.4109700000000000    0.6512600000000000 C
   0.3403700000000000    0.9703500000000000    0.5136333333333334 C
   0.3726250000000000    0.0166600000000000    0.5434066666666666 C
   0.4064975000000000    0.0450400000000000    0.5293900000000000 C
   0.7153325000000000    0.5400199999999999    0.6567833333333333 C
   0.7474125000000000    0.6302300000000000    0.3392466666666666 C
   0.5313375000000000    0.5890300000000001    0.3487466666666666 C
   0.6596275000000000    0.0296500000000000    0.4863733333333333 C
   0.6273725000000000    0.9833400000000000    0.4565966666666667 C
   0.5935000000000000    0.9549600000000000    0.4706166666666666 C
   0.5346675000000000    0.4599800000000000    0.3432233333333333 C
   0.5025875000000000    0.3697700000000000    0.6607566666666667 C
   0.7186625000000000    0.4109700000000000    0.6512600000000000 C
   0.5903700000000001    0.9703500000000000    0.5136333333333334 C
   0.6226250000000000    0.0166600000000000    0.5434066666666666 C
   0.6564975000000000    0.0450400000000000    0.5293900000000000 C
   0.9653325000000000    0.5400199999999999    0.6567833333333333 C
   0.9974125000000000    0.6302300000000000    0.3392466666666666 C
   0.7813375000000000    0.5890300000000001    0.3487466666666666 C
   0.9096275000000000    0.0296500000000000    0.4863733333333333 C
   0.8773725000000000    0.9833400000000000    0.4565966666666667 C
   0.8435000000000000    0.9549600000000000    0.4706166666666666 C
   0.7846675000000000    0.4599800000000000    0.3432233333333333 C
   0.7525875000000000    0.3697700000000000    0.6607566666666667 C
   0.9686625000000000    0.4109700000000000    0.6512600000000000 C
   0.8403700000000001    0.9703500000000000    0.5136333333333334 C
   0.8726250000000000    0.0166600000000000    0.5434066666666666 C
   0.9064975000000000    0.0450400000000000    0.5293900000000000 C
   0.2153325000000000    0.5400199999999999    0.9901166666666666 C
   0.0313375000000000    0.5890300000000001    0.6820800000000000 C
   0.1596275000000000    0.0296500000000000    0.8197066666666666 C
   0.1273725000000000    0.9833400000000000    0.7899300000000000 C
   0.0935000000000000    0.9549600000000000    0.8039499999999999 C
   0.0346675000000000    0.4599800000000000    0.6765566666666666 C
   0.0025875000000000    0.3697700000000000    0.9940899999999999 C
   0.2186625000000000    0.4109700000000000    0.9845933333333332 C
   0.0903700000000000    0.9703500000000000    0.8469666666666666 C
   0.1226250000000000    0.0166600000000000    0.8767400000000000 C
   0.1564975000000000    0.0450400000000000    0.8627233333333333 C
   0.4653325000000000    0.5400199999999999    0.9901166666666666 C
   0.4974125000000000    0.6302300000000000    0.6725800000000000 C
   0.4096275000000000    0.0296500000000000    0.8197066666666666 C
   0.3773725000000000    0.9833400000000000    0.7899300000000000 C
   0.3435000000000000    0.9549600000000000    0.8039499999999999 C
   0.2525875000000000    0.3697700000000000    0.9940899999999999 C
   0.4686625000000000    0.4109700000000000    0.9845933333333332 C
   0.3403700000000000    0.9703500000000000    0.8469666666666666 C
   0.3726250000000000    0.0166600000000000    0.8767400000000000 C
   0.4064975000000000    0.0450400000000000    0.8627233333333333 C
   0.7153325000000000    0.5400199999999999    0.9901166666666666 C
   0.7474125000000000    0.6302300000000000    0.6725800000000000 C
   0.5313375000000000    0.5890300000000001    0.6820800000000000 C
   0.6596275000000000    0.0296500000000000    0.8197066666666666 C
   0.6273725000000000    0.9833400000000000    0.7899300000000000 C
   0.5935000000000000    0.9549600000000000    0.8039499999999999 C
   0.5346675000000000    0.4599800000000000    0.6765566666666666 C
   0.5025875000000000    0.3697700000000000    0.9940899999999999 C
   0.7186625000000000    0.4109700000000000    0.9845933333333332 C
   0.5903700000000001    0.9703500000000000    0.8469666666666666 C
   0.6226250000000000    0.0166600000000000    0.8767400000000000 C
   0.6564975000000000    0.0450400000000000    0.8627233333333333 C
   0.9653325000000000    0.5400199999999999    0.9901166666666666 C
   0.9974125000000000    0.6302300000000000    0.6725800000000000 C
   0.7813375000000000    0.5890300000000001    0.6820800000000000 C
   0.9096275000000000    0.0296500000000000    0.8197066666666666 C
   0.8773725000000000    0.9833400000000000    0.7899300000000000 C
   0.8435000000000000    0.9549600000000000    0.8039499999999999 C
   0.7846675000000000    0.4599800000000000    0.6765566666666666 C
   0.7525875000000000    0.3697700000000000    0.9940899999999999 C
   0.9686625000000000    0.4109700000000000    0.9845933333333332 C
   0.8403700000000001    0.9703500000000000    0.8469666666666666 C
   0.8726250000000000    0.0166600000000000    0.8767400000000000 C
   0.9064975000000000    0.0450400000000000    0.8627233333333333 C
   0.0157825000000000    0.8397700000000000    0.0631633333333333 O
   0.2069175000000000    0.8153300000000000    0.0070466666666667 O
   0.0219400000000000    0.8770500000000000    0.3206033333333334 O
   0.1812425000000000    0.5703500000000000    0.3130333333333333 O
   0.1093025000000000    0.8109600000000000    0.0535166666666667 O
   0.1674575000000000    0.9838800000000000    0.0611200000000000 O
   0.1018100000000000    0.0381200000000000    0.0416766666666667 O
   0.1937000000000000    0.0609200000000000    0.1426866666666667 O
   0.2342175000000000    0.1602300000000000    0.2701766666666666 O
   0.0430800000000000    0.1846700000000000    0.3262900000000000 O
   0.2280550000000000    0.1229500000000000    0.0127333333333333 O
   0.0687575000000000    0.4296400000000000    0.0203066666666667 O
   0.1406950000000000    0.1890400000000000    0.2798233333333333 O
   0.0825400000000000    0.0161200000000000    0.2722166666666667 O
   0.1481875000000000    0.9618800000000000    0.2916600000000000 O
   0.0562975000000000    0.9390900000000000    0.1906533333333333 O
   0.2657825000000000    0.8397700000000000    0.0631633333333333 O
   0.4569175000000000    0.8153300000000000    0.0070466666666667 O
   0.2719400000000000    0.8770500000000000    0.3206033333333334 O
   0.4312425000000000    0.5703500000000000    0.3130333333333333 O
   0.3593025000000000    0.8109600000000000    0.0535166666666667 O
   0.4174575000000000    0.9838800000000000    0.0611200000000000 O
   0.3518100000000000    0.0381200000000000    0.0416766666666667 O
   0.4437000000000000    0.0609200000000000    0.1426866666666667 O
   0.4842175000000000    0.1602300000000000    0.2701766666666666 O
   0.2930800000000000    0.1846700000000000    0.3262900000000000 O
   0.4780550000000000    0.1229500000000000    0.0127333333333333 O
   0.3187575000000000    0.4296400000000000    0.0203066666666667 O
   0.3906950000000000    0.1890400000000000    0.2798233333333333 O
   0.3325400000000000    0.0161200000000000    0.2722166666666667 O
   0.3981875000000000    0.9618800000000000    0.2916600000000000 O
   0.3062975000000000    0.9390900000000000    0.1906533333333333 O
   0.5157825000000000    0.8397700000000000    0.0631633333333333 O
   0.7069175000000000    0.8153300000000000    0.0070466666666667 O
   0.5219400000000000    0.8770500000000000    0.3206033333333334 O
   0.6812425000000000    0.5703500000000000    0.3130333333333333 O
   0.6093025000000000    0.8109600000000000    0.0535166666666667 O
   0.6674575000000000    0.9838800000000000    0.0611200000000000 O
   0.6018100000000000    0.0381200000000000    0.0416766666666667 O
   0.6937000000000000    0.0609200000000000    0.1426866666666667 O
   0.7342175000000000    0.1602300000000000    0.2701766666666666 O
   0.5430800000000000    0.1846700000000000    0.3262900000000000 O
   0.7280550000000000    0.1229500000000000    0.0127333333333333 O
   0.5687575000000000    0.4296400000000000    0.0203066666666667 O
   0.6406950000000000    0.1890400000000000    0.2798233333333333 O
   0.5825400000000001    0.0161200000000000    0.2722166666666667 O
   0.6481875000000000    0.9618800000000000    0.2916600000000000 O
   0.5562975000000000    0.9390900000000000    0.1906533333333333 O
   0.7657825000000000    0.8397700000000000    0.0631633333333333 O
   0.9569175000000000    0.8153300000000000    0.0070466666666667 O
   0.7719400000000000    0.8770500000000000    0.3206033333333334 O
   0.9312425000000000    0.5703500000000000    0.3130333333333333 O
   0.8593025000000000    0.8109600000000000    0.0535166666666667 O
   0.9174575000000000    0.9838800000000000    0.0611200000000000 O
   0.8518100000000000    0.0381200000000000    0.0416766666666667 O
   0.9437000000000000    0.0609200000000000    0.1426866666666667 O
   0.9842175000000000    0.1602300000000000    0.2701766666666666 O
   0.7930800000000000    0.1846700000000000    0.3262900000000000 O
   0.9780550000000000    0.1229500000000000    0.0127333333333333 O
   0.8187575000000000    0.4296400000000000    0.0203066666666667 O
   0.8906950000000000    0.1890400000000000    0.2798233333333333 O
   0.8325400000000001    0.0161200000000000    0.2722166666666667 O
   0.8981875000000000    0.9618800000000000    0.2916600000000000 O
   0.8062975000000000    0.9390900000000000    0.1906533333333333 O
   0.0157825000000000    0.8397700000000000    0.3964966666666666 O
   0.2069175000000000    0.8153300000000000    0.3403800000000000 O
   0.0219400000000000    0.8770500000000000    0.6539366666666666 O
   0.1093025000000000    0.8109600000000000    0.3868500000000000 O
   0.1674575000000000    0.9838800000000000    0.3944533333333333 O
   0.1018100000000000    0.0381200000000000    0.3750100000000000 O
   0.1937000000000000    0.0609200000000000    0.4760200000000000 O
   0.0430800000000000    0.1846700000000000    0.6596233333333332 O
   0.2280550000000000    0.1229500000000000    0.3460666666666666 O
   0.0687575000000000    0.4296400000000000    0.3536400000000000 O
   0.1406950000000000    0.1890400000000000    0.6131566666666666 O
   0.0825400000000000    0.0161200000000000    0.6055500000000000 O
   0.1481875000000000    0.9618800000000000    0.6249933333333333 O
   0.0562975000000000    0.9390900000000000    0.5239866666666666 O
   0.2657825000000000    0.8397700000000000    0.3964966666666666 O
   0.4569175000000000    0.8153300000000000    0.3403800000000000 O
   0.4312425000000000    0.5703500000000000    0.6463666666666666 O
   0.3593025000000000    0.8109600000000000    0.3868500000000000 O
   0.4174575000000000    0.9838800000000000    0.3944533333333333 O
   0.3518100000000000    0.0381200000000000    0.3750100000000000 O
   0.4437000000000000    0.0609200000000000    0.4760200000000000 O
   0.4842175000000000    0.1602300000000000    0.6035100000000000 O
   0.4780550000000000    0.1229500000000000    0.3460666666666666 O
   0.3187575000000000    0.4296400000000000    0.3536400000000000 O
   0.3906950000000000    0.1890400000000000    0.6131566666666666 O
   0.3325400000000000    0.0161200000000000    0.6055500000000000 O