H6 O4
1.0
  10.4107011858003435    0.0000000000000000    0.1644530935413819
   0.0039548965490692   37.5639997689205956   -0.0013112309601663
   0.0000000000000000    0.0000000000000000   27.6690000000000005
H O
6 4
direct
   0.1554902347085901    0.6341112427931991    0.9766523012114051 H
   0.4973338808540725    0.6405460979966418    1.0257494893111501 H
   0.3286055786147863    0.6312115750496653    1.0039402939857531 H
   0.8444744798706492    0.3658955243233021    0.0233161316863966 H
   0.5025747819859995    0.3593994269164974   -0.0258125552263843 H
   0.6713265559021769    0.3687562338031682   -0.0040048744131488 H
   0.2274200000000000    0.6501049999999999    0.9812200000000000 O
   0.4284400000000000    0.6534100000000000    1.0102799999999998 O
   0.7725200000000000    0.3499050000000000    0.0187800000000000 O
   0.5714700000000000    0.3465650000000000   -0.0103000000000000 O
