Cu48 H326 C460 I48 N92 O4
1.0
  30.4248869260653869    0.0000000000000000    3.5127460107635806
   1.1626706288953959   20.2669459078188545    2.3427175626286183
   0.0000000000000000    0.0000000000000000   33.1259999999999977
Cu H C I N O
48 326 460 48 92 4
direct
   0.4183566666666667    0.9667650000000000    0.6668350000000001 Cu
   0.2573299999999999    0.7252550000000000    0.3939200000000000 Cu
   0.1501900000000000    0.8859900000000001    0.6439250000000000 Cu
   0.3111933333333333    0.1275100000000000    0.9168149999999999 Cu
   0.4183566666666667    0.9667650000000000    0.1668350000000000 Cu
   0.2573299999999999    0.7252550000000000    0.8939200000000000 Cu
   0.1501900000000000    0.8859900000000001    0.1439250000000000 Cu
   0.3111933333333333    0.1275100000000000    0.4168150000000000 Cu
   0.7516900000000000    0.9667650000000000    0.6668350000000001 Cu
   0.5906633333333333    0.7252550000000000    0.3939200000000000 Cu
   0.4835233333333333    0.8859900000000001    0.6439250000000000 Cu
   0.6445266666666667    0.1275100000000000    0.9168149999999999 Cu
   0.7516900000000000    0.9667650000000000    0.1668350000000000 Cu
   0.5906633333333333    0.7252550000000000    0.8939200000000000 Cu
   0.4835233333333333    0.8859900000000001    0.1439250000000000 Cu
   0.6445266666666667    0.1275100000000000    0.4168150000000000 Cu
   0.9778600000000000    0.1275100000000000    0.4168150000000000 Cu
   0.8168566666666666    0.8859900000000001    0.1439250000000000 Cu
   0.0850233333333333    0.9667650000000000    0.1668350000000000 Cu
   0.9239966666666666    0.7252550000000000    0.8939200000000000 Cu
   0.0850233333333333    0.9667650000000000    0.6668350000000001 Cu
   0.9239966666666666    0.7252550000000000    0.3939200000000000 Cu
   0.8168566666666666    0.8859900000000001    0.6439250000000000 Cu
   0.9778600000000000    0.1275100000000000    0.9168149999999999 Cu
   0.4183566666666667    0.4667650000000000    0.6668350000000001 Cu
   0.2573299999999999    0.2252550000000000    0.3939200000000000 Cu
   0.1501900000000000    0.3859900000000000    0.6439250000000000 Cu
   0.3111933333333333    0.6275100000000000    0.9168149999999999 Cu
   0.4183566666666667    0.4667650000000000    0.1668350000000000 Cu
   0.2573299999999999    0.2252550000000000    0.8939200000000000 Cu
   0.1501900000000000    0.3859900000000000    0.1439250000000000 Cu
   0.3111933333333333    0.6275100000000000    0.4168150000000000 Cu
   0.0850233333333333    0.4667650000000000    0.6668350000000001 Cu
   0.9239966666666666    0.2252550000000000    0.3939200000000000 Cu
   0.8168566666666666    0.3859900000000000    0.6439250000000000 Cu
   0.9778600000000000    0.6275100000000000    0.9168149999999999 Cu
   0.0850233333333333    0.4667650000000000    0.1668350000000000 Cu
   0.9239966666666666    0.2252550000000000    0.8939200000000000 Cu
   0.8168566666666666    0.3859900000000000    0.1439250000000000 Cu
   0.9778600000000000    0.6275100000000000    0.4168150000000000 Cu
   0.7516900000000000    0.4667650000000000    0.1668350000000000 Cu
   0.5906633333333333    0.2252550000000000    0.8939200000000000 Cu
   0.4835233333333333    0.3859900000000000    0.1439250000000000 Cu
   0.6445266666666667    0.6275100000000000    0.4168150000000000 Cu
   0.7516900000000000    0.4667650000000000    0.6668350000000001 Cu
   0.5906633333333333    0.2252550000000000    0.3939200000000000 Cu
   0.4835233333333333    0.3859900000000000    0.6439250000000000 Cu
   0.6445266666666667    0.6275100000000000    0.9168149999999999 Cu
   0.1095400000000000    0.8257800000000000    0.5056600000000000 H
   0.0962066666666667    0.7512900000000000    0.4536200000000000 H
   0.1606433333333333    0.7083450000000000    0.4084450000000000 H
   0.2480166666666667    0.8074749999999999    0.4620300000000000 H
   0.3516266666666666    0.1884800000000000    0.5550800000000000 H
   0.4014100000000000    0.2083100000000000    0.6070600000000000 H
   0.4299533333333333    0.1116600000000000    0.6522600000000001 H
   0.3635933333333333    0.9809399999999999    0.5987150000000000 H
   0.2401466666666666    0.9180750000000000    0.4757700000000000 H
   0.1452400000000000    0.8266899999999999    0.5678050000000000 H
   0.2153366666666666    0.9761649999999999    0.5982000000000000 H
   0.2511266666666667    0.0298750000000000    0.4625650000000000 H
   0.3507966666666666    0.1350750000000000    0.4929500000000000 H
   0.2899133333333333    0.9927800000000000    0.5849850000000000 H
   0.4590266666666666    0.0268250000000000    0.8051800000000000 H
   0.4723499999999999    0.1012700000000000    0.8572299999999999 H
   0.4079000000000000    0.1442850000000000    0.9023650000000000 H
   0.3205033333333333    0.0453100000000000    0.8486950000000000 H
   0.3284133333333333    0.9346500000000000    0.8349700000000000 H
   0.4233266666666666    0.0260350000000000    0.7429749999999999 H
   0.3532200000000000    0.8765900000000000    0.7125550000000000 H
   0.2170100000000000    0.6642150000000000    0.7556100000000000 H
   0.1672433333333333    0.6444000000000000    0.7036100000000001 H
   0.1386700000000000    0.7410650000000000    0.6584400000000000 H
   0.2049900000000000    0.8717900000000001    0.7120299999999999 H
   0.2786800000000000    0.8599399999999999    0.7257500000000000 H
   0.2177666666666667    0.7176400000000001    0.8177700000000000 H
   0.3174266666666666    0.8228400000000000    0.8481650000000001 H
   0.1095400000000000    0.8257800000000000    0.0056600000000000 H
   0.0962066666666667    0.7512900000000000    0.9536200000000000 H
   0.1606433333333333    0.7083450000000000    0.9084449999999999 H
   0.2480166666666667    0.8074749999999999    0.9620299999999999 H
   0.3516266666666666    0.1884800000000000    0.0550800000000000 H
   0.4014100000000000    0.2083100000000000    0.1070600000000000 H
   0.4299533333333333    0.1116600000000000    0.1522600000000000 H
   0.3635933333333333    0.9809399999999999    0.0987150000000000 H
   0.2401466666666666    0.9180750000000000    0.9757700000000000 H
   0.1452400000000000    0.8266899999999999    0.0678050000000000 H
   0.2153366666666666    0.9761649999999999    0.0982000000000000 H
   0.2511266666666667    0.0298750000000000    0.9625650000000000 H
   0.3507966666666666    0.1350750000000000    0.9929500000000000 H
   0.2899133333333333    0.9927800000000000    0.0849850000000000 H
   0.4590266666666666    0.0268250000000000    0.3051800000000000 H
   0.4723499999999999    0.1012700000000000    0.3572300000000000 H
   0.4079000000000000    0.1442850000000000    0.4023650000000000 H
   0.3205033333333333    0.0453100000000000    0.3486950000000000 H
   0.3284133333333333    0.9346500000000000    0.3349700000000000 H
   0.4233266666666666    0.0260350000000000    0.2429750000000000 H
   0.3532200000000000    0.8765900000000000    0.2125550000000000 H
   0.2170100000000000    0.6642150000000000    0.2556100000000000 H
   0.1672433333333333    0.6444000000000000    0.2036100000000000 H
   0.1386700000000000    0.7410650000000000    0.1584400000000000 H
   0.2049900000000000    0.8717900000000001    0.2120300000000000 H
   0.2786800000000000    0.8599399999999999    0.2257500000000000 H
   0.2177666666666667    0.7176400000000001    0.3177700000000000 H
   0.3174266666666666    0.8228400000000000    0.3481650000000000 H
   0.4428733333333333    0.8257800000000000    0.5056600000000000 H
   0.4295400000000000    0.7512900000000000    0.4536200000000000 H
   0.4939766666666666    0.7083450000000000    0.4084450000000000 H
   0.5813500000000000    0.8074749999999999    0.4620300000000000 H
   0.6849600000000000    0.1884800000000000    0.5550800000000000 H
   0.7347433333333333    0.2083100000000000    0.6070600000000000 H
   0.7632866666666667    0.1116600000000000    0.6522600000000001 H
   0.6969266666666666    0.9809399999999999    0.5987150000000000 H
   0.5734800000000000    0.9180750000000000    0.4757700000000000 H
   0.4785733333333333    0.8266899999999999    0.5678050000000000 H
   0.5486700000000000    0.9761649999999999    0.5982000000000000 H
   0.5844600000000000    0.0298750000000000    0.4625650000000000 H
   0.6841299999999999    0.1350750000000000    0.4929500000000000 H
   0.6232466666666666    0.9927800000000000    0.5849850000000000 H
   0.7923600000000000    0.0268250000000000    0.8051800000000000 H
   0.8056833333333333    0.1012700000000000    0.8572299999999999 H
   0.7412333333333333    0.1442850000000000    0.9023650000000000 H
   0.6538366666666666    0.0453100000000000    0.8486950000000000 H
   0.6617466666666667    0.9346500000000000    0.8349700000000000 H
   0.7566600000000000    0.0260350000000000    0.7429749999999999 H
   0.6865533333333333    0.8765900000000000    0.7125550000000000 H
   0.5503433333333333    0.6642150000000000    0.7556100000000000 H
   0.5005766666666667    0.6444000000000000    0.7036100000000001 H
   0.4720033333333333    0.7410650000000000    0.6584400000000000 H
   0.5383233333333333    0.8717900000000001    0.7120299999999999 H
   0.6120133333333333    0.8599399999999999    0.7257500000000000 H
   0.5510999999999999    0.7176400000000001    0.8177700000000000 H
   0.6507600000000000    0.8228400000000000    0.8481650000000001 H
   0.4428733333333333    0.8257800000000000    0.0056600000000000 H
   0.4295400000000000    0.7512900000000000    0.9536200000000000 H
   0.4939766666666666    0.7083450000000000    0.9084449999999999 H
   0.5813500000000000    0.8074749999999999    0.9620299999999999 H
   0.6849600000000000    0.1884800000000000    0.0550800000000000 H
   0.7347433333333333    0.2083100000000000    0.1070600000000000 H
   0.7632866666666667    0.1116600000000000    0.1522600000000000 H
   0.6969266666666666    0.9809399999999999    0.0987150000000000 H
   0.5734800000000000    0.9180750000000000    0.9757700000000000 H
   0.4785733333333333    0.8266899999999999    0.0678050000000000 H
   0.5486700000000000    0.9761649999999999    0.0982000000000000 H
   0.5844600000000000    0.0298750000000000    0.9625650000000000 H
   0.6841299999999999    0.1350750000000000    0.9929500000000000 H
   0.6232466666666666    0.9927800000000000    0.0849850000000000 H
   0.7923600000000000    0.0268250000000000    0.3051800000000000 H
   0.8056833333333333    0.1012700000000000    0.3572300000000000 H
   0.7412333333333333    0.1442850000000000    0.4023650000000000 H
   0.6538366666666666    0.0453100000000000    0.3486950000000000 H
   0.6617466666666667    0.9346500000000000    0.3349700000000000 H
   0.7566600000000000    0.0260350000000000    0.2429750000000000 H
   0.6865533333333333    0.8765900000000000    0.2125550000000000 H
   0.5503433333333333    0.6642150000000000    0.2556100000000000 H
   0.5005766666666667    0.6444000000000000    0.2036100000000000 H
   0.4720033333333333    0.7410650000000000    0.1584400000000000 H
   0.5383233333333333    0.8717900000000001    0.2120300000000000 H
   0.6120133333333333    0.8599399999999999    0.2257500000000000 H
   0.5510999999999999    0.7176400000000001    0.3177700000000000 H
   0.6507600000000000    0.8228400000000000    0.3481650000000000 H
   0.0234487030464962    0.0662940064876099    0.3575398248782231 H
   0.8575585319841986    0.8174968896456930    0.2032022498071801 H
   0.0624168145768839    0.9801003812080799    0.2454937618069618 H
   0.7762066666666666    0.8257800000000000    0.0056600000000000 H
   0.7628733333333333    0.7512900000000000    0.9536200000000000 H
   0.8273100000000000    0.7083450000000000    0.9084449999999999 H
   0.9146833333333333    0.8074749999999999    0.9620299999999999 H
   0.0182933333333333    0.1884800000000000    0.0550800000000000 H
   0.0680766666666667    0.2083100000000000    0.1070600000000000 H
   0.0966200000000000    0.1116600000000000    0.1522600000000000 H
   0.0302600000000000    0.9809399999999999    0.0987150000000000 H
   0.9068133333333332    0.9180750000000000    0.9757700000000000 H
   0.8119066666666666    0.8266899999999999    0.0678050000000000 H
   0.8820033333333333    0.9761649999999999    0.0982000000000000 H
   0.9177933333333332    0.0298750000000000    0.9625650000000000 H
   0.0174633333333333    0.1350750000000000    0.9929500000000000 H
   0.9565800000000000    0.9927800000000000    0.0849850000000000 H
   0.9150688230496874    0.7589921562371779    0.3152327313691842 H
   0.7762066666666666    0.8257800000000000    0.5056600000000000 H
   0.7628733333333333    0.7512900000000000    0.4536200000000000 H
   0.8273100000000000    0.7083450000000000    0.4084450000000000 H
   0.9146833333333333    0.8074749999999999    0.4620300000000000 H
   0.0182933333333333    0.1884800000000000    0.5550800000000000 H
   0.0680766666666667    0.2083100000000000    0.6070600000000000 H
   0.0966200000000000    0.1116600000000000    0.6522600000000001 H
   0.0302600000000000    0.9809399999999999    0.5987150000000000 H
   0.9068133333333332    0.9180750000000000    0.4757700000000000 H
   0.8119066666666666    0.8266899999999999    0.5678050000000000 H
   0.8820033333333333    0.9761649999999999    0.5982000000000000 H
   0.9177933333333332    0.0298750000000000    0.4625650000000000 H
   0.0174633333333333    0.1350750000000000    0.4929500000000000 H
   0.9565800000000000    0.9927800000000000    0.5849850000000000 H
   0.1256933333333333    0.0268250000000000    0.8051800000000000 H
   0.1390166666666666    0.1012700000000000    0.8572299999999999 H
   0.0745666666666667    0.1442850000000000    0.9023650000000000 H
   0.9871699999999999    0.0453100000000000    0.8486950000000000 H
   0.9950800000000000    0.9346500000000000    0.8349700000000000 H
   0.0899933333333333    0.0260350000000000    0.7429749999999999 H
   0.0198866666666667    0.8765900000000000    0.7125550000000000 H
   0.8836766666666667    0.6642150000000000    0.7556100000000000 H
   0.8339099999999999    0.6444000000000000    0.7036100000000001 H
   0.8053366666666666    0.7410650000000000    0.6584400000000000 H
   0.8716566666666666    0.8717900000000001    0.7120299999999999 H
   0.9453466666666666    0.8599399999999999    0.7257500000000000 H
   0.8844333333333333    0.7176400000000001    0.8177700000000000 H
   0.9840933333333333    0.8228400000000000    0.8481650000000001 H
   0.1095400000000000    0.3257800000000000    0.5056600000000000 H
   0.0962066666666667    0.2512900000000000    0.4536200000000000 H
   0.1606433333333333    0.2083450000000000    0.4084450000000000 H
   0.2480166666666667    0.3074750000000000    0.4620300000000000 H
   0.3516266666666666    0.6884800000000000    0.5550800000000000 H
   0.4014100000000000    0.7083100000000000    0.6070600000000000 H
   0.4299533333333333    0.6116600000000000    0.6522600000000001 H
   0.3635933333333333    0.4809400000000000    0.5987150000000000 H
   0.2401466666666666    0.4180750000000000    0.4757700000000000 H
   0.1452400000000000    0.3266900000000000    0.5678050000000000 H
   0.2153366666666666    0.4761650000000000    0.5982000000000000 H
   0.2511266666666667    0.5298750000000000    0.4625650000000000 H
   0.3507966666666666    0.6350750000000001    0.4929500000000000 H
   0.2899133333333333    0.4927800000000000    0.5849850000000000 H
   0.4590266666666666    0.5268250000000000    0.8051800000000000 H
   0.4723499999999999    0.6012700000000000    0.8572299999999999 H
   0.4079000000000000    0.6442850000000000    0.9023650000000000 H
   0.3205033333333333    0.5453100000000000    0.8486950000000000 H
   0.3284133333333333    0.4346500000000000    0.8349700000000000 H
   0.4233266666666666    0.5260350000000000    0.7429749999999999 H
   0.3532200000000000    0.3765900000000000    0.7125550000000000 H
   0.2170100000000000    0.1642150000000000    0.7556100000000000 H
   0.1672433333333333    0.1444000000000000    0.7036100000000001 H
   0.1386700000000000    0.2410650000000000    0.6584400000000000 H
   0.2049900000000000    0.3717900000000000    0.7120299999999999 H
   0.2786800000000000    0.3599400000000000    0.7257500000000000 H
   0.2177666666666667    0.2176400000000000    0.8177700000000000 H
   0.3174266666666666    0.3228400000000000    0.8481650000000001 H
   0.1095400000000000    0.3257800000000000    0.0056600000000000 H
   0.0962066666666667    0.2512900000000000    0.9536200000000000 H
   0.1606433333333333    0.2083450000000000    0.9084449999999999 H
   0.2480166666666667    0.3074750000000000    0.9620299999999999 H
   0.3516266666666666    0.6884800000000000    0.0550800000000000 H
   0.4014100000000000    0.7083100000000000    0.1070600000000000 H
   0.4299533333333333    0.6116600000000000    0.1522600000000000 H
   0.3635933333333333    0.4809400000000000    0.0987150000000000 H
   0.2401466666666666    0.4180750000000000    0.9757700000000000 H
   0.1452400000000000    0.3266900000000000    0.0678050000000000 H
   0.2153366666666666    0.4761650000000000    0.0982000000000000 H
   0.2511266666666667    0.5298750000000000    0.9625650000000000 H
   0.3507966666666666    0.6350750000000001    0.9929500000000000 H
   0.2899133333333333    0.4927800000000000    0.0849850000000000 H
   0.4590266666666666    0.5268250000000000    0.3051800000000000 H
   0.4723499999999999    0.6012700000000000    0.3572300000000000 H
   0.4079000000000000    0.6442850000000000    0.4023650000000000 H
   0.3205033333333333    0.5453100000000000    0.3486950000000000 H
   0.3284133333333333    0.4346500000000000    0.3349700000000000 H
   0.4233266666666666    0.5260350000000000    0.2429750000000000 H
   0.3532200000000000    0.3765900000000000    0.2125550000000000 H
   0.2170100000000000    0.1642150000000000    0.2556100000000000 H
   0.1672433333333333    0.1444000000000000    0.2036100000000000 H
   0.1386700000000000    0.2410650000000000    0.1584400000000000 H
   0.2049900000000000    0.3717900000000000    0.2120300000000000 H
   0.2786800000000000    0.3599400000000000    0.2257500000000000 H
   0.2177666666666667    0.2176400000000000    0.3177700000000000 H
   0.3174266666666666    0.3228400000000000    0.3481650000000000 H
   0.7762066666666666    0.3257800000000000    0.5056600000000000 H
   0.7628733333333333    0.2512900000000000    0.4536200000000000 H
   0.8273100000000000    0.2083450000000000    0.4084450000000000 H
   0.9146833333333333    0.3074750000000000    0.4620300000000000 H
   0.0182933333333333    0.6884800000000000    0.5550800000000000 H
   0.0680766666666667    0.7083100000000000    0.6070600000000000 H
   0.0966200000000000    0.6116600000000000    0.6522600000000001 H
   0.0302600000000000    0.4809400000000000    0.5987150000000000 H
   0.9068133333333332    0.4180750000000000    0.4757700000000000 H
   0.8119066666666666    0.3266900000000000    0.5678050000000000 H
   0.8820033333333333    0.4761650000000000    0.5982000000000000 H
   0.9177933333333332    0.5298750000000000    0.4625650000000000 H
   0.0174633333333333    0.6350750000000001    0.4929500000000000 H
   0.9565800000000000    0.4927800000000000    0.5849850000000000 H
   0.1256933333333333    0.5268250000000000    0.8051800000000000 H
   0.1390166666666666    0.6012700000000000    0.8572299999999999 H
   0.0745666666666667    0.6442850000000000    0.9023650000000000 H
   0.9871699999999999    0.5453100000000000    0.8486950000000000 H
   0.9950800000000000    0.4346500000000000    0.8349700000000000 H
   0.0899933333333333    0.5260350000000000    0.7429749999999999 H
   0.0198866666666667    0.3765900000000000    0.7125550000000000 H
   0.8836766666666667    0.1642150000000000    0.7556100000000000 H
   0.8339099999999999    0.1444000000000000    0.7036100000000001 H
   0.8053366666666666    0.2410650000000000    0.6584400000000000 H
   0.8716566666666666    0.3717900000000000    0.7120299999999999 H
   0.9453466666666666    0.3599400000000000    0.7257500000000000 H
   0.8844333333333333    0.2176400000000000    0.8177700000000000 H
   0.9840933333333333    0.3228400000000000    0.8481650000000001 H
   0.7762066666666666    0.3257800000000000    0.0056600000000000 H
   0.7628733333333333    0.2512900000000000    0.9536200000000000 H
   0.8273100000000000    0.2083450000000000    0.9084449999999999 H
   0.9146833333333333    0.3074750000000000    0.9620299999999999 H
   0.0182933333333333    0.6884800000000000    0.0550800000000000 H
   0.0680766666666667    0.7083100000000000    0.1070600000000000 H
   0.0966200000000000    0.6116600000000000    0.1522600000000000 H
   0.0302600000000000    0.4809400000000000    0.0987150000000000 H
   0.9068133333333332    0.4180750000000000    0.9757700000000000 H
   0.8119066666666666    0.3266900000000000    0.0678050000000000 H
   0.8820033333333333    0.4761650000000000    0.0982000000000000 H
   0.9177933333333332    0.5298750000000000    0.9625650000000000 H
   0.0174633333333333    0.6350750000000001    0.9929500000000000 H
   0.9565800000000000    0.4927800000000000    0.0849850000000000 H
   0.1256933333333333    0.5268250000000000    0.3051800000000000 H
   0.1390166666666666    0.6012700000000000    0.3572300000000000 H
   0.0745666666666667    0.6442850000000000    0.4023650000000000 H
   0.9871699999999999    0.5453100000000000    0.3486950000000000 H
   0.9950800000000000    0.4346500000000000    0.3349700000000000 H
   0.0899933333333333    0.5260350000000000    0.2429750000000000 H
   0.0198866666666667    0.3765900000000000    0.2125550000000000 H
   0.8836766666666667    0.1642150000000000    0.2556100000000000 H
   0.8339099999999999    0.1444000000000000    0.2036100000000000 H
   0.8053366666666666    0.2410650000000000    0.1584400000000000 H
   0.8716566666666666    0.3717900000000000    0.2120300000000000 H
   0.9453466666666666    0.3599400000000000    0.2257500000000000 H
   0.8844333333333333    0.2176400000000000    0.3177700000000000 H
   0.9840933333333333    0.3228400000000000    0.3481650000000000 H
   0.4428733333333333    0.3257800000000000    0.0056600000000000 H
   0.4295400000000000    0.2512900000000000    0.9536200000000000 H
   0.4939766666666666    0.2083450000000000    0.9084449999999999 H
   0.5813500000000000    0.3074750000000000    0.9620299999999999 H
   0.6849600000000000    0.6884800000000000    0.0550800000000000 H
   0.7347433333333333    0.7083100000000000    0.1070600000000000 H
   0.7632866666666667    0.6116600000000000    0.1522600000000000 H
   0.6969266666666666    0.4809400000000000    0.0987150000000000 H
   0.5734800000000000    0.4180750000000000    0.9757700000000000 H
   0.4785733333333333    0.3266900000000000    0.0678050000000000 H
   0.5486700000000000    0.4761650000000000    0.0982000000000000 H
   0.5844600000000000    0.5298750000000000    0.9625650000000000 H
   0.6841299999999999    0.6350750000000001    0.9929500000000000 H
   0.6232466666666666    0.4927800000000000    0.0849850000000000 H
   0.7923600000000000    0.5268250000000000    0.3051800000000000 H
   0.8056833333333333    0.6012700000000000    0.3572300000000000 H
   0.7412333333333333    0.6442850000000000    0.4023650000000000 H
   0.6538366666666666    0.5453100000000000    0.3486950000000000 H
   0.6617466666666667    0.4346500000000000    0.3349700000000000 H
   0.7566600000000000    0.5260350000000000    0.2429750000000000 H
   0.6865533333333333    0.3765900000000000    0.2125550000000000 H
   0.5503433333333333    0.1642150000000000    0.2556100000000000 H
   0.5005766666666667    0.1444000000000000    0.2036100000000000 H
   0.4720033333333333    0.2410650000000000    0.1584400000000000 H
   0.5383233333333333    0.3717900000000000    0.2120300000000000 H
   0.6120133333333333    0.3599400000000000    0.2257500000000000 H
   0.5510999999999999    0.2176400000000000    0.3177700000000000 H
   0.6507600000000000    0.3228400000000000    0.3481650000000000 H
   0.4428733333333333    0.3257800000000000    0.5056600000000000 H
   0.4295400000000000    0.2512900000000000    0.4536200000000000 H
   0.4939766666666666    0.2083450000000000    0.4084450000000000 H
   0.5813500000000000    0.3074750000000000    0.4620300000000000 H
   0.6849600000000000    0.6884800000000000    0.5550800000000000 H
   0.7347433333333333    0.7083100000000000    0.6070600000000000 H
   0.7632866666666667    0.6116600000000000    0.6522600000000001 H
   0.6969266666666666    0.4809400000000000    0.5987150000000000 H
   0.5734800000000000    0.4180750000000000    0.4757700000000000 H
   0.4785733333333333    0.3266900000000000    0.5678050000000000 H
   0.5486700000000000    0.4761650000000000    0.5982000000000000 H
   0.5844600000000000    0.5298750000000000    0.4625650000000000 H
   0.6841299999999999    0.6350750000000001    0.4929500000000000 H
   0.6232466666666666    0.4927800000000000    0.5849850000000000 H
   0.7923600000000000    0.5268250000000000    0.8051800000000000 H
   0.8056833333333333    0.6012700000000000    0.8572299999999999 H
   0.7412333333333333    0.6442850000000000    0.9023650000000000 H
   0.6538366666666666    0.5453100000000000    0.8486950000000000 H
   0.6617466666666667    0.4346500000000000    0.8349700000000000 H
   0.7566600000000000    0.5260350000000000    0.7429749999999999 H
   0.6865533333333333    0.3765900000000000    0.7125550000000000 H
   0.5503433333333333    0.1642150000000000    0.7556100000000000 H
   0.5005766666666667    0.1444000000000000    0.7036100000000001 H
   0.4720033333333333    0.2410650000000000    0.6584400000000000 H
   0.5383233333333333    0.3717900000000000    0.7120299999999999 H
   0.6120133333333333    0.3599400000000000    0.7257500000000000 H
   0.5510999999999999    0.2176400000000000    0.8177700000000000 H
   0.6507600000000000    0.3228400000000000    0.8481650000000001 H
   0.1368800000000000    0.8060400000000000    0.4856450000000000 C
   0.1294333333333333    0.7646400000000000    0.4568000000000000 C
   0.1648733333333333    0.7414050000000000    0.4311250000000000 C
   0.2136566666666667    0.7974049999999999    0.4608950000000000 C
   0.1800566666666667    0.8232200000000001    0.4879050000000000 C
   0.3647533333333333    0.1474700000000000    0.5750800000000000 C
   0.3924200000000000    0.1585450000000000    0.6039099999999999 C
   0.4078633333333333    0.1053900000000000    0.6295900000000000 C
   0.3703700000000000    0.0324000000000000    0.5998500000000000 C
   0.3531900000000000    0.0828000000000000    0.5728400000000000 C
   0.2230900000000000    0.9132450000000000    0.5066349999999999 C
   0.1702466666666667    0.8621700000000000    0.5574900000000000 C
   0.2102133333333333    0.9450600000000000    0.5746700000000000 C
   0.1909666666666666    0.8669400000000000    0.5174350000000000 C
   0.2331466666666666    0.9532550000000000    0.5355200000000000 C
   0.2718800000000000    0.0375800000000000    0.4860900000000000 C
   0.3271466666666666    0.0975650000000000    0.5000000000000000 C
   0.2931033333333333    0.0183250000000000    0.5541400000000000 C
   0.2664233333333333    0.0032250000000000    0.5252599999999999 C
   0.3239700000000000    0.0665100000000000    0.5433450000000000 C
   0.4316766666666667    0.0465950000000000    0.8251600000000000 C
   0.4391200000000000    0.0879700000000000    0.8540250000000000 C
   0.4036700000000000    0.1112450000000000    0.8796700000000000 C
   0.3548866666666666    0.0553250000000000    0.8498500000000000 C
   0.3884966666666667    0.0294700000000000    0.8228650000000000 C
   0.3454633333333333    0.9395000000000000    0.8041250000000000 C
   0.3983166666666667    0.9905600000000000    0.7532799999999999 C
   0.3583400000000000    0.9076949999999999    0.7360850000000000 C
   0.3775833333333333    0.9858100000000001    0.7933300000000000 C
   0.3354166666666666    0.8994800000000001    0.7752350000000000 C
   0.2038700000000000    0.7052350000000001    0.7356199999999999 C
   0.1762133333333333    0.6941650000000000    0.7067800000000000 C
   0.1607566666666667    0.7473300000000000    0.6811150000000000 C
   0.1982166666666667    0.8203150000000000    0.7108900000000000 C
   0.2154133333333333    0.7699050000000001    0.7378850000000000 C
   0.2754600000000000    0.8343900000000000    0.7565999999999999 C
   0.2414233333333333    0.7551399999999999    0.8074500000000000 C
   0.2966766666666666    0.8151400000000000    0.8246400000000000 C
   0.2445866666666666    0.7862150000000000    0.7674000000000001 C
   0.3021466666666667    0.8494999999999999    0.7854850000000000 C
   0.1368800000000000    0.8060400000000000    0.9856450000000000 C
   0.1294333333333333    0.7646400000000000    0.9568000000000000 C
   0.1648733333333333    0.7414050000000000    0.9311250000000000 C
   0.2136566666666667    0.7974049999999999    0.9608950000000001 C
   0.1800566666666667    0.8232200000000001    0.9879050000000000 C
   0.3647533333333333    0.1474700000000000    0.0750800000000000 C
   0.3924200000000000    0.1585450000000000    0.1039100000000000 C
   0.4078633333333333    0.1053900000000000    0.1295900000000000 C
   0.3703700000000000    0.0324000000000000    0.0998500000000000 C
   0.3531900000000000    0.0828000000000000    0.0728400000000000 C
   0.2230900000000000    0.9132450000000000    0.0066350000000000 C
   0.1702466666666667    0.8621700000000000    0.0574900000000000 C
   0.2102133333333333    0.9450600000000000    0.0746700000000000 C
   0.1909666666666666    0.8669400000000000    0.0174350000000000 C
   0.2331466666666666    0.9532550000000000    0.0355200000000000 C
   0.2718800000000000    0.0375800000000000    0.9860900000000000 C
   0.3271466666666666    0.0975650000000000    0.0000000000000000 C
   0.2931033333333333    0.0183250000000000    0.0541400000000000 C
   0.2664233333333333    0.0032250000000000    0.0252600000000000 C
   0.3239700000000000    0.0665100000000000    0.0433450000000000 C
   0.4316766666666667    0.0465950000000000    0.3251600000000000 C
   0.4391200000000000    0.0879700000000000    0.3540250000000000 C