In36 H290 C568 O288
1.0
  37.5389929960423103    0.0000000000000000   -0.0229312687505535
  -0.0332604155122014   25.5688465097022721  -14.7854076003350645
   0.0000000000000000    0.0000000000000000   29.5159999999999982
In H C O
36 290 568 288
direct
   0.2777633333333333    0.0002050000000000    0.7502100000000000 In
   0.0555500000000000    0.2497300000000000    0.9998549999999999 In
   0.2777633333333333    0.5002050000000000    0.2502100000000000 In
   0.0555500000000000    0.7497300000000000    0.4998550000000000 In
   0.6110966666666666    0.5002050000000000    0.2502100000000000 In
   0.3888833333333333    0.7497300000000000    0.4998550000000000 In
   0.6110966666666666    0.0002050000000000    0.7502100000000000 In
   0.3888833333333333    0.2497300000000000    0.9998549999999999 In
   0.9444299999999999    0.0002050000000000    0.7502100000000000 In
   0.7222166666666666    0.2497300000000000    0.9998549999999999 In
   0.9444299999999999    0.5002050000000000    0.2502100000000000 In
   0.7222166666666666    0.7497300000000000    0.4998550000000000 In
   0.8332133333333333    0.2501100000000000    0.7497400000000000 In
   0.1665466666666666    0.2501100000000000    0.7497400000000000 In
   0.8332133333333333    0.7501100000000001    0.2497400000000000 In
   0.4998800000000000    0.2501100000000000    0.7497400000000000 In
   0.1665466666666666    0.7501100000000001    0.2497400000000000 In
   0.4998800000000000    0.7501100000000001    0.2497400000000000 In
   0.6110966666666666    0.5002050000000000    0.7502100000000000 In
   0.3888833333333333    0.7497300000000000    0.9998549999999999 In
   0.6110966666666666    0.0002050000000000    0.2502100000000000 In
   0.3888833333333333    0.2497300000000000    0.4998550000000000 In
   0.2777633333333333    0.0002050000000000    0.2502100000000000 In
   0.0555500000000000    0.2497300000000000    0.4998550000000000 In
   0.2777633333333333    0.5002050000000000    0.7502100000000000 In
   0.0555500000000000    0.7497300000000000    0.9998549999999999 In
   0.9444299999999999    0.0002050000000000    0.2502100000000000 In
   0.7222166666666666    0.2497300000000000    0.4998550000000000 In
   0.9444299999999999    0.5002050000000000    0.7502100000000000 In
   0.7222166666666666    0.7497300000000000    0.9998549999999999 In
   0.1665466666666666    0.2501100000000000    0.2497400000000000 In
   0.8332133333333333    0.2501100000000000    0.2497400000000000 In
   0.4998800000000000    0.2501100000000000    0.2497400000000000 In
   0.1665466666666666    0.7501100000000001    0.7497400000000000 In
   0.8332133333333333    0.7501100000000001    0.7497400000000000 In
   0.4998800000000000    0.7501100000000001    0.7497400000000000 In
   0.1305797294066238    0.3617953552186724    0.3182832035355710 H
   0.1090712464315913    0.2556649554602431    0.1729830767021463 H
   0.1174449069823711    0.3116712271885951    0.2453745456779182 H
   0.4150566666666666    0.8887400000000000    0.8301450000000000 H
   0.3623133333333333    0.9413350000000000    0.8300449999999999 H
   0.3635700000000000    0.8582550000000000    0.6612850000000000 H
   0.4143766666666666    0.8038550000000000    0.6613200000000000 H
   0.4150566666666666    0.3887400000000000    0.3301450000000000 H
   0.3623133333333333    0.4413350000000000    0.3300450000000000 H
   0.3635700000000000    0.3582550000000000    0.1612850000000000 H
   0.4143766666666666    0.3038550000000000    0.1613200000000000 H
   0.0817233333333333    0.8887400000000000    0.8301450000000000 H
   0.0289800000000000    0.9413350000000000    0.8300449999999999 H
   0.0302366666666667    0.8582550000000000    0.6612850000000000 H
   0.0810433333333333    0.8038550000000000    0.6613200000000000 H
   0.7483900000000000    0.8887400000000000    0.8301450000000000 H
   0.6956466666666666    0.9413350000000000    0.8300449999999999 H
   0.6969033333333333    0.8582550000000000    0.6612850000000000 H
   0.7477100000000000    0.8038550000000000    0.6613200000000000 H
   0.7483900000000000    0.3887400000000000    0.3301450000000000 H
   0.6956466666666666    0.4413350000000000    0.3300450000000000 H
   0.6969033333333333    0.3582550000000000    0.1612850000000000 H
   0.7477100000000000    0.3038550000000000    0.1613200000000000 H
   0.3042400000000000    0.6700850000000000    0.5588750000000000 H
   0.2513100000000000    0.6700300000000000    0.6112150000000000 H
   0.2519400000000000    0.8387200000000000    0.6959700000000000 H
   0.3029533333333333    0.8387249999999999    0.6418500000000000 H
   0.3042400000000000    0.1700850000000000    0.0588750000000000 H
   0.2513100000000000    0.1700300000000000    0.1112150000000000 H
   0.2519400000000000    0.3387200000000000    0.1959700000000000 H
   0.3029533333333333    0.3387250000000000    0.1418500000000000 H
   0.2517733333333333    0.1614700000000000    0.8034300000000000 H
   0.3027500000000000    0.1611000000000000    0.8574900000000000 H
   0.3043600000000000    0.3297550000000000    0.9412750000000000 H
   0.2515100000000000    0.3301700000000000    0.8889000000000000 H
   0.2517733333333333    0.6614700000000000    0.3034300000000000 H
   0.3027500000000000    0.6611000000000000    0.3574900000000000 H
   0.3043600000000000    0.8297550000000000    0.4412750000000000 H
   0.2515100000000000    0.8301700000000001    0.3889000000000000 H
   0.0289166666666667    0.5587950000000000    0.1701800000000000 H
   0.0818300000000000    0.6110949999999999    0.1698550000000000 H
   0.0814866666666667    0.6964300000000000    0.3386700000000000 H
   0.0304766666666667    0.6423850000000000    0.3389450000000000 H
   0.0289166666666667    0.0587950000000000    0.6701800000000000 H
   0.0818300000000000    0.1110950000000000    0.6698550000000000 H
   0.0814866666666667    0.1964300000000000    0.8386700000000000 H
   0.0304766666666667    0.1423850000000000    0.8389450000000001 H
   0.1409766666666666    0.8049850000000001    0.6412949999999999 H
   0.1923233333333333    0.8588400000000000    0.6951150000000000 H
   0.1400000000000000    0.8899500000000000    0.5576900000000000 H
   0.1933000000000000    0.9420050000000000    0.6096500000000000 H
   0.1923200000000000    0.1410450000000000    0.8051400000000000 H
   0.1409666666666667    0.1946600000000000    0.8587000000000000 H
   0.1932966666666667    0.0578650000000000    0.8905400000000000 H
   0.1399600000000000    0.1096500000000000    0.9422950000000000 H
   0.1409766666666666    0.3049850000000000    0.1412950000000000 H
   0.1923233333333333    0.3588400000000000    0.1951150000000000 H
   0.1400000000000000    0.3899500000000000    0.0576900000000000 H
   0.1933000000000000    0.4420050000000000    0.1096500000000000 H
   0.1923200000000000    0.6410450000000000    0.3051400000000000 H
   0.1409666666666667    0.6946600000000001    0.3587000000000000 H
   0.1932966666666667    0.5578650000000001    0.3905400000000000 H
   0.1399600000000000    0.6096500000000000    0.4422950000000000 H
   0.6375733333333333    0.6700850000000000    0.5588750000000000 H
   0.5846433333333333    0.6700300000000000    0.6112150000000000 H
   0.5852733333333333    0.8387200000000000    0.6959700000000000 H
   0.6362866666666667    0.8387249999999999    0.6418500000000000 H
   0.6375733333333333    0.1700850000000000    0.0588750000000000 H
   0.5846433333333333    0.1700300000000000    0.1112150000000000 H
   0.5852733333333333    0.3387200000000000    0.1959700000000000 H
   0.6362866666666667    0.3387250000000000    0.1418500000000000 H
   0.5851066666666667    0.6614700000000000    0.3034300000000000 H
   0.6360833333333333    0.6611000000000000    0.3574900000000000 H
   0.6376933333333332    0.8297550000000000    0.4412750000000000 H
   0.5848433333333334    0.8301700000000001    0.3889000000000000 H
   0.5851066666666667    0.1614700000000000    0.8034300000000000 H
   0.6360833333333333    0.1611000000000000    0.8574900000000000 H
   0.6376933333333332    0.3297550000000000    0.9412750000000000 H
   0.5848433333333334    0.3301700000000000    0.8889000000000000 H
   0.3622500000000000    0.0587950000000000    0.6701800000000000 H
   0.4151633333333333    0.1110950000000000    0.6698550000000000 H
   0.4148200000000000    0.1964300000000000    0.8386700000000000 H
   0.3638100000000000    0.1423850000000000    0.8389450000000001 H
   0.3622500000000000    0.5587950000000000    0.1701800000000000 H
   0.4151633333333333    0.6110949999999999    0.1698550000000000 H
   0.4148200000000000    0.6964300000000000    0.3386700000000000 H
   0.3638100000000000    0.6423850000000000    0.3389450000000000 H
   0.4743100000000000    0.3049850000000000    0.1412950000000000 H
   0.5256566666666667    0.3588400000000000    0.1951150000000000 H
   0.4733333333333333    0.3899500000000000    0.0576900000000000 H
   0.5266333333333333    0.4420050000000000    0.1096500000000000 H
   0.5256533333333333    0.6410450000000000    0.3051400000000000 H
   0.4742999999999999    0.6946600000000001    0.3587000000000000 H
   0.5266299999999999    0.5578650000000001    0.3905400000000000 H
   0.4732933333333333    0.6096500000000000    0.4422950000000000 H
   0.4743100000000000    0.8049850000000001    0.6412949999999999 H
   0.5256566666666667    0.8588400000000000    0.6951150000000000 H
   0.4733333333333333    0.8899500000000000    0.5576900000000000 H
   0.5266333333333333    0.9420050000000000    0.6096500000000000 H
   0.5256533333333333    0.1410450000000000    0.8051400000000000 H
   0.4742999999999999    0.1946600000000000    0.8587000000000000 H
   0.5266299999999999    0.0578650000000000    0.8905400000000000 H
   0.4732933333333333    0.1096500000000000    0.9422950000000000 H
   0.9709066666666666    0.6700850000000000    0.5588750000000000 H
   0.9179766666666667    0.6700300000000000    0.6112150000000000 H
   0.9186066666666666    0.8387200000000000    0.6959700000000000 H
   0.9696199999999999    0.8387249999999999    0.6418500000000000 H
   0.9734487436341835    0.4287463767843165    0.2905994461171790 H
   0.9867426187284845    0.4031514423842379    0.2017461954630548 H
   0.9709066666666666    0.1700850000000000    0.0588750000000000 H
   0.9179766666666667    0.1700300000000000    0.1112150000000000 H
   0.9186066666666666    0.3387200000000000    0.1959700000000000 H
   0.9696199999999999    0.3387250000000000    0.1418500000000000 H
   0.9184399999999999    0.6614700000000000    0.3034300000000000 H
   0.9694166666666666    0.6611000000000000    0.3574900000000000 H
   0.9710266666666666    0.8297550000000000    0.4412750000000000 H
   0.9181766666666666    0.8301700000000001    0.3889000000000000 H
   0.9184399999999999    0.1614700000000000    0.8034300000000000 H
   0.9694166666666666    0.1611000000000000    0.8574900000000000 H
   0.9710266666666666    0.3297550000000000    0.9412750000000000 H
   0.9181766666666666    0.3301700000000000    0.8889000000000000 H
   0.6955833333333333    0.0587950000000000    0.6701800000000000 H
   0.7484966666666666    0.1110950000000000    0.6698550000000000 H
   0.7481533333333333    0.1964300000000000    0.8386700000000000 H
   0.6971433333333333    0.1423850000000000    0.8389450000000001 H
   0.6955833333333333    0.5587950000000000    0.1701800000000000 H
   0.7484966666666666    0.6110949999999999    0.1698550000000000 H
   0.7481533333333333    0.6964300000000000    0.3386700000000000 H
   0.6971433333333333    0.6423850000000000    0.3389450000000000 H
   0.8076433333333333    0.8049850000000001    0.6412949999999999 H
   0.8589899999999999    0.8588400000000000    0.6951150000000000 H
   0.8066666666666666    0.8899500000000000    0.5576900000000000 H
   0.8599666666666665    0.9420050000000000    0.6096500000000000 H
   0.8589866666666666    0.1410450000000000    0.8051400000000000 H
   0.8076333333333333    0.1946600000000000    0.8587000000000000 H
   0.8599633333333333    0.0578650000000000    0.8905400000000000 H
   0.8066266666666666    0.1096500000000000    0.9422950000000000 H
   0.8076433333333333    0.3049850000000000    0.1412950000000000 H
   0.8589899999999999    0.3588400000000000    0.1951150000000000 H
   0.8066666666666666    0.3899500000000000    0.0576900000000000 H
   0.8599666666666665    0.4420050000000000    0.1096500000000000 H
   0.8589866666666666    0.6410450000000000    0.3051400000000000 H
   0.8076333333333333    0.6946600000000001    0.3587000000000000 H
   0.8599633333333333    0.5578650000000001    0.3905400000000000 H
   0.8066266666666666    0.6096500000000000    0.4422950000000000 H
   0.0817233333333333    0.3887400000000000    0.8301450000000000 H
   0.0289800000000000    0.4413350000000000    0.8300449999999999 H
   0.0302366666666667    0.3582550000000000    0.6612850000000000 H
   0.0810433333333333    0.3038550000000000    0.6613200000000000 H
   0.4150566666666666    0.3887400000000000    0.8301450000000000 H
   0.3623133333333333    0.4413350000000000    0.8300449999999999 H
   0.3635700000000000    0.3582550000000000    0.6612850000000000 H
   0.4143766666666666    0.3038550000000000    0.6613200000000000 H
   0.0817233333333333    0.8887400000000000    0.3301450000000000 H
   0.0289800000000000    0.9413350000000000    0.3300450000000000 H
   0.0302366666666667    0.8582550000000000    0.1612850000000000 H
   0.0810433333333333    0.8038550000000000    0.1613200000000000 H
   0.4150566666666666    0.8887400000000000    0.3301450000000000 H
   0.3623133333333333    0.9413350000000000    0.3300450000000000 H
   0.3635700000000000    0.8582550000000000    0.1612850000000000 H
   0.4143766666666666    0.8038550000000000    0.1613200000000000 H
   0.7483900000000000    0.3887400000000000    0.8301450000000000 H
   0.6956466666666666    0.4413350000000000    0.8300449999999999 H
   0.6969033333333333    0.3582550000000000    0.6612850000000000 H
   0.7477100000000000    0.3038550000000000    0.6613200000000000 H
   0.7483900000000000    0.8887400000000000    0.3301450000000000 H
   0.6956466666666666    0.9413350000000000    0.3300450000000000 H
   0.6969033333333333    0.8582550000000000    0.1612850000000000 H
   0.7477100000000000    0.8038550000000000    0.1613200000000000 H
   0.6375733333333333    0.1700850000000000    0.5588750000000000 H
   0.5846433333333333    0.1700300000000000    0.6112150000000000 H
   0.5852733333333333    0.3387200000000000    0.6959700000000000 H
   0.6362866666666667    0.3387250000000000    0.6418500000000000 H
   0.6375733333333333    0.6700850000000000    0.0588750000000000 H
   0.5846433333333333    0.6700300000000000    0.1112150000000000 H
   0.5852733333333333    0.8387200000000000    0.1959700000000000 H
   0.6362866666666667    0.8387249999999999    0.1418500000000000 H
   0.5851066666666667    0.6614700000000000    0.8034300000000000 H
   0.6360833333333333    0.6611000000000000    0.8574900000000000 H
   0.6376933333333332    0.8297550000000000    0.9412750000000000 H
   0.5848433333333334    0.8301700000000001    0.8889000000000000 H
   0.5851066666666667    0.1614700000000000    0.3034300000000000 H
   0.6360833333333333    0.1611000000000000    0.3574900000000000 H
   0.6376933333333332    0.3297550000000000    0.4412750000000000 H
   0.5848433333333334    0.3301700000000000    0.3889000000000000 H
   0.3622500000000000    0.0587950000000000    0.1701800000000000 H
   0.4151633333333333    0.1110950000000000    0.1698550000000000 H
   0.4148200000000000    0.1964300000000000    0.3386700000000000 H
   0.3638100000000000    0.1423850000000000    0.3389450000000000 H
   0.3622500000000000    0.5587950000000000    0.6701800000000000 H
   0.4151633333333333    0.6110949999999999    0.6698550000000000 H
   0.4148200000000000    0.6964300000000000    0.8386700000000000 H
   0.3638100000000000    0.6423850000000000    0.8389450000000001 H
   0.4743100000000000    0.3049850000000000    0.6412949999999999 H
   0.5256566666666667    0.3588400000000000    0.6951150000000000 H
   0.4733333333333333    0.3899500000000000    0.5576900000000000 H
   0.5266333333333333    0.4420050000000000    0.6096500000000000 H
   0.5256533333333333    0.6410450000000000    0.8051400000000000 H
   0.4742999999999999    0.6946600000000001    0.8587000000000000 H
   0.5266299999999999    0.5578650000000001    0.8905400000000000 H
   0.4732933333333333    0.6096500000000000    0.9422950000000000 H
   0.4743100000000000    0.8049850000000001    0.1412950000000000 H
   0.5256566666666667    0.8588400000000000    0.1951150000000000 H
   0.4733333333333333    0.8899500000000000    0.0576900000000000 H
   0.5266333333333333    0.9420050000000000    0.1096500000000000 H
   0.5256533333333333    0.1410450000000000    0.3051400000000000 H
   0.4742999999999999    0.1946600000000000    0.3587000000000000 H
   0.5266299999999999    0.0578650000000000    0.3905400000000000 H
   0.4732933333333333    0.1096500000000000    0.4422950000000000 H
   0.9709066666666666    0.1700850000000000    0.5588750000000000 H
   0.9179766666666667    0.1700300000000000    0.6112150000000000 H
   0.9186066666666666    0.3387200000000000    0.6959700000000000 H
   0.9696199999999999    0.3387250000000000    0.6418500000000000 H
   0.3042400000000000    0.1700850000000000    0.5588750000000000 H
   0.2513100000000000    0.1700300000000000    0.6112150000000000 H
   0.2519400000000000    0.3387200000000000    0.6959700000000000 H
   0.3029533333333333    0.3387250000000000    0.6418500000000000 H
   0.9709066666666666    0.6700850000000000    0.0588750000000000 H
   0.9179766666666667    0.6700300000000000    0.1112150000000000 H
   0.9186066666666666    0.8387200000000000    0.1959700000000000 H
   0.9696199999999999    0.8387249999999999    0.1418500000000000 H
   0.3042400000000000    0.6700850000000000    0.0588750000000000 H
   0.2513100000000000    0.6700300000000000    0.1112150000000000 H
   0.2519400000000000    0.8387200000000000    0.1959700000000000 H
   0.3029533333333333    0.8387249999999999    0.1418500000000000 H
   0.9184399999999999    0.6614700000000000    0.8034300000000000 H
   0.9694166666666666    0.6611000000000000    0.8574900000000000 H
   0.9710266666666666    0.8297550000000000    0.9412750000000000 H
   0.9181766666666666    0.8301700000000001    0.8889000000000000 H
   0.2517733333333333    0.6614700000000000    0.8034300000000000 H
   0.3027500000000000    0.6611000000000000    0.8574900000000000 H
   0.3043600000000000    0.8297550000000000    0.9412750000000000 H
   0.2515100000000000    0.8301700000000001    0.8889000000000000 H
   0.2517733333333333    0.1614700000000000    0.3034300000000000 H
   0.3027500000000000    0.1611000000000000    0.3574900000000000 H
   0.3043600000000000    0.3297550000000000    0.4412750000000000 H
   0.2515100000000000    0.3301700000000000    0.3889000000000000 H
   0.6955833333333333    0.5587950000000000    0.6701800000000000 H
   0.7484966666666666    0.6110949999999999    0.6698550000000000 H
   0.7481533333333333    0.6964300000000000    0.8386700000000000 H
   0.6971433333333333    0.6423850000000000    0.8389450000000001 H
   0.6955833333333333    0.0587950000000000    0.1701800000000000 H
   0.7484966666666666    0.1110950000000000    0.1698550000000000 H
   0.7481533333333333    0.1964300000000000    0.3386700000000000 H
   0.6971433333333333    0.1423850000000000    0.3389450000000000 H
   0.0289166666666667    0.5587950000000000    0.6701800000000000 H
   0.0818300000000000    0.6110949999999999    0.6698550000000000 H
   0.0814866666666667    0.6964300000000000    0.8386700000000000 H
   0.0304766666666667    0.6423850000000000    0.8389450000000001 H
   0.1409766666666666    0.8049850000000001    0.1412950000000000 H
   0.1923233333333333    0.8588400000000000    0.1951150000000000 H
   0.1400000000000000    0.8899500000000000    0.0576900000000000 H
   0.1933000000000000    0.9420050000000000    0.1096500000000000 H
   0.1923200000000000    0.1410450000000000    0.3051400000000000 H
   0.1409666666666667    0.1946600000000000    0.3587000000000000 H
   0.1932966666666667    0.0578650000000000    0.3905400000000000 H
   0.1399600000000000    0.1096500000000000    0.4422950000000000 H
   0.1409766666666666    0.3049850000000000    0.6412949999999999 H
   0.1923233333333333    0.3588400000000000    0.6951150000000000 H
   0.1400000000000000    0.3899500000000000    0.5576900000000000 H
   0.1933000000000000    0.4420050000000000    0.6096500000000000 H
   0.1923200000000000    0.6410450000000000    0.8051400000000000 H
   0.1409666666666667    0.6946600000000001    0.8587000000000000 H
   0.1932966666666667    0.5578650000000001    0.8905400000000000 H
   0.1399600000000000    0.6096500000000000    0.9422950000000000 H
   0.9184399999999999    0.1614700000000000    0.3034300000000000 H
   0.9694166666666666    0.1611000000000000    0.3574900000000000 H
   0.9710266666666666    0.3297550000000000    0.4412750000000000 H
   0.9181766666666666    0.3301700000000000    0.3889000000000000 H
   0.8076433333333333    0.8049850000000001    0.1412950000000000 H
   0.8589899999999999    0.8588400000000000    0.1951150000000000 H
   0.8066666666666666    0.8899500000000000    0.0576900000000000 H
   0.8599666666666665    0.9420050000000000    0.1096500000000000 H
   0.8589866666666666    0.1410450000000000    0.3051400000000000 H
   0.8076333333333333    0.1946600000000000    0.3587000000000000 H
   0.8599633333333333    0.0578650000000000    0.3905400000000000 H
   0.8066266666666666    0.1096500000000000    0.4422950000000000 H
   0.0289166666666667    0.0587950000000000    0.1701800000000000 H
   0.0818300000000000    0.1110950000000000    0.1698550000000000 H
   0.0814866666666667    0.1964300000000000    0.3386700000000000 H
   0.0304766666666667    0.1423850000000000    0.3389450000000000 H
   0.9520085671970197    0.0885917040643449    0.2493742373845837 H
   0.8076433333333333    0.3049850000000000    0.6412949999999999 H
   0.8589899999999999    0.3588400000000000    0.6951150000000000 H
   0.8066666666666666    0.3899500000000000    0.5576900000000000 H
   0.8599666666666665    0.4420050000000000    0.6096500000000000 H
   0.8589866666666666    0.6410450000000000    0.8051400000000000 H
   0.8076333333333333    0.6946600000000001    0.8587000000000000 H
   0.8599633333333333    0.5578650000000001    0.8905400000000000 H
   0.8066266666666666    0.6096500000000000    0.9422950000000000 H
   0.3292600000000000    0.9341600000000000    0.7458950000000000 C
   0.4484166666666666    0.8123549999999999    0.7462600000000000 C
   0.4032733333333333    0.8823850000000000    0.7936799999999999 C
   0.3742033333333333    0.9113899999999999    0.7936250000000000 C
   0.3598300000000000    0.9023600000000001    0.7457850000000000 C
   0.3745900000000000    0.8641200000000000    0.6979850000000000 C
   0.4032333333333333    0.8344450000000000    0.6980300000000000 C
   0.4178233333333333    0.8438250000000000    0.7458850000000000 C
   0.3292600000000000    0.4341600000000000    0.2458950000000000 C
   0.4484166666666666    0.3123550000000000    0.2462600000000000 C
   0.4032733333333333    0.3823850000000000    0.2936800000000000 C
   0.3742033333333333    0.4113900000000000    0.2936250000000000 C
   0.3598300000000000    0.4023600000000000    0.2457850000000000 C
   0.3745900000000000    0.3641200000000000    0.1979850000000000 C
   0.4032333333333333    0.3344450000000000    0.1980300000000000 C
   0.4178233333333333    0.3438250000000000    0.2458850000000000 C
   0.9959266666666666    0.9341600000000000    0.7458950000000000 C
   0.1150833333333333    0.8123549999999999    0.7462600000000000 C
   0.0699400000000000    0.8823850000000000    0.7936799999999999 C
   0.0408700000000000    0.9113899999999999    0.7936250000000000 C
   0.0264966666666667    0.9023600000000001    0.7457850000000000 C
   0.0412566666666667    0.8641200000000000    0.6979850000000000 C
   0.0699000000000000    0.8344450000000000    0.6980300000000000 C
   0.0844900000000000    0.8438250000000000    0.7458850000000000 C
   0.6625933333333334    0.9341600000000000    0.7458950000000000 C
   0.7817499999999999    0.8123549999999999    0.7462600000000000 C
   0.7366066666666666    0.8823850000000000    0.7936799999999999 C
   0.7075366666666666    0.9113899999999999    0.7936250000000000 C
   0.6931633333333334    0.9023600000000001    0.7457850000000000 C
   0.7079233333333332    0.8641200000000000    0.6979850000000000 C
   0.7365666666666666    0.8344450000000000    0.6980300000000000 C
   0.7511566666666666    0.8438250000000000    0.7458850000000000 C
   0.6625933333333334    0.4341600000000000    0.2458950000000000 C
   0.7817499999999999    0.3123550000000000    0.2462600000000000 C
   0.7366066666666666    0.3823850000000000    0.2936800000000000 C
   0.7075366666666666    0.4113900000000000    0.2936250000000000 C
   0.6931633333333334    0.4023600000000000    0.2457850000000000 C
   0.7079233333333332    0.3641200000000000    0.1979850000000000 C
   0.7365666666666666    0.3344450000000000    0.1980300000000000 C
   0.7511566666666666    0.3438250000000000    0.2458850000000000 C
   0.3373266666666667    0.7541300000000000    0.5659900000000000 C
   0.2176833333333333    0.7538199999999999    0.6872000000000000 C
   0.2922933333333333    0.7064950000000000    0.5887000000000000 C
   0.2631066666666667    0.7064699999999999    0.6175800000000000 C
   0.3067033333333333    0.7542800000000001    0.5977650000000000 C
   0.2631066666666667    0.8020200000000000    0.6654350000000000 C
   0.2918833333333333    0.8020450000000000    0.6359150000000000 C
   0.2484466666666666    0.7542249999999999    0.6560000000000000 C
   0.3373266666666667    0.2541300000000000    0.0659900000000000 C
   0.2176833333333333    0.2538200000000000    0.1872000000000000 C
   0.2922933333333333    0.2064950000000000    0.0887000000000000 C
   0.2631066666666667    0.2064700000000000    0.1175800000000000 C
   0.3067033333333333    0.2542800000000000    0.0977650000000000 C
   0.2631066666666667    0.3020200000000000    0.1654350000000000 C
   0.2918833333333333    0.3020450000000000    0.1359150000000000 C
   0.2484466666666666    0.2542250000000000    0.1560000000000000 C
   0.3373166666666667    0.2455600000000000    0.9337000000000000 C
   0.2178100000000000    0.2465900000000000    0.8123850000000000 C
   0.2630133333333333    0.1980900000000000    0.8341050000000000 C
   0.2917666666666666    0.1978650000000000    0.8635999999999999 C
   0.2923566666666667    0.2934300000000000    0.9112500000000000 C
   0.2632133333333333    0.2936450000000000    0.8823700000000000 C
   0.3066666666666666    0.2455400000000000    0.9019750000000000 C
   0.2484900000000000    0.2459900000000000    0.8437100000000000 C
   0.3373166666666667    0.7455600000000000    0.4337000000000000 C
   0.2178100000000000    0.7465900000000000    0.3123850000000000 C
   0.2630133333333333    0.6980900000000000    0.3341050000000000 C
   0.2917666666666666    0.6978650000000000    0.3636000000000000 C
   0.2923566666666667    0.7934300000000001    0.4112500000000000 C
   0.2632133333333333    0.7936449999999999    0.3823700000000000 C
   0.3066666666666666    0.7455400000000000    0.4019750000000000 C
   0.2484900000000000    0.7459899999999999    0.3437100000000000 C
   0.9959466666666666    0.5662750000000000    0.2544100000000000 C
   0.1155133333333333    0.6874550000000000    0.2535150000000000 C
   0.0409266666666667    0.5887500000000000    0.2065500000000000 C
   0.0701000000000000    0.6175900000000000    0.2063750000000000 C
   0.0265966666666667    0.5979900000000000    0.2544450000000000 C
   0.0702600000000000    0.6657900000000000    0.3020050000000000 C
   0.0414866666666667    0.6363000000000000    0.3021800000000000 C
   0.0848100000000000    0.6561950000000000    0.2540950000000000 C
   0.9959466666666666    0.0662750000000000    0.7544100000000000 C
   0.1155133333333333    0.1874550000000000    0.7535149999999999 C
   0.0409266666666667    0.0887500000000000    0.7065500000000000 C
   0.0701000000000000    0.1175900000000000    0.7063750000000000 C
   0.0265966666666667    0.0979900000000000    0.7544450000000000 C
   0.0702600000000000    0.1657900000000000    0.8020050000000001 C
   0.0414866666666667    0.1363000000000000    0.8021800000000000 C
   0.0848100000000000    0.1561950000000000    0.7540950000000000 C
   0.2269100000000000    0.9346600000000000    0.6858299999999999 C
   0.1063900000000000    0.8140200000000000    0.5653300000000000 C
   0.1521866666666667    0.8355150000000000    0.6351650000000000 C
   0.1811266666666667    0.8648800000000000    0.6645050000000000 C
   0.1519933333333333    0.8835000000000000    0.5876000000000000 C
   0.1813133333333333    0.9121800000000000    0.6162500000000000 C
   0.1373500000000000    0.8450350000000000    0.5969000000000000 C
   0.1959533333333333    0.9030250000000000    0.6548450000000000 C
   0.1063533333333333    0.1854900000000000    0.9345700000000000 C
   0.2269200000000000    0.0653800000000000    0.8145200000000000 C
   0.1811200000000000    0.1349550000000000    0.8357000000000000 C
   0.1521666666666667    0.1641850000000000    0.8649000000000000 C
   0.1813066666666666    0.0876350000000000    0.8839300000000000 C
   0.1519633333333333    0.1161700000000000    0.9124500000000000 C
   0.1373166666666666    0.1545800000000000    0.9030899999999999 C
   0.1959533333333333    0.0968700000000000    0.8454050000000000 C
   0.2269100000000000    0.4346600000000000    0.1858300000000000 C
   0.1063900000000000    0.3140200000000000    0.0653300000000000 C
   0.1521866666666667    0.3355150000000000    0.1351650000000000 C
   0.1811266666666667    0.3648800000000000    0.1645050000000000 C
   0.1519933333333333    0.3835000000000000    0.0876000000000000 C
   0.1813133333333333    0.4121800000000000    0.1162500000000000 C