H9 O5
1.0
  31.4860000000000007    0.0000000000000000    0.0000000000000019
  -0.0043982297007268   31.4999996881479198   -0.0005497787143539
   0.0000000000000000    0.0000000000000000   20.0049999999999990
H O
9 5
direct
   0.7372607664440142    0.3622683408794660    0.9411449682113846 H
   0.8990212741730746    0.5423772467648150    0.9339764968449238 H
   0.8856304660463874    0.5110824348097355    0.9415438749862276 H
   0.8708316702250715    0.5574756763033993    0.9592622955722208 H
   0.8525531660807860    0.5616026599821536    0.9147447532927792 H
   0.7821130678734607    0.4940525960463455    0.5962555532471836 H
   0.7886252790829061    0.5035486297591210    0.6214211337389700 H
   0.7554945913890315    0.4626838673963410    0.5936729757981941 H
   0.7431857587854792    0.4607156358094303    0.6220313802640667 H
   0.7124350000000000    0.3495550000000000    0.9627200000000000 O
   0.8984150000000000    0.5358950000000000    0.9630300000000001 O
   0.8754000000000000    0.5710700000000000    0.9443700000000000 O
   0.7776650000000001    0.5000000000000000    0.5759900000000000 O
   0.7460400000000000    0.4714000000000000    0.5763200000000001 O
