C1 N1
1.0
  26.8879697113400198    0.0000000000000000    0.0403584199634969
   0.4505779066748071   27.5783186240283591   -0.0067395539329260
   0.0000000000000000    0.0000000000000000   27.6509999999999998
C N
1 1
direct
   0.0432950000000000    0.4688850000000000    0.0853600000000000 C
   0.0269050000000000    0.5069050000000000    0.0964000000000000 N
