Al96 P94 C188 O282 F96
1.0
  30.7379722424116579    0.0000000000000000   -0.0413088940872993
  -1.4597928126585422   21.6177155036036837   -0.0476481832124302
   0.0000000000000000    0.0000000000000000   24.5380000000000003
Al P C O F
96 94 188 282 96
direct
   0.0000166666666667    0.4997900000000000    0.2500250000000000 Al
   0.1664433333333333    0.9991000000000000    0.2500050000000000 Al
   0.1666700000000000    0.4998800000000000    0.2500000000000000 Al
   0.0000533333333333    0.0000300000000000    0.4999500000000000 Al
   0.0000066666666667    0.5000000000000000    0.0000000000000000 Al
   0.1667166666666667    0.0000400000000000    0.1500000000000000 Al
   0.1666666666666667    0.5000000000000000    0.4500000000000000 Al
   0.1274466666666667    0.0469100000000000    0.3747700000000000 Al
   0.1275900000000000    0.5470100000000000    0.3751050000000000 Al
   0.2940400000000000    0.0475500000000000    0.3749250000000000 Al
   0.2942566666666667    0.5470000000000000    0.3751000000000000 Al
   0.0390800000000000    0.4529400000000000    0.1248950000000000 Al
   0.0392500000000000    0.9524400000000000    0.1250650000000000 Al
   0.2057400000000000    0.4529600000000000    0.1249050000000000 Al
   0.2059933333333333    0.9524400000000000    0.1250300000000000 Al
   0.3331400000000000    0.9999200000000000    0.2499950000000000 Al
   0.3333500000000000    0.4997900000000000    0.2500250000000000 Al
   0.4997766666666666    0.9991000000000000    0.2500050000000000 Al
   0.5000033333333334    0.4998800000000000    0.2500000000000000 Al
   0.3333866666666667    0.0000300000000000    0.4999500000000000 Al
   0.3333400000000000    0.5000000000000000    0.0000000000000000 Al
   0.5000500000000000    0.0000400000000000    0.1500000000000000 Al
   0.5000000000000000    0.5000000000000000    0.4500000000000000 Al
   0.4607800000000000    0.0469100000000000    0.3747700000000000 Al
   0.4609233333333333    0.5470100000000000    0.3751050000000000 Al
   0.6273733333333333    0.0475500000000000    0.3749250000000000 Al
   0.6275900000000000    0.5470000000000000    0.3751000000000000 Al
   0.3724133333333333    0.4529400000000000    0.1248950000000000 Al
   0.3725833333333333    0.9524400000000000    0.1250650000000000 Al
   0.5390733333333333    0.4529600000000000    0.1249050000000000 Al
   0.5393266666666666    0.9524400000000000    0.1250300000000000 Al
   0.6664733333333333    0.9999200000000000    0.2499950000000000 Al
   0.6666833333333333    0.4997900000000000    0.2500250000000000 Al
   0.8331100000000000    0.9991000000000000    0.2500050000000000 Al
   0.8333366666666666    0.4998800000000000    0.2500000000000000 Al
   0.6667200000000000    0.0000300000000000    0.4999500000000000 Al
   0.6666733333333333    0.5000000000000000    0.0000000000000000 Al
   0.8333833333333333    0.0000400000000000    0.1500000000000000 Al
   0.8333333333333333    0.5000000000000000    0.4500000000000000 Al
   0.7941133333333332    0.0469100000000000    0.3747700000000000 Al
   0.7942566666666666    0.5470100000000000    0.3751050000000000 Al
   0.9607066666666666    0.0475500000000000    0.3749250000000000 Al
   0.9609233333333334    0.5470000000000000    0.3751000000000000 Al
   0.7057466666666666    0.4529400000000000    0.1248950000000000 Al
   0.7059166666666666    0.9524400000000000    0.1250650000000000 Al
   0.8724066666666666    0.4529600000000000    0.1249050000000000 Al
   0.8726600000000000    0.9524400000000000    0.1250300000000000 Al
   0.9998066666666666    0.9999200000000000    0.2499950000000000 Al
   0.0000166666666667    0.4997900000000000    0.7500249999999999 Al
   0.1664433333333333    0.9991000000000000    0.7500050000000000 Al
   0.1666700000000000    0.4998800000000000    0.7500000000000000 Al
   0.0000533333333333    0.0000300000000000    0.9999500000000000 Al
   0.0000066666666667    0.5000000000000000    0.5000000000000000 Al
   0.1667166666666667    0.0000400000000000    0.6500000000000000 Al
   0.1666666666666667    0.5000000000000000    0.9500000000000000 Al
   0.1274466666666667    0.0469100000000000    0.8747700000000000 Al
   0.1275900000000000    0.5470100000000000    0.8751050000000000 Al
   0.2940400000000000    0.0475500000000000    0.8749250000000000 Al
   0.2942566666666667    0.5470000000000000    0.8751000000000000 Al
   0.0390800000000000    0.4529400000000000    0.6248950000000000 Al
   0.0392500000000000    0.9524400000000000    0.6250650000000000 Al
   0.2057400000000000    0.4529600000000000    0.6249050000000000 Al
   0.2059933333333333    0.9524400000000000    0.6250300000000000 Al
   0.3331400000000000    0.9999200000000000    0.7499950000000000 Al
   0.3333500000000000    0.4997900000000000    0.7500249999999999 Al
   0.4997766666666666    0.9991000000000000    0.7500050000000000 Al
   0.5000033333333334    0.4998800000000000    0.7500000000000000 Al
   0.3333866666666667    0.0000300000000000    0.9999500000000000 Al
   0.3333400000000000    0.5000000000000000    0.5000000000000000 Al
   0.5000500000000000    0.0000400000000000    0.6500000000000000 Al
   0.5000000000000000    0.5000000000000000    0.9500000000000000 Al
   0.4607800000000000    0.0469100000000000    0.8747700000000000 Al
   0.4609233333333333    0.5470100000000000    0.8751050000000000 Al
   0.6273733333333333    0.0475500000000000    0.8749250000000000 Al
   0.6275900000000000    0.5470000000000000    0.8751000000000000 Al
   0.3724133333333333    0.4529400000000000    0.6248950000000000 Al
   0.3725833333333333    0.9524400000000000    0.6250650000000000 Al
   0.5390733333333333    0.4529600000000000    0.6249050000000000 Al
   0.5393266666666666    0.9524400000000000    0.6250300000000000 Al
   0.6664733333333333    0.9999200000000000    0.7499950000000000 Al
   0.6666833333333333    0.4997900000000000    0.7500249999999999 Al
   0.8331100000000000    0.9991000000000000    0.7500050000000000 Al
   0.8333366666666666    0.4998800000000000    0.7500000000000000 Al
   0.6667200000000000    0.0000300000000000    0.9999500000000000 Al
   0.6666733333333333    0.5000000000000000    0.5000000000000000 Al
   0.8333833333333333    0.0000400000000000    0.6500000000000000 Al
   0.8333333333333333    0.5000000000000000    0.9500000000000000 Al
   0.7941133333333332    0.0469100000000000    0.8747700000000000 Al
   0.7942566666666666    0.5470100000000000    0.8751050000000000 Al
   0.9607066666666666    0.0475500000000000    0.8749250000000000 Al
   0.9609233333333334    0.5470000000000000    0.8751000000000000 Al
   0.7057466666666666    0.4529400000000000    0.6248950000000000 Al
   0.7059166666666666    0.9524400000000000    0.6250650000000000 Al
   0.8724066666666666    0.4529600000000000    0.6249050000000000 Al
   0.8726600000000000    0.9524400000000000    0.6250300000000000 Al
   0.9998066666666666    0.9999200000000000    0.7499950000000000 Al
   0.0751666666666667    0.4156900000000000    0.2386200000000000 P
   0.0753733333333333    0.9161800000000000    0.2390700000000000 P
   0.2418000000000000    0.4157100000000000    0.2386300000000000 P
   0.2423433333333333    0.9161700000000000    0.2389200000000000 P
   0.0912233333333333    0.0839600000000000    0.4884350000000000 P
   0.0910666666666667    0.5832700000000000    0.4888950000000000 P
   0.2578733333333333    0.0840200000000000    0.4887000000000000 P
   0.2577300000000000    0.5832700000000000    0.4888850000000000 P
   0.0910333333333333    0.0832300000000000    0.2607350000000000 P
   0.0915100000000000    0.5839700000000000    0.2613550000000000 P
   0.2573933333333333    0.0832000000000000    0.2609300000000000 P
   0.2582100000000000    0.5839299999999999    0.2613300000000000 P
   0.0756066666666667    0.4167200000000000    0.0110900000000000 P
   0.0755400000000000    0.9160300000000000    0.0113300000000000 P
   0.2422733333333333    0.4167500000000000    0.0111100000000000 P
   0.2422033333333333    0.9160199999999999    0.0112550000000000 P
   0.4085000000000000    0.4156900000000000    0.2386200000000000 P
   0.4087066666666667    0.9161800000000000    0.2390700000000000 P
   0.5751333333333333    0.4157100000000000    0.2386300000000000 P
   0.5756766666666666    0.9161700000000000    0.2389200000000000 P
   0.4245566666666666    0.0839600000000000    0.4884350000000000 P
   0.4244000000000000    0.5832700000000000    0.4888950000000000 P
   0.5912066666666667    0.0840200000000000    0.4887000000000000 P
   0.5910633333333333    0.5832700000000000    0.4888850000000000 P
   0.4243666666666667    0.0832300000000000    0.2607350000000000 P
   0.4248433333333333    0.5839700000000000    0.2613550000000000 P
   0.5907266666666666    0.0832000000000000    0.2609300000000000 P
   0.5915433333333333    0.5839299999999999    0.2613300000000000 P
   0.4089400000000000    0.4167200000000000    0.0110900000000000 P
   0.4088733333333333    0.9160300000000000    0.0113300000000000 P
   0.5756066666666666    0.4167500000000000    0.0111100000000000 P
   0.5755366666666666    0.9160199999999999    0.0112550000000000 P
   0.7418333333333333    0.4156900000000000    0.2386200000000000 P
   0.7420399999999999    0.9161800000000000    0.2390700000000000 P
   0.9084666666666666    0.4157100000000000    0.2386300000000000 P
   0.9090099999999999    0.9161700000000000    0.2389200000000000 P
   0.7578900000000000    0.0839600000000000    0.4884350000000000 P
   0.7577333333333333    0.5832700000000000    0.4888950000000000 P
   0.9245399999999999    0.0840200000000000    0.4887000000000000 P
   0.9243966666666666    0.5832700000000000    0.4888850000000000 P
   0.7576999999999999    0.0832300000000000    0.2607350000000000 P
   0.7581766666666666    0.5839700000000000    0.2613550000000000 P
   0.9240599999999999    0.0832000000000000    0.2609300000000000 P
   0.9248766666666666    0.5839299999999999    0.2613300000000000 P
   0.7422733333333333    0.4167200000000000    0.0110900000000000 P
   0.7422066666666667    0.9160300000000000    0.0113300000000000 P
   0.9089400000000000    0.4167500000000000    0.0111100000000000 P
   0.9088700000000000    0.9160199999999999    0.0112550000000000 P
   0.0751666666666667    0.4156900000000000    0.7386200000000001 P
   0.0753733333333333    0.9161800000000000    0.7390700000000000 P
   0.2418000000000000    0.4157100000000000    0.7386300000000000 P
   0.2423433333333333    0.9161700000000000    0.7389200000000000 P
   0.0912233333333333    0.0839600000000000    0.9884350000000000 P
   0.0910666666666667    0.5832700000000000    0.9888950000000001 P
   0.2578733333333333    0.0840200000000000    0.9887000000000000 P
   0.2577300000000000    0.5832700000000000    0.9888850000000000 P
   0.0910333333333333    0.0832300000000000    0.7607349999999999 P
   0.0915100000000000    0.5839700000000000    0.7613550000000000 P
   0.2573933333333333    0.0832000000000000    0.7609300000000000 P
   0.2582100000000000    0.5839299999999999    0.7613300000000001 P
   0.0756066666666667    0.4167200000000000    0.5110900000000000 P
   0.0755400000000000    0.9160300000000000    0.5113300000000000 P
   0.2422733333333333    0.4167500000000000    0.5111100000000000 P
   0.2422033333333333    0.9160199999999999    0.5112550000000000 P
   0.4085000000000000    0.4156900000000000    0.7386200000000001 P
   0.4087066666666667    0.9161800000000000    0.7390700000000000 P
   0.5751333333333333    0.4157100000000000    0.7386300000000000 P
   0.5756766666666666    0.9161700000000000    0.7389200000000000 P
   0.4245566666666666    0.0839600000000000    0.9884350000000000 P
   0.4244000000000000    0.5832700000000000    0.9888950000000001 P
   0.5912066666666667    0.0840200000000000    0.9887000000000000 P
   0.5910633333333333    0.5832700000000000    0.9888850000000000 P
   0.4243666666666667    0.0832300000000000    0.7607349999999999 P
   0.4248433333333333    0.5839700000000000    0.7613550000000000 P
   0.5907266666666666    0.0832000000000000    0.7609300000000000 P
   0.5915433333333333    0.5839299999999999    0.7613300000000001 P
   0.4089400000000000    0.4167200000000000    0.5110900000000000 P
   0.4088733333333333    0.9160300000000000    0.5113300000000000 P
   0.5756066666666666    0.4167500000000000    0.5111100000000000 P
   0.5755366666666666    0.9160199999999999    0.5112550000000000 P
   0.7418333333333333    0.4156900000000000    0.7386200000000001 P
   0.9084666666666666    0.4157100000000000    0.7386300000000000 P
   0.9090099999999999    0.9161700000000000    0.7389200000000000 P
   0.7578900000000000    0.0839600000000000    0.9884350000000000 P
   0.7577333333333333    0.5832700000000000    0.9888950000000001 P
   0.9245399999999999    0.0840200000000000    0.9887000000000000 P
   0.9243966666666666    0.5832700000000000    0.9888850000000000 P
   0.7576999999999999    0.0832300000000000    0.7607349999999999 P
   0.9240599999999999    0.0832000000000000    0.7609300000000000 P
   0.9248766666666666    0.5839299999999999    0.7613300000000001 P
   0.7422733333333333    0.4167200000000000    0.5110900000000000 P
   0.7422066666666667    0.9160300000000000    0.5113300000000000 P
   0.9089400000000000    0.4167500000000000    0.5111100000000000 P
   0.9088700000000000    0.9160199999999999    0.5112550000000000 P
   0.0819666666666667    0.2804800000000000    0.2490000000000000 C
   0.0811033333333333    0.7807400000000000    0.2485100000000000 C
   0.2482600000000000    0.2804300000000000    0.2490150000000000 C
   0.2484733333333333    0.7807900000000000    0.2482050000000000 C
   0.0785366666666667    0.3364700000000000    0.2471000000000000 C
   0.0778400000000000    0.8367500000000000    0.2467750000000000 C
   0.2450300000000000    0.3364600000000000    0.2471350000000000 C
   0.2453533333333333    0.8368200000000000    0.2464150000000000 C
   0.0851766666666667    0.2194400000000000    0.4987550000000000 C
   0.0849166666666667    0.7188099999999999    0.4984400000000000 C
   0.2518466666666667    0.2194700000000000    0.4991000000000000 C
   0.2515700000000000    0.7188099999999999    0.4983500000000000 C
   0.0883266666666667    0.1633900000000000    0.4965200000000000 C
   0.0880766666666667    0.6627500000000000    0.4964400000000000 C
   0.2549900000000000    0.1634200000000000    0.4969500000000000 C
   0.2547366666666666    0.6627500000000000    0.4964150000000000 C
   0.0854933333333333    0.2187600000000000    0.2511550000000000 C
   0.0847033333333333    0.7190800000000001    0.2507000000000000 C
   0.2516100000000000    0.2186800000000000    0.2511600000000000 C
   0.2518533333333333    0.7190900000000000    0.2504950000000000 C
   0.0886633333333333    0.1627100000000000    0.2528500000000000 C
   0.0881800000000000    0.6631200000000000    0.2526750000000000 C
   0.2546433333333333    0.1626000000000000    0.2528800000000000 C
   0.2550533333333333    0.6630800000000000    0.2525800000000000 C
   0.0817866666666667    0.2811900000000000    0.0013550000000000 C
   0.0815500000000000    0.7805700000000000    0.0009250000000000 C
   0.2484600000000000    0.2812200000000000    0.0015800000000000 C
   0.2482033333333333    0.7805700000000000    0.0008350000000000 C
   0.0786033333333333    0.3372400000000000    0.0000000000000000 C
   0.0784266666666667    0.8366300000000000    0.0000000000000000 C
   0.2452700000000000    0.3372700000000000    0.0000000000000000 C
   0.2450766666666667    0.8366300000000000    0.0000000000000000 C
   0.4153000000000000    0.2804800000000000    0.2490000000000000 C
   0.4144366666666667    0.7807400000000000    0.2485100000000000 C
   0.5815933333333333    0.2804300000000000    0.2490150000000000 C
   0.5818066666666666    0.7807900000000000    0.2482050000000000 C
   0.4118700000000000    0.3364700000000000    0.2471000000000000 C
   0.4111733333333333    0.8367500000000000    0.2467750000000000 C
   0.5783633333333333    0.3364600000000000    0.2471350000000000 C
   0.5786866666666667    0.8368200000000000    0.2464150000000000 C
   0.4185099999999999    0.2194400000000000    0.4987550000000000 C
   0.4182500000000000    0.7188099999999999    0.4984400000000000 C
   0.5851800000000000    0.2194700000000000    0.4991000000000000 C
   0.5849033333333333    0.7188099999999999    0.4983500000000000 C
   0.4216600000000000    0.1633900000000000    0.4965200000000000 C
   0.4214100000000000    0.6627500000000000    0.4964400000000000 C
   0.5883233333333333    0.1634200000000000    0.4969500000000000 C
   0.5880699999999999    0.6627500000000000    0.4964150000000000 C
   0.4188266666666666    0.2187600000000000    0.2511550000000000 C
   0.4180366666666666    0.7190800000000001    0.2507000000000000 C
   0.5849433333333334    0.2186800000000000    0.2511600000000000 C
   0.5851866666666666    0.7190900000000000    0.2504950000000000 C
   0.4219966666666666    0.1627100000000000    0.2528500000000000 C
   0.4215133333333333    0.6631200000000000    0.2526750000000000 C
   0.5879766666666666    0.1626000000000000    0.2528800000000000 C
   0.5883866666666666    0.6630800000000000    0.2525800000000000 C
   0.4151200000000000    0.2811900000000000    0.0013550000000000 C
   0.4148833333333333    0.7805700000000000    0.0009250000000000 C
   0.5817933333333334    0.2812200000000000    0.0015800000000000 C
   0.5815366666666666    0.7805700000000000    0.0008350000000000 C
   0.4119366666666666    0.3372400000000000    0.0000000000000000 C
   0.4117600000000000    0.8366300000000000    0.0000000000000000 C
   0.5786033333333334    0.3372700000000000    0.0000000000000000 C
   0.5784100000000000    0.8366300000000000    0.0000000000000000 C
   0.7486333333333333    0.2804800000000000    0.2490000000000000 C
   0.7477699999999999    0.7807400000000000    0.2485100000000000 C
   0.9149266666666667    0.2804300000000000    0.2490150000000000 C
   0.9151400000000000    0.7807900000000000    0.2482050000000000 C
   0.7452033333333333    0.3364700000000000    0.2471000000000000 C
   0.7445066666666666    0.8367500000000000    0.2467750000000000 C
   0.9116966666666666    0.3364600000000000    0.2471350000000000 C
   0.9120199999999999    0.8368200000000000    0.2464150000000000 C
   0.7518433333333333    0.2194400000000000    0.4987550000000000 C
   0.7515833333333333    0.7188099999999999    0.4984400000000000 C
   0.9185133333333333    0.2194700000000000    0.4991000000000000 C
   0.9182366666666666    0.7188099999999999    0.4983500000000000 C
   0.7549933333333333    0.1633900000000000    0.4965200000000000 C
   0.7547433333333333    0.6627500000000000    0.4964400000000000 C
   0.9216566666666666    0.1634200000000000    0.4969500000000000 C
   0.9214033333333332    0.6627500000000000    0.4964150000000000 C
   0.7521599999999999    0.2187600000000000    0.2511550000000000 C
   0.7513700000000000    0.7190800000000001    0.2507000000000000 C
   0.9182766666666666    0.2186800000000000    0.2511600000000000 C
   0.9185200000000000    0.7190900000000000    0.2504950000000000 C
   0.7553299999999999    0.1627100000000000    0.2528500000000000 C
   0.7548466666666667    0.6631200000000000    0.2526750000000000 C
   0.9213100000000000    0.1626000000000000    0.2528800000000000 C
   0.9217199999999999    0.6630800000000000    0.2525800000000000 C
   0.7484533333333333    0.2811900000000000    0.0013550000000000 C
   0.7482166666666666    0.7805700000000000    0.0009250000000000 C
   0.9151266666666666    0.2812200000000000    0.0015800000000000 C
   0.9148700000000000    0.7805700000000000    0.0008350000000000 C
   0.7452700000000000    0.3372400000000000    0.0000000000000000 C
   0.7450933333333333    0.8366300000000000    0.0000000000000000 C
   0.9119366666666666    0.3372700000000000    0.0000000000000000 C
   0.9117433333333334    0.8366300000000000    0.0000000000000000 C
   0.0819666666666667    0.2804800000000000    0.7490000000000000 C
   0.0811033333333333    0.7807400000000000    0.7485100000000000 C
   0.2482600000000000    0.2804300000000000    0.7490150000000000 C
   0.2484733333333333    0.7807900000000000    0.7482050000000000 C
   0.0785366666666667    0.3364700000000000    0.7471000000000000 C
   0.0778400000000000    0.8367500000000000    0.7467750000000000 C
   0.2450300000000000    0.3364600000000000    0.7471350000000000 C
   0.2453533333333333    0.8368200000000000    0.7464150000000001 C
   0.0851766666666667    0.2194400000000000    0.9987550000000001 C
   0.0849166666666667    0.7188099999999999    0.9984400000000000 C
   0.2518466666666667    0.2194700000000000    0.9991000000000000 C
   0.2515700000000000    0.7188099999999999    0.9983500000000001 C
   0.0883266666666667    0.1633900000000000    0.9965200000000001 C
   0.0880766666666667    0.6627500000000000    0.9964400000000000 C
   0.2549900000000000    0.1634200000000000    0.9969500000000000 C
   0.2547366666666666    0.6627500000000000    0.9964150000000001 C
   0.0854933333333333    0.2187600000000000    0.7511550000000000 C
   0.0847033333333333    0.7190800000000001    0.7506999999999999 C
   0.2516100000000000    0.2186800000000000    0.7511600000000000 C
   0.2518533333333333    0.7190900000000000    0.7504950000000000 C
   0.0886633333333333    0.1627100000000000    0.7528500000000000 C
   0.0881800000000000    0.6631200000000000    0.7526750000000000 C
   0.2546433333333333    0.1626000000000000    0.7528800000000000 C
   0.2550533333333333    0.6630800000000000    0.7525800000000000 C
   0.0817866666666667    0.2811900000000000    0.5013550000000000 C
   0.0815500000000000    0.7805700000000000    0.5009250000000000 C
   0.2484600000000000    0.2812200000000000    0.5015800000000000 C
   0.2482033333333333    0.7805700000000000    0.5008350000000000 C
   0.0786033333333333    0.3372400000000000    0.5000000000000000 C
   0.0784266666666667    0.8366300000000000    0.5000000000000000 C
   0.2452700000000000    0.3372700000000000    0.5000000000000000 C
   0.2450766666666667    0.8366300000000000    0.5000000000000000 C
   0.4153000000000000    0.2804800000000000    0.7490000000000000 C
   0.4144366666666667    0.7807400000000000    0.7485100000000000 C
   0.5815933333333333    0.2804300000000000    0.7490150000000000 C
   0.5818066666666666    0.7807900000000000    0.7482050000000000 C
   0.4118700000000000    0.3364700000000000    0.7471000000000000 C
   0.4111733333333333    0.8367500000000000    0.7467750000000000 C
   0.5783633333333333    0.3364600000000000    0.7471350000000000 C
   0.5786866666666667    0.8368200000000000    0.7464150000000001 C
   0.4185099999999999    0.2194400000000000    0.9987550000000001 C
   0.4182500000000000    0.7188099999999999    0.9984400000000000 C
   0.5851800000000000    0.2194700000000000    0.9991000000000000 C
   0.5849033333333333    0.7188099999999999    0.9983500000000001 C
   0.4216600000000000    0.1633900000000000    0.9965200000000001 C
   0.4214100000000000    0.6627500000000000    0.9964400000000000 C
   0.5883233333333333    0.1634200000000000    0.9969500000000000 C
   0.5880699999999999    0.6627500000000000    0.9964150000000001 C
   0.4188266666666666    0.2187600000000000    0.7511550000000000 C
   0.4180366666666666    0.7190800000000001    0.7506999999999999 C
   0.5849433333333334    0.2186800000000000    0.7511600000000000 C
   0.5851866666666666    0.7190900000000000    0.7504950000000000 C
   0.4219966666666666    0.1627100000000000    0.7528500000000000 C
   0.4215133333333333    0.6631200000000000    0.7526750000000000 C
   0.5879766666666666    0.1626000000000000    0.7528800000000000 C
   0.5883866666666666    0.6630800000000000    0.7525800000000000 C
   0.4151200000000000    0.2811900000000000    0.5013550000000000 C
   0.4148833333333333    0.7805700000000000    0.5009250000000000 C
   0.5817933333333334    0.2812200000000000    0.5015800000000000 C
   0.5815366666666666    0.7805700000000000    0.5008350000000000 C
   0.4119366666666666    0.3372400000000000    0.5000000000000000 C
   0.4117600000000000    0.8366300000000000    0.5000000000000000 C
   0.5786033333333334    0.3372700000000000    0.5000000000000000 C
   0.5784100000000000    0.8366300000000000    0.5000000000000000 C
   0.7486333333333333    0.2804800000000000    0.7490000000000000 C
   0.9149266666666667    0.2804300000000000    0.7490150000000000 C
   0.9151400000000000    0.7807900000000000    0.7482050000000000 C
   0.7452033333333333    0.3364700000000000    0.7471000000000000 C
   0.9116966666666666    0.3364600000000000    0.7471350000000000 C
   0.9120199999999999    0.8368200000000000    0.7464150000000001 C
   0.7518433333333333    0.2194400000000000    0.9987550000000001 C
   0.7515833333333333    0.7188099999999999    0.9984400000000000 C
   0.9185133333333333    0.2194700000000000    0.9991000000000000 C
   0.9182366666666666    0.7188099999999999    0.9983500000000001 C
   0.7549933333333333    0.1633900000000000    0.9965200000000001 C
   0.7547433333333333    0.6627500000000000    0.9964400000000000 C
   0.9216566666666666    0.1634200000000000    0.9969500000000000 C
   0.9214033333333332    0.6627500000000000    0.9964150000000001 C
   0.7521599999999999    0.2187600000000000    0.7511550000000000 C
   0.9182766666666666    0.2186800000000000    0.7511600000000000 C
   0.9185200000000000    0.7190900000000000    0.7504950000000000 C
   0.7553299999999999    0.1627100000000000    0.7528500000000000 C
   0.9213100000000000    0.1626000000000000    0.7528800000000000 C
   0.9217199999999999    0.6630800000000000    0.7525800000000000 C
   0.7484533333333333    0.2811900000000000    0.5013550000000000 C
   0.7482166666666666    0.7805700000000000    0.5009250000000000 C
   0.9151266666666666    0.2812200000000000    0.5015800000000000 C
   0.9148700000000000    0.7805700000000000    0.5008350000000000 C
   0.7452700000000000    0.3372400000000000    0.5000000000000000 C
   0.7450933333333333    0.8366300000000000    0.5000000000000000 C
   0.9119366666666666    0.3372700000000000    0.5000000000000000 C
   0.9117433333333334    0.8366300000000000    0.5000000000000000 C
   0.0337133333333333    0.4336800000000000    0.2666950000000000 O
   0.0340866666666667    0.9346700000000000    0.2672750000000000 O
   0.2003766666666667    0.4338000000000000    0.2667100000000000 O
   0.2007266666666667    0.9336900000000000    0.2669000000000000 O
   0.0726800000000000    0.4239500000000000    0.1756950000000000 O
   0.0738200000000000    0.9256000000000000    0.1762150000000000 O
   0.2393300000000000    0.4239600000000000    0.1757050000000000 O
   0.2407400000000000    0.9257900000000000    0.1760850000000000 O
   0.1166500000000000    0.4477200000000000    0.2615800000000000 O
   0.1169466666666667    0.9467600000000000    0.2632100000000000 O
   0.2833200000000000    0.4476300000000000    0.2615900000000000 O
   0.2836500000000000    0.9473300000000000    0.2633400000000000 O
   0.1327133333333333    0.0660500000000000    0.0165750000000000 O
   0.1326933333333333    0.5657600000000000    0.0169900000000000 O
   0.2993933333333333    0.0660100000000000    0.0166850000000000 O
   0.2993566666666667    0.5657600000000000    0.0169800000000000 O
   0.0930666666666667    0.0745600000000000    0.4255550000000000 O
   0.0926300000000000    0.5732300000000000    0.4260900000000000 O
   0.2596533333333333    0.0748000000000000    0.4257900000000000 O
   0.2592933333333333    0.5732300000000000    0.4260800000000000 O
   0.0497233333333333    0.0527800000000000    0.0119000000000000 O
   0.0497733333333333    0.5521700000000000    0.0131300000000000 O
   0.2163866666666666    0.0527500000000000    0.0121150000000000 O
   0.2164366666666667    0.5521700000000000    0.0131200000000000 O
   0.1321000000000000    0.0643000000000000    0.2323000000000000 O
   0.1329433333333333    0.5659000000000000    0.2333000000000000 O
   0.2985866666666667    0.0648100000000000    0.2324200000000000 O
   0.2996200000000000    0.5657700000000000    0.2332900000000000 O
   0.0930966666666667    0.0741500000000000    0.3236100000000000 O
   0.0939766666666667    0.5759200000000000    0.3243000000000000 O
   0.2594033333333333    0.0743600000000000    0.3238300000000000 O
   0.2606566666666666    0.5759100000000000    0.3242800000000000 O
   0.0492133333333333    0.0527500000000000    0.2371000000000000 O
   0.0499933333333333    0.5520100000000000    0.2384400000000000 O
   0.2157900000000000    0.0520000000000000    0.2374300000000000 O
   0.2166566666666667    0.5520600000000000    0.2384300000000000 O
   0.0339766666666667    0.4342500000000000    0.4830050000000000 O
   0.0340500000000000    0.9340500000000000    0.4832850000000000 O
   0.2006433333333333    0.4342500000000000    0.4830150000000000 O
   0.2007100000000000    0.9340900000000000    0.4832450000000000 O
   0.0740366666666667    0.4267400000000000    0.0735000000000000 O
   0.0737033333333333    0.9252400000000000    0.0742300000000000 O
   0.2407066666666667    0.4267800000000000    0.0739150000000000 O
   0.2403700000000000    0.9251900000000000    0.0741500000000000 O
   0.1169000000000000    0.4478400000000000    0.4868750000000000 O
   0.1170433333333333    0.9472900000000000    0.4875000000000000 O
   0.2835633333333333    0.4478500000000000    0.4868750000000000 O
   0.2837100000000000    0.9472900000000000    0.4879050000000000 O
   0.3670466666666666    0.4336800000000000    0.2666950000000000 O
   0.3674200000000000    0.9346700000000000    0.2672750000000000 O
   0.5337100000000000    0.4338000000000000    0.2667100000000000 O
   0.5340600000000000    0.9336900000000000    0.2669000000000000 O
   0.4060133333333333    0.4239500000000000    0.1756950000000000 O
   0.4071533333333333    0.9256000000000000    0.1762150000000000 O
   0.5726633333333333    0.4239600000000000    0.1757050000000000 O
   0.5740733333333333    0.9257900000000000    0.1760850000000000 O
   0.4499833333333333    0.4477200000000000    0.2615800000000000 O