H8 O5
1.0
  20.7869117023408059    0.0000000000000000   -0.0605877800121296
  -0.0932456906795972   35.7677919667902273   -0.0786578768238429
   0.0000000000000000    0.0000000000000000   21.0090000000000003
H O
8 5
direct
   0.5512760719960987    0.4660150837566418    0.1106649166926826 H
   0.6752377486820791    0.5174615488249646    0.0117150876603578 H
   0.6079258291265929    0.4978569678452698    0.0612291319395311 H
   0.5181030351002452    0.5379927962721638    0.1190616826040132 H
   0.5033087654580927    0.5842472414692627    0.1024550864328858 H
   0.5155769444635804    0.6553103919137950    1.0683973948155847 H
   0.6151071464191884    0.6021981544031080    0.9477659629669919 H
   0.5649231621581506    0.6225853768258955    1.0133600400515053 H
   0.5917500000000000    0.4628900000000000    0.0884400000000000 O
   0.6641600000000000    0.4935150000000000    0.0303500000000000 O
   0.4943900000000000    0.5612400000000000    0.1259900000000000 O
   0.5388950000000000    0.6581100000000000    1.0287600000000001 O
   0.5973200000000000    0.6264750000000000    0.9582900000000000 O
