Zn16 H50 C88 O52
1.0
  15.9863162753915162    0.0000000000000000    9.1506334175920490
   5.3064906713476434   15.0830013285320952    9.1656493320658665
   0.0000000000000000    0.0000000000000000   36.8519999999999968
Zn H C O
16 50 88 52
direct
   0.2934000000000000    0.2931700000000000    0.8098500000000000 Zn
   0.2933000000000000    0.1197200000000000    0.8965799999999999 Zn
   0.1196200000000000    0.2933300000000000    0.8967050000000000 Zn
   0.2936500000000000    0.2939000000000000    0.8969250000000000 Zn
   0.7065900000000001    0.7068200000000000    0.1901450000000000 Zn
   0.7066900000000000    0.8802700000000000    0.1034150000000000 Zn
   0.8803600000000000    0.7066600000000000    0.1032900000000000 Zn
   0.7063300000000000    0.7060900000000000    0.1030750000000000 Zn
   0.2934000000000000    0.2931700000000000    0.3098500000000000 Zn
   0.2933000000000000    0.1197200000000000    0.3965800000000000 Zn
   0.1196200000000000    0.2933300000000000    0.3967050000000000 Zn
   0.2936500000000000    0.2939000000000000    0.3969250000000000 Zn
   0.7065900000000001    0.7068200000000000    0.6901450000000000 Zn
   0.7066900000000000    0.8802700000000000    0.6034150000000000 Zn
   0.8803600000000000    0.7066600000000000    0.6032900000000000 Zn
   0.7063300000000000    0.7060900000000000    0.6030750000000000 Zn
   0.5497800000000000    0.0681300000000000    0.1678600000000000 H
   0.4531800000000000    0.1642700000000000    0.2159150000000000 H
   0.4502100000000000    0.9318600000000000    0.3321350000000000 H
   0.5468100000000000    0.8357200000000000    0.2840800000000000 H
   0.5497800000000000    0.0681300000000000    0.6678600000000000 H
   0.4531800000000000    0.1642700000000000    0.7159150000000000 H
   0.4502100000000000    0.9318600000000000    0.8321350000000001 H
   0.5468100000000000    0.8357200000000000    0.7840800000000000 H
   0.2191824321800479    0.3862097322788601    0.2536045880282961 H
   0.0071431070495389    0.3862412753001480    0.3595841240650742 H
   0.1053851599427789    0.3939687162015696    0.3027081965162089 H
   0.9318800000000000    0.4502400000000000    0.8321000000000001 H
   0.8356800000000000    0.5470000000000000    0.7840199999999999 H
   0.1643000000000000    0.4529900000000000    0.7159750000000000 H
   0.0681000000000000    0.5497500000000000    0.6678649999999999 H
   0.7808110816660939    0.6137652610713080    0.2463905098614846 H
   0.9928368185478713    0.6137498826888580    0.1404102029909005 H
   0.8945998329739051    0.6060144073986008    0.1972867999416510 H
   0.9318200000000000    0.1642600000000000    0.9758850000000000 H
   0.8356800000000000    0.0680200000000000    0.0241950000000000 H
   0.0681700000000000    0.8357300000000000    0.0241000000000000 H
   0.1643100000000000    0.9319700000000000    0.9758000000000000 H
   0.9318200000000000    0.1642600000000000    0.4758850000000000 H
   0.8356800000000000    0.0680200000000000    0.5241950000000000 H
   0.0681700000000000    0.8357300000000000    0.5241000000000000 H
   0.1643100000000000    0.9319700000000000    0.4758000000000000 H
   0.0678100000000000    0.5479200000000000    0.0246350000000000 H
   0.1642900000000000    0.4518400000000000    0.9765400000000000 H
   0.8357000000000000    0.5481500000000000    0.0234550000000000 H
   0.9321800000000000    0.4520700000000000    0.9753600000000000 H
   0.4525400000000000    0.4525400000000000    0.8321250000000000 H
   0.5486500000000000    0.5488100000000000    0.7837700000000001 H
   0.4513300000000000    0.4511800000000000    0.7162250000000000 H
   0.5474400000000000    0.5474500000000000    0.6678700000000000 H
   0.5479900000000000    0.0675300000000000    0.0247000000000000 H
   0.4518600000000000    0.1642300000000000    0.9765950000000000 H
   0.4520000000000000    0.9324600000000000    0.9752600000000000 H
   0.5481300000000000    0.8357599999999999    0.0234000000000000 H
   0.0678100000000000    0.5479200000000000    0.5246350000000000 H
   0.1642900000000000    0.4518400000000000    0.4765400000000000 H
   0.8357000000000000    0.5481500000000000    0.5234550000000000 H
   0.9321800000000000    0.4520700000000000    0.4753600000000000 H
   0.4525400000000000    0.4525400000000000    0.3321250000000000 H
   0.5486500000000000    0.5488100000000000    0.2837700000000000 H
   0.4513300000000000    0.4511800000000000    0.2162250000000000 H
   0.5474400000000000    0.5474500000000000    0.1678700000000000 H
   0.5479900000000000    0.0675300000000000    0.5246999999999999 H
   0.4518600000000000    0.1642300000000000    0.4765950000000000 H
   0.4520000000000000    0.9324600000000000    0.4752600000000000 H
   0.5481300000000000    0.8357599999999999    0.5234000000000000 H
   0.3886800000000000    0.1109200000000000    0.3054350000000000 C
   0.6113000000000000    0.8890700000000000    0.1945600000000000 C
   0.5275800000000000    0.0390400000000000    0.2038000000000000 C
   0.4740800000000000    0.0923000000000000    0.2304650000000000 C
   0.4461300000000000    0.0536100000000000    0.2767950000000000 C
   0.4724100000000000    0.9609500000000000    0.2961550000000000 C
   0.5259000000000000    0.9076900000000000    0.2695300000000000 C
   0.5538600000000000    0.9463800000000000    0.2232000000000000 C
   0.3886800000000000    0.1109200000000000    0.8054350000000000 C
   0.6113000000000000    0.8890700000000000    0.6945600000000001 C
   0.5275800000000000    0.0390400000000000    0.7038000000000000 C
   0.4740800000000000    0.0923000000000000    0.7304650000000000 C
   0.4461300000000000    0.0536100000000000    0.7767950000000000 C
   0.4724100000000000    0.9609500000000000    0.7961549999999999 C
   0.5259000000000000    0.9076900000000000    0.7695300000000000 C
   0.5538600000000000    0.9463800000000000    0.7232000000000001 C
   0.8890300000000000    0.6114200000000000    0.6945050000000000 C
   0.1109600000000000    0.3885500000000000    0.8054500000000000 C
   0.9609500000000000    0.4724200000000000    0.7961500000000000 C
   0.9076600000000000    0.5260300000000000    0.7695000000000001 C
   0.0536300000000000    0.4460900000000000    0.7768250000000000 C
   0.0923300000000000    0.4739600000000000    0.7300000000000000 C
   0.0390400000000000    0.5275600000000000    0.7038450000000001 C
   0.9463500000000000    0.5539200000000000    0.7231500000000000 C
   0.8890900000000000    0.8889899999999999    0.0556400000000000 C
   0.1108900000000000    0.1110000000000000    0.9443650000000000 C
   0.9609100000000000    0.0923000000000000    0.9866500000000000 C
   0.9076600000000000    0.0389900000000000    0.0134000000000000 C
   0.0390700000000000    0.9076900000000000    0.0133500000000000 C
   0.0923300000000000    0.9610000000000000    0.9864999999999999 C
   0.9463900000000000    0.9463300000000000    0.0269200000000000 C
   0.0536000000000000    0.0536600000000000    0.9730700000000000 C
   0.8890900000000000    0.8889899999999999    0.5556400000000000 C
   0.1108900000000000    0.1110000000000000    0.4443650000000000 C
   0.9609100000000000    0.0923000000000000    0.4866500000000000 C
   0.9076600000000000    0.0389900000000000    0.5134000000000000 C
   0.0390700000000000    0.9076900000000000    0.5133500000000000 C
   0.0923300000000000    0.9610000000000000    0.4865000000000000 C
   0.9463900000000000    0.9463300000000000    0.5269200000000001 C
   0.0536000000000000    0.0536600000000000    0.4730700000000000 C
   0.1112100000000000    0.3891700000000000    0.9445200000000000 C
   0.8887800000000000    0.6108200000000000    0.0554750000000000 C
   0.0388700000000000    0.5265300000000001    0.0136600000000000 C
   0.0923200000000000    0.4733300000000000    0.9870000000000000 C
   0.0537900000000000    0.4464200000000000    0.9731850000000000 C
   0.9076600000000000    0.5266500000000000    0.0129950000000000 C
   0.9611200000000000    0.4734600000000000    0.9863400000000000 C
   0.9461900000000000    0.5535800000000000    0.0268050000000000 C
   0.3890800000000000    0.3890000000000000    0.8057050000000000 C
   0.6109000000000000    0.6109900000000000    0.6942900000000000 C
   0.4737100000000000    0.4737100000000000    0.7961500000000000 C
   0.5269400000000000    0.5270400000000000    0.7693600000000000 C
   0.4464000000000000    0.4463400000000000    0.7769550000000001 C
   0.4730400000000000    0.4729500000000000    0.7306350000000000 C
   0.5262700000000000    0.5262800000000000    0.7038500000000000 C
   0.5535900000000000    0.5536600000000000    0.7230400000000000 C
   0.3890700000000000    0.1114200000000000    0.9444500000000000 C
   0.6109100000000000    0.8885800000000000    0.0555000000000000 C
   0.5265800000000000    0.0387200000000000    0.0137050000000000 C
   0.4733200000000000    0.0922800000000000    0.9870399999999999 C
   0.4464000000000000    0.0539000000000000    0.9731550000000000 C
   0.4734000000000000    0.9612700000000000    0.9862900000000000 C
   0.5266600000000000    0.9077100000000000    0.0129550000000000 C
   0.5536000000000000    0.9460900000000000    0.0268350000000000 C
   0.1112100000000000    0.3891700000000000    0.4445200000000000 C
   0.8887800000000000    0.6108200000000000    0.5554749999999999 C
   0.0388700000000000    0.5265300000000001    0.5136600000000000 C
   0.0923200000000000    0.4733300000000000    0.4870000000000000 C
   0.0537900000000000    0.4464200000000000    0.4731850000000000 C
   0.9076600000000000    0.5266500000000000    0.5129950000000000 C
   0.9611200000000000    0.4734600000000000    0.4863400000000000 C
   0.9461900000000000    0.5535800000000000    0.5268050000000000 C
   0.3890800000000000    0.3890000000000000    0.3057050000000000 C
   0.6109000000000000    0.6109900000000000    0.1942900000000000 C
   0.4737100000000000    0.4737100000000000    0.2961500000000000 C
   0.5269400000000000    0.5270400000000000    0.2693600000000000 C
   0.4464000000000000    0.4463400000000000    0.2769550000000000 C
   0.4730400000000000    0.4729500000000000    0.2306350000000000 C
   0.5262700000000000    0.5262800000000000    0.2038500000000000 C
   0.5535900000000000    0.5536600000000000    0.2230400000000000 C
   0.3890700000000000    0.1114200000000000    0.4444500000000000 C
   0.6109100000000000    0.8885800000000000    0.5555000000000000 C
   0.5265800000000000    0.0387200000000000    0.5137050000000000 C
   0.4733200000000000    0.0922800000000000    0.4870400000000000 C
   0.4464000000000000    0.0539000000000000    0.4731550000000000 C
   0.4734000000000000    0.9612700000000000    0.4862900000000000 C
   0.5266600000000000    0.9077100000000000    0.5129550000000000 C
   0.5536000000000000    0.9460900000000000    0.5268350000000001 C
   0.3661900000000000    0.0713700000000000    0.3473200000000000 O
   0.3668500000000000    0.1946900000000000    0.2855000000000000 O
   0.6338000000000000    0.9286300000000000    0.1526750000000000 O
   0.6331400000000000    0.8053000000000000    0.2143500000000000 O
   0.3661900000000000    0.0713700000000000    0.8473200000000001 O
   0.3668500000000000    0.1946900000000000    0.7855000000000000 O
   0.6338000000000000    0.9286300000000000    0.6526750000000000 O
   0.6331400000000000    0.8053000000000000    0.7143500000000000 O
   0.1947300000000000    0.3664000000000000    0.2857200000000000 O
   0.0713800000000000    0.3664200000000000    0.3473700000000000 O
   0.8052600000000000    0.6335800000000000    0.7142750000000000 O
   0.9286000000000000    0.6335700000000000    0.6526250000000000 O
   0.1947300000000000    0.3664000000000000    0.7857200000000000 O
   0.0713800000000000    0.3664200000000000    0.8473700000000000 O
   0.8052600000000000    0.6335800000000000    0.2142750000000000 O
   0.9286000000000000    0.6335700000000000    0.1526250000000000 O
   0.8053200000000000    0.9285300000000000    0.0668250000000000 O
   0.9286799999999999    0.8052400000000000    0.0665750000000000 O
   0.0713100000000000    0.1947500000000000    0.9334249999999999 O
   0.1946600000000000    0.0714600000000000    0.9331750000000000 O
   0.8053200000000000    0.9285300000000000    0.5668250000000000 O
   0.9286799999999999    0.8052400000000000    0.5665750000000001 O
   0.0713100000000000    0.1947500000000000    0.4334250000000000 O
   0.1946600000000000    0.0714600000000000    0.4331750000000000 O
   0.0716800000000000    0.3668900000000000    0.9333549999999999 O
   0.1949800000000000    0.3672700000000000    0.9335850000000000 O
   0.9283100000000000    0.6330900000000000    0.0666450000000000 O
   0.8050000000000000    0.6327199999999999    0.0664100000000000 O
   0.3669800000000000    0.3664500000000000    0.7859650000000000 O
   0.3670100000000000    0.3673400000000000    0.8475850000000000 O
   0.6330000000000000    0.6335300000000000    0.7140299999999999 O
   0.6329800000000000    0.6326500000000000    0.6524099999999999 O
   0.2500600000000000    0.2501300000000000    0.8750599999999999 O
   0.3670800000000000    0.0719500000000000    0.9331450000000000 O
   0.3668800000000000    0.1951600000000000    0.9337150000000001 O
   0.6331000000000000    0.8048400000000000    0.0662500000000000 O
   0.6329100000000000    0.9280400000000000    0.0668550000000000 O
   0.7499200000000000    0.7498600000000000    0.1249350000000000 O
   0.0716800000000000    0.3668900000000000    0.4333550000000000 O
   0.1949800000000000    0.3672700000000000    0.4335850000000000 O
   0.9283100000000000    0.6330900000000000    0.5666450000000000 O
   0.8050000000000000    0.6327199999999999    0.5664100000000000 O
   0.3669800000000000    0.3664500000000000    0.2859650000000000 O
   0.3670100000000000    0.3673400000000000    0.3475850000000000 O
   0.6330000000000000    0.6335300000000000    0.2140300000000000 O
   0.6329800000000000    0.6326500000000000    0.1524100000000000 O
   0.2500600000000000    0.2501300000000000    0.3750600000000000 O
   0.3670800000000000    0.0719500000000000    0.4331450000000000 O
   0.3668800000000000    0.1951600000000000    0.4337150000000000 O
   0.6331000000000000    0.8048400000000000    0.5662500000000000 O
   0.6329100000000000    0.9280400000000000    0.5668550000000000 O
   0.7499200000000000    0.7498600000000000    0.6249350000000000 O
