C6 O12
1.0
  36.8782363989163429    0.0000000000000000  -10.3014455347607381
  -1.2033460123634958   38.1979437318991870   -3.7249774535146751
   0.0000000000000000    0.0000000000000000   34.8400000000000034
C O
6 12
direct
   0.1155800000000000    0.7668400000000000    0.2556300000000000 C
   0.0134800000000000    0.8918750000000000    0.2558500000000000 C
   0.1329900000000000    0.7334100000000000    0.2414200000000000 C
   0.9872850000000000    0.8594999999999999    0.2421800000000000 C
   0.4872850000000000    0.8594999999999999    0.7421800000000001 C
   0.5134800000000000    0.8918750000000000    0.7558500000000000 C
   0.1224100000000000    0.7749550000000001    0.2930250000000000 O
   0.0958850000000000    0.7836799999999999    0.2286700000000000 O
   0.0259600000000000    0.8998200000000001    0.2931800000000000 O
   0.0203100000000000    0.9080699999999999    0.2285000000000000 O
   0.1259700000000000    0.7251700000000000    0.2040450000000000 O
   0.1528750000000000    0.7167000000000000    0.2683900000000000 O
   0.9748800000000000    0.8514699999999999    0.2048550000000000 O
   0.9803750000000000    0.8433550000000001    0.2695000000000000 O
   0.4748800000000000    0.8514699999999999    0.7048550000000000 O
   0.4803750000000000    0.8433550000000001    0.7695000000000001 O
   0.5259600000000000    0.8998200000000001    0.7931800000000000 O
   0.5203100000000001    0.9080699999999999    0.7285000000000000 O
