H6 O6
1.0
  36.8782363989163429    0.0000000000000000  -10.3014455347607381
  -1.2033460123634958   38.1979437318991870   -3.7249774535146751
   0.0000000000000000    0.0000000000000000   34.8400000000000034
H O
6 6
direct
   0.4677157253153739    0.3028839550610076    0.3295203021239460 H
   0.4872575291661540    0.2817143370009250    0.3789991918230129 H
   0.7162046978342240    0.8030538971963472    0.3302669320991278 H
   0.7357849120060255    0.7824364508679001    0.3801337737839668 H
   0.9030190416867638    0.6346502625978396    0.5819449107704007 H
   0.9238353811861948    0.6106776755998439    0.6293955219760495 H
   0.4902850000000000    0.3159700000000000    0.3434000000000000 O
   0.5042250000000000    0.3007700000000000    0.3787700000000000 O
   0.7386950000000000    0.8163050000000001    0.3440500000000000 O
   0.7526550000000001    0.8015450000000000    0.3798000000000000 O
   0.9258649999999999    0.6471150000000000    0.5961950000000000 O
   0.9406600000000001    0.6302050000000000    0.6303799999999999 O
