Zn256 H765 C698 N1012 O454
1.0
  36.8782363989163429    0.0000000000000000  -10.3014455347607381
  -1.2033460123634958   38.1979437318991870   -3.7249774535146751
   0.0000000000000000    0.0000000000000000   34.8400000000000034
Zn H C N O
256 765 698 1012 454
direct
   0.5548900000000000    0.3081800000000000    0.4134400000000000 Zn
   0.5980449999999999    0.3178850000000000    0.5847350000000000 Zn
   0.6522900000000000    0.4334850000000000    0.4146900000000000 Zn
   0.6951499999999999    0.4437250000000000    0.5861000000000000 Zn
   0.5973600000000000    0.5679550000000000    0.5849100000000000 Zn
   0.5550950000000000    0.5580800000000000    0.4136250000000000 Zn
   0.6952050000000000    0.6927950000000000    0.5847900000000000 Zn
   0.6522100000000000    0.6834300000000000    0.4136650000000000 Zn
   0.5548900000000000    0.8081800000000000    0.4134400000000000 Zn
   0.5980449999999999    0.8178850000000000    0.5847350000000000 Zn
   0.6522900000000000    0.9334850000000000    0.4146900000000000 Zn
   0.6951499999999999    0.9437249999999999    0.5861000000000000 Zn
   0.5973600000000000    0.0679550000000000    0.5849100000000000 Zn
   0.5550950000000000    0.0580800000000000    0.4136250000000000 Zn
   0.6952050000000000    0.1927950000000000    0.5847900000000000 Zn
   0.6522100000000000    0.1834300000000000    0.4136650000000000 Zn
   0.7554650000000001    0.8636800000000000    0.3282800000000000 Zn
   0.7554650000000001    0.3636800000000000    0.3282800000000000 Zn
   0.4092100000000000    0.9876950000000000    0.3281850000000000 Zn
   0.4092100000000000    0.4876950000000000    0.3281850000000000 Zn
   0.7561650000000000    0.6137900000000001    0.3283500000000000 Zn
   0.7561650000000000    0.1137900000000000    0.3283500000000000 Zn
   0.4084500000000000    0.7381050000000000    0.3270150000000000 Zn
   0.8424849999999999    0.7627200000000001    0.6700200000000001 Zn
   0.8424849999999999    0.2627200000000000    0.6700200000000001 Zn
   0.4922700000000000    0.6375350000000000    0.6700650000000000 Zn
   0.4922700000000000    0.1375350000000000    0.6700650000000000 Zn
   0.8430150000000001    0.5129300000000000    0.6710000000000000 Zn
   0.8430150000000001    0.0129300000000000    0.6710000000000000 Zn
   0.4932550000000000    0.3877450000000000    0.6698500000000001 Zn
   0.4932550000000000    0.8877450000000000    0.6698500000000001 Zn
   0.9443900000000001    0.6922550000000001    0.5836250000000001 Zn
   0.9021049999999999    0.6830050000000000    0.4130800000000000 Zn
   0.8476650000000000    0.8172600000000000    0.5833950000000000 Zn
   0.9450400000000000    0.9427150000000000    0.5839400000000000 Zn
   0.9021399999999999    0.9320700000000000    0.4130700000000000 Zn
   0.8043850000000000    0.8070300000000000    0.4119500000000000 Zn
   0.8472299999999999    0.5668500000000000    0.5835800000000000 Zn
   0.8054800000000000    0.5571400000000000    0.4128500000000000 Zn
   0.8472299999999999    0.0668500000000000    0.5835800000000000 Zn
   0.8054800000000000    0.0571400000000000    0.4128500000000000 Zn
   0.9443900000000001    0.1922550000000000    0.5836250000000001 Zn
   0.9021049999999999    0.1830050000000000    0.4130800000000000 Zn
   0.8476650000000000    0.3172600000000000    0.5833950000000000 Zn
   0.9450400000000000    0.4427150000000000    0.5839400000000000 Zn
   0.9021399999999999    0.4320700000000000    0.4130700000000000 Zn
   0.8043850000000000    0.3070300000000000    0.4119500000000000 Zn
   0.6583300000000000    0.4887050000000000    0.3285350000000000 Zn
   0.6583300000000000    0.9887049999999999    0.3285350000000000 Zn
   0.0063800000000000    0.6136100000000000    0.3283600000000000 Zn
   0.0063800000000000    0.1136100000000000    0.3283600000000000 Zn
   0.0071600000000000    0.8636150000000000    0.3282000000000000 Zn
   0.0071600000000000    0.3636150000000000    0.3282000000000000 Zn
   0.7440750000000000    0.8875649999999999    0.6703000000000000 Zn
   0.7440750000000000    0.3875650000000000    0.6703000000000000 Zn
   0.0913950000000000    0.2626950000000000    0.6700000000000000 Zn
   0.0913950000000000    0.7626950000000000    0.6700000000000000 Zn
   0.6572000000000000    0.2378400000000000    0.3270500000000000 Zn
   0.7434400000000000    0.1375950000000000    0.6702450000000000 Zn
   0.7434400000000000    0.6375950000000000    0.6702450000000000 Zn
   0.0919800000000000    0.5136600000000000    0.6715700000000000 Zn
   0.0919800000000000    0.0136600000000000    0.6715700000000000 Zn
   0.0548900000000000    0.3081800000000000    0.4134400000000000 Zn
   0.0980450000000000    0.3178850000000000    0.5847350000000000 Zn
   0.1522900000000000    0.4334850000000000    0.4146900000000000 Zn
   0.1951500000000000    0.4437250000000000    0.5861000000000000 Zn
   0.0973600000000000    0.5679550000000000    0.5849100000000000 Zn
   0.0550950000000000    0.5580800000000000    0.4136250000000000 Zn
   0.1952050000000000    0.6927950000000000    0.5847900000000000 Zn
   0.1522100000000000    0.6834300000000000    0.4136650000000000 Zn
   0.0548900000000000    0.8081800000000000    0.4134400000000000 Zn
   0.0980450000000000    0.8178850000000000    0.5847350000000000 Zn
   0.1522900000000000    0.9334850000000000    0.4146900000000000 Zn
   0.1951500000000000    0.9437249999999999    0.5861000000000000 Zn
   0.0973600000000000    0.0679550000000000    0.5849100000000000 Zn
   0.0550950000000000    0.0580800000000000    0.4136250000000000 Zn
   0.1952050000000000    0.1927950000000000    0.5847900000000000 Zn
   0.1522100000000000    0.1834300000000000    0.4136650000000000 Zn
   0.2554650000000000    0.8636800000000000    0.3282800000000000 Zn
   0.2554650000000000    0.3636800000000000    0.3282800000000000 Zn
   0.9092100000000001    0.9876950000000000    0.3281850000000000 Zn
   0.9092100000000001    0.4876950000000000    0.3281850000000000 Zn
   0.2561650000000000    0.6137900000000001    0.3283500000000000 Zn
   0.2561650000000000    0.1137900000000000    0.3283500000000000 Zn
   0.9084500000000000    0.2381050000000000    0.3270150000000000 Zn
   0.9084500000000000    0.7381050000000000    0.3270150000000000 Zn
   0.3424850000000000    0.7627200000000001    0.6700200000000001 Zn
   0.3424850000000000    0.2627200000000000    0.6700200000000001 Zn
   0.9922700000000000    0.1375350000000000    0.6700650000000000 Zn
   0.9922700000000000    0.6375350000000000    0.6700650000000000 Zn
   0.3430150000000000    0.5129300000000000    0.6710000000000000 Zn
   0.3430150000000000    0.0129300000000000    0.6710000000000000 Zn
   0.9932550000000000    0.3877450000000000    0.6698500000000001 Zn
   0.9932550000000000    0.8877450000000000    0.6698500000000001 Zn
   0.3472300000000000    0.5668500000000000    0.5835800000000000 Zn
   0.3054800000000000    0.5571400000000000    0.4128500000000000 Zn
   0.4443900000000000    0.6922550000000001    0.5836250000000001 Zn
   0.4021050000000000    0.6830050000000000    0.4130800000000000 Zn
   0.3476650000000000    0.8172600000000000    0.5833950000000000 Zn
   0.4450400000000000    0.9427150000000000    0.5839400000000000 Zn
   0.4021400000000000    0.9320700000000000    0.4130700000000000 Zn
   0.3043850000000000    0.8070300000000000    0.4119500000000000 Zn
   0.3472300000000000    0.0668500000000000    0.5835800000000000 Zn
   0.3054800000000000    0.0571400000000000    0.4128500000000000 Zn
   0.4443900000000000    0.1922550000000000    0.5836250000000001 Zn
   0.4021050000000000    0.1830050000000000    0.4130800000000000 Zn
   0.3476650000000000    0.3172600000000000    0.5833950000000000 Zn
   0.4450400000000000    0.4427150000000000    0.5839400000000000 Zn
   0.4021400000000000    0.4320700000000000    0.4130700000000000 Zn
   0.3043850000000000    0.3070300000000000    0.4119500000000000 Zn
   0.1583300000000000    0.4887050000000000    0.3285350000000000 Zn
   0.1583300000000000    0.9887049999999999    0.3285350000000000 Zn
   0.5063800000000001    0.6136100000000000    0.3283600000000000 Zn
   0.5063800000000001    0.1136100000000000    0.3283600000000000 Zn
   0.5071600000000001    0.8636150000000000    0.3282000000000000 Zn
   0.5071600000000001    0.3636150000000000    0.3282000000000000 Zn
   0.2440750000000000    0.8875649999999999    0.6703000000000000 Zn
   0.2440750000000000    0.3875650000000000    0.6703000000000000 Zn
   0.5913950000000000    0.2626950000000000    0.6700000000000000 Zn
   0.5913950000000000    0.7626950000000000    0.6700000000000000 Zn
   0.1572000000000000    0.7378400000000001    0.3270500000000000 Zn
   0.1572000000000000    0.2378400000000000    0.3270500000000000 Zn
   0.2434400000000000    0.1375950000000000    0.6702450000000000 Zn
   0.2434400000000000    0.6375950000000000    0.6702450000000000 Zn
   0.5919800000000000    0.5136600000000000    0.6715700000000000 Zn
   0.5919800000000000    0.0136600000000000    0.6715700000000000 Zn
   0.5548900000000000    0.3081800000000000    0.9134400000000000 Zn
   0.5980449999999999    0.3178850000000000    0.0847350000000000 Zn
   0.6522900000000000    0.4334850000000000    0.9146900000000000 Zn
   0.6951499999999999    0.4437250000000000    0.0861000000000000 Zn
   0.5973600000000000    0.5679550000000000    0.0849100000000000 Zn
   0.5550950000000000    0.5580800000000000    0.9136250000000000 Zn
   0.6952050000000000    0.6927950000000000    0.0847900000000000 Zn
   0.6522100000000000    0.6834300000000000    0.9136649999999999 Zn
   0.5548900000000000    0.8081800000000000    0.9134400000000000 Zn
   0.5980449999999999    0.8178850000000000    0.0847350000000000 Zn
   0.6522900000000000    0.9334850000000000    0.9146900000000000 Zn
   0.6951499999999999    0.9437249999999999    0.0861000000000000 Zn
   0.5973600000000000    0.0679550000000000    0.0849100000000000 Zn
   0.5550950000000000    0.0580800000000000    0.9136250000000000 Zn
   0.6952050000000000    0.1927950000000000    0.0847900000000000 Zn
   0.6522100000000000    0.1834300000000000    0.9136649999999999 Zn
   0.7554650000000001    0.8636800000000000    0.8282800000000000 Zn
   0.7554650000000001    0.3636800000000000    0.8282800000000000 Zn
   0.4092100000000000    0.9876950000000000    0.8281849999999999 Zn
   0.4092100000000000    0.4876950000000000    0.8281849999999999 Zn
   0.7561650000000000    0.6137900000000001    0.8283499999999999 Zn
   0.7561650000000000    0.1137900000000000    0.8283499999999999 Zn
   0.4084500000000000    0.2381050000000000    0.8270150000000001 Zn
   0.4084500000000000    0.7381050000000000    0.8270150000000001 Zn
   0.8424849999999999    0.7627200000000001    0.1700200000000000 Zn
   0.8424849999999999    0.2627200000000000    0.1700200000000000 Zn
   0.4922700000000000    0.6375350000000000    0.1700650000000000 Zn
   0.4922700000000000    0.1375350000000000    0.1700650000000000 Zn
   0.8430150000000001    0.5129300000000000    0.1710000000000000 Zn
   0.8430150000000001    0.0129300000000000    0.1710000000000000 Zn
   0.4932550000000000    0.3877450000000000    0.1698500000000000 Zn
   0.4932550000000000    0.8877450000000000    0.1698500000000000 Zn
   0.8472299999999999    0.0668500000000000    0.0835800000000000 Zn
   0.8054800000000000    0.0571400000000000    0.9128499999999999 Zn
   0.9443900000000001    0.1922550000000000    0.0836250000000000 Zn
   0.9021049999999999    0.1830050000000000    0.9130800000000000 Zn
   0.8476650000000000    0.3172600000000000    0.0833950000000000 Zn
   0.9450400000000000    0.4427150000000000    0.0839400000000000 Zn
   0.9021399999999999    0.4320700000000000    0.9130700000000000 Zn
   0.8043850000000000    0.3070300000000000    0.9119500000000000 Zn
   0.8472299999999999    0.5668500000000000    0.0835800000000000 Zn
   0.8054800000000000    0.5571400000000000    0.9128499999999999 Zn
   0.9443900000000001    0.6922550000000001    0.0836250000000000 Zn
   0.9021049999999999    0.6830050000000000    0.9130800000000000 Zn
   0.8476650000000000    0.8172600000000000    0.0833950000000000 Zn
   0.9450400000000000    0.9427150000000000    0.0839400000000000 Zn
   0.9021399999999999    0.9320700000000000    0.9130700000000000 Zn
   0.8043850000000000    0.8070300000000000    0.9119500000000000 Zn
   0.6583300000000000    0.4887050000000000    0.8285350000000000 Zn
   0.6583300000000000    0.9887049999999999    0.8285350000000000 Zn
   0.0063800000000000    0.6136100000000000    0.8283600000000000 Zn
   0.0063800000000000    0.1136100000000000    0.8283600000000000 Zn
   0.0071600000000000    0.8636150000000000    0.8282000000000000 Zn
   0.0071600000000000    0.3636150000000000    0.8282000000000000 Zn
   0.7440750000000000    0.8875649999999999    0.1703000000000000 Zn
   0.7440750000000000    0.3875650000000000    0.1703000000000000 Zn
   0.0913950000000000    0.2626950000000000    0.1700000000000000 Zn
   0.0913950000000000    0.7626950000000000    0.1700000000000000 Zn
   0.6572000000000000    0.7378400000000001    0.8270500000000001 Zn
   0.6572000000000000    0.2378400000000000    0.8270500000000001 Zn
   0.7434400000000000    0.1375950000000000    0.1702450000000000 Zn
   0.7434400000000000    0.6375950000000000    0.1702450000000000 Zn
   0.0919800000000000    0.5136600000000000    0.1715700000000000 Zn
   0.0919800000000000    0.0136600000000000    0.1715700000000000 Zn
   0.0548900000000000    0.3081800000000000    0.9134400000000000 Zn
   0.0980450000000000    0.3178850000000000    0.0847350000000000 Zn
   0.1522900000000000    0.4334850000000000    0.9146900000000000 Zn
   0.1951500000000000    0.4437250000000000    0.0861000000000000 Zn
   0.0973600000000000    0.5679550000000000    0.0849100000000000 Zn
   0.0550950000000000    0.5580800000000000    0.9136250000000000 Zn
   0.1952050000000000    0.6927950000000000    0.0847900000000000 Zn
   0.1522100000000000    0.6834300000000000    0.9136649999999999 Zn
   0.0548900000000000    0.8081800000000000    0.9134400000000000 Zn
   0.0980450000000000    0.8178850000000000    0.0847350000000000 Zn
   0.1522900000000000    0.9334850000000000    0.9146900000000000 Zn
   0.1951500000000000    0.9437249999999999    0.0861000000000000 Zn
   0.0973600000000000    0.0679550000000000    0.0849100000000000 Zn
   0.0550950000000000    0.0580800000000000    0.9136250000000000 Zn
   0.1952050000000000    0.1927950000000000    0.0847900000000000 Zn
   0.1522100000000000    0.1834300000000000    0.9136649999999999 Zn
   0.2554650000000000    0.8636800000000000    0.8282800000000000 Zn
   0.2554650000000000    0.3636800000000000    0.8282800000000000 Zn
   0.9092100000000001    0.9876950000000000    0.8281849999999999 Zn
   0.9092100000000001    0.4876950000000000    0.8281849999999999 Zn
   0.2561650000000000    0.6137900000000001    0.8283499999999999 Zn
   0.2561650000000000    0.1137900000000000    0.8283499999999999 Zn
   0.9084500000000000    0.2381050000000000    0.8270150000000001 Zn
   0.9084500000000000    0.7381050000000000    0.8270150000000001 Zn
   0.3424850000000000    0.7627200000000001    0.1700200000000000 Zn
   0.3424850000000000    0.2627200000000000    0.1700200000000000 Zn
   0.9922700000000000    0.1375350000000000    0.1700650000000000 Zn
   0.9922700000000000    0.6375350000000000    0.1700650000000000 Zn
   0.3430150000000000    0.5129300000000000    0.1710000000000000 Zn
   0.3430150000000000    0.0129300000000000    0.1710000000000000 Zn
   0.9932550000000000    0.3877450000000000    0.1698500000000000 Zn
   0.9932550000000000    0.8877450000000000    0.1698500000000000 Zn
   0.3472300000000000    0.5668500000000000    0.0835800000000000 Zn
   0.3054800000000000    0.5571400000000000    0.9128499999999999 Zn
   0.4443900000000000    0.6922550000000001    0.0836250000000000 Zn
   0.4021050000000000    0.6830050000000000    0.9130800000000000 Zn
   0.3476650000000000    0.8172600000000000    0.0833950000000000 Zn
   0.4450400000000000    0.9427150000000000    0.0839400000000000 Zn
   0.4021400000000000    0.9320700000000000    0.9130700000000000 Zn
   0.3043850000000000    0.8070300000000000    0.9119500000000000 Zn
   0.3472300000000000    0.0668500000000000    0.0835800000000000 Zn
   0.3054800000000000    0.0571400000000000    0.9128499999999999 Zn
   0.4443900000000000    0.1922550000000000    0.0836250000000000 Zn
   0.4021050000000000    0.1830050000000000    0.9130800000000000 Zn
   0.3476650000000000    0.3172600000000000    0.0833950000000000 Zn
   0.4450400000000000    0.4427150000000000    0.0839400000000000 Zn
   0.4021400000000000    0.4320700000000000    0.9130700000000000 Zn
   0.3043850000000000    0.3070300000000000    0.9119500000000000 Zn
   0.1583300000000000    0.4887050000000000    0.8285350000000000 Zn
   0.1583300000000000    0.9887049999999999    0.8285350000000000 Zn
   0.5063800000000001    0.6136100000000000    0.8283600000000000 Zn
   0.5063800000000001    0.1136100000000000    0.8283600000000000 Zn
   0.5071600000000001    0.8636150000000000    0.8282000000000000 Zn
   0.5071600000000001    0.3636150000000000    0.8282000000000000 Zn
   0.2440750000000000    0.8875649999999999    0.1703000000000000 Zn
   0.2440750000000000    0.3875650000000000    0.1703000000000000 Zn
   0.5913950000000000    0.2626950000000000    0.1700000000000000 Zn
   0.5913950000000000    0.7626950000000000    0.1700000000000000 Zn
   0.1572000000000000    0.7378400000000001    0.8270500000000001 Zn
   0.1572000000000000    0.2378400000000000    0.8270500000000001 Zn
   0.2434400000000000    0.1375950000000000    0.1702450000000000 Zn
   0.2434400000000000    0.6375950000000000    0.1702450000000000 Zn
   0.5919800000000000    0.5136600000000000    0.1715700000000000 Zn
   0.5919800000000000    0.0136600000000000    0.1715700000000000 Zn
   0.6572000000000000    0.7378400000000001    0.3270500000000000 Zn
   0.4084500000000000    0.2381050000000000    0.3270150000000000 Zn
   0.5436300000000001    0.3233300000000000    0.7018000000000000 H
   0.5056200000000000    0.3843600000000000    0.5833500000000000 H
   0.5308450000000000    0.3582800000000000    0.5580100000000000 H
   0.4677157253153739    0.3028839550610076    0.3295203021239460 H
   0.4872575291661540    0.2817143370009250    0.3789991918230129 H
   0.6526250000000000    0.3743550000000000    0.4647200000000000 H
   0.6234300000000000    0.3398950000000000    0.4673400000000000 H
   0.5762950000000000    0.4157550000000000    0.3469000000000000 H
   0.6570950000000000    0.2436200000000000    0.5262950000000000 H
   0.6370050000000000    0.2834550000000000    0.5294850000000000 H
   0.6511200000000000    0.2107550000000000    0.6518900000000000 H
   0.7046100000000000    0.4277300000000000    0.2960100000000000 H
   0.7429749999999999    0.3659600000000000    0.4135000000000000 H
   0.7194350000000000    0.3929100000000000    0.4403400000000000 H
   0.5055150000000000    0.6345149999999999    0.5846450000000000 H
   0.5301800000000000    0.6083750000000000    0.5593300000000000 H
   0.5430800000000000    0.5733250000000000    0.7027950000000001 H
   0.7043500000000000    0.6772300000000000    0.2948750000000000 H
   0.7442650000000000    0.6173150000000001    0.4135250000000000 H
   0.7200550000000000    0.6439350000000000    0.4399050000000000 H
   0.7846500000000001    0.7637200000000000    0.5873699999999999 H
   0.7486600000000000    0.7365900000000000    0.5608000000000000 H
   0.8086850000000000    0.6965600000000001    0.7011250000000000 H
   0.7843750000000000    0.5148850000000000    0.5884750000000000 H
   0.7480950000000000    0.4880500000000000    0.5619550000000000 H
   0.8094049999999999    0.4462650000000000    0.7011300000000000 H
   0.5979600000000000    0.3770450000000000    0.5345500000000000 H
   0.6267050000000001    0.4118300000000000    0.5322950000000000 H
   0.6752150000000000    0.3346750000000000    0.6511950000000000 H
   0.6529950000000000    0.4621600000000000    0.6540600000000000 H
   0.6528450000000000    0.4929400000000000    0.5252300000000000 H
   0.6356750000000000    0.5342000000000000    0.5301900000000001 H
   0.5769800000000000    0.4985700000000000    0.4628300000000000 H
   0.6092100000000000    0.4658600000000000    0.4676650000000000 H
   0.6000350000000000    0.5409050000000000    0.3477250000000000 H
   0.4662300000000000    0.4869250000000000    0.4107950000000000 H
   0.5015600000000000    0.5152900000000000    0.4386450000000000 H
   0.4432650000000000    0.5532750000000000    0.2964100000000000 H
   0.5928500000000000    0.7574100000000000    0.4719450000000000 H
   0.6134250000000000    0.7178550000000000    0.4690000000000000 H
   0.5976049999999999    0.7894900000000000    0.3455500000000000 H
   0.6092000000000000    0.6180150000000000    0.5250000000000000 H
   0.6295900000000000    0.6591200000000000    0.5298600000000000 H
   0.6734650000000000    0.5859449999999999    0.6526000000000001 H
   0.6543700000000000    0.6234200000000000    0.4622400000000000 H
   0.6243100000000000    0.5907249999999999    0.4671250000000000 H
   0.5745200000000000    0.6663749999999999    0.3479900000000000 H
   0.5436300000000001    0.8233300000000000    0.7018000000000000 H
   0.5056200000000000    0.8843600000000000    0.5833500000000000 H
   0.5308450000000000    0.8582799999999999    0.5580100000000000 H
   0.4664550000000000    0.7354950000000000    0.4082700000000000 H
   0.5011050000000000    0.7637450000000000    0.4365300000000000 H
   0.4426200000000000    0.8042500000000000    0.2959350000000000 H
   0.6526250000000000    0.8743550000000000    0.4647200000000000 H
   0.6234300000000000    0.8398950000000001    0.4673400000000000 H
   0.5762950000000000    0.9157550000000000    0.3469000000000000 H
   0.6570950000000000    0.7436199999999999    0.5262950000000000 H
   0.6370050000000000    0.7834550000000000    0.5294850000000000 H
   0.6511200000000000    0.7107550000000000    0.6518900000000000 H
   0.7046100000000000    0.9277299999999999    0.2960100000000000 H
   0.7429749999999999    0.8659600000000001    0.4135000000000000 H
   0.7194350000000000    0.8929100000000000    0.4403400000000000 H
   0.5055150000000000    0.1345150000000000    0.5846450000000000 H
   0.5301800000000000    0.1083750000000000    0.5593300000000000 H
   0.5430800000000000    0.0733250000000000    0.7027950000000001 H
   0.7043500000000000    0.1772300000000000    0.2948750000000000 H
   0.7442650000000000    0.1173150000000000    0.4135250000000000 H
   0.7200550000000000    0.1439350000000000    0.4399050000000000 H
   0.7846500000000001    0.2637200000000000    0.5873699999999999 H
   0.7486600000000000    0.2365900000000000    0.5608000000000000 H
   0.8086850000000000    0.1965600000000000    0.7011250000000000 H
   0.7843750000000000    0.0148850000000000    0.5884750000000000 H
   0.7480950000000000    0.9880500000000000    0.5619550000000000 H
   0.8094049999999999    0.9462650000000000    0.7011300000000000 H
   0.5979600000000000    0.8770450000000001    0.5345500000000000 H
   0.6267050000000001    0.9118299999999999    0.5322950000000000 H
   0.6752150000000000    0.8346750000000001    0.6511950000000000 H
   0.6529950000000000    0.9621600000000000    0.6540600000000000 H
   0.6528450000000000    0.9929399999999999    0.5252300000000000 H
   0.6356750000000000    0.0342000000000000    0.5301900000000001 H
   0.5769800000000000    0.9985700000000000    0.4628300000000000 H
   0.6092100000000000    0.9658599999999999    0.4676650000000000 H
   0.6000350000000000    0.0409050000000000    0.3477250000000000 H
   0.4662300000000000    0.9869250000000001    0.4107950000000000 H
   0.5015600000000000    0.0152900000000000    0.4386450000000000 H
   0.4432650000000000    0.0532750000000000    0.2964100000000000 H
   0.5928500000000000    0.2574100000000000    0.4719450000000000 H
   0.6134250000000000    0.2178550000000000    0.4690000000000000 H
   0.5976049999999999    0.2894900000000000    0.3455500000000000 H
   0.6092000000000000    0.1180150000000000    0.5250000000000000 H
   0.6295900000000000    0.1591200000000000    0.5298600000000000 H
   0.6734650000000000    0.0859450000000000    0.6526000000000001 H
   0.6543700000000000    0.1234200000000000    0.4622400000000000 H
   0.6243100000000000    0.0907250000000000    0.4671250000000000 H
   0.5745200000000000    0.1663750000000000    0.3479900000000000 H
   0.9949450000000000    0.3662650000000000    0.4143900000000000 H
   0.9698899999999999    0.3923900000000000    0.4400800000000000 H
   0.9563800000000000    0.4274100000000000    0.2960500000000000 H
   0.9949450000000000    0.8662650000000001    0.4143900000000000 H
   0.9698899999999999    0.8923900000000000    0.4400800000000000 H
   0.9563800000000000    0.9274100000000001    0.2960500000000000 H
   0.9548350000000000    0.6771150000000000    0.2948000000000000 H
   0.9942299999999999    0.6169450000000000    0.4133950000000000 H
   0.9699800000000001    0.6436100000000000    0.4397400000000000 H
   0.9548350000000000    0.1771150000000000    0.2948000000000000 H
   0.9942299999999999    0.1169450000000000    0.4133950000000000 H
   0.9699800000000001    0.1436100000000000    0.4397400000000000 H
   0.7585150000000001    0.8866499999999999    0.5861600000000000 H
   0.7817700000000001    0.8599700000000000    0.5597050000000000 H
   0.7943400000000000    0.8225950000000000    0.7021450000000000 H
   0.9030190416867638    0.6346502625978396    0.5819449107704007 H
   0.9238353811861948    0.6106776755998439    0.6293955219760495 H
   0.0336800000000000    0.0159100000000000    0.5889300000000000 H
   0.9978000000000000    0.9890350000000000    0.5617400000000000 H
   0.0583200000000000    0.9464450000000000    0.7007250000000000 H
   0.0318400000000000    0.7668400000000000    0.5902400000000000 H
   0.9967300000000000    0.7392300000000001    0.5620500000000000 H
   0.0580400000000000    0.6956000000000000    0.7003100000000000 H
   0.7162046978342240    0.8030538971963472    0.3302669320991278 H
   0.7357849120060255    0.7824364508679001    0.3801337737839668 H
   0.8856850000000001    0.7834950000000001    0.5283650000000000 H
   0.9026750000000000    0.7421100000000000    0.5231650000000000 H
   0.9022900000000000    0.7105950000000000    0.6514000000000000 H
   0.8262650000000000    0.7476050000000000    0.4608850000000000 H
   0.8587400000000001    0.7151800000000000    0.4658650000000000 H
   0.8496950000000000    0.7901800000000000    0.3460750000000000 H
   0.9234800000000001    0.8356500000000000    0.6517400000000000 H
   0.8796550000000001    0.9086099999999999    0.5287150000000000 H
   0.8599500000000000    0.8671150000000001    0.5236050000000000 H
   0.9044250000000000    0.8716850000000000    0.4600500000000000 H
   0.8741350000000000    0.8392999999999999    0.4653450000000000 H
   0.8240550000000000    0.9157500000000001    0.3470850000000000 H
   0.9032500000000000    0.9610000000000001    0.6524400000000000 H
   0.8856050000000000    0.0334050000000000    0.5287900000000000 H
   0.9026950000000000    0.9920350000000000    0.5236000000000000 H
   0.8263800000000000    0.9971749999999999    0.4610650000000000 H
   0.8589150000000000    0.9647399999999999    0.4662300000000000 H
   0.8508200000000000    0.0401150000000000    0.3469650000000000 H
   0.7575050000000000    0.6357950000000000    0.5855399999999999 H
   0.7810400000000000    0.6091350000000000    0.5593950000000000 H
   0.7940100000000000    0.5728200000000000    0.7024000000000000 H
   0.7161700000000000    0.4867150000000000    0.4103250000000000 H
   0.7520000000000000    0.5146150000000000    0.4379850000000000 H
   0.6923000000000000    0.5543600000000000    0.2970000000000000 H
   0.9050500000000000    0.6222650000000000    0.4605750000000000 H
   0.8749150000000000    0.5897600000000001    0.4658100000000000 H
   0.8242300000000000    0.6660900000000000    0.3476850000000000 H
   0.7585150000000001    0.3866500000000000    0.5861600000000000 H
   0.7817700000000001    0.3599700000000000    0.5597050000000000 H
   0.7943400000000000    0.3225950000000000    0.7021450000000000 H
   0.7575050000000000    0.1357950000000000    0.5855399999999999 H
   0.7810400000000000    0.1091350000000000    0.5593950000000000 H
   0.7940100000000000    0.0728200000000000    0.7024000000000000 H
   0.0336800000000000    0.5159100000000000    0.5889300000000000 H
   0.9978000000000000    0.4890350000000000    0.5617400000000000 H
   0.0583200000000000    0.4464450000000000    0.7007250000000000 H
   0.7161700000000000    0.9867150000000000    0.4103250000000000 H
   0.7520000000000000    0.0146150000000000    0.4379850000000000 H
   0.6923000000000000    0.0543600000000000    0.2970000000000000 H
   0.9225550000000000    0.0856250000000000    0.6518250000000000 H
   0.8792550000000000    0.1583900000000000    0.5285900000000000 H
   0.8594300000000000    0.1169250000000000    0.5234150000000000 H
   0.9050500000000000    0.1222650000000000    0.4605750000000000 H
   0.8749150000000000    0.0897600000000000    0.4658100000000000 H
   0.8242300000000000    0.1660900000000000    0.3476850000000000 H
   0.0318400000000000    0.2668400000000000    0.5902400000000000 H
   0.9967300000000000    0.2392300000000000    0.5620500000000000 H
   0.0580400000000000    0.1956000000000000    0.7003100000000000 H
   0.7152050000000000    0.2364100000000000    0.4100800000000000 H
   0.7508900000000001    0.2644950000000000    0.4376400000000000 H
   0.6911600000000000    0.3041000000000000    0.2966100000000000 H
   0.8856850000000001    0.2834950000000000    0.5283650000000000 H
   0.9026750000000000    0.2421100000000000    0.5231650000000000 H
   0.9022900000000000    0.2105950000000000    0.6514000000000000 H
   0.8262650000000000    0.2476050000000000    0.4608850000000000 H
   0.8587400000000001    0.2151800000000000    0.4658650000000000 H
   0.8496950000000000    0.2901800000000000    0.3460750000000000 H