H10 C12 N2
1.0
  33.5122721133719210    0.0000000000000000   -9.6861279053765905
  -4.1392704667194566   12.2525976893914930   -1.3387657992578004
   0.0000000000000000    0.0000000000000000   26.0060000000000002
H C N
10 12 2
direct
   0.1405300000000000    0.1220900000000000    0.9148700000000001 H
   0.0620933333333333    0.0598500000000000    0.8807000000000000 H
   0.0700233333333333    0.0462300000000000    0.7172100000000000 H
   0.1473966666666667    0.1060400000000000    0.7583200000000000 H
   0.0000000000000000    0.9921700000000000    0.6913250000000000 H
   0.9980100000000000    0.0000000000000000    0.8086750000000000 H
   0.8594566666666666    0.8779900000000000    0.5851400000000000 H
   0.9378899999999999    0.9401000000000000    0.6193000000000000 H
   0.9299599999999999    0.9533800000000000    0.7827900000000000 H
   0.8525900000000000    0.8937000000000000    0.7416850000000000 H
   0.1234166666666667    0.1041600000000000    0.8713649999999999 C
   0.0797900000000000    0.0699200000000000    0.8519500000000000 C
   0.0582966666666667    0.0476600000000000    0.7955200000000000 C
   0.0837633333333333    0.0617200000000000    0.7614300000000001 C
   0.1272433333333333    0.0955000000000000    0.7839950000000000 C
   0.0125066666666667    0.0126000000000000    0.7763599999999999 C
   0.8765700000000000    0.8958199999999999    0.6286000000000000 C
   0.9201933333333333    0.9299900000000000    0.6480600000000000 C
   0.9416833333333332    0.9521300000000000    0.7044500000000000 C
   0.9162199999999999    0.9380100000000000    0.7385750000000000 C
   0.8727400000000000    0.9042900000000000    0.7160100000000000 C
   0.9874766666666666    0.9871600000000000    0.7236450000000000 C
   0.1475700000000000    0.1172300000000000    0.8384350000000000 N
   0.8524133333333332    0.8826800000000000    0.6615750000000000 N
