H6 O4
1.0
  33.5122721133719210    0.0000000000000000   -9.6861279053765905
  -4.1392704667194566   12.2525976893914930   -1.3387657992578004
   0.0000000000000000    0.0000000000000000   26.0060000000000002
H O
6 4
direct
   0.6501007274030713    0.1008306259269071    0.9231685196293486 H
   0.5283232800062773   -0.0296081348098480    0.8561507015884848 H
   0.5894404820116804    0.0204182707969835    0.8894242651129844 H
   0.5164101440204957    0.3361840191473277    0.8600010502230244 H
   0.6382887970854209    0.4653703108002391    0.9246299881825583 H
   0.5770315175845079    0.4161719643716534    0.8925338555023802 H
   0.6231066666666667    0.1124100000000000    0.9092600000000000 O
   0.5524400000000000    0.0362900000000000    0.8703600000000000 O
   0.5433500000000000    0.3240200000000000    0.8732850000000000 O
   0.6141766666666666    0.3994000000000000    0.9108499999999999 O
