Co24 H258 C420 N24 O92
1.0
  33.5122721133719210    0.0000000000000000   -9.6861279053765905
  -4.1392704667194566   12.2525976893914930   -1.3387657992578004
   0.0000000000000000    0.0000000000000000   26.0060000000000002
Co H C N O
24 258 420 24 92
direct
   0.2862733333333333    0.2567600000000000    0.4100500000000000 Co
   0.1196166666666667    0.8200400000000000    0.1283500000000000 Co
   0.0470466666666667    0.7432400000000000    0.0899600000000000 Co
   0.2137033333333333    0.1799600000000000    0.3716300000000000 Co
   0.6196066666666666    0.2567600000000000    0.4100500000000000 Co
   0.4529500000000000    0.8200400000000000    0.1283500000000000 Co
   0.3803800000000000    0.7432400000000000    0.0899600000000000 Co
   0.5470366666666666    0.1799600000000000    0.3716300000000000 Co
   0.9529399999999999    0.2567600000000000    0.4100500000000000 Co
   0.7862833333333333    0.8200400000000000    0.1283500000000000 Co
   0.7137133333333333    0.7432400000000000    0.0899600000000000 Co
   0.8803699999999999    0.1799600000000000    0.3716300000000000 Co
   0.2862733333333333    0.2567600000000000    0.9100500000000000 Co
   0.1196166666666667    0.8200400000000000    0.6283500000000000 Co
   0.0470466666666667    0.7432400000000000    0.5899600000000000 Co
   0.2137033333333333    0.1799600000000000    0.8716300000000000 Co
   0.6196066666666666    0.2567600000000000    0.9100500000000000 Co
   0.4529500000000000    0.8200400000000000    0.6283500000000000 Co
   0.3803800000000000    0.7432400000000000    0.5899600000000000 Co
   0.5470366666666666    0.1799600000000000    0.8716300000000000 Co
   0.9529399999999999    0.2567600000000000    0.9100500000000000 Co
   0.7862833333333333    0.8200400000000000    0.6283500000000000 Co
   0.7137133333333333    0.7432400000000000    0.5899600000000000 Co
   0.8803699999999999    0.1799600000000000    0.8716300000000000 Co
   0.3029500000000000    0.3099300000000000    0.0837550000000000 H
   0.0000000000000000    0.3480200000000000    0.1845800000000000 H
   0.3260766666666667    0.3253900000000000    0.2753250000000000 H
   0.1967900000000000    0.1257400000000000    0.1984400000000000 H
   0.1665033333333333    0.0816600000000000    0.0971800000000000 H
   0.1744233333333333    0.1041300000000000    0.0067200000000000 H
   0.1405300000000000    0.1220900000000000    0.4148700000000000 H
   0.0620933333333333    0.0598500000000000    0.3807000000000000 H
   0.0700233333333333    0.0462300000000000    0.2172100000000000 H
   0.1473966666666667    0.1060400000000000    0.2583200000000000 H
   0.3313433333333333    0.0000000000000000    0.3086750000000000 H
   0.1970766666666667    0.8325700000000000    0.3447450000000000 H
   0.1660566666666667    0.6308400000000000    0.3251600000000000 H
   0.1740933333333333    0.4493300000000000    0.3364100000000000 H
   0.3031633333333333    0.6030799999999999    0.4370900000000000 H
   0.0000000000000000    0.8055500000000000    0.4595450000000000 H
   0.3253866666666667    0.9865600000000000    0.4484000000000000 H
   0.0261033333333333    0.1701300000000000    0.4371800000000000 H
   0.1045366666666667    0.2384000000000000    0.4678950000000000 H
   0.0966366666666667    0.5656700000000000    0.4782500000000000 H
   0.0192833333333333    0.4835000000000000    0.4485000000000000 H
   0.1686166666666667    0.3825500000000000    0.4946950000000000 H
   0.0303866666666667    0.6899500000000000    0.4162700000000000 H
   0.3326000000000000    0.6516100000000000    0.3154350000000000 H
   0.0072766666666667    0.6742000000000000    0.2246800000000000 H
   0.1365200000000000    0.8741900000000000    0.3015500000000000 H
   0.1667966666666666    0.9184000000000000    0.4028150000000000 H
   0.1588733333333333    0.8960399999999999    0.4932850000000000 H
   0.1927900000000000    0.8779900000000000    0.0851400000000000 H
   0.2712233333333333    0.9401000000000000    0.1193000000000000 H
   0.2632933333333333    0.9533800000000000    0.2827900000000000 H
   0.1859233333333333    0.8937000000000000    0.2416850000000000 H
   0.0000000000000000    0.9921700000000000    0.1913250000000000 H
   0.1362433333333333    0.1674300000000000    0.1552850000000000 H
   0.1672733333333333    0.3691500000000000    0.1747900000000000 H
   0.1592400000000000    0.5506500000000000    0.1635000000000000 H
   0.0301533333333333    0.3968800000000000    0.0628850000000000 H
   0.3333033333333333    0.1944000000000000    0.0404900000000000 H
   0.0079166666666667    0.0134100000000000    0.0516650000000000 H
   0.3072100000000000    0.8298300000000000    0.0628450000000000 H
   0.2287800000000000    0.7615499999999999    0.0321000000000000 H
   0.2366800000000000    0.4342800000000000    0.0216700000000000 H
   0.3140366666666666    0.5164600000000000    0.0514600000000000 H
   0.1646966666666667    0.6173999999999999    0.0000000000000000 H
   0.6362833333333333    0.3099300000000000    0.0837550000000000 H
   0.3333333333333333    0.3480200000000000    0.1845800000000000 H
   0.6594100000000001    0.3253900000000000    0.2753250000000000 H
   0.5301233333333333    0.1257400000000000    0.1984400000000000 H
   0.4998366666666667    0.0816600000000000    0.0971800000000000 H
   0.5077566666666666    0.1041300000000000    0.0067200000000000 H
   0.4738633333333333    0.1220900000000000    0.4148700000000000 H
   0.3954266666666666    0.0598500000000000    0.3807000000000000 H
   0.4033566666666666    0.0462300000000000    0.2172100000000000 H
   0.4807300000000000    0.1060400000000000    0.2583200000000000 H
   0.6646766666666666    0.0000000000000000    0.3086750000000000 H
   0.5304100000000000    0.8325700000000000    0.3447450000000000 H
   0.4993900000000000    0.6308400000000000    0.3251600000000000 H
   0.5074266666666667    0.4493300000000000    0.3364100000000000 H
   0.6364966666666667    0.6030799999999999    0.4370900000000000 H
   0.3333333333333333    0.8055500000000000    0.4595450000000000 H
   0.6587200000000000    0.9865600000000000    0.4484000000000000 H
   0.3594366666666666    0.1701300000000000    0.4371800000000000 H
   0.4378700000000000    0.2384000000000000    0.4678950000000000 H
   0.4299700000000000    0.5656700000000000    0.4782500000000000 H
   0.3526166666666666    0.4835000000000000    0.4485000000000000 H
   0.5019500000000000    0.3825500000000000    0.4946950000000000 H
   0.3637200000000000    0.6899500000000000    0.4162700000000000 H
   0.6659333333333333    0.6516100000000000    0.3154350000000000 H
   0.3406100000000000    0.6742000000000000    0.2246800000000000 H
   0.4698533333333333    0.8741900000000000    0.3015500000000000 H
   0.5001300000000000    0.9184000000000000    0.4028150000000000 H
   0.4922066666666666    0.8960399999999999    0.4932850000000000 H
   0.5261233333333333    0.8779900000000000    0.0851400000000000 H
   0.6045566666666666    0.9401000000000000    0.1193000000000000 H
   0.5966266666666666    0.9533800000000000    0.2827900000000000 H
   0.5192566666666667    0.8937000000000000    0.2416850000000000 H
   0.3333333333333333    0.9921700000000000    0.1913250000000000 H
   0.4695766666666666    0.1674300000000000    0.1552850000000000 H
   0.5006066666666666    0.3691500000000000    0.1747900000000000 H
   0.4925733333333333    0.5506500000000000    0.1635000000000000 H
   0.3634866666666666    0.3968800000000000    0.0628850000000000 H
   0.6666366666666665    0.1944000000000000    0.0404900000000000 H
   0.3412500000000000    0.0134100000000000    0.0516650000000000 H
   0.6405433333333332    0.8298300000000000    0.0628450000000000 H
   0.5621133333333332    0.7615499999999999    0.0321000000000000 H
   0.5700133333333333    0.4342800000000000    0.0216700000000000 H
   0.6473700000000000    0.5164600000000000    0.0514600000000000 H
   0.4980300000000000    0.6173999999999999    0.0000000000000000 H
   0.9696166666666666    0.3099300000000000    0.0837550000000000 H
   0.6666666666666666    0.3480200000000000    0.1845800000000000 H
   0.9927433333333333    0.3253900000000000    0.2753250000000000 H
   0.8634566666666665    0.1257400000000000    0.1984400000000000 H
   0.8331700000000000    0.0816600000000000    0.0971800000000000 H
   0.8410899999999999    0.1041300000000000    0.0067200000000000 H
   0.8071966666666666    0.1220900000000000    0.4148700000000000 H
   0.7287600000000000    0.0598500000000000    0.3807000000000000 H
   0.7366900000000000    0.0462300000000000    0.2172100000000000 H
   0.8140633333333334    0.1060400000000000    0.2583200000000000 H
   0.9980100000000000    0.0000000000000000    0.3086750000000000 H
   0.8637433333333333    0.8325700000000000    0.3447450000000000 H
   0.8327233333333333    0.6308400000000000    0.3251600000000000 H
   0.8407600000000000    0.4493300000000000    0.3364100000000000 H
   0.9698300000000000    0.6030799999999999    0.4370900000000000 H
   0.6666666666666666    0.8055500000000000    0.4595450000000000 H
   0.9920533333333332    0.9865600000000000    0.4484000000000000 H
   0.6927700000000000    0.1701300000000000    0.4371800000000000 H
   0.7712033333333332    0.2384000000000000    0.4678950000000000 H
   0.7633033333333333    0.5656700000000000    0.4782500000000000 H
   0.6859499999999999    0.4835000000000000    0.4485000000000000 H
   0.8352833333333333    0.3825500000000000    0.4946950000000000 H
   0.6970533333333333    0.6899500000000000    0.4162700000000000 H
   0.9992666666666666    0.6516100000000000    0.3154350000000000 H
   0.6739433333333333    0.6742000000000000    0.2246800000000000 H
   0.8031866666666666    0.8741900000000000    0.3015500000000000 H
   0.8334633333333332    0.9184000000000000    0.4028150000000000 H
   0.8255399999999999    0.8960399999999999    0.4932850000000000 H
   0.8594566666666666    0.8779900000000000    0.0851400000000000 H
   0.9378899999999999    0.9401000000000000    0.1193000000000000 H
   0.9299599999999999    0.9533800000000000    0.2827900000000000 H
   0.8525900000000000    0.8937000000000000    0.2416850000000000 H
   0.6666666666666666    0.9921700000000000    0.1913250000000000 H
   0.8029100000000000    0.1674300000000000    0.1552850000000000 H
   0.8339399999999999    0.3691500000000000    0.1747900000000000 H
   0.8259066666666666    0.5506500000000000    0.1635000000000000 H
   0.6968200000000000    0.3968800000000000    0.0628850000000000 H
   0.9999699999999999    0.1944000000000000    0.0404900000000000 H
   0.6745833333333333    0.0134100000000000    0.0516650000000000 H
   0.9738766666666666    0.8298300000000000    0.0628450000000000 H
   0.8954466666666666    0.7615499999999999    0.0321000000000000 H
   0.9033466666666666    0.4342800000000000    0.0216700000000000 H
   0.9807033333333333    0.5164600000000000    0.0514600000000000 H
   0.8313633333333332    0.6173999999999999    0.0000000000000000 H
   0.3029500000000000    0.3099300000000000    0.5837550000000000 H
   0.0000000000000000    0.3480200000000000    0.6845800000000000 H
   0.3260766666666667    0.3253900000000000    0.7753250000000000 H
   0.1967900000000000    0.1257400000000000    0.6984399999999999 H
   0.1665033333333333    0.0816600000000000    0.5971800000000000 H
   0.1744233333333333    0.1041300000000000    0.5067199999999999 H
   0.1405300000000000    0.1220900000000000    0.9148700000000001 H
   0.0620933333333333    0.0598500000000000    0.8807000000000000 H
   0.0700233333333333    0.0462300000000000    0.7172100000000000 H
   0.1473966666666667    0.1060400000000000    0.7583200000000000 H
   0.3313433333333333    0.0000000000000000    0.8086750000000000 H
   0.1970766666666667    0.8325700000000000    0.8447450000000001 H
   0.1660566666666667    0.6308400000000000    0.8251600000000000 H
   0.1740933333333333    0.4493300000000000    0.8364100000000000 H
   0.3031633333333333    0.6030799999999999    0.9370900000000000 H
   0.0000000000000000    0.8055500000000000    0.9595450000000000 H
   0.3253866666666667    0.9865600000000000    0.9484000000000000 H
   0.0261033333333333    0.1701300000000000    0.9371800000000000 H
   0.1045366666666667    0.2384000000000000    0.9678949999999999 H
   0.0966366666666667    0.5656700000000000    0.9782500000000001 H
   0.0192833333333333    0.4835000000000000    0.9485000000000000 H
   0.1686166666666667    0.3825500000000000    0.9946950000000000 H
   0.0303866666666667    0.6899500000000000    0.9162699999999999 H
   0.3326000000000000    0.6516100000000000    0.8154350000000000 H
   0.0072766666666667    0.6742000000000000    0.7246800000000000 H
   0.1365200000000000    0.8741900000000000    0.8015500000000000 H
   0.1667966666666666    0.9184000000000000    0.9028149999999999 H
   0.1588733333333333    0.8960399999999999    0.9932850000000000 H
   0.1927900000000000    0.8779900000000000    0.5851400000000000 H
   0.2712233333333333    0.9401000000000000    0.6193000000000000 H
   0.2632933333333333    0.9533800000000000    0.7827900000000000 H
   0.1859233333333333    0.8937000000000000    0.7416850000000000 H
   0.0000000000000000    0.9921700000000000    0.6913250000000000 H
   0.1362433333333333    0.1674300000000000    0.6552850000000000 H
   0.1672733333333333    0.3691500000000000    0.6747900000000000 H
   0.1592400000000000    0.5506500000000000    0.6635000000000000 H
   0.0301533333333333    0.3968800000000000    0.5628850000000000 H
   0.3333033333333333    0.1944000000000000    0.5404900000000000 H
   0.0079166666666667    0.0134100000000000    0.5516650000000000 H
   0.3072100000000000    0.8298300000000000    0.5628450000000000 H
   0.2287800000000000    0.7615499999999999    0.5321000000000000 H
   0.2366800000000000    0.4342800000000000    0.5216700000000000 H
   0.3140366666666666    0.5164600000000000    0.5514600000000000 H
   0.1646966666666667    0.6173999999999999    0.5000000000000000 H
   0.6362833333333333    0.3099300000000000    0.5837550000000000 H
   0.3333333333333333    0.3480200000000000    0.6845800000000000 H
   0.6594100000000001    0.3253900000000000    0.7753250000000000 H
   0.5301233333333333    0.1257400000000000    0.6984399999999999 H
   0.4998366666666667    0.0816600000000000    0.5971800000000000 H
   0.5077566666666666    0.1041300000000000    0.5067199999999999 H
   0.4738633333333333    0.1220900000000000    0.9148700000000001 H
   0.3954266666666666    0.0598500000000000    0.8807000000000000 H
   0.4033566666666666    0.0462300000000000    0.7172100000000000 H
   0.4807300000000000    0.1060400000000000    0.7583200000000000 H
   0.6646766666666666    0.0000000000000000    0.8086750000000000 H
   0.3333333333333333    0.8055500000000000    0.9595450000000000 H
   0.3594366666666666    0.1701300000000000    0.9371800000000000 H
   0.4378700000000000    0.2384000000000000    0.9678949999999999 H
   0.4299700000000000    0.5656700000000000    0.9782500000000001 H
   0.3526166666666666    0.4835000000000000    0.9485000000000000 H
   0.5019500000000000    0.3825500000000000    0.9946950000000000 H
   0.3637200000000000    0.6899500000000000    0.9162699999999999 H
   0.6659333333333333    0.6516100000000000    0.8154350000000000 H
   0.3406100000000000    0.6742000000000000    0.7246800000000000 H
   0.4698533333333333    0.8741900000000000    0.8015500000000000 H
   0.5001300000000000    0.9184000000000000    0.9028149999999999 H
   0.4922066666666666    0.8960399999999999    0.9932850000000000 H
   0.5261233333333333    0.8779900000000000    0.5851400000000000 H
   0.6045566666666666    0.9401000000000000    0.6193000000000000 H
   0.5966266666666666    0.9533800000000000    0.7827900000000000 H
   0.5192566666666667    0.8937000000000000    0.7416850000000000 H
   0.3333333333333333    0.9921700000000000    0.6913250000000000 H
   0.4695766666666666    0.1674300000000000    0.6552850000000000 H
   0.5006066666666666    0.3691500000000000    0.6747900000000000 H
   0.4925733333333333    0.5506500000000000    0.6635000000000000 H
   0.3634866666666666    0.3968800000000000    0.5628850000000000 H
   0.6666366666666665    0.1944000000000000    0.5404900000000000 H
   0.3412500000000000    0.0134100000000000    0.5516650000000000 H
   0.6405433333333332    0.8298300000000000    0.5628450000000000 H
   0.5621133333333332    0.7615499999999999    0.5321000000000000 H
   0.5700133333333333    0.4342800000000000    0.5216700000000000 H
   0.6473700000000000    0.5164600000000000    0.5514600000000000 H
   0.4980300000000000    0.6173999999999999    0.5000000000000000 H
   0.9696166666666666    0.3099300000000000    0.5837550000000000 H
   0.6666666666666666    0.3480200000000000    0.6845800000000000 H
   0.9927433333333333    0.3253900000000000    0.7753250000000000 H
   0.8634566666666665    0.1257400000000000    0.6984399999999999 H
   0.8331700000000000    0.0816600000000000    0.5971800000000000 H
   0.8410899999999999    0.1041300000000000    0.5067199999999999 H
   0.8071966666666666    0.1220900000000000    0.9148700000000001 H
   0.7287600000000000    0.0598500000000000    0.8807000000000000 H
   0.7366900000000000    0.0462300000000000    0.7172100000000000 H
   0.8140633333333334    0.1060400000000000    0.7583200000000000 H
   0.9980100000000000    0.0000000000000000    0.8086750000000000 H
   0.8637433333333333    0.8325700000000000    0.8447450000000001 H
   0.8327233333333333    0.6308400000000000    0.8251600000000000 H
   0.8407600000000000    0.4493300000000000    0.8364100000000000 H
   0.9698300000000000    0.6030799999999999    0.9370900000000000 H
   0.9920533333333332    0.9865600000000000    0.9484000000000000 H
   0.6927700000000000    0.1701300000000000    0.9371800000000000 H
   0.7712033333333332    0.2384000000000000    0.9678949999999999 H
   0.7633033333333333    0.5656700000000000    0.9782500000000001 H
   0.6859499999999999    0.4835000000000000    0.9485000000000000 H
   0.8352833333333333    0.3825500000000000    0.9946950000000000 H
   0.6970533333333333    0.6899500000000000    0.9162699999999999 H
   0.9992666666666666    0.6516100000000000    0.8154350000000000 H
   0.6739433333333333    0.6742000000000000    0.7246800000000000 H
   0.8031866666666666    0.8741900000000000    0.8015500000000000 H
   0.8334633333333332    0.9184000000000000    0.9028149999999999 H
   0.8255399999999999    0.8960399999999999    0.9932850000000000 H
   0.8594566666666666    0.8779900000000000    0.5851400000000000 H
   0.9378899999999999    0.9401000000000000    0.6193000000000000 H
   0.9299599999999999    0.9533800000000000    0.7827900000000000 H
   0.8525900000000000    0.8937000000000000    0.7416850000000000 H
   0.6666666666666666    0.9921700000000000    0.6913250000000000 H
   0.8029100000000000    0.1674300000000000    0.6552850000000000 H
   0.8339399999999999    0.3691500000000000    0.6747900000000000 H
   0.8259066666666666    0.5506500000000000    0.6635000000000000 H
   0.6968200000000000    0.3968800000000000    0.5628850000000000 H
   0.9999699999999999    0.1944000000000000    0.5404900000000000 H
   0.6745833333333333    0.0134100000000000    0.5516650000000000 H
   0.9738766666666666    0.8298300000000000    0.5628450000000000 H
   0.8954466666666666    0.7615499999999999    0.5321000000000000 H
   0.9033466666666666    0.4342800000000000    0.5216700000000000 H
   0.9807033333333333    0.5164600000000000    0.5514600000000000 H
   0.8313633333333332    0.6173999999999999    0.5000000000000000 H
   0.2393800000000000    0.2095300000000000    0.0397200000000000 C
   0.2731300000000000    0.2608200000000000    0.0868400000000000 C
   0.2695900000000000    0.2501000000000000    0.1389950000000000 C
   0.3040366666666666    0.2999300000000000    0.1877100000000000 C
   0.2997466666666667    0.2877000000000000    0.2379000000000000 C
   0.2604833333333333    0.2259000000000000    0.2421550000000000 C
   0.2264966666666667    0.1753500000000000    0.1951950000000000 C
   0.2301333333333333    0.1854200000000000    0.1430000000000000 C
   0.1960400000000000    0.1331300000000000    0.0941600000000000 C
   0.2004433333333333    0.1452000000000000    0.0439950000000000 C
   0.2438733333333333    0.2181500000000000    0.4850800000000000 C
   0.2562200000000000    0.2178200000000000    0.2969850000000000 C
   0.1234166666666667    0.1041600000000000    0.3713650000000000 C
   0.0797900000000000    0.0699200000000000    0.3519500000000000 C
   0.0582966666666667    0.0476600000000000    0.2955200000000000 C
   0.0837633333333333    0.0617200000000000    0.2614300000000000 C
   0.1272433333333333    0.0955000000000000    0.2839950000000000 C
   0.0125066666666667    0.0126000000000000    0.2763600000000000 C
   0.2605466666666666    0.9205800000000000    0.3953450000000000 C
   0.2268600000000000    0.8263700000000000    0.3694000000000000 C
   0.2304300000000000    0.7220200000000000    0.3746500000000000 C
   0.1960600000000000    0.6245800000000000    0.3494200000000000 C
   0.2003633333333333    0.5241000000000000    0.3554850000000000 C
   0.2395633333333334    0.5156900000000000    0.3866500000000000 C
   0.2734900000000000    0.6095900000000000    0.4121500000000000 C
   0.2698266666666667    0.7139500000000000    0.4072300000000000 C
   0.3038566666666667    0.8116500000000000    0.4336450000000000 C
   0.2994333333333333    0.9120000000000000    0.4276500000000000 C
   0.2560633333333333    0.0298400000000000    0.3910850000000000 C
   0.2438066666666666    0.4060500000000000    0.3908350000000000 C
   0.0432266666666667    0.2571900000000000    0.4468400000000000 C
   0.0868500000000000    0.2960000000000000    0.4637750000000000 C
   0.1083466666666667    0.4089300000000000    0.4758000000000000 C
   0.0828866666666667    0.4771900000000000    0.4697900000000000 C
   0.0394100000000000    0.4320600000000000    0.4530000000000000 C
   0.1541400000000000    0.4472400000000000    0.4931450000000000 C
   0.0939366666666667    0.7905000000000000    0.4602500000000000 C
   0.0601966666666667    0.7390900000000000    0.4131500000000000 C
   0.0637400000000000    0.7497600000000000    0.3610150000000000 C
   0.0293133333333333    0.6997600000000000    0.3123000000000000 C
   0.0335966666666667    0.7119799999999999    0.2620650000000000 C
   0.0728433333333333    0.7739000000000000    0.2578500000000000 C
   0.1068233333333333    0.8245200000000000    0.3048100000000000 C
   0.1031900000000000    0.8144600000000000    0.3569850000000000 C
   0.1372666666666666    0.8669000000000000    0.4058450000000000 C
   0.1328633333333333    0.8548800000000000    0.4560150000000000 C
   0.0894400000000000    0.7819000000000000    0.0149000000000000 C
   0.0771033333333333    0.7820600000000000    0.2030250000000000 C
   0.2099033333333333    0.8958199999999999    0.1286000000000000 C
   0.2535266666666667    0.9299900000000000    0.1480600000000000 C
   0.2750166666666666    0.9521300000000000    0.2044500000000000 C
   0.2495533333333333    0.9380100000000000    0.2385750000000000 C
   0.2060733333333333    0.9042900000000000    0.2160100000000000 C
   0.3208100000000000    0.9871600000000000    0.2236450000000000 C
   0.0727666666666667    0.0794100000000000    0.1047100000000000 C
   0.1064533333333333    0.1736300000000000    0.1306100000000000 C
   0.1028966666666667    0.2779700000000000    0.1253250000000000 C
   0.1372633333333333    0.3754000000000000    0.1505500000000000 C
   0.1329633333333333    0.4758800000000000    0.1444450000000000 C
   0.0937600000000000    0.4842900000000000    0.1132950000000000 C
   0.0598333333333333    0.3903800000000000    0.0878050000000000 C
   0.0634866666666667    0.2860200000000000    0.0927850000000000 C
   0.0294600000000000    0.1883200000000000    0.0663700000000000 C
   0.0338766666666667    0.0879700000000000    0.0723700000000000 C
   0.0772533333333333    0.9701500000000000    0.1089700000000000 C
   0.0895166666666667    0.5939300000000000    0.1091300000000000 C
   0.2900900000000000    0.7427700000000000    0.0531500000000000 C
   0.2464666666666666    0.7039500000000000    0.0362100000000000 C
   0.2249700000000000    0.5910200000000000    0.0241600000000000 C
   0.2504300000000000    0.5227700000000000    0.0301550000000000 C
   0.2939066666666666    0.5679000000000000    0.0469600000000000 C
   0.1791766666666667    0.5527100000000000    0.0068050000000000 C
   0.5727133333333333    0.2095300000000000    0.0397200000000000 C
   0.6064633333333334    0.2608200000000000    0.0868400000000000 C
   0.6029233333333333    0.2501000000000000    0.1389950000000000 C
   0.6373700000000000    0.2999300000000000    0.1877100000000000 C
   0.6330800000000000    0.2877000000000000    0.2379000000000000 C
   0.5938166666666667    0.2259000000000000    0.2421550000000000 C
   0.5598300000000000    0.1753500000000000    0.1951950000000000 C
   0.5634666666666667    0.1854200000000000    0.1430000000000000 C
   0.5293733333333333    0.1331300000000000    0.0941600000000000 C
   0.5337766666666667    0.1452000000000000    0.0439950000000000 C
   0.5772066666666666    0.2181500000000000    0.4850800000000000 C
   0.5895533333333334    0.2178200000000000    0.2969850000000000 C
   0.4567500000000000    0.1041600000000000    0.3713650000000000 C
   0.4131233333333333    0.0699200000000000    0.3519500000000000 C
   0.3916300000000000    0.0476600000000000    0.2955200000000000 C
   0.4170966666666667    0.0617200000000000    0.2614300000000000 C
   0.4605766666666666    0.0955000000000000    0.2839950000000000 C
   0.3458400000000000    0.0126000000000000    0.2763600000000000 C
   0.5938800000000000    0.9205800000000000    0.3953450000000000 C
   0.5601933333333333    0.8263700000000000    0.3694000000000000 C
   0.5637633333333333    0.7220200000000000    0.3746500000000000 C
   0.5293933333333334    0.6245800000000000    0.3494200000000000 C
   0.5336966666666667    0.5241000000000000    0.3554850000000000 C
   0.5728966666666666    0.5156900000000000    0.3866500000000000 C
   0.6068233333333333    0.6095900000000000    0.4121500000000000 C
   0.6031599999999999    0.7139500000000000    0.4072300000000000 C
   0.6371899999999999    0.8116500000000000    0.4336450000000000 C
   0.6327666666666667    0.9120000000000000    0.4276500000000000 C
   0.5893966666666666    0.0298400000000000    0.3910850000000000 C
   0.5771400000000000    0.4060500000000000    0.3908350000000000 C
   0.3765600000000000    0.2571900000000000    0.4468400000000000 C
   0.4201833333333333    0.2960000000000000    0.4637750000000000 C
   0.4416800000000000    0.4089300000000000    0.4758000000000000 C
   0.4162200000000000    0.4771900000000000    0.4697900000000000 C
   0.3727433333333333    0.4320600000000000    0.4530000000000000 C
   0.4874733333333333    0.4472400000000000    0.4931450000000000 C
   0.4272700000000000    0.7905000000000000    0.4602500000000000 C
   0.3935300000000000    0.7390900000000000    0.4131500000000000 C
   0.3970733333333333    0.7497600000000000    0.3610150000000000 C
   0.3626466666666667    0.6997600000000000    0.3123000000000000 C
   0.3669300000000000    0.7119799999999999    0.2620650000000000 C
   0.4061766666666666    0.7739000000000000    0.2578500000000000 C
   0.4401566666666666    0.8245200000000000    0.3048100000000000 C
   0.4365233333333333    0.8144600000000000    0.3569850000000000 C
   0.4706000000000000    0.8669000000000000    0.4058450000000000 C
   0.4661966666666666    0.8548800000000000    0.4560150000000000 C
   0.4227733333333333    0.7819000000000000    0.0149000000000000 C
   0.4104366666666667    0.7820600000000000    0.2030250000000000 C
   0.5432366666666666    0.8958199999999999    0.1286000000000000 C
   0.5868599999999999    0.9299900000000000    0.1480600000000000 C
   0.6083499999999999    0.9521300000000000    0.2044500000000000 C
   0.5828866666666667    0.9380100000000000    0.2385750000000000 C
   0.5394066666666666    0.9042900000000000    0.2160100000000000 C
   0.6541433333333333    0.9871600000000000    0.2236450000000000 C
   0.4061000000000000    0.0794100000000000    0.1047100000000000 C
   0.4397866666666667    0.1736300000000000    0.1306100000000000 C
   0.4362300000000000    0.2779700000000000    0.1253250000000000 C
   0.4705966666666667    0.3754000000000000    0.1505500000000000 C
   0.4662966666666666    0.4758800000000000    0.1444450000000000 C
   0.4270933333333333    0.4842900000000000    0.1132950000000000 C
   0.3931666666666667    0.3903800000000000    0.0878050000000000 C
   0.3968200000000000    0.2860200000000000    0.0927850000000000 C
   0.3627933333333333    0.1883200000000000    0.0663700000000000 C
   0.3672100000000000    0.0879700000000000    0.0723700000000000 C
   0.4105866666666667    0.9701500000000000    0.1089700000000000 C
   0.4228499999999999    0.5939300000000000    0.1091300000000000 C
   0.6234233333333332    0.7427700000000000    0.0531500000000000 C
   0.5798000000000000    0.7039500000000000    0.0362100000000000 C
   0.5583033333333334    0.5910200000000000    0.0241600000000000 C
   0.5837633333333333    0.5227700000000000    0.0301550000000000 C
   0.6272400000000000    0.5679000000000000    0.0469600000000000 C
   0.5125100000000000    0.5527100000000000    0.0068050000000000 C
   0.9060466666666667    0.2095300000000000    0.0397200000000000 C
   0.9397966666666666    0.2608200000000000    0.0868400000000000 C
   0.9362566666666666    0.2501000000000000    0.1389950000000000 C
   0.9707033333333333    0.2999300000000000    0.1877100000000000 C
   0.9664133333333333    0.2877000000000000    0.2379000000000000 C
   0.9271499999999999    0.2259000000000000    0.2421550000000000 C
   0.8931633333333333    0.1753500000000000    0.1951950000000000 C
   0.8967999999999999    0.1854200000000000    0.1430000000000000 C
   0.8627066666666666    0.1331300000000000    0.0941600000000000 C
   0.8671099999999999    0.1452000000000000    0.0439950000000000 C
   0.9105399999999999    0.2181500000000000    0.4850800000000000 C