H4 C8 O4
1.0
  27.4559993978225378    0.0000000000000000    0.0057503711510897
  -0.0203244343708409   14.0299852251646477    0.0012243484687208
   0.0000000000000000    0.0000000000000000   32.2680000000000007
H C O
4 8 4
direct
   0.8926650000000000    0.9665600000000000    0.4075000000000000 H
   0.8871650000000000    0.0823000000000000    0.3483250000000000 H
   0.7376700000000000    0.9251200000000001    0.4028450000000000 H
   0.7321700000000000    0.0408600000000000    0.3436300000000000 H
   0.8186850000000000    0.8691700000000000    0.4430150000000000 C
   0.8154749999999999    0.9389900000000000    0.4084500000000000 C
   0.8577800000000000    0.9832600000000000    0.3932550000000000 C
   0.8547600000000000    0.0473800000000000    0.3605350000000000 C
   0.7700700000000000    0.9601000000000000    0.3906500000000000 C
   0.7670500000000000    0.0242000000000000    0.3579300000000000 C
   0.8093850000000000    0.0680800000000000    0.3425900000000000 C
   0.8062549999999999    0.1361100000000000    0.3073450000000000 C
   0.8463350000000001    0.1708300000000000    0.2937650000000000 O
   0.8610249999999999    0.8492300000000000    0.4568750000000000 O
   0.7639549999999999    0.1550600000000000    0.2931550000000000 O
   0.7786350000000000    0.8336100000000000    0.4562350000000000 O
