V32 H124 C248 O124
1.0
  27.4559993978225378    0.0000000000000000    0.0057503711510897
  -0.0203244343708409   14.0299852251646477    0.0012243484687208
   0.0000000000000000    0.0000000000000000   32.2680000000000007
V H C O
32 124 248 124
direct
   0.3590750000000000    0.2645200000000000    0.2490550000000000 V
   0.0159200000000000    0.7353900000000000    0.4990600000000000 V
   0.2659150000000000    0.7354000000000001    0.4990550000000000 V
   0.1409150000000000    0.7645400000000000    0.4992000000000000 V
   0.3909050000000000    0.7645300000000000    0.4992250000000000 V
   0.2340850000000000    0.2353900000000000    0.2492300000000000 V
   0.4840800000000000    0.2353800000000000    0.2492300000000000 V
   0.1090800000000000    0.2645300000000000    0.2490500000000000 V
   0.8590750000000000    0.2645200000000000    0.2490550000000000 V
   0.5159200000000000    0.7353900000000000    0.4990600000000000 V
   0.7659150000000000    0.7354000000000001    0.4990550000000000 V
   0.6409150000000000    0.7645400000000000    0.4992000000000000 V
   0.8909050000000001    0.7645300000000000    0.4992250000000000 V
   0.7340850000000000    0.2353900000000000    0.2492300000000000 V
   0.9840800000000001    0.2353800000000000    0.2492300000000000 V
   0.6090800000000000    0.2645300000000000    0.2490500000000000 V
   0.3590750000000000    0.2645200000000000    0.7490550000000000 V
   0.0159200000000000    0.7353900000000000    0.9990600000000001 V
   0.2659150000000000    0.7354000000000001    0.9990550000000000 V
   0.1409150000000000    0.7645400000000000    0.9992000000000000 V
   0.3909050000000000    0.7645300000000000    0.9992250000000000 V
   0.2340850000000000    0.2353900000000000    0.7492300000000001 V
   0.4840800000000000    0.2353800000000000    0.7492300000000001 V
   0.1090800000000000    0.2645300000000000    0.7490500000000000 V
   0.8590750000000000    0.2645200000000000    0.7490550000000000 V
   0.5159200000000000    0.7353900000000000    0.9990600000000001 V
   0.7659150000000000    0.7354000000000001    0.9990550000000000 V
   0.6409150000000000    0.7645400000000000    0.9992000000000000 V
   0.8909050000000001    0.7645300000000000    0.9992250000000000 V
   0.7340850000000000    0.2353900000000000    0.7492300000000001 V
   0.9840800000000001    0.2353800000000000    0.7492300000000001 V
   0.6090800000000000    0.2645300000000000    0.7490500000000000 V
   0.1426650000000000    0.9665600000000000    0.4075400000000000 H
   0.3926650000000000    0.9665600000000000    0.4075000000000000 H
   0.1371700000000000    0.0822900000000000    0.3483250000000000 H
   0.3871650000000000    0.0823000000000000    0.3483250000000000 H
   0.2376700000000000    0.9251200000000001    0.4028450000000000 H
   0.4876700000000000    0.9249800000000000    0.4027850000000000 H
   0.2321700000000000    0.0408600000000000    0.3436300000000000 H
   0.4821750000000000    0.0407200000000000    0.3435750000000000 H
   0.2323450000000000    0.0333600000000000    0.1575850000000000 H
   0.4823450000000000    0.0333800000000000    0.1575850000000000 H
   0.2378100000000000    0.9176400000000000    0.0983500000000000 H
   0.4878050000000000    0.9176500000000000    0.0983750000000000 H
   0.1373450000000000    0.0748800000000000    0.1527500000000000 H
   0.3873350000000000    0.0747900000000000    0.1527900000000000 H
   0.1428100000000000    0.9591499999999999    0.0935400000000000 H
   0.3928050000000000    0.9590700000000000    0.0935750000000000 H
   0.1074850000000000    0.4660600000000000    0.3405550000000000 H
   0.3574850000000000    0.4661100000000000    0.3405300000000000 H
   0.1127350000000000    0.5818600000000000    0.3997600000000000 H
   0.3627350000000000    0.5819000000000000    0.3997400000000000 H
   0.0124650000000000    0.4254900000000000    0.3456800000000000 H
   0.2624600000000000    0.4255000000000000    0.3456800000000000 H
   0.0177150000000000    0.5412900000000000    0.4048800000000000 H
   0.2677100000000000    0.5413100000000000    0.4048500000000000 H
   0.0175050000000000    0.5339600000000000    0.0905350000000000 H
   0.2674850000000000    0.5338600000000000    0.0904900000000000 H
   0.0122800000000000    0.4181300000000000    0.1497400000000000 H
   0.2622650000000000    0.4180300000000000    0.1497000000000000 H
   0.1125250000000000    0.5745000000000000    0.0957500000000000 H
   0.3625100000000000    0.5743900000000000    0.0957150000000000 H
   0.1073000000000000    0.4586500000000000    0.1549500000000000 H
   0.3572850000000000    0.4585400000000000    0.1549150000000000 H
   0.6426650000000000    0.9665600000000000    0.4075400000000000 H
   0.6371700000000000    0.0822900000000000    0.3483250000000000 H
   0.9876700000000000    0.9249800000000000    0.4027850000000000 H
   0.9821750000000000    0.0407200000000000    0.3435750000000000 H
   0.7323450000000000    0.0333600000000000    0.1575850000000000 H
   0.9823450000000000    0.0333800000000000    0.1575850000000000 H
   0.7378100000000000    0.9176400000000000    0.0983500000000000 H
   0.9878050000000000    0.9176500000000000    0.0983750000000000 H
   0.6373450000000001    0.0748800000000000    0.1527500000000000 H
   0.8873350000000000    0.0747900000000000    0.1527900000000000 H
   0.6428100000000000    0.9591499999999999    0.0935400000000000 H
   0.8928050000000001    0.9590700000000000    0.0935750000000000 H
   0.6074850000000001    0.4660600000000000    0.3405550000000000 H
   0.8574850000000001    0.4661100000000000    0.3405300000000000 H
   0.6127350000000000    0.5818600000000000    0.3997600000000000 H
   0.8627350000000000    0.5819000000000000    0.3997400000000000 H
   0.5124649999999999    0.4254900000000000    0.3456800000000000 H
   0.7624600000000000    0.4255000000000000    0.3456800000000000 H
   0.5177150000000000    0.5412900000000000    0.4048800000000000 H
   0.7677100000000000    0.5413100000000000    0.4048500000000000 H
   0.5175050000000000    0.5339600000000000    0.0905350000000000 H
   0.7674850000000000    0.5338600000000000    0.0904900000000000 H
   0.5122800000000000    0.4181300000000000    0.1497400000000000 H
   0.7622650000000000    0.4180300000000000    0.1497000000000000 H
   0.6125250000000000    0.5745000000000000    0.0957500000000000 H
   0.8625100000000000    0.5743900000000000    0.0957150000000000 H
   0.6073000000000000    0.4586500000000000    0.1549500000000000 H
   0.8572850000000001    0.4585400000000000    0.1549150000000000 H
   0.1426650000000000    0.9665600000000000    0.9075400000000000 H
   0.3926650000000000    0.9665600000000000    0.9075000000000000 H
   0.1371700000000000    0.0822900000000000    0.8483250000000000 H
   0.3871650000000000    0.0823000000000000    0.8483250000000000 H
   0.2376700000000000    0.9251200000000001    0.9028450000000000 H
   0.4876700000000000    0.9249800000000000    0.9027849999999999 H
   0.2321700000000000    0.0408600000000000    0.8436300000000000 H
   0.4821750000000000    0.0407200000000000    0.8435750000000000 H
   0.2323450000000000    0.0333600000000000    0.6575850000000000 H
   0.4823450000000000    0.0333800000000000    0.6575850000000000 H
   0.2378100000000000    0.9176400000000000    0.5983500000000000 H
   0.4878050000000000    0.9176500000000000    0.5983750000000000 H
   0.1373450000000000    0.0748800000000000    0.6527499999999999 H
   0.3873350000000000    0.0747900000000000    0.6527900000000000 H
   0.1428100000000000    0.9591499999999999    0.5935400000000000 H
   0.3928050000000000    0.9590700000000000    0.5935750000000000 H
   0.1074850000000000    0.4660600000000000    0.8405549999999999 H
   0.3574850000000000    0.4661100000000000    0.8405300000000000 H
   0.1127350000000000    0.5818600000000000    0.8997600000000000 H
   0.3627350000000000    0.5819000000000000    0.8997400000000000 H
   0.0124650000000000    0.4254900000000000    0.8456800000000000 H
   0.2624600000000000    0.4255000000000000    0.8456800000000000 H
   0.0177150000000000    0.5412900000000000    0.9048800000000000 H
   0.2677100000000000    0.5413100000000000    0.9048499999999999 H
   0.0175050000000000    0.5339600000000000    0.5905350000000000 H
   0.2674850000000000    0.5338600000000000    0.5904900000000000 H
   0.0122800000000000    0.4181300000000000    0.6497400000000000 H
   0.2622650000000000    0.4180300000000000    0.6496999999999999 H
   0.1125250000000000    0.5745000000000000    0.5957500000000000 H
   0.3625100000000000    0.5743900000000000    0.5957150000000000 H
   0.1073000000000000    0.4586500000000000    0.6549500000000000 H
   0.3572850000000000    0.4585400000000000    0.6549150000000000 H
   0.6426650000000000    0.9665600000000000    0.9075400000000000 H
   0.8926650000000000    0.9665600000000000    0.9075000000000000 H
   0.6371700000000000    0.0822900000000000    0.8483250000000000 H
   0.8871650000000000    0.0823000000000000    0.8483250000000000 H
   0.7376700000000000    0.9251200000000001    0.9028450000000000 H
   0.9876700000000000    0.9249800000000000    0.9027849999999999 H
   0.7321700000000000    0.0408600000000000    0.8436300000000000 H
   0.9821750000000000    0.0407200000000000    0.8435750000000000 H
   0.7323450000000000    0.0333600000000000    0.6575850000000000 H
   0.9823450000000000    0.0333800000000000    0.6575850000000000 H
   0.7378100000000000    0.9176400000000000    0.5983500000000000 H
   0.9878050000000000    0.9176500000000000    0.5983750000000000 H
   0.6373450000000001    0.0748800000000000    0.6527499999999999 H
   0.8873350000000000    0.0747900000000000    0.6527900000000000 H
   0.6428100000000000    0.9591499999999999    0.5935400000000000 H
   0.8928050000000001    0.9590700000000000    0.5935750000000000 H
   0.6074850000000001    0.4660600000000000    0.8405549999999999 H
   0.8574850000000001    0.4661100000000000    0.8405300000000000 H
   0.6127350000000000    0.5818600000000000    0.8997600000000000 H
   0.8627350000000000    0.5819000000000000    0.8997400000000000 H
   0.5124649999999999    0.4254900000000000    0.8456800000000000 H
   0.7624600000000000    0.4255000000000000    0.8456800000000000 H
   0.5177150000000000    0.5412900000000000    0.9048800000000000 H
   0.7677100000000000    0.5413100000000000    0.9048499999999999 H
   0.5175050000000000    0.5339600000000000    0.5905350000000000 H
   0.7674850000000000    0.5338600000000000    0.5904900000000000 H
   0.5122800000000000    0.4181300000000000    0.6497400000000000 H
   0.7622650000000000    0.4180300000000000    0.6496999999999999 H
   0.6125250000000000    0.5745000000000000    0.5957500000000000 H
   0.8625100000000000    0.5743900000000000    0.5957150000000000 H
   0.6073000000000000    0.4586500000000000    0.6549500000000000 H
   0.8572850000000001    0.4585400000000000    0.6549150000000000 H
   0.0686900000000000    0.8691400000000000    0.4430050000000000 C
   0.3186850000000000    0.8691700000000000    0.4430150000000000 C
   0.0654800000000000    0.9389300000000000    0.4084250000000000 C
   0.3154750000000000    0.9389900000000000    0.4084500000000000 C
   0.1077850000000000    0.9832300000000000    0.3932450000000000 C
   0.3577800000000000    0.9832600000000000    0.3932550000000000 C
   0.1047650000000000    0.0473400000000000    0.3605250000000000 C
   0.3547600000000000    0.0473800000000000    0.3605350000000000 C
   0.0200800000000000    0.9599900000000000    0.3906100000000000 C
   0.2700700000000000    0.9601000000000000    0.3906500000000000 C
   0.0170650000000000    0.0240900000000000    0.3578500000000000 C
   0.2670500000000000    0.0242000000000000    0.3579300000000000 C
   0.0593950000000000    0.0680200000000000    0.3425650000000000 C
   0.3093850000000000    0.0680800000000000    0.3425900000000000 C
   0.0562650000000000    0.1360800000000000    0.3073350000000000 C
   0.3062550000000000    0.1361100000000000    0.3073450000000000 C
   0.0563400000000000    0.1307800000000000    0.1930050000000000 C
   0.3063250000000000    0.1307600000000000    0.1930000000000000 C
   0.0595450000000000    0.0609800000000000    0.1584300000000000 C
   0.3095350000000000    0.0609300000000000    0.1584450000000000 C
   0.0172350000000000    0.0166900000000000    0.1432750000000000 C
   0.2672200000000000    0.0166600000000000    0.1432800000000000 C
   0.0202350000000000    0.9525800000000000    0.1105500000000000 C
   0.2702250000000000    0.9525500000000000    0.1105600000000000 C
   0.1049350000000000    0.0398900000000000    0.1405900000000000 C
   0.3549300000000000    0.0398200000000000    0.1406200000000000 C
   0.1079400000000000    0.9757900000000000    0.1078700000000000 C
   0.3579350000000000    0.9757200000000000    0.1079000000000000 C
   0.0655950000000000    0.9318900000000000    0.0925700000000000 C
   0.3155900000000000    0.9318400000000000    0.0925850000000000 C
   0.0687200000000000    0.8638400000000001    0.0573350000000000 C
   0.3187150000000000    0.8638200000000000    0.0573400000000000 C
   0.1815000000000000    0.3691200000000000    0.3052800000000000 C
   0.4314950000000000    0.3691200000000000    0.3052500000000000 C
   0.1846650000000000    0.4389400000000000    0.3398500000000000 C
   0.4346600000000000    0.4389600000000000    0.3398000000000000 C
   0.1423100000000000    0.4830000000000000    0.3549300000000000 C
   0.3923050000000000    0.4830300000000000    0.3549150000000000 C
   0.1451950000000000    0.5471200000000001    0.3876500000000000 C
   0.3951950000000000    0.5471600000000000    0.3876350000000000 C
   0.2300050000000000    0.4602900000000000    0.3577650000000000 C
   0.4800000000000000    0.4602900000000000    0.3577600000000000 C
   0.2328900000000000    0.5244300000000000    0.3904800000000000 C
   0.4828850000000000    0.5244200000000000    0.3904500000000000 C
   0.1905050000000000    0.5680900000000000    0.4057050000000000 C
   0.4405000000000000    0.5681000000000000    0.4056950000000000 C
   0.1935850000000000    0.6361599999999999    0.4409400000000000 C
   0.4435800000000000    0.6361599999999999    0.4409350000000000 C
   0.1934700000000000    0.6308300000000000    0.0552850000000000 C
   0.4434650000000000    0.6308300000000000    0.0552850000000000 C
   0.1903100000000000    0.5610100000000000    0.0898600000000000 C
   0.4403050000000000    0.5610100000000000    0.0898500000000000 C
   0.2326750000000000    0.5169400000000000    0.1049000000000000 C
   0.4826750000000000    0.5169899999999999    0.1049250000000000 C
   0.2298050000000000    0.4527900000000000    0.1376200000000000 C
   0.4798050000000000    0.4528400000000000    0.1376450000000000 C
   0.1449800000000000    0.5396800000000000    0.1078000000000000 C
   0.3949700000000000    0.5396200000000000    0.1077900000000000 C
   0.1421050000000000    0.4755300000000000    0.1405000000000000 C
   0.3920950000000000    0.4754700000000000    0.1405000000000000 C
   0.1845000000000000    0.4318400000000000    0.1557100000000000 C
   0.4344950000000000    0.4318300000000000    0.1557100000000000 C
   0.1814350000000000    0.3637700000000000    0.1909450000000000 C
   0.4314250000000000    0.3637500000000000    0.1909400000000000 C
   0.5686900000000000    0.8691400000000000    0.4430050000000000 C
   0.5654800000000000    0.9389300000000000    0.4084250000000000 C
   0.6077850000000000    0.9832300000000000    0.3932450000000000 C
   0.6047650000000000    0.0473400000000000    0.3605250000000000 C
   0.5200800000000000    0.9599900000000000    0.3906100000000000 C
   0.5170650000000000    0.0240900000000000    0.3578500000000000 C
   0.5593950000000000    0.0680200000000000    0.3425650000000000 C
   0.5562650000000000    0.1360800000000000    0.3073350000000000 C
   0.5563400000000001    0.1307800000000000    0.1930050000000000 C
   0.8063250000000000    0.1307600000000000    0.1930000000000000 C
   0.5595450000000000    0.0609800000000000    0.1584300000000000 C
   0.8095350000000000    0.0609300000000000    0.1584450000000000 C
   0.5172350000000000    0.0166900000000000    0.1432750000000000 C
   0.7672200000000000    0.0166600000000000    0.1432800000000000 C
   0.5202350000000000    0.9525800000000000    0.1105500000000000 C
   0.7702249999999999    0.9525500000000000    0.1105600000000000 C
   0.6049350000000000    0.0398900000000000    0.1405900000000000 C
   0.8549300000000000    0.0398200000000000    0.1406200000000000 C
   0.6079400000000000    0.9757900000000000    0.1078700000000000 C
   0.8579350000000000    0.9757200000000000    0.1079000000000000 C
   0.5655950000000000    0.9318900000000000    0.0925700000000000 C
   0.8155900000000000    0.9318400000000000    0.0925850000000000 C
   0.5687200000000000    0.8638400000000001    0.0573350000000000 C
   0.8187150000000001    0.8638200000000000    0.0573400000000000 C
   0.6815000000000000    0.3691200000000000    0.3052800000000000 C
   0.9314950000000000    0.3691200000000000    0.3052500000000000 C
   0.6846650000000000    0.4389400000000000    0.3398500000000000 C
   0.9346600000000000    0.4389600000000000    0.3398000000000000 C
   0.6423099999999999    0.4830000000000000    0.3549300000000000 C
   0.8923050000000000    0.4830300000000000    0.3549150000000000 C
   0.6451950000000000    0.5471200000000001    0.3876500000000000 C
   0.8951950000000000    0.5471600000000000    0.3876350000000000 C
   0.7300050000000000    0.4602900000000000    0.3577650000000000 C
   0.9800000000000000    0.4602900000000000    0.3577600000000000 C
   0.7328900000000000    0.5244300000000000    0.3904800000000000 C
   0.9828850000000000    0.5244200000000000    0.3904500000000000 C
   0.6905050000000000    0.5680900000000000    0.4057050000000000 C
   0.9405000000000000    0.5681000000000000    0.4056950000000000 C
   0.6935850000000000    0.6361599999999999    0.4409400000000000 C
   0.9435800000000000    0.6361599999999999    0.4409350000000000 C
   0.6934700000000000    0.6308300000000000    0.0552850000000000 C
   0.9434650000000000    0.6308300000000000    0.0552850000000000 C
   0.6903100000000000    0.5610100000000000    0.0898600000000000 C
   0.9403049999999999    0.5610100000000000    0.0898500000000000 C
   0.7326750000000000    0.5169400000000000    0.1049000000000000 C
   0.9826750000000000    0.5169899999999999    0.1049250000000000 C
   0.7298050000000000    0.4527900000000000    0.1376200000000000 C
   0.9798050000000000    0.4528400000000000    0.1376450000000000 C
   0.6449800000000000    0.5396800000000000    0.1078000000000000 C
   0.8949700000000000    0.5396200000000000    0.1077900000000000 C
   0.6421050000000000    0.4755300000000000    0.1405000000000000 C
   0.8920950000000001    0.4754700000000000    0.1405000000000000 C
   0.6845000000000000    0.4318400000000000    0.1557100000000000 C
   0.9344950000000001    0.4318300000000000    0.1557100000000000 C
   0.6814350000000000    0.3637700000000000    0.1909450000000000 C
   0.9314249999999999    0.3637500000000000    0.1909400000000000 C
   0.0686900000000000    0.8691400000000000    0.9430050000000000 C
   0.3186850000000000    0.8691700000000000    0.9430149999999999 C
   0.0654800000000000    0.9389300000000000    0.9084250000000000 C
   0.3154750000000000    0.9389900000000000    0.9084500000000000 C
   0.1077850000000000    0.9832300000000000    0.8932450000000001 C
   0.3577800000000000    0.9832600000000000    0.8932550000000000 C
   0.1047650000000000    0.0473400000000000    0.8605250000000000 C
   0.3547600000000000    0.0473800000000000    0.8605350000000000 C
   0.0200800000000000    0.9599900000000000    0.8906100000000000 C
   0.2700700000000000    0.9601000000000000    0.8906499999999999 C
   0.0170650000000000    0.0240900000000000    0.8578500000000000 C
   0.2670500000000000    0.0242000000000000    0.8579300000000001 C
   0.0593950000000000    0.0680200000000000    0.8425650000000000 C
   0.3093850000000000    0.0680800000000000    0.8425900000000000 C
   0.0562650000000000    0.1360800000000000    0.8073350000000000 C
   0.3062550000000000    0.1361100000000000    0.8073450000000000 C
   0.0563400000000000    0.1307800000000000    0.6930050000000000 C
   0.3063250000000000    0.1307600000000000    0.6930000000000001 C
   0.0595450000000000    0.0609800000000000    0.6584300000000000 C
   0.3095350000000000    0.0609300000000000    0.6584449999999999 C
   0.0172350000000000    0.0166900000000000    0.6432750000000000 C
   0.2672200000000000    0.0166600000000000    0.6432800000000000 C
   0.0202350000000000    0.9525800000000000    0.6105500000000000 C
   0.2702250000000000    0.9525500000000000    0.6105600000000000 C
   0.1049350000000000    0.0398900000000000    0.6405900000000000 C
   0.3549300000000000    0.0398200000000000    0.6406200000000000 C
   0.1079400000000000    0.9757900000000000    0.6078700000000000 C
   0.3579350000000000    0.9757200000000000    0.6079000000000000 C
   0.0655950000000000    0.9318900000000000    0.5925700000000000 C
   0.3155900000000000    0.9318400000000000    0.5925850000000000 C
   0.0687200000000000    0.8638400000000001    0.5573350000000000 C
   0.3187150000000000    0.8638200000000000    0.5573399999999999 C
   0.1815000000000000    0.3691200000000000    0.8052800000000000 C
   0.4314950000000000    0.3691200000000000    0.8052500000000000 C
   0.1846650000000000    0.4389400000000000    0.8398500000000000 C
   0.4346600000000000    0.4389600000000000    0.8398000000000000 C
   0.1423100000000000    0.4830000000000000    0.8549300000000000 C
   0.3923050000000000    0.4830300000000000    0.8549150000000000 C
   0.1451950000000000    0.5471200000000001    0.8876500000000001 C
   0.3951950000000000    0.5471600000000000    0.8876350000000000 C
   0.2300050000000000    0.4602900000000000    0.8577650000000000 C
   0.4800000000000000    0.4602900000000000    0.8577600000000001 C
   0.2328900000000000    0.5244300000000000    0.8904799999999999 C
   0.4828850000000000    0.5244200000000000    0.8904500000000000 C
   0.1905050000000000    0.5680900000000000    0.9057050000000000 C
   0.4405000000000000    0.5681000000000000    0.9056949999999999 C
   0.1935850000000000    0.6361599999999999    0.9409400000000000 C
   0.4435800000000000    0.6361599999999999    0.9409350000000001 C
   0.1934700000000000    0.6308300000000000    0.5552850000000000 C
   0.4434650000000000    0.6308300000000000    0.5552850000000000 C
   0.1903100000000000    0.5610100000000000    0.5898600000000001 C
   0.4403050000000000    0.5610100000000000    0.5898500000000000 C
   0.2326750000000000    0.5169400000000000    0.6049000000000000 C
   0.4826750000000000    0.5169899999999999    0.6049250000000000 C
   0.2298050000000000    0.4527900000000000    0.6376200000000000 C
   0.4798050000000000    0.4528400000000000    0.6376450000000000 C
   0.1449800000000000    0.5396800000000000    0.6078000000000000 C
   0.3949700000000000    0.5396200000000000    0.6077900000000001 C
   0.1421050000000000    0.4755300000000000    0.6405000000000001 C
   0.3920950000000000    0.4754700000000000    0.6405000000000001 C
   0.1845000000000000    0.4318400000000000    0.6557100000000000 C
   0.4344950000000000    0.4318300000000000    0.6557100000000000 C
   0.1814350000000000    0.3637700000000000    0.6909450000000000 C
   0.4314250000000000    0.3637500000000000    0.6909400000000000 C
   0.5686900000000000    0.8691400000000000    0.9430050000000000 C
   0.8186850000000000    0.8691700000000000    0.9430149999999999 C
   0.5654800000000000    0.9389300000000000    0.9084250000000000 C
   0.8154749999999999    0.9389900000000000    0.9084500000000000 C
   0.6077850000000000    0.9832300000000000    0.8932450000000001 C
   0.8577800000000000    0.9832600000000000    0.8932550000000000 C
   0.6047650000000000    0.0473400000000000    0.8605250000000000 C
   0.8547600000000000    0.0473800000000000    0.8605350000000000 C
   0.5200800000000000    0.9599900000000000    0.8906100000000000 C
   0.7700700000000000    0.9601000000000000    0.8906499999999999 C
   0.5170650000000000    0.0240900000000000    0.8578500000000000 C
   0.7670500000000000    0.0242000000000000    0.8579300000000001 C
   0.5593950000000000    0.0680200000000000    0.8425650000000000 C
   0.8093850000000000    0.0680800000000000    0.8425900000000000 C
   0.5562650000000000    0.1360800000000000    0.8073350000000000 C
   0.8062549999999999    0.1361100000000000    0.8073450000000000 C
   0.5563400000000001    0.1307800000000000    0.6930050000000000 C
   0.8063250000000000    0.1307600000000000    0.6930000000000001 C
   0.5595450000000000    0.0609800000000000    0.6584300000000000 C
   0.8095350000000000    0.0609300000000000    0.6584449999999999 C
   0.5172350000000000    0.0166900000000000    0.6432750000000000 C
   0.7672200000000000    0.0166600000000000    0.6432800000000000 C
   0.5202350000000000    0.9525800000000000    0.6105500000000000 C
   0.7702249999999999    0.9525500000000000    0.6105600000000000 C
   0.6049350000000000    0.0398900000000000    0.6405900000000000 C
   0.8549300000000000    0.0398200000000000    0.6406200000000000 C
   0.6079400000000000    0.9757900000000000    0.6078700000000000 C
   0.8579350000000000    0.9757200000000000    0.6079000000000000 C
   0.5655950000000000    0.9318900000000000    0.5925700000000000 C
   0.8155900000000000    0.9318400000000000    0.5925850000000000 C
   0.5687200000000000    0.8638400000000001    0.5573350000000000 C
   0.8187150000000001    0.8638200000000000    0.5573399999999999 C
   0.6815000000000000    0.3691200000000000    0.8052800000000000 C
   0.9314950000000000    0.3691200000000000    0.8052500000000000 C
   0.6846650000000000    0.4389400000000000    0.8398500000000000 C
   0.9346600000000000    0.4389600000000000    0.8398000000000000 C
   0.6423099999999999    0.4830000000000000    0.8549300000000000 C
   0.8923050000000000    0.4830300000000000    0.8549150000000000 C
   0.6451950000000000    0.5471200000000001    0.8876500000000001 C
   0.8951950000000000    0.5471600000000000    0.8876350000000000 C
   0.7300050000000000    0.4602900000000000    0.8577650000000000 C
   0.9800000000000000    0.4602900000000000    0.8577600000000001 C
   0.7328900000000000    0.5244300000000000    0.8904799999999999 C
   0.9828850000000000    0.5244200000000000    0.8904500000000000 C
   0.6905050000000000    0.5680900000000000    0.9057050000000000 C
   0.9405000000000000    0.5681000000000000    0.9056949999999999 C
   0.6935850000000000    0.6361599999999999    0.9409400000000000 C
   0.9435800000000000    0.6361599999999999    0.9409350000000001 C
   0.6934700000000000    0.6308300000000000    0.5552850000000000 C
   0.9434650000000000    0.6308300000000000    0.5552850000000000 C
   0.6903100000000000    0.5610100000000000    0.5898600000000001 C
   0.9403049999999999    0.5610100000000000    0.5898500000000000 C
   0.7326750000000000    0.5169400000000000    0.6049000000000000 C
   0.9826750000000000    0.5169899999999999    0.6049250000000000 C
   0.7298050000000000    0.4527900000000000    0.6376200000000000 C
   0.9798050000000000    0.4528400000000000    0.6376450000000000 C
   0.6449800000000000    0.5396800000000000    0.6078000000000000 C
   0.8949700000000000    0.5396200000000000    0.6077900000000001 C
   0.6421050000000000    0.4755300000000000    0.6405000000000001 C
   0.8920950000000001    0.4754700000000000    0.6405000000000001 C
   0.6845000000000000    0.4318400000000000    0.6557100000000000 C
   0.9344950000000001    0.4318300000000000    0.6557100000000000 C
   0.6814350000000000    0.3637700000000000    0.6909450000000000 C
   0.9314249999999999    0.3637500000000000    0.6909400000000000 C
   0.0963450000000000    0.1708200000000000    0.2937600000000000 O
   0.3463350000000000    0.1708300000000000    0.2937650000000000 O
   0.1110300000000000    0.8492300000000000    0.4568700000000000 O
   0.3610250000000000    0.8492300000000000    0.4568750000000000 O
   0.0139650000000000    0.1550400000000000    0.2931500000000000 O
   0.2639550000000000    0.1550600000000000    0.2931550000000000 O
   0.0286350000000000    0.8336000000000000    0.4562300000000000 O
   0.2786350000000000    0.8336100000000000    0.4562350000000000 O
   0.0286450000000000    0.8291300000000000    0.0437600000000000 O
   0.2786400000000000    0.8291200000000000    0.0437650000000000 O
   0.0140000000000000    0.1507100000000000    0.2068750000000000 O
   0.2639850000000000    0.1507100000000000    0.2068500000000000 O
   0.1110250000000000    0.8448800000000000    0.0431400000000000 O
   0.3610200000000000    0.8448700000000000    0.0431400000000000 O
   0.0963900000000000    0.1663300000000000    0.2062200000000000 O
   0.3463750000000000    0.1663100000000000    0.2062250000000000 O
   0.1535250000000000    0.6707900000000000    0.4544950000000000 O
   0.4035200000000000    0.6707900000000000    0.4544900000000000 O
   0.1391550000000000    0.3491600000000000    0.2913700000000000 O
   0.3891500000000000    0.3491600000000000    0.2913650000000000 O
   0.2358950000000000    0.6552000000000000    0.4551500000000000 O
   0.4858850000000000    0.6551900000000001    0.4551550000000000 O
   0.2215350000000000    0.3336100000000000    0.2921050000000000 O
   0.4715250000000000    0.3336100000000000    0.2921050000000000 O
   0.2214900000000000    0.3291600000000000    0.2044900000000000 O
   0.4714850000000000    0.3291500000000000    0.2044950000000000 O
   0.2358150000000000    0.6507900000000000    0.0413650000000000 O
   0.4858100000000000    0.6507900000000000    0.0413700000000000 O
   0.1391200000000000    0.3447100000000000    0.2051600000000000 O
   0.3891150000000000    0.3446800000000000    0.2051550000000000 O
   0.1534400000000000    0.6663400000000000    0.0421200000000000 O
   0.4034300000000000    0.6663300000000000    0.0421200000000000 O
   0.5963450000000000    0.1708200000000000    0.2937600000000000 O