H10 O6
1.0
   9.5344999999999995    0.0000000000000000    0.0000000000000006
  -0.0073482021313318   11.0794975632438053    0.0000000000000007
   0.0000000000000000    0.0000000000000000   34.1180000000000021
H O
10 6
direct
   0.3904248311850640    0.8062062246971033    0.1505799185312617 H
   0.4099321960387720    0.8892637327703430    0.1187993766878145 H
   0.1428152161974733    0.5048765537534814    0.0501032647307613 H
   0.3627491502698402    0.5413121434692731    0.1081398705944257 H
   0.3068760477223739    0.6175462948700197    0.0728342802639405 H
   0.2172883974970204    0.7709701908143627    1.0031850213669216 H
   0.1657719432602532    0.6928635752662441    1.0325661351280031 H
   0.3593976969980853    0.7840019699885696    0.0643867770022914 H
   0.3631677835824331    0.7908496681864804    0.0120133138653003 H
  -0.1410617691666070    0.9734552950212815    0.1462195807349947 H
   0.2990900000000000    0.7744300000000000    0.1434600000000000 O
   0.4999500000000000    0.8485600000000000    0.1182350000000000 O
   0.1906700000000000    0.4985200000000000    0.0251000000000000 O
   0.3783400000000000    0.5585700000000000    0.0803500000000000 O
   0.2283600000000000    0.6845500000000000    0.9998650000000000 O
   0.4330400000000000    0.8022600000000000    0.0453050000000000 O
