Ca16 H60 C60 O90
1.0
   9.5344999999999995    0.0000000000000000    0.0000000000000006
  -0.0073482021313318   11.0794975632438053    0.0000000000000007
   0.0000000000000000    0.0000000000000000   34.1180000000000021
Ca H C O
16 60 60 90
direct
   0.3340000000000000    0.3492200000000000    0.0566750000000000 Ca
   0.1647900000000000    0.6490899999999999    0.4316700000000000 Ca
   0.1647900000000000    0.6490899999999999    0.1816650000000000 Ca
   0.6652300000000000    0.8502600000000000    0.3183000000000000 Ca
   0.6652300000000000    0.8502600000000000    0.0682950000000000 Ca
   0.8341499999999999    0.1500300000000000    0.4433200000000000 Ca
   0.8341499999999999    0.1500300000000000    0.1933150000000000 Ca
   0.3340000000000000    0.3492200000000000    0.3066800000000000 Ca
   0.3340000000000000    0.3492200000000000    0.5566750000000000 Ca
   0.1647900000000000    0.6490899999999999    0.9316700000000000 Ca
   0.1647900000000000    0.6490899999999999    0.6816650000000000 Ca
   0.6652300000000000    0.8502600000000000    0.8183000000000000 Ca
   0.6652300000000000    0.8502600000000000    0.5682950000000000 Ca
   0.8341499999999999    0.1500300000000000    0.9433199999999999 Ca
   0.8341499999999999    0.1500300000000000    0.6933150000000000 Ca
   0.3340000000000000    0.3492200000000000    0.8066800000000001 Ca
   0.7651900000000000    0.3368600000000000    0.3065450000000000 H
   0.7651900000000000    0.3368600000000000    0.0565400000000000 H
   0.8209300000000000    0.1367700000000000    0.2870800000000000 H
   0.8209300000000000    0.1367700000000000    0.0370700000000000 H
   0.6086000000000000    0.2844300000000000    0.3553500000000000 H
   0.6086000000000000    0.2844300000000000    0.1053450000000000 H
   0.6368600000000000    0.0414100000000000    0.2658150000000000 H
   0.6368600000000000    0.0414100000000000    0.0158050000000000 H
   0.7323000000000000    0.6625200000000000    0.4310500000000000 H
   0.7323000000000000    0.6625200000000000    0.1810400000000000 H
   0.6792200000000000    0.8629599999999999    0.4122300000000000 H
   0.6792200000000000    0.8629599999999999    0.1622250000000000 H
   0.8890700000000000    0.7120300000000001    0.4802650000000000 H
   0.8890700000000000    0.7120300000000001    0.2302600000000000 H
   0.8629300000000000    0.9575300000000000    0.3908300000000000 H
   0.8629300000000000    0.9575300000000000    0.1408250000000000 H
   0.2342200000000000    0.8358700000000000    0.3184400000000000 H
   0.1787600000000000    0.6358400000000000    0.3378250000000000 H
   0.3911300000000000    0.7839300000000000    0.2696250000000000 H
   0.3621600000000000    0.5406600000000000    0.3591950000000000 H
   0.2669600000000000    0.1621400000000000    0.4438650000000000 H
   0.2669600000000000    0.1621400000000000    0.1938600000000000 H
   0.3201200000000000    0.3626900000000000    0.4628400000000000 H
   0.3201200000000000    0.3626900000000000    0.2128350000000000 H
   0.1102000000000000    0.2118300000000000    0.3946850000000000 H
   0.1102000000000000    0.2118300000000000    0.1446800000000000 H
   0.1356600000000000    0.4567300000000000    0.4841350000000000 H
   0.1356600000000000    0.4567300000000000    0.2341300000000000 H
   0.7651900000000000    0.3368600000000000    0.8065450000000001 H
   0.7651900000000000    0.3368600000000000    0.5565400000000000 H
   0.8209300000000000    0.1367700000000000    0.7870800000000000 H
   0.8209300000000000    0.1367700000000000    0.5370700000000000 H
   0.6086000000000000    0.2844300000000000    0.8553500000000001 H
   0.6086000000000000    0.2844300000000000    0.6053450000000000 H
   0.6368600000000000    0.0414100000000000    0.7658150000000000 H
   0.6368600000000000    0.0414100000000000    0.5158050000000000 H
   0.7323000000000000    0.6625200000000000    0.9310499999999999 H
   0.7323000000000000    0.6625200000000000    0.6810400000000000 H
   0.6792200000000000    0.8629599999999999    0.9122300000000000 H
   0.6792200000000000    0.8629599999999999    0.6622250000000001 H
   0.8890700000000000    0.7120300000000001    0.9802649999999999 H
   0.8890700000000000    0.7120300000000001    0.7302600000000000 H
   0.8629300000000000    0.9575300000000000    0.8908300000000000 H
   0.8629300000000000    0.9575300000000000    0.6408250000000000 H
   0.2342200000000000    0.8358700000000000    0.8184400000000001 H
   0.2342200000000000    0.8358700000000000    0.5684300000000000 H
   0.1787600000000000    0.6358400000000000    0.8378250000000000 H
   0.1787600000000000    0.6358400000000000    0.5878150000000000 H
   0.3911300000000000    0.7839300000000000    0.7696250000000000 H
   0.3911300000000000    0.7839300000000000    0.5196200000000000 H
   0.3621600000000000    0.5406600000000000    0.8591949999999999 H
   0.3621600000000000    0.5406600000000000    0.6091900000000000 H
   0.2669600000000000    0.1621400000000000    0.9438650000000000 H
   0.2669600000000000    0.1621400000000000    0.6938600000000000 H
   0.3201200000000000    0.3626900000000000    0.9628399999999999 H
   0.3201200000000000    0.3626900000000000    0.7128350000000000 H
   0.1102000000000000    0.2118300000000000    0.8946850000000000 H
   0.1102000000000000    0.2118300000000000    0.6446800000000000 H
   0.1356600000000000    0.4567300000000000    0.9841350000000000 H
   0.1356600000000000    0.4567300000000000    0.7341299999999999 H
   0.6199300000000000    0.3020000000000000    0.2597500000000000 C
   0.6199300000000000    0.3020000000000000    0.0097400000000000 C
   0.6751600000000000    0.2760600000000000    0.3015150000000000 C
   0.6751600000000000    0.2760600000000000    0.0515050000000000 C
   0.7265000000000000    0.1461600000000000    0.3056300000000000 C
   0.7265000000000000    0.1461600000000000    0.0556200000000000 C
   0.7728200000000000    0.1106500000000000    0.3470100000000000 C
   0.7728200000000000    0.1106500000000000    0.0970050000000000 C
   0.8792700000000000    0.6974100000000000    0.3846300000000000 C
   0.8792700000000000    0.6974100000000000    0.1346250000000000 C
   0.8234200000000000    0.7223900000000000    0.4263800000000000 C
   0.8234200000000000    0.7223900000000000    0.1763750000000000 C
   0.7738000000000000    0.8528300000000000    0.4306850000000000 C
   0.7738000000000000    0.8528300000000000    0.1806800000000000 C
   0.7282300000000000    0.8887100000000000    0.4721000000000000 C
   0.7282300000000000    0.8887100000000000    0.2220950000000000 C
   0.3795600000000000    0.8014000000000000    0.3652450000000000 C
   0.3244200000000000    0.7753300000000000    0.3234550000000000 C
   0.2732700000000000    0.6452800000000000    0.3193050000000000 C
   0.2270800000000000    0.6094600000000000    0.2779200000000000 C
   0.1200900000000000    0.1969800000000000    0.4903050000000000 C
   0.1200900000000000    0.1969800000000000    0.2403000000000000 C
   0.1759500000000000    0.2220000000000000    0.4485650000000000 C
   0.1759500000000000    0.2220000000000000    0.1985550000000000 C
   0.2257100000000000    0.3524600000000000    0.4443150000000000 C
   0.2257100000000000    0.3524600000000000    0.1943100000000000 C
   0.2716200000000000    0.3883500000000000    0.4029400000000000 C
   0.2716200000000000    0.3883500000000000    0.1529300000000000 C
   0.6199300000000000    0.3020000000000000    0.7597499999999999 C
   0.6199300000000000    0.3020000000000000    0.5097400000000000 C
   0.6751600000000000    0.2760600000000000    0.8015150000000000 C
   0.6751600000000000    0.2760600000000000    0.5515050000000000 C
   0.7265000000000000    0.1461600000000000    0.8056300000000001 C
   0.7265000000000000    0.1461600000000000    0.5556200000000000 C
   0.7728200000000000    0.1106500000000000    0.8470100000000000 C
   0.7728200000000000    0.1106500000000000    0.5970050000000000 C
   0.8792700000000000    0.6974100000000000    0.8846300000000000 C
   0.8792700000000000    0.6974100000000000    0.6346250000000000 C
   0.8234200000000000    0.7223900000000000    0.9263800000000000 C
   0.8234200000000000    0.7223900000000000    0.6763749999999999 C
   0.7738000000000000    0.8528300000000000    0.9306850000000000 C
   0.7738000000000000    0.8528300000000000    0.6806800000000000 C
   0.7282300000000000    0.8887100000000000    0.9721000000000000 C
   0.7282300000000000    0.8887100000000000    0.7220949999999999 C
   0.3795600000000000    0.8014000000000000    0.8652450000000000 C
   0.3795600000000000    0.8014000000000000    0.6152350000000000 C
   0.3244200000000000    0.7753300000000000    0.8234550000000000 C
   0.3244200000000000    0.7753300000000000    0.5734500000000000 C
   0.2732700000000000    0.6452800000000000    0.8193049999999999 C
   0.2732700000000000    0.6452800000000000    0.5693000000000000 C
   0.2270800000000000    0.6094600000000000    0.7779199999999999 C
   0.2270800000000000    0.6094600000000000    0.5279150000000000 C
   0.1200900000000000    0.1969800000000000    0.9903050000000000 C
   0.1200900000000000    0.1969800000000000    0.7403000000000000 C
   0.1759500000000000    0.2220000000000000    0.9485650000000000 C
   0.1759500000000000    0.2220000000000000    0.6985550000000000 C
   0.2257100000000000    0.3524600000000000    0.9443150000000000 C
   0.2257100000000000    0.3524600000000000    0.6943100000000000 C
   0.2716200000000000    0.3883500000000000    0.9029400000000001 C
   0.2716200000000000    0.3883500000000000    0.6529300000000000 C
   0.4993800000000000    0.3486700000000000    0.2567400000000000 O
   0.4993800000000000    0.3486700000000000    0.0067350000000000 O
   0.7005000000000000    0.2753400000000000    0.2315200000000000 O
   0.7005000000000000    0.2753400000000000    0.0000000000000000 O
   0.5664900000000000    0.3024500000000000    0.3296750000000000 O
   0.5664900000000000    0.3024500000000000    0.0796650000000000 O
   0.6213100000000000    0.0593600000000000    0.2946850000000000 O
   0.6213100000000000    0.0593600000000000    0.0446750000000000 O
   0.7718500000000000    0.1860000000000000    0.3750100000000000 O
   0.7718500000000000    0.1860000000000000    0.1250000000000000 O
   0.8064600000000000    0.9999800000000000    0.3500200000000000 O
   0.8064600000000000    0.9999800000000000    0.1000100000000000 O
   0.0000000000000000    0.6511000000000000    0.3816650000000000 O
   0.0000000000000000    0.6511000000000000    0.1316550000000000 O
   0.7991200000000001    0.7247400000000001    0.3563800000000000 O
   0.7991200000000001    0.7247400000000001    0.1063750000000000 O
   0.9310600000000000    0.6935400000000000    0.4546050000000000 O
   0.9310600000000000    0.6935400000000000    0.2046000000000000 O
   0.8796100000000000    0.9389100000000000    0.4195750000000000 O
   0.8796100000000000    0.9389100000000000    0.1695700000000000 O
   0.7281600000000000    0.8132600000000000    0.2500550000000000 O
   0.7281600000000000    0.8132600000000000    0.0000500000000000 O
   0.6910400000000000    0.0003300000000000    0.4748800000000000 O
   0.6910400000000000    0.0003300000000000    0.2248750000000000 O
   0.4999500000000000    0.8485600000000000    0.3682400000000000 O
   0.2990900000000000    0.7744300000000000    0.3934700000000000 O
   0.4330400000000000    0.8022600000000000    0.2953100000000000 O
   0.3783400000000000    0.5585700000000000    0.3303550000000000 O
   0.2283600000000000    0.6845500000000000    0.4998650000000000 O
   0.2283600000000000    0.6845500000000000    0.2498550000000000 O
   0.1906700000000000    0.4985200000000000    0.2751100000000000 O
   0.9991500000000000    0.1510000000000000    0.4933050000000000 O
   0.9991500000000000    0.1510000000000000    0.2432950000000000 O
   0.2004800000000000    0.2240700000000000    0.0185300000000000 O
   0.2004800000000000    0.2240700000000000    0.2685250000000000 O
   0.0681900000000000    0.1933700000000000    0.4203450000000000 O
   0.0681900000000000    0.1933700000000000    0.1703400000000000 O
   0.1197800000000000    0.4384000000000000    0.4553200000000000 O
   0.1197800000000000    0.4384000000000000    0.2053150000000000 O
   0.2717300000000000    0.3129500000000000    0.3749700000000000 O
   0.2717300000000000    0.3129500000000000    0.1249650000000000 O
   0.3064900000000000    0.4996900000000000    0.4000500000000000 O
   0.3064900000000000    0.4996900000000000    0.1500400000000000 O
   0.4993800000000000    0.3486700000000000    0.7567400000000000 O
   0.4993800000000000    0.3486700000000000    0.5067350000000000 O
   0.7005000000000000    0.2753400000000000    0.7315199999999999 O
   0.7005000000000000    0.2753400000000000    0.5000000000000000 O
   0.5664900000000000    0.3024500000000000    0.8296749999999999 O
   0.5664900000000000    0.3024500000000000    0.5796650000000000 O
   0.6213100000000000    0.0593600000000000    0.7946850000000000 O
   0.6213100000000000    0.0593600000000000    0.5446750000000000 O
   0.7718500000000000    0.1860000000000000    0.8750100000000001 O
   0.7718500000000000    0.1860000000000000    0.6250000000000000 O
   0.8064600000000000    0.9999800000000000    0.8500200000000000 O
   0.8064600000000000    0.9999800000000000    0.6000100000000000 O
   0.0000000000000000    0.6511000000000000    0.8816649999999999 O
   0.0000000000000000    0.6511000000000000    0.6316550000000000 O
   0.7991200000000001    0.7247400000000001    0.8563799999999999 O
   0.7991200000000001    0.7247400000000001    0.6063750000000000 O
   0.9310600000000000    0.6935400000000000    0.9546049999999999 O
   0.9310600000000000    0.6935400000000000    0.7046000000000000 O
   0.8796100000000000    0.9389100000000000    0.9195750000000000 O
   0.8796100000000000    0.9389100000000000    0.6695700000000000 O
   0.7281600000000000    0.8132600000000000    0.7500550000000000 O
   0.7281600000000000    0.8132600000000000    0.5000500000000000 O
   0.6910400000000000    0.0003300000000000    0.9748800000000000 O
   0.6910400000000000    0.0003300000000000    0.7248749999999999 O
   0.4999500000000000    0.8485600000000000    0.8682400000000000 O
   0.4999500000000000    0.8485600000000000    0.6182350000000000 O
   0.2990900000000000    0.7744300000000000    0.8934700000000000 O
   0.2990900000000000    0.7744300000000000    0.6434600000000000 O
   0.4330400000000000    0.8022600000000000    0.7953100000000000 O
   0.4330400000000000    0.8022600000000000    0.5453050000000000 O
   0.3783400000000000    0.5585700000000000    0.8303550000000000 O
   0.3783400000000000    0.5585700000000000    0.5803500000000000 O
   0.2283600000000000    0.6845500000000000    0.7498549999999999 O
   0.1906700000000000    0.4985200000000000    0.7751100000000000 O
   0.1906700000000000    0.4985200000000000    0.5251000000000000 O
   0.9991500000000000    0.1510000000000000    0.9933050000000000 O
   0.9991500000000000    0.1510000000000000    0.7432950000000000 O
   0.2004800000000000    0.2240700000000000    0.5185300000000000 O
   0.2004800000000000    0.2240700000000000    0.7685250000000000 O
   0.0681900000000000    0.1933700000000000    0.9203450000000000 O
   0.0681900000000000    0.1933700000000000    0.6703399999999999 O
   0.1197800000000000    0.4384000000000000    0.9553199999999999 O
   0.1197800000000000    0.4384000000000000    0.7053150000000000 O
   0.2717300000000000    0.3129500000000000    0.8749700000000000 O
   0.2717300000000000    0.3129500000000000    0.6249650000000000 O
   0.3064900000000000    0.4996900000000000    0.9000500000000000 O
   0.3064900000000000    0.4996900000000000    0.6500400000000000 O
