Ba54 Zn108 H860 C1288 O752
1.0
  35.6233900249247313    0.0000000000000000   -7.8590383083487483
 -10.4026694021887085   34.0726291037283175   -7.8783634892363708
   0.0000000000000000    0.0000000000000000   38.1330000000000027
Ba Zn H C O
54 108 860 1288 752
direct
   0.0681433333333333    0.2651533333333333    0.0832366666666667 Ba
   0.2652000000000000    0.0681933333333333    0.2500766666666666 Ba
   0.4014766666666666    0.2651533333333333    0.0832366666666667 Ba
   0.5985333333333334    0.0681933333333333    0.2500766666666666 Ba
   0.7348100000000000    0.2651533333333333    0.0832366666666667 Ba
   0.9318666666666666    0.0681933333333333    0.2500766666666666 Ba
   0.0681433333333333    0.5984866666666666    0.0832366666666667 Ba
   0.2652000000000000    0.4015266666666666    0.2500766666666666 Ba
   0.4014766666666666    0.5984866666666666    0.0832366666666667 Ba
   0.5985333333333334    0.4015266666666666    0.2500766666666666 Ba
   0.7348100000000000    0.5984866666666666    0.0832366666666667 Ba
   0.9318666666666666    0.4015266666666666    0.2500766666666666 Ba
   0.0681433333333333    0.9318199999999999    0.0832366666666667 Ba
   0.2652000000000000    0.7348600000000000    0.2500766666666666 Ba
   0.4014766666666666    0.9318199999999999    0.0832366666666667 Ba
   0.5985333333333334    0.7348600000000000    0.2500766666666666 Ba
   0.7348100000000000    0.9318199999999999    0.0832366666666667 Ba
   0.9318666666666666    0.7348600000000000    0.2500766666666666 Ba
   0.0681433333333333    0.2651533333333333    0.4165700000000000 Ba
   0.2652000000000000    0.0681933333333333    0.5834100000000000 Ba
   0.4014766666666666    0.2651533333333333    0.4165700000000000 Ba
   0.5985333333333334    0.0681933333333333    0.5834100000000000 Ba
   0.7348100000000000    0.2651533333333333    0.4165700000000000 Ba
   0.9318666666666666    0.0681933333333333    0.5834100000000000 Ba
   0.0681433333333333    0.5984866666666666    0.4165700000000000 Ba
   0.2652000000000000    0.4015266666666666    0.5834100000000000 Ba
   0.4014766666666666    0.5984866666666666    0.4165700000000000 Ba
   0.5985333333333334    0.4015266666666666    0.5834100000000000 Ba
   0.7348100000000000    0.5984866666666666    0.4165700000000000 Ba
   0.9318666666666666    0.4015266666666666    0.5834100000000000 Ba
   0.0681433333333333    0.9318199999999999    0.4165700000000000 Ba
   0.2652000000000000    0.7348600000000000    0.5834100000000000 Ba
   0.4014766666666666    0.9318199999999999    0.4165700000000000 Ba
   0.5985333333333334    0.7348600000000000    0.5834100000000000 Ba
   0.7348100000000000    0.9318199999999999    0.4165700000000000 Ba
   0.9318666666666666    0.7348600000000000    0.5834100000000000 Ba
   0.0681433333333333    0.2651533333333333    0.7499033333333333 Ba
   0.2652000000000000    0.0681933333333333    0.9167433333333332 Ba
   0.4014766666666666    0.2651533333333333    0.7499033333333333 Ba
   0.5985333333333334    0.0681933333333333    0.9167433333333332 Ba
   0.7348100000000000    0.2651533333333333    0.7499033333333333 Ba
   0.9318666666666666    0.0681933333333333    0.9167433333333332 Ba
   0.0681433333333333    0.5984866666666666    0.7499033333333333 Ba
   0.2652000000000000    0.4015266666666666    0.9167433333333332 Ba
   0.4014766666666666    0.5984866666666666    0.7499033333333333 Ba
   0.5985333333333334    0.4015266666666666    0.9167433333333332 Ba
   0.7348100000000000    0.5984866666666666    0.7499033333333333 Ba
   0.9318666666666666    0.4015266666666666    0.9167433333333332 Ba
   0.0681433333333333    0.9318199999999999    0.7499033333333333 Ba
   0.2652000000000000    0.7348600000000000    0.9167433333333332 Ba
   0.4014766666666666    0.9318199999999999    0.7499033333333333 Ba
   0.5985333333333334    0.7348600000000000    0.9167433333333332 Ba
   0.7348100000000000    0.9318199999999999    0.7499033333333333 Ba
   0.9318666666666666    0.7348600000000000    0.9167433333333332 Ba
   0.2742766666666666    0.1422533333333333    0.0162266666666667 Zn
   0.1911400000000000    0.0592500000000000    0.1508733333333333 Zn
   0.0590700000000000    0.1910933333333333    0.3170900000000000 Zn
   0.1422066666666666    0.2741000000000000    0.1824433333333333 Zn
   0.6076100000000000    0.1422533333333333    0.0162266666666667 Zn
   0.5244733333333333    0.0592500000000000    0.1508733333333333 Zn
   0.3924033333333333    0.1910933333333333    0.3170900000000000 Zn
   0.4755400000000000    0.2741000000000000    0.1824433333333333 Zn
   0.9409433333333332    0.1422533333333333    0.0162266666666667 Zn
   0.8578066666666666    0.0592500000000000    0.1508733333333333 Zn
   0.7257366666666666    0.1910933333333333    0.3170900000000000 Zn
   0.8088733333333333    0.2741000000000000    0.1824433333333333 Zn
   0.2742766666666666    0.4755866666666666    0.0162266666666667 Zn
   0.1911400000000000    0.3925833333333333    0.1508733333333333 Zn
   0.0590700000000000    0.5244266666666666    0.3170900000000000 Zn
   0.1422066666666666    0.6074333333333333    0.1824433333333333 Zn
   0.6076100000000000    0.4755866666666666    0.0162266666666667 Zn
   0.5244733333333333    0.3925833333333333    0.1508733333333333 Zn
   0.3924033333333333    0.5244266666666666    0.3170900000000000 Zn
   0.4755400000000000    0.6074333333333333    0.1824433333333333 Zn
   0.9409433333333332    0.4755866666666666    0.0162266666666667 Zn
   0.8578066666666666    0.3925833333333333    0.1508733333333333 Zn
   0.7257366666666666    0.5244266666666666    0.3170900000000000 Zn
   0.8088733333333333    0.6074333333333333    0.1824433333333333 Zn
   0.2742766666666666    0.8089200000000000    0.0162266666666667 Zn
   0.1911400000000000    0.7259166666666667    0.1508733333333333 Zn
   0.0590700000000000    0.8577600000000000    0.3170900000000000 Zn
   0.1422066666666666    0.9407666666666666    0.1824433333333333 Zn
   0.6076100000000000    0.8089200000000000    0.0162266666666667 Zn
   0.5244733333333333    0.7259166666666667    0.1508733333333333 Zn
   0.3924033333333333    0.8577600000000000    0.3170900000000000 Zn
   0.4755400000000000    0.9407666666666666    0.1824433333333333 Zn
   0.9409433333333332    0.8089200000000000    0.0162266666666667 Zn
   0.8578066666666666    0.7259166666666667    0.1508733333333333 Zn
   0.7257366666666666    0.8577600000000000    0.3170900000000000 Zn
   0.8088733333333333    0.9407666666666666    0.1824433333333333 Zn
   0.2742766666666666    0.1422533333333333    0.3495600000000000 Zn
   0.1911400000000000    0.0592500000000000    0.4842066666666667 Zn
   0.0590700000000000    0.1910933333333333    0.6504233333333334 Zn
   0.1422066666666666    0.2741000000000000    0.5157766666666667 Zn
   0.6076100000000000    0.1422533333333333    0.3495600000000000 Zn
   0.5244733333333333    0.0592500000000000    0.4842066666666667 Zn
   0.3924033333333333    0.1910933333333333    0.6504233333333334 Zn
   0.4755400000000000    0.2741000000000000    0.5157766666666667 Zn
   0.9409433333333332    0.1422533333333333    0.3495600000000000 Zn
   0.8578066666666666    0.0592500000000000    0.4842066666666667 Zn
   0.7257366666666666    0.1910933333333333    0.6504233333333334 Zn
   0.8088733333333333    0.2741000000000000    0.5157766666666667 Zn
   0.2742766666666666    0.4755866666666666    0.3495600000000000 Zn
   0.1911400000000000    0.3925833333333333    0.4842066666666667 Zn
   0.0590700000000000    0.5244266666666666    0.6504233333333334 Zn
   0.1422066666666666    0.6074333333333333    0.5157766666666667 Zn
   0.6076100000000000    0.4755866666666666    0.3495600000000000 Zn
   0.5244733333333333    0.3925833333333333    0.4842066666666667 Zn
   0.3924033333333333    0.5244266666666666    0.6504233333333334 Zn
   0.4755400000000000    0.6074333333333333    0.5157766666666667 Zn
   0.9409433333333332    0.4755866666666666    0.3495600000000000 Zn
   0.8578066666666666    0.3925833333333333    0.4842066666666667 Zn
   0.7257366666666666    0.5244266666666666    0.6504233333333334 Zn
   0.8088733333333333    0.6074333333333333    0.5157766666666667 Zn
   0.2742766666666666    0.8089200000000000    0.3495600000000000 Zn
   0.1911400000000000    0.7259166666666667    0.4842066666666667 Zn
   0.0590700000000000    0.8577600000000000    0.6504233333333334 Zn
   0.1422066666666666    0.9407666666666666    0.5157766666666667 Zn
   0.6076100000000000    0.8089200000000000    0.3495600000000000 Zn
   0.5244733333333333    0.7259166666666667    0.4842066666666667 Zn
   0.3924033333333333    0.8577600000000000    0.6504233333333334 Zn
   0.4755400000000000    0.9407666666666666    0.5157766666666667 Zn
   0.9409433333333332    0.8089200000000000    0.3495600000000000 Zn
   0.8578066666666666    0.7259166666666667    0.4842066666666667 Zn
   0.7257366666666666    0.8577600000000000    0.6504233333333334 Zn
   0.8088733333333333    0.9407666666666666    0.5157766666666667 Zn
   0.2742766666666666    0.1422533333333333    0.6828933333333334 Zn
   0.1911400000000000    0.0592500000000000    0.8175399999999999 Zn
   0.0590700000000000    0.1910933333333333    0.9837566666666666 Zn
   0.1422066666666666    0.2741000000000000    0.8491099999999999 Zn
   0.6076100000000000    0.1422533333333333    0.6828933333333334 Zn
   0.5244733333333333    0.0592500000000000    0.8175399999999999 Zn
   0.3924033333333333    0.1910933333333333    0.9837566666666666 Zn
   0.4755400000000000    0.2741000000000000    0.8491099999999999 Zn
   0.9409433333333332    0.1422533333333333    0.6828933333333334 Zn
   0.8578066666666666    0.0592500000000000    0.8175399999999999 Zn
   0.7257366666666666    0.1910933333333333    0.9837566666666666 Zn
   0.8088733333333333    0.2741000000000000    0.8491099999999999 Zn
   0.2742766666666666    0.4755866666666666    0.6828933333333334 Zn
   0.1911400000000000    0.3925833333333333    0.8175399999999999 Zn
   0.0590700000000000    0.5244266666666666    0.9837566666666666 Zn
   0.1422066666666666    0.6074333333333333    0.8491099999999999 Zn
   0.6076100000000000    0.4755866666666666    0.6828933333333334 Zn
   0.5244733333333333    0.3925833333333333    0.8175399999999999 Zn
   0.3924033333333333    0.5244266666666666    0.9837566666666666 Zn
   0.4755400000000000    0.6074333333333333    0.8491099999999999 Zn
   0.9409433333333332    0.4755866666666666    0.6828933333333334 Zn
   0.8578066666666666    0.3925833333333333    0.8175399999999999 Zn
   0.7257366666666666    0.5244266666666666    0.9837566666666666 Zn
   0.8088733333333333    0.6074333333333333    0.8491099999999999 Zn
   0.2742766666666666    0.8089200000000000    0.6828933333333334 Zn
   0.1911400000000000    0.7259166666666667    0.8175399999999999 Zn
   0.0590700000000000    0.8577600000000000    0.9837566666666666 Zn
   0.1422066666666666    0.9407666666666666    0.8491099999999999 Zn
   0.6076100000000000    0.8089200000000000    0.6828933333333334 Zn
   0.5244733333333333    0.7259166666666667    0.8175399999999999 Zn
   0.3924033333333333    0.8577600000000000    0.9837566666666666 Zn
   0.4755400000000000    0.9407666666666666    0.8491099999999999 Zn
   0.9409433333333332    0.8089200000000000    0.6828933333333334 Zn
   0.8578066666666666    0.7259166666666667    0.8175399999999999 Zn
   0.7257366666666666    0.8577600000000000    0.9837566666666666 Zn
   0.8088733333333333    0.9407666666666666    0.8491099999999999 Zn
   0.0157766666666667    0.0317033333333333    0.3300033333333333 H
   0.0660466666666667    0.0081200000000000    0.0334300000000000 H
   0.0966466666666667    0.1132300000000000    0.1241766666666667 H
   0.0446800000000000    0.1353966666666667    0.0886733333333333 H
   0.2014500000000000    0.0579433333333333    0.0552500000000000 H
   0.1731633333333333    0.0000000000000000    0.2704666666666666 H
   0.3015600000000000    0.3177700000000000    0.1700933333333333 H
   0.3252166666666667    0.2674866666666667    0.1333933333333333 H
   0.2201733333333333    0.2367866666666666    0.0425666666666667 H
   0.1979833333333333    0.2888100000000000    0.0779800000000000 H
   0.2752933333333333    0.1318400000000000    0.1115333333333333 H
   0.3301700000000000    0.1603900000000000    0.2295800000000000 H
   0.3175700000000000    0.3016433333333333    0.0000000000000000 H
   0.2673000000000000    0.3252266666666667    0.2998833333333333 H
   0.2367000000000000    0.2201200000000000    0.2091366666666667 H
   0.2886633333333333    0.1979500000000000    0.2446400000000000 H
   0.1318933333333333    0.2754033333333333    0.2780633333333333 H
   0.1601800000000000    0.3300266666666666    0.0628333333333333 H
   0.0317866666666667    0.0155800000000000    0.1632200000000000 H
   0.0081266666666667    0.0658600000000000    0.1999200000000000 H
   0.1131700000000000    0.0965633333333333    0.2907366666666666 H
   0.1353600000000000    0.0445400000000000    0.2553333333333333 H
   0.0580533333333333    0.2015066666666666    0.2217800000000000 H
   0.0000000000000000    0.1729566666666667    0.1037333333333333 H
   0.3007466666666667    0.1682200000000000    0.2965933333333333 H
   0.2543566666666667    0.1583766666666667    0.2849666666666666 H
   0.1652333333333333    0.0325500000000000    0.2036566666666667 H
   0.1749400000000000    0.0789300000000000    0.2154400000000000 H
   0.0325966666666667    0.1651300000000000    0.0367200000000000 H
   0.0789900000000000    0.1749733333333333    0.0483500000000000 H
   0.1681133333333333    0.3008000000000000    0.1296566666666666 H
   0.1584066666666666    0.2544200000000000    0.1178766666666667 H
   0.3491100000000000    0.0317033333333333    0.3300033333333333 H
   0.3993800000000000    0.0081200000000000    0.0334300000000000 H
   0.4299800000000000    0.1132300000000000    0.1241766666666667 H
   0.3780133333333333    0.1353966666666667    0.0886733333333333 H
   0.5347833333333334    0.0579433333333333    0.0552500000000000 H
   0.5064966666666666    0.0000000000000000    0.2704666666666666 H
   0.6348933333333333    0.3177700000000000    0.1700933333333333 H
   0.6585500000000000    0.2674866666666667    0.1333933333333333 H
   0.5535066666666666    0.2367866666666666    0.0425666666666667 H
   0.5313166666666667    0.2888100000000000    0.0779800000000000 H
   0.6086266666666666    0.1318400000000000    0.1115333333333333 H
   0.6635033333333333    0.1603900000000000    0.2295800000000000 H
   0.6509033333333333    0.3016433333333333    0.0000000000000000 H
   0.6006333333333334    0.3252266666666667    0.2998833333333333 H
   0.5700333333333333    0.2201200000000000    0.2091366666666667 H
   0.6219966666666666    0.1979500000000000    0.2446400000000000 H
   0.4652266666666666    0.2754033333333333    0.2780633333333333 H
   0.4935133333333333    0.3300266666666666    0.0628333333333333 H
   0.3651200000000000    0.0155800000000000    0.1632200000000000 H
   0.3414600000000000    0.0658600000000000    0.1999200000000000 H
   0.4465033333333333    0.0965633333333333    0.2907366666666666 H
   0.4686933333333333    0.0445400000000000    0.2553333333333333 H
   0.3913866666666667    0.2015066666666666    0.2217800000000000 H
   0.3333333333333333    0.1729566666666667    0.1037333333333333 H
   0.6340800000000000    0.1682200000000000    0.2965933333333333 H
   0.5876900000000000    0.1583766666666667    0.2849666666666666 H
   0.4985666666666666    0.0325500000000000    0.2036566666666667 H
   0.5082733333333334    0.0789300000000000    0.2154400000000000 H
   0.3659300000000000    0.1651300000000000    0.0367200000000000 H
   0.4123233333333333    0.1749733333333333    0.0483500000000000 H
   0.5014466666666666    0.3008000000000000    0.1296566666666666 H
   0.4917400000000000    0.2544200000000000    0.1178766666666667 H
   0.6824433333333333    0.0317033333333333    0.3300033333333333 H
   0.7327133333333333    0.0081200000000000    0.0334300000000000 H
   0.7633133333333333    0.1132300000000000    0.1241766666666667 H
   0.7113466666666666    0.1353966666666667    0.0886733333333333 H
   0.8681166666666666    0.0579433333333333    0.0552500000000000 H
   0.8398300000000000    0.0000000000000000    0.2704666666666666 H
   0.9682266666666666    0.3177700000000000    0.1700933333333333 H
   0.9918833333333332    0.2674866666666667    0.1333933333333333 H
   0.8868400000000000    0.2367866666666666    0.0425666666666667 H
   0.8646499999999999    0.2888100000000000    0.0779800000000000 H
   0.9419599999999999    0.1318400000000000    0.1115333333333333 H
   0.9968366666666666    0.1603900000000000    0.2295800000000000 H
   0.9842366666666666    0.3016433333333333    0.0000000000000000 H
   0.9339666666666666    0.3252266666666667    0.2998833333333333 H
   0.9033666666666667    0.2201200000000000    0.2091366666666667 H
   0.9553300000000000    0.1979500000000000    0.2446400000000000 H
   0.7985599999999999    0.2754033333333333    0.2780633333333333 H
   0.8268466666666666    0.3300266666666666    0.0628333333333333 H
   0.6984533333333333    0.0155800000000000    0.1632200000000000 H
   0.6747933333333332    0.0658600000000000    0.1999200000000000 H
   0.7798366666666666    0.0965633333333333    0.2907366666666666 H
   0.8020266666666667    0.0445400000000000    0.2553333333333333 H
   0.7247199999999999    0.2015066666666666    0.2217800000000000 H
   0.6666666666666666    0.1729566666666667    0.1037333333333333 H
   0.9674133333333332    0.1682200000000000    0.2965933333333333 H
   0.9210233333333333    0.1583766666666667    0.2849666666666666 H
   0.8319000000000000    0.0325500000000000    0.2036566666666667 H
   0.8416066666666666    0.0789300000000000    0.2154400000000000 H
   0.6992633333333333    0.1651300000000000    0.0367200000000000 H
   0.7456566666666666    0.1749733333333333    0.0483500000000000 H
   0.8347800000000000    0.3008000000000000    0.1296566666666666 H
   0.8250733333333333    0.2544200000000000    0.1178766666666667 H
   0.0157766666666667    0.3650366666666667    0.3300033333333333 H
   0.0660466666666667    0.3414533333333333    0.0334300000000000 H
   0.0966466666666667    0.4465633333333333    0.1241766666666667 H
   0.0446800000000000    0.4687300000000000    0.0886733333333333 H
   0.2014500000000000    0.3912766666666667    0.0552500000000000 H
   0.1731633333333333    0.3333333333333333    0.2704666666666666 H
   0.3015600000000000    0.6511033333333334    0.1700933333333333 H
   0.3252166666666667    0.6008199999999999    0.1333933333333333 H
   0.2201733333333333    0.5701200000000000    0.0425666666666667 H
   0.1979833333333333    0.6221433333333333    0.0779800000000000 H
   0.2752933333333333    0.4651733333333333    0.1115333333333333 H
   0.3301700000000000    0.4937233333333333    0.2295800000000000 H
   0.3175700000000000    0.6349766666666666    0.0000000000000000 H
   0.2673000000000000    0.6585600000000000    0.2998833333333333 H
   0.2367000000000000    0.5534533333333334    0.2091366666666667 H
   0.2886633333333333    0.5312833333333333    0.2446400000000000 H
   0.1318933333333333    0.6087366666666667    0.2780633333333333 H
   0.1601800000000000    0.6633599999999999    0.0628333333333333 H
   0.0317866666666667    0.3489133333333333    0.1632200000000000 H
   0.0081266666666667    0.3991933333333333    0.1999200000000000 H
   0.1131700000000000    0.4298966666666666    0.2907366666666666 H
   0.1353600000000000    0.3778733333333333    0.2553333333333333 H
   0.0580533333333333    0.5348400000000000    0.2217800000000000 H
   0.0000000000000000    0.5062900000000000    0.1037333333333333 H
   0.3007466666666667    0.5015533333333333    0.2965933333333333 H
   0.2543566666666667    0.4917100000000000    0.2849666666666666 H
   0.1652333333333333    0.3658833333333333    0.2036566666666667 H
   0.1749400000000000    0.4122633333333333    0.2154400000000000 H
   0.0325966666666667    0.4984633333333333    0.0367200000000000 H
   0.0789900000000000    0.5083066666666667    0.0483500000000000 H
   0.1681133333333333    0.6341333333333332    0.1296566666666666 H
   0.1584066666666666    0.5877533333333333    0.1178766666666667 H
   0.3491100000000000    0.3650366666666667    0.3300033333333333 H
   0.3993800000000000    0.3414533333333333    0.0334300000000000 H
   0.4299800000000000    0.4465633333333333    0.1241766666666667 H
   0.3780133333333333    0.4687300000000000    0.0886733333333333 H
   0.5347833333333334    0.3912766666666667    0.0552500000000000 H
   0.5064966666666666    0.3333333333333333    0.2704666666666666 H
   0.6348933333333333    0.6511033333333334    0.1700933333333333 H
   0.6585500000000000    0.6008199999999999    0.1333933333333333 H
   0.5535066666666666    0.5701200000000000    0.0425666666666667 H
   0.5313166666666667    0.6221433333333333    0.0779800000000000 H
   0.6086266666666666    0.4651733333333333    0.1115333333333333 H
   0.6635033333333333    0.4937233333333333    0.2295800000000000 H
   0.6509033333333333    0.6349766666666666    0.0000000000000000 H
   0.6006333333333334    0.6585600000000000    0.2998833333333333 H
   0.5700333333333333    0.5534533333333334    0.2091366666666667 H
   0.6219966666666666    0.5312833333333333    0.2446400000000000 H
   0.4652266666666666    0.6087366666666667    0.2780633333333333 H
   0.4935133333333333    0.6633599999999999    0.0628333333333333 H
   0.3651200000000000    0.3489133333333333    0.1632200000000000 H
   0.3414600000000000    0.3991933333333333    0.1999200000000000 H
   0.4465033333333333    0.4298966666666666    0.2907366666666666 H
   0.4686933333333333    0.3778733333333333    0.2553333333333333 H
   0.3913866666666667    0.5348400000000000    0.2217800000000000 H
   0.3333333333333333    0.5062900000000000    0.1037333333333333 H
   0.6340800000000000    0.5015533333333333    0.2965933333333333 H
   0.5876900000000000    0.4917100000000000    0.2849666666666666 H
   0.4985666666666666    0.3658833333333333    0.2036566666666667 H
   0.5082733333333334    0.4122633333333333    0.2154400000000000 H
   0.3659300000000000    0.4984633333333333    0.0367200000000000 H
   0.4123233333333333    0.5083066666666667    0.0483500000000000 H
   0.5014466666666666    0.6341333333333332    0.1296566666666666 H
   0.4917400000000000    0.5877533333333333    0.1178766666666667 H
   0.6824433333333333    0.3650366666666667    0.3300033333333333 H
   0.7327133333333333    0.3414533333333333    0.0334300000000000 H
   0.7633133333333333    0.4465633333333333    0.1241766666666667 H
   0.7113466666666666    0.4687300000000000    0.0886733333333333 H
   0.8681166666666666    0.3912766666666667    0.0552500000000000 H
   0.8398300000000000    0.3333333333333333    0.2704666666666666 H
   0.9682266666666666    0.6511033333333334    0.1700933333333333 H
   0.9918833333333332    0.6008199999999999    0.1333933333333333 H
   0.8868400000000000    0.5701200000000000    0.0425666666666667 H
   0.8646499999999999    0.6221433333333333    0.0779800000000000 H
   0.9419599999999999    0.4651733333333333    0.1115333333333333 H
   0.9968366666666666    0.4937233333333333    0.2295800000000000 H
   0.9842366666666666    0.6349766666666666    0.0000000000000000 H
   0.9339666666666666    0.6585600000000000    0.2998833333333333 H
   0.9033666666666667    0.5534533333333334    0.2091366666666667 H
   0.9553300000000000    0.5312833333333333    0.2446400000000000 H
   0.7985599999999999    0.6087366666666667    0.2780633333333333 H
   0.8268466666666666    0.6633599999999999    0.0628333333333333 H
   0.6984533333333333    0.3489133333333333    0.1632200000000000 H
   0.6747933333333332    0.3991933333333333    0.1999200000000000 H
   0.7798366666666666    0.4298966666666666    0.2907366666666666 H
   0.8020266666666667    0.3778733333333333    0.2553333333333333 H
   0.7247199999999999    0.5348400000000000    0.2217800000000000 H
   0.6666666666666666    0.5062900000000000    0.1037333333333333 H
   0.9674133333333332    0.5015533333333333    0.2965933333333333 H
   0.9210233333333333    0.4917100000000000    0.2849666666666666 H
   0.8319000000000000    0.3658833333333333    0.2036566666666667 H
   0.8416066666666666    0.4122633333333333    0.2154400000000000 H
   0.6992633333333333    0.4984633333333333    0.0367200000000000 H
   0.7456566666666666    0.5083066666666667    0.0483500000000000 H
   0.8347800000000000    0.6341333333333332    0.1296566666666666 H
   0.8250733333333333    0.5877533333333333    0.1178766666666667 H
   0.0157766666666667    0.6983699999999999    0.3300033333333333 H
   0.0660466666666667    0.6747866666666666    0.0334300000000000 H
   0.0966466666666667    0.7798966666666667    0.1241766666666667 H
   0.0446800000000000    0.8020633333333334    0.0886733333333333 H
   0.2014500000000000    0.7246100000000000    0.0552500000000000 H
   0.1731633333333333    0.6666666666666666    0.2704666666666666 H
   0.3015600000000000    0.9844366666666666    0.1700933333333333 H
   0.3252166666666667    0.9341533333333333    0.1333933333333333 H
   0.2201733333333333    0.9034533333333332    0.0425666666666667 H
   0.1979833333333333    0.9554766666666666    0.0779800000000000 H
   0.2752933333333333    0.7985066666666666    0.1115333333333333 H
   0.3301700000000000    0.8270566666666666    0.2295800000000000 H
   0.3175700000000000    0.9683100000000000    0.0000000000000000 H
   0.2673000000000000    0.9918933333333333    0.2998833333333333 H
   0.2367000000000000    0.8867866666666666    0.2091366666666667 H
   0.2886633333333333    0.8646166666666666    0.2446400000000000 H
   0.1318933333333333    0.9420700000000000    0.2780633333333333 H
   0.1601800000000000    0.9966933333333332    0.0628333333333333 H
   0.0317866666666667    0.6822466666666667    0.1632200000000000 H
   0.0081266666666667    0.7325266666666667    0.1999200000000000 H
   0.1131700000000000    0.7632300000000000    0.2907366666666666 H
   0.1353600000000000    0.7112066666666667    0.2553333333333333 H
   0.0580533333333333    0.8681733333333332    0.2217800000000000 H
   0.0000000000000000    0.8396233333333333    0.1037333333333333 H
   0.3007466666666667    0.8348866666666666    0.2965933333333333 H
   0.2543566666666667    0.8250433333333334    0.2849666666666666 H
   0.1652333333333333    0.6992166666666666    0.2036566666666667 H
   0.1749400000000000    0.7455966666666667    0.2154400000000000 H
   0.0325966666666667    0.8317966666666666    0.0367200000000000 H
   0.0789900000000000    0.8416399999999999    0.0483500000000000 H
   0.1681133333333333    0.9674666666666666    0.1296566666666666 H
   0.1584066666666666    0.9210866666666666    0.1178766666666667 H
   0.3491100000000000    0.6983699999999999    0.3300033333333333 H
   0.3993800000000000    0.6747866666666666    0.0334300000000000 H
   0.4299800000000000    0.7798966666666667    0.1241766666666667 H
   0.3780133333333333    0.8020633333333334    0.0886733333333333 H
   0.5347833333333334    0.7246100000000000    0.0552500000000000 H
   0.5064966666666666    0.6666666666666666    0.2704666666666666 H
   0.6348933333333333    0.9844366666666666    0.1700933333333333 H
   0.6585500000000000    0.9341533333333333    0.1333933333333333 H
   0.5535066666666666    0.9034533333333332    0.0425666666666667 H
   0.5313166666666667    0.9554766666666666    0.0779800000000000 H
   0.6086266666666666    0.7985066666666666    0.1115333333333333 H
   0.6635033333333333    0.8270566666666666    0.2295800000000000 H
   0.6509033333333333    0.9683100000000000    0.0000000000000000 H
   0.6006333333333334    0.9918933333333333    0.2998833333333333 H
   0.5700333333333333    0.8867866666666666    0.2091366666666667 H
   0.6219966666666666    0.8646166666666666    0.2446400000000000 H
   0.4652266666666666    0.9420700000000000    0.2780633333333333 H
   0.4935133333333333    0.9966933333333332    0.0628333333333333 H
   0.3651200000000000    0.6822466666666667    0.1632200000000000 H
   0.3414600000000000    0.7325266666666667    0.1999200000000000 H
   0.4465033333333333    0.7632300000000000    0.2907366666666666 H
   0.4686933333333333    0.7112066666666667    0.2553333333333333 H
   0.3913866666666667    0.8681733333333332    0.2217800000000000 H
   0.3333333333333333    0.8396233333333333    0.1037333333333333 H
   0.6340800000000000    0.8348866666666666    0.2965933333333333 H
   0.5876900000000000    0.8250433333333334    0.2849666666666666 H
   0.4985666666666666    0.6992166666666666    0.2036566666666667 H
   0.5082733333333334    0.7455966666666667    0.2154400000000000 H
   0.3659300000000000    0.8317966666666666    0.0367200000000000 H
   0.4123233333333333    0.8416399999999999    0.0483500000000000 H
   0.5014466666666666    0.9674666666666666    0.1296566666666666 H
   0.4917400000000000    0.9210866666666666    0.1178766666666667 H
   0.6824433333333333    0.6983699999999999    0.3300033333333333 H
   0.7327133333333333    0.6747866666666666    0.0334300000000000 H
   0.7633133333333333    0.7798966666666667    0.1241766666666667 H
   0.7113466666666666    0.8020633333333334    0.0886733333333333 H
   0.8681166666666666    0.7246100000000000    0.0552500000000000 H
   0.8398300000000000    0.6666666666666666    0.2704666666666666 H
   0.9682266666666666    0.9844366666666666    0.1700933333333333 H
   0.9918833333333332    0.9341533333333333    0.1333933333333333 H
   0.8868400000000000    0.9034533333333332    0.0425666666666667 H
   0.8646499999999999    0.9554766666666666    0.0779800000000000 H
   0.9419599999999999    0.7985066666666666    0.1115333333333333 H
   0.9968366666666666    0.8270566666666666    0.2295800000000000 H
   0.9842366666666666    0.9683100000000000    0.0000000000000000 H
   0.9339666666666666    0.9918933333333333    0.2998833333333333 H
   0.9033666666666667    0.8867866666666666    0.2091366666666667 H
   0.9553300000000000    0.8646166666666666    0.2446400000000000 H