C2 O4
1.0
  39.2249999999999943    0.0000000000000000    0.0000000000000024
   0.0487819278268580   27.9499574254693570   -0.0004878195259109
   0.0000000000000000    0.0000000000000000   33.8479999999999990
C O
2 4
direct
   0.6776500000000000    0.7917400000000000    0.6290000000000000 C
   0.6920233333333333    0.7420500000000000    0.6403500000000000 C
   0.6666666666666666    0.8203950000000000    0.6564800000000000 O
   0.6933266666666666    0.7332350000000000    0.6770350000000001 O
   0.7008166666666666    0.7154400000000000    0.6119100000000000 O
   0.6742166666666666    0.8019250000000000    0.5926899999999999 O
