H2 O2
1.0
  39.2249999999999943    0.0000000000000000    0.0000000000000024
   0.0487819278268580   27.9499574254693570   -0.0004878195259109
   0.0000000000000000    0.0000000000000000   33.8479999999999990
H O
2 2
direct
   0.7259302150870612    0.7289155689718368    0.2911829185504609 H
   0.7335620309907979    0.7860168531168011    0.2593854983888675 H
   0.7046966666666666    0.7351300000000001    0.2768850000000000 O
   0.7100500000000000    0.7760400000000001    0.2544100000000000 O
