Zn192 H575 C574 N764 O386
1.0
  39.2249999999999943    0.0000000000000000    0.0000000000000024
   0.0487819278268580   27.9499574254693570   -0.0004878195259109
   0.0000000000000000    0.0000000000000000   33.8479999999999990
Zn H C N O
192 575 574 764 386
direct
   0.8575499999999999    0.7403100000000000    0.2019550000000000 Zn
   0.0074533333333333    0.5461549999999999    0.5352100000000000 Zn
   0.8091233333333333    0.5096900000000000    0.4519450000000000 Zn
   0.9925499999999999    0.4538400000000000    0.4647950000000000 Zn
   0.1908800000000000    0.4903150000000000    0.5480550000000000 Zn
   0.0074533333333333    0.0461550000000000    0.5352100000000000 Zn
   0.8091233333333333    0.0096900000000000    0.4519450000000000 Zn
   0.9925499999999999    0.9538400000000000    0.4647950000000000 Zn
   0.1908800000000000    0.9903150000000001    0.5480550000000000 Zn
   0.0074533333333333    0.5461549999999999    0.0352100000000000 Zn
   0.8091233333333333    0.5096900000000000    0.9519450000000000 Zn
   0.9925499999999999    0.4538400000000000    0.9647950000000001 Zn
   0.1908800000000000    0.4903150000000000    0.0480550000000000 Zn
   0.0074533333333333    0.0461550000000000    0.0352100000000000 Zn
   0.8091233333333333    0.0096900000000000    0.9519450000000000 Zn
   0.9925499999999999    0.9538400000000000    0.9647950000000001 Zn
   0.1908800000000000    0.9903150000000001    0.0480550000000000 Zn
   0.9925466666666666    0.7038400000000000    0.7852200000000000 Zn
   0.1908833333333333    0.7403100000000000    0.7019550000000000 Zn
   0.0074533333333333    0.7961500000000000    0.7147900000000000 Zn
   0.8091133333333334    0.7596900000000000    0.7980600000000000 Zn
   0.9925466666666666    0.7038400000000000    0.2852200000000000 Zn
   0.1908833333333333    0.7403100000000000    0.2019550000000000 Zn
   0.0074533333333333    0.7961500000000000    0.2147900000000000 Zn
   0.8091133333333334    0.7596900000000000    0.2980600000000000 Zn
   0.9925466666666666    0.2038400000000000    0.7852200000000000 Zn
   0.1908833333333333    0.2403100000000000    0.7019550000000000 Zn
   0.0074533333333333    0.2961500000000000    0.7147900000000000 Zn
   0.8091133333333334    0.2596900000000000    0.7980600000000000 Zn
   0.9925466666666666    0.2038400000000000    0.2852200000000000 Zn
   0.1908833333333333    0.2403100000000000    0.2019550000000000 Zn
   0.0074533333333333    0.2961500000000000    0.2147900000000000 Zn
   0.8091133333333334    0.2596900000000000    0.2980600000000000 Zn
   0.9761466666666666    0.2412050000000000    0.9518450000000001 Zn
   0.1745933333333333    0.2038900000000000    0.0352600000000000 Zn
   0.9761466666666666    0.4911900000000000    0.2981750000000000 Zn
   0.1745900000000000    0.4538850000000000    0.2147350000000000 Zn
   0.9761466666666666    0.7412050000000000    0.9518450000000001 Zn
   0.1745933333333333    0.7038900000000000    0.0352600000000000 Zn
   0.9761466666666666    0.9911900000000000    0.2981750000000000 Zn
   0.1745900000000000    0.9538850000000000    0.2147350000000000 Zn
   0.3571800000000000    0.0087900000000000    0.7018400000000000 Zn
   0.1587366666666667    0.0461100000000000    0.7852550000000000 Zn
   0.3571866666666667    0.7587900000000001    0.0481600000000000 Zn
   0.1587400000000000    0.7961150000000000    0.9645000000000000 Zn
   0.3571800000000000    0.5087900000000000    0.7018400000000000 Zn
   0.1587366666666667    0.5461100000000000    0.7852550000000000 Zn
   0.3571866666666667    0.2587900000000000    0.0481600000000000 Zn
   0.1587400000000000    0.2961150000000000    0.9645000000000000 Zn
   0.9761466666666666    0.2412050000000000    0.4518450000000000 Zn
   0.1745933333333333    0.2038900000000000    0.5352600000000000 Zn
   0.9761466666666666    0.4911900000000000    0.7981750000000001 Zn
   0.1745900000000000    0.4538850000000000    0.7147350000000000 Zn
   0.9761466666666666    0.7412050000000000    0.4518450000000000 Zn
   0.1745933333333333    0.7038900000000000    0.5352600000000000 Zn
   0.9761466666666666    0.9911900000000000    0.7981750000000001 Zn
   0.1745900000000000    0.9538850000000000    0.7147350000000000 Zn
   0.3571800000000000    0.0087900000000000    0.2018400000000000 Zn
   0.1587366666666667    0.0461100000000000    0.2852550000000000 Zn
   0.3571866666666667    0.7587900000000001    0.5481600000000000 Zn
   0.1587400000000000    0.7961150000000000    0.4645000000000000 Zn
   0.3571800000000000    0.5087900000000000    0.2018400000000000 Zn
   0.1587366666666667    0.5461100000000000    0.2852550000000000 Zn
   0.3571866666666667    0.2587900000000000    0.5481600000000000 Zn
   0.1587400000000000    0.2961150000000000    0.4645000000000000 Zn
   0.3407866666666666    0.0461550000000000    0.5352100000000000 Zn
   0.1424566666666667    0.0096900000000000    0.4519450000000000 Zn
   0.3258833333333333    0.9538400000000000    0.4647950000000000 Zn
   0.5242133333333333    0.9903150000000001    0.5480550000000000 Zn
   0.3407866666666666    0.5461549999999999    0.5352100000000000 Zn
   0.1424566666666667    0.5096900000000000    0.4519450000000000 Zn
   0.3258833333333333    0.4538400000000000    0.4647950000000000 Zn
   0.5242133333333333    0.4903150000000000    0.5480550000000000 Zn
   0.3407866666666666    0.5461549999999999    0.0352100000000000 Zn
   0.1424566666666667    0.5096900000000000    0.9519450000000000 Zn
   0.3258833333333333    0.4538400000000000    0.9647950000000001 Zn
   0.5242133333333333    0.4903150000000000    0.0480550000000000 Zn
   0.3407866666666666    0.0461550000000000    0.0352100000000000 Zn
   0.1424566666666667    0.0096900000000000    0.9519450000000000 Zn
   0.3258833333333333    0.9538400000000000    0.9647950000000001 Zn
   0.5242133333333333    0.9903150000000001    0.0480550000000000 Zn
   0.3258799999999999    0.2038400000000000    0.7852200000000000 Zn
   0.5242166666666667    0.2403100000000000    0.7019550000000000 Zn
   0.3407866666666666    0.2961500000000000    0.7147900000000000 Zn
   0.1424466666666667    0.2596900000000000    0.7980600000000000 Zn
   0.3258799999999999    0.7038400000000000    0.7852200000000000 Zn
   0.5242166666666667    0.7403100000000000    0.7019550000000000 Zn
   0.3407866666666666    0.7961500000000000    0.7147900000000000 Zn
   0.1424466666666667    0.7596900000000000    0.7980600000000000 Zn
   0.3258799999999999    0.7038400000000000    0.2852200000000000 Zn
   0.5242166666666667    0.7403100000000000    0.2019550000000000 Zn
   0.3407866666666666    0.7961500000000000    0.2147900000000000 Zn
   0.1424466666666667    0.7596900000000000    0.2980600000000000 Zn
   0.3258799999999999    0.2038400000000000    0.2852200000000000 Zn
   0.5242166666666667    0.2403100000000000    0.2019550000000000 Zn
   0.3407866666666666    0.2961500000000000    0.2147900000000000 Zn
   0.1424466666666667    0.2596900000000000    0.2980600000000000 Zn
   0.3094800000000000    0.2412050000000000    0.9518450000000001 Zn
   0.5079266666666666    0.2038900000000000    0.0352600000000000 Zn
   0.3094800000000000    0.4911900000000000    0.2981750000000000 Zn
   0.5079233333333333    0.4538850000000000    0.2147350000000000 Zn
   0.3094800000000000    0.7412050000000000    0.9518450000000001 Zn
   0.5079266666666666    0.7038900000000000    0.0352600000000000 Zn
   0.3094800000000000    0.9911900000000000    0.2981750000000000 Zn
   0.5079233333333333    0.9538850000000000    0.2147350000000000 Zn
   0.6905133333333333    0.0087900000000000    0.7018400000000000 Zn
   0.4920700000000000    0.0461100000000000    0.7852550000000000 Zn
   0.6905199999999999    0.7587900000000001    0.0481600000000000 Zn
   0.4920733333333333    0.7961150000000000    0.9645000000000000 Zn
   0.6905133333333333    0.5087900000000000    0.7018400000000000 Zn
   0.4920700000000000    0.5461100000000000    0.7852550000000000 Zn
   0.6905199999999999    0.2587900000000000    0.0481600000000000 Zn
   0.4920733333333333    0.2961150000000000    0.9645000000000000 Zn
   0.3094800000000000    0.2412050000000000    0.4518450000000000 Zn
   0.5079266666666666    0.2038900000000000    0.5352600000000000 Zn
   0.3094800000000000    0.4911900000000000    0.7981750000000001 Zn
   0.5079233333333333    0.4538850000000000    0.7147350000000000 Zn
   0.3094800000000000    0.7412050000000000    0.4518450000000000 Zn
   0.5079266666666666    0.7038900000000000    0.5352600000000000 Zn
   0.3094800000000000    0.9911900000000000    0.7981750000000001 Zn
   0.5079233333333333    0.9538850000000000    0.7147350000000000 Zn
   0.6905133333333333    0.0087900000000000    0.2018400000000000 Zn
   0.4920700000000000    0.0461100000000000    0.2852550000000000 Zn
   0.6905199999999999    0.7587900000000001    0.5481600000000000 Zn
   0.4920733333333333    0.7961150000000000    0.4645000000000000 Zn
   0.6905133333333333    0.5087900000000000    0.2018400000000000 Zn
   0.4920700000000000    0.5461100000000000    0.2852550000000000 Zn
   0.6905199999999999    0.2587900000000000    0.5481600000000000 Zn
   0.4920733333333333    0.2961150000000000    0.4645000000000000 Zn
   0.6741199999999999    0.5461549999999999    0.5352100000000000 Zn
   0.4757900000000000    0.5096900000000000    0.4519450000000000 Zn
   0.6592166666666666    0.4538400000000000    0.4647950000000000 Zn
   0.8575466666666667    0.4903150000000000    0.5480550000000000 Zn
   0.6741199999999999    0.5461549999999999    0.0352100000000000 Zn
   0.4757900000000000    0.5096900000000000    0.9519450000000000 Zn
   0.6592166666666666    0.4538400000000000    0.9647950000000001 Zn
   0.8575466666666667    0.4903150000000000    0.0480550000000000 Zn
   0.6741199999999999    0.0461550000000000    0.5352100000000000 Zn
   0.4757900000000000    0.0096900000000000    0.4519450000000000 Zn
   0.6592166666666666    0.9538400000000000    0.4647950000000000 Zn
   0.8575466666666667    0.9903150000000001    0.5480550000000000 Zn
   0.6741199999999999    0.0461550000000000    0.0352100000000000 Zn
   0.4757900000000000    0.0096900000000000    0.9519450000000000 Zn
   0.6592166666666666    0.9538400000000000    0.9647950000000001 Zn
   0.8575466666666667    0.9903150000000001    0.0480550000000000 Zn
   0.6592133333333332    0.7038400000000000    0.7852200000000000 Zn
   0.8575499999999999    0.7403100000000000    0.7019550000000000 Zn
   0.6741199999999999    0.7961500000000000    0.7147900000000000 Zn
   0.4757800000000000    0.7596900000000000    0.7980600000000000 Zn
   0.6592133333333332    0.2038400000000000    0.7852200000000000 Zn
   0.8575499999999999    0.2403100000000000    0.7019550000000000 Zn
   0.6741199999999999    0.2961500000000000    0.7147900000000000 Zn
   0.4757800000000000    0.2596900000000000    0.7980600000000000 Zn
   0.6592133333333332    0.2038400000000000    0.2852200000000000 Zn
   0.8575499999999999    0.2403100000000000    0.2019550000000000 Zn
   0.6741199999999999    0.2961500000000000    0.2147900000000000 Zn
   0.4757800000000000    0.2596900000000000    0.2980600000000000 Zn
   0.6592133333333332    0.7038400000000000    0.2852200000000000 Zn
   0.6741199999999999    0.7961500000000000    0.2147900000000000 Zn
   0.4757800000000000    0.7596900000000000    0.2980600000000000 Zn
   0.6428133333333332    0.2412050000000000    0.9518450000000001 Zn
   0.8412599999999999    0.2038900000000000    0.0352600000000000 Zn
   0.6428133333333332    0.4911900000000000    0.2981750000000000 Zn
   0.8412566666666665    0.4538850000000000    0.2147350000000000 Zn
   0.6428133333333332    0.7412050000000000    0.9518450000000001 Zn
   0.8412599999999999    0.7038900000000000    0.0352600000000000 Zn
   0.6428133333333332    0.9911900000000000    0.2981750000000000 Zn
   0.8412566666666665    0.9538850000000000    0.2147350000000000 Zn
   0.0238466666666667    0.0087900000000000    0.7018400000000000 Zn
   0.8254033333333333    0.0461100000000000    0.7852550000000000 Zn
   0.0238533333333333    0.7587900000000001    0.0481600000000000 Zn
   0.8254066666666666    0.7961150000000000    0.9645000000000000 Zn
   0.0238466666666667    0.5087900000000000    0.7018400000000000 Zn
   0.8254033333333333    0.5461100000000000    0.7852550000000000 Zn
   0.0238533333333333    0.2587900000000000    0.0481600000000000 Zn
   0.8254066666666666    0.2961150000000000    0.9645000000000000 Zn
   0.6428133333333332    0.2412050000000000    0.4518450000000000 Zn
   0.8412599999999999    0.2038900000000000    0.5352600000000000 Zn
   0.6428133333333332    0.4911900000000000    0.7981750000000001 Zn
   0.8412566666666665    0.4538850000000000    0.7147350000000000 Zn
   0.6428133333333332    0.7412050000000000    0.4518450000000000 Zn
   0.8412599999999999    0.7038900000000000    0.5352600000000000 Zn
   0.6428133333333332    0.9911900000000000    0.7981750000000001 Zn
   0.8412566666666665    0.9538850000000000    0.7147350000000000 Zn
   0.0238466666666667    0.0087900000000000    0.2018400000000000 Zn
   0.8254033333333333    0.0461100000000000    0.2852550000000000 Zn
   0.0238533333333333    0.7587900000000001    0.5481600000000000 Zn
   0.8254066666666666    0.7961150000000000    0.4645000000000000 Zn
   0.0238466666666667    0.5087900000000000    0.2018400000000000 Zn
   0.8254033333333333    0.5461100000000000    0.2852550000000000 Zn
   0.0238533333333333    0.2587900000000000    0.5481600000000000 Zn
   0.8254066666666666    0.2961150000000000    0.4645000000000000 Zn
   0.8523966666666666    0.8497950000000001    0.1744850000000000 H
   0.8136433333333333    0.8641200000000000    0.3205600000000000 H
   0.8112533333333333    0.9186150000000000    0.2968350000000000 H
   0.8143166666666666    0.4002050000000000    0.4244650000000000 H
   0.8529499999999999    0.3858800000000000    0.5705800000000000 H
   0.8553599999999999    0.3313800000000000    0.5468550000000000 H
   0.9129699999999999    0.4294800000000000    0.4975850000000000 H
   0.9493600000000000    0.5758550000000000    0.5825200000000000 H
   0.9082600000000000    0.5562800000000000    0.5915150000000000 H
   0.1856833333333333    0.5997950000000000    0.5755350000000000 H
   0.1470466666666667    0.6141250000000000    0.4294250000000000 H
   0.1446366666666667    0.6686300000000001    0.4531500000000000 H
   0.0870300000000000    0.5705200000000000    0.5024000000000000 H
   0.0506433333333333    0.4241350000000000    0.4174850000000000 H
   0.0917466666666667    0.4437150000000000    0.4084900000000000 H
   0.8143166666666666    0.9002049999999999    0.4244650000000000 H
   0.8529499999999999    0.8858800000000000    0.5705800000000000 H
   0.8553599999999999    0.8313800000000000    0.5468550000000000 H
   0.9129699999999999    0.9294800000000000    0.4975850000000000 H
   0.9493600000000000    0.0758550000000000    0.5825200000000000 H
   0.9082600000000000    0.0562800000000000    0.5915150000000000 H
   0.1856833333333333    0.0997950000000000    0.5755350000000000 H
   0.1470466666666667    0.1141250000000000    0.4294250000000000 H
   0.1446366666666667    0.1686300000000000    0.4531500000000000 H
   0.0870300000000000    0.0705200000000000    0.5024000000000000 H
   0.0506433333333333    0.9241349999999999    0.4174850000000000 H
   0.0917466666666667    0.9437150000000001    0.4084900000000000 H
   0.8143166666666666    0.4002050000000000    0.9244650000000000 H
   0.8529499999999999    0.3858800000000000    0.0705800000000000 H
   0.8553599999999999    0.3313800000000000    0.0468550000000000 H
   0.9129699999999999    0.4294800000000000    0.9975849999999999 H
   0.9493600000000000    0.5758550000000000    0.0825200000000000 H
   0.9082600000000000    0.5562800000000000    0.0915150000000000 H
   0.1856833333333333    0.5997950000000000    0.0755350000000000 H
   0.1470466666666667    0.6141250000000000    0.9294249999999999 H
   0.1446366666666667    0.6686300000000001    0.9531499999999999 H
   0.0870300000000000    0.5705200000000000    0.0024000000000000 H
   0.0506433333333333    0.4241350000000000    0.9174850000000000 H
   0.0917466666666667    0.4437150000000000    0.9084900000000000 H
   0.8143166666666666    0.9002049999999999    0.9244650000000000 H
   0.8529499999999999    0.8858800000000000    0.0705800000000000 H
   0.8553599999999999    0.8313800000000000    0.0468550000000000 H
   0.9129699999999999    0.9294800000000000    0.9975849999999999 H
   0.9493600000000000    0.0758550000000000    0.0825200000000000 H
   0.9082600000000000    0.0562800000000000    0.0915150000000000 H
   0.1856833333333333    0.0997950000000000    0.0755350000000000 H
   0.1470466666666667    0.1141250000000000    0.9294249999999999 H
   0.1446366666666667    0.1686300000000000    0.9531499999999999 H
   0.0870300000000000    0.0705200000000000    0.0024000000000000 H
   0.0506433333333333    0.9241349999999999    0.9174850000000000 H
   0.0917466666666667    0.9437150000000001    0.9084900000000000 H
   0.1857300000000000    0.8497950000000001    0.6744850000000000 H
   0.1469766666666666    0.8641200000000000    0.8205600000000000 H
   0.1445866666666666    0.9186150000000000    0.7968350000000000 H
   0.0870133333333333    0.8205500000000000    0.7476150000000000 H
   0.0506300000000000    0.6741650000000000    0.8325500000000000 H
   0.0917300000000000    0.6937450000000001    0.8415500000000000 H
   0.8142333333333333    0.6501950000000000    0.8255049999999999 H
   0.8529966666666666    0.6358800000000000    0.6794350000000000 H
   0.8553799999999999    0.5813800000000000    0.7031499999999999 H
   0.9129699999999999    0.6794800000000000    0.7524350000000000 H
   0.9493766666666666    0.8258400000000000    0.6674850000000000 H
   0.9082733333333333    0.8062700000000000    0.6584500000000000 H
   0.1857300000000000    0.8497950000000001    0.1744850000000000 H
   0.1469766666666666    0.8641200000000000    0.3205600000000000 H
   0.1445866666666666    0.9186150000000000    0.2968350000000000 H
   0.0870133333333333    0.8205500000000000    0.2476150000000000 H
   0.0506300000000000    0.6741650000000000    0.3325500000000000 H
   0.0917300000000000    0.6937450000000001    0.3415500000000000 H
   0.8142333333333333    0.6501950000000000    0.3255050000000000 H
   0.8529966666666666    0.6358800000000000    0.1794350000000000 H
   0.8553799999999999    0.5813800000000000    0.2031500000000000 H
   0.9129699999999999    0.6794800000000000    0.2524350000000000 H
   0.9493766666666666    0.8258400000000000    0.1674850000000000 H
   0.9082733333333333    0.8062700000000000    0.1584500000000000 H
   0.1857300000000000    0.3497950000000000    0.6744850000000000 H
   0.1469766666666666    0.3641200000000000    0.8205600000000000 H
   0.1445866666666666    0.4186150000000000    0.7968350000000000 H
   0.0870133333333333    0.3205500000000000    0.7476150000000000 H
   0.0506300000000000    0.1741650000000000    0.8325500000000000 H
   0.0917300000000000    0.1937450000000000    0.8415500000000000 H
   0.8142333333333333    0.1501950000000000    0.8255049999999999 H
   0.8529966666666666    0.1358800000000000    0.6794350000000000 H
   0.8553799999999999    0.0813800000000000    0.7031499999999999 H
   0.9129699999999999    0.1794800000000000    0.7524350000000000 H
   0.9493766666666666    0.3258400000000000    0.6674850000000000 H
   0.9082733333333333    0.3062700000000000    0.6584500000000000 H
   0.1857300000000000    0.3497950000000000    0.1744850000000000 H
   0.1469766666666666    0.3641200000000000    0.3205600000000000 H
   0.1445866666666666    0.4186150000000000    0.2968350000000000 H
   0.0870133333333333    0.3205500000000000    0.2476150000000000 H
   0.0506300000000000    0.1741650000000000    0.3325500000000000 H
   0.0917300000000000    0.1937450000000000    0.3415500000000000 H
   0.8142333333333333    0.1501950000000000    0.3255050000000000 H
   0.8529966666666666    0.1358800000000000    0.1794350000000000 H
   0.8553799999999999    0.0813800000000000    0.2031500000000000 H
   0.9129699999999999    0.1794800000000000    0.2524350000000000 H
   0.9493766666666666    0.3258400000000000    0.1674850000000000 H
   0.9082733333333333    0.3062700000000000    0.1584500000000000 H
   0.9818733333333333    0.3502050000000000    0.9244749999999999 H
   0.0202200000000000    0.3637350000000000    0.0707800000000000 H
   0.0224066666666667    0.4184100000000000    0.0472700000000000 H
   0.0792300000000000    0.3198200000000000    0.9977000000000000 H
   0.1160966666666667    0.1736850000000000    0.0827950000000000 H
   0.0748166666666667    0.1929450000000000    0.0913400000000000 H
   0.9818800000000000    0.6001900000000000    0.3255500000000000 H
   0.0201900000000000    0.6137400000000000    0.1792250000000000 H
   0.0223900000000000    0.6684099999999999    0.2027400000000000 H
   0.0792266666666667    0.5698200000000000    0.2523100000000000 H
   0.1160800000000000    0.4236500000000000    0.1672300000000000 H
   0.0748066666666667    0.4429200000000000    0.1586800000000000 H
   0.9818733333333333    0.8502050000000000    0.9244749999999999 H
   0.0202200000000000    0.8637349999999999    0.0707800000000000 H
   0.0224066666666667    0.9184099999999999    0.0472700000000000 H
   0.0792300000000000    0.8198200000000000    0.9977000000000000 H
   0.1160966666666667    0.6736850000000000    0.0827950000000000 H
   0.0748166666666667    0.6929450000000000    0.0913400000000000 H
   0.9818800000000000    0.1001900000000000    0.3255500000000000 H
   0.0201900000000000    0.1137400000000000    0.1792250000000000 H
   0.0223900000000000    0.1684100000000000    0.2027400000000000 H
   0.0792266666666667    0.0698200000000000    0.2523100000000000 H
   0.1160800000000000    0.9236500000000001    0.1672300000000000 H
   0.0748066666666667    0.9429200000000000    0.1586800000000000 H
   0.3514233333333333    0.8997950000000000    0.6744500000000000 H
   0.3131400000000000    0.8862400000000000    0.8207850000000000 H
   0.3109400000000000    0.8315699999999999    0.7972650000000000 H
   0.2540833333333333    0.9301349999999999    0.7477100000000000 H
   0.2172433333333333    0.0763300000000000    0.8327500000000000 H
   0.2585166666666666    0.0570500000000000    0.8413250000000000 H
   0.3131200000000000    0.6362600000000000    0.9292300000000000 H
   0.3109300000000000    0.5815850000000000    0.9527399999999999 H
   0.3514566666666666    0.6497900000000000    0.0755350000000000 H
   0.2541000000000000    0.6801800000000000    0.0023150000000000 H
   0.2172400000000000    0.8263100000000000    0.9172100000000001 H
   0.2585166666666666    0.8070450000000000    0.9086650000000001 H
   0.3514233333333333    0.3997950000000000    0.6744500000000000 H
   0.3131400000000000    0.3862400000000000    0.8207850000000000 H
   0.3109400000000000    0.3315700000000000    0.7972650000000000 H
   0.2540833333333333    0.4301350000000000    0.7477100000000000 H
   0.2172433333333333    0.5763300000000000    0.8327500000000000 H
   0.2585166666666666    0.5570500000000000    0.8413250000000000 H
   0.3131200000000000    0.1362600000000000    0.9292300000000000 H
   0.3109300000000000    0.0815850000000000    0.9527399999999999 H
   0.3514566666666666    0.1497900000000000    0.0755350000000000 H
   0.2541000000000000    0.1801800000000000    0.0023150000000000 H
   0.2172400000000000    0.3263100000000000    0.9172100000000001 H
   0.2585166666666666    0.3070450000000000    0.9086650000000001 H
   0.9818733333333333    0.3502050000000000    0.4244750000000000 H
   0.0202200000000000    0.3637350000000000    0.5707800000000000 H
   0.0224066666666667    0.4184100000000000    0.5472700000000000 H
   0.0792300000000000    0.3198200000000000    0.4977000000000000 H
   0.1160966666666667    0.1736850000000000    0.5827950000000000 H
   0.0748166666666667    0.1929450000000000    0.5913400000000000 H
   0.9818800000000000    0.6001900000000000    0.8255500000000000 H
   0.0201900000000000    0.6137400000000000    0.6792250000000000 H
   0.0223900000000000    0.6684099999999999    0.7027400000000000 H
   0.0792266666666667    0.5698200000000000    0.7523100000000000 H
   0.1160800000000000    0.4236500000000000    0.6672300000000000 H
   0.0748066666666667    0.4429200000000000    0.6586799999999999 H
   0.9818733333333333    0.8502050000000000    0.4244750000000000 H
   0.0202200000000000    0.8637349999999999    0.5707800000000000 H
   0.0224066666666667    0.9184099999999999    0.5472700000000000 H
   0.0792300000000000    0.8198200000000000    0.4977000000000000 H
   0.1160966666666667    0.6736850000000000    0.5827950000000000 H
   0.0748166666666667    0.6929450000000000    0.5913400000000000 H
   0.9818800000000000    0.1001900000000000    0.8255500000000000 H
   0.0201900000000000    0.1137400000000000    0.6792250000000000 H
   0.0223900000000000    0.1684100000000000    0.7027400000000000 H
   0.0792266666666667    0.0698200000000000    0.7523100000000000 H
   0.1160800000000000    0.9236500000000001    0.6672300000000000 H
   0.0748066666666667    0.9429200000000000    0.6586799999999999 H
   0.3514233333333333    0.8997950000000000    0.1744500000000000 H
   0.3131400000000000    0.8862400000000000    0.3207850000000000 H
   0.3109400000000000    0.8315699999999999    0.2972650000000000 H
   0.2540833333333333    0.9301349999999999    0.2477100000000000 H
   0.2172433333333333    0.0763300000000000    0.3327500000000000 H
   0.2585166666666666    0.0570500000000000    0.3413250000000000 H
   0.3131200000000000    0.6362600000000000    0.4292300000000000 H
   0.3109300000000000    0.5815850000000000    0.4527400000000000 H
   0.3514566666666666    0.6497900000000000    0.5755350000000000 H
   0.2541000000000000    0.6801800000000000    0.5023150000000000 H
   0.2172400000000000    0.8263100000000000    0.4172100000000000 H
   0.2585166666666666    0.8070450000000000    0.4086650000000000 H
   0.3514233333333333    0.3997950000000000    0.1744500000000000 H
   0.3131400000000000    0.3862400000000000    0.3207850000000000 H
   0.3109400000000000    0.3315700000000000    0.2972650000000000 H
   0.2540833333333333    0.4301350000000000    0.2477100000000000 H
   0.2172433333333333    0.5763300000000000    0.3327500000000000 H
   0.2585166666666666    0.5570500000000000    0.3413250000000000 H
   0.3131200000000000    0.1362600000000000    0.4292300000000000 H
   0.3109300000000000    0.0815850000000000    0.4527400000000000 H
   0.3514566666666666    0.1497900000000000    0.5755350000000000 H
   0.2541000000000000    0.1801800000000000    0.5023150000000000 H
   0.2172400000000000    0.3263100000000000    0.4172100000000000 H
   0.2585166666666666    0.3070450000000000    0.4086650000000000 H
   0.1476500000000000    0.9002049999999999    0.4244650000000000 H
   0.1862833333333333    0.8858800000000000    0.5705800000000000 H
   0.1886933333333333    0.8313800000000000    0.5468550000000000 H
   0.2463033333333333    0.9294800000000000    0.4975850000000000 H
   0.2826933333333333    0.0758550000000000    0.5825200000000000 H
   0.2415933333333333    0.0562800000000000    0.5915150000000000 H
   0.5190166666666667    0.0997950000000000    0.5755350000000000 H
   0.4803800000000000    0.1141250000000000    0.4294250000000000 H
   0.4779700000000000    0.1686300000000000    0.4531500000000000 H
   0.4203633333333333    0.0705200000000000    0.5024000000000000 H
   0.3839766666666666    0.9241349999999999    0.4174850000000000 H
   0.4250800000000000    0.9437150000000001    0.4084900000000000 H
   0.1476500000000000    0.4002050000000000    0.4244650000000000 H
   0.1862833333333333    0.3858800000000000    0.5705800000000000 H
   0.1886933333333333    0.3313800000000000    0.5468550000000000 H
   0.2463033333333333    0.4294800000000000    0.4975850000000000 H
   0.2826933333333333    0.5758550000000000    0.5825200000000000 H
   0.2415933333333333    0.5562800000000000    0.5915150000000000 H
   0.5190166666666667    0.5997950000000000    0.5755350000000000 H
   0.4803800000000000    0.6141250000000000    0.4294250000000000 H
   0.4779700000000000    0.6686300000000001    0.4531500000000000 H
   0.4203633333333333    0.5705200000000000    0.5024000000000000 H
   0.3839766666666666    0.4241350000000000    0.4174850000000000 H
   0.4250800000000000    0.4437150000000000    0.4084900000000000 H
   0.1476500000000000    0.4002050000000000    0.9244650000000000 H
   0.1862833333333333    0.3858800000000000    0.0705800000000000 H
   0.1886933333333333    0.3313800000000000    0.0468550000000000 H
   0.2463033333333333    0.4294800000000000    0.9975849999999999 H
   0.2826933333333333    0.5758550000000000    0.0825200000000000 H
   0.2415933333333333    0.5562800000000000    0.0915150000000000 H
   0.5190166666666667    0.5997950000000000    0.0755350000000000 H
   0.4803800000000000    0.6141250000000000    0.9294249999999999 H
   0.4779700000000000    0.6686300000000001    0.9531499999999999 H
   0.4203633333333333    0.5705200000000000    0.0024000000000000 H
   0.3839766666666666    0.4241350000000000    0.9174850000000000 H
   0.4250800000000000    0.4437150000000000    0.9084900000000000 H
   0.1476500000000000    0.9002049999999999    0.9244650000000000 H
   0.1862833333333333    0.8858800000000000    0.0705800000000000 H
   0.1886933333333333    0.8313800000000000    0.0468550000000000 H
   0.2463033333333333    0.9294800000000000    0.9975849999999999 H
   0.2826933333333333    0.0758550000000000    0.0825200000000000 H
   0.2415933333333333    0.0562800000000000    0.0915150000000000 H
   0.5190166666666667    0.0997950000000000    0.0755350000000000 H
   0.4803800000000000    0.1141250000000000    0.9294249999999999 H
   0.4779700000000000    0.1686300000000000    0.9531499999999999 H
   0.4203633333333333    0.0705200000000000    0.0024000000000000 H
   0.3839766666666666    0.9241349999999999    0.9174850000000000 H