Cu4 H12 C18 N15
1.0
   5.7154999573444982    0.0000000000000000   -0.0006982800520474
  -0.5371199749708176   10.6029040525770064   -0.0001852928800298
   0.0000000000000000    0.0000000000000000   16.1950000000000003
Cu H C N
4 12 18 15
direct
   0.2480600000000000    0.0037200000000000    0.9304900000000000 Cu
   0.2479100000000000    0.5039700000000000    0.5694700000000000 Cu
   0.7515100000000000    0.9953500000000000    0.0695100000000000 Cu
   0.7515600000000000    0.4951800000000000    0.4305100000000000 Cu
   0.4104500000000000    0.6964800000000000    0.4280100000000000 H
   0.2206900000000000    0.8290900000000000    0.3224200000000000 H
   0.7383000000000000    0.7137300000000000    0.1476000000000000 H
   0.9029100000000000    0.5828400000000000    0.2593100000000000 H
   0.5894800000000000    0.8034000000000000    0.9279600000000000 H
   0.7789400000000000    0.6705900000000000    0.8224100000000000 H
   0.2611600000000000    0.7858300000000000    0.6476000000000000 H
   0.0967300000000000    0.9168400000000000    0.7592500000000000 H
   0.4107200000000000    0.1968600000000000    0.0718700000000000 H
   0.2209200000000000    0.3295000000000000    0.1774600000000000 H
   0.7387800000000000    0.2143200000000000    0.3522800000000000 H
   0.9035400000000000    0.0834800000000000    0.2405700000000000 H
   0.4779600000000000    0.7030800000000000    0.3650800000000000 C
   0.3734800000000000    0.7769300000000000    0.3064400000000000 C
   0.4636900000000000    0.7822700000000000    0.2256200000000000 C
   0.6601700000000000    0.7124900000000000    0.2088300000000000 C
   0.7530100000000000    0.6399100000000000    0.2709900000000000 C
   0.3443600000000000    0.8516600000000000    0.1618100000000000 C
   0.5218100000000000    0.7967100000000000    0.8650400000000000 C
   0.6261500000000000    0.7227600000000000    0.8064300000000000 C
   0.5359200000000000    0.7174000000000000    0.7256100000000000 C
   0.3393600000000000    0.7871200000000000    0.7088200000000000 C
   0.2466600000000000    0.8597900000000001    0.7709500000000000 C
   0.6552100000000000    0.6479500000000000    0.6618300000000000 C
   0.4783200000000000    0.2035800000000000    0.1347800000000000 C
   0.3738100000000000    0.2774000000000000    0.1934200000000000 C
   0.4640300000000000    0.2827000000000000    0.2742400000000000 C
   0.6606600000000000    0.2130500000000000    0.2910400000000000 C
   0.7535800000000000    0.1405200000000000    0.2289000000000000 C
   0.3445600000000000    0.3519500000000000    0.3380400000000000 C
   0.6643400000000000    0.6332500000000000    0.3484100000000000 N
   0.4350800000000000    0.8915100000000000    0.0881400000000000 N
   0.2530700000000000    0.9401100000000000    0.0475200000000000 N
   0.0621200000000000    0.9304900000000000    0.0963300000000000 N
   0.1162400000000000    0.8767700000000000    0.1683000000000000 N
   0.3354800000000000    0.8665800000000000    0.8483700000000000 N
   0.5645800000000000    0.6082200000000000    0.5881100000000000 N
   0.7465800000000000    0.5595900000000000    0.5475300000000000 N
   0.9374500000000000    0.5690700000000000    0.5964000000000000 N
   0.8832700000000000    0.6227300000000000    0.6683900000000000 N
   0.6647900000000000    0.1338200000000000    0.1514800000000000 N
   0.4350300000000000    0.3914300000000000    0.4118300000000000 N
   0.2529800000000000    0.4399800000000000    0.4524300000000000 N
   0.0621700000000000    0.4305500000000000    0.4035300000000000 N
   0.1165200000000000    0.3771600000000000    0.3314700000000000 N
