C2 O4
1.0
  12.5420457232878508    0.0000000000000000    1.1966160933887382
   1.2259877661506180   15.6469254717315867    7.2583704286379787
   0.0000000000000000    0.0000000000000000   19.2940000000000005
C O
2 4
direct
   0.9293400000000001    0.3907500000000000    0.1589500000000000 C
   0.8053399999999999    0.3937100000000000    0.1576200000000000 C
  -0.0184200000000000    0.4300500000000000    0.0955800000000000 O
   0.9718700000000000    0.3447400000000000    0.2211100000000000 O
   0.7631100000000000    0.4356400000000000    0.0933100000000000 O
   0.7552700000000000    0.3491200000000000    0.2189200000000000 O
