Ba32 H4 C62 O127
1.0
  12.5420457232878508    0.0000000000000000    1.1966160933887382
   1.2259877661506180   15.6469254717315867    7.2583704286379787
   0.0000000000000000    0.0000000000000000   19.2940000000000005
Ba H C O
32 4 62 127
direct
   0.1070200000000000    0.5687000000000000    0.5332600000000000 Ba
   0.3599400000000000    0.2353000000000000    0.8501400000000000 Ba
   0.6070200000000000    0.5687000000000000    0.5332600000000000 Ba
   0.8599300000000000    0.2353000000000000    0.8501400000000000 Ba
   0.8929600000000000    0.4313400000000000    0.4667200000000000 Ba
   0.6400400000000001    0.7647400000000000    0.1498400000000000 Ba
   0.3929600000000000    0.4313400000000000    0.4667200000000000 Ba
   0.1400500000000000    0.7647400000000000    0.1498400000000000 Ba
   0.8929500000000000    0.9313600000000000    0.9667100000000000 Ba
   0.6400400000000001    0.2647300000000000    0.6498300000000000 Ba
   0.3929600000000000    0.9313600000000000    0.9667100000000000 Ba
   0.1400500000000000    0.2647300000000000    0.6498300000000000 Ba
   0.1070300000000000    0.0686900000000000    0.5332600000000000 Ba
   0.3599400000000000    0.7353100000000000    0.8501400000000000 Ba
   0.6070200000000000    0.0686900000000000    0.5332600000000000 Ba
   0.8599300000000000    0.7353100000000000    0.8501400000000000 Ba
   0.1070300000000000    0.0686800000000000    0.0332700000000000 Ba
   0.3599400000000000    0.7353100000000000    0.3501000000000000 Ba
   0.6070300000000000    0.0686800000000000    0.0332700000000000 Ba
   0.8599300000000000    0.7353100000000000    0.3501500000000000 Ba
   0.3929600000000000    0.4313400000000000    0.9667100000000000 Ba
   0.1400400000000000    0.7647500000000000    0.6498300000000000 Ba
   0.1070300000000000    0.5686900000000000    0.0332700000000000 Ba
   0.3599400000000000    0.2352900000000000    0.3501000000000000 Ba
   0.8929600000000000    0.4313400000000000    0.9667100000000000 Ba
   0.1400500000000000    0.2647300000000000    0.1498400000000000 Ba
   0.8599400000000000    0.2352900000000000    0.3501000000000000 Ba
   0.3929600000000000    0.9313500000000000    0.4667200000000000 Ba
   0.6070200000000000    0.5686900000000000    0.0332700000000000 Ba
   0.6400400000000001    0.7647500000000000    0.6498300000000000 Ba
   0.8929600000000000    0.9313500000000000    0.4667200000000000 Ba
   0.6400500000000000    0.2647300000000000    0.1498400000000000 Ba
   0.7954452376800243    0.4035344703783230    0.1425517507743870 H
   0.9587156836239790    0.2956490389342071    0.2119966669967553 H
  -0.0223533015515942    0.4333356653988615    0.0444387870498775 H
   0.9611255195303335    0.3537153524475175    0.0814091007605505 H
   0.3372200000000000    0.6581800000000000    0.5591699999999999 C
   0.4088000000000000    0.7059000000000000    0.5866200000000000 C
   0.8372200000000000    0.6581900000000001    0.5591699999999999 C
   0.9088000000000001    0.7059000000000000    0.5866000000000000 C
   0.3053400000000000    0.3937200000000000    0.6576000000000000 C
   0.4293400000000000    0.3907600000000000    0.6589400000000000 C
   0.8053399999999999    0.3937200000000000    0.6576000000000000 C
   0.9293300000000000    0.3907600000000000    0.6589400000000000 C
   0.1627600000000000    0.3418600000000000    0.4408000000000000 C
   0.0911800000000000    0.2941400000000000    0.4133000000000000 C
   0.6627600000000000    0.3418700000000000    0.4407900000000000 C
   0.5911800000000000    0.2941300000000000    0.4133600000000000 C
   0.6946400000000000    0.6063200000000000    0.3423600000000000 C
   0.5706400000000000    0.6092800000000000    0.3410300000000000 C
   0.1946400000000000    0.6063200000000000    0.3423600000000000 C
   0.0706500000000000    0.6092800000000000    0.3410300000000000 C
   0.1627600000000000    0.8418700000000000    0.9407900000000000 C
   0.0911800000000000    0.7941600000000000    0.9133000000000000 C
   0.6627500000000000    0.8418800000000000    0.9407900000000000 C
   0.5911700000000000    0.7941600000000000    0.9133500000000000 C
   0.5706400000000000    0.1092700000000000    0.8410300000000001 C
   0.6946400000000000    0.1063100000000000    0.8423500000000000 C
   0.0706500000000000    0.1092700000000000    0.8410300000000001 C
   0.1946400000000000    0.1063100000000000    0.8423500000000000 C
   0.3372200000000000    0.1581700000000000    0.5591699999999999 C
   0.4088100000000000    0.2058800000000000    0.5866000000000000 C
   0.8372200000000000    0.1581600000000000    0.5591800000000000 C
   0.9088000000000001    0.2058900000000000    0.5866100000000000 C
   0.3053400000000000    0.8937300000000000    0.6576000000000000 C
   0.4293300000000000    0.8907700000000000    0.6589400000000000 C
   0.8053300000000000    0.8937300000000000    0.6576000000000000 C
   0.9293300000000000    0.8907700000000000    0.6589400000000000 C
   0.8372200000000000    0.6581800000000000    0.0591800000000000 C
   0.9088000000000001    0.7059000000000000    0.0866300000000000 C
   0.3372300000000000    0.6581600000000000    0.0590000000000000 C
   0.4088100000000000    0.7059100000000000    0.0866100000000000 C
   0.6627600000000000    0.3418700000000000    0.9407900000000000 C
   0.5911700000000000    0.2941400000000000    0.9133500000000000 C
   0.3372300000000000    0.1581600000000000    0.0591000000000000 C
   0.4088100000000000    0.2058800000000000    0.0866300000000000 C
   0.6627600000000000    0.8418800000000000    0.4407900000000000 C
   0.5911800000000000    0.7941500000000000    0.4133600000000000 C
   0.3053400000000000    0.8937300000000000    0.1576200000000000 C
   0.4293400000000000    0.8907700000000000    0.1589500000000000 C
   0.8053399999999999    0.8937300000000000    0.1576200000000000 C
   0.9293300000000000    0.8907700000000000    0.1589500000000000 C
   0.1627600000000000    0.8418900000000000    0.4407800000000000 C
   0.0911800000000000    0.7941400000000000    0.4133700000000000 C
   0.0706400000000000    0.6092800000000000    0.8410300000000001 C
   0.1946400000000000    0.6063300000000000    0.8423500000000000 C
   0.3053400000000000    0.3937100000000000    0.1576200000000000 C
   0.4293400000000000    0.3907500000000000    0.1589500000000000 C
   0.5706400000000000    0.6092800000000000    0.8410300000000001 C
   0.6946400000000000    0.6063300000000000    0.8423500000000000 C
   0.1627600000000000    0.3418700000000000    0.9407000000000000 C
   0.0911800000000000    0.2941400000000000    0.9133500000000000 C
   0.1946500000000000    0.1063100000000000    0.3423600000000000 C
   0.0706500000000000    0.1092700000000000    0.3410300000000000 C
   0.8372200000000000    0.1581600000000000    0.0591900000000000 C
   0.9088100000000000    0.2058900000000000    0.0866200000000000 C
   0.6946400000000000    0.1063100000000000    0.3423600000000000 C
   0.5706500000000000    0.1092700000000000    0.3410300000000000 C
   0.2402500000000000    0.6531400000000001    0.5843400000000000 O
   0.3802900000000000    0.6298100000000000    0.5112700000000000 O
   0.5062500000000000    0.6786500000000000    0.5963000000000001 O
   0.3651700000000000    0.7718100000000000    0.5947200000000000 O
   0.7402500000000000    0.6531400000000001    0.5843400000000000 O
   0.8802800000000000    0.6298100000000000    0.5112700000000000 O
   0.0062500000000000    0.6786500000000000    0.5963000000000001 O
   0.8651700000000000    0.7718100000000000    0.5947200000000000 O
   0.2552700000000000    0.3491200000000000    0.7189100000000000 O
   0.2631100000000000    0.4356400000000000    0.5933000000000000 O
   0.4718700000000000    0.3447500000000000    0.7211000000000000 O
   0.4815800000000000    0.4300600000000000    0.5955700000000000 O
   0.7552600000000000    0.3491200000000000    0.7189100000000000 O
   0.7631000000000000    0.4356400000000000    0.5933000000000000 O
   0.9718700000000000    0.3447500000000000    0.7211000000000000 O
   0.9815700000000001    0.4300600000000000    0.5955700000000000 O
   0.2597400000000000    0.3469000000000000    0.4156300000000000 O
   0.1197000000000000    0.3702300000000000    0.4887000000000000 O
   0.9937300000000000    0.3213800000000000    0.4036700000000000 O
   0.1348200000000000    0.2282300000000000    0.4052600000000000 O
   0.7597400000000000    0.3469000000000000    0.4156300000000000 O
   0.6196900000000000    0.3702300000000000    0.4887000000000000 O
   0.4937300000000000    0.3213800000000000    0.4036800000000000 O
   0.6348100000000000    0.2282200000000000    0.4052600000000000 O
   0.7447100000000000    0.6509200000000001    0.2810600000000000 O
   0.7368800000000000    0.5643899999999999    0.4066700000000000 O
   0.5281100000000000    0.6552900000000000    0.2788700000000000 O
   0.5184100000000000    0.5699800000000000    0.4044000000000000 O
   0.2447200000000000    0.6509200000000001    0.2810600000000000 O
   0.2368800000000000    0.5643899999999999    0.4066700000000000 O
   0.0281100000000000    0.6552900000000000    0.2788700000000000 O
   0.0184100000000000    0.5699800000000000    0.4044000000000000 O
   0.2597300000000000    0.8469100000000001    0.9156300000000001 O
   0.1196900000000000    0.8702500000000000    0.9887000000000000 O
   0.9937200000000000    0.8214000000000000    0.9036000000000000 O
   0.1348100000000000    0.7282500000000000    0.9052500000000000 O
   0.7597300000000000    0.8469200000000000    0.9156300000000001 O
   0.6196900000000000    0.8702500000000000    0.9887000000000000 O
   0.4937300000000000    0.8214000000000000    0.9036000000000000 O
   0.6348100000000000    0.7282500000000000    0.9052500000000000 O
   0.5281100000000000    0.1552800000000000    0.7788600000000000 O
   0.5184000000000000    0.0699700000000000    0.9040000000000000 O
   0.7447100000000000    0.1509100000000000    0.7810500000000000 O
   0.7368700000000000    0.0643900000000000    0.9066600000000000 O
   0.0281100000000000    0.1552800000000000    0.7788600000000000 O
   0.0184100000000000    0.0699700000000000    0.9040000000000000 O
   0.2447200000000000    0.1509100000000000    0.7810500000000000 O
   0.2368800000000000    0.0643900000000000    0.9066600000000000 O
   0.2402500000000000    0.1531300000000000    0.5843400000000000 O
   0.3802900000000000    0.1297900000000000    0.5112700000000000 O
   0.5062500000000000    0.1786400000000000    0.5963000000000001 O
   0.3651700000000000    0.2717900000000000    0.5947000000000000 O
   0.7402500000000000    0.1531300000000000    0.5843400000000000 O
   0.8802900000000000    0.1297900000000000    0.5112700000000000 O
   0.0062600000000000    0.1786400000000000    0.5963000000000001 O
   0.8651700000000000    0.2718000000000000    0.5947100000000000 O
   0.2552600000000000    0.8491400000000000    0.7189100000000000 O
   0.2631000000000000    0.9356600000000000    0.5933000000000000 O
   0.4718700000000000    0.8447600000000000    0.7211000000000000 O
   0.4815700000000000    0.9300700000000000    0.5955700000000000 O
   0.7552600000000000    0.8491400000000000    0.7189100000000000 O
   0.7631000000000000    0.9356600000000000    0.5933000000000000 O
   0.9718700000000000    0.8447600000000000    0.7211000000000000 O
   0.9815700000000001    0.9300700000000000    0.5955700000000000 O
   0.7402500000000000    0.6531400000000001    0.0843500000000000 O
   0.8802900000000000    0.6298000000000000    0.0112800000000000 O
   0.0062600000000000    0.6786500000000000    0.0963100000000000 O
   0.8651700000000000    0.7718100000000000    0.0947200000000000 O
   0.3802900000000000    0.6298000000000000    0.0112800000000000 O
   0.2402500000000000    0.6531300000000000    0.0843500000000000 O
   0.5062500000000000    0.6786500000000000    0.0963000000000000 O
   0.3651700000000000    0.7718100000000000    0.0947200000000000 O
   0.6196900000000000    0.3702400000000000    0.9880000000000000 O
   0.7597300000000000    0.3469000000000000    0.9156000000000000 O
   0.4937300000000000    0.3213900000000000    0.9036700000000000 O
   0.6348100000000000    0.2282300000000000    0.9052500000000000 O
   0.3802900000000000    0.1297900000000000    0.0112800000000000 O
   0.2402500000000000    0.1531200000000000    0.0843500000000000 O
   0.5062600000000000    0.1786300000000000    0.0963100000000000 O
   0.3651700000000000    0.2717900000000000    0.0947200000000000 O
   0.7597300000000000    0.8469100000000001    0.4156300000000000 O
   0.6196900000000000    0.8702500000000000    0.4887000000000000 O
   0.4937300000000000    0.8214000000000000    0.4036800000000000 O
   0.6348100000000000    0.7282400000000000    0.4052600000000000 O
   0.2552700000000000    0.8491300000000001    0.2189200000000000 O
   0.2631100000000000    0.9356500000000000    0.0933100000000000 O
   0.4718700000000000    0.8447500000000000    0.2211100000000000 O
   0.4815800000000000    0.9300700000000000    0.0955800000000000 O
   0.7552600000000000    0.8491300000000001    0.2189200000000000 O
   0.7631000000000000    0.9356500000000000    0.0933100000000000 O
   0.9718700000000000    0.8447500000000000    0.2211100000000000 O
   0.9815700000000001    0.9300700000000000    0.0955800000000000 O
   0.2597400000000000    0.8469100000000001    0.4156300000000000 O
   0.1196900000000000    0.8702500000000000    0.4887000000000000 O
   0.9937300000000000    0.8214000000000000    0.4036800000000000 O
   0.1348100000000000    0.7282400000000000    0.4052600000000000 O
   0.0281100000000000    0.6553000000000000    0.7788600000000000 O
   0.0184000000000000    0.5699900000000000    0.9040000000000000 O
   0.2447100000000000    0.6509200000000001    0.7810500000000000 O
   0.2368800000000000    0.5644000000000000    0.9066600000000000 O
   0.2552700000000000    0.3491200000000000    0.2189200000000000 O
   0.2631100000000000    0.4356400000000000    0.0933100000000000 O
   0.4718700000000000    0.3447400000000000    0.2211100000000000 O
   0.4815800000000000    0.4300500000000000    0.0955800000000000 O
   0.5281100000000000    0.6553000000000000    0.7788600000000000 O
   0.5184000000000000    0.5699900000000000    0.9040000000000000 O
   0.7447100000000000    0.6509200000000001    0.7810500000000000 O
   0.7368700000000000    0.5644000000000000    0.9066600000000000 O
   0.7631100000000000    0.4356400000000000    0.0933100000000000 O
   0.2597300000000000    0.3469000000000000    0.9156000000000000 O
   0.1196900000000000    0.3702400000000000    0.9886900000000000 O
   0.9937200000000000    0.3213900000000000    0.9036700000000000 O
   0.1348100000000000    0.2282300000000000    0.9052500000000000 O
   0.2447200000000000    0.1509000000000000    0.2810600000000000 O
   0.2368800000000000    0.0643800000000000    0.4066700000000000 O
   0.0281200000000000    0.1552800000000000    0.2788700000000000 O
   0.0184100000000000    0.0699700000000000    0.4044000000000000 O
   0.9718700000000000    0.3447400000000000    0.2211100000000000 O
  -0.0184200000000000    0.4300500000000000    0.0955800000000000 O
   0.7402500000000000    0.1531200000000000    0.0843500000000000 O
   0.8802900000000000    0.1297900000000000    0.0112800000000000 O
   0.0062600000000000    0.1786300000000000    0.0963100000000000 O
   0.8651700000000000    0.2717900000000000    0.0947200000000000 O
   0.7447200000000000    0.1509000000000000    0.2810600000000000 O
   0.7368800000000000    0.0643800000000000    0.4066700000000000 O
   0.5281100000000000    0.1552800000000000    0.2788700000000000 O
   0.5184100000000000    0.0699700000000000    0.4044000000000000 O
