H14 C18 N4 O2
1.0
  14.8827259348112833    0.0000000000000000   -1.1357573461332422
   0.0025030916553587   19.9939998311352554    0.0006979222611452
   0.0000000000000000    0.0000000000000000   20.5249999999999986
H C N O
14 18 4 2
direct
   0.3950400000000000    0.5287100000000000    0.3374100000000000 H
   0.3250700000000000    0.4146300000000000    0.0020800000000000 H
   0.3505300000000000    0.5675500000000000    0.2451700000000000 H
   0.3608900000000000    0.5914100000000000    0.1277300000000000 H
   0.3780200000000000    0.3800500000000000    0.0886300000000000 H
   0.3629800000000000    0.3564300000000000    0.2056200000000000 H
   0.4099700000000000    0.5623800000000000    0.5580300000000000 H
   0.4077800000000000    0.5765100000000000    0.4374000000000000 H
   0.3180300000000000    0.3716500000000000    0.4175900000000000 H
   0.3232900000000000    0.3660000000000000    0.5391899999999999 H
   0.4426600000000000    0.5422200000000000    0.7909800000000000 H
   0.4307300000000000    0.5521700000000000    0.9113300000000000 H
   0.2916500000000000    0.3624000000000000    0.9025200000000000 H
   0.3064600000000000    0.3619100000000000    0.7823600000000001 H
   0.3408400000000000    0.4390200000000000    0.3017000000000000 C
   0.3733700000000000    0.5073900000000000    0.0297900000000000 C
   0.3550700000000000    0.4597200000000000    0.2329500000000000 C
   0.3553500000000000    0.5261700000000000    0.2111400000000000 C
   0.3608100000000000    0.5399500000000000    0.1451000000000000 C
   0.3666100000000000    0.4881200000000000    0.0995600000000000 C
   0.3688500000000000    0.4216300000000000    0.1219300000000000 C
   0.3625000000000000    0.4077100000000000    0.1877400000000000 C
   0.3887400000000000    0.5215800000000000    0.5253100000000001 C
   0.3877000000000000    0.5292500000000000    0.4583200000000000 C
   0.3619300000000000    0.4751700000000000    0.4171400000000000 C
   0.3380400000000000    0.4149700000000000    0.4469600000000000 C
   0.3409800000000000    0.4120200000000000    0.5146900000000000 C
   0.4092000000000000    0.5036700000000000    0.8177700000000000 C
   0.4034700000000000    0.5090100000000000    0.8847200000000000 C
   0.3610600000000000    0.4575700000000000    0.9172200000000000 C
   0.3260600000000000    0.4033600000000000    0.8797500000000000 C
   0.3340200000000000    0.4027000000000000    0.8129100000000000 C
   0.3631600000000000    0.4850800000000000    0.3500200000000000 N
   0.3655200000000000    0.4639400000000000    0.5541400000000000 N
   0.3529900000000000    0.4568000000000000    0.9845400000000000 N
   0.3750200000000000    0.4520900000000000    0.7817400000000000 N
   0.3084400000000000    0.3834200000000000    0.3118300000000000 O
   0.3946300000000000    0.5643400000000000    0.0136600000000000 O
