H6 O4
1.0
  14.8827259348112833    0.0000000000000000   -1.1357573461332422
   0.0025030916553587   19.9939998311352554    0.0006979222611452
   0.0000000000000000    0.0000000000000000   20.5249999999999986
H O
6 4
direct
   0.6332150313462115    0.7927731477103113    0.6725606467796971 H
   0.4190547139848058    0.9182641694225466    0.6725581547067856 H
   0.5220229243422325    0.8530504133483682    0.6725776686528249 H
   0.5092119534033146    0.5718610002549694    0.6780990206180718 H
   0.2356967608314448    0.5921610056491325    0.6756171164385822 H
   0.3697971364529481    0.5850340480095333    0.6770429223320547 H
   0.5991600000000000    0.8341000000000000    0.6724800000000000 O
   0.4807800000000000    0.9031000000000000    0.6724800000000000 O
   0.4453400000000000    0.5624100000000000    0.6764700000000000 O
   0.2959700000000000    0.5741100000000000    0.6751600000000000 O
