H4 O2
1.0
  14.8827259348112833    0.0000000000000000   -1.1357573461332422
   0.0025030916553587   19.9939998311352554    0.0006979222611452
   0.0000000000000000    0.0000000000000000   20.5249999999999986
H O
4 2
direct
   0.3477316603720607    0.4263046864921512    0.5255438305492173 H
   0.3823181681695885    0.5056388119420794    0.5332833596757435 H
   0.3452693323694189    0.4162513298957464    0.8043577636596393 H
   0.3998572056997897    0.4895710728494777    0.8079215249082335 H
   0.3655200000000000    0.4639400000000000    0.5541400000000000 O
   0.3750200000000000    0.4520900000000000    0.7817400000000000 O
