Cd8 H56 C100 S23 N44
1.0
  15.0148021630188051    0.0000000000000000   -2.9142307742191198
  -1.2654105606784818   18.6376140379089108   -6.4997630792871215
   0.0000000000000000    0.0000000000000000   15.0199999999999996
Cd H C S N
8 56 100 23 44
direct
   0.0000200000000000    0.7500000000000000    0.5000200000000000 Cd
   0.5000100000000000    0.2500100000000000    0.5000200000000000 Cd
   0.5000100000000000    0.7500000000000000    0.5000200000000000 Cd
   0.2500200000000000    0.0000200000000000    0.5000200000000000 Cd
   0.2500200000000000    0.5000100000000000    0.5000200000000000 Cd
   0.7500100000000000    0.0000200000000000    0.5000200000000000 Cd
   0.7500100000000000    0.5000100000000000    0.5000200000000000 Cd
   0.0000200000000000    0.2500100000000000    0.5000200000000000 Cd
   0.4139000000000000    0.2221300000000000    0.6670000000000000 H
   0.4139000000000000    0.7221100000000000    0.6673900000000000 H
   0.9138900000000000    0.7221100000000000    0.6673900000000000 H
   0.3753200000000000    0.2836000000000000    0.8258400000000000 H
   0.3753100000000000    0.7835900000000000    0.8258400000000000 H
   0.8753000000000000    0.7835800000000001    0.8258000000000000 H
   0.4401500000000000    0.4858400000000000    0.7926299999999999 H
   0.4401500000000000    0.9858200000000000    0.7926000000000000 H
   0.9401400000000000    0.9858200000000000    0.7926299999999999 H
   0.4766400000000000    0.4148200000000000    0.6335400000000000 H
   0.4766400000000000    0.9147999999999999    0.6335000000000000 H
   0.9766300000000000    0.9147999999999999    0.6335400000000000 H
   0.3359000000000000    0.3883500000000000    0.3325900000000000 H
   0.3359000000000000    0.8883400000000000    0.3325900000000000 H
   0.8358900000000000    0.8883400000000000    0.3325900000000000 H
   0.3744000000000000    0.3705700000000000    0.1740700000000000 H
   0.3744000000000000    0.8705600000000000    0.1740700000000000 H
   0.8744000000000000    0.8705600000000000    0.1740700000000000 H
   0.3100800000000000    0.0894500000000000    0.2071600000000000 H
   0.3100800000000000    0.5894400000000000    0.2071000000000000 H
   0.8100800000000000    0.0894500000000000    0.2071600000000000 H
   0.2736800000000000    0.0980200000000000    0.3663500000000000 H
   0.2736700000000000    0.5980100000000000    0.3663500000000000 H
   0.7736700000000000    0.0980200000000000    0.3663500000000000 H
   0.0861300000000000    0.2779000000000000    0.3326400000000000 H
   0.0861300000000000    0.7778900000000000    0.3326400000000000 H
   0.5861300000000000    0.2779000000000000    0.3326400000000000 H
   0.5861200000000000    0.7778900000000000    0.3326400000000000 H
   0.1247300000000000    0.2164300000000000    0.1742000000000000 H
   0.1247300000000000    0.7164199999999999    0.1742000000000000 H
   0.6247200000000001    0.2164300000000000    0.1742000000000000 H
   0.6247100000000000    0.7164199999999999    0.1742000000000000 H
   0.0599000000000000    0.0141900000000000    0.2074100000000000 H
   0.0598900000000000    0.5141800000000000    0.2074100000000000 H
   0.5598900000000000    0.0141900000000000    0.2074100000000000 H
   0.5598900000000000    0.5141800000000000    0.2074100000000000 H
   0.0234000000000000    0.0852100000000000    0.3660000000000000 H
   0.0234000000000000    0.5852000000000001    0.3664900000000000 H
   0.5233900000000000    0.0852100000000000    0.3660000000000000 H
   0.5233900000000000    0.5852000000000001    0.3660000000000000 H
   0.1641400000000000    0.1116700000000000    0.6674000000000000 H
   0.1641400000000000    0.6116600000000000    0.6674000000000000 H
   0.6641300000000000    0.1116700000000000    0.6674500000000000 H
   0.6641300000000000    0.6116600000000000    0.6674000000000000 H
   0.1256400000000000    0.1294500000000000    0.8259700000000000 H
   0.1256300000000000    0.6294400000000000    0.8259700000000000 H
   0.6256300000000000    0.1294500000000000    0.8259700000000000 H
   0.6256300000000000    0.6294400000000000    0.8259700000000000 H
   0.1899600000000000    0.4105700000000000    0.7927999999999999 H
   0.1899600000000000    0.9105600000000000    0.7927999999999999 H
   0.6899600000000000    0.4105700000000000    0.7928800000000000 H
   0.6899500000000000    0.9105600000000000    0.7928800000000000 H
   0.2263700000000000    0.4020000000000000    0.6336900000000000 H
   0.2263600000000000    0.9019900000000000    0.6336900000000000 H
   0.7263600000000000    0.4020000000000000    0.6336900000000000 H
   0.7263500000000001    0.9019900000000000    0.6336900000000000 H
   0.4198500000000000    0.2804600000000000    0.6979000000000000 C
   0.4198500000000000    0.7804500000000000    0.6979500000000000 C
   0.9198400000000000    0.7804500000000000    0.6979500000000000 C
   0.3986600000000000    0.3154400000000000    0.7869000000000000 C
   0.3986500000000000    0.8154300000000000    0.7869000000000000 C
   0.8986400000000000    0.8154300000000000    0.7869000000000000 C
   0.4070800000000000    0.3907000000000000    0.8244000000000000 C
   0.4070800000000000    0.8906800000000000    0.8244000000000000 C
   0.9070700000000000    0.8906800000000000    0.8244000000000000 C
   0.4341100000000000    0.4274600000000000    0.7675000000000000 C
   0.4341100000000000    0.9274400000000000    0.7675000000000000 C
   0.9341000000000000    0.9274400000000000    0.7675100000000000 C
   0.4544300000000000    0.3882900000000000    0.6793100000000000 C
   0.4544300000000000    0.8882700000000000    0.6793100000000000 C
   0.9544200000000000    0.8882700000000000    0.6793100000000000 C
   0.3892500000000000    0.4293500000000000    0.9197600000000000 C
   0.3892500000000000    0.9293400000000001    0.9197600000000000 C
   0.8892400000000000    0.9293400000000001    0.9197600000000000 C
   0.3054900000000000    0.3250400000000000    0.4453700000000000 C
   0.3054900000000000    0.8250200000000000    0.4453700000000000 C
   0.8054800000000000    0.3250400000000000    0.4453000000000000 C
   0.8054800000000000    0.8250200000000000    0.4453700000000000 C
   0.3300600000000000    0.4314100000000000    0.3020000000000000 C
   0.3300500000000000    0.9314000000000000    0.3020000000000000 C
   0.8300500000000000    0.9314000000000000    0.3020000000000000 C
   0.3512000000000000    0.4219000000000000    0.2130000000000000 C
   0.3512000000000000    0.9218900000000000    0.2130000000000000 C
   0.8511900000000000    0.9218900000000000    0.2130000000000000 C
   0.3429100000000000    0.4784000000000000    0.1754400000000000 C
   0.3429100000000000    0.9783800000000000    0.1754000000000000 C
   0.8429000000000000    0.9783800000000000    0.1754400000000000 C
   0.3160300000000000    0.0436400000000000    0.2323300000000000 C
   0.3160200000000000    0.5436200000000000    0.2323300000000000 C
   0.8160200000000000    0.0436400000000000    0.2323000000000000 C
   0.2957700000000000    0.0485900000000000    0.3205900000000000 C
   0.2957700000000000    0.5485800000000000    0.3205900000000000 C
   0.7957600000000000    0.0485900000000000    0.3205900000000000 C
   0.3607500000000000    0.4694100000000000    0.0800900000000000 C
   0.3607500000000000    0.9694000000000000    0.0800900000000000 C
   0.8607399999999999    0.9694000000000000    0.0800900000000000 C
   0.4444500000000000    0.1023900000000000    0.5548500000000000 C
   0.4444500000000000    0.6023700000000000    0.5548500000000000 C
   0.9444500000000000    0.1023900000000000    0.5548500000000000 C
   0.9444399999999999    0.6023700000000000    0.5548500000000000 C
   0.0801900000000000    0.2195600000000000    0.3020800000000000 C
   0.0801900000000000    0.7195500000000000    0.3020800000000000 C
   0.5801800000000000    0.2195600000000000    0.3020800000000000 C
   0.5801800000000000    0.7195500000000000    0.3020800000000000 C
   0.1013900000000000    0.1845800000000000    0.2131000000000000 C
   0.1013900000000000    0.6845700000000000    0.2131400000000000 C
   0.6013800000000000    0.1845800000000000    0.2131300000000000 C
   0.6013700000000000    0.6845700000000000    0.2131300000000000 C
   0.0929700000000000    0.1093300000000000    0.1756200000000000 C
   0.0929600000000000    0.6093200000000000    0.1756000000000000 C
   0.5929600000000000    0.1093300000000000    0.1756200000000000 C
   0.5929600000000000    0.6093200000000000    0.1756200000000000 C
   0.0659300000000000    0.0725700000000000    0.2325000000000000 C
   0.0659300000000000    0.5725600000000000    0.2325000000000000 C
   0.5659300000000000    0.0725700000000000    0.2325000000000000 C
   0.5659200000000000    0.5725600000000000    0.2325200000000000 C
   0.0456200000000000    0.1117400000000000    0.3207300000000000 C
   0.0456100000000000    0.6117300000000000    0.3207300000000000 C
   0.5456100000000000    0.1117400000000000    0.3207300000000000 C
   0.5456100000000000    0.6117300000000000    0.3207300000000000 C
   0.1107900000000000    0.0706700000000000    0.0802800000000000 C
   0.1107900000000000    0.5706599999999999    0.0802800000000000 C
   0.6107900000000001    0.0706700000000000    0.0802800000000000 C
   0.6107800000000000    0.5706599999999999    0.0802800000000000 C
   0.1945500000000000    0.1749900000000000    0.5546600000000000 C
   0.1945500000000000    0.6749700000000000    0.5546600000000000 C
   0.6945400000000000    0.1749900000000000    0.5546600000000000 C
   0.6945400000000000    0.6749700000000000    0.5546600000000000 C
   0.1699900000000000    0.0686100000000000    0.6980400000000000 C
   0.1699800000000000    0.5686000000000000    0.6980400000000000 C
   0.6699900000000000    0.0686100000000000    0.6980400000000000 C
   0.6699800000000000    0.5686000000000000    0.6980400000000000 C
   0.1488400000000000    0.0781200000000000    0.7870300000000000 C
   0.1488400000000000    0.5781100000000000    0.7870300000000000 C
   0.6488300000000000    0.0781200000000000    0.7870300000000000 C
   0.6488300000000000    0.5781100000000000    0.7870300000000000 C
   0.1571500000000000    0.0216300000000000    0.8246100000000000 C
   0.1571400000000000    0.5216200000000000    0.8246100000000000 C
   0.6571399999999999    0.0216300000000000    0.8246100000000000 C
   0.6571300000000000    0.5216200000000000    0.8246100000000000 C
   0.1840100000000000    0.4563900000000000    0.7677100000000000 C
   0.1840100000000000    0.9563700000000001    0.7677100000000000 C
   0.6840000000000001    0.4563900000000000    0.7677100000000000 C
   0.6840000000000001    0.9563700000000001    0.7677100000000000 C
   0.2042800000000000    0.4514300000000000    0.6794500000000000 C
   0.2042800000000000    0.9514200000000000    0.6794500000000000 C
   0.7042700000000000    0.4514300000000000    0.6794500000000000 C
   0.7042700000000000    0.9514200000000000    0.6794500000000000 C
   0.1393000000000000    0.0306200000000000    0.9199500000000000 C
   0.1392900000000000    0.5306000000000000    0.9199500000000000 C
   0.6392900000000000    0.0306200000000000    0.9199500000000000 C
   0.6392900000000000    0.5306000000000000    0.9199500000000000 C
   0.0555800000000000    0.3976400000000000    0.4451800000000000 C
   0.0555800000000000    0.8976200000000000    0.4451800000000000 C
   0.5555800000000000    0.3976400000000000    0.4451800000000000 C
   0.5555800000000000    0.8976200000000000    0.4451800000000000 C
   0.5835700000000000    0.9482100000000000    0.3865000000000000 S
   0.3749100000000000    0.3858200000000000    0.9999100000000000 S
   0.3749000000000000    0.8858100000000000    0.9999100000000000 S
   0.3334800000000000    0.2452100000000000    0.3867400000000000 S
   0.3334800000000000    0.7452000000000000    0.3867400000000000 S
   0.8334700000000000    0.2452100000000000    0.3867400000000000 S
   0.8334700000000000    0.7452000000000000    0.3867400000000000 S
   0.4164700000000000    0.0518000000000000    0.6134600000000000 S
   0.4164600000000000    0.5517900000000000    0.6134600000000000 S
   0.9164600000000001    0.0518000000000000    0.6134600000000000 S
   0.9164500000000000    0.5517900000000000    0.6134600000000000 S
   0.1665600000000000    0.2548100000000000    0.6132900000000000 S
   0.1665600000000000    0.7548000000000000    0.6132900000000000 S
   0.6665500000000000    0.2548100000000000    0.6132900000000000 S
   0.6665500000000000    0.7548000000000000    0.6132900000000000 S
   0.0835700000000000    0.4482200000000000    0.3865700000000000 S
   0.0835700000000000    0.9482100000000000    0.3865700000000000 S
   0.5835700000000000    0.4482200000000000    0.3865700000000000 S
   0.8748899999999999    0.8858100000000000    0.9999100000000000 S
   0.1251500000000000    0.1142100000000000    0.0001200000000000 S
   0.1251400000000000    0.6142000000000000    0.0001200000000000 S
   0.6251400000000000    0.1142100000000000    0.0001200000000000 S
   0.6251300000000000    0.6142000000000000    0.0001200000000000 S
   0.4489000000000000    0.3158800000000000    0.6452900000000000 N
   0.4488900000000000    0.8158700000000000    0.6452900000000000 N
   0.9488799999999999    0.8158700000000000    0.6452900000000000 N
   0.3833400000000000    0.9996600000000000    0.9546200000000000 N
   0.3833400000000000    0.4996500000000000    0.9546200000000000 N
   0.8833400000000000    0.9996600000000000    0.9546200000000000 N
   0.2847500000000000    0.3828200000000000    0.4873200000000000 N
   0.2847400000000000    0.8828100000000000    0.4873200000000000 N
   0.7847400000000000    0.3828200000000000    0.4873200000000000 N
   0.7847300000000000    0.8828100000000000    0.4873200000000000 N
   0.3011800000000000    0.4932000000000000    0.3546000000000000 N
   0.3011800000000000    0.9931800000000000    0.3546000000000000 N
   0.8011700000000000    0.9931800000000000    0.3546700000000000 N
   0.3668500000000000    0.0223000000000000    0.0452500000000000 N
   0.3668400000000000    0.5222900000000000    0.0452500000000000 N
   0.8668400000000001    0.0223000000000000    0.0452500000000000 N
   0.4652000000000000    0.1392600000000000    0.5129300000000000 N
   0.4652000000000000    0.6392500000000000    0.5129300000000000 N
   0.9651999999999999    0.1392600000000000    0.5129300000000000 N
   0.9651900000000000    0.6392400000000000    0.5129300000000000 N
   0.0511400000000000    0.1841400000000000    0.3547500000000000 N
   0.0511400000000000    0.6841300000000000    0.3547500000000000 N
   0.5511300000000000    0.1841400000000000    0.3547500000000000 N
   0.5511300000000000    0.6841300000000000    0.3547500000000000 N
   0.1167000000000000    0.5003600000000000    0.0454200000000000 N
   0.1167000000000000    0.0000000000000000    0.0454200000000000 N
   0.6167000000000000    0.5003600000000000    0.0454300000000000 N
   0.6167000000000000    0.0000000000000000    0.0454300000000000 N
   0.2152900000000000    0.1172000000000000    0.5127200000000000 N
   0.2152900000000000    0.6171900000000000    0.5127200000000000 N
   0.7152900000000000    0.1172000000000000    0.5127200000000000 N
   0.7152800000000000    0.6171900000000000    0.5127200000000000 N
   0.1988600000000000    0.0068300000000000    0.6453600000000000 N
   0.1988500000000000    0.5068200000000000    0.6453600000000000 N
   0.6988500000000000    0.0068300000000000    0.6453600000000000 N
   0.6988400000000000    0.5068200000000000    0.6453600000000000 N
   0.1331900000000000    0.4777200000000000    0.9547900000000000 N
   0.1331900000000000    0.9777100000000000    0.9547900000000000 N
   0.6331900000000000    0.4777200000000000    0.9548000000000000 N
   0.6331900000000000    0.9777100000000000    0.9547900000000000 N
   0.0348400000000000    0.3607700000000000    0.4871100000000000 N
   0.0348300000000000    0.8607500000000000    0.4871100000000000 N
   0.5348300000000000    0.3607700000000000    0.4871100000000000 N
   0.5348300000000000    0.8607500000000000    0.4871100000000000 N
