H6 C12 O4
1.0
  38.1487380993852767    0.0000000000000000  -10.4305887860901620
  -5.3141524813956567   37.6969802763030728  -10.6041889106377702
   0.0000000000000000    0.0000000000000000   27.9600000000000009
H C O
6 12 4
direct
   0.9672733333333332    0.1758900000000000    0.7241950000000000 H
   0.9662299999999999    0.2395466666666666    0.7310600000000000 H
   0.9413166666666666    0.1492233333333333    0.5581400000000000 H
   0.9548266666666666    0.2871266666666666    0.6871800000000000 H
   0.9346866666666667    0.2613500000000000    0.5219750000000000 H
   0.9355333333333333    0.1975133333333333    0.5153000000000000 H
   0.9522400000000000    0.1199500000000000    0.6359600000000000 C
   0.9536399999999999    0.1587033333333333    0.6402000000000000 C
   0.9611733333333332    0.1845366666666667    0.6894200000000000 C
   0.9604600000000000    0.2199266666666667    0.6930850000000000 C
   0.9468333333333333    0.1693166666666667    0.5956000000000000 C
   0.9527666666666665    0.2313866666666667    0.6477850000000001 C
   0.9510000000000000    0.2673833333333333    0.6498699999999999 C
   0.9447166666666666    0.2781566666666667    0.6054150000000000 C
   0.9447166666666666    0.3167766666666667    0.6092299999999999 C
   0.9394499999999999    0.2525233333333333    0.5565400000000000 C
   0.9400799999999999    0.2171666666666666    0.5530100000000000 C
   0.9466200000000000    0.2055100000000000    0.5980650000000000 C
   0.9648366666666666    0.1116266666666667    0.6775000000000000 O
   0.9381266666666666    0.0982733333333333    0.5909750000000000 O
   0.9451566666666666    0.3257166666666667    0.5685850000000000 O
   0.9450900000000000    0.3378966666666666    0.6526149999999999 O
