H2 O2
1.0
  19.4981959084176459    0.0000000000000000    3.5792921530611941
   8.8464767786293734   17.7513087634948867    5.6295270483621396
   0.0000000000000000    0.0000000000000000   26.7199999999999989
H O
2 2
direct
   0.9227475466188235    0.9137323193630909    0.5451593661286688 H
   0.7659114453625108    0.8461445807063759    0.7598638953315245 H
   0.9000000000000000    0.9187100000000000    0.5138900000000000 O
   0.8007100000000000    0.8118800000000000    0.7874350000000000 O
