C8 O4 F4
1.0
  19.4981959084176459    0.0000000000000000    3.5792921530611941
   8.8464767786293734   17.7513087634948867    5.6295270483621396
   0.0000000000000000    0.0000000000000000   26.7199999999999989
C O F
8 4 4
direct
   0.7544400000000000    0.8574400000000000    0.7507750000000000 C
   0.7979500000000000    0.8713200000000000    0.6993050000000001 C
   0.8492100000000000    0.8125900000000000    0.6749550000000000 C
   0.7897500000000000    0.9435700000000000    0.6747300000000001 C
   0.8906100000000000    0.8255200000000000    0.6285900000000000 C
   0.8319500000000000    0.9559900000000000    0.6287050000000001 C
   0.8836000000000001    0.8973400000000000    0.6048800000000000 C
   0.9300700000000000    0.9121300000000000    0.5552250000000000 C
   0.6836500000000000    0.8887000000000000    0.7541050000000000 O
   0.8007100000000000    0.8118800000000000    0.7874350000000000 O
   0.9890200000000000    0.9167900000000000    0.5583700000000000 O
   0.9000000000000000    0.9187100000000000    0.5138900000000000 O
   0.8583900000000000    0.7415800000000000    0.6959299999999999 F
   0.7412600000000000    0.0000000000000000    0.6960649999999999 F
   0.9390900000000000    0.7665300000000000    0.6062000000000000 F
   0.8222500000000000    0.0272500000000000    0.6063250000000000 F
