H8 O5
1.0
  18.7454793291098518    0.0000000000000000    3.8362691148973536
   0.0045567480280179   12.2899986820215616    0.0034105653008396
   0.0000000000000000    0.0000000000000000   31.0252000000000017
H O
8 5
direct
   0.8297170321786275    0.3826669019130523    0.6793068805784030 H
   0.7688247108436905    0.3921030322320749    0.6427176534223282 H
   0.9056928511624384    0.3769923551268635    0.7285034025646840 H
   0.8985956666220202    0.2172957026249220    0.6096056340489253 H
   0.9838456965167091    0.1942318537000779    0.5852929652009701 H
   0.0052579151740675    0.0365969725286265    0.5046873849367979 H
   0.0980389389141545    0.0978073518907599    0.5383283055184669 H
   0.1647269473607700    0.1481490563438679    0.5651473547519942 H
   0.7938166666666666    0.4035300000000000    0.6666250000000000 O
   0.8667733333333333    0.3996100000000000    0.7147550000000000 O
   0.9331933333333333    0.1776900000000000    0.5876700000000000 O
   0.0295866666666667    0.0777300000000000    0.5239400000000000 O
   0.1200666666666667    0.1350500000000000    0.5557600000000000 O
