H10 C12 N2
1.0
  38.7518387585759072    0.0000000000000000   -4.3926066098996639
  -0.0921790779589174   36.6857071550867175   -0.1139717017776612
   0.0000000000000000    0.0000000000000000   37.5020000000000024
H C N
10 12 2
direct
   0.1593866666666666    0.3059950000000000    0.1728800000000000 H
   0.1115833333333333    0.3005450000000000    0.2108750000000000 H
   0.1427333333333333    0.1885550000000000    0.2309150000000000 H
   0.1884666666666667    0.1983350000000000    0.1904000000000000 H
   0.0979633333333333    0.2128300000000000    0.2634500000000000 H
   0.0071933333333333    0.1939550000000000    0.3276100000000000 H
   0.0544800000000000    0.1993450000000000    0.2889650000000000 H
   0.0238766666666667    0.3116700000000000    0.2701000000000000 H
   0.0682666666666667    0.2872750000000000    0.2368750000000000 H
   0.9786299999999999    0.3019050000000000    0.3111450000000000 H
   0.1542366666666667    0.2803100000000000    0.1857650000000000 C
   0.1279033333333333    0.2770800000000000    0.2073400000000000 C
   0.1226200000000000    0.2436550000000000    0.2243400000000000 C
   0.1451266666666667    0.2149650000000000    0.2181900000000000 C
   0.1707566666666667    0.2200850000000000    0.1958450000000000 C
   0.0959366666666667    0.2381100000000000    0.2480000000000000 C
   0.0123800000000000    0.2197050000000000    0.3148650000000000 C
   0.0384133333333333    0.2229100000000000    0.2929150000000000 C
   0.0437400000000000    0.2564150000000000    0.2761000000000000 C
   0.0214866666666667    0.2851950000000000    0.2826950000000000 C
   0.0703000000000000    0.2619700000000000    0.2522900000000000 C
   0.9961399999999999    0.2800950000000000    0.3053750000000000 C
   0.1754600000000000    0.2523400000000000    0.1797100000000000 N
   0.9914700000000000    0.2477800000000000    0.3214250000000000 N
