C2 O4
1.0
  18.8571459962006216    0.0000000000000000    1.8223802780909846
   0.6145131703135935    7.8870846679350546    3.7376488939351846
   0.0000000000000000    0.0000000000000000   19.5500000000000007
C O
2 4
direct
   0.3803933333333333    0.7198800000000000    0.0929800000000000 C
   0.4629500000000000    0.7144500000000000    0.0942600000000000 C
   0.3457000000000000    0.6401200000000000    0.1557150000000000 O
   0.3521366666666667    0.8122800000000000    0.0313500000000000 O
   0.4911166666666666    0.6298899999999999    0.1579150000000000 O
   0.4961300000000000    0.8042400000000000    0.0334650000000000 O
