K12 H78 C82 Cl11 O20
1.0
   7.3134997816736904    0.0000000000000000   -0.0017870251500418
  -0.5556570577498248   19.2779936300854011   -0.0016830209955607
   0.0000000000000000    0.0000000000000000   21.7450000000000010
K H C Cl O
12 78 82 11 20
direct
   0.4674400000000000    0.2525900000000000    0.2314900000000000 K
   0.5324600000000000    0.7473600000000000    0.7690600000000000 K
   0.9676600000000000    0.2527700000000000    0.2683400000000000 K
   0.0830100000000000    0.1145100000000000    0.1654600000000000 K
   0.0324800000000000    0.7472900000000000    0.7317600000000000 K
   0.4169900000000000    0.8849900000000001    0.6652500000000000 K
   0.5835900000000001    0.1149900000000000    0.3351200000000000 K
   0.9176800000000001    0.8852400000000000    0.8354500000000000 K
   0.6009700000000000    0.3918000000000000    0.3348800000000000 K
   0.8991700000000000    0.6084700000000000    0.8356500000000000 K
   0.3992500000000000    0.6082500000000000    0.6654700000000000 K
   0.1015700000000000    0.3914900000000000    0.1645900000000000 K
   0.9672900000000000    0.1232100000000000    0.0116300000000000 H
   0.7868800000000000    0.0583300000000000    0.0109200000000000 H
   0.0671800000000000    0.9358700000000000    0.0919000000000000 H
   0.8460000000000000    0.9473400000000000    0.0587000000000000 H
   0.9326300000000000    0.0639100000000000    0.9082000000000000 H
   0.1540800000000000    0.0527500000000000    0.9416000000000000 H
   0.0325800000000000    0.8767900000000000    0.9883900000000000 H
   0.2130500000000000    0.9416400000000000    0.9892200000000000 H
   0.9313900000000001    0.4746300000000000    0.4214400000000000 H
   0.0440900000000000    0.3634100000000000    0.3786200000000000 H
   0.3491000000000000    0.4821100000000000    0.2422600000000000 H
   0.2357500000000000    0.5906800000000000    0.2868900000000000 H
   0.4723700000000000    0.5564700000000000    0.4027500000000000 H
   0.6471700000000000    0.5737800000000000    0.4589000000000000 H
   0.6574100000000000    0.3911200000000000    0.5003900000000000 H
   0.7560900000000000    0.4752300000000000    0.5178000000000000 H
   0.5337000000000000    0.4429300000000000    0.5985700000000000 H
   0.3590700000000000    0.4259400000000000    0.5422700000000000 H
   0.3489100000000000    0.6083700000000000    0.5009000000000000 H
   0.2505600000000000    0.5241600000000000    0.4836600000000000 H
   0.9570000000000000    0.6356900000000000    0.6218100000000000 H
   0.0672500000000000    0.5270500000000000    0.5770300000000000 H
   0.6496499999999999    0.5186800000000000    0.7586800000000000 H
   0.7632400000000000    0.4095500000000000    0.7152700000000000 H
   0.5681500000000000    0.5256999999999999    0.9226799999999999 H
   0.4567200000000000    0.6358800000000000    0.8794800000000000 H
   0.1491700000000000    0.5189200000000000    0.7425500000000000 H
   0.2624300000000000    0.4097600000000000    0.7860300000000000 H
   0.9731200000000000    0.5576100000000001    0.0976700000000000 H
   0.1451600000000000    0.5745800000000000    0.0404100000000000 H
   0.1553500000000000    0.3915900000000000    0.0003700000000000 H
   0.2523100000000000    0.4756600000000000    0.9819099999999999 H
   0.0269400000000000    0.4421700000000000    0.9024200000000000 H
   0.8549900000000000    0.4253400000000000    0.9595600000000000 H
   0.8446500000000000    0.6083000000000000    0.9997700000000000 H
   0.7477400000000000    0.5241900000000000    0.0181700000000000 H
   0.4314100000000000    0.4740800000000000    0.0774200000000000 H
   0.5427900000000000    0.3639000000000000    0.1206400000000000 H
   0.8505400000000000    0.4809100000000000    0.2574900000000000 H
   0.7372900000000000    0.5900500000000000    0.2140100000000000 H
   0.2866700000000000    0.2371200000000000    0.9461700000000000 H
   0.3913700000000000    0.2346100000000000    0.0548500000000000 H
   0.8411900000000000    0.2726700000000000    0.1153600000000000 H
   0.7388600000000000    0.2766000000000000    0.0000000000000000 H
   0.4108400000000000    0.0361800000000000    0.0727500000000000 H
   0.5334500000000000    0.1443800000000000    0.1212100000000000 H
   0.6893000000000000    0.9147500000000000    0.2081100000000000 H
   0.8129100000000000    0.0221400000000000    0.2568100000000000 H
   0.2611500000000000    0.7232300000000000    0.9937700000000000 H
   0.1587800000000000    0.7271500000000000    0.8846100000000000 H
   0.7131800000000000    0.7628300000000000    0.0541900000000000 H
   0.6086700000000000    0.7652300000000000    0.9454900000000001 H
   0.5881999999999999    0.9637100000000000    0.9276300000000000 H
   0.4657600000000000    0.8555600000000000    0.8790400000000000 H
   0.3107000000000000    0.0852600000000000    0.7921300000000000 H
   0.1872300000000000    0.9779200000000000    0.7433100000000000 H
   0.7882700000000000    0.2381900000000000    0.5532100000000000 H
   0.8922600000000001    0.2357200000000000    0.4444600000000000 H
   0.2394400000000000    0.2767700000000000    0.4933600000000000 H
   0.3411100000000000    0.2728000000000000    0.3841700000000000 H
   0.1763341694028694    0.1419227433120435    0.2842322202138977 H
   0.1949402176237274    0.1080117827497399    0.2994060938599629 H
   0.5739600000000000    0.9378000000000000    0.4076400000000000 H
   0.3499400000000000    0.9495000000000000    0.4388900000000000 H
   0.4731700000000000    0.1234800000000000    0.4906100000000000 H
   0.2903600000000000    0.0596000000000000    0.4880900000000000 H
   0.4260100000000000    0.0617800000000000    0.5924100000000000 H
   0.6500600000000000    0.0501100000000000    0.5611900000000000 H
   0.5269400000000000    0.8761100000000001    0.5094500000000000 H
   0.7097000000000000    0.9400200000000000    0.5119500000000000 H
   0.2128900000000000    0.7616200000000000    0.4468700000000000 H
   0.1084200000000000    0.7642800000000000    0.5555500000000000 H
   0.7613700000000000    0.7229600000000000    0.5070500000000000 H
   0.6591500000000000    0.7270100000000000    0.6161900000000000 H
   0.9644000000000000    0.8550300000000000    0.6217400000000000 H
   0.8100200000000000    0.0851400000000000    0.7079500000000000 H
   0.6875000000000000    0.9780300000000000    0.7573700000000000 H
   0.0890200000000000    0.9641400000000000    0.5721200000000000 H
   0.9362900000000000    0.0673600000000000    0.0074100000000000 C
   0.9936100000000000    0.9596100000000000    0.0538200000000000 C
   0.0064600000000000    0.0404700000000000    0.9464500000000000 C
   0.0636300000000000    0.9326300000000000    0.9926900000000000 C
   0.2007000000000000    0.4126100000000000    0.3048500000000000 C
   0.0224700000000000    0.4743900000000000    0.3829600000000000 C
   0.0837500000000000    0.4129900000000000    0.3575000000000000 C
   0.2547800000000000    0.4792900000000000    0.2812300000000000 C
   0.1925900000000000    0.5408200000000000    0.3065100000000000 C
   0.0750400000000000    0.5383700000000000    0.3570700000000000 C
   0.5231700000000000    0.5420000000000000    0.4483500000000000 C
   0.6291500000000000    0.4465100000000000    0.5046500000000000 C
   0.4832800000000000    0.4575300000000000    0.5529600000000000 C
   0.3774400000000000    0.5529800000000000    0.4967300000000000 C
   0.7992600000000000    0.5873900000000000    0.6957400000000000 C
   0.9169000000000000    0.5863600000000000    0.6432900000000000 C
   0.9783300000000000    0.5246300000000000    0.6185100000000000 C
   0.7445600000000000    0.5210100000000000    0.7198600000000001 C
   0.8068800000000000    0.4591500000000000    0.6952600000000000 C
   0.9252100000000000    0.4609700000000000    0.6449100000000000 C
   0.2989700000000000    0.5876100000000000    0.8055000000000000 C
   0.4777600000000000    0.5248200000000000    0.8828100000000000 C
   0.4164900000000000    0.5865500000000000    0.8580000000000000 C
   0.2440600000000000    0.5212300000000000    0.7813900000000000 C
   0.3061600000000000    0.4593600000000000    0.8060300000000000 C
   0.4244500000000000    0.4611600000000000    0.8564200000000000 C
   0.0219000000000000    0.5428200000000000    0.0518700000000000 C
   0.1262700000000000    0.4468900000000000    0.9958600000000000 C
   0.9782100000000000    0.4571400000000000    0.9481300000000000 C
   0.8737700000000000    0.5529900000000000    0.0042300000000000 C
   0.7007100000000001    0.4122000000000000    0.1945700000000000 C
   0.5218100000000000    0.4749700000000000    0.1172800000000000 C
   0.5830500000000000    0.4132400000000000    0.1421000000000000 C
   0.7555900000000000    0.4785800000000000    0.2186700000000000 C
   0.6934900000000001    0.5404500000000000    0.1940200000000000 C
   0.5751600000000000    0.5386400000000000    0.1436500000000000 C
   0.1253500000000000    0.2538100000000000    0.0945100000000000 C
   0.1900200000000000    0.2452800000000000    0.9834400000000000 C
   0.2479800000000000    0.2437900000000000    0.0444600000000000 C
   0.9394200000000000    0.2652600000000000    0.0782400000000000 C
   0.8815800000000000    0.2673100000000000    0.0171800000000000 C
   0.0066300000000000    0.2572600000000000    0.9698300000000000 C
   0.6784500000000000    0.0932000000000000    0.1947300000000000 C
   0.4972600000000000    0.0335400000000000    0.1135500000000000 C
   0.5647700000000000    0.0942000000000000    0.1412800000000000 C
   0.6536000000000000    0.9651600000000000    0.1896700000000000 C
   0.7214699999999999    0.0259500000000000    0.2172400000000000 C
   0.5405799999999999    0.9689500000000000    0.1381300000000000 C
   0.8747400000000000    0.7459700000000000    0.9058900000000000 C
   0.1184600000000000    0.7325700000000001    0.9827900000000001 C
   0.0606100000000000    0.7346200000000001    0.9217300000000000 C
   0.8098900000000000    0.7546200000000000    0.0169500000000000 C
   0.7520400000000000    0.7560500000000000    0.9559200000000000 C
   0.9932500000000000    0.7426500000000000    0.0306100000000000 C
   0.3213000000000000    0.9068000000000001    0.8054400000000000 C
   0.5020200000000000    0.9663900000000000    0.8867800000000000 C
   0.4345800000000000    0.9057600000000000    0.8589800000000000 C
   0.3462200000000000    0.0348400000000000    0.8105800000000000 C
   0.2784300000000000    0.9740700000000000    0.7829500000000000 C
   0.4589600000000000    0.0310000000000000    0.8621900000000000 C
   0.6256699999999999    0.2543700000000000    0.4049500000000000 C
   0.6912600000000000    0.2461300000000000    0.5160000000000000 C
   0.7488200000000000    0.2446700000000000    0.4549300000000000 C
   0.3822000000000000    0.2676600000000000    0.4823200000000000 C
   0.4396800000000000    0.2656200000000000    0.4212300000000000 C
   0.5078000000000000    0.2578200000000000    0.5297200000000000 C
   0.4973900000000000    0.9607800000000000    0.4455900000000000 C
   0.4395900000000000    0.0677100000000000    0.4934100000000000 C
   0.5026300000000000    0.0388200000000000    0.5544700000000000 C
   0.5604700000000000    0.9318800000000000    0.5066500000000000 C
   0.3747600000000000    0.7456000000000000    0.5952300000000000 C
   0.3097200000000000    0.7536900000000000    0.4841400000000000 C
   0.2518800000000000    0.7552700000000000    0.5451700000000000 C
   0.6185800000000000    0.7321400000000000    0.5180100000000000 C
   0.5608100000000000    0.7342600000000000    0.5790700000000000 C
   0.4932200000000000    0.7419500000000000    0.4705400000000000 C
   0.8208500000000000    0.9066200000000000    0.6953500000000000 C
   0.9333600000000000    0.9053300000000000    0.6416400000000000 C
   0.8454300000000000    0.0346300000000000    0.6896600000000001 C
   0.7781600000000000    0.9740000000000000    0.7176300000000000 C
   0.0024300000000000    0.9666400000000001    0.6128700000000000 C
   0.9573900000000000    0.0305500000000000    0.6378900000000000 C
   0.9941700000000000    0.6165700000000000    0.3859600000000000 Cl
   0.0052000000000000    0.3846900000000000    0.6114000000000001 Cl
   0.5047400000000000    0.3837900000000000    0.8871800000000000 Cl
   0.4949700000000000    0.6160000000000000    0.1128400000000000 Cl
   0.9336300000000000    0.2593300000000000    0.8931000000000000 Cl
   0.4561900000000000    0.8924100000000000    0.1033600000000000 Cl
   0.0664800000000000    0.7406300000000000    0.1068700000000000 Cl
   0.5433400000000000    0.1075000000000000    0.8970200000000000 Cl
   0.4350600000000000    0.2598400000000000    0.6063700000000000 Cl
   0.5663200000000000    0.7398300000000000    0.3939200000000000 Cl
   0.0424800000000000    0.1078300000000000    0.6029500000000000 Cl
   0.0241800000000000    0.0336700000000000    0.0584000000000000 O
   0.9758300000000000    0.9661999999999999    0.9418700000000000 O
   0.2576300000000000    0.3549400000000000    0.2799600000000000 O
   0.5699600000000000    0.4697900000000000    0.4449600000000000 O
   0.4370600000000000    0.5298000000000000    0.5564100000000000 O
   0.7424700000000000    0.6453700000000000    0.7200900000000000 O
   0.2423000000000000    0.6456100000000000    0.7811600000000000 O
   0.0694800000000000    0.4707100000000000    0.0556800000000000 O
   0.9305500000000000    0.5292500000000000    0.9443900000000000 O
   0.7574500000000000    0.3542000000000000    0.2189000000000000 O
   0.1792000000000000    0.2526500000000000    0.1524500000000000 O
   0.7422700000000000    0.1502300000000000    0.2212900000000000 O
   0.8209900000000000    0.7471100000000001    0.8479400000000000 O
   0.2577000000000000    0.8498000000000000    0.7787800000000000 O
   0.6790400000000000    0.2531500000000000    0.3469600000000000 O
   0.2420600000000000    0.1505200000000000    0.2797400000000000 O
   0.5313800000000000    0.0349400000000000    0.4427400000000000 O
   0.4686900000000000    0.9646400000000001    0.5573200000000000 O
   0.3211000000000000    0.7469400000000000    0.6531900000000000 O
   0.7579000000000000    0.8497500000000000    0.7223600000000000 O
