H4 C8 O4
1.0
  31.9644537493326268    0.0000000000000000   18.2551306899396231
   5.2994425605699620   15.0871384294507429    9.1387573858709139
   0.0000000000000000    0.0000000000000000   36.8359999999999985
H C O
4 8 4
direct
   0.4660100000000000    0.4513900000000000    0.7256950000000000 H
   0.4178500000000000    0.5475100000000001    0.7737700000000001 H
   0.5821600000000000    0.4524500000000000    0.7262250000000000 H
   0.5340000000000000    0.5485800000000000    0.7740000000000000 H
   0.4805300000000000    0.4730400000000000    0.7365300000000000 C
   0.4538400000000000    0.5263200000000000    0.7631600000000001 C
   0.4444450000000000    0.6109400000000000    0.8054700000000000 C
   0.4731350000000000    0.5535900000000000    0.7767999999999999 C
   0.5461700000000000    0.4736500000000000    0.7368000000000000 C
   0.5194800000000001    0.5269200000000001    0.7634650000000001 C
   0.5555650000000000    0.3890200000000000    0.6945250000000001 C
   0.5268750000000000    0.4463800000000000    0.7231500000000000 C
   0.4025400000000000    0.6328200000000000    0.8164300000000000 O
   0.4642550000000000    0.6332300000000000    0.8166300000000000 O
   0.5357550000000000    0.3667300000000000    0.6833650000000000 O
   0.5974699999999999    0.3671400000000000    0.6835650000000000 O
