Zn32 H98 C184 O104
1.0
  31.9644537493326268    0.0000000000000000   18.2551306899396231
   5.2994425605699620   15.0871384294507429    9.1387573858709139
   0.0000000000000000    0.0000000000000000   36.8359999999999985
Zn H C O
32 98 184 104
direct
   0.8533750000000000    0.8803000000000000    0.8534400000000000 Zn
   0.8533750000000000    0.7068600000000000    0.9401600000000000 Zn
   0.9402150000000000    0.7067200000000000    0.8533700000000000 Zn
   0.8531250000000000    0.7062000000000000    0.8531000000000000 Zn
   0.1466350000000000    0.2931000000000000    0.5598350000000000 Zn
   0.1466350000000000    0.1196600000000000    0.6465550000000000 Zn
   0.0597950000000000    0.2932400000000000    0.6466200000000000 Zn
   0.1468850000000000    0.2937600000000000    0.6468800000000000 Zn
   0.8533750000000000    0.8803000000000000    0.3534400000000000 Zn
   0.8533750000000000    0.7068600000000000    0.4401600000000000 Zn
   0.9402150000000000    0.7067200000000000    0.3533700000000000 Zn
   0.8531250000000000    0.7062000000000000    0.3531000000000000 Zn
   0.1466350000000000    0.2931000000000000    0.0598350000000000 Zn
   0.1466350000000000    0.1196600000000000    0.1465550000000000 Zn
   0.0597950000000000    0.2932400000000000    0.1466200000000000 Zn
   0.1468850000000000    0.2937600000000000    0.1468800000000000 Zn
   0.3533750000000000    0.8803000000000000    0.3534400000000000 Zn
   0.3533750000000000    0.7068600000000000    0.4401600000000000 Zn
   0.4402150000000000    0.7067200000000000    0.3533700000000000 Zn
   0.3531250000000000    0.7062000000000000    0.3531000000000000 Zn
   0.6466350000000000    0.2931000000000000    0.0598350000000000 Zn
   0.6466350000000000    0.1196600000000000    0.1465550000000000 Zn
   0.5597950000000000    0.2932400000000000    0.1466200000000000 Zn
   0.6468849999999999    0.2937600000000000    0.1468800000000000 Zn
   0.3533750000000000    0.8803000000000000    0.8534400000000000 Zn
   0.3533750000000000    0.7068600000000000    0.9401600000000000 Zn
   0.4402150000000000    0.7067200000000000    0.8533700000000000 Zn
   0.3531250000000000    0.7062000000000000    0.8531000000000000 Zn
   0.6466350000000000    0.2931000000000000    0.5598350000000000 Zn
   0.6466350000000000    0.1196600000000000    0.6465550000000000 Zn
   0.5597950000000000    0.2932400000000000    0.6466200000000000 Zn
   0.6468849999999999    0.2937600000000000    0.6468800000000000 Zn
   0.6097270934040679    0.3871706939581205    0.6935778713773055 H
   0.5036332541774502    0.3864509945557507    0.6932266182474894 H
   0.5527910085696125    0.3945704563526106    0.6972817873627847 H
   0.9660100000000000    0.4513900000000000    0.7256950000000000 H
   0.9178500000000001    0.5475100000000001    0.7737700000000001 H
   0.0340000000000000    0.5485800000000000    0.7740000000000000 H
   0.0821600000000000    0.4524500000000000    0.7262250000000000 H
   0.9660100000000000    0.4513900000000000    0.2256950000000000 H
   0.9178500000000001    0.5475100000000001    0.2737700000000000 H
   0.0340000000000000    0.5485800000000000    0.2740000000000000 H
   0.0821600000000000    0.4524500000000000    0.2262250000000000 H
   0.3902885708074799    0.6127806355414619    0.8064155023344262 H
   0.4963769679918860    0.6135020391956164    0.8067676056471065 H
   0.4472258489845162    0.6053758322734206    0.8027101225382434 H
   0.4660100000000000    0.4513900000000000    0.2256950000000000 H
   0.4178500000000000    0.5475100000000001    0.2737700000000000 H
   0.5340000000000000    0.5485800000000000    0.2740000000000000 H
   0.5821600000000000    0.4524500000000000    0.2262250000000000 H
   0.2741000000000000    0.0680600000000000    0.9178800000000000 H
   0.2259050000000000    0.1642200000000000    0.9659650000000000 H
   0.2741050000000000    0.8357400000000000    0.0340250000000000 H
   0.2259100000000000    0.9319000000000000    0.0821150000000000 H
   0.7741000000000000    0.0680600000000000    0.9178800000000000 H
   0.7259050000000000    0.1642200000000000    0.9659650000000000 H
   0.7741050000000000    0.8357400000000000    0.0340250000000000 H
   0.7259100000000001    0.9319000000000000    0.0821150000000000 H
   0.2741000000000000    0.0680600000000000    0.4178800000000000 H
   0.2259050000000000    0.1642200000000000    0.4659650000000000 H
   0.2741050000000000    0.8357400000000000    0.5340250000000000 H
   0.2259100000000000    0.9319000000000000    0.5821149999999999 H
   0.7741000000000000    0.0680600000000000    0.4178800000000000 H
   0.7259050000000000    0.1642200000000000    0.4659650000000000 H
   0.7741050000000000    0.8357400000000000    0.5340250000000000 H
   0.7259100000000001    0.9319000000000000    0.5821149999999999 H
   0.7256600000000000    0.4512700000000000    0.4661000000000000 H
   0.7737499999999999    0.5475100000000001    0.4178900000000000 H
   0.7262600000000000    0.4524500000000000    0.5821000000000001 H
   0.7743500000000000    0.5486900000000000    0.5338950000000000 H
   0.7256600000000000    0.4512700000000000    0.9661000000000000 H
   0.7737499999999999    0.5475100000000001    0.9178900000000000 H
   0.7262600000000000    0.4524500000000000    0.0821000000000000 H
   0.7743500000000000    0.5486900000000000    0.0338950000000000 H
   0.2256600000000000    0.4512700000000000    0.4661000000000000 H
   0.2737500000000000    0.5475100000000001    0.4178900000000000 H
   0.2262600000000000    0.4524500000000000    0.5821000000000001 H
   0.2743500000000000    0.5486900000000000    0.5338950000000000 H
   0.2256600000000000    0.4512700000000000    0.9661000000000000 H
   0.2737500000000000    0.5475100000000001    0.9178900000000000 H
   0.2262600000000000    0.4524500000000000    0.0821000000000000 H
   0.2743500000000000    0.5486900000000000    0.0338950000000000 H
   0.7743450000000001    0.0677900000000000    0.7743500000000000 H
   0.7262649999999999    0.1642000000000000    0.7262250000000000 H
   0.7256650000000000    0.9321700000000001    0.7256400000000001 H
   0.7737499999999999    0.8357599999999999    0.7737499999999999 H
   0.7743450000000001    0.0677900000000000    0.2743500000000000 H
   0.7262649999999999    0.1642000000000000    0.2262250000000000 H
   0.7256650000000000    0.9321700000000001    0.2256400000000000 H
   0.7737499999999999    0.8357599999999999    0.2737500000000000 H
   0.0821700000000000    0.4516900000000000    0.4660100000000000 H
   0.0340700000000000    0.5481600000000000    0.4178800000000000 H
   0.9178400000000000    0.5482700000000000    0.5339800000000000 H
   0.9659400000000000    0.4518000000000000    0.5821100000000000 H
   0.0340650000000000    0.8357400000000000    0.7740950000000000 H
   0.0821700000000000    0.9320000000000001    0.7258500000000000 H
   0.9178400000000000    0.0679600000000000    0.7741450000000001 H
   0.9659450000000001    0.1642200000000000    0.7259000000000000 H
   0.0821700000000000    0.4516900000000000    0.9660100000000000 H
   0.0340700000000000    0.5481600000000000    0.9178800000000000 H
   0.9178400000000000    0.5482700000000000    0.0339800000000000 H
   0.9659400000000000    0.4518000000000000    0.0821100000000000 H
   0.0340650000000000    0.8357400000000000    0.2740950000000000 H
   0.0821700000000000    0.9320000000000001    0.2258500000000000 H
   0.9178400000000000    0.0679600000000000    0.2741450000000000 H
   0.9659450000000001    0.1642200000000000    0.2259000000000000 H
   0.2256650000000000    0.9321700000000001    0.7256400000000001 H
   0.2737500000000000    0.8357599999999999    0.7737499999999999 H
   0.2743450000000000    0.0677900000000000    0.7743500000000000 H
   0.2262650000000000    0.1642000000000000    0.7262250000000000 H
   0.2256650000000000    0.9321700000000001    0.2256400000000000 H
   0.2737500000000000    0.8357599999999999    0.2737500000000000 H
   0.2743450000000000    0.0677900000000000    0.2743500000000000 H
   0.2262650000000000    0.1642000000000000    0.2262250000000000 H
   0.5821700000000000    0.4516900000000000    0.9660100000000000 H
   0.5340700000000000    0.5481600000000000    0.9178800000000000 H
   0.4178400000000000    0.5482700000000000    0.0339800000000000 H
   0.4659400000000000    0.4518000000000000    0.0821100000000000 H
   0.4178400000000000    0.0679600000000000    0.2741450000000000 H
   0.4659450000000000    0.1642200000000000    0.2259000000000000 H
   0.5340650000000000    0.8357400000000000    0.2740950000000000 H
   0.5821700000000000    0.9320000000000001    0.2258500000000000 H
   0.5821700000000000    0.4516900000000000    0.4660100000000000 H
   0.5340700000000000    0.5481600000000000    0.4178800000000000 H
   0.4178400000000000    0.5482700000000000    0.5339800000000000 H
   0.4659400000000000    0.4518000000000000    0.5821100000000000 H
   0.4178400000000000    0.0679600000000000    0.7741450000000001 H
   0.4659450000000000    0.1642200000000000    0.7259000000000000 H
   0.5340650000000000    0.8357400000000000    0.7740950000000000 H
   0.5821700000000000    0.9320000000000001    0.7258500000000000 H
   0.9444450000000000    0.6109400000000000    0.8054700000000000 C
   0.0555650000000000    0.3890200000000000    0.6945250000000001 C
   0.9805300000000000    0.4730400000000000    0.7365300000000000 C
   0.9538400000000000    0.5263200000000000    0.7631600000000001 C
   0.9731350000000000    0.5535900000000000    0.7767999999999999 C
   0.0194800000000000    0.5269200000000001    0.7634650000000001 C
   0.0461700000000000    0.4736500000000000    0.7368000000000000 C
   0.0268750000000000    0.4463800000000000    0.7231500000000000 C
   0.9444450000000000    0.6109400000000000    0.3054700000000000 C
   0.0555650000000000    0.3890200000000000    0.1945250000000000 C
   0.9805300000000000    0.4730400000000000    0.2365300000000000 C
   0.9538400000000000    0.5263200000000000    0.2631600000000000 C
   0.9731350000000000    0.5535900000000000    0.2768000000000000 C
   0.0194800000000000    0.5269200000000001    0.2634650000000000 C
   0.0461700000000000    0.4736500000000000    0.2368000000000000 C
   0.0268750000000000    0.4463800000000000    0.2231500000000000 C
   0.4444450000000000    0.6109400000000000    0.3054700000000000 C
   0.5555650000000000    0.3890200000000000    0.1945250000000000 C
   0.4805300000000000    0.4730400000000000    0.2365300000000000 C
   0.4538400000000000    0.5263200000000000    0.2631600000000000 C
   0.4731350000000000    0.5535900000000000    0.2768000000000000 C
   0.5194800000000001    0.5269200000000001    0.2634650000000000 C
   0.5461700000000000    0.4736500000000000    0.2368000000000000 C
   0.5268750000000000    0.4463800000000000    0.2231500000000000 C
   0.1943900000000000    0.1108800000000000    0.0554400000000000 C
   0.3056200000000000    0.8890900000000000    0.9445500000000000 C
   0.2633500000000000    0.0390200000000000    0.9538500000000000 C
   0.2366600000000000    0.0922700000000000    0.9804850000000001 C
   0.2231200000000000    0.0535900000000000    0.0267950000000000 C
   0.2633500000000000    0.9076900000000000    0.0195100000000000 C
   0.2366600000000000    0.9609400000000000    0.0461400000000000 C
   0.2768850000000000    0.9463700000000000    0.9731950000000000 C
   0.6943900000000001    0.1108800000000000    0.0554400000000000 C
   0.8056200000000000    0.8890900000000000    0.9445500000000000 C
   0.7633500000000000    0.0390200000000000    0.9538500000000000 C
   0.7366600000000000    0.0922700000000000    0.9804850000000001 C
   0.7231200000000000    0.0535900000000000    0.0267950000000000 C
   0.7633500000000000    0.9076900000000000    0.0195100000000000 C
   0.7366600000000000    0.9609400000000000    0.0461400000000000 C
   0.7768850000000000    0.9463700000000000    0.9731950000000000 C
   0.1943900000000000    0.1108800000000000    0.5554400000000000 C
   0.3056200000000000    0.8890900000000000    0.4445500000000000 C
   0.2633500000000000    0.0390200000000000    0.4538500000000000 C
   0.2366600000000000    0.0922700000000000    0.4804850000000000 C
   0.2231200000000000    0.0535900000000000    0.5267950000000000 C
   0.2633500000000000    0.9076900000000000    0.5195100000000000 C
   0.2366600000000000    0.9609400000000000    0.5461400000000000 C
   0.2768850000000000    0.9463700000000000    0.4731950000000000 C
   0.6943900000000001    0.1108800000000000    0.5554400000000000 C
   0.8056200000000000    0.8890900000000000    0.4445500000000000 C
   0.7633500000000000    0.0390200000000000    0.4538500000000000 C
   0.7366600000000000    0.0922700000000000    0.4804850000000000 C
   0.7231200000000000    0.0535900000000000    0.5267950000000000 C
   0.7633500000000000    0.9076900000000000    0.5195100000000000 C
   0.7366600000000000    0.9609400000000000    0.5461400000000000 C
   0.7768850000000000    0.9463700000000000    0.4731950000000000 C
   0.8054749999999999    0.6110000000000000    0.4444000000000000 C
   0.6945300000000000    0.3889700000000000    0.5555850000000000 C
   0.7365150000000000    0.4729800000000000    0.4805700000000000 C
   0.7631500000000000    0.5263000000000000    0.4538600000000000 C
   0.7768200000000001    0.5536300000000000    0.4731100000000000 C
   0.7368600000000000    0.4736600000000000    0.5461350000000000 C
   0.7634950000000000    0.5269800000000000    0.5194200000000000 C
   0.7231900000000000    0.4463200000000000    0.5268850000000000 C
   0.8054749999999999    0.6110000000000000    0.9444000000000000 C
   0.6945300000000000    0.3889700000000000    0.0555850000000000 C
   0.7365150000000000    0.4729800000000000    0.9805699999999999 C
   0.7631500000000000    0.5263000000000000    0.9538599999999999 C
   0.7768200000000001    0.5536300000000000    0.9731099999999999 C
   0.7368600000000000    0.4736600000000000    0.0461350000000000 C
   0.7634950000000000    0.5269800000000000    0.0194200000000000 C
   0.7231900000000000    0.4463200000000000    0.0268850000000000 C
   0.3054750000000000    0.6110000000000000    0.4444000000000000 C
   0.1945300000000000    0.3889700000000000    0.5555850000000000 C
   0.2365150000000000    0.4729800000000000    0.4805700000000000 C
   0.2631500000000000    0.5263000000000000    0.4538600000000000 C
   0.2768200000000000    0.5536300000000000    0.4731100000000000 C
   0.2368600000000000    0.4736600000000000    0.5461350000000000 C
   0.2634950000000000    0.5269800000000000    0.5194200000000000 C
   0.2231900000000000    0.4463200000000000    0.5268850000000000 C
   0.3054750000000000    0.6110000000000000    0.9444000000000000 C
   0.1945300000000000    0.3889700000000000    0.0555850000000000 C
   0.2365150000000000    0.4729800000000000    0.9805699999999999 C
   0.2631500000000000    0.5263000000000000    0.9538599999999999 C
   0.2768200000000000    0.5536300000000000    0.9731099999999999 C
   0.2368600000000000    0.4736600000000000    0.0461350000000000 C
   0.2634950000000000    0.5269800000000000    0.0194200000000000 C
   0.2231900000000000    0.4463200000000000    0.0268850000000000 C
   0.8054900000000000    0.8888000000000000    0.8054950000000001 C
   0.6945200000000000    0.1111600000000000    0.6945000000000000 C
   0.7635050000000000    0.0388400000000000    0.7634799999999999 C
   0.7368450000000000    0.0922600000000000    0.7368450000000000 C
   0.7232149999999999    0.0537600000000000    0.7231400000000000 C
   0.7365050000000000    0.9611200000000000    0.7364999999999999 C
   0.7631650000000000    0.9077000000000000    0.7631450000000000 C
   0.7767950000000000    0.9462000000000000    0.7768500000000000 C
   0.8054900000000000    0.8888000000000000    0.3054950000000000 C
   0.6945200000000000    0.1111600000000000    0.1945000000000000 C
   0.7635050000000000    0.0388400000000000    0.2634800000000000 C
   0.7368450000000000    0.0922600000000000    0.2368450000000000 C
   0.7232149999999999    0.0537600000000000    0.2231400000000000 C
   0.7365050000000000    0.9611200000000000    0.2365000000000000 C
   0.7631650000000000    0.9077000000000000    0.2631450000000000 C
   0.7767950000000000    0.9462000000000000    0.2768500000000000 C
   0.0554550000000000    0.3886700000000000    0.5554700000000000 C
   0.9445550000000000    0.6112900000000000    0.4445250000000000 C
   0.0461800000000000    0.4732200000000000    0.4805050000000000 C
   0.0195400000000000    0.5266800000000000    0.4538500000000000 C
   0.9732100000000000    0.5537400000000000    0.4731800000000000 C
   0.9538300000000000    0.5267400000000000    0.5194900000000000 C
   0.9804649999999999    0.4732800000000000    0.5461400000000000 C
   0.0268000000000000    0.4462200000000000    0.5268150000000000 C
   0.0554550000000000    0.1109300000000000    0.6943000000000000 C
   0.9445550000000000    0.8890300000000000    0.8056500000000000 C
   0.0195400000000000    0.9076800000000000    0.7633400000000000 C
   0.0461750000000000    0.9609799999999999    0.7366250000000000 C
   0.9732050000000000    0.9463400000000000    0.7768950000000000 C
   0.9538300000000000    0.0389800000000000    0.7633650000000001 C
   0.9804700000000000    0.0922800000000000    0.7366550000000001 C
   0.0268050000000000    0.0536200000000000    0.7231000000000000 C
   0.0554550000000000    0.3886700000000000    0.0554700000000000 C
   0.9445550000000000    0.6112900000000000    0.9445250000000001 C
   0.0461800000000000    0.4732200000000000    0.9805050000000000 C
   0.0195400000000000    0.5266800000000000    0.9538500000000000 C
   0.9732100000000000    0.5537400000000000    0.9731799999999999 C
   0.9538300000000000    0.5267400000000000    0.0194900000000000 C
   0.9804649999999999    0.4732800000000000    0.0461400000000000 C
   0.0268000000000000    0.4462200000000000    0.0268150000000000 C
   0.0554550000000000    0.1109300000000000    0.1943000000000000 C
   0.9445550000000000    0.8890300000000000    0.3056500000000000 C
   0.0195400000000000    0.9076800000000000    0.2633400000000000 C
   0.0461750000000000    0.9609799999999999    0.2366250000000000 C
   0.9732050000000000    0.9463400000000000    0.2768950000000000 C
   0.9538300000000000    0.0389800000000000    0.2633650000000000 C
   0.9804700000000000    0.0922800000000000    0.2366550000000000 C
   0.0268050000000000    0.0536200000000000    0.2231000000000000 C
   0.3054900000000000    0.8888000000000000    0.8054950000000001 C
   0.1945200000000000    0.1111600000000000    0.6945000000000000 C
   0.2365050000000000    0.9611200000000000    0.7364999999999999 C
   0.2631650000000000    0.9077000000000000    0.7631450000000000 C
   0.2767950000000000    0.9462000000000000    0.7768500000000000 C
   0.2635050000000000    0.0388400000000000    0.7634799999999999 C
   0.2368450000000000    0.0922600000000000    0.7368450000000000 C
   0.2232150000000000    0.0537600000000000    0.7231400000000000 C
   0.3054900000000000    0.8888000000000000    0.3054950000000000 C
   0.1945200000000000    0.1111600000000000    0.1945000000000000 C
   0.2365050000000000    0.9611200000000000    0.2365000000000000 C
   0.2631650000000000    0.9077000000000000    0.2631450000000000 C
   0.2767950000000000    0.9462000000000000    0.2768500000000000 C
   0.2635050000000000    0.0388400000000000    0.2634800000000000 C
   0.2368450000000000    0.0922600000000000    0.2368450000000000 C
   0.2232150000000000    0.0537600000000000    0.2231400000000000 C
   0.5554550000000000    0.3886700000000000    0.0554700000000000 C
   0.4445550000000000    0.6112900000000000    0.9445250000000001 C
   0.5461800000000000    0.4732200000000000    0.9805050000000000 C
   0.5195400000000000    0.5266800000000000    0.9538500000000000 C
   0.4732100000000000    0.5537400000000000    0.9731799999999999 C
   0.4538300000000000    0.5267400000000000    0.0194900000000000 C
   0.4804650000000000    0.4732800000000000    0.0461400000000000 C
   0.5268000000000000    0.4462200000000000    0.0268150000000000 C
   0.5554550000000000    0.1109300000000000    0.1943000000000000 C
   0.4445550000000000    0.8890300000000000    0.3056500000000000 C
   0.4538300000000000    0.0389800000000000    0.2633650000000000 C
   0.4804700000000000    0.0922800000000000    0.2366550000000000 C
   0.5268050000000000    0.0536200000000000    0.2231000000000000 C
   0.5195400000000000    0.9076800000000000    0.2633400000000000 C
   0.5461750000000000    0.9609799999999999    0.2366250000000000 C
   0.4732050000000000    0.9463400000000000    0.2768950000000000 C
   0.5554550000000000    0.3886700000000000    0.5554700000000000 C
   0.4445550000000000    0.6112900000000000    0.4445250000000000 C
   0.5461800000000000    0.4732200000000000    0.4805050000000000 C
   0.5195400000000000    0.5266800000000000    0.4538500000000000 C
   0.4732100000000000    0.5537400000000000    0.4731800000000000 C
   0.4538300000000000    0.5267400000000000    0.5194900000000000 C
   0.4804650000000000    0.4732800000000000    0.5461400000000000 C
   0.5268000000000000    0.4462200000000000    0.5268150000000000 C
   0.5554550000000000    0.1109300000000000    0.6943000000000000 C
   0.4445550000000000    0.8890300000000000    0.8056500000000000 C
   0.4538300000000000    0.0389800000000000    0.7633650000000001 C
   0.4804700000000000    0.0922800000000000    0.7366550000000001 C
   0.5268050000000000    0.0536200000000000    0.7231000000000000 C
   0.5195400000000000    0.9076800000000000    0.7633400000000000 C
   0.5461750000000000    0.9609799999999999    0.7366250000000000 C
   0.4732050000000000    0.9463400000000000    0.7768950000000000 C
   0.5974699999999999    0.3671400000000000    0.6835650000000000 O
   0.5357550000000000    0.3667300000000000    0.6833650000000000 O
   0.9642550000000000    0.6332300000000000    0.8166300000000000 O
   0.9025400000000000    0.6328200000000000    0.8164300000000000 O
   0.0357550000000000    0.3667300000000000    0.6833650000000000 O
   0.0974700000000000    0.3671400000000000    0.6835650000000000 O
   0.9642550000000000    0.6332300000000000    0.3166300000000000 O
   0.9025400000000000    0.6328200000000000    0.3164300000000000 O
   0.0357550000000000    0.3667300000000000    0.1833650000000000 O
   0.0974700000000000    0.3671400000000000    0.1835650000000000 O
   0.4025400000000000    0.6328200000000000    0.8164300000000000 O
   0.4642550000000000    0.6332300000000000    0.8166300000000000 O
   0.4642550000000000    0.6332300000000000    0.3166300000000000 O
   0.4025400000000000    0.6328200000000000    0.3164300000000000 O
   0.5357550000000000    0.3667300000000000    0.1833650000000000 O
   0.5974699999999999    0.3671400000000000    0.1835650000000000 O
   0.1832900000000000    0.1946000000000000    0.0356500000000000 O
   0.1832900000000000    0.0713300000000000    0.0973050000000000 O
   0.3167200000000000    0.9286300000000000    0.9026900000000000 O
   0.3167150000000000    0.8053600000000000    0.9643200000000001 O
   0.6832900000000000    0.1946000000000000    0.0356500000000000 O
   0.6832900000000000    0.0713300000000000    0.0973050000000000 O
   0.8167200000000000    0.9286300000000000    0.9026900000000000 O
   0.8167150000000001    0.8053600000000000    0.9643200000000001 O
   0.1832900000000000    0.1946000000000000    0.5356500000000000 O
   0.1832900000000000    0.0713300000000000    0.5973050000000000 O
   0.3167200000000000    0.9286300000000000    0.4026900000000000 O
   0.3167150000000000    0.8053600000000000    0.4643200000000000 O
   0.6832900000000000    0.1946000000000000    0.5356500000000000 O
   0.6832900000000000    0.0713300000000000    0.5973050000000000 O
   0.8167200000000000    0.9286300000000000    0.4026900000000000 O
   0.8167150000000001    0.8053600000000000    0.4643200000000000 O
   0.8164000000000000    0.6329100000000000    0.4025350000000000 O
   0.8166450000000001    0.6333100000000000    0.4641900000000000 O
   0.6833650000000000    0.3666500000000000    0.5358050000000000 O
   0.6836100000000001    0.3670600000000000    0.5974600000000000 O
   0.8164000000000000    0.6329100000000000    0.9025350000000000 O
   0.8166450000000001    0.6333100000000000    0.9641900000000000 O
   0.6833650000000000    0.3666500000000000    0.0358050000000000 O
   0.6836100000000001    0.3670600000000000    0.0974600000000000 O
   0.3164000000000000    0.6329100000000000    0.4025350000000000 O
   0.3166450000000000    0.6333100000000000    0.4641900000000000 O
   0.1833650000000000    0.3666500000000000    0.5358050000000000 O
   0.1836100000000000    0.3670600000000000    0.5974600000000000 O
   0.3164000000000000    0.6329100000000000    0.9025350000000000 O
   0.3166450000000000    0.6333100000000000    0.9641900000000000 O
   0.1833650000000000    0.3666500000000000    0.0358050000000000 O
   0.1836100000000000    0.3670600000000000    0.0974600000000000 O
   0.8166400000000000    0.9283600000000000    0.8166700000000000 O
   0.8164000000000000    0.8050500000000000    0.8164600000000000 O
   0.6833700000000000    0.0716000000000000    0.6833250000000000 O
   0.6836100000000001    0.1949100000000000    0.6835300000000000 O
   0.8166400000000000    0.9283600000000000    0.3166700000000000 O
   0.8164000000000000    0.8050500000000000    0.3164600000000000 O
   0.6833700000000000    0.0716000000000000    0.1833250000000000 O
   0.6836100000000001    0.1949100000000000    0.1835300000000000 O
   0.0973350000000000    0.3665000000000000    0.5357050000000000 O
   0.0356700000000000    0.3664600000000000    0.5973300000000000 O
   0.9026750000000000    0.6334500000000000    0.4642900000000000 O
   0.9643400000000000    0.6335000000000000    0.4026650000000000 O
   0.8749950000000000    0.7499400000000001    0.8749800000000000 O
   0.0356700000000000    0.1946500000000000    0.6832000000000000 O
   0.0973400000000000    0.0714000000000000    0.6832500000000000 O
   0.9643400000000000    0.8053100000000000    0.8167599999999999 O
   0.9026700000000000    0.9285600000000001    0.8167450000000001 O
   0.1250150000000000    0.2500200000000000    0.6250000000000000 O
   0.0973350000000000    0.3665000000000000    0.0357050000000000 O
   0.0356700000000000    0.3664600000000000    0.0973300000000000 O
   0.9026750000000000    0.6334500000000000    0.9642900000000000 O
   0.9643400000000000    0.6335000000000000    0.9026650000000001 O
   0.8749950000000000    0.7499400000000001    0.3749800000000000 O
   0.0356700000000000    0.1946500000000000    0.1832000000000000 O
   0.0973400000000000    0.0714000000000000    0.1832500000000000 O
   0.9643400000000000    0.8053100000000000    0.3167600000000000 O
   0.9026700000000000    0.9285600000000001    0.3167450000000000 O
   0.1250150000000000    0.2500200000000000    0.1250000000000000 O
   0.3166400000000000    0.9283600000000000    0.8166700000000000 O
   0.3164000000000000    0.8050500000000000    0.8164600000000000 O
   0.1833700000000000    0.0716000000000000    0.6833250000000000 O
   0.1836100000000000    0.1949100000000000    0.6835300000000000 O
   0.3166400000000000    0.9283600000000000    0.3166700000000000 O
   0.3164000000000000    0.8050500000000000    0.3164600000000000 O
   0.1833700000000000    0.0716000000000000    0.1833250000000000 O
   0.1836100000000000    0.1949100000000000    0.1835300000000000 O
   0.5973349999999999    0.3665000000000000    0.0357050000000000 O
   0.5356700000000000    0.3664600000000000    0.0973300000000000 O
   0.4026750000000000    0.6334500000000000    0.9642900000000000 O
   0.4643400000000000    0.6335000000000000    0.9026650000000001 O
   0.3749950000000000    0.7499400000000001    0.3749800000000000 O
   0.5356700000000000    0.1946500000000000    0.1832000000000000 O
   0.5973400000000000    0.0714000000000000    0.1832500000000000 O
   0.4643400000000000    0.8053100000000000    0.3167600000000000 O
   0.4026700000000000    0.9285600000000001    0.3167450000000000 O
   0.6250150000000000    0.2500200000000000    0.1250000000000000 O
   0.5973349999999999    0.3665000000000000    0.5357050000000000 O
   0.5356700000000000    0.3664600000000000    0.5973300000000000 O
   0.4026750000000000    0.6334500000000000    0.4642900000000000 O
   0.4643400000000000    0.6335000000000000    0.4026650000000000 O
   0.3749950000000000    0.7499400000000001    0.8749800000000000 O
   0.5356700000000000    0.1946500000000000    0.6832000000000000 O
   0.5973400000000000    0.0714000000000000    0.6832500000000000 O
   0.4643400000000000    0.8053100000000000    0.8167599999999999 O
   0.4026700000000000    0.9285600000000001    0.8167450000000001 O
   0.6250150000000000    0.2500200000000000    0.6250000000000000 O
