Zn16 Ni12 C47 N47
1.0
  14.9499999999999993    0.0000000000000000    0.0000000000000009
   0.0000000000000024   14.8919999999999995    0.0000000000000009
   0.0000000000000000    0.0000000000000000   26.1619999999999990
Zn Ni C N
16 12 47 47
direct
   0.0000500000000000    0.5000700000000000    0.3753550000000000 Zn
   0.5001100000000001    0.9999800000000000    0.3753500000000000 Zn
   0.5000700000000000    0.5000300000000000    0.3753950000000000 Zn
   0.0001200000000000    0.0000200000000000    0.1245950000000000 Zn
   0.0001100000000000    0.5000700000000000    0.1246400000000000 Zn
   0.5000599999999999    0.9999800000000000    0.1246350000000000 Zn
   0.5000500000000000    0.5000300000000000    0.1245000000000000 Zn
   0.0000800000000000    0.0000200000000000    0.3753900000000000 Zn
   0.0000500000000000    0.5000700000000000    0.8753550000000000 Zn
   0.5001100000000001    0.9999800000000000    0.8753500000000001 Zn
   0.5000700000000000    0.5000300000000000    0.8753949999999999 Zn
   0.0001200000000000    0.0000200000000000    0.6245950000000000 Zn
   0.0001100000000000    0.5000700000000000    0.6246400000000000 Zn
   0.5000599999999999    0.9999800000000000    0.6246350000000001 Zn
   0.5000500000000000    0.5000300000000000    0.6245000000000001 Zn
   0.0000800000000000    0.0000200000000000    0.8753900000000000 Zn
   0.2502500000000000    0.9982400000000000    0.4999600000000000 Ni
   0.2501000000000000    0.5017500000000000    0.4999750000000000 Ni
   0.0017800000000000    0.2500300000000000    0.2499950000000000 Ni
   0.0018200000000000    0.7501500000000000    0.2499950000000000 Ni
   0.5017900000000000    0.2500600000000000    0.2499950000000000 Ni
   0.4982200000000000    0.7499700000000000    0.2499950000000000 Ni
   0.2502500000000000    0.9982400000000000    0.9999600000000000 Ni
   0.2501000000000000    0.5017500000000000    0.9999750000000001 Ni
   0.0017800000000000    0.2500300000000000    0.7499950000000000 Ni
   0.0018200000000000    0.7501500000000000    0.7499950000000000 Ni
   0.5017900000000000    0.2500600000000000    0.7499950000000000 Ni
   0.4982200000000000    0.7499700000000000    0.7499950000000000 Ni
   0.3376100000000000    0.9988700000000000    0.4505000000000000 C
   0.3374500000000000    0.5012500000000000    0.4506450000000000 C
   0.1627600000000000    0.9986900000000000    0.4506750000000000 C
   0.1626000000000000    0.5013400000000000    0.4507100000000000 C
   0.0013000000000000    0.3375900000000000    0.2005400000000000 C
   0.0013700000000000    0.8377100000000000    0.2005850000000000 C
   0.5013200000000000    0.3376100000000000    0.2005350000000000 C
   0.4985900000000000    0.8375800000000000    0.2006000000000000 C
   0.0014000000000000    0.1624700000000000    0.2005300000000000 C
   0.0014200000000000    0.6625200000000000    0.2006000000000000 C
   0.5014200000000000    0.1624900000000000    0.2005350000000000 C
   0.4986300000000000    0.6624000000000000    0.2005800000000000 C
   0.1627200000000000    0.9986800000000000    0.0492200000000000 C
   0.1626600000000000    0.5013200000000000    0.0492700000000000 C
   0.3375800000000000    0.9988500000000000    0.0492950000000000 C
   0.3375100000000000    0.5012200000000000    0.0492750000000000 C
   0.0012700000000000    0.3375900000000000    0.2994500000000000 C
   0.0013000000000000    0.8377100000000000    0.2994000000000000 C
   0.4986200000000000    0.8375700000000000    0.2993950000000000 C
   0.0013200000000000    0.1624700000000000    0.2994600000000000 C
   0.0013700000000000    0.6625300000000000    0.2993900000000000 C
   0.5014800000000000    0.1624800000000000    0.2994450000000000 C
   0.4987000000000000    0.6623900000000000    0.2994000000000000 C
   0.3376100000000000    0.9988700000000000    0.9505000000000000 C
   0.3374500000000000    0.5012500000000000    0.9506450000000000 C
   0.1627600000000000    0.9986900000000000    0.9506749999999999 C
   0.1626000000000000    0.5013400000000000    0.9507099999999999 C
   0.0013000000000000    0.3375900000000000    0.7005399999999999 C
   0.0013700000000000    0.8377100000000000    0.7005850000000000 C
   0.5013200000000000    0.3376100000000000    0.7005350000000000 C
   0.4985900000000000    0.8375800000000000    0.7006000000000000 C
   0.0014000000000000    0.1624700000000000    0.7005300000000000 C
   0.0014200000000000    0.6625200000000000    0.7006000000000000 C
   0.5014200000000000    0.1624900000000000    0.7005350000000000 C
   0.4986300000000000    0.6624000000000000    0.7005800000000000 C
   0.1627200000000000    0.9986800000000000    0.5492200000000000 C
   0.1626600000000000    0.5013200000000000    0.5492700000000000 C
   0.3375800000000000    0.9988500000000000    0.5492950000000000 C
   0.3375100000000000    0.5012200000000000    0.5492750000000000 C
   0.0012700000000000    0.3375900000000000    0.7994500000000000 C
   0.0013000000000000    0.8377100000000000    0.7994000000000000 C
   0.5013800000000000    0.3376000000000000    0.7994650000000000 C
   0.4986200000000000    0.8375700000000000    0.7993950000000001 C
   0.0013200000000000    0.1624700000000000    0.7994600000000001 C
   0.0013700000000000    0.6625300000000000    0.7993900000000000 C
   0.5014800000000000    0.1624800000000000    0.7994450000000000 C
   0.4987000000000000    0.6623900000000000    0.7994000000000000 C
   0.3941700000000000    0.9997400000000000    0.4197850000000000 N
   0.3940400000000000    0.5004200000000000    0.4197900000000000 N
   0.1060300000000000    0.9994200000000000    0.4199150000000000 N
   0.1059000000000000    0.5006000000000000    0.4199300000000000 N
   0.0006500000000000    0.3939100000000000    0.1693950000000000 N
   0.0007600000000000    0.8941300000000000    0.1695000000000000 N
   0.5007200000000001    0.3939100000000000    0.1693500000000000 N
   0.4992400000000000    0.8940700000000000    0.1695500000000000 N
   0.0008100000000000    0.1061600000000000    0.1693750000000000 N
   0.0008200000000000    0.6060300000000000    0.1695600000000000 N
   0.5008500000000000    0.1061500000000000    0.1694000000000000 N
   0.4992900000000000    0.6059700000000000    0.1695050000000000 N
   0.1059800000000000    0.9994200000000000    0.0799750000000000 N
   0.1059800000000000    0.5005800000000000    0.0800650000000000 N
   0.3941100000000000    0.9997000000000000    0.0801750000000000 N
   0.3941200000000000    0.5003800000000000    0.0801150000000000 N
   0.0005900000000000    0.3939200000000000    0.3305500000000000 N
   0.0006400000000000    0.8941400000000000    0.3304500000000000 N
   0.4992800000000000    0.8940500000000000    0.3304450000000000 N
   0.0006700000000000    0.1061700000000000    0.3306200000000000 N
   0.0007500000000000    0.6060300000000000    0.3304350000000000 N
   0.5009600000000000    0.1061300000000000    0.3305750000000000 N
   0.4994000000000000    0.6059500000000000    0.3304750000000000 N
   0.3941700000000000    0.9997400000000000    0.9197850000000001 N
   0.3940400000000000    0.5004200000000000    0.9197900000000000 N
   0.1060300000000000    0.9994200000000000    0.9199150000000000 N
   0.1059000000000000    0.5006000000000000    0.9199300000000000 N
   0.0006500000000000    0.3939100000000000    0.6693950000000000 N
   0.0007600000000000    0.8941300000000000    0.6695000000000000 N
   0.5007200000000001    0.3939100000000000    0.6693500000000000 N
   0.4992400000000000    0.8940700000000000    0.6695500000000000 N
   0.0008100000000000    0.1061600000000000    0.6693750000000001 N
   0.0008200000000000    0.6060300000000000    0.6695599999999999 N
   0.5008500000000000    0.1061500000000000    0.6694000000000000 N
   0.4992900000000000    0.6059700000000000    0.6695050000000000 N
   0.1059800000000000    0.9994200000000000    0.5799750000000000 N
   0.1059800000000000    0.5005800000000000    0.5800650000000001 N
   0.3941100000000000    0.9997000000000000    0.5801750000000000 N
   0.3941200000000000    0.5003800000000000    0.5801150000000000 N
   0.0005900000000000    0.3939200000000000    0.8305500000000000 N
   0.0006400000000000    0.8941400000000000    0.8304500000000000 N
   0.5008100000000000    0.3938900000000000    0.8306300000000000 N
   0.4992800000000000    0.8940500000000000    0.8304450000000000 N
   0.0006700000000000    0.1061700000000000    0.8306200000000000 N
   0.0007500000000000    0.6060300000000000    0.8304350000000000 N
   0.5009600000000000    0.1061300000000000    0.8305750000000001 N
   0.4994000000000000    0.6059500000000000    0.8304750000000001 N
