In36 H288 C515 O214
1.0
  32.6387446067298299    0.0000000000000000   -1.3822353260802729
  -0.7107620346546060   16.3146321353586181   -0.6490336031497282
   0.0000000000000000    0.0000000000000000   32.6880000000000024
In H C O
36 288 515 214
direct
   0.2046550000000000    0.7415700000000000    0.0790250000000000 In
   0.0783550000000000    0.4082600000000000    0.3716800000000000 In
   0.4214800000000000    0.2562700000000000    0.2958700000000000 In
   0.1288450000000000    0.5893800000000000    0.4219100000000000 In
   0.2953050000000000    0.8422200000000000    0.1291150000000000 In
   0.3329250000000000    0.3322500000000000    0.2504200000000000 In
   0.2500350000000000    0.6655500000000000    0.1673900000000000 In
   0.1668700000000000    0.4990900000000000    0.3337900000000000 In
   0.3710650000000000    0.1560100000000000    0.2053200000000000 In
   0.7046550000000000    0.7415700000000000    0.0790250000000000 In
   0.5783550000000000    0.4082600000000000    0.3716800000000000 In
   0.9214800000000001    0.2562700000000000    0.2958700000000000 In
   0.6288450000000000    0.5893800000000000    0.4219100000000000 In
   0.7953049999999999    0.8422200000000000    0.1291150000000000 In
   0.8329250000000000    0.3322500000000000    0.2504200000000000 In
   0.7500350000000000    0.6655500000000000    0.1673900000000000 In
   0.6668700000000000    0.4990900000000000    0.3337900000000000 In
   0.8710650000000000    0.1560100000000000    0.2053200000000000 In
   0.2046550000000000    0.7415700000000000    0.5790250000000000 In
   0.0783550000000000    0.4082600000000000    0.8716800000000000 In
   0.4214800000000000    0.2562700000000000    0.7958700000000001 In
   0.1288450000000000    0.5893800000000000    0.9219100000000000 In
   0.2953050000000000    0.8422200000000000    0.6291150000000000 In
   0.3329250000000000    0.3322500000000000    0.7504200000000000 In
   0.2500350000000000    0.6655500000000000    0.6673900000000000 In
   0.1668700000000000    0.4990900000000000    0.8337900000000000 In
   0.3710650000000000    0.1560100000000000    0.7053199999999999 In
   0.7046550000000000    0.7415700000000000    0.5790250000000000 In
   0.5783550000000000    0.4082600000000000    0.8716800000000000 In
   0.9214800000000001    0.2562700000000000    0.7958700000000001 In
   0.6288450000000000    0.5893800000000000    0.9219100000000000 In
   0.7953049999999999    0.8422200000000000    0.6291150000000000 In
   0.8329250000000000    0.3322500000000000    0.7504200000000000 In
   0.7500350000000000    0.6655500000000000    0.6673900000000000 In
   0.6668700000000000    0.4990900000000000    0.8337900000000000 In
   0.8710650000000000    0.1560100000000000    0.7053199999999999 In
   0.2500700000000000    0.0284500000000000    0.1936800000000000 H
   0.1789750000000000    0.9774800000000000    0.1713100000000000 H
   0.1375850000000000    0.2238900000000000    0.1817200000000000 H
   0.2080200000000000    0.2738300000000000    0.2057500000000000 H
   0.4829450000000000    0.1225000000000000    0.1418350000000000 H
   0.0499550000000000    0.0721500000000000    0.1177500000000000 H
   0.1058450000000000    0.1305700000000000    0.2375850000000000 H
   0.0397200000000000    0.1829300000000000    0.2606700000000000 H
   0.3324150000000000    0.2290300000000000    0.0864250000000000 H
   0.3111300000000000    0.2724600000000000    0.0166100000000000 H
   0.2964400000000000    0.5173800000000000    0.0656850000000000 H
   0.3155350000000000    0.4729900000000000    0.1356450000000000 H
   0.1940450000000000    0.5007600000000000    0.0155050000000000 H
   0.1717950000000000    0.3590900000000000    0.4895250000000000 H
   0.1818250000000000    0.2743400000000000    0.1124650000000000 H
   0.2057250000000000    0.4147500000000000    0.1379700000000000 H
   0.1407200000000000    0.9663500000000000    0.0608000000000000 H
   0.1173600000000000    0.1010500000000000    0.0357500000000000 H
   0.2375850000000000    0.2103700000000000    0.0660450000000000 H
   0.2599600000000000    0.0774300000000000    0.0920500000000000 H
   0.0863900000000000    0.6633300000000000    0.1154350000000000 H
   0.0165500000000000    0.6195000000000001    0.1365800000000000 H
   0.0650350000000000    0.5915800000000000    0.2595300000000000 H
   0.1350550000000000    0.6309200000000000    0.2379200000000000 H
   0.0144350000000000    0.3865800000000000    0.2508200000000000 H
   0.4888800000000000    0.3423900000000000    0.1797600000000000 H
   0.1121200000000000    0.3641500000000000    0.1383600000000000 H
   0.1371600000000000    0.4118800000000000    0.2087000000000000 H
   0.0607900000000000    0.2812600000000000    0.4840300000000000 H
   0.0356000000000000    0.2343600000000000    0.0512500000000000 H
   0.0657300000000000    0.4745500000000000    0.1059500000000000 H
   0.0919050000000000    0.5194400000000000    0.0395500000000000 H
   0.1143700000000000    0.1725200000000000    0.3317850000000000 H
   0.1352250000000000    0.0327500000000000    0.3098950000000000 H
   0.2583750000000000    0.1286500000000000    0.2959600000000000 H
   0.2370650000000000    0.2688400000000000    0.3156600000000000 H
   0.4855900000000000    0.4978300000000000    0.3066400000000000 H
   0.0111150000000000    0.6399700000000000    0.3287100000000000 H
   0.3878350000000000    0.7227400000000000    0.3178750000000000 H
   0.3628250000000000    0.5819400000000000    0.2940350000000000 H
   0.4393050000000000    0.0315000000000000    0.3593300000000000 H
   0.4644350000000000    0.8968900000000000    0.3827700000000000 H
   0.4341250000000000    0.7876000000000000    0.2626500000000000 H
   0.4080000000000000    0.9204599999999999    0.2402500000000000 H
   0.3853650000000000    0.3362800000000000    0.4134350000000000 H
   0.3647400000000000    0.3800200000000000    0.4833950000000000 H
   0.2414550000000000    0.4080600000000000    0.4357900000000000 H
   0.2625300000000000    0.3687000000000000    0.3656150000000000 H
   0.2498350000000000    0.6124300000000000    0.4856450000000000 H
   0.3208950000000000    0.6571800000000000    0.0111450000000000 H
   0.3623000000000000    0.6364100000000000    0.3879850000000000 H
   0.2918950000000000    0.5882500000000001    0.3629800000000000 H
   0.0169100000000000    0.7163000000000000    0.4387550000000000 H
   0.4498900000000000    0.7644600000000000    0.4639100000000000 H
   0.3940850000000000    0.5247400000000000    0.4347000000000000 H
   0.4602200000000000    0.4786100000000000    0.4085350000000000 H
   0.1676050000000000    0.8271800000000000    0.3854700000000000 H
   0.1889150000000000    0.9667700000000000    0.3637350000000000 H
   0.2036800000000000    0.8684500000000001    0.2413300000000000 H
   0.1845400000000000    0.7286000000000000    0.2635350000000000 H
   0.3064700000000000    0.9692100000000000    0.2498650000000000 H
   0.3283850000000000    0.0211400000000000    0.3208050000000000 H
   0.3181750000000000    0.7751800000000000    0.3630750000000000 H
   0.2944950000000000    0.7242499999999999    0.2927800000000000 H
   0.3589050000000000    0.8777300000000000    0.0170900000000000 H
   0.3824300000000000    0.9282600000000000    0.4499150000000000 H
   0.2623100000000000    0.8681600000000000    0.3948500000000000 H
   0.2397850000000000    0.8155800000000000    0.4611800000000000 H
   0.4136100000000000    0.7691200000000000    0.1682100000000000 H
   0.4834450000000000    0.7268100000000000    0.1902000000000000 H
   0.4349700000000000    0.4809600000000000    0.2042200000000000 H
   0.3649450000000000    0.5242300000000000    0.1845000000000000 H
   0.7500700000000000    0.0284500000000000    0.1936800000000000 H
   0.6789750000000000    0.9774800000000000    0.1713100000000000 H
   0.6375850000000001    0.2238900000000000    0.1817200000000000 H
   0.7080200000000000    0.2738300000000000    0.2057500000000000 H
   0.9829450000000000    0.1225000000000000    0.1418350000000000 H
   0.5499550000000000    0.0721500000000000    0.1177500000000000 H
   0.6058450000000000    0.1305700000000000    0.2375850000000000 H
   0.5397200000000000    0.1829300000000000    0.2606700000000000 H
   0.8324150000000000    0.2290300000000000    0.0864250000000000 H
   0.8111300000000000    0.2724600000000000    0.0166100000000000 H
   0.7964400000000000    0.5173800000000000    0.0656850000000000 H
   0.8155350000000000    0.4729900000000000    0.1356450000000000 H
   0.6940450000000000    0.5007600000000000    0.0155050000000000 H
   0.6717950000000000    0.3590900000000000    0.4895250000000000 H
   0.6818250000000000    0.2743400000000000    0.1124650000000000 H
   0.7057249999999999    0.4147500000000000    0.1379700000000000 H
   0.6407200000000000    0.9663500000000000    0.0608000000000000 H
   0.6173600000000000    0.1010500000000000    0.0357500000000000 H
   0.7375849999999999    0.2103700000000000    0.0660450000000000 H
   0.7599600000000000    0.0774300000000000    0.0920500000000000 H
   0.5863900000000000    0.6633300000000000    0.1154350000000000 H
   0.5165500000000000    0.6195000000000001    0.1365800000000000 H
   0.5650350000000000    0.5915800000000000    0.2595300000000000 H
   0.6350550000000000    0.6309200000000000    0.2379200000000000 H
   0.5144350000000000    0.3865800000000000    0.2508200000000000 H
   0.9888800000000000    0.3423900000000000    0.1797600000000000 H
   0.6121200000000000    0.3641500000000000    0.1383600000000000 H
   0.6371599999999999    0.4118800000000000    0.2087000000000000 H
   0.5607900000000000    0.2812600000000000    0.4840300000000000 H
   0.5356000000000000    0.2343600000000000    0.0512500000000000 H
   0.5657300000000000    0.4745500000000000    0.1059500000000000 H
   0.5919050000000000    0.5194400000000000    0.0395500000000000 H
   0.6143700000000000    0.1725200000000000    0.3317850000000000 H
   0.6352250000000000    0.0327500000000000    0.3098950000000000 H
   0.7583750000000000    0.1286500000000000    0.2959600000000000 H
   0.7370650000000000    0.2688400000000000    0.3156600000000000 H
   0.9855900000000000    0.4978300000000000    0.3066400000000000 H
   0.5111150000000000    0.6399700000000000    0.3287100000000000 H
   0.8878349999999999    0.7227400000000000    0.3178750000000000 H
   0.8628250000000000    0.5819400000000000    0.2940350000000000 H
   0.9393050000000001    0.0315000000000000    0.3593300000000000 H
   0.9644349999999999    0.8968900000000000    0.3827700000000000 H
   0.9341250000000000    0.7876000000000000    0.2626500000000000 H
   0.9079999999999999    0.9204599999999999    0.2402500000000000 H
   0.8853650000000000    0.3362800000000000    0.4134350000000000 H
   0.8647400000000001    0.3800200000000000    0.4833950000000000 H
   0.7414550000000000    0.4080600000000000    0.4357900000000000 H
   0.7625299999999999    0.3687000000000000    0.3656150000000000 H
   0.7498350000000000    0.6124300000000000    0.4856450000000000 H
   0.8208949999999999    0.6571800000000000    0.0111450000000000 H
   0.8623000000000001    0.6364100000000000    0.3879850000000000 H
   0.7918950000000000    0.5882500000000001    0.3629800000000000 H
   0.5169100000000000    0.7163000000000000    0.4387550000000000 H
   0.9498900000000000    0.7644600000000000    0.4639100000000000 H
   0.8940850000000000    0.5247400000000000    0.4347000000000000 H
   0.9602200000000001    0.4786100000000000    0.4085350000000000 H
   0.6676050000000000    0.8271800000000000    0.3854700000000000 H
   0.6889149999999999    0.9667700000000000    0.3637350000000000 H
   0.7036800000000000    0.8684500000000001    0.2413300000000000 H
   0.6845400000000000    0.7286000000000000    0.2635350000000000 H
   0.8064700000000000    0.9692100000000000    0.2498650000000000 H
   0.8283849999999999    0.0211400000000000    0.3208050000000000 H
   0.8181750000000000    0.7751800000000000    0.3630750000000000 H
   0.7944950000000000    0.7242499999999999    0.2927800000000000 H
   0.8589050000000000    0.8777300000000000    0.0170900000000000 H
   0.8824300000000000    0.9282600000000000    0.4499150000000000 H
   0.7623100000000000    0.8681600000000000    0.3948500000000000 H
   0.7397850000000000    0.8155800000000000    0.4611800000000000 H
   0.9136100000000000    0.7691200000000000    0.1682100000000000 H
   0.9834450000000000    0.7268100000000000    0.1902000000000000 H
   0.9349700000000001    0.4809600000000000    0.2042200000000000 H
   0.8649450000000001    0.5242300000000000    0.1845000000000000 H
   0.2500700000000000    0.0284500000000000    0.6936800000000000 H
   0.1789750000000000    0.9774800000000000    0.6713100000000000 H
   0.1375850000000000    0.2238900000000000    0.6817200000000000 H
   0.2080200000000000    0.2738300000000000    0.7057500000000000 H
   0.4829450000000000    0.1225000000000000    0.6418349999999999 H
   0.0499550000000000    0.0721500000000000    0.6177500000000000 H
   0.1058450000000000    0.1305700000000000    0.7375849999999999 H
   0.0397200000000000    0.1829300000000000    0.7606700000000000 H
   0.3324150000000000    0.2290300000000000    0.5864250000000000 H
   0.3111300000000000    0.2724600000000000    0.5166100000000000 H
   0.2964400000000000    0.5173800000000000    0.5656850000000000 H
   0.3155350000000000    0.4729900000000000    0.6356450000000000 H
   0.1940450000000000    0.5007600000000000    0.5155050000000000 H
   0.1717950000000000    0.3590900000000000    0.9895250000000000 H
   0.1818250000000000    0.2743400000000000    0.6124650000000000 H
   0.2057250000000000    0.4147500000000000    0.6379700000000000 H
   0.1407200000000000    0.9663500000000000    0.5608000000000000 H
   0.1173600000000000    0.1010500000000000    0.5357499999999999 H
   0.2375850000000000    0.2103700000000000    0.5660450000000000 H
   0.2599600000000000    0.0774300000000000    0.5920500000000000 H
   0.0863900000000000    0.6633300000000000    0.6154350000000000 H
   0.0165500000000000    0.6195000000000001    0.6365800000000000 H
   0.0650350000000000    0.5915800000000000    0.7595300000000000 H
   0.1350550000000000    0.6309200000000000    0.7379200000000000 H
   0.0144350000000000    0.3865800000000000    0.7508200000000000 H
   0.4888800000000000    0.3423900000000000    0.6797600000000000 H
   0.1121200000000000    0.3641500000000000    0.6383600000000000 H
   0.1371600000000000    0.4118800000000000    0.7087000000000000 H
   0.0607900000000000    0.2812600000000000    0.9840300000000000 H
   0.0356000000000000    0.2343600000000000    0.5512500000000000 H
   0.0657300000000000    0.4745500000000000    0.6059500000000000 H
   0.0919050000000000    0.5194400000000000    0.5395500000000000 H
   0.1143700000000000    0.1725200000000000    0.8317850000000000 H
   0.1352250000000000    0.0327500000000000    0.8098950000000000 H
   0.2583750000000000    0.1286500000000000    0.7959600000000000 H
   0.2370650000000000    0.2688400000000000    0.8156600000000001 H
   0.4855900000000000    0.4978300000000000    0.8066400000000000 H
   0.0111150000000000    0.6399700000000000    0.8287100000000001 H
   0.3878350000000000    0.7227400000000000    0.8178750000000000 H
   0.3628250000000000    0.5819400000000000    0.7940350000000000 H
   0.4393050000000000    0.0315000000000000    0.8593299999999999 H
   0.4644350000000000    0.8968900000000000    0.8827700000000001 H
   0.4341250000000000    0.7876000000000000    0.7626500000000001 H
   0.4080000000000000    0.9204599999999999    0.7402500000000000 H
   0.3853650000000000    0.3362800000000000    0.9134350000000000 H
   0.3647400000000000    0.3800200000000000    0.9833950000000000 H
   0.2414550000000000    0.4080600000000000    0.9357900000000000 H
   0.2625300000000000    0.3687000000000000    0.8656150000000000 H
   0.2498350000000000    0.6124300000000000    0.9856450000000000 H
   0.3208950000000000    0.6571800000000000    0.5111450000000000 H
   0.3623000000000000    0.6364100000000000    0.8879850000000000 H
   0.2918950000000000    0.5882500000000001    0.8629800000000001 H
   0.0169100000000000    0.7163000000000000    0.9387550000000000 H
   0.4498900000000000    0.7644600000000000    0.9639100000000000 H
   0.3940850000000000    0.5247400000000000    0.9347000000000000 H
   0.4602200000000000    0.4786100000000000    0.9085350000000000 H
   0.1676050000000000    0.8271800000000000    0.8854700000000000 H
   0.1889150000000000    0.9667700000000000    0.8637349999999999 H
   0.2036800000000000    0.8684500000000001    0.7413300000000000 H
   0.1845400000000000    0.7286000000000000    0.7635350000000001 H
   0.3064700000000000    0.9692100000000000    0.7498650000000000 H
   0.3283850000000000    0.0211400000000000    0.8208050000000000 H
   0.3181750000000000    0.7751800000000000    0.8630750000000000 H
   0.2944950000000000    0.7242499999999999    0.7927800000000000 H
   0.3589050000000000    0.8777300000000000    0.5170900000000000 H
   0.3824300000000000    0.9282600000000000    0.9499150000000001 H
   0.2623100000000000    0.8681600000000000    0.8948499999999999 H
   0.2397850000000000    0.8155800000000000    0.9611799999999999 H
   0.4136100000000000    0.7691200000000000    0.6682100000000000 H
   0.4834450000000000    0.7268100000000000    0.6902000000000000 H
   0.4349700000000000    0.4809600000000000    0.7042200000000001 H
   0.3649450000000000    0.5242300000000000    0.6845000000000000 H
   0.7500700000000000    0.0284500000000000    0.6936800000000000 H
   0.6789750000000000    0.9774800000000000    0.6713100000000000 H
   0.6375850000000001    0.2238900000000000    0.6817200000000000 H
   0.7080200000000000    0.2738300000000000    0.7057500000000000 H
   0.9829450000000000    0.1225000000000000    0.6418349999999999 H
   0.5499550000000000    0.0721500000000000    0.6177500000000000 H
   0.6058450000000000    0.1305700000000000    0.7375849999999999 H
   0.5397200000000000    0.1829300000000000    0.7606700000000000 H
   0.8324150000000000    0.2290300000000000    0.5864250000000000 H
   0.8111300000000000    0.2724600000000000    0.5166100000000000 H
   0.7964400000000000    0.5173800000000000    0.5656850000000000 H
   0.8155350000000000    0.4729900000000000    0.6356450000000000 H
   0.6940450000000000    0.5007600000000000    0.5155050000000000 H
   0.6717950000000000    0.3590900000000000    0.9895250000000000 H
   0.6818250000000000    0.2743400000000000    0.6124650000000000 H
   0.7057249999999999    0.4147500000000000    0.6379700000000000 H
   0.6407200000000000    0.9663500000000000    0.5608000000000000 H
   0.6173600000000000    0.1010500000000000    0.5357499999999999 H
   0.7375849999999999    0.2103700000000000    0.5660450000000000 H
   0.7599600000000000    0.0774300000000000    0.5920500000000000 H
   0.5863900000000000    0.6633300000000000    0.6154350000000000 H
   0.5165500000000000    0.6195000000000001    0.6365800000000000 H
   0.5650350000000000    0.5915800000000000    0.7595300000000000 H
   0.6350550000000000    0.6309200000000000    0.7379200000000000 H
   0.5144350000000000    0.3865800000000000    0.7508200000000000 H
   0.9888800000000000    0.3423900000000000    0.6797600000000000 H
   0.6121200000000000    0.3641500000000000    0.6383600000000000 H
   0.6371599999999999    0.4118800000000000    0.7087000000000000 H
   0.5607900000000000    0.2812600000000000    0.9840300000000000 H
   0.5356000000000000    0.2343600000000000    0.5512500000000000 H
   0.5657300000000000    0.4745500000000000    0.6059500000000000 H
   0.5919050000000000    0.5194400000000000    0.5395500000000000 H
   0.6143700000000000    0.1725200000000000    0.8317850000000000 H
   0.6352250000000000    0.0327500000000000    0.8098950000000000 H
   0.7583750000000000    0.1286500000000000    0.7959600000000000 H
   0.7370650000000000    0.2688400000000000    0.8156600000000001 H
   0.9855900000000000    0.4978300000000000    0.8066400000000000 H
   0.5111150000000000    0.6399700000000000    0.8287100000000001 H
   0.8878349999999999    0.7227400000000000    0.8178750000000000 H
   0.8628250000000000    0.5819400000000000    0.7940350000000000 H
   0.9393050000000001    0.0315000000000000    0.8593299999999999 H
   0.9644349999999999    0.8968900000000000    0.8827700000000001 H
   0.9341250000000000    0.7876000000000000    0.7626500000000001 H
   0.9079999999999999    0.9204599999999999    0.7402500000000000 H
   0.8853650000000000    0.3362800000000000    0.9134350000000000 H
   0.8647400000000001    0.3800200000000000    0.9833950000000000 H
   0.7414550000000000    0.4080600000000000    0.9357900000000000 H
   0.7625299999999999    0.3687000000000000    0.8656150000000000 H
   0.7498350000000000    0.6124300000000000    0.9856450000000000 H
   0.8208949999999999    0.6571800000000000    0.5111450000000000 H
   0.8623000000000001    0.6364100000000000    0.8879850000000000 H
   0.7918950000000000    0.5882500000000001    0.8629800000000001 H
   0.5169100000000000    0.7163000000000000    0.9387550000000000 H
   0.9498900000000000    0.7644600000000000    0.9639100000000000 H
   0.8940850000000000    0.5247400000000000    0.9347000000000000 H
   0.9602200000000001    0.4786100000000000    0.9085350000000000 H
   0.6676050000000000    0.8271800000000000    0.8854700000000000 H
   0.6889149999999999    0.9667700000000000    0.8637349999999999 H
   0.7036800000000000    0.8684500000000001    0.7413300000000000 H
   0.6845400000000000    0.7286000000000000    0.7635350000000001 H
   0.8064700000000000    0.9692100000000000    0.7498650000000000 H
   0.8283849999999999    0.0211400000000000    0.8208050000000000 H
   0.8181750000000000    0.7751800000000000    0.8630750000000000 H
   0.7944950000000000    0.7242499999999999    0.7927800000000000 H
   0.8589050000000000    0.8777300000000000    0.5170900000000000 H
   0.8824300000000000    0.9282600000000000    0.9499150000000001 H
   0.7623100000000000    0.8681600000000000    0.8948499999999999 H
   0.7397850000000000    0.8155800000000000    0.9611799999999999 H
   0.9136100000000000    0.7691200000000000    0.6682100000000000 H
   0.9834450000000000    0.7268100000000000    0.6902000000000000 H
   0.9349700000000001    0.4809600000000000    0.7042200000000001 H
   0.8649450000000001    0.5242300000000000    0.6845000000000000 H
   0.2749950000000000    0.1852100000000000    0.2160950000000000 C
   0.2333750000000000    0.1544100000000000    0.2014000000000000 C
   0.2253400000000000    0.0708600000000000    0.1912850000000000 C
   0.1859400000000000    0.0422300000000000    0.1788000000000000 C
   0.1545450000000000    0.0974700000000000    0.1756950000000000 C
   0.1622500000000000    0.1814200000000000    0.1846200000000000 C
   0.2014850000000000    0.2091300000000000    0.1978750000000000 C
   0.4676750000000000    0.1850200000000000    0.2172000000000000 C
   0.0073350000000000    0.1560400000000000    0.2026550000000000 C
   0.0101250000000000    0.1243800000000000    0.1623800000000000 C
   0.0470700000000000    0.0964700000000000    0.1489600000000000 C
   0.0813850000000000    0.0991600000000000    0.1761000000000000 C
   0.0790650000000000    0.1296200000000000    0.2165600000000000 C
   0.0421500000000000    0.1585200000000000    0.2294350000000000 C
   0.3369350000000000    0.3194900000000000    0.1571800000000000 C
   0.3256650000000000    0.3478800000000000    0.1155900000000000 C
   0.3244950000000000    0.2921200000000000    0.0816400000000000 C
   0.3128200000000000    0.3163200000000000    0.0426650000000000 C
   0.3029050000000000    0.3979100000000000    0.0373300000000000 C
   0.2709650000000000    0.8403800000000000    0.4585350000000000 C
   0.3430950000000000    0.6776300000000000    0.1631200000000000 C
   0.3847200000000000    0.6497500000000000    0.1746550000000000 C
   0.4185300000000000    0.7060800000000000    0.1761600000000000 C
   0.3043750000000000    0.4544100000000000    0.0707100000000000 C
   0.3152500000000000    0.4292300000000000    0.1096550000000000 C
   0.2160450000000000    0.5496000000000000    0.0940500000000000 C
   0.2015650000000000    0.4664700000000000    0.0784250000000000 C
   0.1916100000000000    0.4510000000000000    0.0365600000000000 C
   0.1791850000000000    0.3724500000000000    0.0219500000000000 C
   0.1759550000000000    0.3092000000000000    0.0493400000000000 C
   0.1847800000000000    0.3239700000000000    0.0913850000000000 C
   0.1979750000000000    0.4022200000000000    0.1055450000000000 C
   0.2159500000000000    0.9340700000000000    0.0926100000000000 C
   0.2017150000000000    0.0137900000000000    0.0781450000000000 C
   0.1615300000000000    0.0203000000000000    0.0620400000000000 C
   0.1484950000000000    0.0946000000000000    0.0481400000000000 C
   0.1759300000000000    0.1627700000000000    0.0498150000000000 C
   0.2163050000000000    0.1572000000000000    0.0653200000000000 C
   0.2287900000000000    0.0829600000000000    0.0796950000000000 C
   0.1569150000000000    0.6734500000000000    0.1610000000000000 C
   0.1152800000000000    0.6505000000000000    0.1751450000000000 C
   0.0814700000000000    0.6474900000000000    0.1469600000000000 C
   0.0424900000000000    0.6234400000000000    0.1587300000000000 C
   0.0369850000000000    0.6036300000000000    0.1995050000000000 C
   0.0701900000000000    0.6073700000000000    0.2280600000000000 C
   0.1091750000000000    0.6297800000000000    0.2158000000000000 C
   0.0928350000000000    0.4310500000000000    0.2758750000000000 C
   0.0774500000000000    0.4024900000000000    0.2341450000000000 C
   0.0356350000000000    0.3821900000000000    0.2260950000000000 C
   0.0212850000000000    0.3575000000000000    0.1867000000000000 C
   0.0488900000000000    0.3515100000000000    0.1553400000000000 C
   0.0908850000000000    0.3696700000000000    0.1630150000000000 C
   0.1047850000000000    0.3959900000000000    0.2022000000000000 C
   0.0926000000000000    0.4315900000000000    0.4680500000000000 C
   0.0780550000000000    0.4030500000000000    0.0077950000000000 C
   0.0619500000000000    0.3227300000000000    0.0109900000000000 C
   0.0479900000000000    0.2965900000000000    0.0480850000000000 C
   0.0496100000000000    0.3513700000000000    0.0821350000000000 C
   0.0650900000000000    0.4321000000000000    0.0793500000000000 C
   0.0795300000000000    0.4571300000000000    0.0423350000000000 C
   0.1604750000000000    0.3130400000000000    0.3369800000000000 C
   0.1742100000000000    0.2297600000000000    0.3254000000000000 C
   0.1458750000000000    0.1624200000000000    0.3238850000000000 C
   0.1574800000000000    0.0844300000000000    0.3118800000000000 C
   0.1982300000000000    0.0731300000000000    0.3019850000000000 C
   0.2269350000000000    0.1392600000000000    0.3038500000000000 C
   0.2148450000000000    0.2172700000000000    0.3150550000000000 C
   0.4071650000000000    0.4477300000000000    0.2844500000000000 C
   0.4225600000000000    0.5311700000000000    0.2987200000000000 C
   0.4643750000000000    0.5472600000000000    0.3088500000000000 C
   0.4787100000000000    0.6260200000000000    0.3211800000000000 C
   0.4510800000000000    0.6887700000000000    0.3241850000000000 C
   0.4090800000000000    0.6734300000000000    0.3151200000000000 C
   0.3952000000000000    0.5949800000000000    0.3019750000000000 C
   0.4074350000000000    0.0635800000000000    0.2841900000000000 C
   0.4219500000000000    0.9839900000000000    0.2984400000000000 C
   0.4380900000000000    0.9775500000000000    0.3385950000000000 C
   0.4520300000000000    0.9033099999999999    0.3516600000000000 C
   0.4503500000000000    0.8352000000000001    0.3242700000000000 C
   0.4348250000000000    0.8407300000000000    0.2839200000000000 C
   0.4204100000000000    0.9149000000000000    0.2714100000000000 C
   0.3390850000000000    0.3260400000000000    0.3433000000000000 C
   0.3254400000000000    0.3491500000000000    0.3849750000000000 C
   0.3538750000000000    0.3521000000000000    0.4185750000000000 C
   0.3424000000000000    0.3760800000000000    0.4576200000000000 C
   0.3016750000000000    0.3959200000000000    0.4633800000000000 C
   0.2728700000000000    0.3922400000000000    0.4303950000000000 C
   0.2848300000000000    0.3698500000000000    0.3913400000000000 C
   0.2249050000000000    0.5675400000000000    0.4072850000000000 C
   0.2665300000000000    0.5969500000000000    0.4226750000000000 C
   0.2745600000000000    0.6172100000000000    0.4640000000000000 C
   0.3139450000000000    0.6422099999999999    0.4787800000000000 C
   0.3453350000000000    0.6484700000000000    0.4511850000000000 C
   0.3376400000000000    0.6305900000000000    0.4092100000000000 C
   0.2984200000000000    0.6040200000000000    0.3953300000000000 C
   0.0322300000000000    0.5655600000000000    0.4074850000000000 C
   0.4925600000000000    0.5946600000000000    0.4219800000000000 C
   0.4897450000000000    0.6752100000000000    0.4378000000000000 C
   0.4527950000000000    0.7020400000000000    0.4517550000000000 C
   0.4185000000000000    0.6477300000000000    0.4504000000000000 C
   0.4208500000000000    0.5668100000000000    0.4351500000000000 C
   0.4577700000000000    0.5410800000000000    0.4207350000000000 C
   0.1630600000000000    0.6856400000000000    0.3402500000000000 C
   0.1743800000000000    0.7687900000000000    0.3260700000000000 C
   0.1755500000000000    0.8367100000000000    0.3539300000000000 C
   0.1872350000000000    0.9146300000000001    0.3418250000000000 C
   0.1971650000000000    0.9252500000000000    0.3010350000000000 C
   0.1957300000000000    0.8584600000000000    0.2728100000000000 C
   0.1848300000000000    0.7806000000000000    0.2854000000000000 C
   0.2846050000000000    0.8121200000000000    0.2252900000000000 C
   0.2988300000000000    0.8433700000000000    0.2669600000000000 C
   0.3087650000000000    0.9270900000000000    0.2747500000000000 C