H4 C10 S2 O4
1.0
  19.0675238598367542    0.0000000000000000   -4.5245931148066978
  -4.0937048844298971   13.2905001675936383   -3.1319659344233415
   0.0000000000000000    0.0000000000000000   14.2609999999999992
H C S O
4 10 2 4
direct
   0.0331900000000000    0.5457700000000000    0.2710400000000000 H
   0.0124900000000000    0.3523900000000000    0.2574300000000000 H
   0.7326900000000000    0.0005200000000000    0.0767400000000000 H
   0.7603100000000000    0.1867600000000000    0.0649000000000000 H
   0.9028000000000000    0.6107100000000000    0.2128900000000000 C
   0.9149600000000000    0.5126800000000000    0.2152800000000000 C
   0.9798700000000000    0.4893100000000000    0.2455600000000000 C
   0.9685900000000000    0.3863500000000000    0.2387700000000000 C
   0.8946300000000000    0.3307600000000000    0.2029300000000000 C
   0.8618700000000000    0.2246300000000000    0.1870100000000000 C
   0.8361000000000000    0.0470600000000000    0.1948700000000000 C
   0.7807600000000000    0.0618200000000000    0.1245400000000000 C
   0.7954100000000000    0.1616300000000000    0.1189500000000000 C
   0.8449200000000000    0.9509300000000001    0.2103800000000000 C
   0.8396300000000000    0.4074900000000000    0.1786000000000000 S
   0.9053600000000001    0.1587700000000000    0.2579000000000000 S
   0.9586600000000000    0.6872200000000001    0.2386900000000000 O
   0.9062700000000000    0.9547300000000000    0.2691000000000000 O
   0.7910199999999999    0.8719300000000000    0.1626000000000000 O
   0.8354900000000000    0.6095400000000000    0.1848300000000000 O
