H6 O4
1.0
  19.0675238598367542    0.0000000000000000   -4.5245931148066978
  -4.0937048844298971   13.2905001675936383   -3.1319659344233415
   0.0000000000000000    0.0000000000000000   14.2609999999999992
H O
6 4
direct
   0.7936420421108691    0.5497866325189831    0.1628950282385077 H
   1.0093528331806698    0.6865781213011917    0.2573030032515545 H
   0.9036527618655882    0.6086769149809099    0.2098574768371580 H
   0.9451958742976871    1.0154330510500280    0.3098627422137368 H
   0.7427558002175241    0.8686152896280590    0.1225907224345698 H
   0.8412521662551679    0.9502646760363489    0.2152025652818450 H
   0.8354900000000000    0.6095400000000000    0.1848300000000000 O
   0.9586600000000000    0.6872200000000001    0.2386900000000000 O
   0.9062700000000000    0.9547300000000000    0.2691000000000000 O
   0.7910199999999999    0.8719300000000000    0.1626000000000000 O
