H8 C10 N2
1.0
  19.0675238598367542    0.0000000000000000   -4.5245931148066978
  -4.0937048844298971   13.2905001675936383   -3.1319659344233415
   0.0000000000000000    0.0000000000000000   14.2609999999999992
H C N
8 10 2
direct
   0.5370000000000000    0.9145300000000000    0.4904000000000000 H
   0.6652700000000000    0.9837700000000000    0.5961800000000000 H
   0.7285400000000000    0.9625899999999999    0.3217300000000000 H
   0.5967300000000000    0.8980000000000000    0.2283100000000000 H
   0.9629400000000000    0.0870700000000000    0.5096900000000000 H
   0.8346400000000000    0.0181000000000000    0.4038900000000000 H
   0.7715100000000000    0.0349900000000000    0.6781100000000000 H
   0.9033200000000000    0.1001500000000000    0.7715500000000000 H
   0.5813900000000000    0.9270200000000000    0.4564000000000000 C
   0.6542200000000000    0.9651800000000000    0.5150300000000000 C
   0.7107400000000000    0.9797500000000000    0.4696500000000000 C
   0.6889600000000000    0.9545700000000000    0.3639200000000000 C
   0.6149700000000000    0.9174300000000000    0.3101000000000000 C
   0.9185700000000000    0.0738100000000000    0.5436100000000000 C
   0.8457300000000000    0.0356700000000000    0.4850000000000000 C
   0.7892500000000000    0.0200000000000000    0.5303200000000000 C
   0.8110700000000000    0.0441100000000000    0.6359800000000000 C
   0.8850600000000000    0.0814400000000000    0.6897400000000000 C
   0.5613300000000000    0.9030400000000000    0.3549500000000000 N
   0.9386500000000000    0.0968700000000000    0.6450300000000000 N
