Zn8 H66 C110 S14 N8 O32
1.0
  19.0675238598367542    0.0000000000000000   -4.5245931148066978
  -4.0937048844298971   13.2905001675936383   -3.1319659344233415
   0.0000000000000000    0.0000000000000000   14.2609999999999992
Zn H C S N O
8 66 110 14 8 32
direct
   0.0474900000000000    0.1650500000000000    0.7286700000000000 Zn
   0.4524800000000000    0.8349400000000000    0.2713300000000000 Zn
   0.7025300000000000    0.2712800000000000    0.8350000000000000 Zn
   0.2974400000000000    0.7287200000000000    0.1649800000000000 Zn
   0.5475000000000000    0.1650500000000000    0.7286700000000000 Zn
   0.9524899999999999    0.8349500000000000    0.2713300000000000 Zn
   0.2025300000000000    0.2712700000000000    0.8350200000000000 Zn
   0.7974400000000000    0.7287200000000000    0.1649800000000000 Zn
   0.9827000000000000    0.0768500000000000    0.0001600000000000 H
   0.0101200000000000    0.0650400000000000    0.1864000000000000 H
   0.2830100000000000    0.2707900000000000    0.5461300000000000 H
   0.2623600000000000    0.2570700000000000    0.3527700000000000 H
   0.7715100000000000    0.0349900000000000    0.6781100000000000 H
   0.8346400000000000    0.0181000000000000    0.4038900000000000 H
   0.9629400000000000    0.0870700000000000    0.5096900000000000 H
   0.9033200000000000    0.1001500000000000    0.7715500000000000 H
   0.7285400000000000    0.9625899999999999    0.3217300000000000 H
   0.6652700000000000    0.9837700000000000    0.5961800000000000 H
   0.5967300000000000    0.8980000000000000    0.2283100000000000 H
   0.5370000000000000    0.9145300000000000    0.4904000000000000 H
   0.5172900000000000    0.9231400000000000    0.9998800000000000 H
   0.4898900000000000    0.9349499999999999    0.8136000000000000 H
   0.2169800000000000    0.7292400000000000    0.4539000000000000 H
   0.2376500000000000    0.7429100000000000    0.6472599999999999 H
   0.7673000000000000    0.9995200000000000    0.9232000000000000 H
   0.7397100000000000    0.8132700000000000    0.9351000000000000 H
   0.4667900000000000    0.4542700000000000    0.7289900000000000 H
   0.4875200000000000    0.6476499999999999    0.7425500000000000 H
   0.0212800000000000    0.6781100000000000    0.0352500000000000 H
   0.0848500000000000    0.4038500000000000    0.0177200000000000 H
   0.2130800000000000    0.5096100000000000    0.0865300000000000 H
   0.1530400000000000    0.7715000000000000    0.1001600000000000 H
   0.9787500000000000    0.3217500000000000    0.9627100000000000 H
   0.9150700000000001    0.5962000000000000    0.9838700000000000 H
   0.7868600000000000    0.4904700000000000    0.9148300000000000 H
   0.8469900000000000    0.2283900000000000    0.8982700000000000 H
   0.2326900000000000    0.0005100000000000    0.0767300000000000 H
   0.2603100000000000    0.1867600000000000    0.0649000000000000 H
   0.5332000000000000    0.5457600000000000    0.2710400000000000 H
   0.5125000000000000    0.3523800000000000    0.2574400000000000 H
   0.4827100000000000    0.0768400000000000    0.0001500000000000 H
   0.5101300000000000    0.0650400000000000    0.1863900000000000 H
   0.7830200000000000    0.2707800000000000    0.5461300000000000 H
   0.7623700000000000    0.2570600000000000    0.3527700000000000 H
   0.2715000000000000    0.0353500000000000    0.6781400000000000 H
   0.3346500000000000    0.0178300000000000    0.4038800000000000 H
   0.4629400000000000    0.0868500000000000    0.5096800000000000 H
   0.4033100000000000    0.1004200000000000    0.7715800000000000 H
   0.2285300000000000    0.9629200000000000    0.3217500000000000 H
   0.1652700000000000    0.9835199999999999    0.5961700000000000 H
   0.0370000000000000    0.9143200000000000    0.4903900000000000 H
   0.0967100000000000    0.8982400000000000    0.2283300000000000 H
   0.0172900000000000    0.9231500000000000    0.9998700000000000 H
   0.9899000000000000    0.9349400000000000    0.8136300000000000 H
   0.7169800000000000    0.7292400000000000    0.4539000000000000 H
   0.7376500000000000    0.7429000000000000    0.6472500000000000 H
   0.2673000000000000    0.9995100000000000    0.9232600000000000 H
   0.2397200000000000    0.8132600000000000    0.9350900000000000 H
   0.9668000000000000    0.4542700000000000    0.7289900000000000 H
   0.9875300000000000    0.6476400000000000    0.7425500000000000 H
   0.9451958742976871    1.0154330510500280    0.3098627422137368 H
   0.7427558002175241    0.8686152896280590    0.1225907224345698 H
   0.8412521662551679    0.9502646760363489    0.2152025652818450 H
   0.7936420421108691    0.5497866325189831    0.1628950282385077 H
   1.0093528331806698    0.6865781213011917    0.2573030032515545 H
   0.9036527618655882    0.6086769149809099    0.2098574768371580 H
   0.4787400000000000    0.3217600000000000    0.9628600000000000 H
   0.4150700000000000    0.5962000000000000    0.9837500000000000 H
   0.2868600000000000    0.4904600000000000    0.9147300000000000 H
   0.3469800000000000    0.2284000000000000    0.8980000000000000 H
   0.5212800000000000    0.6781199999999999    0.0353400000000000 H
   0.5848600000000000    0.4038500000000000    0.0176500000000000 H
   0.7130900000000000    0.5096100000000000    0.0864800000000000 H
   0.6530400000000000    0.7715100000000000    0.1002100000000000 H
   0.0950200000000000    0.2100500000000000    0.9508799999999999 C
   0.1526700000000000    0.2129400000000000    0.6107200000000000 C
   0.0307400000000000    0.1245400000000000    0.0615800000000000 C
   0.0861700000000000    0.1946200000000000    0.0469600000000000 C
   0.0453000000000000    0.1189600000000000    0.1610000000000000 C
   0.1117800000000000    0.1868300000000000    0.2245500000000000 C
   0.2297000000000000    0.2453100000000000    0.4895100000000000 C
   0.1647900000000000    0.2151700000000000    0.5127200000000000 C
   0.2184300000000000    0.2384900000000000    0.3865700000000000 C
   0.1444900000000000    0.2027300000000000    0.3307600000000000 C
   0.8110700000000000    0.0441100000000000    0.6359800000000000 C
   0.8457300000000000    0.0356700000000000    0.4850000000000000 C
   0.9185700000000000    0.0738100000000000    0.5436100000000000 C
   0.8850600000000000    0.0814400000000000    0.6897400000000000 C
   0.7892500000000000    0.0200000000000000    0.5303200000000000 C
   0.6889600000000000    0.9545700000000000    0.3639200000000000 C
   0.6542200000000000    0.9651800000000000    0.5150300000000000 C
   0.6149700000000000    0.9174300000000000    0.3101000000000000 C
   0.5813900000000000    0.9270200000000000    0.4564000000000000 C
   0.7107400000000000    0.9797500000000000    0.4696500000000000 C
   0.4049500000000000    0.7899400000000000    0.0491300000000000 C
   0.3473100000000000    0.7870900000000000    0.3892900000000000 C
   0.4692600000000000    0.8754400000000000    0.9384400000000001 C
   0.4138200000000000    0.8053500000000000    0.9530500000000000 C
   0.4547100000000000    0.8810300000000000    0.8386300000000000 C
   0.3882300000000000    0.8131600000000000    0.7754600000000000 C
   0.2702900000000000    0.7547199999999999    0.5105200000000000 C
   0.3351900000000000    0.7848900000000000    0.4873000000000000 C
   0.2815700000000000    0.7615100000000000    0.6134600000000000 C
   0.3555200000000000    0.7972800000000000    0.6692600000000000 C
   0.6550600000000000    0.0490900000000000    0.7896300000000001 C
   0.5971800000000000    0.3893000000000000    0.7871400000000000 C
   0.7192499999999999    0.9382000000000000    0.8754600000000000 C
   0.6639000000000000    0.9529500000000000    0.8051199999999999 C
   0.7046000000000000    0.8383900000000000    0.8810600000000000 C
   0.6381500000000000    0.7753900000000000    0.8129900000000000 C
   0.5201200000000000    0.5107300000000000    0.7544800000000000 C
   0.5850300000000000    0.4873400000000000    0.7848000000000001 C
   0.5314200000000000    0.6136800000000000    0.7612400000000000 C
   0.6053800000000000    0.6692600000000000    0.7970000000000000 C
   0.0609300000000000    0.6359500000000000    0.0441600000000000 C
   0.0958300000000000    0.4849600000000000    0.0353800000000000 C
   0.1686300000000000    0.5435700000000000    0.0734500000000000 C
   0.1348900000000000    0.6896900000000000    0.0813800000000000 C
   0.0392300000000000    0.5303000000000000    0.0199700000000000 C
   0.9390900000000000    0.3639600000000000    0.9547400000000000 C
   0.9041300000000000    0.5150600000000000    0.9653400000000000 C
   0.8313199999999999    0.4564600000000000    0.9272500000000000 C
   0.8651200000000000    0.3102400000000000    0.9176600000000000 C
   0.9607599999999999    0.4696700000000000    0.9798200000000000 C
   0.3449200000000000    0.9509200000000000    0.2103000000000000 C
   0.4028000000000000    0.6107100000000000    0.2129000000000000 C
   0.2807500000000000    0.0618200000000000    0.1245300000000000 C
   0.3360900000000000    0.0470600000000000    0.1948600000000000 C
   0.2954100000000000    0.1616300000000000    0.1189400000000000 C
   0.3618700000000000    0.2246200000000000    0.1870100000000000 C
   0.4798700000000000    0.4893000000000000    0.2455500000000000 C
   0.4149600000000000    0.5126800000000000    0.2152700000000000 C
   0.4685900000000000    0.3863500000000000    0.2387700000000000 C
   0.3946300000000000    0.3307600000000000    0.2029000000000000 C
   0.5950400000000000    0.2100600000000000    0.9508799999999999 C
   0.6526700000000000    0.2129500000000000    0.6107200000000000 C
   0.5307500000000001    0.1245500000000000    0.0615700000000000 C
   0.5861800000000000    0.1946300000000000    0.0469600000000000 C
   0.5453100000000000    0.1189600000000000    0.1613900000000000 C
   0.6117800000000000    0.1868400000000000    0.2245500000000000 C
   0.7297100000000000    0.2453200000000000    0.4895100000000000 C
   0.6647999999999999    0.2151900000000000    0.5127200000000000 C
   0.7184400000000000    0.2384900000000000    0.3865600000000000 C
   0.6444900000000000    0.2027400000000000    0.3307000000000000 C
   0.3110600000000000    0.0443200000000000    0.6360000000000000 C
   0.3457300000000000    0.0355600000000000    0.4850000000000000 C
   0.4185700000000000    0.0736900000000000    0.5436100000000000 C
   0.3850500000000000    0.0816100000000000    0.6897500000000000 C
   0.2892400000000000    0.0200300000000000    0.5303200000000000 C
   0.1889500000000000    0.9547500000000000    0.3639400000000000 C
   0.1542200000000000    0.9650600000000000    0.5150300000000000 C
   0.0813900000000000    0.9269100000000000    0.4564000000000000 C
   0.1149600000000000    0.9175800000000000    0.3101900000000000 C
   0.2107400000000000    0.9797900000000000    0.4696600000000000 C
   0.9049600000000000    0.7899500000000000    0.0491300000000000 C
   0.8473100000000000    0.7871100000000000    0.3892900000000000 C
   0.9692700000000000    0.8754400000000000    0.9384400000000001 C
   0.9138300000000000    0.8053600000000000    0.9530500000000000 C
   0.9547099999999999    0.8810400000000000    0.8386300000000000 C
   0.8882400000000000    0.8131699999999999    0.7754600000000000 C
   0.7702900000000000    0.7547100000000000    0.5105100000000000 C
   0.8351900000000000    0.7849100000000000    0.4873000000000000 C
   0.7815800000000001    0.7615200000000000    0.6134600000000000 C
   0.8555300000000000    0.7972900000000001    0.6692600000000000 C
   0.1550700000000000    0.0490800000000000    0.7896200000000000 C
   0.0971800000000000    0.3893000000000000    0.7871500000000000 C
   0.2192500000000000    0.9381900000000000    0.8754500000000000 C
   0.1639000000000000    0.9529400000000000    0.8051199999999999 C
   0.2046000000000000    0.8383800000000000    0.8810500000000000 C
   0.1381400000000000    0.7753800000000000    0.8129900000000000 C
   0.0201200000000000    0.5107200000000000    0.7544800000000000 C
   0.0850300000000000    0.4873300000000000    0.7848000000000001 C
   0.0314200000000000    0.6136700000000000    0.7612400000000000 C
   0.1053800000000000    0.6692500000000000    0.7970900000000000 C
   0.4390800000000000    0.3639700000000000    0.9548100000000000 C
   0.4041200000000000    0.5150500000000000    0.9652800000000000 C
   0.3313200000000000    0.4564500000000000    0.9272100000000000 C
   0.3651200000000000    0.3102400000000000    0.9177400000000000 C
   0.4607500000000000    0.4696800000000000    0.9798500000000000 C
   0.5609300000000000    0.6359600000000000    0.0442100000000000 C
   0.5958400000000000    0.4849700000000000    0.0353600000000000 C
   0.6686400000000000    0.5435700000000000    0.0734200000000000 C
   0.6348900000000000    0.6896900000000000    0.0814100000000000 C
   0.5392300000000000    0.5303000000000000    0.0199700000000000 C
   0.0894900000000000    0.1785000000000000    0.4073200000000000 S
   0.1553900000000000    0.2575500000000000    0.1588500000000000 S
   0.4105100000000000    0.8215500000000000    0.5926800000000000 S
   0.3446200000000000    0.7424100000000000    0.8411500000000000 S
   0.6603700000000000    0.5925200000000000    0.8214000000000000 S
   0.5946600000000000    0.8412200000000000    0.7420500000000000 S
   0.3396300000000000    0.4074900000000000    0.1785900000000000 S
   0.4053500000000000    0.1587700000000000    0.2579300000000000 S
   0.5894900000000000    0.1785200000000000    0.4073200000000000 S
   0.6553900000000000    0.2575700000000000    0.1588500000000000 S
   0.9105100000000000    0.8215600000000000    0.5926000000000000 S
   0.8446200000000000    0.7424200000000000    0.8411500000000000 S
   0.1603700000000000    0.5925100000000000    0.8214700000000000 S
   0.0946500000000000    0.8412200000000000    0.7420600000000001 S
   0.9386500000000000    0.0968700000000000    0.6450300000000000 N
   0.5613300000000000    0.9030400000000000    0.3549500000000000 N
   0.1886100000000000    0.6449900000000000    0.0966200000000000 N
   0.8113700000000000    0.3550000000000000    0.9033099999999999 N
   0.4386500000000000    0.0968900000000000    0.6450300000000000 N
   0.0613300000000000    0.9030500000000000    0.3549500000000000 N
   0.3113700000000000    0.3549900000000000    0.9033200000000000 N
   0.6886100000000001    0.6449900000000000    0.0966200000000000 N
   0.0411200000000000    0.1623200000000000    0.8717900000000000 O
   0.1563500000000000    0.2686400000000000    0.9547800000000000 O
   0.2085900000000000    0.2387100000000000    0.6872800000000000 O
   0.0853900000000000    0.1850100000000000    0.6094900000000000 O
   0.4588500000000000    0.8376900000000000    0.1282200000000000 O
   0.3436300000000000    0.7313100000000000    0.0452200000000000 O
   0.2913900000000000    0.7612900000000000    0.3127200000000000 O
   0.4145900000000000    0.8150100000000000    0.3905200000000000 O
   0.7089500000000000    0.1280900000000000    0.8374600000000000 O
   0.5937400000000000    0.0452700000000000    0.7308300000000000 O
   0.5413200000000000    0.3127800000000000    0.7613000000000000 O
   0.6644900000000000    0.3904600000000000    0.8151900000000000 O
   0.2910200000000000    0.8719200000000000    0.1625700000000000 O
   0.4062600000000000    0.9547200000000000    0.2691200000000000 O
   0.4586600000000000    0.6872200000000001    0.2386800000000000 O
   0.3354900000000000    0.6095400000000000    0.1848300000000000 O
   0.6563500000000000    0.2686900000000000    0.9547800000000000 O
   0.5411400000000000    0.1623000000000000    0.8717800000000000 O
   0.7085900000000001    0.2387100000000000    0.6872800000000000 O
   0.5853900000000000    0.1850200000000000    0.6094800000000000 O
   0.8436399999999999    0.7313400000000000    0.0452200000000000 O
   0.9588600000000000    0.8376900000000000    0.1282200000000000 O
   0.7913900000000000    0.7612800000000000    0.3127200000000000 O
   0.9145900000000000    0.8150100000000000    0.3905200000000000 O
   0.2089600000000000    0.1280800000000000    0.8374000000000000 O
   0.0937200000000000    0.0452700000000000    0.7308800000000000 O
   0.0413200000000000    0.3127800000000000    0.7613200000000000 O
   0.1644900000000000    0.3904600000000000    0.8152000000000000 O
   0.9062700000000000    0.9547300000000000    0.2691000000000000 O
   0.7910199999999999    0.8719300000000000    0.1626000000000000 O
   0.8354900000000000    0.6095400000000000    0.1848300000000000 O
   0.9586600000000000    0.6872200000000001    0.2386900000000000 O
