H4 O2
1.0
  19.0675238598367542    0.0000000000000000   -4.5245931148066978
  -4.0937048844298971   13.2905001675936383   -3.1319659344233415
   0.0000000000000000    0.0000000000000000   14.2609999999999992
H O
4 2
direct
   0.5758680938443951    0.9204190374072081    0.4284739092978008 H
   0.6001778770410654    0.9134617179459532    0.3224681341295342 H
   0.9241005667341771    0.0801613380921376    0.5715437688336771 H
   0.8998104527982190    0.0856870514401291    0.6774337349391981 H
   0.5613300000000000    0.9030400000000000    0.3549500000000000 O
   0.9386500000000000    0.0968700000000000    0.6450300000000000 O
