In12 H92 C184 O92
1.0
  25.0259953306948724    0.0000000000000000   -0.0152875125003690
  -0.0166302077561007   12.7844232548511361   -7.3927038001675323
   0.0000000000000000    0.0000000000000000   29.5159999999999982
In H C O
12 92 184 92
direct
   0.2498200000000000    0.5002200000000000    0.2497400000000000 In
   0.4166450000000000    0.0004100000000000    0.2502100000000000 In
   0.0833250000000000    0.4994600000000000    0.4998550000000000 In
   0.7498199999999999    0.5002200000000000    0.2497400000000000 In
   0.9166449999999999    0.0004100000000000    0.2502100000000000 In
   0.5833250000000000    0.4994600000000000    0.4998550000000000 In
   0.2498200000000000    0.5002200000000000    0.7497400000000000 In
   0.4166450000000000    0.0004100000000000    0.7502100000000000 In
   0.0833250000000000    0.4994600000000000    0.9998549999999999 In
   0.7498199999999999    0.5002200000000000    0.7497400000000000 In
   0.9166449999999999    0.0004100000000000    0.7502100000000000 In
   0.5833250000000000    0.4994600000000000    0.9998549999999999 In
   0.4565400000000000    0.6595100000000000    0.4412750000000000 H
   0.4541250000000000    0.3222000000000000    0.3574900000000000 H
   0.1227450000000000    0.2221900000000000    0.1698550000000000 H
   0.1222300000000000    0.3928600000000000    0.3386700000000000 H
   0.2899450000000000    0.1157300000000000    0.3905400000000000 H
   0.2884800000000000    0.2820900000000000    0.3051400000000000 H
   0.4563600000000000    0.3401700000000000    0.0588750000000000 H
   0.4544300000000000    0.6774500000000000    0.1418500000000000 H
   0.1225850000000000    0.7774799999999999    0.3301450000000000 H
   0.1215650000000000    0.6077100000000000    0.1613200000000000 H
   0.2899500000000000    0.8840100000000000    0.1096500000000000 H
   0.2884850000000000    0.7176800000000000    0.1951150000000000 H
   0.2100000000000000    0.7799000000000000    0.0576900000000000 H
   0.2114650000000000    0.6099700000000000    0.1412950000000000 H
   0.0434700000000000    0.8826700000000000    0.3300450000000000 H
   0.0453550000000000    0.7165100000000000    0.1612850000000000 H
   0.3769650000000000    0.3400600000000000    0.1112150000000000 H
   0.3779100000000000    0.6774400000000000    0.1959700000000000 H
   0.2099400000000000    0.2193000000000000    0.4422950000000000 H
   0.2114500000000000    0.3893200000000000    0.3587000000000000 H
   0.0433750000000000    0.1175900000000000    0.1701800000000000 H
   0.0457150000000000    0.2847700000000000    0.3389450000000000 H
   0.3772650000000000    0.6603400000000000    0.3889000000000000 H
   0.3776600000000000    0.3229400000000000    0.3034300000000000 H
   0.9565399999999999    0.6595100000000000    0.4412750000000000 H
   0.9541250000000000    0.3222000000000000    0.3574900000000000 H
   0.6227450000000000    0.2221900000000000    0.1698550000000000 H
   0.6222300000000001    0.3928600000000000    0.3386700000000000 H
   0.7899450000000000    0.1157300000000000    0.3905400000000000 H
   0.7884800000000001    0.2820900000000000    0.3051400000000000 H
   0.9563600000000000    0.3401700000000000    0.0588750000000000 H
   0.9544300000000000    0.6774500000000000    0.1418500000000000 H
   0.6225849999999999    0.7774799999999999    0.3301450000000000 H
   0.6215650000000000    0.6077100000000000    0.1613200000000000 H
   0.7899499999999999    0.8840100000000000    0.1096500000000000 H
   0.7884850000000000    0.7176800000000000    0.1951150000000000 H
   0.7100000000000000    0.7799000000000000    0.0576900000000000 H
   0.7114650000000000    0.6099700000000000    0.1412950000000000 H
   0.5434700000000000    0.8826700000000000    0.3300450000000000 H
   0.5453550000000000    0.7165100000000000    0.1612850000000000 H
   0.8769650000000000    0.3400600000000000    0.1112150000000000 H
   0.8779100000000000    0.6774400000000000    0.1959700000000000 H
   0.7099400000000000    0.2193000000000000    0.4422950000000000 H
   0.7114500000000000    0.3893200000000000    0.3587000000000000 H
   0.5433749999999999    0.1175900000000000    0.1701800000000000 H
   0.5457150000000000    0.2847700000000000    0.3389450000000000 H
   0.8772650000000000    0.6603400000000000    0.3889000000000000 H
   0.8776600000000000    0.3229400000000000    0.3034300000000000 H
   0.4565400000000000    0.6595100000000000    0.9412750000000000 H
   0.4541250000000000    0.3222000000000000    0.8574900000000000 H
   0.1227450000000000    0.2221900000000000    0.6698550000000000 H
   0.1222300000000000    0.3928600000000000    0.8386700000000000 H
   0.2899450000000000    0.1157300000000000    0.8905400000000000 H
   0.2884800000000000    0.2820900000000000    0.8051400000000000 H
   0.4563600000000000    0.3401700000000000    0.5588750000000000 H
   0.4544300000000000    0.6774500000000000    0.6418500000000000 H
   0.1225850000000000    0.7774799999999999    0.8301450000000000 H
   0.1215650000000000    0.6077100000000000    0.6613200000000000 H
   0.2899500000000000    0.8840100000000000    0.6096500000000000 H
   0.2884850000000000    0.7176800000000000    0.6951150000000000 H
   0.2100000000000000    0.7799000000000000    0.5576900000000000 H
   0.2114650000000000    0.6099700000000000    0.6412949999999999 H
   0.0434700000000000    0.8826700000000000    0.8300449999999999 H
   0.0453550000000000    0.7165100000000000    0.6612850000000000 H
   0.3769650000000000    0.3400600000000000    0.6112150000000000 H
   0.3779100000000000    0.6774400000000000    0.6959700000000000 H
   0.2099400000000000    0.2193000000000000    0.9422950000000000 H
   0.2114500000000000    0.3893200000000000    0.8587000000000000 H
   0.0433750000000000    0.1175900000000000    0.6701800000000000 H
   0.0457150000000000    0.2847700000000000    0.8389450000000001 H
   0.3772650000000000    0.6603400000000000    0.8889000000000000 H
   0.3776600000000000    0.3229400000000000    0.8034300000000000 H
   0.9565399999999999    0.6595100000000000    0.9412750000000000 H
   0.9541250000000000    0.3222000000000000    0.8574900000000000 H
   0.6227450000000000    0.2221900000000000    0.6698550000000000 H
   0.6222300000000001    0.3928600000000000    0.8386700000000000 H
   0.7899450000000000    0.1157300000000000    0.8905400000000000 H
   0.7884800000000001    0.2820900000000000    0.8051400000000000 H
   0.9563600000000000    0.3401700000000000    0.5588750000000000 H
   0.9544300000000000    0.6774500000000000    0.6418500000000000 H
   0.7899499999999999    0.8840100000000000    0.6096500000000000 H
   0.7884850000000000    0.7176800000000000    0.6951150000000000 H
   0.7100000000000000    0.7799000000000000    0.5576900000000000 H
   0.7114650000000000    0.6099700000000000    0.6412949999999999 H
   0.8769650000000000    0.3400600000000000    0.6112150000000000 H
   0.8779100000000000    0.6774400000000000    0.6959700000000000 H
   0.7099400000000000    0.2193000000000000    0.9422950000000000 H
   0.7114500000000000    0.3893200000000000    0.8587000000000000 H
   0.5433749999999999    0.1175900000000000    0.6701800000000000 H
   0.5457150000000000    0.2847700000000000    0.8389450000000001 H
   0.8772650000000000    0.6603400000000000    0.8889000000000000 H
   0.8776600000000000    0.3229400000000000    0.8034300000000000 H
   0.4385350000000000    0.5868600000000000    0.4112500000000000 C
   0.4600000000000000    0.4910800000000000    0.4019750000000000 C
   0.4376500000000000    0.3957300000000000    0.3636000000000000 C
   0.0059750000000000    0.4911200000000000    0.4337000000000000 C
   0.1051500000000000    0.2351800000000000    0.2063750000000000 C
   0.1272150000000000    0.3123900000000000    0.2540950000000000 C
   0.1053900000000000    0.3315800000000000    0.3020050000000000 C
   0.1732700000000000    0.3749100000000000    0.2535150000000000 C
   0.2719600000000000    0.1752700000000000    0.3839300000000000 C
   0.2939300000000000    0.1937400000000000    0.3454050000000000 C
   0.2716800000000000    0.2699100000000000    0.3357000000000000 C
   0.3403800000000000    0.1307600000000000    0.3145200000000000 C
   0.4384400000000000    0.4129900000000000    0.0887000000000000 C
   0.4600550000000000    0.5085600000000000    0.0977650000000000 C
   0.4378250000000000    0.6040900000000000    0.1359150000000000 C
   0.0059900000000000    0.5082600000000000    0.0659900000000000 C
   0.1049100000000000    0.7647699999999999    0.2936800000000000 C
   0.1267350000000000    0.6876500000000000    0.2458850000000000 C
   0.1048500000000000    0.6688900000000000    0.1980300000000000 C
   0.1726250000000000    0.6247100000000000    0.2462600000000000 C
   0.2719700000000000    0.8243600000000000    0.1162500000000000 C
   0.2939300000000000    0.8060500000000000    0.1548450000000000 C
   0.2716900000000000    0.7297600000000000    0.1645050000000000 C
   0.3403650000000000    0.8693200000000000    0.1858300000000000 C
   0.2279900000000000    0.7670000000000000    0.0876000000000000 C
   0.2060250000000000    0.6900700000000000    0.0969000000000000 C
   0.2282800000000000    0.6710300000000000    0.1351650000000000 C
   0.1595850000000000    0.6280400000000000    0.0653300000000000 C
   0.0613050000000000    0.8227800000000000    0.2936250000000000 C
   0.0397450000000000    0.8047200000000000    0.2457850000000000 C
   0.0618850000000000    0.7282400000000000    0.1979850000000000 C
   0.4938900000000000    0.8683200000000000    0.2458950000000000 C
   0.3946600000000000    0.4129400000000000    0.1175800000000000 C
   0.3726700000000000    0.5084500000000000    0.1560000000000000 C
   0.3946600000000000    0.6040400000000000    0.1654350000000000 C
   0.3265250000000000    0.5076400000000000    0.1872000000000000 C
   0.2279450000000000    0.2323400000000000    0.4124500000000000 C
   0.2059750000000000    0.3091600000000000    0.4030900000000000 C
   0.2282500000000000    0.3283700000000000    0.3649000000000000 C
   0.1595300000000000    0.3709800000000000    0.4345700000000000 C
   0.0613900000000000    0.1775000000000000    0.2065500000000000 C
   0.0398950000000000    0.1959800000000000    0.2544450000000000 C
   0.0622300000000000    0.2726000000000000    0.3021800000000000 C
   0.4939200000000000    0.1325500000000000    0.2544100000000000 C
   0.3948200000000000    0.5872900000000000    0.3823700000000000 C
   0.3727350000000000    0.4919800000000000    0.3437100000000000 C
   0.3945200000000000    0.3961800000000000    0.3341050000000000 C
   0.3267150000000000    0.4931800000000000    0.3123850000000000 C
   0.9385350000000000    0.5868600000000000    0.4112500000000000 C
   0.9600000000000000    0.4910800000000000    0.4019750000000000 C
   0.9376500000000000    0.3957300000000000    0.3636000000000000 C
   0.5059750000000000    0.4911200000000000    0.4337000000000000 C
   0.6051500000000000    0.2351800000000000    0.2063750000000000 C
   0.6272150000000000    0.3123900000000000    0.2540950000000000 C
   0.6053900000000000    0.3315800000000000    0.3020050000000000 C
   0.6732700000000000    0.3749100000000000    0.2535150000000000 C
   0.7719600000000000    0.1752700000000000    0.3839300000000000 C
   0.7939300000000000    0.1937400000000000    0.3454050000000000 C
   0.7716799999999999    0.2699100000000000    0.3357000000000000 C
   0.8403800000000000    0.1307600000000000    0.3145200000000000 C
   0.9384399999999999    0.4129900000000000    0.0887000000000000 C
   0.9600550000000000    0.5085600000000000    0.0977650000000000 C
   0.9378250000000000    0.6040900000000000    0.1359150000000000 C
   0.5059900000000001    0.5082600000000000    0.0659900000000000 C
   0.6049100000000001    0.7647699999999999    0.2936800000000000 C
   0.6267350000000000    0.6876500000000000    0.2458850000000000 C
   0.6048500000000000    0.6688900000000000    0.1980300000000000 C
   0.6726250000000000    0.6247100000000000    0.2462600000000000 C
   0.7719700000000000    0.8243600000000000    0.1162500000000000 C
   0.7939300000000000    0.8060500000000000    0.1548450000000000 C
   0.7716900000000000    0.7297600000000000    0.1645050000000000 C
   0.8403650000000000    0.8693200000000000    0.1858300000000000 C
   0.7279900000000000    0.7670000000000000    0.0876000000000000 C
   0.7060250000000000    0.6900700000000000    0.0969000000000000 C
   0.7282800000000000    0.6710300000000000    0.1351650000000000 C
   0.6595850000000000    0.6280400000000000    0.0653300000000000 C
   0.5613049999999999    0.8227800000000000    0.2936250000000000 C
   0.5397450000000000    0.8047200000000000    0.2457850000000000 C
   0.5618850000000000    0.7282400000000000    0.1979850000000000 C
   0.9938899999999999    0.8683200000000000    0.2458950000000000 C
   0.8946600000000000    0.4129400000000000    0.1175800000000000 C
   0.8726700000000001    0.5084500000000000    0.1560000000000000 C
   0.8946600000000000    0.6040400000000000    0.1654350000000000 C
   0.8265250000000000    0.5076400000000000    0.1872000000000000 C
   0.7279450000000001    0.2323400000000000    0.4124500000000000 C
   0.7059750000000000    0.3091600000000000    0.4030900000000000 C
   0.7282500000000001    0.3283700000000000    0.3649000000000000 C
   0.6595299999999999    0.3709800000000000    0.4345700000000000 C
   0.5613900000000001    0.1775000000000000    0.2065500000000000 C
   0.5398950000000000    0.1959800000000000    0.2544450000000000 C
   0.5622300000000000    0.2726000000000000    0.3021800000000000 C
   0.9939200000000000    0.1325500000000000    0.2544100000000000 C
   0.8948199999999999    0.5872900000000000    0.3823700000000000 C
   0.8727350000000000    0.4919800000000000    0.3437100000000000 C
   0.8945200000000000    0.3961800000000000    0.3341050000000000 C
   0.8267150000000000    0.4931800000000000    0.3123850000000000 C
   0.4385350000000000    0.5868600000000000    0.9112500000000000 C
   0.4600000000000000    0.4910800000000000    0.9019750000000000 C
   0.4376500000000000    0.3957300000000000    0.8635999999999999 C
   0.0059750000000000    0.4911200000000000    0.9337000000000000 C
   0.1051500000000000    0.2351800000000000    0.7063750000000000 C
   0.1272150000000000    0.3123900000000000    0.7540950000000000 C
   0.1053900000000000    0.3315800000000000    0.8020050000000001 C
   0.1732700000000000    0.3749100000000000    0.7535149999999999 C
   0.2719600000000000    0.1752700000000000    0.8839300000000000 C
   0.2939300000000000    0.1937400000000000    0.8454050000000000 C
   0.2716800000000000    0.2699100000000000    0.8357000000000000 C
   0.3403800000000000    0.1307600000000000    0.8145200000000000 C
   0.4384400000000000    0.4129900000000000    0.5887000000000000 C
   0.4600550000000000    0.5085600000000000    0.5977650000000000 C
   0.4378250000000000    0.6040900000000000    0.6359150000000000 C
   0.0059900000000000    0.5082600000000000    0.5659900000000000 C
   0.1049100000000000    0.7647699999999999    0.7936799999999999 C
   0.1267350000000000    0.6876500000000000    0.7458850000000000 C
   0.1048500000000000    0.6688900000000000    0.6980300000000000 C
   0.1726250000000000    0.6247100000000000    0.7462600000000000 C
   0.2719700000000000    0.8243600000000000    0.6162500000000000 C
   0.2939300000000000    0.8060500000000000    0.6548450000000000 C
   0.2716900000000000    0.7297600000000000    0.6645050000000000 C
   0.3403650000000000    0.8693200000000000    0.6858299999999999 C
   0.2279900000000000    0.7670000000000000    0.5876000000000000 C
   0.2060250000000000    0.6900700000000000    0.5969000000000000 C
   0.2282800000000000    0.6710300000000000    0.6351650000000000 C
   0.1595850000000000    0.6280400000000000    0.5653300000000000 C
   0.0613050000000000    0.8227800000000000    0.7936250000000000 C
   0.0397450000000000    0.8047200000000000    0.7457850000000000 C
   0.0618850000000000    0.7282400000000000    0.6979850000000000 C
   0.3946600000000000    0.4129400000000000    0.6175800000000000 C
   0.3726700000000000    0.5084500000000000    0.6560000000000000 C
   0.3946600000000000    0.6040400000000000    0.6654350000000000 C
   0.3265250000000000    0.5076400000000000    0.6872000000000000 C
   0.2279450000000000    0.2323400000000000    0.9124500000000000 C
   0.2059750000000000    0.3091600000000000    0.9030899999999999 C
   0.2282500000000000    0.3283700000000000    0.8649000000000000 C
   0.1595300000000000    0.3709800000000000    0.9345700000000000 C
   0.0613900000000000    0.1775000000000000    0.7065500000000000 C
   0.0398950000000000    0.1959800000000000    0.7544450000000000 C
   0.0622300000000000    0.2726000000000000    0.8021800000000000 C
   0.4939200000000000    0.1325500000000000    0.7544100000000000 C
   0.3948200000000000    0.5872900000000000    0.8823700000000000 C
   0.3727350000000000    0.4919800000000000    0.8437100000000000 C
   0.3945200000000000    0.3961800000000000    0.8341050000000000 C
   0.3267150000000000    0.4931800000000000    0.8123850000000000 C
   0.9385350000000000    0.5868600000000000    0.9112500000000000 C
   0.9600000000000000    0.4910800000000000    0.9019750000000000 C
   0.9376500000000000    0.3957300000000000    0.8635999999999999 C
   0.5059750000000000    0.4911200000000000    0.9337000000000000 C
   0.6051500000000000    0.2351800000000000    0.7063750000000000 C
   0.6272150000000000    0.3123900000000000    0.7540950000000000 C
   0.6053900000000000    0.3315800000000000    0.8020050000000001 C
   0.6732700000000000    0.3749100000000000    0.7535149999999999 C
   0.7719600000000000    0.1752700000000000    0.8839300000000000 C
   0.7939300000000000    0.1937400000000000    0.8454050000000000 C
   0.7716799999999999    0.2699100000000000    0.8357000000000000 C
   0.8403800000000000    0.1307600000000000    0.8145200000000000 C
   0.9384399999999999    0.4129900000000000    0.5887000000000000 C
   0.9600550000000000    0.5085600000000000    0.5977650000000000 C
   0.9378250000000000    0.6040900000000000    0.6359150000000000 C
   0.5059900000000001    0.5082600000000000    0.5659900000000000 C
   0.7719700000000000    0.8243600000000000    0.6162500000000000 C
   0.7939300000000000    0.8060500000000000    0.6548450000000000 C
   0.7716900000000000    0.7297600000000000    0.6645050000000000 C
   0.8403650000000000    0.8693200000000000    0.6858299999999999 C
   0.7279900000000000    0.7670000000000000    0.5876000000000000 C
   0.7060250000000000    0.6900700000000000    0.5969000000000000 C
   0.7282800000000000    0.6710300000000000    0.6351650000000000 C
   0.6595850000000000    0.6280400000000000    0.5653300000000000 C
   0.9938899999999999    0.8683200000000000    0.7458950000000000 C
   0.8946600000000000    0.4129400000000000    0.6175800000000000 C
   0.8726700000000001    0.5084500000000000    0.6560000000000000 C
   0.8946600000000000    0.6040400000000000    0.6654350000000000 C
   0.8265250000000000    0.5076400000000000    0.6872000000000000 C
   0.7279450000000001    0.2323400000000000    0.9124500000000000 C
   0.7059750000000000    0.3091600000000000    0.9030899999999999 C
   0.7282500000000001    0.3283700000000000    0.8649000000000000 C
   0.6595299999999999    0.3709800000000000    0.9345700000000000 C
   0.5613900000000001    0.1775000000000000    0.7065500000000000 C
   0.5398950000000000    0.1959800000000000    0.7544450000000000 C
   0.5622300000000000    0.2726000000000000    0.8021800000000000 C
   0.9939200000000000    0.1325500000000000    0.7544100000000000 C
   0.8948199999999999    0.5872900000000000    0.8823700000000000 C
   0.8727350000000000    0.4919800000000000    0.8437100000000000 C
   0.8945200000000000    0.3961800000000000    0.8341050000000000 C
   0.8267150000000000    0.4931800000000000    0.8123850000000000 C
   0.0349600000000000    0.5727000000000000    0.4588750000000000 O
   0.0163450000000000    0.4097100000000000    0.4369200000000000 O
   0.2012950000000000    0.3438900000000000    0.2122450000000000 O
   0.1847550000000000    0.4622500000000000    0.2943500000000000 O
   0.3683100000000000    0.0796800000000000    0.3300800000000000 O
   0.3519650000000000    0.1263000000000000    0.2710300000000000 O
   0.0348600000000000    0.4266200000000000    0.0408950000000000 O
   0.0164250000000000    0.5895300000000000    0.0626500000000000 O
   0.2013650000000000    0.6560300000000000    0.2871650000000000 O
   0.1832100000000000    0.5367600000000000    0.2054950000000000 O
   0.3682750000000000    0.9205200000000000    0.1702950000000000 O
   0.3519700000000000    0.8739500000000000    0.2293550000000000 O
   0.1316600000000000    0.6588900000000000    0.0396350000000000 O
   0.1480050000000000    0.5411600000000000    0.0631500000000000 O
   0.4650250000000000    0.9184600000000001    0.2867400000000000 O
   0.4835400000000000    0.8749200000000000    0.2052050000000000 O
   0.2985300000000000    0.4250600000000000    0.1719350000000000 O
   0.3149450000000000    0.5897200000000000    0.2306550000000000 O
   0.1315900000000000    0.3400600000000000    0.4602000000000000 O
   0.1479850000000000    0.4578100000000000    0.4367100000000000 O
   0.4649600000000000    0.0822600000000000    0.2135700000000000 O
   0.4835750000000000    0.1261100000000000    0.2951450000000000 O
   0.2988050000000000    0.5757200000000000    0.3277150000000000 O
   0.3151750000000000    0.4113200000000000    0.2687850000000000 O
   0.5349600000000000    0.5727000000000000    0.4588750000000000 O
   0.5163450000000001    0.4097100000000000    0.4369200000000000 O
   0.7012950000000000    0.3438900000000000    0.2122450000000000 O
   0.6847550000000000    0.4622500000000000    0.2943500000000000 O
   0.8683100000000000    0.0796800000000000    0.3300800000000000 O
   0.8519650000000000    0.1263000000000000    0.2710300000000000 O
   0.5348600000000000    0.4266200000000000    0.0408950000000000 O
   0.5164250000000000    0.5895300000000000    0.0626500000000000 O
   0.7013650000000000    0.6560300000000000    0.2871650000000000 O
   0.6832100000000000    0.5367600000000000    0.2054950000000000 O
   0.8682750000000000    0.9205200000000000    0.1702950000000000 O
   0.8519700000000000    0.8739500000000000    0.2293550000000000 O
   0.6316600000000000    0.6588900000000000    0.0396350000000000 O
   0.6480049999999999    0.5411600000000000    0.0631500000000000 O
   0.9650250000000000    0.9184600000000001    0.2867400000000000 O
   0.9835400000000001    0.8749200000000000    0.2052050000000000 O
   0.7985300000000000    0.4250600000000000    0.1719350000000000 O
   0.8149450000000000    0.5897200000000000    0.2306550000000000 O
   0.6315900000000000    0.3400600000000000    0.4602000000000000 O
   0.6479850000000000    0.4578100000000000    0.4367100000000000 O
   0.9649600000000000    0.0822600000000000    0.2135700000000000 O
   0.9835750000000000    0.1261100000000000    0.2951450000000000 O
   0.7988050000000000    0.5757200000000000    0.3277150000000000 O
   0.8151750000000000    0.4113200000000000    0.2687850000000000 O
   0.0349600000000000    0.5727000000000000    0.9588749999999999 O
   0.0163450000000000    0.4097100000000000    0.9369200000000000 O
   0.2012950000000000    0.3438900000000000    0.7122450000000000 O
   0.1847550000000000    0.4622500000000000    0.7943500000000000 O
   0.3683100000000000    0.0796800000000000    0.8300799999999999 O
   0.3519650000000000    0.1263000000000000    0.7710300000000000 O
   0.0348600000000000    0.4266200000000000    0.5408950000000000 O
   0.0164250000000000    0.5895300000000000    0.5626500000000000 O
   0.2013650000000000    0.6560300000000000    0.7871650000000000 O
   0.1832100000000000    0.5367600000000000    0.7054950000000000 O
   0.3682750000000000    0.9205200000000000    0.6702950000000000 O
   0.3519700000000000    0.8739500000000000    0.7293550000000000 O
   0.1316600000000000    0.6588900000000000    0.5396350000000000 O
   0.1480050000000000    0.5411600000000000    0.5631500000000000 O
   0.2985300000000000    0.4250600000000000    0.6719349999999999 O
   0.3149450000000000    0.5897200000000000    0.7306550000000001 O
   0.1315900000000000    0.3400600000000000    0.9601999999999999 O
   0.1479850000000000    0.4578100000000000    0.9367099999999999 O
   0.4649600000000000    0.0822600000000000    0.7135700000000000 O
   0.4835750000000000    0.1261100000000000    0.7951450000000000 O
   0.2988050000000000    0.5757200000000000    0.8277150000000000 O
   0.3151750000000000    0.4113200000000000    0.7687850000000001 O
   0.5349600000000000    0.5727000000000000    0.9588749999999999 O
   0.5163450000000001    0.4097100000000000    0.9369200000000000 O
   0.7012950000000000    0.3438900000000000    0.7122450000000000 O
   0.6847550000000000    0.4622500000000000    0.7943500000000000 O
   0.8683100000000000    0.0796800000000000    0.8300799999999999 O
   0.8519650000000000    0.1263000000000000    0.7710300000000000 O
   0.5348600000000000    0.4266200000000000    0.5408950000000000 O
   0.5164250000000000    0.5895300000000000    0.5626500000000000 O
   0.8682750000000000    0.9205200000000000    0.6702950000000000 O
   0.8519700000000000    0.8739500000000000    0.7293550000000000 O
   0.6316600000000000    0.6588900000000000    0.5396350000000000 O
   0.6480049999999999    0.5411600000000000    0.5631500000000000 O
   0.9650250000000000    0.9184600000000001    0.7867400000000000 O
   0.9835400000000001    0.8749200000000000    0.7052050000000000 O
   0.7985300000000000    0.4250600000000000    0.6719349999999999 O
   0.8149450000000000    0.5897200000000000    0.7306550000000001 O
   0.6315900000000000    0.3400600000000000    0.9601999999999999 O
   0.6479850000000000    0.4578100000000000    0.9367099999999999 O
   0.9649600000000000    0.0822600000000000    0.7135700000000000 O
   0.9835750000000000    0.1261100000000000    0.7951450000000000 O
   0.7988050000000000    0.5757200000000000    0.8277150000000000 O
   0.8151750000000000    0.4113200000000000    0.7687850000000001 O
