H6 C16 N2 O7
1.0
  39.3049034438803488    0.0000000000000000    0.0871221397959478
   0.2844996832216740   37.9209060852315005    0.0450067250422980
   0.0000000000000000    0.0000000000000000   23.8880000000000017
H C N O
6 16 2 7
direct
   0.6417071428571428    0.0243850000000000    0.0191100000000000 H
   0.6337400000000000    0.0539400000000000    0.1936200000000000 H
   0.6504671428571428    0.0523350000000000    0.3543700000000000 H
   0.6487771428571428    0.9452100000000000    0.1478200000000000 H
   0.6328785714285714    0.9441349999999999    0.3093600000000000 H
   0.6412942857142857    0.9738450000000001    0.4836100000000000 H
   0.6289800000000000    0.0797950000000000    0.0877900000000000 C
   0.6381371428571428    0.0432400000000000    0.1047900000000000 C
   0.6425857142857142    0.0173950000000000    0.0633100000000000 C
   0.6382528571428571    0.0341450000000000    0.1614100000000000 C
   0.6440785714285714    0.0000000000000000    0.3256000000000000 C
   0.6461314285714286    0.0159450000000000    0.4235800000000000 C
   0.6450157142857142    0.0442200000000000    0.4669700000000000 C
   0.6475099999999999    0.0248800000000000    0.3668000000000000 C
   0.6454314285714285    0.9819550000000000    0.0788800000000000 C
   0.6437614285714285    0.9538550000000000    0.0353000000000000 C
   0.6465242857142857    0.9728100000000000    0.1355900000000000 C
   0.6437942857142857    0.9988400000000000    0.1769700000000000 C
   0.6377914285714286    0.9638450000000001    0.3413900000000000 C
   0.6375057142857142    0.9549000000000001    0.3980800000000000 C
   0.6280857142857142    0.9186300000000001    0.4154600000000000 C
   0.6424342857142857    0.9806699999999999    0.4393700000000000 C
   0.6450657142857142    0.0110500000000000    0.2695600000000000 N
   0.6445528571428571    0.9865800000000000    0.2329600000000000 N
   0.6046771428571428    0.0956550000000000    0.1119300000000000 O
   0.6457314285714285    0.0764850000000000    0.4515800000000000 O
   0.6414457142857143    0.0354300000000000    0.5185400000000000 O
   0.6414428571428571    0.9629200000000000    0.9836700000000000 O
   0.6429400000000000    0.9215599999999999    1.0505700000000000 O
   0.6041242857142857    0.9028650000000000    0.3911200000000000 O
   0.6445099999999999    0.9042550000000000    0.4576300000000000 O
