H5 C16 N2 O8
1.0
  39.3049034438803488    0.0000000000000000    0.0871221397959478
   0.2844996832216740   37.9209060852315005    0.0450067250422980
   0.0000000000000000    0.0000000000000000   23.8880000000000017
H C N O
5 16 2 8
direct
   0.0076000000000000    0.0530750000000000    0.8546000000000000 H
   0.0000000000000000    0.0544000000000000    0.6931000000000000 H
   0.0000000000000000    0.0244000000000000    0.5188400000000000 H
   0.0068671428571429    0.9456850000000000    0.6481200000000000 H
   0.9901614285714285    0.9449799999999999    0.8088600000000000 H
   0.0033585714285714    0.0164500000000000    0.9235200000000000 C
   0.0021971428571429    0.0445650000000000    0.9671300000000000 C
   0.0047200000000000    0.0255650000000000    0.8668000000000000 C
   0.0013657142857143    0.0000000000000000    0.8254400000000000 C
   0.0000000000000000    0.0345450000000000    0.6610600000000000 C
   0.0000000000000000    0.0434550000000000    0.6043700000000000 C
   0.0000000000000000    0.0798900000000000    0.5871300000000000 C
   0.9996971428571428    0.0000000000000000    0.9390900000000000 C
   0.9998914285714285    0.0175500000000000    0.5630800000000000 C
   0.0013342857142857    0.9993449999999999    0.6768600000000000 C
   0.0030914285714286    0.9821750000000000    0.5788900000000000 C
   0.0015614285714286    0.9539599999999999    0.5354900000000000 C
   0.0043328571428571    0.9732200000000000    0.6356700000000000 C
   0.9851014285714286    0.9192100000000001    0.9145000000000000 C
   0.9948014285714285    0.9554849999999999    0.8976200000000000 C
   0.9951057142857143    0.9645900000000001    0.8410200000000000 C
   0.0023128571428571    0.0118200000000000    0.7694000000000000 N
   0.0021871428571429    0.9872650000000001    0.7329200000000000 N
   0.0000000000000000    0.0355550000000000    0.0186200000000000 O
   0.0029400000000000    0.0768900000000000   -0.0479500000000000 O
   0.0000000000000000    0.0957200000000000    0.6112500000000000 O
   0.0026342857142857    0.0943000000000000    0.5454599999999999 O
   0.0015914285714286    0.9043050000000000    0.9561600000000000 O
   0.0014414285714286    0.9216750000000000    0.5508600000000000 O
   0.9608314285714286    0.9040650000000000    0.8900700000000000 O
   0.9985314285714285    0.9629050000000000    0.4838900000000000 O
