H12 O8
1.0
  39.3049034438803488    0.0000000000000000    0.0871221397959478
   0.2844996832216740   37.9209060852315005    0.0450067250422980
   0.0000000000000000    0.0000000000000000   23.8880000000000017
H O
12 8
direct
   0.0044205179620454    0.0829432342149168   -0.0873398079150956 H
  -0.0007261869562867    0.0108884787701795    0.0293176916868867 H
   0.0019588779480774    0.0435640531301400   -0.0334967781019593 H
   0.0161476366619069    0.9110151126671956    0.9870447794441152 H
   0.9731516454216030    0.9097443666753795    0.9162105427674679 H
   0.9422477345042866    0.9076193001745736    0.8639654236237803 H
   1.0040899882150716    0.9756373028988385    0.4498766855687375 H
   0.0091404338101721    0.9010601097629636    0.5714527919196144 H
   1.0081718950781400    0.9370916445460274    0.5096756845948996 H
  -0.0116823689225876    0.0818946468677288    0.5948550326511204 H
  -0.0099963220458968    0.0870582065748887    0.6457391084105961 H
  -0.0114865365272595    0.0775888898389497    0.5256429217067571 H
   0.0029400000000000    0.0768900000000000   -0.0479500000000000 O
   0.0000000000000000    0.0355550000000000    0.0186200000000000 O
   0.0015914285714286    0.9043050000000000    0.9561600000000000 O
   0.9608314285714286    0.9040650000000000    0.8900700000000000 O
   0.9985314285714285    0.9629050000000000    0.4838900000000000 O
   0.0014414285714286    0.9216750000000000    0.5508600000000000 O
   0.0000000000000000    0.0957200000000000    0.6112500000000000 O
   0.0026342857142857    0.0943000000000000    0.5454599999999999 O
