H2 C7 O6
1.0
  19.5201435519235709    0.0000000000000000   -6.9066947024098848
  -2.4298853860033405    7.4940805173075189   -0.5303114283128935
   0.0000000000000000    0.0000000000000000   20.1859999999999999
H C O
2 7 6
direct
   0.4817233333333333    0.6020200000000000    0.3990850000000000 H
   0.3137866666666667    0.4931000000000000    0.5000000000000000 H
   0.3207900000000000    0.2803000000000000    0.4260150000000000 C
   0.2583800000000000    0.1387700000000000    0.4319050000000000 C
   0.4105799999999999    0.3395300000000000    0.3773750000000000 C
   0.4442666666666666    0.2554500000000000    0.3336800000000000 C
   0.4356900000000000    0.5153700000000000    0.4077450000000000 C
   0.4022900000000000    0.5825600000000000    0.4512850000000000 C
   0.3421900000000000    0.4530100000000000    0.4581950000000000 C
   0.2242833333333333    0.0015000000000000    0.3846800000000000 O
   0.2459133333333333    0.1781400000000000    0.4878050000000000 O
   0.3537300000000000    0.2215000000000000    0.3857100000000000 O
   0.4109699999999999    0.0914800000000000    0.3041300000000000 O
   0.5022133333333333    0.3484500000000000    0.3306300000000000 O
   0.4220733333333333    0.7415800000000000    0.5000000000000000 O
