H7 O5
1.0
  36.5006996014487726    0.0000000000000000   -4.5726058877622364
  -9.4634087575748769   32.8042468547329520  -16.9096210182487070
   0.0000000000000000    0.0000000000000000   26.9925999999999995
H O
7 5
direct
   0.9127939979531204    0.3729317635359091    0.9036738464626436 H
   0.9820922634160280    0.3858447493348678    0.9467425566414287 H
   0.9176031581763885    0.5832520775807998    0.9028999879490726 H
   0.9492282592357039    0.5836489023986293    0.9600923883507657 H
   0.8984108423696934    0.3739364081652381    0.5694631516072093 H
   0.9786268989970474    0.3964992238752554    0.6101713483521569 H
   0.9309039045925427    0.4481706672208927    0.6841377553388541 H
   0.9160400000000000    0.3476266666666666    0.9014000000000000 O
   0.9781750000000000    0.3579866666666667    0.9398150000000001 O
   0.8971000000000000    0.5889000000000000    0.8833500000000001 O
   0.9089900000000000    0.3548733333333333    0.5415900000000000 O
   0.9729625000000000    0.3723833333333333    0.5733250000000000 O
