H12 C12 N3 O9
1.0
  36.5006996014487726    0.0000000000000000   -4.5726058877622364
  -9.4634087575748769   32.8042468547329520  -16.9096210182487070
   0.0000000000000000    0.0000000000000000   26.9925999999999995
H C N O
12 12 3 9
direct
   0.3329675000000000    0.4824866666666666    0.1949650000000000 H
   0.3563250000000000    0.5008666666666667    0.1536850000000000 H
   0.2981100000000000    0.4621033333333333    0.0720950000000000 H
   0.2748700000000000    0.4429966666666666    0.1121750000000000 H
   0.3424325000000000    0.6123133333333333    0.1462300000000000 H
   0.3248425000000000    0.6474766666666667    0.2006400000000000 H
   0.2744175000000000    0.5799366666666667    0.0844500000000000 H
   0.2602425000000000    0.6200100000000000    0.1357700000000000 H
   0.2603900000000000    0.5574566666666667    0.3083300000000000 H
   0.2603400000000000    0.6056333333333332    0.3124900000000000 H
   0.3323525000000000    0.6292466666666666    0.3512200000000000 H
   0.3299275000000000    0.5835666666666666    0.3546450000000000 H
   0.2984725000000000    0.5347600000000000    0.2315550000000000 C
   0.3174275000000000    0.5508266666666666    0.1574050000000000 C
   0.2947225000000000    0.5999800000000000    0.2346100000000000 C
   0.3285700000000000    0.4906266666666667    0.1610400000000000 C
   0.3030675000000000    0.4541100000000000    0.1063150000000000 C
   0.3205425000000000    0.4189300000000000    0.0859700000000000 C
   0.3174525000000000    0.6170300000000000    0.1637200000000000 C
   0.2846550000000000    0.6119633333333333    0.1182300000000000 C
   0.2963750000000000    0.6372433333333334    0.0891950000000000 C
   0.2775850000000000    0.5846266666666666    0.3091700000000000 C
   0.3138400000000000    0.6056333333333332    0.3570850000000000 C
   0.3081675000000000    0.6268666666666667    0.4168650000000000 C
   0.2883325000000000    0.5713500000000000    0.2541250000000000 N
   0.3126325000000000    0.5258100000000000    0.1828200000000000 N
   0.3081925000000000    0.5876100000000000    0.1850350000000000 N
   0.2954750000000000    0.5124366666666667    0.2532550000000000 O
   0.3296600000000000    0.5413466666666666    0.1144100000000000 O
   0.2889875000000000    0.6334400000000000    0.2594000000000000 O
   0.3512525000000000    0.4209800000000000    0.1154050000000000 O
   0.3324800000000000    0.6517299999999999    0.0972300000000000 O
   0.2703375000000000    0.6415400000000000    0.0590600000000000 O
   0.3395075000000000    0.6445700000000000    0.4570900000000000 O
   0.2755275000000000    0.6270233333333333    0.4253450000000000 O
   0.3039550000000000    0.3867366666666666    0.0375500000000000 O
