H9 O6
1.0
  36.5006996014487726    0.0000000000000000   -4.5726058877622364
  -9.4634087575748769   32.8042468547329520  -16.9096210182487070
   0.0000000000000000    0.0000000000000000   26.9925999999999995
H O
9 6
direct
   0.3466328269750459    0.6405014674130034    0.1165249016714599 H
   0.2787406199415970    0.6264675005604874    0.0770932645402024 H
   0.3585534212110381    0.6316332259604222    0.4409565066973138 H
   0.2851829737266552    0.6066738420954094    0.3977375002488782 H
   0.3654730081802249    0.4450549847586243    0.1507541063761277 H
   0.2812686742320172    0.3840618294675093    0.0121224637125059 H
   0.3221552631340969    0.4175492826437566    0.0827919160726881 H
   0.3919545157966892    0.5450518123457473    0.2248635080560930 H
   0.3822182114920277    0.5545546083291454    0.3349690155441850 H
   0.3324800000000000    0.6517299999999999    0.0972300000000000 O
   0.2703375000000000    0.6415400000000000    0.0590600000000000 O
   0.3395075000000000    0.6445700000000000    0.4570900000000000 O
   0.2755275000000000    0.6270233333333333    0.4253450000000000 O
   0.3512525000000000    0.4209800000000000    0.1154050000000000 O
   0.3039550000000000    0.3867366666666666    0.0375500000000000 O
