H4 O3
1.0
  26.8459983644481639    0.0000000000000000   -0.0093710216295006
   0.0502888960315931   26.9279529393686552    0.0023499113019041
   0.0000000000000000    0.0000000000000000   32.9620000000000033
H O
4 3
direct
   0.9474688356741582    0.4440190607291160    0.5524534036471053 H
   0.9458875437345687    0.2874163758588279    0.7161307035406624 H
   0.8598304368255171    0.2908875928776049    0.7129549248083055 H
   0.7822171902180204    0.2674244933030803    0.7342042336840748 H
   0.9799700000000000    0.4538800000000000    0.5417400000000000 O
   0.9796600000000000    0.2959600000000000    0.7083950000000000 O
   0.8951350000000000    0.2959900000000000    0.7083400000000000 O
