H20 C20 N6
1.0
  16.0719970013157507    0.0000000000000000   -0.0098178254977196
   0.0384607703282853   18.8627208343520465   -0.0951445975710272
   0.0000000000000000    0.0000000000000000   18.3790000000000013
H C N
20 20 6
direct
   0.6689800000000000    0.1931400000000000    0.0152400000000000 H
   0.6766100000000000    0.2860000000000000    0.0229800000000000 H
   0.7981900000000000    0.2656800000000000    0.1142500000000000 H
   0.7675000000000000    0.1765200000000000    0.1182000000000000 H
   0.7569399999999999    0.3527200000000000    0.8196600000000001 H
   0.6980200000000000    0.2643300000000000    0.8864000000000000 H
   0.7315700000000001    0.1757900000000000    0.8823700000000000 H
   0.6755100000000001    0.1051400000000000    0.0970000000000000 H
   0.8300300000000000    0.1956200000000000    0.9852000000000000 H
   0.8179800000000000    0.2881300000000000    0.9781100000000000 H
   0.5956300000000000    0.3659900000000000    0.2711500000000000 H
   0.4847100000000000    0.9589800000000001    0.1665800000000000 H
   0.8258700000000000    0.1067900000000000    0.9041600000000000 H
   0.4252500000000000    0.0583800000000000    0.2429300000000000 H
   0.7367800000000000    0.3535100000000000    0.1809500000000000 H
   0.8919100000000000    0.9882600000000000    0.9105600000000000 H
   0.6122800000000000    0.9856700000000000    0.0908900000000000 H
   0.8974400000000000    0.3665000000000000    0.7290400000000000 H
   0.0752600000000000    0.0615400000000000    0.7564200000000000 H
   0.0189400000000000    0.9622200000000000    0.8335900000000001 H
   0.8834000000000000    0.2186000000000000    0.8145100000000000 C
   0.7126000000000000    0.2365400000000000    0.0277700000000000 C
   0.7451300000000000    0.2301300000000000    0.1057500000000000 C
   0.6141400000000000    0.2173400000000000    0.1860900000000000 C
   0.8091600000000000    0.3178400000000000    0.8079800000000000 C
   0.7522100000000000    0.2299300000000000    0.8949400000000000 C
   0.5831300000000000    0.1457000000000000    0.1729400000000000 C
   0.6195000000000001    0.0938600000000000    0.1283700000000000 C
   0.7843700000000000    0.2375800000000000    0.9729500000000000 C
   0.9162000000000000    0.1475500000000000    0.8276100000000000 C
   0.6173100000000000    0.3223800000000000    0.2375700000000000 C
   0.5131700000000000    0.0000000000000000    0.1659200000000000 C
   0.8816200000000000    0.0958300000000000    0.8727400000000000 C
   0.4796400000000000    0.0659200000000000    0.2084400000000000 C
   0.6856500000000000    0.3178300000000000    0.1926800000000000 C
   0.9188300000000000    0.0290400000000000    0.8759000000000000 C
   0.5838800000000000    0.0265400000000000    0.1249000000000000 C
   0.8772000000000000    0.3229900000000000    0.7628900000000000 C
   0.0210800000000000    0.0687200000000000    0.7913700000000000 C
   0.9893100000000000    0.0143800000000000    0.8343600000000000 C
   0.6833500000000000    0.2516600000000000    0.1604400000000000 N
   0.8134200000000000    0.2521100000000000    0.8403300000000000 N
   0.5127800000000000    0.1310100000000000    0.2114600000000000 N
   0.9863800000000000    0.1333200000000000    0.7884700000000000 N
   0.9221300000000000    0.2614700000000000    0.7670600000000000 N
   0.5740900000000000    0.2601100000000000    0.2333500000000000 N
