H4 O4
1.0
  16.0719970013157507    0.0000000000000000   -0.0098178254977196
   0.0384607703282853   18.8627208343520465   -0.0951445975710272
   0.0000000000000000    0.0000000000000000   18.3790000000000013
H O
4 4
direct
   0.5632486428241699    0.1415485126238387    0.1838259968502200 H
   0.6032114227484753    0.2290107927352737    0.1989859940301387 H
   0.8939730816273112    0.2303032793535458    0.8015564052874795 H
   0.9360188332455298    0.1435314477474510    0.8165568633053572 H
   0.5127800000000000    0.1310100000000000    0.2114600000000000 O
   0.5740900000000000    0.2601100000000000    0.2333500000000000 O
   0.9221300000000000    0.2614700000000000    0.7670600000000000 O
   0.9863800000000000    0.1333200000000000    0.7884700000000000 O
