H8 C14 O5
1.0
  16.0719970013157507    0.0000000000000000   -0.0098178254977196
   0.0384607703282853   18.8627208343520465   -0.0951445975710272
   0.0000000000000000    0.0000000000000000   18.3790000000000013
H C O
8 14 5
direct
   0.2232900000000000    0.5425800000000000    0.2373200000000000 H
   0.9779900000000000    0.6597400000000000    0.0113900000000000 H
   0.3403800000000000    0.4665400000000000    0.2820400000000000 H
   0.9908600000000000    0.5955400000000000    0.1298300000000000 H
   0.1923700000000000    0.4715000000000000    0.0417100000000000 H
   0.2389500000000000    0.2880100000000000    0.1678200000000000 H
   0.1188700000000000    0.3626800000000000    0.1255900000000000 H
   0.1787900000000000    0.5360500000000000    0.9238499999999999 H
   0.0747700000000000    0.6404200000000000    0.8895000000000000 C
   0.3681500000000000    0.3286300000000000    0.2561300000000000 C
   0.2976400000000000    0.3729400000000000    0.2270500000000000 C
   0.1657000000000000    0.4570400000000000    0.1780900000000000 C
   0.0929300000000000    0.5306700000000000    0.0926600000000000 C
   0.2274000000000000    0.4869600000000000    0.2219500000000000 C
   0.0248100000000000    0.6184600000000000    0.0183400000000000 C
   0.2925500000000000    0.4447100000000000    0.2465800000000000 C
   0.0316200000000000    0.5830000000000000    0.0841900000000000 C
   0.1459000000000000    0.5130000000000000    0.0350500000000000 C
   0.0785400000000000    0.6023100000000000    0.9602100000000000 C
   0.2354300000000000    0.3440200000000000    0.1822500000000000 C
   0.1690600000000000    0.3855700000000000    0.1579600000000000 C
   0.1382400000000000    0.5488900000000000    0.9694700000000001 C
   0.0000000000000000    0.6882000000000000    0.8812900000000000 O
   0.0970200000000000    0.4991300000000000    0.1602500000000000 O
   0.1269100000000000    0.6267300000000000    0.8399900000000000 O
   0.4198900000000000    0.3550400000000000    0.2996400000000000 O
   0.3699900000000000    0.2629800000000000    0.2344700000000000 O
