H12 C30 O12
1.0
  37.1208076555665656    0.0000000000000000   12.0770416492794634
   8.8250718906012384   36.1369642115669478   12.0500758378380919
   0.0000000000000000    0.0000000000000000   39.0840000000000032
H C O
12 30 12
direct
   0.8560900000000000    0.0845750000000000    0.3228400000000000 H
   0.7859000000000000    0.1902300000000000    0.3384400000000000 H
   0.8150700000000000    0.1642350000000000    0.2317850000000000 H
   0.8164400000000001    0.2296850000000000    0.2169150000000000 H
   0.5842200000000000    0.3218400000000000    0.3568000000000000 H
   0.6893450000000000    0.3383800000000000    0.2858000000000000 H
   0.6646650000000001    0.2311750000000000    0.3154500000000000 H
   0.7296750000000000    0.2167550000000000    0.3162850000000000 H
   0.8228800000000001    0.3563400000000000    0.0850900000000000 H
   0.8387100000000001    0.2854800000000000    0.1902550000000000 H
   0.7315950000000000    0.3155600000000000    0.1647200000000000 H
   0.7167250000000001    0.3162350000000000    0.2299050000000000 H
   0.8563850000000000    0.0950850000000000    0.2508200000000000 C
   0.8377749999999999    0.1220500000000000    0.2746600000000000 C
   0.8400250000000000    0.1117450000000000    0.3116650000000000 C
   0.8210200000000001    0.1364950000000000    0.3340000000000000 C
   0.8000950000000000    0.1713950000000000    0.3201450000000000 C
   0.7979050000000000    0.1821650000000000    0.2830300000000000 C
   0.8169500000000001    0.1570850000000000    0.2604850000000000 C
   0.7755600000000000    0.2190750000000000    0.2682000000000000 C
   0.7891450000000000    0.2404400000000000    0.2333350000000000 C
   0.8224100000000000    0.1256950000000000    0.3739500000000000 C
   0.5955700000000000    0.2495900000000000    0.3572200000000000 C
   0.6221250000000000    0.2738100000000000    0.3383350000000000 C
   0.6114250000000000    0.3108450000000000    0.3405650000000000 C
   0.6358350000000000    0.3338450000000000    0.3212900000000000 C
   0.6707950000000000    0.3198550000000000    0.3001650000000000 C
   0.6819649999999999    0.2827250000000000    0.2979850000000000 C
   0.6572150000000000    0.2599100000000000    0.3172500000000000 C
   0.7189850000000000    0.2680900000000000    0.2755500000000000 C
   0.7404400000000000    0.2331850000000000    0.2890850000000000 C
   0.6247300000000000    0.3733900000000000    0.3227150000000000 C
   0.7506600000000000    0.3571100000000000    0.0957050000000000 C
   0.7745649999999999    0.3381950000000000    0.1225700000000000 C
   0.8116950000000001    0.3402050000000000    0.1121850000000000 C
   0.8345350000000000    0.3209150000000000    0.1367550000000000 C
   0.8203050000000001    0.2998800000000000    0.1715600000000000 C
   0.7830650000000000    0.2978900000000000    0.1824200000000000 C
   0.7604000000000000    0.3172500000000000    0.1575100000000000 C
   0.7682249999999999    0.2754900000000000    0.2192550000000000 C
   0.7331750000000000    0.2890000000000000    0.2406200000000000 C
   0.8741900000000000    0.3221600000000000    0.1257450000000000 C
   0.8413200000000001    0.0937650000000000    0.3875300000000000 O
   0.8041750000000000    0.1482450000000000    0.3949100000000000 O
   0.8520600000000000    0.1051850000000000    0.2176050000000000 O
   0.8750300000000000    0.0637050000000000    0.2651800000000000 O
   0.5927300000000000    0.3868150000000000    0.3417500000000000 O
   0.6470600000000000    0.3944950000000000    0.3043600000000000 O
   0.6060900000000000    0.2163600000000000    0.3528500000000000 O
   0.5641050000000000    0.2636350000000000    0.3760800000000000 O
   0.8875950000000000    0.3412200000000000    0.0938250000000000 O
   0.8953850000000000    0.3037750000000000    0.1479950000000000 O
   0.7172200000000000    0.3532900000000000    0.1058950000000000 O
   0.7652150000000000    0.3755100000000000    0.0642900000000000 O
