Zn96 H390 C930 O384
1.0
  37.1208076555665656    0.0000000000000000   12.0770416492794634
   8.8250718906012384   36.1369642115669478   12.0500758378380919
   0.0000000000000000    0.0000000000000000   39.0840000000000032
Zn H C O
96 390 930 384
direct
   0.6582250000000001    0.4887750000000000    0.7751700000000000 Zn
   0.7741100000000001    0.6587499999999999    0.4907200000000000 Zn
   0.4906550000000000    0.7746250000000000    0.6584600000000000 Zn
   0.6058600000000000    0.9375249999999999    0.3221750000000000 Zn
   0.3215750000000000    0.1073800000000000    0.4381750000000000 Zn
   0.4384450000000000    0.8215800000000000    0.6065000000000000 Zn
   0.6582250000000001    0.9887750000000000    0.2751700000000000 Zn
   0.7741100000000001    0.1587500000000000    0.9907200000000000 Zn
   0.4906550000000000    0.2746250000000000    0.1584600000000000 Zn
   0.6058600000000000    0.4375250000000000    0.8221750000000000 Zn
   0.3215750000000000    0.6073800000000000    0.9381750000000000 Zn
   0.4384450000000000    0.3215800000000000    0.1065000000000000 Zn
   0.1582250000000000    0.4887750000000000    0.2751700000000000 Zn
   0.2741100000000000    0.6587499999999999    0.9907200000000000 Zn
   0.9906550000000001    0.7746250000000000    0.1584600000000000 Zn
   0.1058600000000000    0.9375249999999999    0.8221750000000000 Zn
   0.8215749999999999    0.1073800000000000    0.9381750000000000 Zn
   0.9384450000000000    0.8215800000000000    0.1065000000000000 Zn
   0.1582250000000000    0.9887750000000000    0.7751700000000000 Zn
   0.2741100000000000    0.1587500000000000    0.4907200000000000 Zn
   0.9906550000000001    0.2746250000000000    0.6584600000000000 Zn
   0.1058600000000000    0.4375250000000000    0.3221750000000000 Zn
   0.8215749999999999    0.6073800000000000    0.4381750000000000 Zn
   0.9384450000000000    0.3215800000000000    0.6065000000000000 Zn
   0.0724250000000000    0.1872150000000000    0.3564450000000000 Zn
   0.3561200000000000    0.0712150000000000    0.1885850000000000 Zn
   0.1882850000000000    0.3574150000000000    0.0717950000000000 Zn
   0.2409400000000000    0.9085200000000000    0.5246999999999999 Zn
   0.4080100000000000    0.0243300000000000    0.2405100000000000 Zn
   0.5248200000000000    0.7387200000000000    0.4089400000000000 Zn
   0.0724250000000000    0.6872150000000000    0.8564450000000000 Zn
   0.3561200000000000    0.5712150000000000    0.6885850000000000 Zn
   0.1882850000000000    0.8574150000000000    0.5717950000000001 Zn
   0.2409400000000000    0.4085200000000000    0.0247000000000000 Zn
   0.4080100000000000    0.5243300000000000    0.7405100000000000 Zn
   0.5248200000000000    0.2387200000000000    0.9089400000000001 Zn
   0.5724250000000000    0.1872150000000000    0.8564450000000000 Zn
   0.8561200000000000    0.0712150000000000    0.6885850000000000 Zn
   0.6882850000000000    0.3574150000000000    0.5717950000000001 Zn
   0.7409399999999999    0.9085200000000000    0.0247000000000000 Zn
   0.9080100000000000    0.0243300000000000    0.7405100000000000 Zn
   0.0248200000000000    0.7387200000000000    0.9089400000000001 Zn
   0.5724250000000000    0.6872150000000000    0.3564450000000000 Zn
   0.8561200000000000    0.5712150000000000    0.1885850000000000 Zn
   0.6882850000000000    0.8574150000000000    0.0717950000000000 Zn
   0.7409399999999999    0.4085200000000000    0.5246999999999999 Zn
   0.9080100000000000    0.5243300000000000    0.2405100000000000 Zn
   0.0248200000000000    0.2387200000000000    0.4089400000000000 Zn
   0.5724250000000000    0.1872150000000000    0.3564450000000000 Zn
   0.0724250000000000    0.1872150000000000    0.8564450000000000 Zn
   0.3561200000000000    0.0712150000000000    0.6885850000000000 Zn
   0.1882850000000000    0.3574150000000000    0.5717950000000001 Zn
   0.2409400000000000    0.9085200000000000    0.0247000000000000 Zn
   0.4080100000000000    0.0243300000000000    0.7405100000000000 Zn
   0.5248200000000000    0.7387200000000000    0.9089400000000001 Zn
   0.0724250000000000    0.6872150000000000    0.3564450000000000 Zn
   0.3561200000000000    0.5712150000000000    0.1885850000000000 Zn
   0.1882850000000000    0.8574150000000000    0.0717950000000000 Zn
   0.2409400000000000    0.4085200000000000    0.5246999999999999 Zn
   0.4080100000000000    0.5243300000000000    0.2405100000000000 Zn
   0.5248200000000000    0.2387200000000000    0.4089400000000000 Zn
   0.6882850000000000    0.3574150000000000    0.0717950000000000 Zn
   0.8561200000000000    0.0712150000000000    0.1885850000000000 Zn
   0.7409399999999999    0.9085200000000000    0.5246999999999999 Zn
   0.9080100000000000    0.0243300000000000    0.2405100000000000 Zn
   0.0248200000000000    0.7387200000000000    0.4089400000000000 Zn
   0.5724250000000000    0.6872150000000000    0.8564450000000000 Zn
   0.8561200000000000    0.5712150000000000    0.6885850000000000 Zn
   0.6882850000000000    0.8574150000000000    0.5717950000000001 Zn
   0.7409399999999999    0.4085200000000000    0.0247000000000000 Zn
   0.9080100000000000    0.5243300000000000    0.7405100000000000 Zn
   0.0248200000000000    0.2387200000000000    0.9089400000000001 Zn
   0.1582250000000000    0.4887750000000000    0.7751700000000000 Zn
   0.2741100000000000    0.6587499999999999    0.4907200000000000 Zn
   0.9906550000000001    0.7746250000000000    0.6584600000000000 Zn
   0.1058600000000000    0.9375249999999999    0.3221750000000000 Zn
   0.8215749999999999    0.1073800000000000    0.4381750000000000 Zn
   0.9384450000000000    0.8215800000000000    0.6065000000000000 Zn
   0.1582250000000000    0.9887750000000000    0.2751700000000000 Zn
   0.2741100000000000    0.1587500000000000    0.9907200000000000 Zn
   0.9906550000000001    0.2746250000000000    0.1584600000000000 Zn
   0.1058600000000000    0.4375250000000000    0.8221750000000000 Zn
   0.8215749999999999    0.6073800000000000    0.9381750000000000 Zn
   0.9384450000000000    0.3215800000000000    0.1065000000000000 Zn
   0.6582250000000001    0.9887750000000000    0.7751700000000000 Zn
   0.7741100000000001    0.1587500000000000    0.4907200000000000 Zn
   0.4906550000000000    0.2746250000000000    0.6584600000000000 Zn
   0.6058600000000000    0.4375250000000000    0.3221750000000000 Zn
   0.3215750000000000    0.6073800000000000    0.4381750000000000 Zn
   0.4384450000000000    0.3215800000000000    0.6065000000000000 Zn
   0.6582250000000001    0.4887750000000000    0.2751700000000000 Zn
   0.7741100000000001    0.6587499999999999    0.9907200000000000 Zn
   0.4906550000000000    0.7746250000000000    0.1584600000000000 Zn
   0.6058600000000000    0.9375249999999999    0.8221750000000000 Zn
   0.3215750000000000    0.1073800000000000    0.9381750000000000 Zn
   0.4384450000000000    0.8215800000000000    0.1065000000000000 Zn
   0.7919925429138178    0.1715191586046829    0.3808690175059732 H
   0.8543284418341174    0.0800919631805829    0.3684843471868764 H
   0.8233566310647595    0.1280833887056271    0.3668261840974151 H
   0.5792505187320595    0.3676509158874572    0.3547496849379776 H
   0.6703909226666350    0.3805822140594287    0.2920163811643509 H
   0.6272000637629219    0.3662596784062594    0.3235130303606250 H
   0.6148450000000000    0.5304800000000000    0.6823049999999999 H
   0.5077250000000000    0.5604400000000000    0.6568200000000000 H
   0.5236100000000000    0.4896700000000000    0.7620000000000000 H
   0.5605650000000000    0.6557900000000000    0.5085900000000000 H
   0.4903300000000000    0.7614050000000000    0.5242900000000000 H
   0.5313950000000000    0.6816850000000000    0.6152500000000000 H
   0.6817550000000000    0.6148000000000000    0.5316900000000000 H
   0.6571650000000000    0.5075700000000000    0.5611400000000000 H
   0.7622949999999999    0.5242250000000001    0.4902800000000000 H
   0.6297200000000001    0.5297150000000000    0.6171500000000000 H
   0.6167800000000000    0.6291900000000000    0.5307650000000000 H
   0.5300000000000000    0.6162650000000000    0.6301200000000000 H
   0.4142550000000000    0.0657250000000000    0.4818550000000000 H
   0.4396000000000000    0.0355800000000000    0.5888800000000000 H
   0.3340900000000000    0.1062500000000000    0.5731050000000000 H
   0.4815000000000000    0.9144749999999999    0.5655150000000000 H
   0.5884050000000000    0.9402349999999999    0.5358300000000000 H
   0.5728050000000000    0.8349900000000000    0.6065400000000000 H
   0.4794550000000000    0.0662850000000000    0.4671350000000000 H
   0.5660650000000000    0.9667049999999999    0.4798650000000000 H
   0.4665900000000000    0.9798650000000000    0.5665800000000000 H
   0.5647500000000000    0.9812300000000000    0.4148800000000000 H
   0.5356800000000000    0.0882700000000000    0.4399600000000000 H
   0.6063600000000000    0.0716400000000000    0.3347850000000000 H
   0.6148450000000000    0.0304800000000000    0.1823050000000000 H
   0.5077250000000000    0.0604400000000000    0.1568200000000000 H
   0.5236100000000000    0.9896700000000000    0.2620000000000000 H
   0.5605650000000000    0.1557900000000000    0.0085900000000000 H
   0.4903300000000000    0.2614050000000000    0.0242900000000000 H
   0.5313950000000000    0.1816850000000000    0.1152500000000000 H
   0.6817550000000000    0.1148000000000000    0.0316900000000000 H
   0.6571650000000000    0.0075700000000000    0.0611400000000000 H
   0.7622949999999999    0.0242250000000000    0.9902800000000000 H
   0.6297200000000001    0.0297150000000000    0.1171500000000000 H
   0.6167800000000000    0.1291900000000000    0.0307650000000000 H
   0.5300000000000000    0.1162650000000000    0.1301200000000000 H
   0.4142550000000000    0.5657250000000000    0.9818549999999999 H
   0.4396000000000000    0.5355799999999999    0.0888800000000000 H
   0.3340900000000000    0.6062500000000000    0.0731050000000000 H
   0.4815000000000000    0.4144750000000000    0.0655150000000000 H
   0.5884050000000000    0.4402350000000000    0.0358300000000000 H
   0.5728050000000000    0.3349900000000000    0.1065400000000000 H
   0.4794550000000000    0.5662850000000000    0.9671350000000001 H
   0.5660650000000000    0.4667050000000000    0.9798650000000000 H
   0.4665900000000000    0.4798650000000000    0.0665800000000000 H
   0.5647500000000000    0.4812300000000000    0.9148800000000000 H
   0.5356800000000000    0.5882700000000000    0.9399600000000000 H
   0.6063600000000000    0.5716400000000000    0.8347850000000000 H
   0.1148450000000000    0.5304800000000000    0.1823050000000000 H
   0.0077250000000000    0.5604400000000000    0.1568200000000000 H
   0.0236100000000000    0.4896700000000000    0.2620000000000000 H
   0.0605650000000000    0.6557900000000000    0.0085900000000000 H
   0.9903299999999999    0.7614050000000000    0.0242900000000000 H
   0.0313950000000000    0.6816850000000000    0.1152500000000000 H
   0.1817550000000000    0.6148000000000000    0.0316900000000000 H
   0.1571650000000000    0.5075700000000000    0.0611400000000000 H
   0.2622950000000000    0.5242250000000001    0.9902800000000000 H
   0.1297200000000000    0.5297150000000000    0.1171500000000000 H
   0.1167800000000000    0.6291900000000000    0.0307650000000000 H
   0.0300000000000000    0.6162650000000000    0.1301200000000000 H
   0.9142550000000000    0.0657250000000000    0.9818549999999999 H
   0.9396000000000000    0.0355800000000000    0.0888800000000000 H
   0.8340900000000000    0.1062500000000000    0.0731050000000000 H
   0.9815000000000000    0.9144749999999999    0.0655150000000000 H
   0.0884050000000000    0.9402349999999999    0.0358300000000000 H
   0.0728050000000000    0.8349900000000000    0.1065400000000000 H
   0.9794550000000000    0.0662850000000000    0.9671350000000001 H
   0.0660650000000000    0.9667049999999999    0.9798650000000000 H
   0.9665900000000001    0.9798650000000000    0.0665800000000000 H
   0.0647500000000000    0.9812300000000000    0.9148800000000000 H
   0.0356800000000000    0.0882700000000000    0.9399600000000000 H
   0.1063600000000000    0.0716400000000000    0.8347850000000000 H
   0.1148450000000000    0.0304800000000000    0.6823049999999999 H
   0.0077250000000000    0.0604400000000000    0.6568200000000000 H
   0.0236100000000000    0.9896700000000000    0.7620000000000000 H
   0.0605650000000000    0.1557900000000000    0.5085900000000000 H
   0.9903299999999999    0.2614050000000000    0.5242900000000000 H
   0.0313950000000000    0.1816850000000000    0.6152500000000000 H
   0.1817550000000000    0.1148000000000000    0.5316900000000000 H
   0.1571650000000000    0.0075700000000000    0.5611400000000000 H
   0.2622950000000000    0.0242250000000000    0.4902800000000000 H
   0.1297200000000000    0.0297150000000000    0.6171500000000000 H
   0.1167800000000000    0.1291900000000000    0.5307650000000000 H
   0.0300000000000000    0.1162650000000000    0.6301200000000000 H
   0.9142550000000000    0.5657250000000000    0.4818550000000000 H
   0.9396000000000000    0.5355799999999999    0.5888800000000000 H
   0.8340900000000000    0.6062500000000000    0.5731050000000000 H
   0.9815000000000000    0.4144750000000000    0.5655150000000000 H
   0.0884050000000000    0.4402350000000000    0.5358300000000000 H
   0.0728050000000000    0.3349900000000000    0.6065400000000000 H
   0.9794550000000000    0.5662850000000000    0.4671350000000000 H
   0.0660650000000000    0.4667050000000000    0.4798650000000000 H
   0.9665900000000001    0.4798650000000000    0.5665800000000000 H
   0.0647500000000000    0.4812300000000000    0.4148800000000000 H
   0.0356800000000000    0.5882700000000000    0.4399600000000000 H
   0.1063600000000000    0.5716400000000000    0.3347850000000000 H
   0.1646650000000000    0.2311750000000000    0.3154500000000000 H
   0.1893450000000000    0.3383800000000000    0.2858000000000000 H
   0.0842200000000000    0.3218400000000000    0.3568000000000000 H
   0.2315950000000000    0.3155600000000000    0.1647200000000000 H
   0.3387100000000000    0.2854800000000000    0.1902550000000000 H
   0.3228800000000000    0.3563400000000000    0.0850900000000000 H
   0.3150700000000000    0.1642350000000000    0.2317850000000000 H
   0.2859000000000000    0.1902300000000000    0.3384400000000000 H
   0.3560900000000000    0.0845750000000000    0.3228400000000000 H
   0.3164400000000000    0.2296850000000000    0.2169150000000000 H
   0.2296750000000000    0.2167550000000000    0.3162850000000000 H
   0.2167250000000000    0.3162350000000000    0.2299050000000000 H
   0.4322550000000000    0.7802000000000000    0.3652100000000000 H
   0.4069850000000000    0.8103500000000000    0.2581000000000000 H
   0.5124600000000000    0.7396450000000000    0.2739900000000000 H
   0.3650150000000000    0.9314100000000001    0.2815200000000000 H
   0.2580750000000000    0.9057200000000001    0.3111950000000000 H
   0.2737450000000000    0.0109400000000000    0.2404750000000000 H
   0.3670800000000000    0.7796400000000000    0.3799200000000000 H
   0.2804600000000000    0.8792150000000001    0.3671850000000000 H
   0.3799150000000000    0.8660450000000000    0.2804400000000000 H
   0.3107850000000000    0.7576650000000000    0.4071300000000000 H
   0.2402000000000000    0.7743650000000000    0.5123100000000000 H
   0.2818650000000000    0.8647050000000001    0.4321650000000000 H
   0.1646650000000000    0.7311750000000000    0.8154500000000000 H
   0.1893450000000000    0.8383800000000000    0.7858000000000001 H
   0.0842200000000000    0.8218400000000000    0.8568000000000000 H
   0.2315950000000000    0.8155600000000001    0.6647200000000000 H
   0.3387100000000000    0.7854800000000000    0.6902550000000001 H
   0.3228800000000000    0.8563400000000000    0.5850900000000000 H
   0.3150700000000000    0.6642350000000000    0.7317850000000000 H
   0.2859000000000000    0.6902300000000000    0.8384400000000001 H
   0.3560900000000000    0.5845750000000000    0.8228400000000000 H
   0.3164400000000000    0.7296850000000000    0.7169150000000000 H
   0.2296750000000000    0.7167550000000000    0.8162849999999999 H
   0.2167250000000000    0.8162350000000000    0.7299050000000000 H
   0.4322550000000000    0.2802000000000000    0.8652100000000000 H
   0.4069850000000000    0.3103500000000000    0.7581000000000000 H
   0.5124600000000000    0.2396450000000000    0.7739900000000000 H
   0.3650150000000000    0.4314100000000000    0.7815200000000000 H
   0.2580750000000000    0.4057200000000000    0.8111950000000000 H
   0.2737450000000000    0.5109399999999999    0.7404750000000000 H
   0.3670800000000000    0.2796400000000000    0.8799200000000000 H
   0.2804600000000000    0.3792150000000000    0.8671850000000000 H
   0.3799150000000000    0.3660450000000000    0.7804400000000000 H
   0.3107850000000000    0.2576650000000000    0.9071300000000000 H
   0.2402000000000000    0.2743650000000000    0.0123100000000000 H
   0.2818650000000000    0.3647050000000000    0.9321650000000000 H
   0.6646650000000001    0.2311750000000000    0.8154500000000000 H
   0.6893450000000000    0.3383800000000000    0.7858000000000001 H
   0.5842200000000000    0.3218400000000000    0.8568000000000000 H
   0.7315950000000000    0.3155600000000000    0.6647200000000000 H
   0.8387100000000001    0.2854800000000000    0.6902550000000001 H
   0.8228800000000001    0.3563400000000000    0.5850900000000000 H
   0.8150700000000000    0.1642350000000000    0.7317850000000000 H
   0.7859000000000000    0.1902300000000000    0.8384400000000001 H
   0.8560900000000000    0.0845750000000000    0.8228400000000000 H
   0.8164400000000001    0.2296850000000000    0.7169150000000000 H
   0.7296750000000000    0.2167550000000000    0.8162849999999999 H
   0.7167250000000001    0.3162350000000000    0.7299050000000000 H
   0.9322550000000001    0.7802000000000000    0.8652100000000000 H
   0.9069849999999999    0.8103500000000000    0.7581000000000000 H
   0.0124600000000000    0.7396450000000000    0.7739900000000000 H
   0.8650150000000000    0.9314100000000001    0.7815200000000000 H
   0.7580750000000001    0.9057200000000001    0.8111950000000000 H
   0.7737450000000000    0.0109400000000000    0.7404750000000000 H
   0.8670800000000001    0.7796400000000000    0.8799200000000000 H
   0.7804599999999999    0.8792150000000001    0.8671850000000000 H
   0.8799150000000000    0.8660450000000000    0.7804400000000000 H
   0.8107850000000000    0.7576650000000000    0.9071300000000000 H
   0.7402000000000000    0.7743650000000000    0.0123100000000000 H
   0.7818650000000000    0.8647050000000001    0.9321650000000000 H
   0.6646650000000001    0.7311750000000000    0.3154500000000000 H
   0.6893450000000000    0.8383800000000000    0.2858000000000000 H
   0.5842200000000000    0.8218400000000000    0.3568000000000000 H
   0.7315950000000000    0.8155600000000001    0.1647200000000000 H
   0.8387100000000001    0.7854800000000000    0.1902550000000000 H
   0.8228800000000001    0.8563400000000000    0.0850900000000000 H
   0.8150700000000000    0.6642350000000000    0.2317850000000000 H
   0.7859000000000000    0.6902300000000000    0.3384400000000000 H
   0.8560900000000000    0.5845750000000000    0.3228400000000000 H
   0.8164400000000001    0.7296850000000000    0.2169150000000000 H
   0.7296750000000000    0.7167550000000000    0.3162850000000000 H
   0.7167250000000001    0.8162350000000000    0.2299050000000000 H
   0.9322550000000001    0.2802000000000000    0.3652100000000000 H
   0.9069849999999999    0.3103500000000000    0.2581000000000000 H
   0.0124600000000000    0.2396450000000000    0.2739900000000000 H
   0.8650150000000000    0.4314100000000000    0.2815200000000000 H
   0.7580750000000001    0.4057200000000000    0.3111950000000000 H
   0.7737450000000000    0.5109399999999999    0.2404750000000000 H
   0.8670800000000001    0.2796400000000000    0.3799200000000000 H
   0.7804599999999999    0.3792150000000000    0.3671850000000000 H
   0.8799150000000000    0.3660450000000000    0.2804400000000000 H
   0.8107850000000000    0.2576650000000000    0.4071300000000000 H
   0.7402000000000000    0.2743650000000000    0.5123100000000000 H
   0.7818650000000000    0.3647050000000000    0.4321650000000000 H
   0.5598310036088009    0.2884750003939344    0.3790193738152977 H
   0.6312797295275571    0.2076052322794924    0.3394752926502436 H
   0.6001088571784882    0.2511217490619474    0.3569634369302017 H
   0.1646650000000000    0.2311750000000000    0.8154500000000000 H
   0.1893450000000000    0.3383800000000000    0.7858000000000001 H
   0.0842200000000000    0.3218400000000000    0.8568000000000000 H
   0.2315950000000000    0.3155600000000000    0.6647200000000000 H
   0.3387100000000000    0.2854800000000000    0.6902550000000001 H
   0.3228800000000000    0.3563400000000000    0.5850900000000000 H
   0.3150700000000000    0.1642350000000000    0.7317850000000000 H
   0.2859000000000000    0.1902300000000000    0.8384400000000001 H
   0.3560900000000000    0.0845750000000000    0.8228400000000000 H
   0.3164400000000000    0.2296850000000000    0.7169150000000000 H
   0.2296750000000000    0.2167550000000000    0.8162849999999999 H
   0.2167250000000000    0.3162350000000000    0.7299050000000000 H
   0.4322550000000000    0.7802000000000000    0.8652100000000000 H
   0.4069850000000000    0.8103500000000000    0.7581000000000000 H
   0.5124600000000000    0.7396450000000000    0.7739900000000000 H
   0.3650150000000000    0.9314100000000001    0.7815200000000000 H
   0.2580750000000000    0.9057200000000001    0.8111950000000000 H
   0.2737450000000000    0.0109400000000000    0.7404750000000000 H
   0.3670800000000000    0.7796400000000000    0.8799200000000000 H
   0.2804600000000000    0.8792150000000001    0.8671850000000000 H
   0.3799150000000000    0.8660450000000000    0.7804400000000000 H
   0.3107850000000000    0.7576650000000000    0.9071300000000000 H
   0.2402000000000000    0.7743650000000000    0.0123100000000000 H
   0.2818650000000000    0.8647050000000001    0.9321650000000000 H
   0.1646650000000000    0.7311750000000000    0.3154500000000000 H
   0.1893450000000000    0.8383800000000000    0.2858000000000000 H
   0.0842200000000000    0.8218400000000000    0.3568000000000000 H
   0.2315950000000000    0.8155600000000001    0.1647200000000000 H
   0.3387100000000000    0.7854800000000000    0.1902550000000000 H
   0.3228800000000000    0.8563400000000000    0.0850900000000000 H
   0.3150700000000000    0.6642350000000000    0.2317850000000000 H
   0.2859000000000000    0.6902300000000000    0.3384400000000000 H
   0.3560900000000000    0.5845750000000000    0.3228400000000000 H
   0.3164400000000000    0.7296850000000000    0.2169150000000000 H
   0.2296750000000000    0.7167550000000000    0.3162850000000000 H
   0.2167250000000000    0.8162350000000000    0.2299050000000000 H
   0.4322550000000000    0.2802000000000000    0.3652100000000000 H
   0.4069850000000000    0.3103500000000000    0.2581000000000000 H
   0.5124600000000000    0.2396450000000000    0.2739900000000000 H
   0.3650150000000000    0.4314100000000000    0.2815200000000000 H
   0.2580750000000000    0.4057200000000000    0.3111950000000000 H
   0.2737450000000000    0.5109399999999999    0.2404750000000000 H
   0.3670800000000000    0.2796400000000000    0.3799200000000000 H
   0.2804600000000000    0.3792150000000000    0.3671850000000000 H
   0.3799150000000000    0.3660450000000000    0.2804400000000000 H
   0.3107850000000000    0.2576650000000000    0.4071300000000000 H
   0.2402000000000000    0.2743650000000000    0.5123100000000000 H
   0.2818650000000000    0.3647050000000000    0.4321650000000000 H
   0.7902174372152478    0.3779912006739137    0.0602563305751162 H
   0.7081012320523615    0.3401846047888495    0.1310317056498321 H
   0.7521673945979876    0.3567581218587432    0.1002569001677450 H
   0.8777936520737107    0.0596621901668044    0.2900479038566176 H
   0.8386831404979571    0.1302710709724811    0.2086754507597126 H
   0.8559302394522210    0.0995234182607140    0.2524302023166914 H
   0.9322550000000001    0.7802000000000000    0.3652100000000000 H
   0.9069849999999999    0.8103500000000000    0.2581000000000000 H
   0.0124600000000000    0.7396450000000000    0.2739900000000000 H
   0.8650150000000000    0.9314100000000001    0.2815200000000000 H
   0.7580750000000001    0.9057200000000001    0.3111950000000000 H
   0.7737450000000000    0.0109400000000000    0.2404750000000000 H
   0.8670800000000001    0.7796400000000000    0.3799200000000000 H
   0.7804599999999999    0.8792150000000001    0.3671850000000000 H
   0.8799150000000000    0.8660450000000000    0.2804400000000000 H
   0.8107850000000000    0.7576650000000000    0.4071300000000000 H
   0.7402000000000000    0.7743650000000000    0.5123100000000000 H
   0.7818650000000000    0.8647050000000001    0.4321650000000000 H
   0.6646650000000001    0.7311750000000000    0.8154500000000000 H
   0.6893450000000000    0.8383800000000000    0.7858000000000001 H
   0.5842200000000000    0.8218400000000000    0.8568000000000000 H
   0.7315950000000000    0.8155600000000001    0.6647200000000000 H
   0.8387100000000001    0.7854800000000000    0.6902550000000001 H
   0.8228800000000001    0.8563400000000000    0.5850900000000000 H
   0.8150700000000000    0.6642350000000000    0.7317850000000000 H
   0.7859000000000000    0.6902300000000000    0.8384400000000001 H
   0.8560900000000000    0.5845750000000000    0.8228400000000000 H
   0.8164400000000001    0.7296850000000000    0.7169150000000000 H
   0.7296750000000000    0.7167550000000000    0.8162849999999999 H
   0.7167250000000001    0.8162350000000000    0.7299050000000000 H
   0.9322550000000001    0.2802000000000000    0.8652100000000000 H
   0.9069849999999999    0.3103500000000000    0.7581000000000000 H
   0.0124600000000000    0.2396450000000000    0.7739900000000000 H
   0.8650150000000000    0.4314100000000000    0.7815200000000000 H
   0.7580750000000001    0.4057200000000000    0.8111950000000000 H
   0.7737450000000000    0.5109399999999999    0.7404750000000000 H
   0.8670800000000001    0.2796400000000000    0.8799200000000000 H
   0.7804599999999999    0.3792150000000000    0.8671850000000000 H
   0.8799150000000000    0.3660450000000000    0.7804400000000000 H
   0.8107850000000000    0.2576650000000000    0.9071300000000000 H
   0.7402000000000000    0.2743650000000000    0.0123100000000000 H
   0.7818650000000000    0.3647050000000000    0.9321650000000000 H
   0.8682967328628463    0.3542997647607587    0.0804817280276545 H
   0.8815329510190113    0.2914695109651384    0.1713198713616554 H
   0.8670568726390890    0.3229749229443858    0.1284082720747679 H
   0.1148450000000000    0.5304800000000000    0.6823049999999999 H
   0.0077250000000000    0.5604400000000000    0.6568200000000000 H
   0.0236100000000000    0.4896700000000000    0.7620000000000000 H
   0.0605650000000000    0.6557900000000000    0.5085900000000000 H
   0.9903299999999999    0.7614050000000000    0.5242900000000000 H
   0.0313950000000000    0.6816850000000000    0.6152500000000000 H
   0.1817550000000000    0.6148000000000000    0.5316900000000000 H
   0.1571650000000000    0.5075700000000000    0.5611400000000000 H
   0.2622950000000000    0.5242250000000001    0.4902800000000000 H
   0.1297200000000000    0.5297150000000000    0.6171500000000000 H
   0.1167800000000000    0.6291900000000000    0.5307650000000000 H
   0.0300000000000000    0.6162650000000000    0.6301200000000000 H
   0.9142550000000000    0.0657250000000000    0.4818550000000000 H
   0.9396000000000000    0.0355800000000000    0.5888800000000000 H
   0.8340900000000000    0.1062500000000000    0.5731050000000000 H
   0.9815000000000000    0.9144749999999999    0.5655150000000000 H
   0.0884050000000000    0.9402349999999999    0.5358300000000000 H
   0.0728050000000000    0.8349900000000000    0.6065400000000000 H
   0.9794550000000000    0.0662850000000000    0.4671350000000000 H
   0.0660650000000000    0.9667049999999999    0.4798650000000000 H
   0.9665900000000001    0.9798650000000000    0.5665800000000000 H
   0.0647500000000000    0.9812300000000000    0.4148800000000000 H
   0.0356800000000000    0.0882700000000000    0.4399600000000000 H
   0.1063600000000000    0.0716400000000000    0.3347850000000000 H
   0.1148450000000000    0.0304800000000000    0.1823050000000000 H
   0.0077250000000000    0.0604400000000000    0.1568200000000000 H
   0.0236100000000000    0.9896700000000000    0.2620000000000000 H
   0.0605650000000000    0.1557900000000000    0.0085900000000000 H
   0.9903299999999999    0.2614050000000000    0.0242900000000000 H
   0.0313950000000000    0.1816850000000000    0.1152500000000000 H
   0.1817550000000000    0.1148000000000000    0.0316900000000000 H
   0.1571650000000000    0.0075700000000000    0.0611400000000000 H
   0.2622950000000000    0.0242250000000000    0.9902800000000000 H
   0.1297200000000000    0.0297150000000000    0.1171500000000000 H
   0.1167800000000000    0.1291900000000000    0.0307650000000000 H
   0.0300000000000000    0.1162650000000000    0.1301200000000000 H
   0.9142550000000000    0.5657250000000000    0.9818549999999999 H
   0.9396000000000000    0.5355799999999999    0.0888800000000000 H
   0.8340900000000000    0.6062500000000000    0.0731050000000000 H
   0.9815000000000000    0.4144750000000000    0.0655150000000000 H
   0.0884050000000000    0.4402350000000000    0.0358300000000000 H
   0.0728050000000000    0.3349900000000000    0.1065400000000000 H
   0.9794550000000000    0.5662850000000000    0.9671350000000001 H
   0.0660650000000000    0.4667050000000000    0.9798650000000000 H
   0.9665900000000001    0.4798650000000000    0.0665800000000000 H
   0.0647500000000000    0.4812300000000000    0.9148800000000000 H