H3 C8 N1 O6
1.0
  30.2699999585065385    0.0000000000000000   -0.0015849334930126
  -0.0265506405016959   28.7039776477945274    0.0240470039947880
   0.0000000000000000    0.0000000000000000   21.1060000000000016
H C N O
3 8 1 6
direct
   0.8751200000000000    0.1685200000000000    0.9073400000000000 H
   0.8750100000000001    0.0326950000000000    0.8199000000000000 H
   0.8748400000000001    0.0701500000000000    0.7139900000000000 H
   0.8749250000000000    0.1400200000000000    0.7495300000000000 C
   0.8750300000000000    0.1669100000000000    0.8050000000000000 C
   0.8750700000000000    0.1469900000000000    0.8649100000000000 C
   0.8750200000000000    0.0983000000000000    0.8708600000000000 C
   0.8749899999999999    0.0705400000000000    0.8162000000000000 C
   0.8749000000000000    0.0914350000000000    0.7566100000000000 C
   0.8749600000000000    0.1605550000000000    0.6839900000000000 C
   0.8749800000000000    0.0776150000000000    0.9360500000000000 C
   0.8750150000000000    0.2185000000000000    0.8031500000000000 N
   0.9114350000000000    0.2381550000000000    0.8056300000000000 O
   0.8385250000000000    0.2380300000000000    0.8028999999999999 O
   0.8759700000000000    0.2049750000000000    0.6780100000000000 O
   0.8740300000000000    0.1330600000000000    0.6370000000000000 O
   0.8758600000000001    0.0333500000000000    0.9438500000000000 O
   0.8741700000000000    0.1053800000000000   -0.0168700000000001 O
