H4 C4 N2
1.0
  30.2699999585065385    0.0000000000000000   -0.0015849334930126
  -0.0265506405016959   28.7039776477945274    0.0240470039947880
   0.0000000000000000    0.0000000000000000   21.1060000000000016
H C N
4 4 2
direct
   0.7077500000000000    0.3897600000000000    0.9842300000000000 H
   0.7922400000000001    0.3899700000000000    0.9838700000000000 H
   0.7074850000000000    0.5154050000000000    0.8865300000000000 H
   0.7917100000000000    0.5156450000000000    0.8862100000000001 H
   0.7266850000000000    0.4876900000000000    0.9086500000000000 C
   0.7268900000000000    0.4178950000000000    0.9628300000000000 C
   0.7727100000000000    0.4878100000000000    0.9084900000000000 C
   0.7729100000000000    0.4179950000000000    0.9626300000000000 C
   0.7039750000000000    0.4530050000000000    0.9364600000000000 N
   0.7956300000000001    0.4532400000000000    0.9361000000000000 N
