Cd32 H227 C376 N95 O190
1.0
  30.2699999585065385    0.0000000000000000   -0.0015849334930126
  -0.0265506405016959   28.7039776477945274    0.0240470039947880
   0.0000000000000000    0.0000000000000000   21.1060000000000016
Cd H C N O
32 227 376 95 190
direct
   0.8749700000000000    0.0506000000000000    0.0659300000000000 Cd
   0.8747900000000000    0.3011450000000000    0.4340400000000000 Cd
   0.8747900000000000    0.8011450000000000    0.4340400000000000 Cd
   0.8749700000000000    0.5506000000000000    0.0659300000000000 Cd
   0.8751949999999999    0.1988550000000000    0.5659700000000000 Cd
   0.8751949999999999    0.6988550000000000    0.5659700000000000 Cd
   0.8747800000000000    0.9494199999999999    0.9340800000000000 Cd
   0.8747800000000000    0.4494200000000000    0.9340800000000000 Cd
   0.6251949999999999    0.6988650000000000    0.5659600000000000 Cd
   0.6251949999999999    0.1988650000000000    0.5659600000000000 Cd
   0.6247850000000000    0.9493950000000000    0.9340900000000000 Cd
   0.6247850000000000    0.4493950000000000    0.9340900000000000 Cd
   0.6247950000000000    0.3011450000000000    0.4340500000000000 Cd
   0.6247950000000000    0.8011450000000000    0.4340500000000000 Cd
   0.6250050000000000    0.0506050000000000    0.0659200000000000 Cd
   0.6250050000000000    0.5506050000000000    0.0659200000000000 Cd
   0.3747900000000000    0.3011450000000000    0.4340400000000000 Cd
   0.3747900000000000    0.8011450000000000    0.4340400000000000 Cd
   0.3749700000000000    0.0506000000000000    0.0659300000000000 Cd
   0.3749700000000000    0.5506000000000000    0.0659300000000000 Cd
   0.3751950000000000    0.1988550000000000    0.5659700000000000 Cd
   0.3751950000000000    0.6988550000000000    0.5659700000000000 Cd
   0.3747800000000000    0.9494199999999999    0.9340800000000000 Cd
   0.3747800000000000    0.4494200000000000    0.9340800000000000 Cd
   0.1251950000000000    0.6988650000000000    0.5659600000000000 Cd
   0.1251950000000000    0.1988650000000000    0.5659600000000000 Cd
   0.1247850000000000    0.9493950000000000    0.9340900000000000 Cd
   0.1247850000000000    0.4493950000000000    0.9340900000000000 Cd
   0.1247950000000000    0.3011450000000000    0.4340500000000000 Cd
   0.1247950000000000    0.8011450000000000    0.4340500000000000 Cd
   0.1250050000000000    0.5506050000000000    0.0659200000000000 Cd
   0.1250050000000000    0.0506050000000000    0.0659200000000000 Cd
   0.7080550000000000    0.6398750000000000    0.5145100000000000 H
   0.7079600000000000    0.7646450000000000    0.6139400000000000 H
   0.7925350000000000    0.6399300000000000    0.5149100000000000 H
   0.7922050000000000    0.7648050000000000    0.6141799999999999 H
   0.7080550000000000    0.1398750000000000    0.5145100000000000 H
   0.7079600000000000    0.2646450000000000    0.6139400000000000 H
   0.7925350000000000    0.1399300000000000    0.5149100000000000 H
   0.7922050000000000    0.2648050000000000    0.6141799999999999 H
   0.0421650000000000    0.1102050000000000    0.0157400000000000 H
   0.0422000000000000    0.9846050000000000    0.1135000000000000 H
   0.9576700000000000    0.1101550000000000    0.0160000000000000 H
   0.9579599999999999    0.9844450000000000    0.1136700000000000 H
   0.0421650000000000    0.6102050000000000    0.0157400000000000 H
   0.0422000000000000    0.4846050000000000    0.1135000000000000 H
   0.9576700000000000    0.6101550000000000    0.0160000000000000 H
   0.9579599999999999    0.4844450000000000    0.1136700000000000 H
   0.0420400000000000    0.7353499999999999    0.3860000000000000 H
   0.0419350000000000    0.8601400000000000    0.4854700000000000 H
   0.9574400000000001    0.8600800000000000    0.4850600000000000 H
   0.9577750000000000    0.7351900000000000    0.3858300000000000 H
   0.0420400000000000    0.2353500000000000    0.3860000000000000 H
   0.0419350000000000    0.3601400000000000    0.4854700000000000 H
   0.9574400000000001    0.3600800000000000    0.4850600000000000 H
   0.9577750000000000    0.2351900000000000    0.3858300000000000 H
   0.5425450000000001    0.6399300000000000    0.5149600000000000 H
   0.5422100000000000    0.7648250000000000    0.6141799999999999 H
   0.4580500000000000    0.6398699999999999    0.5145600000000000 H
   0.4579450000000000    0.7646600000000000    0.6139300000000000 H
   0.5425450000000001    0.1399300000000000    0.5149600000000000 H
   0.5422100000000000    0.2648250000000000    0.6141799999999999 H
   0.4580500000000000    0.1398700000000000    0.5145600000000000 H
   0.4579450000000000    0.2646600000000000    0.6139300000000000 H
   0.7919300000000000    0.8601350000000000    0.4854900000000000 H
   0.7920300000000000    0.7353600000000000    0.3860700000000000 H
   0.7074500000000000    0.8600749999999999    0.4850900000000000 H
   0.7077800000000000    0.7351950000000000    0.3858200000000000 H
   0.7919300000000000    0.3601350000000000    0.4854900000000000 H
   0.7920300000000000    0.2353600000000000    0.3860700000000000 H
   0.7074500000000000    0.3600750000000000    0.4850900000000000 H
   0.7077800000000000    0.2351950000000000    0.3858200000000000 H
   0.7077500000000000    0.8897600000000000    0.9842300000000000 H
   0.7074850000000000    0.0154050000000000    0.8865300000000000 H
   0.7922400000000001    0.8899699999999999    0.9838700000000000 H
   0.7917100000000000    0.0156450000000000    0.8862100000000001 H
   0.7077500000000000    0.3897600000000000    0.9842300000000000 H
   0.7074850000000000    0.5154050000000000    0.8865300000000000 H
   0.7922400000000001    0.3899700000000000    0.9838700000000000 H
   0.7917100000000000    0.5156450000000000    0.8862100000000001 H
   0.8749454475232672    0.1591100511386514   -0.0183692236578491 H
   0.8739300846784418    0.1383707401441718   -0.0069589371190317 H
   0.8763475693257521    0.0671332335783571    0.9429073501802815 H
   0.8749800000000000    0.9180650000000000    0.5925300000000000 H
   0.8749600000000000    0.8207750000000000    0.7871100000000000 H
   0.8751400000000000    0.7827350000000000    0.6815700000000000 H
   0.8751200000000000    0.6685200000000000    0.9073400000000000 H
   0.8748400000000001    0.5701500000000000    0.7139900000000000 H
   0.8750100000000001    0.5326950000000000    0.8199000000000000 H
   0.8766980922146512    0.2275210342244067    0.7122037739932607 H
   0.8732373643473228    0.0993001843393472    0.6387637694946751 H
   0.8749514893737033    0.1615947522454906    0.6802763855285805 H
   0.8749800000000000    0.4180650000000000    0.5925300000000000 H
   0.8749600000000000    0.3207750000000000    0.7871100000000000 H
   0.8751400000000000    0.2827350000000000    0.6815700000000000 H
   0.8749800000000000    0.0819400000000000    0.4074000000000000 H
   0.8750350000000000    0.1792300000000000    0.2129000000000000 H
   0.8748400000000001    0.2172700000000000    0.3184400000000000 H
   0.8752249999999999    0.9298450000000000    0.2860300000000000 H
   0.8748500000000000    0.9673050000000001    0.1800000000000000 H
   0.8743700000000000    0.8314850000000000    0.0926700000000000 H
   0.8749800000000000    0.5819400000000000    0.4074000000000000 H
   0.8750350000000000    0.6792300000000000    0.2129000000000000 H
   0.8748400000000001    0.7172700000000000    0.3184400000000000 H
   0.8752249999999999    0.4298450000000000    0.2860300000000000 H
   0.8748500000000000    0.4673050000000000    0.1800000000000000 H
   0.8743700000000000    0.3314850000000000    0.0926700000000000 H
   0.4574900000000000    0.0154200000000000    0.8865400000000000 H
   0.4577250000000000    0.8897550000000001    0.9841900000000000 H
   0.5422300000000000    0.8899500000000000    0.9838400000000000 H
   0.5417300000000000    0.0156450000000000    0.8862400000000000 H
   0.4574900000000000    0.5154200000000000    0.8865400000000000 H
   0.4577250000000000    0.3897550000000000    0.9841900000000000 H
   0.5422300000000000    0.3899500000000000    0.9838400000000000 H
   0.5417300000000000    0.5156450000000000    0.8862400000000000 H
   0.7076650000000000    0.6100900000000000    0.0161900000000000 H
   0.7079600000000000    0.4843500000000000    0.1137200000000000 H
   0.7921849999999999    0.4845200000000000    0.1136000000000000 H
   0.7921650000000000    0.6101450000000000    0.0158800000000000 H
   0.7076650000000000    0.1100900000000000    0.0161900000000000 H
   0.7079600000000000    0.9843500000000001    0.1137200000000000 H
   0.7921849999999999    0.9845200000000001    0.1136000000000000 H
   0.7921650000000000    0.1101450000000000    0.0158800000000000 H
   0.6243600000000000    0.3314850000000000    0.0926900000000000 H
   0.6252350000000000    0.4298450000000000    0.2860000000000000 H
   0.6248549999999999    0.4673050000000000    0.1801000000000000 H
   0.6249650000000000    0.5819400000000000    0.4074800000000000 H
   0.6250300000000000    0.6792400000000001    0.2129100000000000 H
   0.6248549999999999    0.7172750000000000    0.3184500000000000 H
   0.6243600000000000    0.8314850000000000    0.0926900000000000 H
   0.6252350000000000    0.9298450000000000    0.2860000000000000 H
   0.6248549999999999    0.9673050000000001    0.1801000000000000 H
   0.6249650000000000    0.0819400000000000    0.4074800000000000 H
   0.6250300000000000    0.1792400000000000    0.2129100000000000 H
   0.6248549999999999    0.2172750000000000    0.3184500000000000 H
   0.6254000000000000    0.6684950000000001    0.9073300000000000 H
   0.6248000000000000    0.5701650000000000    0.7139500000000000 H
   0.6250750000000000    0.5326900000000000    0.8198900000000000 H
   0.6250300000000000    0.4180650000000000    0.5925300000000000 H
   0.6249900000000000    0.3207700000000000    0.7871100000000000 H
   0.6251599999999999    0.2827300000000000    0.6815600000000001 H
   0.6254000000000000    0.1684950000000000    0.9073300000000000 H
   0.6248000000000000    0.0701650000000000    0.7139500000000000 H
   0.6250750000000000    0.0326900000000000    0.8198900000000000 H
   0.6250300000000000    0.9180650000000000    0.5925300000000000 H
   0.6249900000000000    0.8207700000000000    0.7871100000000000 H
   0.6251599999999999    0.7827299999999999    0.6815600000000001 H
   0.2080550000000000    0.6398750000000000    0.5145100000000000 H
   0.2079600000000000    0.7646450000000000    0.6139400000000000 H
   0.2925350000000000    0.6399300000000000    0.5149100000000000 H
   0.2922050000000000    0.7648050000000000    0.6141799999999999 H
   0.2080550000000000    0.1398750000000000    0.5145100000000000 H
   0.2079600000000000    0.2646450000000000    0.6139400000000000 H
   0.2925350000000000    0.1399300000000000    0.5149100000000000 H
   0.2922050000000000    0.2648050000000000    0.6141799999999999 H
   0.5421650000000000    0.6102050000000000    0.0157400000000000 H
   0.5422000000000000    0.4846050000000000    0.1135000000000000 H
   0.4576700000000000    0.6101550000000000    0.0160000000000000 H
   0.4579600000000000    0.4844450000000000    0.1136700000000000 H
   0.5421650000000000    0.1102050000000000    0.0157400000000000 H
   0.5422000000000000    0.9846050000000000    0.1135000000000000 H
   0.4576700000000000    0.1101550000000000    0.0160000000000000 H
   0.4579600000000000    0.9844450000000000    0.1136700000000000 H
   0.0425450000000000    0.6399300000000000    0.5149600000000000 H
   0.0422100000000000    0.7648250000000000    0.6141799999999999 H
   0.9580500000000001    0.6398699999999999    0.5145600000000000 H
   0.9579450000000000    0.7646600000000000    0.6139300000000000 H
   0.0425450000000000    0.1399300000000000    0.5149600000000000 H
   0.0422100000000000    0.2648250000000000    0.6141799999999999 H
   0.9580500000000001    0.1398700000000000    0.5145600000000000 H
   0.9579450000000000    0.2646600000000000    0.6139300000000000 H
   0.5420400000000000    0.7353499999999999    0.3860000000000000 H
   0.5419350000000001    0.8601400000000000    0.4854700000000000 H
   0.4574400000000000    0.8600800000000000    0.4850600000000000 H
   0.4577750000000000    0.7351900000000000    0.3858300000000000 H
   0.5420400000000000    0.2353500000000000    0.3860000000000000 H
   0.5419350000000001    0.3601400000000000    0.4854700000000000 H
   0.4574400000000000    0.3600800000000000    0.4850600000000000 H
   0.4577750000000000    0.2351900000000000    0.3858300000000000 H
   0.2919300000000000    0.8601350000000000    0.4854900000000000 H
   0.2920300000000000    0.7353600000000000    0.3860700000000000 H
   0.2074500000000000    0.8600749999999999    0.4850900000000000 H
   0.2077800000000000    0.7351950000000000    0.3858200000000000 H
   0.2919300000000000    0.3601350000000000    0.4854900000000000 H
   0.2920300000000000    0.2353600000000000    0.3860700000000000 H
   0.2074500000000000    0.3600750000000000    0.4850900000000000 H
   0.2077800000000000    0.2351950000000000    0.3858200000000000 H
   0.2077500000000000    0.8897600000000000    0.9842300000000000 H
   0.2074850000000000    0.0154050000000000    0.8865300000000000 H
   0.2922400000000000    0.8899699999999999    0.9838700000000000 H
   0.2917100000000000    0.0156450000000000    0.8862100000000001 H
   0.2077500000000000    0.3897600000000000    0.9842300000000000 H
   0.2074850000000000    0.5154050000000000    0.8865300000000000 H
   0.2922400000000000    0.3899700000000000    0.9838700000000000 H
   0.2917100000000000    0.5156450000000000    0.8862100000000001 H
   0.3749800000000000    0.9180650000000000    0.5925300000000000 H
   0.3749600000000000    0.8207750000000000    0.7871100000000000 H
   0.3751400000000000    0.7827350000000000    0.6815700000000000 H
   0.3751200000000000    0.1685200000000000    0.9073400000000000 H
   0.3748400000000000    0.0701500000000000    0.7139900000000000 H
   0.3750100000000000    0.0326950000000000    0.8199000000000000 H
   0.3749800000000000    0.4180650000000000    0.5925300000000000 H
   0.3749600000000000    0.3207750000000000    0.7871100000000000 H
   0.3751400000000000    0.2827350000000000    0.6815700000000000 H
   0.3751200000000000    0.6685200000000000    0.9073400000000000 H
   0.3748400000000000    0.5701500000000000    0.7139900000000000 H
   0.3750100000000000    0.5326950000000000    0.8199000000000000 H
   0.3749800000000000    0.0819400000000000    0.4074000000000000 H
   0.3750350000000000    0.1792300000000000    0.2129000000000000 H
   0.3748400000000000    0.2172700000000000    0.3184400000000000 H
   0.3752250000000000    0.9298450000000000    0.2860300000000000 H
   0.3748500000000000    0.9673050000000001    0.1800000000000000 H
   0.3743700000000000    0.8314850000000000    0.0926700000000000 H
   0.3749800000000000    0.5819400000000000    0.4074000000000000 H
   0.3750350000000000    0.6792300000000000    0.2129000000000000 H
   0.3748400000000000    0.7172700000000000    0.3184400000000000 H
   0.3752250000000000    0.4298450000000000    0.2860300000000000 H
   0.3748500000000000    0.4673050000000000    0.1800000000000000 H
   0.3743700000000000    0.3314850000000000    0.0926700000000000 H
   0.9574900000000000    0.0154200000000000    0.8865400000000000 H
   0.9577249999999999    0.8897550000000001    0.9841900000000000 H
   0.0422300000000000    0.8899500000000000    0.9838400000000000 H
   0.0417300000000000    0.0156450000000000    0.8862400000000000 H
   0.9574900000000000    0.5154200000000000    0.8865400000000000 H
   0.9577249999999999    0.3897550000000000    0.9841900000000000 H
   0.0422300000000000    0.3899500000000000    0.9838400000000000 H
   0.0417300000000000    0.5156450000000000    0.8862400000000000 H
   0.2076650000000000    0.1100900000000000    0.0161900000000000 H
   0.2079600000000000    0.9843500000000001    0.1137200000000000 H
   0.2921850000000000    0.9845200000000001    0.1136000000000000 H
   0.2921650000000000    0.1101450000000000    0.0158800000000000 H
   0.2076650000000000    0.6100900000000000    0.0161900000000000 H
   0.2079600000000000    0.4843500000000000    0.1137200000000000 H
   0.2921850000000000    0.4845200000000000    0.1136000000000000 H
   0.2921650000000000    0.6101450000000000    0.0158800000000000 H
   0.1243600000000000    0.3314850000000000    0.0926900000000000 H
   0.1252350000000000    0.4298450000000000    0.2860000000000000 H
   0.1248550000000000    0.4673050000000000    0.1801000000000000 H
   0.1249650000000000    0.5819400000000000    0.4074800000000000 H
   0.1250300000000000    0.6792400000000001    0.2129100000000000 H
   0.1248550000000000    0.7172750000000000    0.3184500000000000 H
   0.1243600000000000    0.8314850000000000    0.0926900000000000 H
   0.1252350000000000    0.9298450000000000    0.2860000000000000 H
   0.1248550000000000    0.9673050000000001    0.1801000000000000 H
   0.1249650000000000    0.0819400000000000    0.4074800000000000 H
   0.1250300000000000    0.1792400000000000    0.2129100000000000 H
   0.1248550000000000    0.2172750000000000    0.3184500000000000 H
   0.1254000000000000    0.6684950000000001    0.9073300000000000 H
   0.1248000000000000    0.5701650000000000    0.7139500000000000 H
   0.1250750000000000    0.5326900000000000    0.8198900000000000 H
   0.1250300000000000    0.4180650000000000    0.5925300000000000 H
   0.1249900000000000    0.3207700000000000    0.7871100000000000 H
   0.1251600000000000    0.2827300000000000    0.6815600000000001 H
   0.1254000000000000    0.1684950000000000    0.9073300000000000 H
   0.1248000000000000    0.0701650000000000    0.7139500000000000 H
   0.1250750000000000    0.0326900000000000    0.8198900000000000 H
   0.1250300000000000    0.9180650000000000    0.5925300000000000 H
   0.1249900000000000    0.8207700000000000    0.7871100000000000 H
   0.1251600000000000    0.7827299999999999    0.6815600000000001 H
   0.7272500000000000    0.6677700000000000    0.5363200000000000 C
   0.7271350000000000    0.7371050000000000    0.5914400000000000 C
   0.7732700000000000    0.6678250000000000    0.5365000000000000 C
   0.7731600000000001    0.7371799999999999    0.5915600000000000 C
   0.7272500000000000    0.1677700000000000    0.5363200000000000 C
   0.7271350000000000    0.2371050000000000    0.5914400000000000 C
   0.7732700000000000    0.1678250000000000    0.5365000000000000 C
   0.7731600000000001    0.2371800000000000    0.5915600000000000 C
   0.0229600000000000    0.0821200000000000    0.0371600000000000 C
   0.0230450000000000    0.0123350000000000    0.0913500000000000 C
   0.9769200000000000    0.0820700000000000    0.0373000000000000 C
   0.9770050000000000    0.0122600000000000    0.0914400000000000 C
   0.0229600000000000    0.5821200000000000    0.0371600000000000 C
   0.0230450000000000    0.5123350000000000    0.0913500000000000 C
   0.9769200000000000    0.5820700000000000    0.0373000000000000 C
   0.9770050000000000    0.5122600000000000    0.0914400000000000 C
   0.0228600000000000    0.7628950000000000    0.4085700000000000 C
   0.0227400000000000    0.8322400000000000    0.4636000000000000 C
   0.9767049999999999    0.8321799999999999    0.4634800000000000 C
   0.9768200000000000    0.7628150000000000    0.4084500000000000 C
   0.0228600000000000    0.2628950000000000    0.4085700000000000 C
   0.0227400000000000    0.3322400000000000    0.4636000000000000 C
   0.9767049999999999    0.3321800000000000    0.4634800000000000 C
   0.9768200000000000    0.2628150000000000    0.4084500000000000 C
   0.5232800000000000    0.6678300000000000    0.5365400000000000 C
   0.5231650000000000    0.7371950000000000    0.5915700000000000 C
   0.4772450000000000    0.6677700000000000    0.5363500000000000 C
   0.4771250000000000    0.7371200000000000    0.5914400000000000 C
   0.5232800000000000    0.1678300000000000    0.5365400000000000 C
   0.5231650000000000    0.2371950000000000    0.5915700000000000 C
   0.4772450000000000    0.1677700000000000    0.5363500000000000 C
   0.4771250000000000    0.2371200000000000    0.5914400000000000 C
   0.7727349999999999    0.8322350000000001    0.4636800000000000 C
   0.7728500000000000    0.7629000000000000    0.4085700000000000 C
   0.7267150000000000    0.8321750000000000    0.4635000000000000 C
   0.7268250000000001    0.7628200000000001    0.4084500000000000 C
   0.7727349999999999    0.3322350000000000    0.4636800000000000 C
   0.7728500000000000    0.2629000000000000    0.4085700000000000 C
   0.7267150000000000    0.3321750000000000    0.4635000000000000 C
   0.7268250000000001    0.2628200000000000    0.4084500000000000 C
   0.7268900000000000    0.9178950000000000    0.9628300000000000 C
   0.7266850000000000    0.9876900000000000    0.9086500000000000 C
   0.7729100000000000    0.9179950000000000    0.9626300000000000 C
   0.7727100000000000    0.9878100000000001    0.9084900000000000 C
   0.7268900000000000    0.4178950000000000    0.9628300000000000 C
   0.7266850000000000    0.4876900000000000    0.9086500000000000 C
   0.7729100000000000    0.4179950000000000    0.9626300000000000 C
   0.7727100000000000    0.4878100000000000    0.9084900000000000 C
   0.8749450000000000    0.9113000000000000    0.8159999999999999 C
   0.8750249999999999    0.8268550000000000    0.5650900000000000 C
   0.8750350000000000    0.8967750000000000    0.6352300000000000 C
   0.8750899999999999    0.9170250000000000    0.6948900000000000 C
   0.8750249999999999    0.8418200000000000    0.7442000000000000 C
   0.8750950000000000    0.8206000000000000    0.6849100000000000 C
   0.8750550000000000    0.8480650000000001    0.6299200000000000 C
   0.8750350000000000    0.8904500000000000    0.7507000000000000 C
   0.8749600000000000    0.6605550000000000    0.6839900000000000 C
   0.8749800000000000    0.5776150000000000    0.9360500000000000 C
   0.8750700000000000    0.6469900000000000    0.8649100000000000 C
   0.8750300000000000    0.6669100000000000    0.8050000000000000 C
   0.8749000000000000    0.5914350000000000    0.7566100000000000 C
   0.8749899999999999    0.5705400000000000    0.8162000000000000 C
   0.8749250000000000    0.6400200000000000    0.7495300000000000 C
   0.8750200000000000    0.5983000000000001    0.8708600000000000 C
   0.8749450000000000    0.4113000000000000    0.8159999999999999 C
   0.8750249999999999    0.3268550000000000    0.5650900000000000 C
   0.8750350000000000    0.3967750000000000    0.6352300000000000 C
   0.8750899999999999    0.4170250000000000    0.6948900000000000 C
   0.8750249999999999    0.3418200000000000    0.7442000000000000 C
   0.8750950000000000    0.3206000000000000    0.6849100000000000 C
   0.8750550000000000    0.3480650000000000    0.6299200000000000 C
   0.8750350000000000    0.3904500000000000    0.7507000000000000 C
   0.8750400000000000    0.0887100000000000    0.1840100000000000 C
   0.8749549999999999    0.1731500000000000    0.4349200000000000 C
   0.8749350000000000    0.1032300000000000    0.3647800000000000 C
   0.8749000000000000    0.0829800000000000    0.3051200000000000 C
   0.8749750000000001    0.1581900000000000    0.2557800000000000 C
   0.8748850000000000    0.1794050000000000    0.3151100000000000 C
   0.8749199999999999    0.1519400000000000    0.3700900000000000 C
   0.8749650000000000    0.1095600000000000    0.2493100000000000 C
   0.8750500000000000    0.8394450000000000    0.3160200000000000 C
   0.8743750000000000    0.9223900000000000    0.0639700000000000 C
   0.8750650000000000    0.9085650000000001    0.2434100000000000 C
   0.8748500000000000    0.9294600000000000    0.1838000000000000 C
   0.8745700000000001    0.8530100000000000    0.1351100000000000 C
   0.8748150000000000    0.8330850000000001    0.1950100000000000 C
   0.8750450000000001    0.8599800000000000    0.2504000000000000 C
   0.8746000000000000    0.9016999999999999    0.1291600000000000 C
   0.8750400000000000    0.5887100000000000    0.1840100000000000 C
   0.8749549999999999    0.6731500000000000    0.4349200000000000 C
   0.8749350000000000    0.6032300000000000    0.3647800000000000 C
   0.8749000000000000    0.5829800000000001    0.3051200000000000 C
   0.8749750000000001    0.6581900000000001    0.2557800000000000 C
   0.8748850000000000    0.6794050000000000    0.3151100000000000 C
   0.8749199999999999    0.6519400000000000    0.3700900000000000 C
   0.8749650000000000    0.6095600000000000    0.2493100000000000 C
   0.8750500000000000    0.3394450000000000    0.3160200000000000 C
   0.8743750000000000    0.4223900000000000    0.0639700000000000 C
   0.8750650000000000    0.4085650000000000    0.2434100000000000 C
   0.8748500000000000    0.4294600000000000    0.1838000000000000 C
   0.8745700000000001    0.3530100000000000    0.1351100000000000 C
   0.8748150000000000    0.3330850000000000    0.1950100000000000 C
   0.8750450000000001    0.3599800000000000    0.2504000000000000 C
   0.8746000000000000    0.4017000000000000    0.1291600000000000 C
   0.4766850000000000    0.9877000000000000    0.9086500000000000 C
   0.4768750000000000    0.9178900000000000    0.9620000000000000 C
   0.5229100000000000    0.9179850000000001    0.9626000000000000 C
   0.5227250000000000    0.9878050000000000    0.9084900000000000 C
   0.4766850000000000    0.4877000000000000    0.9086500000000000 C
   0.4768750000000000    0.4178900000000000    0.9620000000000000 C
   0.5229100000000000    0.4179850000000000    0.9626000000000000 C
   0.5227250000000000    0.4878050000000000    0.9084900000000000 C
   0.7269250000000000    0.5820100000000000    0.0374300000000000 C
   0.7270099999999999    0.5121800000000000    0.0915200000000000 C
   0.7730350000000000    0.5122500000000000    0.0914300000000000 C
   0.7729500000000000    0.5820600000000000    0.0372800000000000 C
   0.7269250000000000    0.0820100000000000    0.0374300000000000 C
   0.7270099999999999    0.0121800000000000    0.0915200000000000 C
   0.7730350000000000    0.0122500000000000    0.0914300000000000 C
   0.7729500000000000    0.0820600000000000    0.0372800000000000 C
   0.6250550000000000    0.3394450000000000    0.3160000000000000 C
   0.6243700000000000    0.4223950000000000    0.0639900000000000 C
   0.6245650000000000    0.3530150000000000    0.1351200000000000 C
   0.6248200000000000    0.3330900000000000    0.1950300000000000 C
   0.6250700000000000    0.4085650000000000    0.2434300000000000 C
   0.6248500000000000    0.4294600000000000    0.1838200000000000 C
   0.6245950000000000    0.4017050000000000    0.1291700000000000 C
   0.6250500000000000    0.3599800000000000    0.2505000000000000 C
   0.6250150000000000    0.5887249999999999    0.1840000000000000 C
   0.6249550000000000    0.6731500000000000    0.4349200000000000 C
   0.6249250000000000    0.6032350000000000    0.3647800000000000 C
   0.6248700000000000    0.5829850000000000    0.3051200000000000 C
   0.6249600000000000    0.6581950000000000    0.2557800000000000 C
   0.6248899999999999    0.6794100000000000    0.3151000000000000 C
   0.6249150000000000    0.6519400000000000    0.3700900000000000 C
   0.6249400000000001    0.6095650000000000    0.2493000000000000 C
   0.6250550000000000    0.8394450000000000    0.3160000000000000 C
   0.6243700000000000    0.9223950000000001    0.0639900000000000 C
   0.6245650000000000    0.8530150000000001    0.1351200000000000 C
   0.6248200000000000    0.8330900000000000    0.1950300000000000 C
   0.6250700000000000    0.9085650000000001    0.2434300000000000 C
   0.6248500000000000    0.9294600000000000    0.1838200000000000 C
   0.6245950000000000    0.9017050000000000    0.1291700000000000 C
   0.6250500000000000    0.8599800000000000    0.2505000000000000 C
   0.6250150000000000    0.0887250000000000    0.1840000000000000 C
   0.6249550000000000    0.1731500000000000    0.4349200000000000 C
   0.6249250000000000    0.1032350000000000    0.3647800000000000 C
   0.6248700000000000    0.0829850000000000    0.3051200000000000 C
   0.6249600000000000    0.1581950000000000    0.2557800000000000 C
   0.6248899999999999    0.1794100000000000    0.3151000000000000 C
   0.6249150000000000    0.1519400000000000    0.3700900000000000 C
   0.6249400000000001    0.1095650000000000    0.2493000000000000 C
   0.6249400000000001    0.6605650000000001    0.6839800000000000 C
   0.6252200000000000    0.5775900000000000    0.9360100000000000 C
   0.6252650000000000    0.6469800000000000    0.8648900000000000 C
   0.6251350000000000    0.6669100000000000    0.8049900000000000 C
   0.6249300000000000    0.5914350000000000    0.7565700000000000 C
   0.6250700000000000    0.5705350000000000    0.8161800000000000 C
   0.6252050000000000    0.5982850000000000    0.8708300000000000 C
   0.6249500000000000    0.6400250000000001    0.7495100000000000 C
   0.6249800000000000    0.4112800000000000    0.8160100000000000 C
   0.6250400000000000    0.3268600000000000    0.5650900000000000 C
   0.6250800000000000    0.3967750000000000    0.6352000000000000 C
   0.6251350000000000    0.4170250000000000    0.6940000000000000 C
   0.6250550000000000    0.3418100000000000    0.7442299999999999 C
   0.6251249999999999    0.3205950000000000    0.6849000000000000 C
   0.6250900000000000    0.3480650000000000    0.6299200000000000 C
   0.6250750000000000    0.3904400000000000    0.7507000000000000 C
   0.6249400000000001    0.1605650000000000    0.6839800000000000 C
   0.6252200000000000    0.0775900000000000    0.9360100000000000 C
   0.6252650000000000    0.1469800000000000    0.8648900000000000 C
   0.6251350000000000    0.1669100000000000    0.8049900000000000 C
   0.6249300000000000    0.0914350000000000    0.7565700000000000 C
   0.6250700000000000    0.0705350000000000    0.8161800000000000 C
   0.6252050000000000    0.0982850000000000    0.8708300000000000 C
   0.6249500000000000    0.1400250000000000    0.7495100000000000 C
   0.6249800000000000    0.9112800000000000    0.8160100000000000 C