H6 C12 O4
1.0
  39.5639999939740576    0.0000000000000000    0.0006905220652246
  -0.2073429272002607   26.3991855652317113   -0.0032253684496634
   0.0000000000000000    0.0000000000000000   23.3389999999999986
H C O
6 12 4
direct
   0.0862533333333333    0.4305900000000000    0.6937000000000000 H
   0.0894466666666667    0.4252600000000000    0.9324700000000000 H
   0.0847533333333333    0.3314650000000000    0.9224700000000000 H
   0.0819733333333333    0.3451350000000000    0.7392700000000000 H
   0.0931333333333333    0.5108700000000000    0.8868800000000000 H
   0.0908233333333333    0.5244950000000000    0.7038100000000000 H
   0.0823933333333333    0.2764350000000000    0.8245400000000001 C
   0.0914000000000000    0.4928150000000000    0.8449600000000000 C
   0.0886733333333333    0.4394700000000000    0.8409600000000000 C
   0.0864600000000000    0.4165100000000000    0.7852100000000000 C
   0.0874800000000000    0.4482000000000000    0.7359800000000000 C
   0.0878866666666667    0.4077500000000000    0.8901000000000000 C
   0.0853233333333333    0.3559400000000000    0.8849300000000000 C
   0.0833133333333333    0.3331000000000000    0.8298700000000000 C
   0.0836033333333333    0.3631700000000000    0.7812200000000000 C
   0.0933400000000000    0.5795399999999999    0.8017800000000000 C
   0.0918166666666667    0.5228900000000000    0.7963700000000000 C
   0.0900333333333333    0.5000000000000000    0.7413300000000000 C
   0.0859433333333333    0.2513300000000000    0.8706800000000000 O
   0.0787200000000000    0.2579100000000000    0.7745300000000001 O
   0.0958833333333333    0.5978700000000000    0.8520799999999999 O
   0.0916466666666667    0.6048249999999999    0.7553299999999999 O
