H16 C32 N4 O4
1.0
  39.5639999939740576    0.0000000000000000    0.0006905220652246
  -0.2073429272002607   26.3991855652317113   -0.0032253684496634
   0.0000000000000000    0.0000000000000000   23.3389999999999986
H C N O
16 32 4 4
direct
   0.7314100000000000    0.5965549999999999    0.9448299999999999 H
   0.7244066666666666    0.5712400000000000    0.0478200000000000 H
   0.7487533333333333    0.6270600000000000    0.1240300000000000 H
   0.7955333333333333    0.7424750000000000    0.9403000000000000 H
   0.8209633333333333    0.8000900000000000    0.0130000000000000 H
   0.8123333333333334    0.7834000000000000    0.1172900000000000 H
   0.6859999999999999    0.7190300000000001    0.2396400000000000 H
   0.6751066666666666    0.7009850000000000    0.3439100000000000 H
   0.8513233333333332    0.6687800000000000    0.2780400000000000 H
   0.8409866666666665    0.6542100000000000    0.3825300000000000 H
   0.7177899999999999    0.5780950000000000    0.4947500000000000 H
   0.7048866666666667    0.5552650000000000    0.5962400000000000 H
   0.7222333333333333    0.6126400000000000    0.6755500000000000 H
   0.7731100000000000    0.7410750000000000    0.5064100000000000 H
   0.7911533333333333    0.7948999999999999    0.5898400000000000 H
   0.7787299999999999    0.7651200000000000    0.6885599999999999 H
   0.7422000000000000    0.6195349999999999    0.9791800000000001 C
   0.7382299999999999    0.6057700000000000    0.0370300000000000 C
   0.7517166666666666    0.6366200000000000    0.0788900000000000 C
   0.7695700000000000    0.6810750000000000    0.0631000000000000 C
   0.7736099999999999    0.6918800000000001    0.0000000000000000 C
   0.7925000000000000    0.7350200000000000    0.9859200000000000 C
   0.8063466666666667    0.7669900000000001    0.0265000000000000 C
   0.8016333333333333    0.7576000000000001    0.0856000000000000 C
   0.7836233333333333    0.7157050000000000    0.1034700000000000 C
   0.8061199999999999    0.6918500000000000    0.1974000000000000 C
   0.7449266666666666    0.7156300000000000    0.1846400000000000 C
   0.7390300000000000    0.7040550000000000    0.2456900000000000 C
   0.7065199999999999    0.7078949999999999    0.2679500000000000 C
   0.7004600000000000    0.6980950000000000    0.3260900000000000 C
   0.7269333333333333    0.6850800000000000    0.3622800000000000 C
   0.7602933333333333    0.6811199999999999    0.3407400000000000 C
   0.7663566666666666    0.6902200000000001    0.2814000000000000 C
   0.7995366666666666    0.6851450000000000    0.2594000000000000 C
   0.8260200000000000    0.6725099999999999    0.2957100000000000 C
   0.8201966666666667    0.6643200000000000    0.3542800000000000 C
   0.7877366666666666    0.6681300000000000    0.3767700000000000 C
   0.7819466666666666    0.6576700000000000    0.4380000000000000 C
   0.7198233333333333    0.6750750000000000    0.4234000000000000 C
   0.7413833333333333    0.6484550000000000    0.5166700000000000 C
   0.7251533333333333    0.6035350000000000    0.5294000000000000 C
   0.7179200000000000    0.5908250000000000    0.5868600000000000 C
   0.7272866666666666    0.6225900000000000    0.6310900000000000 C
   0.7443733333333333    0.6686300000000001    0.6189700000000000 C
   0.7512233333333334    0.6826300000000000    0.5607200000000000 C
   0.7677833333333333    0.7294200000000000    0.5502800000000000 C
   0.7775200000000000    0.7593350000000000    0.5957200000000000 C
   0.7706499999999999    0.7426950000000000    0.6518500000000000 C
   0.7592333333333333    0.6607000000000001    0.9626200000000000 N
   0.7781800000000000    0.7068350000000000    0.1637900000000000 N
   0.7481366666666667    0.6611000000000000    0.4575500000000000 N
   0.7545266666666666    0.6994100000000000    0.6634200000000000 N
   0.7229066666666666    0.7310850000000000    0.1522900000000000 O
   0.8338133333333333    0.6844800000000000    0.1752000000000000 O
   0.6916866666666667    0.6780050000000000    0.4448800000000000 O
   0.8046300000000000    0.6465650000000001    0.4719100000000000 O
