H12 C24 N4 O4
1.0
  15.3291304144834140    0.0000000000000000    0.6977003194492352
   4.6590361529561015   30.2339249969984039    3.0452791992398858
   0.0000000000000000    0.0000000000000000   22.3829999999999991
H C N O
12 24 4 4
direct
   0.7748300000000000    0.3790800000000000    0.9104100000000001 H
   0.7748800000000000    0.3802400000000000    0.0223700000000000 H
   0.5991600000000000    0.4962700000000000    0.8920800000000000 H
   0.4666000000000000    0.4442300000000000    0.1963800000000000 H
   0.4693600000000000    0.4463650000000000    0.3078500000000000 H
   0.9072600000000000    0.4516300000000000    0.2875600000000000 H
   0.9051200000000000    0.4481850000000000    0.1757200000000000 H
   0.7920199999999999    0.3929400000000000    0.4736100000000000 H
   0.7927800000000000    0.3943200000000000    0.5855500000000000 H
   0.5923900000000000    0.5025950000000000    0.0022900000000000 H
   0.6031500000000000    0.5064400000000000    0.5807300000000000 H
   0.5943500000000000    0.5097250000000000    0.4690000000000000 H
   0.7352200000000000    0.4055900000000000    0.9329700000000000 C
   0.7349300000000000    0.4063800000000000    0.9949100000000000 C
   0.6835000000000000    0.4416250000000000    0.0207400000000000 C
   0.6334000000000000    0.4745800000000000    0.9840200000000000 C
   0.6369899999999999    0.4712100000000000    0.9224300000000000 C
   0.7669500000000000    0.4446150000000000    0.1100800000000000 C
   0.7663400000000000    0.4460700000000000    0.1758300000000000 C
   0.6867300000000000    0.4459000000000000    0.2102400000000000 C
   0.6055199999999999    0.4450300000000000    0.1830300000000000 C
   0.6016200000000000    0.4451750000000000    0.1171900000000000 C
   0.5283900000000000    0.4447750000000000    0.2180500000000000 C
   0.5299400000000000    0.4456700000000000    0.2805400000000000 C
   0.6084400000000000    0.4473850000000000    0.3081200000000000 C
   0.6880800000000000    0.4474650000000000    0.2735800000000000 C
   0.7687200000000000    0.4496400000000000    0.3004700000000000 C
   0.8462600000000000    0.4496650000000000    0.2656800000000000 C
   0.8450000000000000    0.4478550000000000    0.2034500000000000 C
   0.7713900000000000    0.4525100000000000    0.3657600000000000 C
   0.6075900000000000    0.4491550000000000    0.3738800000000000 C
   0.6928700000000000    0.4513750000000000    0.4630300000000000 C
   0.7494000000000000    0.4185750000000000    0.4957900000000000 C
   0.7504900000000000    0.4192950000000000    0.5576500000000000 C
   0.6441800000000000    0.4820950000000000    0.5552300000000000 C
   0.6394000000000000    0.4837550000000000    0.4930900000000000 C
   0.6872200000000001    0.4374500000000000    0.8972300000000000 N
   0.6836700000000000    0.4437500000000000    0.0846500000000000 N
   0.6902600000000000    0.4511700000000000    0.3989500000000000 N
   0.6988300000000000    0.4504400000000000    0.5869600000000000 N
   0.8337500000000000    0.4444800000000000    0.0779800000000000 O
   0.5327700000000000    0.4461650000000000    0.0908900000000000 O
   0.8386900000000000    0.4560000000000000    0.3912100000000000 O
   0.5410199999999999    0.4483400000000000    0.4062100000000000 O
