H14 C10 O4
1.0
  38.1215954803556940    0.0000000000000000   -0.0185631927343691
  19.0034161033409461   33.2917715463566708   -0.1538821252721133
   0.0000000000000000    0.0000000000000000   36.8920000000000030
H C O
14 10 4
direct
   0.6506700000000000    0.8167500000000000    0.4618050000000000 H
   0.6109766666666666    0.8651899999999999    0.4499750000000000 H
   0.6618700000000000    0.8493299999999999    0.4368100000000000 H
   0.5814133333333333    0.9144800000000000    0.3574900000000000 H
   0.5988033333333334    0.9080999999999999    0.4029550000000000 H
   0.5605033333333334    0.8964699999999999    0.3909650000000000 H
   0.5976500000000000    0.8572866666666666    0.3169150000000000 H
   0.5763900000000000    0.8382900000000000    0.3486000000000000 H
   0.6263533333333333    0.8070133333333334    0.3317850000000000 H
   0.6666666666666666    0.8684566666666667    0.3812150000000000 H
   0.7050766666666666    0.7892966666666666    0.3428650000000000 H
   0.7206433333333333    0.8035200000000000    0.3825800000000000 H
   0.6927399999999999    0.7693000000000000    0.4150400000000000 H
   0.6683300000000000    0.7657300000000000    0.3757500000000000 H
   0.6333700000000000    0.8218033333333332    0.4049900000000000 C
   0.6203166666666666    0.8523299999999999    0.3720600000000000 C
   0.6618133333333334    0.8492599999999999    0.3622650000000000 C
   0.6393633333333333    0.8396633333333332    0.4404150000000000 C
   0.5883433333333332    0.8954099999999999    0.3815850000000000 C
   0.6044266666666667    0.8376299999999999    0.3405350000000000 C
   0.6009966666666666    0.8102233333333333    0.4120150000000000 C
   0.6616500000000000    0.8654633333333333    0.3246800000000000 C
   0.6943466666666667    0.8050533333333333    0.3688600000000000 C
   0.6739999999999999    0.7864633333333333    0.3919600000000000 C
   0.6084966666666667    0.7739133333333333    0.4059000000000000 O
   0.5665000000000000    0.8366466666666665    0.4233000000000000 O
   0.6490166666666666    0.9024399999999999    0.3201850000000000 O
   0.6742199999999999    0.8401466666666666    0.2979550000000000 O
