H6 O4
1.0
  15.9803544538114508    0.0000000000000000    9.1690810624919497
   5.3105635573748904   15.0787266278136975    9.1763504176085124
   0.0000000000000000    0.0000000000000000   36.8659999999999997
H O
6 4
direct
   0.8870914758043084    0.8869898492322903    0.8596514137316673 H
   0.8866144877012508    0.8866331840859508    0.7535768462361633 H
   0.8946246320251739    0.8945884673210712    0.8027195333986439 H
   0.1129466846356993    0.1129974219819861    0.6403357536078815 H
   0.1134083746518696    0.1133559795506387    0.7464083621615193 H
   0.1054034999366591    0.1053984279584155    0.6972689020235119 H
   0.8671000000000000    0.8670099999999999    0.8474100000000000 O
   0.8668300000000000    0.8668100000000000    0.7857000000000001 O
   0.1329400000000000    0.1329800000000000    0.6525750000000000 O
   0.1332000000000000    0.1331800000000000    0.7142850000000001 O
