H1 O1
1.0
  22.3724965106928373    0.0000000000000000    0.0124951605312775
   0.2218807241559607    7.4859602054897838    0.1836872234843406
   0.0000000000000000    0.0000000000000000   26.1000000000000014
H O
1 1
direct
   0.0009801235555241    0.3014559019382229    0.0531901621566403 H
   0.0006900000000000    0.2045100000000000    0.0790000000000000 O
