H4 O2
1.0
   6.2539843936128934    0.0000000000000000   -0.0139715584800544
  -3.1016186779435784   15.0335346461682668   -3.9289722089994372
   0.0000000000000000    0.0000000000000000   33.2879999999999967
H O
4 2
direct
   0.4228315155976692    1.0395106071845455    0.4497977521573149 H
   0.2526584855519529    0.9551368227932782    0.4172808640417501 H
   0.7473104398880512    0.0448499711031289    0.5827079305695227 H
   0.5771218170951617   -0.0395237038542261    0.5501908133862295 H
   0.3940200000000000    0.9964600000000000    0.4227000000000000 O
   0.6059300000000000    0.0035400000000000    0.5772850000000000 O
