H8 O5
1.0
  24.9939724388131346    0.0000000000000000    5.1150254865298050
   0.0045567480280179   12.2899986820215616    0.0034105653008396
   0.0000000000000000    0.0000000000000000   31.0252000000000017
H O
8 5
direct
   0.4212472978531411    0.6143861067024379    0.3579112199470695 H
   0.3217959713309672    0.6220189495161972    0.2698196420708865 H
   0.3694250271843110    0.6223942011481618    0.3140680243610052 H
   0.3260225036688135    0.7826127319389499    0.3905882658258628 H
   0.2620356288461675    0.8058808560621472    0.4147627582250876 H
   0.2255080213725005   -0.0536127813239889    0.4467649789982759 H
   0.1460473666329260    0.8721470839840139    0.4176108151349094 H
   0.1502185655863080    0.9610979334310870    0.3269876246960929 H
   0.4045850000000000    0.5964500000000000    0.3333333333333333 O
   0.3498475000000000    0.6013200000000000    0.2851900000000000 O
   0.3000325000000000    0.8221500000000000    0.4125150000000000 O
   0.2279500000000000   -0.0775700000000000    0.4760900000000000 O
   0.1599925000000000    0.8652100000000000    0.4443600000000000 O
