Cu96 P94 H376 C188 O282
1.0
  25.7052200754163849    0.0000000000000000   -1.2167238283235851
  -0.4180176836612797   26.1975507020890888   -9.0872120272181363
   0.0000000000000000    0.0000000000000000   21.0330000000000013
Cu P H C O
96 94 376 188 282
direct
   0.0833566666666667    0.0006600000000000    0.7501100000000001 Cu
   0.0834600000000000    0.2501600000000000    0.2500500000000000 Cu
   0.0833300000000000    0.2506750000000000    0.7500900000000000 Cu
   0.2500900000000000    0.0001500000000000    0.2500400000000000 Cu
   0.2500200000000000    0.0006650000000000    0.7501100000000001 Cu
   0.2501166666666667    0.2501650000000000    0.2500500000000000 Cu
   0.2499966666666667    0.2506750000000000    0.7500900000000000 Cu
   0.0834900000000000    0.1251450000000000    0.2500400000000000 Cu
   0.0834200000000000    0.1256050000000000    0.7499900000000000 Cu
   0.0834566666666667    0.3751150000000000    0.2500100000000000 Cu
   0.0834033333333333    0.3755950000000000    0.7499700000000000 Cu
   0.2501500000000000    0.1251450000000000    0.2500400000000000 Cu
   0.2500800000000000    0.1256050000000000    0.7499900000000000 Cu
   0.2501100000000000    0.3751200000000000    0.2500100000000000 Cu
   0.2500766666666666    0.3755950000000000    0.7499700000000000 Cu
   0.0834400000000000    0.0001500000000000    0.2500500000000000 Cu
   0.4166900000000000    0.0006600000000000    0.7501100000000001 Cu
   0.4167933333333333    0.2501600000000000    0.2500500000000000 Cu
   0.4166633333333333    0.2506750000000000    0.7500900000000000 Cu
   0.5834233333333333    0.0001500000000000    0.2500400000000000 Cu
   0.5833533333333333    0.0006650000000000    0.7501100000000001 Cu
   0.5834500000000000    0.2501650000000000    0.2500500000000000 Cu
   0.5833300000000000    0.2506750000000000    0.7500900000000000 Cu
   0.4168233333333333    0.1251450000000000    0.2500400000000000 Cu
   0.4167533333333333    0.1256050000000000    0.7499900000000000 Cu
   0.4167900000000000    0.3751150000000000    0.2500100000000000 Cu
   0.4167366666666666    0.3755950000000000    0.7499700000000000 Cu
   0.5834833333333334    0.1251450000000000    0.2500400000000000 Cu
   0.5834133333333333    0.1256050000000000    0.7499900000000000 Cu
   0.5834433333333333    0.3751200000000000    0.2500100000000000 Cu
   0.5834100000000000    0.3755950000000000    0.7499700000000000 Cu
   0.4167733333333333    0.0001500000000000    0.2500500000000000 Cu
   0.7500233333333333    0.0006600000000000    0.7501100000000001 Cu
   0.7501266666666666    0.2501600000000000    0.2500500000000000 Cu
   0.7499966666666666    0.2506750000000000    0.7500900000000000 Cu
   0.9167566666666667    0.0001500000000000    0.2500400000000000 Cu
   0.9166866666666666    0.0006650000000000    0.7501100000000001 Cu
   0.9167833333333333    0.2501650000000000    0.2500500000000000 Cu
   0.9166633333333333    0.2506750000000000    0.7500900000000000 Cu
   0.7501566666666666    0.1251450000000000    0.2500400000000000 Cu
   0.7500866666666666    0.1256050000000000    0.7499900000000000 Cu
   0.7501233333333333    0.3751150000000000    0.2500100000000000 Cu
   0.7500700000000000    0.3755950000000000    0.7499700000000000 Cu
   0.9168166666666666    0.1251450000000000    0.2500400000000000 Cu
   0.9167466666666666    0.1256050000000000    0.7499900000000000 Cu
   0.9167766666666666    0.3751200000000000    0.2500100000000000 Cu
   0.9167433333333332    0.3755950000000000    0.7499700000000000 Cu
   0.7501066666666666    0.0001500000000000    0.2500500000000000 Cu
   0.0833566666666667    0.5006600000000000    0.7501100000000001 Cu
   0.0834600000000000    0.7501599999999999    0.2500500000000000 Cu
   0.0833300000000000    0.7506750000000000    0.7500900000000000 Cu
   0.2500900000000000    0.5001500000000000    0.2500400000000000 Cu
   0.2500200000000000    0.5006650000000000    0.7501100000000001 Cu
   0.2501166666666667    0.7501650000000000    0.2500500000000000 Cu
   0.2499966666666667    0.7506750000000000    0.7500900000000000 Cu
   0.0834900000000000    0.6251450000000001    0.2500400000000000 Cu
   0.0834200000000000    0.6256050000000000    0.7499900000000000 Cu
   0.0834566666666667    0.8751150000000000    0.2500100000000000 Cu
   0.0834033333333333    0.8755950000000000    0.7499700000000000 Cu
   0.2501500000000000    0.6251450000000001    0.2500400000000000 Cu
   0.2500800000000000    0.6256050000000000    0.7499900000000000 Cu
   0.2501100000000000    0.8751200000000000    0.2500100000000000 Cu
   0.2500766666666666    0.8755950000000000    0.7499700000000000 Cu
   0.0834400000000000    0.5001500000000000    0.2500500000000000 Cu
   0.4166900000000000    0.5006600000000000    0.7501100000000001 Cu
   0.4167933333333333    0.7501599999999999    0.2500500000000000 Cu
   0.4166633333333333    0.7506750000000000    0.7500900000000000 Cu
   0.5834233333333333    0.5001500000000000    0.2500400000000000 Cu
   0.5833533333333333    0.5006650000000000    0.7501100000000001 Cu
   0.5834500000000000    0.7501650000000000    0.2500500000000000 Cu
   0.5833300000000000    0.7506750000000000    0.7500900000000000 Cu
   0.4168233333333333    0.6251450000000001    0.2500400000000000 Cu
   0.4167533333333333    0.6256050000000000    0.7499900000000000 Cu
   0.4167900000000000    0.8751150000000000    0.2500100000000000 Cu
   0.4167366666666666    0.8755950000000000    0.7499700000000000 Cu
   0.5834833333333334    0.6251450000000001    0.2500400000000000 Cu
   0.5834133333333333    0.6256050000000000    0.7499900000000000 Cu
   0.5834433333333333    0.8751200000000000    0.2500100000000000 Cu
   0.5834100000000000    0.8755950000000000    0.7499700000000000 Cu
   0.4167733333333333    0.5001500000000000    0.2500500000000000 Cu
   0.7500233333333333    0.5006600000000000    0.7501100000000001 Cu
   0.7501266666666666    0.7501599999999999    0.2500500000000000 Cu
   0.7499966666666666    0.7506750000000000    0.7500900000000000 Cu
   0.9167566666666667    0.5001500000000000    0.2500400000000000 Cu
   0.9166866666666666    0.5006650000000000    0.7501100000000001 Cu
   0.9167833333333333    0.7501650000000000    0.2500500000000000 Cu
   0.9166633333333333    0.7506750000000000    0.7500900000000000 Cu
   0.7501566666666666    0.6251450000000001    0.2500400000000000 Cu
   0.7500866666666666    0.6256050000000000    0.7499900000000000 Cu
   0.7501233333333333    0.8751150000000000    0.2500100000000000 Cu
   0.7500700000000000    0.8755950000000000    0.7499700000000000 Cu
   0.9168166666666666    0.6251450000000001    0.2500400000000000 Cu
   0.9167466666666666    0.6256050000000000    0.7499900000000000 Cu
   0.9167766666666666    0.8751200000000000    0.2500100000000000 Cu
   0.9167433333333332    0.8755950000000000    0.7499700000000000 Cu
   0.7501066666666666    0.5001500000000000    0.2500500000000000 Cu
   0.1639333333333333    0.0444550000000000    0.1767400000000000 P
   0.1638933333333333    0.0448800000000000    0.6767400000000000 P
   0.1639333333333333    0.2944100000000000    0.1767200000000000 P
   0.1638666666666667    0.2948800000000000    0.6767300000000001 P
   0.3305933333333333    0.0444500000000000    0.1767400000000000 P
   0.3305500000000000    0.0448850000000000    0.6767500000000000 P
   0.3305966666666666    0.2944200000000000    0.1767300000000000 P
   0.3305300000000000    0.2948800000000000    0.6767100000000000 P
   0.0029333333333333    0.2058550000000000    0.3232900000000000 P
   0.0028466666666667    0.2063650000000000    0.8233100000000000 P
   0.0029033333333333    0.4558200000000000    0.3232900000000000 P
   0.0028533333333333    0.4563450000000000    0.8230000000000000 P
   0.1696000000000000    0.2058650000000000    0.3232900000000000 P
   0.1695033333333333    0.2063600000000000    0.8233100000000000 P
   0.1695600000000000    0.4558250000000000    0.3233000000000000 P
   0.1695166666666666    0.4563450000000000    0.8233000000000000 P
   0.4972666666666666    0.0444550000000000    0.1767400000000000 P
   0.4972266666666667    0.0448800000000000    0.6767400000000000 P
   0.4972666666666666    0.2944100000000000    0.1767200000000000 P
   0.4972000000000000    0.2948800000000000    0.6767300000000001 P
   0.6639266666666666    0.0444500000000000    0.1767400000000000 P
   0.6638833333333334    0.0448850000000000    0.6767500000000000 P
   0.6639299999999999    0.2944200000000000    0.1767300000000000 P
   0.6638633333333332    0.2948800000000000    0.6767100000000000 P
   0.3362666666666667    0.2058550000000000    0.3232900000000000 P
   0.3361800000000000    0.2063650000000000    0.8233100000000000 P
   0.3362366666666666    0.4558200000000000    0.3232900000000000 P
   0.3361866666666666    0.4563450000000000    0.8230000000000000 P
   0.5029333333333333    0.2058650000000000    0.3232900000000000 P
   0.5028366666666666    0.2063600000000000    0.8233100000000000 P
   0.5028933333333333    0.4558250000000000    0.3233000000000000 P
   0.5028500000000000    0.4563450000000000    0.8233000000000000 P
   0.8306000000000000    0.0444550000000000    0.1767400000000000 P
   0.8305600000000000    0.0448800000000000    0.6767400000000000 P
   0.8306000000000000    0.2944100000000000    0.1767200000000000 P
   0.8305333333333333    0.2948800000000000    0.6767300000000001 P
   0.9972599999999999    0.0444500000000000    0.1767400000000000 P
   0.9972166666666666    0.0448850000000000    0.6767500000000000 P
   0.9972633333333333    0.2944200000000000    0.1767300000000000 P
   0.9971966666666666    0.2948800000000000    0.6767100000000000 P
   0.6696000000000000    0.2058550000000000    0.3232900000000000 P
   0.6695133333333333    0.2063650000000000    0.8233100000000000 P
   0.6695700000000000    0.4558200000000000    0.3232900000000000 P
   0.6695200000000000    0.4563450000000000    0.8230000000000000 P
   0.8362666666666666    0.2058650000000000    0.3232900000000000 P
   0.8361700000000000    0.2063600000000000    0.8233100000000000 P
   0.8361833333333333    0.4563450000000000    0.8233000000000000 P
   0.1639333333333333    0.5444550000000000    0.1767400000000000 P
   0.1638933333333333    0.5448800000000000    0.6767400000000000 P
   0.1639333333333333    0.7944100000000001    0.1767200000000000 P
   0.1638666666666667    0.7948800000000000    0.6767300000000001 P
   0.3305933333333333    0.5444500000000000    0.1767400000000000 P
   0.3305500000000000    0.5448850000000000    0.6767500000000000 P
   0.3305966666666666    0.7944200000000000    0.1767300000000000 P
   0.3305300000000000    0.7948800000000000    0.6767100000000000 P
   0.0029333333333333    0.7058550000000000    0.3232900000000000 P
   0.0028466666666667    0.7063650000000000    0.8233100000000000 P
   0.0029033333333333    0.9558200000000000    0.3232900000000000 P
   0.0028533333333333    0.9563450000000000    0.8230000000000000 P
   0.1696000000000000    0.7058650000000000    0.3232900000000000 P
   0.1695033333333333    0.7063600000000000    0.8233100000000000 P
   0.1695600000000000    0.9558249999999999    0.3233000000000000 P
   0.1695166666666666    0.9563450000000000    0.8233000000000000 P
   0.4972666666666666    0.5444550000000000    0.1767400000000000 P
   0.4972266666666667    0.5448800000000000    0.6767400000000000 P
   0.4972666666666666    0.7944100000000001    0.1767200000000000 P
   0.4972000000000000    0.7948800000000000    0.6767300000000001 P
   0.6639266666666666    0.5444500000000000    0.1767400000000000 P
   0.6638833333333334    0.5448850000000000    0.6767500000000000 P
   0.6639299999999999    0.7944200000000000    0.1767300000000000 P
   0.6638633333333332    0.7948800000000000    0.6767100000000000 P
   0.3362666666666667    0.7058550000000000    0.3232900000000000 P
   0.3361800000000000    0.7063650000000000    0.8233100000000000 P
   0.3362366666666666    0.9558200000000000    0.3232900000000000 P
   0.3361866666666666    0.9563450000000000    0.8230000000000000 P
   0.5029333333333333    0.7058650000000000    0.3232900000000000 P
   0.5028366666666666    0.7063600000000000    0.8233100000000000 P
   0.5028933333333333    0.9558249999999999    0.3233000000000000 P
   0.5028500000000000    0.9563450000000000    0.8233000000000000 P
   0.8306000000000000    0.5444550000000000    0.1767400000000000 P
   0.8306000000000000    0.7944100000000001    0.1767200000000000 P
   0.8305333333333333    0.7948800000000000    0.6767300000000001 P
   0.9972599999999999    0.5444500000000000    0.1767400000000000 P
   0.9972166666666666    0.5448850000000000    0.6767500000000000 P
   0.9972633333333333    0.7944200000000000    0.1767300000000000 P
   0.9971966666666666    0.7948800000000000    0.6767100000000000 P
   0.6696000000000000    0.7058550000000000    0.3232900000000000 P
   0.6695133333333333    0.7063650000000000    0.8233100000000000 P
   0.6695700000000000    0.9558200000000000    0.3232900000000000 P
   0.6695200000000000    0.9563450000000000    0.8230000000000000 P
   0.8362666666666666    0.7058650000000000    0.3232900000000000 P
   0.8361700000000000    0.7063600000000000    0.8233100000000000 P
   0.8362266666666667    0.9558249999999999    0.3233000000000000 P
   0.8361833333333333    0.9563450000000000    0.8233000000000000 P
   0.0505300000000000    0.2420250000000000    0.0945500000000000 H
   0.0506133333333333    0.2425300000000000    0.5947100000000000 H
   0.0505866666666667    0.4921600000000000    0.0945300000000000 H
   0.0506366666666667    0.4925600000000000    0.5947000000000000 H
   0.2171766666666667    0.2420000000000000    0.0945000000000000 H
   0.2172733333333333    0.2425300000000000    0.5947300000000000 H
   0.2172533333333333    0.4921800000000000    0.0945300000000000 H
   0.2173200000000000    0.4925750000000000    0.5947800000000000 H
   0.1276166666666667    0.2273800000000000    0.0357100000000000 H
   0.1277166666666666    0.2274500000000000    0.5358900000000000 H
   0.1276333333333333    0.4774350000000000    0.0357500000000000 H
   0.1277433333333333    0.4774650000000000    0.5359500000000000 H
   0.2942833333333333    0.2273800000000000    0.0357400000000000 H
   0.2943700000000000    0.2274500000000000    0.5358800000000000 H
   0.2942900000000000    0.4774400000000000    0.0357600000000000 H
   0.2943833333333333    0.4774750000000000    0.5359500000000000 H
   0.1162566666666667    0.1947100000000000    0.4056900000000000 H
   0.1161300000000000    0.1950300000000000    0.9055299999999999 H
   0.1162800000000000    0.4446400000000000    0.4057200000000000 H
   0.1161500000000000    0.4450100000000000    0.9055400000000000 H
   0.2829066666666666    0.1946950000000000    0.4056700000000000 H
   0.2827833333333333    0.1950550000000000    0.9055400000000000 H
   0.2829300000000000    0.4446400000000000    0.4057100000000000 H
   0.2828133333333333    0.4450100000000000    0.9055299999999999 H
   0.0391200000000000    0.2094850000000000    0.4646500000000000 H
   0.0389966666666667    0.2094250000000000    0.9644400000000000 H
   0.0391300000000000    0.4594800000000000    0.4647100000000000 H
   0.0389933333333333    0.4594550000000000    0.9644700000000000 H
   0.2057933333333333    0.2094950000000000    0.4646700000000000 H
   0.2056633333333333    0.2094150000000000    0.9644200000000001 H
   0.2058100000000000    0.4594850000000000    0.4646900000000000 H
   0.2056733333333333    0.4594650000000000    0.9644700000000000 H
   0.1161066666666667    0.0079800000000000    0.4054000000000000 H
   0.1161466666666667    0.0084450000000000    0.9055800000000001 H
   0.1161533333333333    0.2580700000000000    0.4053800000000000 H
   0.1161533333333333    0.2584950000000000    0.9056200000000000 H
   0.2827733333333333    0.0079800000000000    0.4053900000000000 H
   0.2828000000000000    0.0084450000000000    0.9050000000000000 H
   0.2828033333333333    0.2580550000000000    0.4053000000000000 H
   0.2828333333333333    0.2585100000000000    0.9056300000000000 H
   0.0390733333333333    0.0229650000000000    0.4641700000000000 H
   0.0391533333333333    0.0230350000000000    0.9643300000000000 H
   0.0390800000000000    0.2730000000000000    0.4641600000000000 H
   0.0391633333333333    0.2730450000000000    0.9643800000000000 H
   0.2057433333333333    0.0229800000000000    0.4641600000000000 H
   0.2058133333333333    0.0230500000000000    0.9643200000000000 H
   0.2057500000000000    0.2730100000000000    0.4641900000000000 H
   0.2058233333333333    0.2730350000000000    0.9643500000000000 H
   0.0506166666666667    0.0555300000000000    0.0943200000000000 H
   0.0505333333333333    0.0558400000000000    0.5940000000000000 H
   0.0506833333333333    0.3054050000000000    0.0943100000000000 H
   0.0505166666666667    0.3058300000000000    0.5941700000000000 H
   0.2172633333333333    0.0555450000000000    0.0943100000000000 H
   0.2172033333333333    0.0558550000000000    0.5942200000000000 H
   0.2173633333333333    0.3053750000000000    0.0943000000000000 H
   0.2171800000000000    0.3058300000000000    0.5941900000000000 H
   0.1276733333333333    0.0409850000000000    0.0354900000000000 H
   0.1276033333333333    0.0409350000000000    0.5353300000000000 H
   0.1277100000000000    0.2909750000000000    0.0355400000000000 H
   0.1275766666666667    0.2909400000000000    0.5353000000000000 H
   0.2943466666666666    0.0409900000000000    0.0355100000000000 H
   0.2942500000000000    0.0409350000000000    0.5353200000000000 H
   0.2943566666666667    0.2909700000000000    0.0355500000000000 H
   0.2942366666666666    0.2909450000000000    0.5352900000000000 H
   0.3838633333333333    0.2420250000000000    0.0945500000000000 H
   0.3839466666666667    0.2425300000000000    0.5947100000000000 H
   0.3839200000000000    0.4921600000000000    0.0945300000000000 H
   0.3839700000000000    0.4925600000000000    0.5947000000000000 H
   0.5505100000000001    0.2420000000000000    0.0945000000000000 H
   0.5506066666666667    0.2425300000000000    0.5947300000000000 H
   0.5505866666666667    0.4921800000000000    0.0945300000000000 H
   0.5506533333333333    0.4925750000000000    0.5947800000000000 H
   0.4609500000000000    0.2273800000000000    0.0357100000000000 H
   0.4610500000000000    0.2274500000000000    0.5358900000000000 H
   0.4609666666666666    0.4774350000000000    0.0357500000000000 H
   0.4610766666666666    0.4774650000000000    0.5359500000000000 H
   0.6276166666666667    0.2273800000000000    0.0357400000000000 H
   0.6277033333333333    0.2274500000000000    0.5358800000000000 H
   0.6276233333333333    0.4774400000000000    0.0357600000000000 H
   0.6277166666666667    0.4774750000000000    0.5359500000000000 H
   0.4495900000000000    0.1947100000000000    0.4056900000000000 H
   0.4494633333333333    0.1950300000000000    0.9055299999999999 H
   0.4496133333333333    0.4446400000000000    0.4057200000000000 H
   0.4494833333333333    0.4450100000000000    0.9055400000000000 H
   0.6162399999999999    0.1946950000000000    0.4056700000000000 H
   0.6161166666666666    0.1950550000000000    0.9055400000000000 H
   0.6162633333333334    0.4446400000000000    0.4057100000000000 H
   0.6161466666666666    0.4450100000000000    0.9055299999999999 H
   0.3724533333333333    0.2094850000000000    0.4646500000000000 H
   0.3723300000000000    0.2094250000000000    0.9644400000000000 H
   0.3724633333333333    0.4594800000000000    0.4647100000000000 H
   0.3723266666666666    0.4594550000000000    0.9644700000000000 H
   0.5391266666666666    0.2094950000000000    0.4646700000000000 H
   0.5389966666666667    0.2094150000000000    0.9644200000000001 H
   0.5391433333333333    0.4594850000000000    0.4646900000000000 H
   0.5390066666666666    0.4594650000000000    0.9644700000000000 H
   0.4494400000000000    0.0079800000000000    0.4054000000000000 H
   0.4494800000000000    0.0084450000000000    0.9055800000000001 H
   0.4494866666666666    0.2580700000000000    0.4053800000000000 H
   0.4494866666666666    0.2584950000000000    0.9056200000000000 H
   0.6161066666666666    0.0079800000000000    0.4053900000000000 H
   0.6161333333333333    0.0084450000000000    0.9050000000000000 H
   0.6161366666666666    0.2580550000000000    0.4053000000000000 H
   0.6161666666666666    0.2585100000000000    0.9056300000000000 H
   0.3724066666666667    0.0229650000000000    0.4641700000000000 H
   0.3724866666666666    0.0230350000000000    0.9643300000000000 H
   0.3724133333333333    0.2730000000000000    0.4641600000000000 H
   0.3724966666666666    0.2730450000000000    0.9643800000000000 H
   0.5390766666666666    0.0229800000000000    0.4641600000000000 H
   0.5391466666666667    0.0230500000000000    0.9643200000000000 H
   0.5390833333333334    0.2730100000000000    0.4641900000000000 H
   0.5391566666666666    0.2730350000000000    0.9643500000000000 H
   0.3839500000000000    0.0555300000000000    0.0943200000000000 H
   0.3838666666666666    0.0558400000000000    0.5940000000000000 H
   0.3840166666666667    0.3054050000000000    0.0943100000000000 H
   0.3838500000000000    0.3058300000000000    0.5941700000000000 H
   0.5505966666666666    0.0555450000000000    0.0943100000000000 H
   0.5505366666666667    0.0558550000000000    0.5942200000000000 H
   0.5506966666666666    0.3053750000000000    0.0943000000000000 H
   0.5505133333333333    0.3058300000000000    0.5941900000000000 H
   0.4610066666666667    0.0409850000000000    0.0354900000000000 H
   0.4609366666666667    0.0409350000000000    0.5353300000000000 H
   0.4610433333333333    0.2909750000000000    0.0355400000000000 H
   0.4609100000000000    0.2909400000000000    0.5353000000000000 H
   0.6276800000000000    0.0409900000000000    0.0355100000000000 H
   0.6275833333333334    0.0409350000000000    0.5353200000000000 H
   0.6276900000000000    0.2909700000000000    0.0355500000000000 H
   0.6275700000000000    0.2909450000000000    0.5352900000000000 H
   0.7171966666666666    0.2420250000000000    0.0945500000000000 H
   0.7172799999999999    0.2425300000000000    0.5947100000000000 H
   0.7172533333333333    0.4921600000000000    0.0945300000000000 H
   0.7173033333333333    0.4925600000000000    0.5947000000000000 H
   0.8838433333333333    0.2420000000000000    0.0945000000000000 H
   0.8839399999999999    0.2425300000000000    0.5947300000000000 H
   0.8839199999999999    0.4921800000000000    0.0945300000000000 H
   0.7942833333333332    0.2273800000000000    0.0357100000000000 H
   0.7943833333333332    0.2274500000000000    0.5358900000000000 H
   0.7943000000000000    0.4774350000000000    0.0357500000000000 H
   0.9609500000000000    0.2273800000000000    0.0357400000000000 H
   0.9610366666666665    0.2274500000000000    0.5358800000000000 H
   0.9609566666666667    0.4774400000000000    0.0357600000000000 H
   0.9610500000000000    0.4774750000000000    0.5359500000000000 H
   0.7829233333333333    0.1947100000000000    0.4056900000000000 H
   0.7827966666666666    0.1950300000000000    0.9055299999999999 H
   0.7828166666666666    0.4450100000000000    0.9055400000000000 H
   0.9495733333333333    0.1946950000000000    0.4056700000000000 H
   0.9494499999999999    0.1950550000000000    0.9055400000000000 H
   0.9495966666666666    0.4446400000000000    0.4057100000000000 H
   0.9494799999999999    0.4450100000000000    0.9055299999999999 H
   0.7057866666666667    0.2094850000000000    0.4646500000000000 H
   0.7056633333333333    0.2094250000000000    0.9644400000000000 H
   0.7057966666666666    0.4594800000000000    0.4647100000000000 H
   0.7056600000000000    0.4594550000000000    0.9644700000000000 H
   0.8724600000000000    0.2094950000000000    0.4646700000000000 H
   0.8723299999999999    0.2094150000000000    0.9644200000000001 H
   0.8723399999999999    0.4594650000000000    0.9644700000000000 H
   0.7827733333333333    0.0079800000000000    0.4054000000000000 H
   0.7828133333333334    0.0084450000000000    0.9055800000000001 H
   0.7828200000000000    0.2580700000000000    0.4053800000000000 H
   0.7828200000000000    0.2584950000000000    0.9056200000000000 H
   0.9494400000000000    0.0079800000000000    0.4053900000000000 H
   0.9494666666666667    0.0084450000000000    0.9050000000000000 H
   0.9494699999999999    0.2580550000000000    0.4053000000000000 H
   0.9495000000000000    0.2585100000000000    0.9056300000000000 H
   0.7057399999999999    0.0229650000000000    0.4641700000000000 H
   0.7058200000000000    0.0230350000000000    0.9643300000000000 H
   0.7057466666666666    0.2730000000000000    0.4641600000000000 H
   0.7058300000000000    0.2730450000000000    0.9643800000000000 H
   0.8724099999999999    0.0229800000000000    0.4641600000000000 H
   0.8724799999999999    0.0230500000000000    0.9643200000000000 H
   0.8724166666666666    0.2730100000000000    0.4641900000000000 H
   0.8724900000000000    0.2730350000000000    0.9643500000000000 H
   0.7172833333333333    0.0555300000000000    0.0943200000000000 H
   0.7171999999999999    0.0558400000000000    0.5940000000000000 H
   0.7173499999999999    0.3054050000000000    0.0943100000000000 H
   0.7171833333333333    0.3058300000000000    0.5941700000000000 H
   0.8839299999999999    0.0555450000000000    0.0943100000000000 H
   0.8838699999999999    0.0558550000000000    0.5942200000000000 H
   0.8840299999999999    0.3053750000000000    0.0943000000000000 H
   0.8838466666666667    0.3058300000000000    0.5941900000000000 H
   0.7943399999999999    0.0409850000000000    0.0354900000000000 H
   0.7942699999999999    0.0409350000000000    0.5353300000000000 H
   0.7943766666666666    0.2909750000000000    0.0355400000000000 H
   0.7942433333333333    0.2909400000000000    0.5353000000000000 H
   0.9610133333333333    0.0409900000000000    0.0355100000000000 H
   0.9609166666666666    0.0409350000000000    0.5353200000000000 H
   0.9610233333333333    0.2909700000000000    0.0355500000000000 H
   0.9609033333333332    0.2909450000000000    0.5352900000000000 H
   0.0505300000000000    0.7420249999999999    0.0945500000000000 H
   0.0506133333333333    0.7425300000000000    0.5947100000000000 H
   0.0505866666666667    0.9921599999999999    0.0945300000000000 H
   0.0506366666666667    0.9925600000000000    0.5947000000000000 H
   0.2171766666666667    0.7420000000000000    0.0945000000000000 H
   0.2172733333333333    0.7425300000000000    0.5947300000000000 H
   0.2172533333333333    0.9921800000000001    0.0945300000000000 H
   0.2173200000000000    0.9925750000000000    0.5947800000000000 H
   0.1276166666666667    0.7273800000000000    0.0357100000000000 H
   0.1277166666666666    0.7274500000000000    0.5358900000000000 H
   0.1276333333333333    0.9774350000000001    0.0357500000000000 H
   0.1277433333333333    0.9774650000000000    0.5359500000000000 H
   0.2942833333333333    0.7273800000000000    0.0357400000000000 H
   0.2943700000000000    0.7274500000000000    0.5358800000000000 H
   0.2942900000000000    0.9774400000000000    0.0357600000000000 H
   0.2943833333333333    0.9774750000000000    0.5359500000000000 H
   0.1162566666666667    0.6947099999999999    0.4056900000000000 H
   0.1161300000000000    0.6950300000000000    0.9055299999999999 H
   0.1162800000000000    0.9446399999999999    0.4057200000000000 H
   0.1161500000000000    0.9450100000000000    0.9055400000000000 H
   0.2829066666666666    0.6946950000000001    0.4056700000000000 H
   0.2827833333333333    0.6950550000000000    0.9055400000000000 H
   0.2829300000000000    0.9446399999999999    0.4057100000000000 H
   0.2828133333333333    0.9450100000000000    0.9055299999999999 H
   0.0391200000000000    0.7094850000000000    0.4646500000000000 H
   0.0389966666666667    0.7094250000000000    0.9644400000000000 H
   0.0391300000000000    0.9594800000000000    0.4647100000000000 H
   0.0389933333333333    0.9594549999999999    0.9644700000000000 H
   0.2057933333333333    0.7094950000000000    0.4646700000000000 H
   0.2056633333333333    0.7094150000000000    0.9644200000000001 H
   0.2058100000000000    0.9594849999999999    0.4646900000000000 H
   0.2056733333333333    0.9594650000000000    0.9644700000000000 H
   0.1161066666666667    0.5079800000000000    0.4054000000000000 H
   0.1161466666666667    0.5084450000000000    0.9055800000000001 H
   0.1161533333333333    0.7580700000000000    0.4053800000000000 H
   0.1161533333333333    0.7584949999999999    0.9056200000000000 H
   0.2827733333333333    0.5079800000000000    0.4053900000000000 H
   0.2828000000000000    0.5084450000000000    0.9050000000000000 H
   0.2828033333333333    0.7580549999999999    0.4053000000000000 H
   0.2828333333333333    0.7585100000000000    0.9056300000000000 H
   0.0390733333333333    0.5229650000000000    0.4641700000000000 H
   0.0391533333333333    0.5230350000000000    0.9643300000000000 H
   0.0390800000000000    0.7730000000000000    0.4641600000000000 H
   0.0391633333333333    0.7730450000000000    0.9643800000000000 H
   0.2057433333333333    0.5229800000000000    0.4641600000000000 H
   0.2058133333333333    0.5230500000000000    0.9643200000000000 H
   0.2057500000000000    0.7730100000000000    0.4641900000000000 H
   0.2058233333333333    0.7730350000000000    0.9643500000000000 H
   0.0506166666666667    0.5555300000000000    0.0943200000000000 H
   0.0505333333333333    0.5558400000000000    0.5940000000000000 H
   0.0506833333333333    0.8054049999999999    0.0943100000000000 H
   0.0505166666666667    0.8058300000000000    0.5941700000000000 H
   0.2172633333333333    0.5555450000000000    0.0943100000000000 H
   0.2172033333333333    0.5558550000000000    0.5942200000000000 H
   0.2173633333333333    0.8053750000000000    0.0943000000000000 H
   0.2171800000000000    0.8058300000000000    0.5941900000000000 H
   0.1276733333333333    0.5409850000000000    0.0354900000000000 H