H5 O3
1.0
  13.8278530421021202    0.0000000000000000   -1.6672325110875184
  -5.8066960260881411   17.8793496289755147   -4.0644098102264898
   0.0000000000000000    0.0000000000000000   35.8680000000000021
H O
5 3
direct
   0.8391134474467100    0.7011954534824936    0.1353176790638093 H
   0.8412981588474692    0.7392502085999590    0.1025215851173743 H
   0.8535419192691776    0.6797985671147785    0.3080874075671515 H
   0.9527061732866250    0.8813344088650873    0.3072823657692520 H
   0.8983934952924369    0.7761096879700650    0.2981170316891754 H
   0.8867400000000000    0.7172500000000001    0.1185700000000000 O
   0.8824800000000000    0.7287900000000000    0.3261450000000000 O
   0.9423400000000000    0.8505100000000000    0.3255400000000000 O
