H4 C8 N4 O2
1.0
  13.8278530421021202    0.0000000000000000   -1.6672325110875184
  -5.8066960260881411   17.8793496289755147   -4.0644098102264898
   0.0000000000000000    0.0000000000000000   35.8680000000000021
H C N O
4 8 4 2
direct
   0.8129999999999999    0.6422099999999999    0.2619200000000000 H
   0.9487700000000000    0.8708500000000000    0.2605100000000000 H
   0.7734600000000000    0.6046899999999999    0.1897000000000000 H
   0.9160100000000000    0.8340800000000000    0.1883050000000000 H
   0.8828800000000000    0.7586800000000000    0.2653850000000000 C
   0.9040600000000000    0.7808500000000000    0.3086050000000000 C
   0.8211200000000000    0.6951300000000000    0.1416450000000000 C
   0.8338300000000000    0.6836800000000000    0.2454000000000000 C
   0.9117300000000000    0.8127100000000000    0.2446200000000000 C
   0.8124500000000000    0.6629400000000000    0.2050000000000000 C
   0.8927200000000000    0.7919000000000000    0.2042450000000000 C
   0.8423200000000000    0.7169000000000000    0.1841600000000000 C
   0.8867400000000000    0.7172500000000001    0.1185700000000000 N
   0.7452700000000000    0.6441300000000000    0.0811700000000000 N
   0.8371600000000000    0.6845100000000000    0.0810500000000000 N
   0.7327900000000001    0.6496100000000000    0.1187600000000000 N
   0.8824800000000000    0.7287900000000000    0.3261450000000000 O
   0.9423400000000000    0.8505100000000000    0.3255400000000000 O
