Zn32 H129 C248 N124 O65
1.0
  13.8278530421021202    0.0000000000000000   -1.6672325110875184
  -5.8066960260881411   17.8793496289755147   -4.0644098102264898
   0.0000000000000000    0.0000000000000000   35.8680000000000021
Zn H C N O
32 129 248 124 65
direct
   0.5369200000000000    0.2715400000000000    0.1249550000000000 Zn
   0.5887100000000000    0.1014000000000000    0.1250850000000000 Zn
   0.4630500000000000    0.7284600000000000    0.8750000000000000 Zn
   0.4112600000000000    0.8986000000000000    0.8749000000000000 Zn
   0.5369200000000000    0.7715400000000000    0.1249550000000000 Zn
   0.5887100000000000    0.6014000000000000    0.1250850000000000 Zn
   0.4112500000000000    0.3986000000000000    0.8745000000000001 Zn
   0.4630400000000000    0.2284600000000000    0.8750000000000000 Zn
   0.5369200000000000    0.2715400000000000    0.6249550000000000 Zn
   0.5887100000000000    0.1014000000000000    0.6250850000000000 Zn
   0.4630500000000000    0.7284600000000000    0.3750000000000000 Zn
   0.4112600000000000    0.8986000000000000    0.3749000000000000 Zn
   0.5369200000000000    0.7715400000000000    0.6249550000000000 Zn
   0.5887100000000000    0.6014000000000000    0.6250850000000000 Zn
   0.4112500000000000    0.3986000000000000    0.3745000000000000 Zn
   0.4630400000000000    0.2284600000000000    0.3750000000000000 Zn
   0.0369300000000000    0.7715400000000000    0.6249550000000000 Zn
   0.0887300000000000    0.6014000000000000    0.6250850000000000 Zn
   0.9112300000000000    0.3986000000000000    0.3745000000000000 Zn
   0.9630300000000001    0.2284600000000000    0.3750000000000000 Zn
   0.0369300000000000    0.2715400000000000    0.6249550000000000 Zn
   0.0887300000000000    0.1014000000000000    0.6250850000000000 Zn
   0.9112400000000000    0.8986000000000000    0.3745000000000000 Zn
   0.9630300000000001    0.7284700000000000    0.3750000000000000 Zn
   0.0369300000000000    0.7715400000000000    0.1249550000000000 Zn
   0.0887300000000000    0.6014000000000000    0.1250850000000000 Zn
   0.9112300000000000    0.3986000000000000    0.8745000000000001 Zn
   0.9630300000000001    0.2284600000000000    0.8750000000000000 Zn
   0.0369300000000000    0.2715400000000000    0.1249550000000000 Zn
   0.0887300000000000    0.1014000000000000    0.1250850000000000 Zn
   0.9112400000000000    0.8986000000000000    0.8745000000000001 Zn
   0.9630300000000001    0.7284700000000000    0.8750000000000000 Zn
   0.6118100000000000    0.2356400000000000    0.0116000000000000 H
   0.5791700000000000    0.2002400000000000    0.9399450000000000 H
   0.4002000000000000    0.0254500000000000    0.0117200000000000 H
   0.3601000000000000    0.9907500000000000    0.9400850000000001 H
   0.5511700000000000    0.1291500000000000    0.2394700000000000 H
   0.5839200000000000    0.1659200000000000    0.3116750000000000 H
   0.6869499999999999    0.3577900000000000    0.2380650000000000 H
   0.7264800000000000    0.3953100000000000    0.3102800000000000 H
   0.3881600000000000    0.7643600000000000    0.9883800000000000 H
   0.4208000000000000    0.7997600000000000    0.0600400000000000 H
   0.6398700000000000    0.0000000000000000    0.0599000000000000 H
   0.5997700000000000    0.9745600000000000    0.9882500000000001 H
   0.3130200000000000    0.6422099999999999    0.7619199999999999 H
   0.2734800000000000    0.6046899999999999    0.6897000000000000 H
   0.4487900000000000    0.8708500000000000    0.7605100000000000 H
   0.4160400000000000    0.8340800000000000    0.6883049999999999 H
   0.6118100000000000    0.7356400000000000    0.0116000000000000 H
   0.5791700000000000    0.7002400000000000    0.9399450000000000 H
   0.4002000000000000    0.5254500000000000    0.0117200000000000 H
   0.3601000000000000    0.4907500000000000    0.9400850000000001 H
   0.5511700000000000    0.6291500000000000    0.2394700000000000 H
   0.5839299999999999    0.6659200000000000    0.3116750000000000 H
   0.6869499999999999    0.8577900000000001    0.2380650000000000 H
   0.7264900000000000    0.8953100000000001    0.3102800000000000 H
   0.3881500000000000    0.2643600000000000    0.9883800000000000 H
   0.4208000000000000    0.2997600000000000    0.0600400000000000 H
   0.6398600000000000    0.5092500000000000    0.0595000000000000 H
   0.5997600000000000    0.4745500000000000    0.9882600000000000 H
   0.3130100000000000    0.1422100000000000    0.7619199999999999 H
   0.2734800000000000    0.1046900000000000    0.6897000000000000 H
   0.4487900000000000    0.3708500000000000    0.7605100000000000 H
   0.4160400000000000    0.3340800000000000    0.6883049999999999 H
   0.6118100000000000    0.2356400000000000    0.5116000000000001 H
   0.5791700000000000    0.2002400000000000    0.4399450000000000 H
   0.4002000000000000    0.0254500000000000    0.5117200000000000 H
   0.3601000000000000    0.9907500000000000    0.4400850000000000 H
   0.5511700000000000    0.1291500000000000    0.7394700000000000 H
   0.5839200000000000    0.1659200000000000    0.8116749999999999 H
   0.6869499999999999    0.3577900000000000    0.7380650000000000 H
   0.7264800000000000    0.3953100000000000    0.8102800000000000 H
   0.3881600000000000    0.7643600000000000    0.4883800000000000 H
   0.4208000000000000    0.7997600000000000    0.5600400000000000 H
   0.6398700000000000    0.0000000000000000    0.5599000000000000 H
   0.5997700000000000    0.9745600000000000    0.4882500000000000 H
   0.3130200000000000    0.6422099999999999    0.2619200000000000 H
   0.2734800000000000    0.6046899999999999    0.1897000000000000 H
   0.4487900000000000    0.8708500000000000    0.2605100000000000 H
   0.4160400000000000    0.8340800000000000    0.1883050000000000 H
   0.6118100000000000    0.7356400000000000    0.5116000000000001 H
   0.5791700000000000    0.7002400000000000    0.4399450000000000 H
   0.4002000000000000    0.5254500000000000    0.5117200000000000 H
   0.3601000000000000    0.4907500000000000    0.4400850000000000 H
   0.5511700000000000    0.6291500000000000    0.7394700000000000 H
   0.5839299999999999    0.6659200000000000    0.8116749999999999 H
   0.6869499999999999    0.8577900000000001    0.7380650000000000 H
   0.7264900000000000    0.8953100000000001    0.8102800000000000 H
   0.3881500000000000    0.2643600000000000    0.4883800000000000 H
   0.4208000000000000    0.2997600000000000    0.5600400000000000 H
   0.6398600000000000    0.5092500000000000    0.5595000000000000 H
   0.5997600000000000    0.4745500000000000    0.4882600000000000 H
   0.3130100000000000    0.1422100000000000    0.2619200000000000 H
   0.2734800000000000    0.1046900000000000    0.1897000000000000 H
   0.4487900000000000    0.3708500000000000    0.2605100000000000 H
   0.4160400000000000    0.3340800000000000    0.1883050000000000 H
   0.8391134474467100    0.7011954534824936    0.1353176790638093 H
   0.8412981588474692    0.7392502085999590    0.1025215851173743 H
   0.1118300000000000    0.7356400000000000    0.5116000000000001 H
   0.0791900000000000    0.7002400000000000    0.4399450000000000 H
   0.8600800000000000    0.4907600000000000    0.4400850000000000 H
   0.9001800000000000    0.5254500000000000    0.5117200000000000 H
   0.0512000000000000    0.6291600000000001    0.7394700000000000 H
   0.0839500000000000    0.6659200000000000    0.8116749999999999 H
   0.1869800000000000    0.8577900000000001    0.7380650000000000 H
   0.2265100000000000    0.8953100000000001    0.8102800000000000 H
   0.8881300000000000    0.2643600000000000    0.4883800000000000 H
   0.9207800000000000    0.2997600000000000    0.5600400000000000 H
   0.0997800000000000    0.4745500000000000    0.4882600000000000 H
   0.1398800000000000    0.5092400000000000    0.5598950000000000 H
   0.8129900000000000    0.1422100000000000    0.2619200000000000 H
   0.7734600000000000    0.1046900000000000    0.1897000000000000 H
   0.9487700000000000    0.3708500000000000    0.2605100000000000 H
   0.9160199999999999    0.3340800000000000    0.1883050000000000 H
   0.1118300000000000    0.2356400000000000    0.5116000000000001 H
   0.0791800000000000    0.2002400000000000    0.4399450000000000 H
   0.8600800000000000    0.9907600000000000    0.4400850000000000 H
   0.9001800000000000    0.0254500000000000    0.5117200000000000 H
   0.1869700000000000    0.3577900000000000    0.7380650000000000 H
   0.2265000000000000    0.3953100000000000    0.8102800000000000 H
   0.0511900000000000    0.1291500000000000    0.7394700000000000 H
   0.0839500000000000    0.1659200000000000    0.8116749999999999 H
   0.8881400000000000    0.7643600000000000    0.4883800000000000 H
   0.9207800000000000    0.7997700000000000    0.5600400000000000 H
   0.1398900000000000    0.0000000000000000    0.5595000000000000 H
   0.0997800000000000    0.9745500000000000    0.4882600000000000 H
   0.8535419192691776    0.6797985671147785    0.3080874075671515 H
   0.9527061732866250    0.8813344088650873    0.3072823657692520 H
   0.8983934952924369    0.7761096879700650    0.2981170316891754 H
   0.1118300000000000    0.7356400000000000    0.0116000000000000 H
   0.0791900000000000    0.7002400000000000    0.9399450000000000 H
   0.8600800000000000    0.4907600000000000    0.9400850000000001 H
   0.9001800000000000    0.5254500000000000    0.0117200000000000 H
   0.0512000000000000    0.6291600000000001    0.2394700000000000 H
   0.0839500000000000    0.6659200000000000    0.3116750000000000 H
   0.1869800000000000    0.8577900000000001    0.2380650000000000 H
   0.2265100000000000    0.8953100000000001    0.3102800000000000 H
   0.8881300000000000    0.2643600000000000    0.9883800000000000 H
   0.9207800000000000    0.2997600000000000    0.0600400000000000 H
   0.0997800000000000    0.4745500000000000    0.9882600000000000 H
   0.1398800000000000    0.5092400000000000    0.0598950000000000 H
   0.8129900000000000    0.1422100000000000    0.7619199999999999 H
   0.7734600000000000    0.1046900000000000    0.6897000000000000 H
   0.9487700000000000    0.3708500000000000    0.7605100000000000 H
   0.9160199999999999    0.3340800000000000    0.6883049999999999 H
   0.1118300000000000    0.2356400000000000    0.0116000000000000 H
   0.0791800000000000    0.2002400000000000    0.9399450000000000 H
   0.8600800000000000    0.9907600000000000    0.9400850000000001 H
   0.9001800000000000    0.0254500000000000    0.0117200000000000 H
   0.1869700000000000    0.3577900000000000    0.2380650000000000 H
   0.2265000000000000    0.3953100000000000    0.3102800000000000 H
   0.0511900000000000    0.1291500000000000    0.2394700000000000 H
   0.0839500000000000    0.1659200000000000    0.3116750000000000 H
   0.8881400000000000    0.7643600000000000    0.9883800000000000 H
   0.9207800000000000    0.7997700000000000    0.0600400000000000 H
   0.1398900000000000    0.0000000000000000    0.0595000000000000 H
   0.0997800000000000    0.9745500000000000    0.9882600000000000 H
   0.8129999999999999    0.6422099999999999    0.7619199999999999 H
   0.7734600000000000    0.6046899999999999    0.6897000000000000 H
   0.9487700000000000    0.8708500000000000    0.7605100000000000 H
   0.9160100000000000    0.8340800000000000    0.6883049999999999 H
   0.5301200000000000    0.1539200000000000    0.0593350000000000 C
   0.4452600000000000    0.0719600000000000    0.8921300000000000 C
   0.5575700000000000    0.1819200000000000    0.9956000000000000 C
   0.5380900000000000    0.1619000000000000    0.9552149999999999 C
   0.4382300000000000    0.0634600000000000    0.9956650000000000 C
   0.4167300000000000    0.0439800000000000    0.9552900000000000 C
   0.5083100000000000    0.1326900000000000    0.0161100000000000 C
   0.4669700000000000    0.0928500000000000    0.9346500000000000 C
   0.5958800000000000    0.2191600000000000    0.1913800000000000 C
   0.6788200000000000    0.3048700000000000    0.3583400000000000 C
   0.5882200000000000    0.1872900000000000    0.2553500000000000 C
   0.6072200000000000    0.2081000000000000    0.2957350000000000 C
   0.6661200000000000    0.3163200000000000    0.2545800000000000 C
   0.6874900000000000    0.3370600000000000    0.2949600000000000 C
   0.6170600000000001    0.2413200000000000    0.2345000000000000 C
   0.6576200000000000    0.2831000000000000    0.3158250000000000 C
   0.4698500000000000    0.8460800000000001    0.9406450000000000 C
   0.5547100000000000    0.9280400000000000    0.1078550000000000 C
   0.4424000000000000    0.8180800000000000    0.0043850000000000 C
   0.4618800000000000    0.8381100000000000    0.0447650000000000 C
   0.5832400000000000    0.9560300000000000    0.0446900000000000 C
   0.5617400000000000    0.9365400000000000    0.0043150000000000 C
   0.4916600000000000    0.8673100000000000    0.9838750000000001 C
   0.5330000000000000    0.9071600000000000    0.0653300000000000 C
   0.4040800000000000    0.7808500000000000    0.8086050000000000 C
   0.3211500000000000    0.6951300000000000    0.6416450000000000 C
   0.3338500000000000    0.6836800000000000    0.7454000000000001 C
   0.3124700000000000    0.6629400000000000    0.7050200000000000 C
   0.4117500000000000    0.8127100000000000    0.7446200000000001 C
   0.3927500000000000    0.7919000000000000    0.7042450000000000 C
   0.3829000000000000    0.7586800000000000    0.7653850000000000 C
   0.3423400000000000    0.7169000000000000    0.6841600000000000 C
   0.5301200000000000    0.6539199999999999    0.0593350000000000 C
   0.4452600000000000    0.5719600000000000    0.8921300000000000 C
   0.5575800000000000    0.6819200000000000    0.9956000000000000 C
   0.5380900000000000    0.6619000000000000    0.9552149999999999 C
   0.4382300000000000    0.5634700000000000    0.9956650000000000 C
   0.4167300000000000    0.5439800000000000    0.9552900000000000 C
   0.5083100000000000    0.6327000000000000    0.0161100000000000 C
   0.4669700000000000    0.5928500000000000    0.9346500000000000 C
   0.5958800000000000    0.7191600000000000    0.1913800000000000 C
   0.6788200000000000    0.8048700000000000    0.3583400000000000 C
   0.5882200000000000    0.6872900000000000    0.2553500000000000 C
   0.6072200000000000    0.7081000000000000    0.2957000000000000 C
   0.6661200000000000    0.8163200000000000    0.2545800000000000 C
   0.6875000000000000    0.8370600000000000    0.2949600000000000 C
   0.6170600000000001    0.7413300000000000    0.2345000000000000 C
   0.6576300000000000    0.7831000000000000    0.3158250000000000 C
   0.4698400000000000    0.3460800000000000    0.9406450000000000 C
   0.5547000000000000    0.4280400000000000    0.1078500000000000 C
   0.4423900000000000    0.3180800000000000    0.0043850000000000 C
   0.4618800000000000    0.3381000000000000    0.0447650000000000 C
   0.5832300000000000    0.4560200000000000    0.0446900000000000 C
   0.5617300000000000    0.4365400000000000    0.0043150000000000 C
   0.4916500000000000    0.3673000000000000    0.9838750000000001 C
   0.5329900000000000    0.4071500000000000    0.0653300000000000 C
   0.4040800000000000    0.2808400000000000    0.8086050000000000 C
   0.3211400000000000    0.1951300000000000    0.6416450000000000 C
   0.3338500000000000    0.1836800000000000    0.7454000000000001 C
   0.3124700000000000    0.1629400000000000    0.7050200000000000 C
   0.4117500000000000    0.3127100000000000    0.7446200000000001 C
   0.3927400000000000    0.2919000000000000    0.7042450000000000 C
   0.3829000000000000    0.2586800000000000    0.7653850000000000 C
   0.3423400000000000    0.2169000000000000    0.6841600000000000 C
   0.5301200000000000    0.1539200000000000    0.5593350000000000 C
   0.4452600000000000    0.0719600000000000    0.3921300000000000 C
   0.5575700000000000    0.1819200000000000    0.4956000000000000 C
   0.5380900000000000    0.1619000000000000    0.4552150000000000 C
   0.4382300000000000    0.0634600000000000    0.4956650000000000 C
   0.4167300000000000    0.0439800000000000    0.4552900000000000 C
   0.5083100000000000    0.1326900000000000    0.5161100000000000 C
   0.4669700000000000    0.0928500000000000    0.4346500000000000 C
   0.5958800000000000    0.2191600000000000    0.6913800000000000 C
   0.6788200000000000    0.3048700000000000    0.8583400000000000 C
   0.5882200000000000    0.1872900000000000    0.7553500000000000 C
   0.6072200000000000    0.2081000000000000    0.7957350000000001 C
   0.6661200000000000    0.3163200000000000    0.7545800000000000 C
   0.6874900000000000    0.3370600000000000    0.7949600000000000 C
   0.6170600000000001    0.2413200000000000    0.7344999999999999 C
   0.6576200000000000    0.2831000000000000    0.8158250000000000 C
   0.4698500000000000    0.8460800000000001    0.4406450000000000 C
   0.5547100000000000    0.9280400000000000    0.6078550000000000 C
   0.4424000000000000    0.8180800000000000    0.5043850000000000 C
   0.4618800000000000    0.8381100000000000    0.5447649999999999 C
   0.5832400000000000    0.9560300000000000    0.5446900000000000 C
   0.5617400000000000    0.9365400000000000    0.5043150000000000 C
   0.4916600000000000    0.8673100000000000    0.4838750000000000 C
   0.5330000000000000    0.9071600000000000    0.5653300000000000 C
   0.4040800000000000    0.7808500000000000    0.3086050000000000 C
   0.3211500000000000    0.6951300000000000    0.1416450000000000 C
   0.3338500000000000    0.6836800000000000    0.2454000000000000 C
   0.3124700000000000    0.6629400000000000    0.2050200000000000 C
   0.4117500000000000    0.8127100000000000    0.2446200000000000 C
   0.3927500000000000    0.7919000000000000    0.2042450000000000 C
   0.3829000000000000    0.7586800000000000    0.2653850000000000 C
   0.3423400000000000    0.7169000000000000    0.1841600000000000 C
   0.5301200000000000    0.6539199999999999    0.5593350000000000 C
   0.4452600000000000    0.5719600000000000    0.3921300000000000 C
   0.5575800000000000    0.6819200000000000    0.4956000000000000 C
   0.5380900000000000    0.6619000000000000    0.4552150000000000 C
   0.4382300000000000    0.5634700000000000    0.4956650000000000 C
   0.4167300000000000    0.5439800000000000    0.4552900000000000 C
   0.5083100000000000    0.6327000000000000    0.5161100000000000 C
   0.4669700000000000    0.5928500000000000    0.4346500000000000 C
   0.5958800000000000    0.7191600000000000    0.6913800000000000 C
   0.6788200000000000    0.8048700000000000    0.8583400000000000 C
   0.5882200000000000    0.6872900000000000    0.7553500000000000 C
   0.6072200000000000    0.7081000000000000    0.7957000000000001 C
   0.6661200000000000    0.8163200000000000    0.7545800000000000 C
   0.6875000000000000    0.8370600000000000    0.7949600000000000 C
   0.6170600000000001    0.7413300000000000    0.7344999999999999 C
   0.6576300000000000    0.7831000000000000    0.8158250000000000 C
   0.4698400000000000    0.3460800000000000    0.4406450000000000 C
   0.5547000000000000    0.4280400000000000    0.6078500000000000 C
   0.4423900000000000    0.3180800000000000    0.5043850000000000 C
   0.4618800000000000    0.3381000000000000    0.5447649999999999 C
   0.5832300000000000    0.4560200000000000    0.5446900000000000 C
   0.5617300000000000    0.4365400000000000    0.5043150000000000 C
   0.4916500000000000    0.3673000000000000    0.4838750000000000 C
   0.5329900000000000    0.4071500000000000    0.5653300000000000 C
   0.4040800000000000    0.2808400000000000    0.3086050000000000 C
   0.3211400000000000    0.1951300000000000    0.1416450000000000 C
   0.3338500000000000    0.1836800000000000    0.2454000000000000 C
   0.3124700000000000    0.1629400000000000    0.2050200000000000 C
   0.4117500000000000    0.3127100000000000    0.2446200000000000 C
   0.3927400000000000    0.2919000000000000    0.2042450000000000 C
   0.3829000000000000    0.2586800000000000    0.2653850000000000 C
   0.3423400000000000    0.2169000000000000    0.1841600000000000 C
   0.0301400000000000    0.6539199999999999    0.5593350000000000 C
   0.9452400000000000    0.5719600000000000    0.3921300000000000 C
   0.0576000000000000    0.6819200000000000    0.4956000000000000 C
   0.0381100000000000    0.6619000000000000    0.4552150000000000 C
   0.9167100000000000    0.5439800000000000    0.4552900000000000 C
   0.9382200000000001    0.5634700000000000    0.4956650000000000 C
   0.0083300000000000    0.6327000000000000    0.5161100000000000 C
   0.9669500000000000    0.5928500000000000    0.4346500000000000 C
   0.0959100000000000    0.7191600000000000    0.6913800000000000 C
   0.1788400000000000    0.8048700000000000    0.8583400000000000 C
   0.0882400000000000    0.6872900000000000    0.7553500000000000 C
   0.1072400000000000    0.7081000000000000    0.7957350000000001 C
   0.1661400000000000    0.8163200000000000    0.7545800000000000 C
   0.1875200000000000    0.8370600000000000    0.7949600000000000 C
   0.1170900000000000    0.7413300000000000    0.7344999999999999 C
   0.1576500000000000    0.7831000000000000    0.8158250000000000 C
   0.9698200000000000    0.3460800000000000    0.4406450000000000 C
   0.0547200000000000    0.4280400000000000    0.6078500000000000 C
   0.9423700000000000    0.3180800000000000    0.5043850000000000 C
   0.9618600000000000    0.3381100000000000    0.5447649999999999 C
   0.0617500000000000    0.4365400000000000    0.5043150000000000 C
   0.0832500000000000    0.4560200000000000    0.5446900000000000 C
   0.9916400000000000    0.3673100000000000    0.4838750000000000 C
   0.0330100000000000    0.4071500000000000    0.5653300000000000 C
   0.9040600000000000    0.2808400000000000    0.3086050000000000 C
   0.8211200000000000    0.1951300000000000    0.1416450000000000 C
   0.8338200000000000    0.1836800000000000    0.2454000000000000 C
   0.8124400000000001    0.1629400000000000    0.2050200000000000 C
   0.9117200000000000    0.3127100000000000    0.2446200000000000 C
   0.8927200000000000    0.2919000000000000    0.2042450000000000 C
   0.8828800000000000    0.2586800000000000    0.2653850000000000 C
   0.8423200000000000    0.2169000000000000    0.1841600000000000 C
   0.0301400000000000    0.1539200000000000    0.5593350000000000 C
   0.9452400000000000    0.0719600000000000    0.3921300000000000 C
   0.0575900000000000    0.1819200000000000    0.4956000000000000 C
   0.0381000000000000    0.1619000000000000    0.4552150000000000 C
   0.9167100000000000    0.0439800000000000    0.4552900000000000 C
   0.9382100000000000    0.0634600000000000    0.4956500000000000 C
   0.0083300000000000    0.1326900000000000    0.5161100000000000 C
   0.9669500000000000    0.0928500000000000    0.4346500000000000 C
   0.0959100000000000    0.2191600000000000    0.6913800000000000 C
   0.1788400000000000    0.3048700000000000    0.8583400000000000 C
   0.1661400000000000    0.3163200000000000    0.7545800000000000 C
   0.1875200000000000    0.3370600000000000    0.7949600000000000 C
   0.0882400000000000    0.1872900000000000    0.7553600000000000 C
   0.1072400000000000    0.2081000000000000    0.7957350000000001 C
   0.1170800000000000    0.2413200000000000    0.7345950000000000 C
   0.1576400000000000    0.2831000000000000    0.8158250000000000 C
   0.9698300000000000    0.8460900000000000    0.4406450000000000 C
   0.0547200000000000    0.9280400000000000    0.6078550000000000 C
   0.9423700000000000    0.8180800000000000    0.5043850000000000 C
   0.9618600000000000    0.8381100000000000    0.5447649999999999 C
   0.0832600000000000    0.9560200000000000    0.5446900000000000 C
   0.0617500000000000    0.9365400000000000    0.5043150000000000 C
   0.9916400000000000    0.8673100000000000    0.4838750000000000 C
   0.0330200000000000    0.9071600000000000    0.5653300000000000 C
   0.0301400000000000    0.6539199999999999    0.0593350000000000 C
   0.9452400000000000    0.5719600000000000    0.8921300000000000 C
   0.0576000000000000    0.6819200000000000    0.9956000000000000 C
   0.0381100000000000    0.6619000000000000    0.9552149999999999 C
   0.9167100000000000    0.5439800000000000    0.9552900000000000 C
   0.9382200000000001    0.5634700000000000    0.9956650000000000 C
   0.0083300000000000    0.6327000000000000    0.0161100000000000 C
   0.9669500000000000    0.5928500000000000    0.9346500000000000 C
   0.0959100000000000    0.7191600000000000    0.1913800000000000 C
   0.1788400000000000    0.8048700000000000    0.3583400000000000 C
   0.0882400000000000    0.6872900000000000    0.2553500000000000 C
   0.1072400000000000    0.7081000000000000    0.2957350000000000 C
   0.1661400000000000    0.8163200000000000    0.2545800000000000 C
   0.1875200000000000    0.8370600000000000    0.2949600000000000 C
   0.1170900000000000    0.7413300000000000    0.2345000000000000 C
   0.1576500000000000    0.7831000000000000    0.3158250000000000 C
   0.9698200000000000    0.3460800000000000    0.9406450000000000 C
   0.0547200000000000    0.4280400000000000    0.1078500000000000 C
   0.9423700000000000    0.3180800000000000    0.0043850000000000 C
   0.9618600000000000    0.3381100000000000    0.0447650000000000 C
   0.0617500000000000    0.4365400000000000    0.0043150000000000 C
   0.0832500000000000    0.4560200000000000    0.0446900000000000 C
   0.9916400000000000    0.3673100000000000    0.9838750000000001 C
   0.0330100000000000    0.4071500000000000    0.0653300000000000 C
   0.9040600000000000    0.2808400000000000    0.8086050000000000 C
   0.8211200000000000    0.1951300000000000    0.6416450000000000 C
   0.8338200000000000    0.1836800000000000    0.7454000000000001 C
   0.8124400000000001    0.1629400000000000    0.7050200000000000 C
   0.9117200000000000    0.3127100000000000    0.7446200000000001 C
   0.8927200000000000    0.2919000000000000    0.7042450000000000 C
   0.8828800000000000    0.2586800000000000    0.7653850000000000 C
   0.8423200000000000    0.2169000000000000    0.6841600000000000 C
   0.0301400000000000    0.1539200000000000    0.0593350000000000 C
   0.9452400000000000    0.0719600000000000    0.8921300000000000 C
   0.0575900000000000    0.1819200000000000    0.9956000000000000 C
   0.0381000000000000    0.1619000000000000    0.9552149999999999 C
   0.9167100000000000    0.0439800000000000    0.9552900000000000 C
   0.9382100000000000    0.0634600000000000    0.9956499999999999 C
   0.0083300000000000    0.1326900000000000    0.0161100000000000 C
   0.9669500000000000    0.0928500000000000    0.9346500000000000 C
   0.0959100000000000    0.2191600000000000    0.1913800000000000 C
   0.1788400000000000    0.3048700000000000    0.3583400000000000 C
   0.1661400000000000    0.3163200000000000    0.2545800000000000 C
   0.1875200000000000    0.3370600000000000    0.2949600000000000 C
   0.0882400000000000    0.1872900000000000    0.2553600000000000 C
   0.1072400000000000    0.2081000000000000    0.2957350000000000 C
   0.1170800000000000    0.2413200000000000    0.2345950000000000 C
   0.1576400000000000    0.2831000000000000    0.3158250000000000 C
   0.9698300000000000    0.8460900000000000    0.9406450000000000 C
   0.0547200000000000    0.9280400000000000    0.1078550000000000 C
   0.9423700000000000    0.8180800000000000    0.0043850000000000 C
   0.9618600000000000    0.8381100000000000    0.0447650000000000 C
   0.0832600000000000    0.9560200000000000    0.0446900000000000 C
   0.0617500000000000    0.9365400000000000    0.0043150000000000 C
   0.9916400000000000    0.8673100000000000    0.9838750000000001 C
   0.0330200000000000    0.9071600000000000    0.0653300000000000 C
   0.9040600000000000    0.7808500000000000    0.8086050000000000 C
   0.8211200000000000    0.6951300000000000    0.6416450000000000 C
   0.8338300000000000    0.6836800000000000    0.7454000000000001 C
   0.8124500000000000    0.6629400000000000    0.7050000000000000 C
   0.9117300000000000    0.8127100000000000    0.7446200000000001 C
   0.8927200000000000    0.7919000000000000    0.7042450000000000 C
   0.8828800000000000    0.7586800000000000    0.7653850000000000 C
   0.8423200000000000    0.7169000000000000    0.6841600000000000 C
   0.4188800000000000    0.0767000000000000    0.8314400000000000 N
   0.4086100000000000    0.0072300000000000    0.8314200000000000 N
   0.4248600000000000    0.0024000000000000    0.8690249999999999 N
   0.4417800000000000    0.1187200000000000    0.8690700000000000 N
   0.7546800000000000    0.3558700000000000    0.4188100000000000 N
   0.6627900000000000    0.3154900000000000    0.4189350000000000 N
   0.7671600000000000    0.3504000000000000    0.3812200000000000 N
   0.6132100000000000    0.2827500000000000    0.3814150000000000 N
   0.5810900000000000    0.9233100000000000    0.1685400000000000 N
   0.5913500000000000    0.9927700000000000    0.1685600000000000 N
   0.5751100000000000    0.9976000000000000    0.1309500000000000 N
   0.5581900000000000    0.8812800000000000    0.1309100000000000 N
   0.2452800000000000    0.6441400000000000    0.5811700000000000 N
   0.3371800000000000    0.6845100000000000    0.5810500000000000 N
   0.2328100000000000    0.6496100000000000    0.6187600000000000 N
   0.3867600000000000    0.7172500000000001    0.6185700000000000 N
   0.4188800000000000    0.5767000000000000    0.8314400000000000 N
   0.4086100000000000    0.5072300000000000    0.8314200000000000 N
   0.4248600000000000    0.5024000000000000    0.8690249999999999 N
   0.4417800000000000    0.6187300000000000    0.8690700000000000 N
   0.7546800000000000    0.8558700000000000    0.4188100000000000 N
   0.6627900000000000    0.8155000000000000    0.4189350000000000 N
   0.7671600000000000    0.8504000000000000    0.3812200000000000 N
   0.6132100000000000    0.7827499999999999    0.3814150000000000 N
   0.5810900000000000    0.4233100000000000    0.1685400000000000 N
   0.5913500000000000    0.4927700000000000    0.1685600000000000 N
   0.5750999999999999    0.4976000000000000    0.1309550000000000 N