H18 C20 N4
1.0
  12.4649989956786662    0.0000000000000000    0.0050037715646171
  -0.0019506356270032   15.9679998711278444   -0.0005573883498013
   0.0000000000000000    0.0000000000000000   31.9439999999999991
H C N
18 20 4
direct
   0.7452400000000000    0.4044000000000000    0.0883600000000000 H
   0.7405400000000000    0.3757900000000000    0.0352750000000000 H
   0.2613100000000000    0.2903800000000000    0.1412850000000000 H
   0.2535700000000000    0.3580300000000000    0.0274500000000000 H
   0.2609800000000000    0.3991200000000000    0.0776200000000000 H
   0.6309300000000000    0.2795400000000000    0.0806700000000000 H
   0.7334300000000000    0.2248400000000000    0.0538350000000000 H
   0.3666600000000000    0.2699700000000000    0.0763300000000000 H
   0.2600000000000000    0.2119000000000000    0.0539000000000000 H
   0.2547900000000000    0.1766900000000000    0.2021750000000000 H
   0.2595100000000000    0.0705000000000000    0.1878700000000000 H
   0.7387100000000000    0.2826100000000000    0.1451900000000000 H
   0.7465000000000001    0.0548900000000000    0.1790150000000000 H
   0.7390300000000000    0.1552600000000000    0.1995500000000000 H
   0.3691300000000000    0.1613000000000000    0.1397500000000000 H
   0.2666300000000000    0.1076400000000000    0.1124150000000000 H
   0.6334100000000000    0.1526700000000000    0.1349950000000000 H
   0.7400800000000000    0.1078600000000000    0.1059700000000000 H
   0.1095500000000000    0.3455700000000000    0.0630450000000000 C
   0.0571500000000000    0.2907300000000000    0.0918250000000000 C
   0.1156600000000000    0.2384300000000000    0.1190000000000000 C
   0.9424000000000000    0.2915100000000000    0.0924400000000000 C
   0.8894700000000000    0.3497700000000000    0.0656100000000000 C
   0.7694200000000000    0.3549800000000000    0.0660600000000000 C
   0.2367600000000000    0.2401100000000000    0.1193100000000000 C
   0.2295300000000000    0.3451100000000000    0.0595000000000000 C
   0.7183400000000000    0.2715600000000000    0.0785900000000000 C
   0.2788800000000000    0.2634300000000000    0.0757500000000000 C
   0.8904900000000000    0.1260800000000000    0.1727750000000000 C
   0.9429000000000000    0.1837000000000000    0.1453900000000000 C
   0.8843900000000000    0.2379800000000000    0.1192000000000000 C
   0.0576500000000000    0.1848300000000000    0.1457300000000000 C
   0.1105700000000000    0.1312300000000000    0.1748900000000000 C
   0.2306300000000000    0.1320900000000000    0.1774700000000000 C
   0.7632800000000000    0.2386400000000000    0.1200650000000000 C
   0.7705100000000000    0.1198000000000000    0.1725550000000000 C
   0.2817200000000000    0.1571500000000000    0.1357500000000000 C
   0.7211800000000000    0.1515000000000000    0.1317000000000000 C
   0.0550300000000000    0.3982800000000000    0.0387200000000000 N
   0.9435000000000000    0.4013900000000000    0.0405550000000000 N
   0.9450200000000000    0.0774100000000000    0.1991150000000000 N
   0.0565300000000000    0.0811700000000000    0.2007100000000000 N
