Cu16 H134 C140 N28 Cl16 O4
1.0
  12.4649989956786662    0.0000000000000000    0.0050037715646171
  -0.0019506356270032   15.9679998711278444   -0.0005573883498013
   0.0000000000000000    0.0000000000000000   31.9439999999999991
Cu H C N Cl O
16 134 140 28 16 4
direct
   0.6256000000000000    0.9784100000000000    0.2512400000000000 Cu
   0.3744000000000000    0.5024800000000000    0.4891800000000000 Cu
   0.1255700000000000    0.0216600000000000    0.2487000000000000 Cu
   0.1244300000000000    0.4784000000000000    0.4987400000000000 Cu
   0.3756200000000000    0.0024600000000000    0.2608200000000000 Cu
   0.8755900000000000    0.9975100000000000    0.2391500000000000 Cu
   0.8744800000000000    0.4974800000000000    0.0108200000000000 Cu
   0.6244400000000000    0.5216800000000000    0.0012400000000000 Cu
   0.1244300000000000    0.4784000000000000    0.9987400000000000 Cu
   0.3756200000000000    0.0024600000000000    0.7608200000000001 Cu
   0.6256000000000000    0.9784100000000000    0.7512400000000000 Cu
   0.3744000000000000    0.5024800000000000    0.9891799999999999 Cu
   0.1255700000000000    0.0216600000000000    0.7487000000000000 Cu
   0.8744800000000000    0.4974800000000000    0.5108200000000001 Cu
   0.8755900000000000    0.9975100000000000    0.7391500000000000 Cu
   0.6244400000000000    0.5216800000000000    0.5012400000000000 Cu
   0.1308700000000000    0.7204300000000000    0.4193800000000000 H
   0.2333600000000000    0.7751500000000000    0.4461900000000000 H
   0.8691600000000000    0.8387700000000000    0.3601800000000000 H
   0.7666500000000001    0.8924299999999999    0.3875350000000000 H
   0.8666300000000000    0.7301000000000000    0.4236050000000000 H
   0.7599700000000000    0.7881400000000000    0.4460200000000000 H
   0.1334000000000000    0.8472900000000000    0.3650550000000000 H
   0.2400500000000000    0.8921200000000000    0.3940500000000000 H
   0.2387300000000000    0.7173800000000000    0.3548450000000000 H
   0.7613300000000000    0.7096700000000000    0.3586750000000000 H
   0.2465700000000000    0.9451100000000000    0.3210250000000000 H
   0.2390900000000000    0.8447400000000000    0.3004500000000000 H
   0.7596100000000000    0.9295300000000000    0.3120750000000000 H
   0.7548700000000000    0.8233300000000000    0.2977850000000000 H
   0.7534800000000000    0.6420300000000000    0.4725100000000000 H
   0.7609500000000000    0.6009300000000000    0.4223400000000000 H
   0.2404100000000000    0.6241900000000000    0.4647500000000000 H
   0.2452000000000000    0.5955900000000000    0.4116650000000000 H
   0.6191500000000000    0.2204000000000000    0.3306300000000000 H
   0.5166900000000000    0.2751100000000000    0.3038100000000000 H
   0.8809100000000000    0.3387700000000000    0.3897750000000000 H
   0.9834400000000000    0.3924200000000000    0.3624250000000000 H
   0.6166300000000000    0.3472800000000000    0.3849500000000000 H
   0.5100000000000000    0.3921100000000000    0.3559450000000000 H
   0.8834300000000000    0.2300700000000000    0.3263650000000000 H
   0.9901100000000000    0.2881300000000000    0.3039550000000000 H
   0.5112700000000000    0.2173700000000000    0.3951650000000000 H
   0.9886900000000000    0.2096800000000000    0.3912950000000000 H
   0.9965700000000000    0.1420100000000000    0.2774600000000000 H
   0.9890800000000000    0.1009200000000000    0.3276300000000000 H
   0.5034999999999999    0.4450900000000000    0.4289500000000000 H
   0.5109300000000000    0.3447200000000000    0.4495250000000000 H
   0.9904800000000000    0.4295600000000000    0.4378800000000000 H
   0.9951600000000000    0.3233700000000000    0.4521800000000000 H
   0.5096000000000001    0.1241500000000000    0.2852600000000000 H
   0.5047900000000000    0.0955700000000000    0.3383450000000000 H
   0.0121492744701305    0.0483921609157607    0.2164486644919854 H
   0.0962503138494172    0.1179649465451855    0.1817318633680246 H
   0.9049634389574892    0.1131619315228131    0.1797662045138505 H
   0.9793949323934618    0.1169521275293245    0.2217399585707624 H
   0.9966771383188702    0.4205716420590989    0.0279454786666617 H
   0.0198999749666713    0.4426771443557790    0.0534539336427933 H
   0.9037934417915129    0.3634545468309809    0.0589678783252572 H
   0.0950784958509683    0.3595610671991097    0.0565882990017389 H
   0.3809000000000000    0.6613200000000000    0.1102150000000000 H
   0.4833600000000000    0.6076500000000000    0.1375500000000000 H
   0.1191000000000000    0.7795600000000000    0.1693400000000000 H
   0.0165800000000000    0.7248599999999999    0.1961650000000000 H
   0.3833700000000000    0.7699800000000000    0.1736450000000000 H
   0.4900100000000000    0.7119300000000000    0.1960400000000000 H
   0.1166100000000000    0.6526800000000000    0.1150150000000000 H
   0.0099100000000000    0.6078800000000000    0.1440400000000000 H
   0.4887500000000000    0.7904099999999999    0.1086950000000000 H
   0.0113400000000000    0.7826100000000000    0.1048200000000000 H
   0.4964700000000000    0.8580500000000000    0.2225300000000000 H
   0.4890700000000000    0.8991400000000001    0.1723600000000000 H
   0.0095000000000000    0.8758100000000000    0.2147300000000000 H
   0.0048100000000000    0.9044200000000000    0.1616450000000000 H
   0.0035000000000000    0.5548800000000000    0.0710000000000000 H
   0.0110000000000000    0.6552400000000000    0.0504600000000000 H
   0.4905000000000000    0.5705500000000000    0.0620900000000000 H
   0.4952500000000000    0.6767500000000000    0.0478000000000000 H
   0.6191500000000000    0.2204000000000000    0.8306300000000000 H
   0.5166900000000000    0.2751100000000000    0.8038100000000000 H
   0.8809100000000000    0.3387700000000000    0.8897750000000000 H
   0.9834400000000000    0.3924200000000000    0.8624250000000000 H
   0.6166300000000000    0.3472800000000000    0.8849500000000000 H
   0.5100000000000000    0.3921100000000000    0.8559450000000000 H
   0.8834300000000000    0.2300700000000000    0.8263650000000000 H
   0.9901100000000000    0.2881300000000000    0.8039550000000000 H
   0.5112700000000000    0.2173700000000000    0.8951650000000000 H
   0.9886900000000000    0.2096800000000000    0.8912949999999999 H
   0.9965700000000000    0.1420100000000000    0.7774600000000000 H
   0.9890800000000000    0.1009200000000000    0.8276300000000000 H
   0.5034999999999999    0.4450900000000000    0.9289499999999999 H
   0.5109300000000000    0.3447200000000000    0.9495250000000000 H
   0.9904800000000000    0.4295600000000000    0.9378800000000000 H
   0.9951600000000000    0.3233700000000000    0.9521800000000000 H
   0.5096000000000001    0.1241500000000000    0.7852600000000001 H
   0.5047900000000000    0.0955700000000000    0.8383450000000000 H
   0.1308700000000000    0.7204300000000000    0.9193800000000000 H
   0.2333600000000000    0.7751500000000000    0.9461900000000000 H
   0.8691600000000000    0.8387700000000000    0.8601799999999999 H
   0.7666500000000001    0.8924299999999999    0.8875350000000000 H
   0.8666300000000000    0.7301000000000000    0.9236050000000000 H
   0.7599700000000000    0.7881400000000000    0.9460200000000001 H
   0.1334000000000000    0.8472900000000000    0.8650550000000000 H
   0.2400500000000000    0.8921200000000000    0.8940500000000000 H
   0.2387300000000000    0.7173800000000000    0.8548450000000001 H
   0.7613300000000000    0.7096700000000000    0.8586750000000001 H
   0.2465700000000000    0.9451100000000000    0.8210250000000000 H
   0.2390900000000000    0.8447400000000000    0.8004500000000000 H
   0.7596100000000000    0.9295300000000000    0.8120750000000000 H
   0.7548700000000000    0.8233300000000000    0.7977850000000000 H
   0.7534800000000000    0.6420300000000000    0.9725100000000000 H
   0.7609500000000000    0.6009300000000000    0.9223399999999999 H
   0.2404100000000000    0.6241900000000000    0.9647500000000000 H
   0.2452000000000000    0.5955900000000000    0.9116649999999999 H
   0.3666600000000000    0.2699700000000000    0.5763300000000000 H
   0.2600000000000000    0.2119000000000000    0.5539000000000001 H
   0.3691300000000000    0.1613000000000000    0.6397500000000000 H
   0.2666300000000000    0.1076400000000000    0.6124150000000000 H
   0.6309300000000000    0.2795400000000000    0.5806700000000000 H
   0.7334300000000000    0.2248400000000000    0.5538350000000000 H
   0.6334100000000000    0.1526700000000000    0.6349950000000000 H
   0.7400800000000000    0.1078600000000000    0.6059700000000000 H
   0.7387100000000000    0.2826100000000000    0.6451900000000000 H
   0.2613100000000000    0.2903800000000000    0.6412850000000000 H
   0.2535700000000000    0.3580300000000000    0.5274500000000000 H
   0.2609800000000000    0.3991200000000000    0.5776200000000000 H
   0.7465000000000001    0.0548900000000000    0.6790150000000000 H
   0.7390300000000000    0.1552600000000000    0.6995500000000000 H
   0.2595100000000000    0.0705000000000000    0.6878700000000000 H
   0.2547900000000000    0.1766900000000000    0.7021750000000000 H
   0.7405400000000000    0.3757900000000000    0.5352749999999999 H
   0.7452400000000000    0.4044000000000000    0.5883600000000000 H
   0.3809000000000000    0.6613200000000000    0.6102150000000000 H
   0.4833600000000000    0.6076500000000000    0.6375500000000001 H
   0.1191000000000000    0.7795600000000000    0.6693400000000000 H
   0.0165800000000000    0.7248599999999999    0.6961650000000000 H
   0.3833700000000000    0.7699800000000000    0.6736450000000000 H
   0.4900100000000000    0.7119300000000000    0.6960400000000000 H
   0.1166100000000000    0.6526800000000000    0.6150150000000000 H
   0.0099100000000000    0.6078800000000000    0.6440399999999999 H
   0.4887500000000000    0.7904099999999999    0.6086950000000000 H
   0.0113400000000000    0.7826100000000000    0.6048200000000000 H
   0.4964700000000000    0.8580500000000000    0.7225300000000000 H
   0.4890700000000000    0.8991400000000001    0.6723600000000001 H
   0.0095000000000000    0.8758100000000000    0.7147300000000000 H
   0.0048100000000000    0.9044200000000000    0.6616450000000000 H
   0.0035000000000000    0.5548800000000000    0.5710000000000000 H
   0.0110000000000000    0.6552400000000000    0.5504599999999999 H
   0.4905000000000000    0.5705500000000000    0.5620900000000000 H
   0.4952500000000000    0.6767500000000000    0.5478000000000000 H
   0.2182800000000000    0.7284200000000000    0.4214450000000000 C
   0.7817499999999999    0.8429100000000000    0.3641800000000000 C
   0.7788600000000000    0.7366300000000000    0.4242000000000000 C
   0.2211700000000000    0.8484800000000000    0.3683000000000000 C
   0.2632700000000000    0.7613500000000000    0.3799500000000000 C
   0.7367700000000000    0.7599399999999999    0.3806500000000000 C
   0.2705500000000000    0.8801900000000000    0.3274750000000000 C
   0.7307000000000000    0.8679500000000000    0.3224850000000000 C
   0.7294900000000000    0.6549400000000000    0.4400650000000000 C
   0.2693500000000000    0.6450000000000000    0.4339650000000000 C
   0.3905300000000000    0.8739100000000000    0.3272000000000000 C
   0.6106400000000000    0.8688200000000000    0.3250950000000000 C
   0.5571300000000000    0.7092800000000000    0.4081500000000000 C
   0.6156700000000001    0.7616300000000000    0.3809900000000000 C
   0.5576900000000000    0.8151700000000000    0.3542000000000000 C
   0.3894000000000000    0.6502300000000000    0.4344050000000000 C
   0.6095200000000000    0.6544700000000000    0.4369300000000000 C
   0.4423500000000000    0.7085200000000000    0.4075500000000000 C
   0.3843700000000000    0.7620100000000000    0.3808100000000000 C
   0.4429100000000000    0.8163500000000000    0.3546400000000000 C
   0.5317499999999999    0.2283900000000000    0.3285600000000000 C
   0.9683200000000000    0.3429100000000000    0.3857800000000000 C
   0.5288600000000000    0.3484600000000000    0.3816900000000000 C
   0.9712000000000000    0.2366100000000000    0.3257650000000000 C
   0.4867500000000000    0.2613300000000000    0.3700400000000000 C
   0.0132500000000000    0.2599400000000000    0.3693200000000000 C
   0.0205300000000000    0.1549300000000000    0.3099050000000000 C
   0.4794900000000000    0.3801800000000000    0.4225300000000000 C
   0.0193300000000000    0.3679600000000000    0.4274800000000000 C
   0.4806600000000000    0.1449700000000000    0.3160400000000000 C
   0.1393900000000000    0.3688300000000000    0.4248800000000000 C
   0.3595100000000000    0.3739000000000000    0.4227600000000000 C
   0.1928800000000000    0.2092900000000000    0.3418200000000000 C
   0.1343500000000000    0.2616100000000000    0.3689950000000000 C
   0.1923400000000000    0.3151900000000000    0.3957250000000000 C
   0.3606100000000000    0.1502000000000000    0.3155900000000000 C
   0.1405100000000000    0.1544600000000000    0.3130400000000000 C
   0.3071200000000000    0.3163100000000000    0.3953500000000000 C
   0.3656500000000000    0.2620000000000000    0.3691850000000000 C
   0.3076600000000000    0.2084900000000000    0.3424250000000000 C
   0.4683000000000000    0.6571700000000000    0.1142000000000000 C
   0.0316900000000000    0.7715800000000000    0.1714200000000000 C
   0.4711400000000000    0.7634400000000000    0.1742250000000000 C
   0.0288400000000000    0.6515100000000000    0.1182500000000000 C
   0.5132700000000000    0.7401400000000000    0.1306650000000000 C
   0.9867800000000000    0.7386500000000000    0.1299450000000000 C
   0.5205000000000000    0.8451300000000000    0.1900850000000000 C
   0.9806600000000000    0.8550000000000000    0.1839450000000000 C
   0.9795300000000000    0.6197900000000000    0.0774600000000000 C
   0.5194000000000000    0.6321400000000000    0.0724950000000000 C
   0.6394500000000000    0.6312100000000000    0.0751100000000000 C
   0.8595600000000000    0.6261300000000000    0.0772000000000000 C
   0.6928900000000000    0.7907700000000000    0.1581500000000000 C
   0.6343700000000000    0.7384100000000000    0.1310050000000000 C
   0.6923800000000000    0.6849100000000000    0.1042250000000000 C
   0.8606000000000000    0.8497900000000000    0.1843950000000000 C
   0.6404800000000000    0.8456000000000000    0.1869000000000000 C
   0.8071600000000000    0.6836400000000000    0.1046450000000000 C
   0.8656800000000000    0.7380200000000000    0.1307850000000000 C
   0.8076700000000000    0.7915000000000000    0.1575700000000000 C
   0.5317499999999999    0.2283900000000000    0.8285600000000000 C
   0.9683200000000000    0.3429100000000000    0.8857800000000000 C
   0.5288600000000000    0.3484600000000000    0.8816900000000000 C
   0.9712000000000000    0.2366100000000000    0.8257650000000001 C
   0.4867500000000000    0.2613300000000000    0.8700399999999999 C
   0.0132500000000000    0.2599400000000000    0.8693200000000000 C
   0.0205300000000000    0.1549300000000000    0.8099050000000000 C
   0.4794900000000000    0.3801800000000000    0.9225300000000001 C
   0.0193300000000000    0.3679600000000000    0.9274800000000001 C
   0.4806600000000000    0.1449700000000000    0.8160400000000000 C
   0.1393900000000000    0.3688300000000000    0.9248799999999999 C
   0.3595100000000000    0.3739000000000000    0.9227600000000000 C
   0.1928800000000000    0.2092900000000000    0.8418200000000000 C
   0.1343500000000000    0.2616100000000000    0.8689950000000000 C
   0.1923400000000000    0.3151900000000000    0.8957250000000000 C
   0.3606100000000000    0.1502000000000000    0.8155900000000000 C
   0.1405100000000000    0.1544600000000000    0.8130400000000000 C
   0.3071200000000000    0.3163100000000000    0.8953500000000000 C
   0.3656500000000000    0.2620000000000000    0.8691850000000000 C
   0.3076600000000000    0.2084900000000000    0.8424250000000000 C
   0.2182800000000000    0.7284200000000000    0.9214450000000001 C
   0.7817499999999999    0.8429100000000000    0.8641799999999999 C
   0.7788600000000000    0.7366300000000000    0.9242000000000000 C
   0.2211700000000000    0.8484800000000000    0.8683000000000001 C
   0.2632700000000000    0.7613500000000000    0.8799500000000000 C
   0.7367700000000000    0.7599399999999999    0.8806499999999999 C
   0.2705500000000000    0.8801900000000000    0.8274750000000000 C
   0.7307000000000000    0.8679500000000000    0.8224850000000000 C
   0.7294900000000000    0.6549400000000000    0.9400649999999999 C
   0.2693500000000000    0.6450000000000000    0.9339649999999999 C
   0.3905300000000000    0.8739100000000000    0.8271999999999999 C
   0.6106400000000000    0.8688200000000000    0.8250950000000000 C
   0.5571300000000000    0.7092800000000000    0.9081500000000000 C
   0.6156700000000001    0.7616300000000000    0.8809899999999999 C
   0.5576900000000000    0.8151700000000000    0.8542000000000001 C
   0.3894000000000000    0.6502300000000000    0.9344049999999999 C
   0.6095200000000000    0.6544700000000000    0.9369300000000000 C
   0.4423500000000000    0.7085200000000000    0.9075500000000001 C
   0.3843700000000000    0.7620100000000000    0.8808100000000000 C
   0.4429100000000000    0.8163500000000000    0.8546400000000001 C
   0.2788800000000000    0.2634300000000000    0.5757500000000000 C
   0.2817200000000000    0.1571500000000000    0.6357500000000000 C
   0.7183400000000000    0.2715600000000000    0.5785899999999999 C
   0.7211800000000000    0.1515000000000000    0.6317000000000000 C
   0.7632800000000000    0.2386400000000000    0.6200650000000000 C
   0.2367600000000000    0.2401100000000000    0.6193100000000000 C
   0.2295300000000000    0.3451100000000000    0.5595000000000000 C
   0.7705100000000000    0.1198000000000000    0.6725550000000000 C
   0.2306300000000000    0.1320900000000000    0.6774700000000000 C
   0.7694200000000000    0.3549800000000000    0.5660600000000000 C
   0.8894700000000000    0.3497700000000000    0.5656099999999999 C
   0.1095500000000000    0.3455700000000000    0.5630450000000000 C
   0.9424000000000000    0.2915100000000000    0.5924400000000000 C
   0.8843900000000000    0.2379800000000000    0.6192000000000000 C
   0.9429000000000000    0.1837000000000000    0.6453900000000000 C
   0.1105700000000000    0.1312300000000000    0.6748900000000000 C
   0.8904900000000000    0.1260800000000000    0.6727750000000000 C
   0.0571500000000000    0.2907300000000000    0.5918250000000000 C
   0.1156600000000000    0.2384300000000000    0.6190000000000000 C
   0.0576500000000000    0.1848300000000000    0.6457300000000000 C
   0.4683000000000000    0.6571700000000000    0.6142000000000000 C
   0.0316900000000000    0.7715800000000000    0.6714200000000000 C
   0.4711400000000000    0.7634400000000000    0.6742250000000000 C
   0.0288400000000000    0.6515100000000000    0.6182500000000000 C
   0.5132700000000000    0.7401400000000000    0.6306650000000000 C
   0.9867800000000000    0.7386500000000000    0.6299450000000000 C
   0.5205000000000000    0.8451300000000000    0.6900850000000001 C
   0.9806600000000000    0.8550000000000000    0.6839450000000000 C
   0.9795300000000000    0.6197900000000000    0.5774600000000000 C
   0.5194000000000000    0.6321400000000000    0.5724950000000000 C
   0.6394500000000000    0.6312100000000000    0.5751100000000000 C
   0.8595600000000000    0.6261300000000000    0.5772000000000000 C
   0.6928900000000000    0.7907700000000000    0.6581500000000000 C
   0.6343700000000000    0.7384100000000000    0.6310050000000000 C
   0.6923800000000000    0.6849100000000000    0.6042250000000000 C
   0.8606000000000000    0.8497900000000000    0.6843950000000000 C
   0.6404800000000000    0.8456000000000000    0.6869000000000001 C
   0.8071600000000000    0.6836400000000000    0.6046450000000000 C
   0.8656800000000000    0.7380200000000000    0.6307850000000000 C
   0.8076700000000000    0.7915000000000000    0.6575700000000000 C
   0.4450700000000000    0.9225600000000000    0.3008650000000000 N
   0.5566300000000000    0.9189200000000000    0.2990000000000000 N
   0.4434200000000000    0.5985700000000000    0.4594200000000000 N
   0.5549700000000000    0.6018200000000000    0.4612950000000000 N
   0.1934200000000000    0.4188600000000000    0.4507050000000000 N
   0.3049700000000000    0.4226100000000000    0.4490950000000000 N
   0.3066000000000000    0.0986000000000000    0.2905400000000000 N
   0.1950400000000000    0.1017300000000000    0.2887150000000000 N
   0.6934800000000000    0.5811500000000001    0.0492800000000000 N
   0.8050300000000000    0.5774300000000000    0.0508650000000000 N
   0.8065600000000001    0.9014600000000000    0.2094150000000000 N
   0.6950100000000000    0.8982500000000000    0.2112900000000000 N
   0.1934200000000000    0.4188600000000000    0.9507050000000000 N
   0.3049700000000000    0.4226100000000000    0.9490950000000000 N
   0.3066000000000000    0.0986000000000000    0.7905400000000000 N
   0.1950400000000000    0.1017300000000000    0.7887150000000001 N
   0.4450700000000000    0.9225600000000000    0.8008649999999999 N
   0.5566300000000000    0.9189200000000000    0.7989999999999999 N
   0.4434200000000000    0.5985700000000000    0.9594199999999999 N
   0.5549700000000000    0.6018200000000000    0.9612950000000000 N
   0.9435000000000000    0.4013900000000000    0.5405550000000000 N
   0.0550300000000000    0.3982800000000000    0.5387200000000000 N
   0.0565300000000000    0.0811700000000000    0.7007099999999999 N
   0.9450200000000000    0.0774100000000000    0.6991149999999999 N
   0.6934800000000000    0.5811500000000001    0.5492800000000000 N
   0.8050300000000000    0.5774300000000000    0.5508650000000000 N
   0.8065600000000001    0.9014600000000000    0.7094150000000000 N
   0.6950100000000000    0.8982500000000000    0.7112900000000000 N
   0.2507000000000000    0.9237100000000000    0.2210050000000000 Cl
   0.2507000000000000    0.9237100000000000    0.7210050000000000 Cl
   0.4992900000000000    0.4237100000000000    0.5289900000000000 Cl
   0.4992900000000000    0.4237100000000000    0.0289900000000000 Cl
   0.5007400000000000    0.0580400000000000    0.7118400000000000 Cl
   0.5007400000000000    0.0580400000000000    0.2118400000000000 Cl
   0.7493700000000000    0.4419900000000000    0.9618550000000000 Cl
   0.7493700000000000    0.4419900000000000    0.4618550000000000 Cl
   0.2492900000000000    0.5580500000000000    0.0381600000000000 Cl
   0.2492900000000000    0.5580500000000000    0.5381600000000000 Cl
   0.0006400000000000    0.9420100000000000    0.2881400000000000 Cl
   0.0006400000000000    0.9420100000000000    0.7881400000000001 Cl
   0.7507000000000000    0.0763500000000000    0.2790100000000000 Cl
   0.7507000000000000    0.0763500000000000    0.7790100000000000 Cl
   0.9993900000000000    0.5763600000000000    0.4709500000000000 Cl
   0.9993900000000000    0.5763600000000000    0.9709500000000000 Cl
   0.0565300000000000    0.0811700000000000    0.2007100000000000 O
   0.9450200000000000    0.0774100000000000    0.1991150000000000 O
   0.9435000000000000    0.4013900000000000    0.0405550000000000 O
   0.0550300000000000    0.3982800000000000    0.0387200000000000 O
