H8 O4
1.0
  12.4649989956786662    0.0000000000000000    0.0050037715646171
  -0.0019506356270032   15.9679998711278444   -0.0005573883498013
   0.0000000000000000    0.0000000000000000   31.9439999999999991
H O
8 4
direct
   0.9966771383188702    0.4205716420590989    0.0279454786666617 H
   0.0198999749666713    0.4426771443557790    0.0534539336427933 H
   0.9037934417915129    0.3634545468309809    0.0589678783252572 H
   0.0950784958509683    0.3595610671991097    0.0565882990017389 H
   0.0121492744701305    0.0483921609157607    0.2164486644919854 H
   0.0962503138494172    0.1179649465451855    0.1817318633680246 H
   0.9049634389574892    0.1131619315228131    0.1797662045138505 H
   0.9793949323934618    0.1169521275293245    0.2217399585707624 H
   0.9435000000000000    0.4013900000000000    0.0405550000000000 O
   0.0550300000000000    0.3982800000000000    0.0387200000000000 O
   0.0565300000000000    0.0811700000000000    0.2007100000000000 O
   0.9450200000000000    0.0774100000000000    0.1991150000000000 O
