H5 O3
1.0
  36.3719999778409147    0.0000000000000000    0.0012696223108118
   0.0074586907756463   30.5279923746970496    0.0202469348495237
   0.0000000000000000    0.0000000000000000   31.8320000000000007
H O
5 3
direct
   0.6678696077078801    0.6929893167936707    0.5449680088898791 H
   0.6460362604052737    0.7028025558325566    0.5695879508115442 H
   0.6757812180762875    0.6473256821850709    0.5680948779648829 H
   0.5839462543895233    0.6475352605913760    0.6924508495082414 H
   0.6076645638104861    0.6001948048701330    0.6912327252326150 H
   0.6624433333333333    0.7030650000000001    0.5452250000000000 O
   0.6823966666666667    0.6660150000000000    0.5442800000000000 O
   0.5886066666666666    0.6183950000000000    0.7041200000000000 O
