H4 C8 N4 O2
1.0
  27.6557060842042404    0.0000000000000000   -3.3344650221750367
 -11.6133920521762821   35.7586992579510294   -8.1288196204529797
   0.0000000000000000    0.0000000000000000   35.8680000000000021
H C N O
4 8 4 2
direct
   0.4500900000000000    0.0127250000000000    0.0117200000000000 H
   0.5559150000000000    0.1178200000000000    0.0116000000000000 H
   0.5395900000000000    0.1001200000000000    0.9399450000000000 H
   0.4300400000000000    0.9953799999999999    0.9400850000000001 H
   0.5150700000000000    0.0769600000000000    0.0593350000000000 C
   0.5041650000000000    0.0663450000000000    0.0161100000000000 C
   0.4834750000000000    0.0464250000000000    0.9346500000000000 C
   0.4691050000000000    0.0317300000000000    0.9956499999999999 C
   0.4583550000000000    0.0219900000000000    0.9552900000000000 C
   0.4726200000000000    0.0359800000000000    0.8921300000000000 C
   0.5287950000000000    0.0909600000000000    0.9956000000000000 C
   0.5190500000000000    0.0809500000000000    0.9552149999999999 C
   0.4708800000000000    0.0593600000000000    0.8690500000000000 N
   0.4594250000000000    0.0383500000000000    0.8313999999999999 N
   0.4542900000000000    0.0036150000000000    0.8314200000000000 N
   0.4624200000000000    0.0012000000000000    0.8690249999999999 N
   0.5027550000000000    0.0507600000000000    0.0765500000000000 O
   0.5360100000000000    0.1116300000000000    0.0765150000000000 O
