H8 O5
1.0
  13.0699631804954794    0.0000000000000000   -0.0310235473878653
  -0.1420016738554337   24.2085795144348204   -0.0139433822634023
   0.0000000000000000    0.0000000000000000   15.0419999999999998
H O
8 5
direct
   0.3407754183072763    0.5052900342305910    0.2360991886294934 H
   0.4402371089265982    0.3653412168882437    0.1205677992339266 H
   0.3973870648672241    0.4301967099541472    0.1813079983238914 H
   0.4604107927284779    0.3505704086059053    0.3065500157613186 H
   0.5305378986466659    0.3587895537663643    0.3999880705999784 H
   0.6626763508312123    0.4026469551793291    0.5330983253501019 H
   0.5406209061995014    0.5290499506808491    0.4077504890686080 H
   0.5926430801663448    0.4626147472632587    0.4619580421838503 H
   0.3468200000000000    0.4793700000000000    0.1872200000000000 O
   0.4043800000000000    0.4002100000000000    0.1247600000000000 O
   0.4956300000000000    0.3343800000000000    0.3576700000000000 O
   0.6580700000000000    0.4423900000000000    0.5261900000000000 O
   0.5865899999999999    0.5148400000000000    0.4528800000000000 O
