H3 C7 N1 O4
1.0
  13.0699631804954794    0.0000000000000000   -0.0310235473878653
  -0.1420016738554337   24.2085795144348204   -0.0139433822634023
   0.0000000000000000    0.0000000000000000   15.0419999999999998
H C N O
3 7 1 4
direct
   0.4146200000000000    0.3277100000000000    0.2394000000000000 H
   0.4823600000000000    0.4935500000000000    0.3281000000000000 H
   0.5836100000000000    0.3483900000000000    0.4713000000000000 H
   0.4469900000000000    0.3567400000000000    0.2870700000000000 C
   0.4405500000000000    0.4136200000000000    0.2746800000000000 C
   0.4861800000000000    0.4489400000000000    0.3361000000000000 C
   0.5414300000000000    0.4256500000000000    0.4065000000000000 C
   0.5440100000000000    0.3682100000000000    0.4163200000000000 C
   0.3922800000000000    0.4334500000000000    0.1909400000000000 C
   0.6002100000000000    0.4627300000000000    0.4676600000000000 C
   0.4956300000000000    0.3343800000000000    0.3576700000000000 N
   0.4043800000000000    0.4002100000000000    0.1247600000000000 O
   0.3468200000000000    0.4793700000000000    0.1872200000000000 O
   0.5865899999999999    0.5148400000000000    0.4528800000000000 O
   0.6580700000000000    0.4423900000000000    0.5261900000000000 O
