H4 C6 N5
1.0
   5.7229991623321208    0.0000000000000000    0.0030964408347679
   0.4506610103132906   10.5543815573691742    0.0055312972126813
   0.0000000000000000    0.0000000000000000   16.2650000000000006
H C N
4 6 5
direct
   0.7448200000000000    0.7853500000000000    0.3510700000000000 H
   0.9081500000000000    0.9164500000000000    0.2390300000000000 H
   0.2203900000000000    0.6697300000000000    0.1792500000000000 H
   0.4088900000000000    0.8026799999999999    0.0731800000000000 H
   0.3468500000000000    0.6478699999999999    0.3386400000000000 C
   0.4665700000000000    0.7168700000000000    0.2746200000000000 C
   0.6648300000000000    0.7865900000000000    0.2904400000000000 C
   0.7569900000000001    0.8593000000000000    0.2280700000000000 C
   0.3744300000000000    0.7220200000000000    0.1944500000000000 C
   0.4782300000000000    0.7960400000000000    0.1355600000000000 C
   0.4368900000000000    0.6083100000000000    0.4120800000000000 N
   0.2542600000000000    0.5600300000000000    0.4528300000000000 N
   0.0635300000000000    0.5697300000000000    0.4043400000000000 N
   0.1184700000000000    0.6229800000000000    0.3324400000000000 N
   0.6660100000000000    0.8661100000000000    0.1513600000000000 N
