H5 O3
1.0
  23.9485633203019930    0.0000000000000000    0.1446232812719079
   1.0877398435903378   14.3998747850284232    0.0539370760117913
   0.0000000000000000    0.0000000000000000   28.9059999999999988
H O
5 3
direct
   0.8507461884872978    0.1529159006845360    0.8664874832603632 H
   0.8777376989242452    0.2382540141906951    0.8362771221903191 H
   0.7675412296684381    0.3388352345365560    0.9429462152058151 H
   0.7995461049307458    0.4832855079812275    0.8962171734194443 H
   0.7666350269183740    0.4551192763710121    0.8361065679626849 H
   0.8719500000000000    0.1721800000000000    0.8395250000000001 O
   0.7800900000000000    0.3396600000000000    0.9747749999999999 O
   0.8025533333333332    0.4574800000000000    0.9272100000000000 O
