H2 O1
1.0
  15.8595433212468464    0.0000000000000000   -2.2546056509940935
  -1.2082216222760682   18.4688806705200150   -8.5242463766339256
   0.0000000000000000    0.0000000000000000   12.1609999999999996
H O
2 1
direct
   0.8170694123006512    0.3772021811130817    0.4285132399562579 H
   0.8220049186583600    0.3929257753936906    0.4866365167664404 H
   0.8004100000000000    0.3479100000000000    0.4692500000000000 O
