H9 C10 N3
1.0
  15.8595433212468464    0.0000000000000000   -2.2546056509940935
  -1.2082216222760682   18.4688806705200150   -8.5242463766339256
   0.0000000000000000    0.0000000000000000   12.1609999999999996
H C N
9 10 3
direct
   0.5122900000000000    0.5979300000000000    0.3515300000000000 H
   0.5546200000000000    0.5964699999999999    0.1624400000000000 H
   0.6487200000000000    0.3849600000000000    0.0901100000000000 H
   0.6005200000000001    0.3952500000000000    0.2801000000000000 H
   0.7386200000000001    0.4220700000000000    0.6487600000000000 H
   0.6964900000000001    0.5151400000000000    0.8379300000000000 H
   0.5997900000000000    0.3399400000000000    0.9084700000000000 H
   0.6481000000000000    0.2552200000000000    0.7186399999999999 H
   0.6252700000000000    0.5402600000000000    0.9999700000000000 H
   0.6016700000000000    0.4886000000000000    0.1045100000000000 C
   0.5410800000000000    0.5511200000000001    0.2894100000000000 C
   0.5648900000000000    0.5497900000000000    0.1834900000000000 C
   0.6158100000000000    0.4320900000000000    0.1412000000000000 C
   0.5898400000000000    0.4380900000000000    0.2492600000000000 C
   0.6481500000000000    0.4362700000000000    0.8950000000000000 C
   0.7093400000000000    0.4063500000000000    0.7105600000000000 C
   0.6856300000000000    0.4579600000000000    0.8165100000000000 C
   0.6333000000000000    0.3614500000000000    0.8578100000000000 C
   0.6592800000000000    0.3134500000000000    0.7498300000000000 C
   0.5516600000000000    0.4955800000000000    0.3221100000000000 N
   0.6981500000000000    0.3344800000000000    0.6774900000000000 N
   0.6249900000000000    0.4901900000000000    0.9998000000000000 N
