H4 O2
1.0
  15.8595433212468464    0.0000000000000000   -2.2546056509940935
  -1.2082216222760682   18.4688806705200150   -8.5242463766339256
   0.0000000000000000    0.0000000000000000   12.1609999999999996
H O
4 2
direct
   0.6699162022159938    0.3192045493337368    0.7300352259247495 H
   0.7062541734657559    0.3865306655034741    0.7014404036204243 H
   0.5439966483673463    0.5358089744496775    0.2984245937251629 H
   0.5793904138763321    0.4538245915728044    0.2691985109771926 H
   0.6981500000000000    0.3344800000000000    0.6774900000000000 O
   0.5516600000000000    0.4955800000000000    0.3221100000000000 O
