H1 C1 S1 N1
1.0
  15.8595433212468464    0.0000000000000000   -2.2546056509940935
  -1.2082216222760682   18.4688806705200150   -8.5242463766339256
   0.0000000000000000    0.0000000000000000   12.1609999999999996
H C S N
1 1 1 1
direct
   0.8747300000000000    0.4597100000000000    0.3000000000000000 H
   0.8206000000000000    0.3834100000000000    0.4198800000000000 C
   0.8476600000000000    0.4328100000000000    0.3518100000000000 S
   0.8004100000000000    0.3479100000000000    0.4692500000000000 N
