Cd8 H66 C86 S16 N37 O2
1.0
  15.8595433212468464    0.0000000000000000   -2.2546056509940935
  -1.2082216222760682   18.4688806705200150   -8.5242463766339256
   0.0000000000000000    0.0000000000000000   12.1609999999999996
Cd H C S N O
8 66 86 16 37 2
direct
   0.0000100000000000    0.4999800000000000    0.5000200000000000 Cd
   0.2500000000000000    0.2499900000000000    0.5000100000000000 Cd
   0.5000000000000000    0.9999900000000000    0.5000200000000000 Cd
   0.7500000000000000    0.2499900000000000    0.5000200000000000 Cd
   0.7500000000000000    0.7499800000000000    0.5000100000000000 Cd
   0.0000100000000000    0.9999900000000000    0.5000200000000000 Cd
   0.5000000000000000    0.4999800000000000    0.5000200000000000 Cd
   0.2500000000000000    0.7499800000000000    0.5000100000000000 Cd
   0.1487200000000000    0.3849600000000000    0.0901100000000000 H
   0.0546300000000000    0.5964699999999999    0.1624400000000000 H
   0.0123000000000000    0.5979300000000000    0.3515400000000000 H
   0.1005200000000000    0.3952400000000000    0.2801100000000000 H
   0.0997800000000000    0.3399400000000000    0.9084700000000000 H
   0.1964900000000000    0.5151400000000000    0.8379300000000000 H
   0.2386200000000000    0.4220700000000000    0.6487000000000001 H
   0.1480900000000000    0.2552200000000000    0.7186300000000000 H
   0.1252700000000000    0.5402500000000000    0.9999000000000000 H
   0.3512800000000000    0.1150100000000000    0.9099200000000000 H
   0.4453800000000000    0.9035000000000000    0.8375899999999999 H
   0.4877100000000000    0.9020300000000000    0.6485000000000000 H
   0.3994800000000000    0.1047300000000000    0.7199200000000000 H
   0.3747300000000000    0.9597100000000000    0.0000000000000000 H
   0.4002200000000000    0.1600300000000000    0.0915600000000000 H
   0.3035200000000000    0.9848300000000000    0.1621100000000000 H
   0.2613800000000000    0.0779000000000000    0.3512000000000000 H
   0.3519100000000000    0.2447500000000000    0.2813900000000000 H
   0.6699162022159938    0.3192045493337368    0.7300352259247495 H
   0.7062541734657559    0.3865306655034741    0.7014404036204243 H
   0.9002200000000000    0.6600300000000000    0.0915600000000000 H
   0.8035099999999999    0.4848200000000000    0.1621100000000000 H
   0.7613700000000000    0.5779000000000000    0.3512800000000000 H
   0.8519099999999999    0.7447500000000000    0.2814000000000000 H
   0.8512800000000000    0.6150099999999999    0.9099000000000000 H
   0.9453700000000000    0.4035000000000000    0.8375899999999999 H
   0.9877000000000000    0.4020300000000000    0.6484900000000000 H
   0.8994700000000000    0.6047200000000000    0.7199200000000000 H
   0.8747300000000000    0.4597100000000000    0.3000000000000000 H
   0.5997800000000000    0.8399400000000000    0.9084700000000000 H
   0.6964800000000000    0.0151400000000000    0.8379300000000000 H
   0.7386300000000000    0.9220699999999999    0.6487600000000000 H
   0.6480900000000001    0.7552100000000000    0.7186300000000000 H
   0.6252700000000000    0.0402600000000000    0.9999700000000000 H
   0.6487200000000000    0.8849600000000000    0.0901100000000000 H
   0.5546200000000000    0.0964700000000000    0.1624400000000000 H
   0.5122900000000000    0.0979300000000000    0.3515000000000000 H
   0.6005200000000001    0.8952400000000000    0.2801100000000000 H
   0.9002200000000000    0.1600300000000000    0.0915000000000000 H
   0.8035099999999999    0.9848300000000000    0.1621100000000000 H
   0.7613700000000000    0.0779000000000000    0.3512800000000000 H
   0.8519099999999999    0.2447600000000000    0.2814000000000000 H
   0.8512800000000000    0.1150100000000000    0.9099300000000000 H
   0.9453700000000000    0.9035000000000000    0.8375899999999999 H
   0.9877000000000000    0.9020300000000000    0.6484900000000000 H
   0.8994700000000000    0.1047300000000000    0.7199000000000000 H
   0.8747300000000000    0.9597100000000000    0.3000000000000000 H
   0.5439966483673463    0.5358089744496775    0.2984245937251629 H
   0.5793904138763321    0.4538245915728044    0.2691985109771926 H
   0.1487200000000000    0.8849500000000000    0.0901000000000000 H
   0.0546300000000000    0.0964700000000000    0.1624400000000000 H
   0.0123000000000000    0.0979300000000000    0.3515400000000000 H
   0.1005200000000000    0.8952400000000000    0.2801100000000000 H
   0.1252700000000000    0.0402500000000000    0.9999700000000000 H
   0.0997800000000000    0.8399400000000000    0.9084600000000000 H
   0.1964900000000000    0.0151400000000000    0.8379200000000000 H
   0.2386300000000000    0.9220699999999999    0.6487500000000000 H
   0.1480900000000000    0.7552100000000000    0.7186300000000000 H
   0.4002200000000000    0.6600200000000001    0.0915600000000000 H
   0.3035100000000000    0.4848200000000000    0.1621100000000000 H
   0.2613800000000000    0.5779000000000000    0.3512700000000000 H
   0.3519100000000000    0.7447500000000000    0.2813900000000000 H
   0.3512800000000000    0.6150000000000000    0.9099200000000000 H
   0.4453800000000000    0.4035000000000000    0.8370000000000000 H
   0.4877100000000000    0.4020400000000000    0.6485000000000000 H
   0.3994700000000000    0.6047200000000000    0.7199200000000000 H
   0.9294700000000000    0.6734300000000000    0.5805000000000000 C
   0.0705300000000000    0.3265400000000000    0.4195200000000000 C
   0.1158100000000000    0.4320800000000000    0.1412000000000000 C
   0.0649000000000000    0.5497900000000000    0.1834900000000000 C
   0.0411000000000000    0.5511200000000001    0.2894200000000000 C
   0.0898500000000000    0.4380900000000000    0.2492600000000000 C
   0.1332900000000000    0.3614500000000000    0.8570000000000000 C
   0.1856300000000000    0.4579600000000000    0.8165000000000000 C
   0.2093500000000000    0.4063400000000000    0.7105600000000000 C
   0.1592900000000000    0.3134500000000000    0.7498300000000000 C
   0.1016800000000000    0.4886000000000000    0.1045100000000000 C
   0.1481600000000000    0.4362700000000000    0.8950000000000000 C
   0.3841900000000000    0.0678900000000000    0.8588000000000000 C
   0.4351100000000000    0.9501800000000000    0.8165400000000000 C
   0.4589200000000000    0.9488400000000000    0.7106200000000000 C
   0.4101600000000000    0.0618800000000000    0.7507700000000000 C
   0.3518400000000000    0.0637000000000000    0.1050300000000000 C
   0.3983300000000000    0.0113700000000000    0.8955200000000000 C
   0.3667000000000000    0.1385200000000000    0.1422300000000000 C
   0.3143700000000000    0.0420100000000000    0.1835200000000000 C
   0.2906600000000000    0.0936300000000000    0.2894000000000000 C
   0.3407200000000000    0.1865200000000000    0.2501900000000000 C
   0.1794000000000000    0.1165600000000000    0.5801500000000001 C
   0.3206000000000000    0.3834100000000000    0.4198800000000000 C
   0.5705300000000000    0.8265400000000001    0.4195200000000000 C
   0.4294700000000000    0.1734300000000000    0.5805100000000000 C
   0.8667000000000000    0.6385200000000000    0.1422000000000000 C
   0.8143600000000000    0.5420100000000000    0.1835200000000000 C
   0.7906600000000000    0.5936200000000000    0.2894800000000000 C
   0.8407200000000000    0.6865200000000000    0.2502000000000000 C
   0.8518400000000000    0.5636900000000000    0.1050300000000000 C
   0.8983300000000000    0.5113600000000000    0.8955200000000000 C
   0.8841800000000000    0.5678800000000001    0.8588000000000000 C
   0.9351000000000000    0.4501800000000000    0.8165400000000000 C
   0.9589100000000000    0.4488400000000000    0.7106200000000000 C
   0.9101600000000000    0.5618800000000000    0.7507000000000000 C
   0.8206000000000000    0.3834100000000000    0.4198800000000000 C
   0.6794000000000000    0.1165600000000000    0.5801500000000001 C
   0.6333000000000000    0.8614400000000000    0.8578000000000000 C
   0.6856400000000000    0.9579600000000000    0.8165100000000000 C
   0.7093400000000000    0.9063400000000000    0.7105500000000000 C
   0.6592800000000000    0.8134400000000001    0.7498300000000000 C
   0.6481500000000000    0.9362700000000000    0.8950000000000000 C
   0.6016700000000000    0.9886000000000000    0.1045100000000000 C
   0.6158100000000000    0.9320800000000000    0.1412300000000000 C
   0.5649000000000000    0.0497900000000000    0.1834900000000000 C
   0.5410800000000000    0.0511200000000000    0.2894100000000000 C
   0.5898300000000000    0.9380900000000000    0.2492000000000000 C
   0.6794000000000000    0.6165600000000000    0.5801500000000001 C
   0.8667000000000000    0.1385300000000000    0.1422300000000000 C
   0.8143600000000000    0.0420100000000000    0.1835300000000000 C
   0.7906600000000000    0.0936300000000000    0.2894800000000000 C
   0.8407200000000000    0.1865300000000000    0.2502000000000000 C
   0.8518400000000000    0.0637000000000000    0.1050300000000000 C
   0.8983200000000000    0.0113700000000000    0.8955200000000000 C
   0.8841800000000000    0.0678900000000000    0.8588000000000000 C
   0.9351000000000000    0.9501800000000000    0.8165400000000000 C
   0.9589100000000000    0.9488400000000000    0.7106200000000000 C
   0.9101600000000000    0.0618800000000000    0.7507000000000000 C
   0.8206000000000000    0.8834100000000000    0.4198800000000000 C
   0.0705300000000000    0.8265300000000000    0.4195200000000000 C
   0.9294700000000000    0.1734300000000000    0.5805100000000000 C
   0.4294700000000000    0.6734300000000000    0.5805100000000000 C
   0.5705300000000000    0.3265400000000000    0.4195200000000000 C
   0.1158200000000000    0.9320800000000000    0.1412300000000000 C
   0.0649000000000000    0.0497900000000000    0.1834900000000000 C
   0.0410900000000000    0.0511200000000000    0.2894100000000000 C
   0.0898400000000000    0.9380900000000000    0.2492500000000000 C
   0.1016700000000000    0.9886000000000000    0.1045000000000000 C
   0.1481600000000000    0.9362700000000000    0.8949900000000000 C
   0.1333000000000000    0.8614400000000000    0.8578000000000000 C
   0.1856400000000000    0.9579500000000000    0.8165100000000000 C
   0.2093400000000000    0.9063400000000000    0.7105500000000000 C
   0.1592800000000000    0.8134400000000001    0.7498200000000000 C
   0.3667000000000000    0.6385200000000000    0.1422200000000000 C
   0.3143600000000000    0.5420100000000000    0.1835200000000000 C
   0.2906700000000000    0.5936200000000000    0.2894800000000000 C
   0.3407300000000000    0.6865200000000000    0.2502000000000000 C
   0.3841800000000000    0.5678800000000001    0.8587900000000001 C
   0.4351000000000000    0.4501800000000000    0.8165400000000000 C
   0.4589200000000000    0.4488500000000000    0.7106200000000000 C
   0.4101700000000000    0.5618800000000000    0.7507800000000000 C
   0.3983400000000000    0.5113700000000000    0.8955000000000000 C
   0.3518500000000000    0.5636900000000000    0.1050000000000000 C
   0.1794000000000000    0.6165600000000000    0.5801500000000001 C
   0.3206000000000000    0.8834100000000000    0.4198800000000000 C
   0.9019700000000000    0.7566200000000000    0.6493800000000000 S
   0.0980300000000000    0.2433500000000000    0.3506000000000000 S
   0.1523400000000000    0.0671600000000000    0.6482100000000000 S
   0.3476700000000000    0.4328000000000000    0.3518100000000000 S
   0.5980300000000000    0.7433500000000000    0.3506500000000000 S
   0.4019700000000000    0.2566200000000000    0.6493800000000000 S
   0.8476600000000000    0.4328100000000000    0.3518100000000000 S
   0.6523300000000000    0.0671600000000000    0.6482000000000000 S
   0.6523300000000000    0.5671600000000000    0.6482200000000000 S
   0.8476600000000000    0.9328100000000000    0.3518000000000000 S
   0.0980300000000000    0.7433500000000000    0.3506500000000000 S
   0.9019700000000000    0.2566200000000000    0.6493800000000000 S
   0.4019700000000000    0.7566200000000000    0.6493800000000000 S
   0.5980300000000000    0.2433500000000000    0.3506500000000000 S
   0.1523400000000000    0.5671600000000000    0.6482200000000000 S
   0.3476700000000000    0.9328000000000000    0.3518100000000000 S
   0.9500000000000000    0.6134300000000000    0.5306500000000000 N
   0.0500000000000000    0.3865400000000000    0.4693000000000000 N
   0.0516600000000000    0.4955700000000000    0.3221100000000000 N
   0.1981400000000000    0.3344800000000000    0.6774800000000000 N
   0.1249900000000000    0.4901900000000000    0.9998000000000000 N
   0.4483400000000000    0.0043900000000000    0.6779200000000000 N
   0.3750100000000000    0.0097800000000000    0.0002400000000000 N
   0.3018600000000000    0.1654900000000000    0.3225500000000000 N
   0.1995800000000000    0.1520700000000000    0.5307800000000000 N
   0.3004200000000000    0.3479100000000000    0.4692500000000000 N
   0.5500000000000000    0.8865400000000000    0.4693900000000000 N
   0.4500000000000000    0.1134300000000000    0.5306500000000000 N
   0.8018500000000000    0.6654900000000000    0.3225000000000000 N
   0.8750100000000000    0.5097800000000000    0.0002400000000000 N
   0.9483400000000000    0.5043900000000000    0.6779200000000000 N
   0.8004100000000000    0.3479100000000000    0.4692500000000000 N
   0.6995800000000000    0.1520700000000000    0.5307800000000000 N
   0.6981500000000000    0.8344800000000000    0.6774800000000000 N
   0.6250000000000000    0.9901900000000000    0.9998000000000000 N
   0.5516600000000000    0.9955700000000000    0.3221100000000000 N
   0.6995800000000000    0.6520600000000000    0.5307800000000000 N
   0.8018500000000000    0.1654900000000000    0.3225500000000000 N
   0.8750100000000000    0.0097800000000000    0.0002400000000000 N
   0.9483300000000000    0.0043900000000000    0.6779200000000000 N
   0.8004200000000000    0.8479000000000000    0.4692500000000000 N
   0.0500100000000000    0.8865400000000000    0.4693800000000000 N
   0.9499900000000000    0.1134300000000000    0.5306500000000000 N
   0.4500000000000000    0.6134300000000000    0.5306500000000000 N
   0.5500000000000000    0.3865400000000000    0.4693900000000000 N
   0.0516700000000000    0.9955700000000000    0.3221100000000000 N
   0.1250000000000000    0.9901799999999999    0.9998000000000000 N
   0.1981500000000000    0.8344700000000000    0.6774800000000000 N
   0.3018500000000000    0.6654900000000000    0.3225400000000000 N
   0.4483400000000000    0.5043900000000000    0.6779200000000000 N
   0.3750100000000000    0.5097800000000000    0.0000000000000000 N
   0.1995800000000000    0.6520600000000000    0.5307800000000000 N
   0.3004200000000000    0.8479000000000000    0.4692500000000000 N
   0.6981500000000000    0.3344800000000000    0.6774900000000000 O
   0.5516600000000000    0.4955800000000000    0.3221100000000000 O
