H2 C6 S1 O4
1.0
  18.1338401877754443    0.0000000000000000   -0.2050976455745435
  -0.0008239264726853   14.0409977859338397   -0.0078419733610293
   0.0000000000000000    0.0000000000000000   15.6334999999999997
H C S O
2 6 1 4
direct
   0.7175366666666666    0.6991600000000000    0.3209800000000000 H
   0.7256600000000000    0.8166400000000000    0.1910700000000000 H
   0.5905266666666666    0.8674900000000000    0.1029400000000000 C
   0.6066133333333332    0.8033600000000000    0.1753300000000000 C
   0.5986700000000000    0.6898400000000000    0.2962500000000000 C
   0.5708133333333333    0.6226600000000000    0.3616500000000000 C
   0.6746399999999999    0.7852100000000000    0.2134300000000000 C
   0.6701433333333333    0.7213500000000000    0.2826300000000000 C
   0.5372800000000000    0.7398400000000001    0.2239400000000000 S
   0.5237366666666666   -0.1160499999999999    0.0814400000000000 O
   0.6452833333333332   -0.0959200000000000    0.0631200000000000 O
   0.5019066666666666    0.6052700000000000    0.3604300000000000 O
   0.6175700000000000    0.5870900000000000    0.4147600000000000 O
