H8 C13 N2 O6
1.0
  14.6479999799208382    0.0000000000000000    0.0007669674861448
  -6.9494501328747100   13.9408777182440922    0.0005437398750554
   0.0000000000000000    0.0000000000000000   17.0210000000000008
H C N O
8 13 2 6
direct
   0.3277000000000000    0.3449700000000000    0.4820000000000000 H
   0.4406100000000000    0.2012900000000000    0.6578300000000000 H
   0.5451800000000000    0.3183400000000000    0.6562300000000000 H
   0.3516100000000000    0.0968000000000000    0.5759200000000000 H
   0.6475700000000000    0.1586600000000000    0.4848600000000000 H
   0.6518100000000000    0.4169700000000000    0.5832600000000000 H
   0.8978300000000000    0.4218300000000000    0.4435400000000000 H
   0.0987500000000000    0.0720000000000000    0.4344000000000000 H
   0.2989700000000000    0.2677400000000000    0.4896800000000000 C
   0.3522900000000000    0.2304300000000000    0.5356500000000000 C
   0.4930500000000000    0.2587900000000000    0.6197400000000000 C
   0.3130700000000000    0.1310900000000000    0.5432600000000000 C
   0.2201300000000000    0.0725000000000000    0.5074700000000000 C
   0.1725500000000000    0.9648600000000001    0.5188400000000000 C
   0.6839300000000000    0.2361100000000000    0.4940300000000000 C
   0.6367699999999999    0.2788800000000000    0.5408200000000000 C
   0.6850200000000000    0.3782800000000000    0.5500400000000000 C
   0.7805600000000000    0.4310400000000000    0.5155500000000000 C
   0.8365400000000000    0.5383400000000000    0.5281300000000000 C
   0.8233000000000000    0.3831200000000000    0.4707200000000000 C
   0.1710200000000000    0.1149700000000000    0.4633500000000000 C
   0.7746200000000000    0.2874400000000000    0.4592100000000000 N
   0.2107900000000000    0.2107600000000000    0.4537000000000000 N
   0.7914900000000000    0.5752300000000000    0.5703400000000000 O
   0.4406100000000000    0.2962800000000000    0.5704800000000000 O
   0.2230500000000000    0.9335100000000000    0.5611400000000000 O
   0.5457400000000000    0.2175800000000000    0.5747400000000000 O
   0.9237900000000000    0.5822600000000000    0.4960700000000000 O
   0.0862300000000000    0.9159300000000000    0.4871200000000000 O
