Cu48 H422 C460 N92 Cl48 O4
1.0
  37.3949969870359951    0.0000000000000000    0.0150113146938514
  -0.0019506356270032   15.9679998711278444   -0.0005573883498013
   0.0000000000000000    0.0000000000000000   31.9439999999999991
Cu H C N Cl O
48 422 460 92 48 4
direct
   0.1248000000000000    0.5024800000000000    0.4891800000000000 Cu
   0.7081433333333333    0.4784000000000000    0.9987400000000000 Cu
   0.7918733333333333    0.0024600000000000    0.7608200000000001 Cu
   0.8752000000000000    0.9784100000000000    0.7512400000000000 Cu
   0.7914666666666667    0.5024800000000000    0.9891799999999999 Cu
   0.0418566666666667    0.0216600000000000    0.7487000000000000 Cu
   0.9581599999999999    0.4974800000000000    0.5108200000000001 Cu
   0.9585299999999999    0.9975100000000000    0.7391500000000000 Cu
   0.8748133333333332    0.5216800000000000    0.5012400000000000 Cu
   0.0414766666666667    0.4784000000000000    0.4987400000000000 Cu
   0.1252066666666667    0.0024600000000000    0.2608200000000000 Cu
   0.3751900000000000    0.0216600000000000    0.2487000000000000 Cu
   0.2914933333333333    0.4974800000000000    0.0108200000000000 Cu
   0.2085333333333333    0.9784100000000000    0.2512400000000000 Cu
   0.2918633333333333    0.9975100000000000    0.2391500000000000 Cu
   0.2081466666666666    0.5216800000000000    0.0012400000000000 Cu
   0.0414766666666667    0.4784000000000000    0.9987400000000000 Cu
   0.1252066666666667    0.0024600000000000    0.7608200000000001 Cu
   0.2085333333333333    0.9784100000000000    0.7512400000000000 Cu
   0.1248000000000000    0.5024800000000000    0.9891799999999999 Cu
   0.3751900000000000    0.0216600000000000    0.7487000000000000 Cu
   0.2914933333333333    0.4974800000000000    0.5108200000000001 Cu
   0.2918633333333333    0.9975100000000000    0.7391500000000000 Cu
   0.2081466666666666    0.5216800000000000    0.5012400000000000 Cu
   0.3748100000000000    0.4784000000000000    0.4987400000000000 Cu
   0.4585399999999999    0.0024600000000000    0.2608200000000000 Cu
   0.5418666666666667    0.9784100000000000    0.2512400000000000 Cu
   0.4581333333333333    0.5024800000000000    0.4891800000000000 Cu
   0.7085233333333333    0.0216600000000000    0.2487000000000000 Cu
   0.6248266666666666    0.4974800000000000    0.0108200000000000 Cu
   0.6251966666666666    0.9975100000000000    0.2391500000000000 Cu
   0.5414800000000000    0.5216800000000000    0.0012400000000000 Cu
   0.3748100000000000    0.4784000000000000    0.9987400000000000 Cu
   0.4585399999999999    0.0024600000000000    0.7608200000000001 Cu
   0.5418666666666667    0.9784100000000000    0.7512400000000000 Cu
   0.4581333333333333    0.5024800000000000    0.9891799999999999 Cu
   0.7085233333333333    0.0216600000000000    0.7487000000000000 Cu
   0.6248266666666666    0.4974800000000000    0.5108200000000001 Cu
   0.6251966666666666    0.9975100000000000    0.7391500000000000 Cu
   0.5414800000000000    0.5216800000000000    0.5012400000000000 Cu
   0.7081433333333333    0.4784000000000000    0.4987400000000000 Cu
   0.7918733333333333    0.0024600000000000    0.2608200000000000 Cu
   0.8752000000000000    0.9784100000000000    0.2512400000000000 Cu
   0.7914666666666667    0.5024800000000000    0.4891800000000000 Cu
   0.0418566666666667    0.0216600000000000    0.2487000000000000 Cu
   0.9581599999999999    0.4974800000000000    0.0108200000000000 Cu
   0.9585299999999999    0.9975100000000000    0.2391500000000000 Cu
   0.8748133333333332    0.5216800000000000    0.0012400000000000 Cu
   0.1778523945535165    0.6308245769299032    0.4560558900946042 H
   0.1727856115771194    0.5591509055753962    0.4562797273142981 H
   0.1983477639586516    0.6404975218564440    0.4433960860392733 H
   0.1345735143010784    0.6365350861462210    0.4410364028271831 H
   0.8730499999999999    0.2204000000000000    0.8306300000000000 H
   0.8388966666666666    0.2751100000000000    0.8038100000000000 H
   0.6269700000000000    0.3387700000000000    0.8897750000000000 H
   0.6611466666666665    0.3924200000000000    0.8624250000000000 H
   0.8722099999999999    0.3472800000000000    0.8849500000000000 H
   0.8366666666666667    0.3921100000000000    0.8559450000000000 H
   0.6278100000000000    0.2300700000000000    0.8263650000000000 H
   0.6633700000000000    0.2881300000000000    0.8039550000000000 H
   0.8370899999999999    0.2173700000000000    0.8951650000000000 H
   0.6628966666666667    0.2096800000000000    0.8912949999999999 H
   0.6655233333333332    0.1420100000000000    0.7774600000000000 H
   0.6630266666666667    0.1009200000000000    0.8276300000000000 H
   0.8344999999999999    0.4450900000000000    0.9289499999999999 H
   0.8369766666666666    0.3447200000000000    0.9495250000000000 H
   0.6634933333333333    0.4295600000000000    0.9378800000000000 H
   0.6650533333333333    0.3233700000000000    0.9521800000000000 H
   0.8365333333333334    0.1241500000000000    0.7852600000000001 H
   0.8349299999999999    0.0955700000000000    0.8383450000000000 H
   0.7102900000000000    0.7204300000000000    0.9193800000000000 H
   0.7444533333333333    0.7751500000000000    0.9461900000000000 H
   0.9563866666666666    0.8387700000000000    0.8601799999999999 H
   0.9222166666666667    0.8924299999999999    0.8875350000000000 H
   0.9555433333333333    0.7301000000000000    0.9236050000000000 H
   0.9199900000000000    0.7881400000000000    0.9460200000000001 H
   0.7111333333333333    0.8472900000000000    0.8650550000000000 H
   0.7466833333333333    0.8921200000000000    0.8940500000000000 H
   0.7462433333333333    0.7173800000000000    0.8548450000000001 H
   0.9204433333333333    0.7096700000000000    0.8586750000000001 H
   0.7488566666666666    0.9451100000000000    0.8210250000000000 H
   0.7463633333333333    0.8447400000000000    0.8004500000000000 H
   0.9198700000000000    0.9295300000000000    0.8120750000000000 H
   0.9182899999999999    0.8233300000000000    0.7977850000000000 H
   0.9178266666666666    0.6420300000000000    0.9725100000000000 H
   0.9203166666666667    0.6009300000000000    0.9223399999999999 H
   0.7468033333333333    0.6241900000000000    0.9647500000000000 H
   0.7484000000000000    0.5955900000000000    0.9116649999999999 H
   0.1222200000000000    0.2699700000000000    0.5763300000000000 H
   0.0866666666666667    0.2119000000000000    0.5539000000000001 H
   0.1230433333333333    0.1613000000000000    0.6397500000000000 H
   0.0888766666666667    0.1076400000000000    0.6124150000000000 H
   0.8769766666666666    0.2795400000000000    0.5806700000000000 H
   0.9111433333333333    0.2248400000000000    0.5538350000000000 H
   0.8778033333333333    0.1526700000000000    0.6349950000000000 H
   0.9133599999999999    0.1078600000000000    0.6059700000000000 H
   0.9129033333333333    0.2826100000000000    0.6451900000000000 H
   0.0871033333333333    0.2903800000000000    0.6412850000000000 H
   0.0845233333333333    0.3580300000000000    0.5274500000000000 H
   0.0869933333333333    0.3991200000000000    0.5776200000000000 H
   0.9155000000000000    0.0548900000000000    0.6790150000000000 H
   0.9130099999999999    0.1552600000000000    0.6995500000000000 H
   0.0865033333333333    0.0705000000000000    0.6878700000000000 H
   0.0849300000000000    0.1766900000000000    0.7021750000000000 H
   0.9135133333333333    0.3757900000000000    0.5352749999999999 H
   0.9150799999999999    0.4044000000000000    0.5883600000000000 H
   0.7936333333333333    0.6613200000000000    0.6102150000000000 H
   0.8277866666666667    0.6076500000000000    0.6375500000000001 H
   0.0397000000000000    0.7795600000000000    0.6693400000000000 H
   0.0055266666666667    0.7248599999999999    0.6961650000000000 H
   0.7944566666666666    0.7699800000000000    0.6736450000000000 H
   0.8300033333333333    0.7119300000000000    0.6960400000000000 H
   0.0388700000000000    0.6526800000000000    0.6150150000000000 H
   0.0033033333333333    0.6078800000000000    0.6440399999999999 H
   0.8295833333333333    0.7904099999999999    0.6086950000000000 H
   0.0037800000000000    0.7826100000000000    0.6048200000000000 H
   0.8321566666666667    0.8580500000000000    0.7225300000000000 H
   0.8296899999999999    0.8991400000000001    0.6723600000000001 H
   0.0031666666666667    0.8758100000000000    0.7147300000000000 H
   0.0016033333333333    0.9044200000000000    0.6616450000000000 H
   0.0011666666666667    0.5548800000000000    0.5710000000000000 H
   0.0036666666666667    0.6552400000000000    0.5504599999999999 H
   0.8301666666666666    0.5705500000000000    0.5620900000000000 H
   0.8317500000000000    0.6767500000000000    0.5478000000000000 H
   0.2063833333333333    0.2204000000000000    0.3306300000000000 H
   0.1722300000000000    0.2751100000000000    0.3038100000000000 H
   0.9603033333333333    0.3387700000000000    0.3897750000000000 H
   0.9944799999999999    0.3924200000000000    0.3624250000000000 H
   0.2055433333333333    0.3472800000000000    0.3849500000000000 H
   0.1700000000000000    0.3921100000000000    0.3559450000000000 H
   0.9611433333333332    0.2300700000000000    0.3263650000000000 H
   0.9967033333333333    0.2881300000000000    0.3039550000000000 H
   0.1704233333333333    0.2173700000000000    0.3951650000000000 H
   0.9962299999999999    0.2096800000000000    0.3912950000000000 H
   0.9988566666666666    0.1420100000000000    0.2774600000000000 H
   0.9963599999999999    0.1009200000000000    0.3276300000000000 H
   0.1678333333333333    0.4450900000000000    0.4289500000000000 H
   0.1703100000000000    0.3447200000000000    0.4495250000000000 H
   0.9968266666666666    0.4295600000000000    0.4378800000000000 H
   0.9983866666666666    0.3233700000000000    0.4521800000000000 H
   0.1698666666666667    0.1241500000000000    0.2852600000000000 H
   0.1682633333333333    0.0955700000000000    0.3383450000000000 H
   0.4555533333333333    0.2699700000000000    0.0763300000000000 H
   0.4200000000000000    0.2119000000000000    0.0539000000000000 H
   0.4563766666666667    0.1613000000000000    0.1397500000000000 H
   0.4222100000000000    0.1076400000000000    0.1124150000000000 H
   0.2103100000000000    0.2795400000000000    0.0806700000000000 H
   0.2444766666666667    0.2248400000000000    0.0538350000000000 H
   0.2111366666666667    0.1526700000000000    0.1349950000000000 H
   0.2466933333333333    0.1078600000000000    0.1059700000000000 H
   0.2462366666666667    0.2826100000000000    0.1451900000000000 H
   0.4204366666666666    0.2903800000000000    0.1412850000000000 H
   0.4178566666666667    0.3580300000000000    0.0274500000000000 H
   0.4203266666666666    0.3991200000000000    0.0776200000000000 H
   0.2488333333333334    0.0548900000000000    0.1790150000000000 H
   0.2463433333333333    0.1552600000000000    0.1995500000000000 H
   0.4198366666666666    0.0705000000000000    0.1878700000000000 H
   0.4182633333333333    0.1766900000000000    0.2021750000000000 H
   0.2468466666666667    0.3757900000000000    0.0352750000000000 H
   0.2484133333333333    0.4044000000000000    0.0883600000000000 H
   0.1987158564555317    0.8822632655940303    0.3180929637589577 H
   0.1349953583211097    0.8868049036847443    0.3202197885192653 H
   0.1521659661782975    0.9032937343401368    0.3218810836968192 H
   0.1599486998299524    0.8879950058095185    0.2784497093349872 H
   0.1269666666666667    0.6613200000000000    0.1102150000000000 H
   0.1611200000000000    0.6076500000000000    0.1375500000000000 H
   0.3730333333333333    0.7795600000000000    0.1693400000000000 H
   0.3388600000000000    0.7248599999999999    0.1961650000000000 H
   0.1277900000000000    0.7699800000000000    0.1736450000000000 H
   0.1633366666666667    0.7119300000000000    0.1960400000000000 H
   0.3722033333333333    0.6526800000000000    0.1150150000000000 H
   0.3366366666666666    0.6078800000000000    0.1440400000000000 H
   0.1629166666666667    0.7904099999999999    0.1086950000000000 H
   0.3371133333333333    0.7826100000000000    0.1048200000000000 H
   0.1654900000000000    0.8580500000000000    0.2225300000000000 H
   0.1630233333333333    0.8991400000000001    0.1723600000000000 H
   0.3365000000000000    0.8758100000000000    0.2147300000000000 H
   0.3349366666666667    0.9044200000000000    0.1616450000000000 H
   0.3345000000000000    0.5548800000000000    0.0710000000000000 H
   0.3370000000000000    0.6552400000000000    0.0504600000000000 H
   0.1635000000000000    0.5705500000000000    0.0620900000000000 H
   0.1650833333333333    0.6767500000000000    0.0478000000000000 H
   0.2063833333333333    0.2204000000000000    0.8306300000000000 H
   0.1722300000000000    0.2751100000000000    0.8038100000000000 H
   0.9603033333333333    0.3387700000000000    0.8897750000000000 H
   0.9944799999999999    0.3924200000000000    0.8624250000000000 H
   0.2055433333333333    0.3472800000000000    0.8849500000000000 H
   0.1700000000000000    0.3921100000000000    0.8559450000000000 H
   0.9611433333333332    0.2300700000000000    0.8263650000000000 H
   0.9967033333333333    0.2881300000000000    0.8039550000000000 H
   0.1704233333333333    0.2173700000000000    0.8951650000000000 H
   0.9962299999999999    0.2096800000000000    0.8912949999999999 H
   0.9988566666666666    0.1420100000000000    0.7774600000000000 H
   0.9963599999999999    0.1009200000000000    0.8276300000000000 H
   0.1678333333333333    0.4450900000000000    0.9289499999999999 H
   0.1703100000000000    0.3447200000000000    0.9495250000000000 H
   0.9968266666666666    0.4295600000000000    0.9378800000000000 H
   0.9983866666666666    0.3233700000000000    0.9521800000000000 H
   0.1698666666666667    0.1241500000000000    0.7852600000000001 H
   0.1682633333333333    0.0955700000000000    0.8383450000000000 H
   0.0436233333333333    0.7204300000000000    0.9193800000000000 H
   0.0777866666666667    0.7751500000000000    0.9461900000000000 H
   0.2897200000000000    0.8387700000000000    0.8601799999999999 H
   0.2555500000000000    0.8924299999999999    0.8875350000000000 H
   0.2888766666666667    0.7301000000000000    0.9236050000000000 H
   0.2533233333333333    0.7881400000000000    0.9460200000000001 H
   0.0444666666666667    0.8472900000000000    0.8650550000000000 H
   0.0800166666666667    0.8921200000000000    0.8940500000000000 H
   0.0795766666666667    0.7173800000000000    0.8548450000000001 H
   0.2537766666666667    0.7096700000000000    0.8586750000000001 H
   0.0821900000000000    0.9451100000000000    0.8210250000000000 H
   0.0796966666666667    0.8447400000000000    0.8004500000000000 H
   0.2532033333333333    0.9295300000000000    0.8120750000000000 H
   0.2516233333333333    0.8233300000000000    0.7977850000000000 H
   0.2511600000000000    0.6420300000000000    0.9725100000000000 H
   0.2536500000000000    0.6009300000000000    0.9223399999999999 H
   0.0801366666666667    0.6241900000000000    0.9647500000000000 H
   0.0817333333333333    0.5955900000000000    0.9116649999999999 H
   0.4555533333333333    0.2699700000000000    0.5763300000000000 H
   0.4200000000000000    0.2119000000000000    0.5539000000000001 H
   0.4563766666666667    0.1613000000000000    0.6397500000000000 H
   0.4222100000000000    0.1076400000000000    0.6124150000000000 H
   0.2103100000000000    0.2795400000000000    0.5806700000000000 H
   0.2444766666666667    0.2248400000000000    0.5538350000000000 H
   0.2111366666666667    0.1526700000000000    0.6349950000000000 H
   0.2466933333333333    0.1078600000000000    0.6059700000000000 H
   0.2462366666666667    0.2826100000000000    0.6451900000000000 H
   0.4204366666666666    0.2903800000000000    0.6412850000000000 H
   0.4178566666666667    0.3580300000000000    0.5274500000000000 H
   0.4203266666666666    0.3991200000000000    0.5776200000000000 H
   0.2488333333333334    0.0548900000000000    0.6790150000000000 H
   0.2463433333333333    0.1552600000000000    0.6995500000000000 H
   0.4198366666666666    0.0705000000000000    0.6878700000000000 H
   0.4182633333333333    0.1766900000000000    0.7021750000000000 H
   0.2468466666666667    0.3757900000000000    0.5352749999999999 H
   0.2484133333333333    0.4044000000000000    0.5883600000000000 H
   0.1269666666666667    0.6613200000000000    0.6102150000000000 H
   0.1611200000000000    0.6076500000000000    0.6375500000000001 H
   0.3730333333333333    0.7795600000000000    0.6693400000000000 H
   0.3388600000000000    0.7248599999999999    0.6961650000000000 H
   0.1277900000000000    0.7699800000000000    0.6736450000000000 H
   0.1633366666666667    0.7119300000000000    0.6960400000000000 H
   0.3722033333333333    0.6526800000000000    0.6150150000000000 H
   0.3366366666666666    0.6078800000000000    0.6440399999999999 H
   0.1629166666666667    0.7904099999999999    0.6086950000000000 H
   0.3371133333333333    0.7826100000000000    0.6048200000000000 H
   0.1654900000000000    0.8580500000000000    0.7225300000000000 H
   0.1630233333333333    0.8991400000000001    0.6723600000000001 H
   0.3365000000000000    0.8758100000000000    0.7147300000000000 H
   0.3349366666666667    0.9044200000000000    0.6616450000000000 H
   0.3345000000000000    0.5548800000000000    0.5710000000000000 H
   0.3370000000000000    0.6552400000000000    0.5504599999999999 H
   0.1635000000000000    0.5705500000000000    0.5620900000000000 H
   0.1650833333333333    0.6767500000000000    0.5478000000000000 H
   0.5397166666666666    0.2204000000000000    0.3306300000000000 H
   0.5055633333333334    0.2751100000000000    0.3038100000000000 H
   0.2936366666666667    0.3387700000000000    0.3897750000000000 H
   0.3278133333333333    0.3924200000000000    0.3624250000000000 H
   0.5388766666666667    0.3472800000000000    0.3849500000000000 H
   0.5033333333333333    0.3921100000000000    0.3559450000000000 H
   0.2944766666666667    0.2300700000000000    0.3263650000000000 H
   0.3300366666666666    0.2881300000000000    0.3039550000000000 H
   0.5037566666666666    0.2173700000000000    0.3951650000000000 H
   0.3295633333333333    0.2096800000000000    0.3912950000000000 H
   0.3321900000000000    0.1420100000000000    0.2774600000000000 H
   0.3296933333333333    0.1009200000000000    0.3276300000000000 H
   0.5011666666666666    0.4450900000000000    0.4289500000000000 H
   0.5036433333333333    0.3447200000000000    0.4495250000000000 H
   0.3301600000000000    0.4295600000000000    0.4378800000000000 H
   0.3317200000000000    0.3233700000000000    0.4521800000000000 H
   0.5032000000000000    0.1241500000000000    0.2852600000000000 H
   0.5015966666666667    0.0955700000000000    0.3383450000000000 H
   0.3769566666666667    0.7204300000000000    0.4193800000000000 H
   0.4111200000000000    0.7751500000000000    0.4461900000000000 H
   0.6230533333333332    0.8387700000000000    0.3601800000000000 H
   0.5888833333333333    0.8924299999999999    0.3875350000000000 H
   0.6222099999999999    0.7301000000000000    0.4236050000000000 H
   0.5866566666666666    0.7881400000000000    0.4460200000000000 H
   0.3778000000000000    0.8472900000000000    0.3650550000000000 H
   0.4133500000000000    0.8921200000000000    0.3940500000000000 H
   0.4129100000000000    0.7173800000000000    0.3548450000000000 H
   0.5871100000000000    0.7096700000000000    0.3586750000000000 H
   0.4155233333333333    0.9451100000000000    0.3210250000000000 H
   0.4130300000000000    0.8447400000000000    0.3004500000000000 H
   0.5865366666666667    0.9295300000000000    0.3120750000000000 H
   0.5849566666666666    0.8233300000000000    0.2977850000000000 H
   0.5844933333333333    0.6420300000000000    0.4725100000000000 H
   0.5869833333333333    0.6009300000000000    0.4223400000000000 H
   0.4134700000000000    0.6241900000000000    0.4647500000000000 H
   0.4150666666666666    0.5955900000000000    0.4116650000000000 H
   0.7888866666666666    0.2699700000000000    0.0763300000000000 H
   0.7533333333333333    0.2119000000000000    0.0539000000000000 H
   0.7897099999999999    0.1613000000000000    0.1397500000000000 H
   0.7555433333333332    0.1076400000000000    0.1124150000000000 H
   0.5436433333333333    0.2795400000000000    0.0806700000000000 H
   0.5778099999999999    0.2248400000000000    0.0538350000000000 H
   0.5444700000000000    0.1526700000000000    0.1349950000000000 H
   0.5800266666666667    0.1078600000000000    0.1059700000000000 H
   0.5795699999999999    0.2826100000000000    0.1451900000000000 H
   0.7537699999999999    0.2903800000000000    0.1412850000000000 H
   0.7511900000000000    0.3580300000000000    0.0274500000000000 H
   0.7536600000000000    0.3991200000000000    0.0776200000000000 H
   0.5821666666666667    0.0548900000000000    0.1790150000000000 H
   0.5796766666666666    0.1552600000000000    0.1995500000000000 H
   0.7531700000000000    0.0705000000000000    0.1878700000000000 H
   0.7515966666666667    0.1766900000000000    0.2021750000000000 H
   0.5801799999999999    0.3757900000000000    0.0352750000000000 H
   0.5817466666666666    0.4044000000000000    0.0883600000000000 H
   0.4603000000000000    0.6613200000000000    0.1102150000000000 H
   0.4944533333333333    0.6076500000000000    0.1375500000000000 H
   0.7063666666666666    0.7795600000000000    0.1693400000000000 H
   0.6721933333333333    0.7248599999999999    0.1961650000000000 H
   0.4611233333333333    0.7699800000000000    0.1736450000000000 H
   0.4966699999999999    0.7119300000000000    0.1960400000000000 H
   0.7055366666666666    0.6526800000000000    0.1150150000000000 H
   0.6699700000000000    0.6078800000000000    0.1440400000000000 H
   0.4962500000000000    0.7904099999999999    0.1086950000000000 H
   0.6704466666666666    0.7826100000000000    0.1048200000000000 H
   0.4988233333333333    0.8580500000000000    0.2225300000000000 H
   0.4963566666666667    0.8991400000000001    0.1723600000000000 H
   0.6698333333333333    0.8758100000000000    0.2147300000000000 H
   0.6682699999999999    0.9044200000000000    0.1616450000000000 H
   0.6678333333333333    0.5548800000000000    0.0710000000000000 H
   0.6703333333333333    0.6552400000000000    0.0504600000000000 H
   0.4968333333333333    0.5705500000000000    0.0620900000000000 H
   0.4984166666666666    0.6767500000000000    0.0478000000000000 H
   0.5397166666666666    0.2204000000000000    0.8306300000000000 H
   0.5055633333333334    0.2751100000000000    0.8038100000000000 H
   0.2936366666666667    0.3387700000000000    0.8897750000000000 H
   0.3278133333333333    0.3924200000000000    0.8624250000000000 H
   0.5388766666666667    0.3472800000000000    0.8849500000000000 H
   0.5033333333333333    0.3921100000000000    0.8559450000000000 H
   0.2944766666666667    0.2300700000000000    0.8263650000000000 H
   0.3300366666666666    0.2881300000000000    0.8039550000000000 H
   0.5037566666666666    0.2173700000000000    0.8951650000000000 H
   0.3295633333333333    0.2096800000000000    0.8912949999999999 H
   0.3321900000000000    0.1420100000000000    0.7774600000000000 H
   0.3296933333333333    0.1009200000000000    0.8276300000000000 H
   0.5011666666666666    0.4450900000000000    0.9289499999999999 H
   0.5036433333333333    0.3447200000000000    0.9495250000000000 H
   0.3301600000000000    0.4295600000000000    0.9378800000000000 H
   0.3317200000000000    0.3233700000000000    0.9521800000000000 H
   0.5032000000000000    0.1241500000000000    0.7852600000000001 H
   0.5015966666666667    0.0955700000000000    0.8383450000000000 H
   0.3769566666666667    0.7204300000000000    0.9193800000000000 H
   0.4111200000000000    0.7751500000000000    0.9461900000000000 H
   0.6230533333333332    0.8387700000000000    0.8601799999999999 H
   0.5888833333333333    0.8924299999999999    0.8875350000000000 H
   0.6222099999999999    0.7301000000000000    0.9236050000000000 H
   0.5866566666666666    0.7881400000000000    0.9460200000000001 H
   0.3778000000000000    0.8472900000000000    0.8650550000000000 H
   0.4133500000000000    0.8921200000000000    0.8940500000000000 H
   0.4129100000000000    0.7173800000000000    0.8548450000000001 H
   0.5871100000000000    0.7096700000000000    0.8586750000000001 H
   0.4155233333333333    0.9451100000000000    0.8210250000000000 H
   0.4130300000000000    0.8447400000000000    0.8004500000000000 H
   0.5865366666666667    0.9295300000000000    0.8120750000000000 H
   0.5849566666666666    0.8233300000000000    0.7977850000000000 H
   0.5844933333333333    0.6420300000000000    0.9725100000000000 H
   0.5869833333333333    0.6009300000000000    0.9223399999999999 H
   0.4134700000000000    0.6241900000000000    0.9647500000000000 H
   0.4150666666666666    0.5955900000000000    0.9116649999999999 H
   0.7888866666666666    0.2699700000000000    0.5763300000000000 H
   0.7533333333333333    0.2119000000000000    0.5539000000000001 H
   0.7897099999999999    0.1613000000000000    0.6397500000000000 H
   0.7555433333333332    0.1076400000000000    0.6124150000000000 H
   0.5436433333333333    0.2795400000000000    0.5806700000000000 H
   0.5778099999999999    0.2248400000000000    0.5538350000000000 H
   0.5444700000000000    0.1526700000000000    0.6349950000000000 H
   0.5800266666666667    0.1078600000000000    0.6059700000000000 H
   0.5795699999999999    0.2826100000000000    0.6451900000000000 H
   0.7537699999999999    0.2903800000000000    0.6412850000000000 H
   0.7511900000000000    0.3580300000000000    0.5274500000000000 H
   0.7536600000000000    0.3991200000000000    0.5776200000000000 H
   0.5821666666666667    0.0548900000000000    0.6790150000000000 H
   0.5796766666666666    0.1552600000000000    0.6995500000000000 H
   0.7531700000000000    0.0705000000000000    0.6878700000000000 H
   0.7515966666666667    0.1766900000000000    0.7021750000000000 H
   0.5801799999999999    0.3757900000000000    0.5352749999999999 H
   0.5817466666666666    0.4044000000000000    0.5883600000000000 H
   0.4603000000000000    0.6613200000000000    0.6102150000000000 H
   0.4944533333333333    0.6076500000000000    0.6375500000000001 H
   0.7063666666666666    0.7795600000000000    0.6693400000000000 H
   0.6721933333333333    0.7248599999999999    0.6961650000000000 H
   0.4611233333333333    0.7699800000000000    0.6736450000000000 H
   0.4966699999999999    0.7119300000000000    0.6960400000000000 H
   0.7055366666666666    0.6526800000000000    0.6150150000000000 H
   0.6699700000000000    0.6078800000000000    0.6440399999999999 H
   0.4962500000000000    0.7904099999999999    0.6086950000000000 H
   0.6704466666666666    0.7826100000000000    0.6048200000000000 H
   0.4988233333333333    0.8580500000000000    0.7225300000000000 H
   0.4963566666666667    0.8991400000000001    0.6723600000000001 H
   0.6698333333333333    0.8758100000000000    0.7147300000000000 H
   0.6682699999999999    0.9044200000000000    0.6616450000000000 H
   0.6678333333333333    0.5548800000000000    0.5710000000000000 H
   0.6703333333333333    0.6552400000000000    0.5504599999999999 H
   0.4968333333333333    0.5705500000000000    0.5620900000000000 H
   0.4984166666666666    0.6767500000000000    0.5478000000000000 H
   0.8730499999999999    0.2204000000000000    0.3306300000000000 H
   0.8388966666666666    0.2751100000000000    0.3038100000000000 H
   0.6269700000000000    0.3387700000000000    0.3897750000000000 H
   0.6611466666666665    0.3924200000000000    0.3624250000000000 H
   0.8722099999999999    0.3472800000000000    0.3849500000000000 H
   0.8366666666666667    0.3921100000000000    0.3559450000000000 H
   0.6278100000000000    0.2300700000000000    0.3263650000000000 H
   0.6633700000000000    0.2881300000000000    0.3039550000000000 H
   0.8370899999999999    0.2173700000000000    0.3951650000000000 H
   0.6628966666666667    0.2096800000000000    0.3912950000000000 H
   0.6655233333333332    0.1420100000000000    0.2774600000000000 H
   0.6630266666666667    0.1009200000000000    0.3276300000000000 H
   0.8344999999999999    0.4450900000000000    0.4289500000000000 H
   0.8369766666666666    0.3447200000000000    0.4495250000000000 H
   0.6634933333333333    0.4295600000000000    0.4378800000000000 H
   0.6650533333333333    0.3233700000000000    0.4521800000000000 H
   0.8365333333333334    0.1241500000000000    0.2852600000000000 H
   0.8349299999999999    0.0955700000000000    0.3383450000000000 H
   0.7102900000000000    0.7204300000000000    0.4193800000000000 H
   0.7444533333333333    0.7751500000000000    0.4461900000000000 H
   0.9563866666666666    0.8387700000000000    0.3601800000000000 H
   0.9222166666666667    0.8924299999999999    0.3875350000000000 H
   0.9555433333333333    0.7301000000000000    0.4236050000000000 H
   0.9199900000000000    0.7881400000000000    0.4460200000000000 H
   0.7111333333333333    0.8472900000000000    0.3650550000000000 H
   0.7466833333333333    0.8921200000000000    0.3940500000000000 H
   0.7462433333333333    0.7173800000000000    0.3548450000000000 H
   0.9204433333333333    0.7096700000000000    0.3586750000000000 H
   0.7488566666666666    0.9451100000000000    0.3210250000000000 H
   0.7463633333333333    0.8447400000000000    0.3004500000000000 H
   0.9198700000000000    0.9295300000000000    0.3120750000000000 H
   0.9182899999999999    0.8233300000000000    0.2977850000000000 H
   0.9178266666666666    0.6420300000000000    0.4725100000000000 H
   0.9203166666666667    0.6009300000000000    0.4223400000000000 H
   0.7468033333333333    0.6241900000000000    0.4647500000000000 H
   0.7484000000000000    0.5955900000000000    0.4116650000000000 H
   0.1222200000000000    0.2699700000000000    0.0763300000000000 H
   0.0866666666666667    0.2119000000000000    0.0539000000000000 H