H18 C20 N4
1.0
  37.3949969870359951    0.0000000000000000    0.0150113146938514
  -0.0019506356270032   15.9679998711278444   -0.0005573883498013
   0.0000000000000000    0.0000000000000000   31.9439999999999991
H C N
18 20 4
direct
   0.0817333333333333    0.5955900000000000    0.4116650000000000 H
   0.0801366666666667    0.6241900000000000    0.4647500000000000 H
   0.2537766666666667    0.7096700000000000    0.3586750000000000 H
   0.2511600000000000    0.6420300000000000    0.4725100000000000 H
   0.2536500000000000    0.6009300000000000    0.4223400000000000 H
   0.0436233333333333    0.7204300000000000    0.4193800000000000 H
   0.0777866666666667    0.7751500000000000    0.4461900000000000 H
   0.2888766666666667    0.7301000000000000    0.4236050000000000 H
   0.2533233333333333    0.7881400000000000    0.4460200000000000 H
   0.2516233333333333    0.8233300000000000    0.2977850000000000 H
   0.2532033333333333    0.9295300000000000    0.3120750000000000 H
   0.0795766666666667    0.7173800000000000    0.3548450000000000 H
   0.0821900000000000    0.9451100000000000    0.3210250000000000 H
   0.0796966666666667    0.8447400000000000    0.3004500000000000 H
   0.2897200000000000    0.8387700000000000    0.3601800000000000 H
   0.2555500000000000    0.8924299999999999    0.3875350000000000 H
   0.0444666666666667    0.8472900000000000    0.3650550000000000 H
   0.0800166666666667    0.8921200000000000    0.3940500000000000 H
   0.2031733333333333    0.6544700000000000    0.4369300000000000 C
   0.1857100000000000    0.7092800000000000    0.4081500000000000 C
   0.2052233333333333    0.7616300000000000    0.3809900000000000 C
   0.1474500000000000    0.7085200000000000    0.4075500000000000 C
   0.1298000000000000    0.6502300000000000    0.4344050000000000 C
   0.0897833333333333    0.6450000000000000    0.4339650000000000 C
   0.2455900000000000    0.7599399999999999    0.3806500000000000 C
   0.2431633333333333    0.6549400000000000    0.4400650000000000 C
   0.0727600000000000    0.7284200000000000    0.4214450000000000 C
   0.2596200000000000    0.7366300000000000    0.4242000000000000 C
   0.1301766666666667    0.8739100000000000    0.3272000000000000 C
   0.1476366666666667    0.8163500000000000    0.3546400000000000 C
   0.1281233333333333    0.7620100000000000    0.3808100000000000 C
   0.1858966666666667    0.8151700000000000    0.3542000000000000 C
   0.2035466666666667    0.8688200000000000    0.3250950000000000 C
   0.2435666666666667    0.8679500000000000    0.3224850000000000 C
   0.0877566666666667    0.7613500000000000    0.3799500000000000 C
   0.0901833333333333    0.8801900000000000    0.3274750000000000 C
   0.2605833333333333    0.8429100000000000    0.3641800000000000 C
   0.0737233333333333    0.8484800000000000    0.3683000000000000 C
   0.1849900000000000    0.6018200000000000    0.4612950000000000 N
   0.1478066666666666    0.5985700000000000    0.4594200000000000 N
   0.1483566666666667    0.9225600000000000    0.3008650000000000 N
   0.1855433333333333    0.9189200000000000    0.2990000000000000 N
