H4 O2
1.0
  37.4639941569603963    0.0000000000000000    0.0209238437431570
  -0.0166564964507969   26.0873833447804770   -7.4996592444987735
   0.0000000000000000    0.0000000000000000   36.4380000000000024
H O
4 2
direct
   0.2133772454866604    0.6732656913075887    0.6037124974587196 H
   0.2336831960805980    0.6397948527118685    0.5635891273068961 H
   0.9329801388041106    0.8601887236235427    0.4364307695266444 H
   0.9532841155523565    0.8267102036828397    0.3963072315021049 H
   0.2332633333333333    0.6514750000000000    0.5915100000000000 O
   0.9334000000000000    0.8485050000000001    0.4085100000000000 O
