H10 C8 O4
1.0
  37.4639941569603963    0.0000000000000000    0.0209238437431570
  -0.0166564964507969   26.0873833447804770   -7.4996592444987735
   0.0000000000000000    0.0000000000000000   36.4380000000000024
H C O
10 8 4
direct
   0.2947100000000000    0.4678400000000000    0.0242500000000000 H
   0.3945533333333333    0.4681250000000000    0.0072250000000000 H
   0.3521500000000000    0.4827050000000000    0.0609900000000000 H
   0.3110966666666666    0.5696400000000000    0.0071450000000000 H
   0.3591000000000000    0.5394250000000000    0.0473450000000000 H
   0.3075800000000000    0.4605600000000000    0.9526850000000000 H
   0.3555800000000000    0.4303450000000000    0.9928500000000000 H
   0.2721266666666666    0.5318550000000000    0.9928100000000000 H
   0.3145300000000000    0.5172800000000000    0.9390450000000000 H
   0.3719700000000000    0.5321400000000001    0.9757800000000000 H
   0.3658333333333333    0.4699850000000000    0.0014250000000000 C
   0.3070233333333333    0.5062550000000000    0.0319150000000000 C
   0.2877733333333333    0.5371550000000000    0.0679500000000000 C
   0.3472166666666667    0.5008850000000000    0.0379350000000000 C
   0.3194600000000000    0.4990950000000000    0.9621000000000000 C
   0.3596566666666666    0.4937250000000000    0.9681000000000000 C
   0.3789000000000000    0.4628200000000000    0.9320550000000001 C
   0.3008433333333334    0.5299950000000000    0.9986100000000000 C
   0.2607866666666667    0.5193449999999999    0.0798100000000000 O
   0.3010233333333333    0.5826200000000000    0.0841500000000000 O
   0.4058866666666666    0.4806250000000000    0.9202000000000000 O
   0.3656400000000000    0.4173600000000000    0.9158750000000000 O
