H12 C18 S2 N2
1.0
  37.4639941569603963    0.0000000000000000    0.0209238437431570
  -0.0166564964507969   26.0873833447804770   -7.4996592444987735
   0.0000000000000000    0.0000000000000000   36.4380000000000024
H C S N
12 18 2 2
direct
   0.0100200000000000    0.7811300000000000    0.3965950000000000 H
   0.2104233333333333    0.6350200000000000    0.4994900000000000 H
   0.1591766666666667    0.6414800000000001    0.4650000000000000 H
   0.1050933333333333    0.6842600000000000    0.4436150000000000 H
   0.9102366666666666    0.8885400000000000    0.4597750000000000 H
   0.9603699999999999    0.8056850000000000    0.3606550000000000 H
   0.0074833333333333    0.8585050000000001    0.5320000000000000 H
   0.0615666666666667    0.8157250000000000    0.5564100000000000 H
   0.1566433333333333    0.7188450000000000    0.6034250000000000 H
   0.2564266666666666    0.6114400000000000    0.5400000000000000 H
   0.2062866666666666    0.6942850000000000    0.6393650000000000 H
   0.9562433333333333    0.8649700000000000    0.5000000000000000 H
   0.0681633333333333    0.7656200000000000    0.4985750000000000 C
   0.0157666666666667    0.8063700000000000    0.4752650000000000 C
   0.1438033333333333    0.6728499999999999    0.4861450000000000 C
   0.1144933333333333    0.6955800000000000    0.4730300000000000 C
   0.9881099999999999    0.8040400000000000    0.4122200000000000 C
   0.9588633333333333    0.8514600000000000    0.4696200000000000 C
   0.9328200000000000    0.8646450000000000    0.4470800000000000 C
   0.9878100000000000    0.8203849999999999    0.4524050000000000 C
   0.9608566666666666    0.8184100000000001    0.3916600000000000 C
   0.0228600000000000    0.8271350000000000    0.5138800000000000 C
   0.0521700000000000    0.8044050000000000    0.5269500000000000 C
   0.1785533333333333    0.6959400000000000    0.5878000000000000 C
   0.2078000000000000    0.6485300000000001    0.5304000000000000 C
   0.0985000000000000    0.7343700000000000    0.5014450000000000 C
   0.1509000000000000    0.6936200000000000    0.5247550000000000 C
   0.2338433333333333    0.6353400000000000    0.5529400000000000 C
   0.1788533333333333    0.6795949999999999    0.5476150000000000 C
   0.2058033333333333    0.6815650000000000    0.6083600000000000 C
   0.0462500000000000    0.7579450000000000    0.4553150000000000 S
   0.1204166666666667    0.7420400000000000    0.5447050000000000 S
   0.9334000000000000    0.8485050000000001    0.4085100000000000 N
   0.2332633333333333    0.6514750000000000    0.5915100000000000 N
