H8 C10 N2
1.0
  23.6789999422957109    0.0000000000000000   -0.0016531060529756
  -0.0014974233664315   14.3039982135796162    0.0069902528155138
   0.0000000000000000    0.0000000000000000   35.0640000000000001
H C N
8 10 2
direct
   0.6147500000000000    0.6258400000000000    0.4488800000000000 H
   0.7201600000000000    0.6250100000000000    0.4479200000000000 H
   0.9039199999999999    0.7161800000000000    0.4616800000000000 H
   0.7986200000000000    0.7212000000000000    0.4604350000000000 H
   0.6104300000000000    0.6356000000000001    0.5667300000000000 H
   0.7159799999999999    0.6359200000000000    0.5711400000000000 H
   0.7993400000000001    0.5438300000000000    0.5603850000000000 H
   0.9049100000000000    0.5471100000000000    0.5575600000000001 H
   0.6390400000000001    0.6276200000000000    0.4752900000000000 C
   0.6977100000000001    0.6279900000000000    0.4750150000000000 C
   0.8789400000000001    0.6782899999999999    0.4827900000000000 C
   0.8202600000000000    0.6802400000000000    0.4821800000000000 C
   0.6367600000000000    0.6324200000000000    0.5412399999999999 C
   0.6954100000000000    0.6323500000000000    0.5433749999999999 C
   0.7273400000000000    0.6305600000000000    0.5096650000000000 C
   0.7897200000000000    0.6315900000000000    0.5101599999999999 C
   0.8206599999999999    0.5836200000000000    0.5381350000000000 C
   0.8793500000000000    0.5844900000000000    0.5366550000000000 C
   0.6088700000000000    0.6299600000000000    0.5077800000000000 N
   0.9081500000000000    0.6303000000000000    0.5093350000000000 N
