Ca192 H774 C764 O1152
1.0
  38.1379999999999981    0.0000000000000000    0.0000000000000023
  -0.0220446063939954   33.2384926897314159    0.0000000000000020
   0.0000000000000000    0.0000000000000000   34.1180000000000021
Ca H C O
192 774 764 1152
direct
   0.8335000000000000    0.7830733333333333    0.5566750000000000 Ca
   0.8335000000000000    0.7830733333333333    0.0566750000000000 Ca
   0.0835000000000000    0.7830733333333333    0.0566750000000000 Ca
   0.0835000000000000    0.1164066666666667    0.5566750000000000 Ca
   0.3335000000000000    0.4497400000000000    0.5566750000000000 Ca
   0.3335000000000000    0.7830733333333333    0.5566750000000000 Ca
   0.0835000000000000    0.1164066666666667    0.0566750000000000 Ca
   0.3335000000000000    0.4497400000000000    0.0566750000000000 Ca
   0.3335000000000000    0.7830733333333333    0.0566750000000000 Ca
   0.3335000000000000    0.1164066666666667    0.5566750000000000 Ca
   0.0835000000000000    0.4497400000000000    0.5566750000000000 Ca
   0.5835000000000000    0.7830733333333333    0.5566750000000000 Ca
   0.3335000000000000    0.1164066666666667    0.0566750000000000 Ca
   0.0835000000000000    0.4497400000000000    0.0566750000000000 Ca
   0.5835000000000000    0.7830733333333333    0.0566750000000000 Ca
   0.0835000000000000    0.7830733333333333    0.5566750000000000 Ca
   0.8335000000000000    0.1164066666666667    0.5566750000000000 Ca
   0.8335000000000000    0.1164066666666667    0.0566750000000000 Ca
   0.8335000000000000    0.4497400000000000    0.5566750000000000 Ca
   0.8335000000000000    0.4497400000000000    0.0566750000000000 Ca
   0.5835000000000000    0.1164066666666667    0.5566750000000000 Ca
   0.5835000000000000    0.4497400000000000    0.5566750000000000 Ca
   0.5835000000000000    0.1164066666666667    0.0566750000000000 Ca
   0.5835000000000000    0.4497400000000000    0.0566750000000000 Ca
   0.8335000000000000    0.7830733333333333    0.3066800000000000 Ca
   0.0835000000000000    0.7830733333333333    0.3066800000000000 Ca
   0.0835000000000000    0.1164066666666667    0.3066800000000000 Ca
   0.3335000000000000    0.4497400000000000    0.3066800000000000 Ca
   0.3335000000000000    0.7830733333333333    0.3066800000000000 Ca
   0.8335000000000000    0.7830733333333333    0.8066800000000001 Ca
   0.0835000000000000    0.4497400000000000    0.3066800000000000 Ca
   0.5835000000000000    0.7830733333333333    0.3066800000000000 Ca
   0.0835000000000000    0.1164066666666667    0.8066800000000001 Ca
   0.3335000000000000    0.4497400000000000    0.8066800000000001 Ca
   0.3335000000000000    0.7830733333333333    0.8066800000000001 Ca
   0.3335000000000000    0.1164066666666667    0.3066800000000000 Ca
   0.8335000000000000    0.1164066666666667    0.3066800000000000 Ca
   0.8335000000000000    0.4497400000000000    0.3066800000000000 Ca
   0.3335000000000000    0.1164066666666667    0.8066800000000001 Ca
   0.0835000000000000    0.4497400000000000    0.8066800000000001 Ca
   0.5835000000000000    0.7830733333333333    0.8066800000000001 Ca
   0.0835000000000000    0.7830733333333333    0.8066800000000001 Ca
   0.8335000000000000    0.1164066666666667    0.8066800000000001 Ca
   0.8335000000000000    0.4497400000000000    0.8066800000000001 Ca
   0.5835000000000000    0.1164066666666667    0.3066800000000000 Ca
   0.5835000000000000    0.4497400000000000    0.3066800000000000 Ca
   0.5835000000000000    0.1164066666666667    0.8066800000000001 Ca
   0.5835000000000000    0.4497400000000000    0.8066800000000001 Ca
   0.2085375000000000    0.0500100000000000    0.6933150000000000 Ca
   0.2085375000000000    0.3833433333333333    0.6933150000000000 Ca
   0.2085375000000000    0.7166766666666666    0.6933150000000000 Ca
   0.4585375000000000    0.3833433333333333    0.6933150000000000 Ca
   0.4585375000000000    0.7166766666666666    0.6933150000000000 Ca
   0.4585375000000000    0.0500100000000000    0.6933150000000000 Ca
   0.2085375000000000    0.0500100000000000    0.1933150000000000 Ca
   0.2085375000000000    0.3833433333333333    0.1933150000000000 Ca
   0.2085375000000000    0.7166766666666666    0.1933150000000000 Ca
   0.7085375000000000    0.3833433333333333    0.6933150000000000 Ca
   0.7085375000000000    0.7166766666666666    0.6933150000000000 Ca
   0.7085375000000000    0.0500100000000000    0.6933150000000000 Ca
   0.4585375000000000    0.3833433333333333    0.1933150000000000 Ca
   0.4585375000000000    0.7166766666666666    0.1933150000000000 Ca
   0.4585375000000000    0.0500100000000000    0.1933150000000000 Ca
   0.9585375000000000    0.3833433333333333    0.6933150000000000 Ca
   0.9585375000000000    0.7166766666666666    0.6933150000000000 Ca
   0.7085375000000000    0.3833433333333333    0.1933150000000000 Ca
   0.7085375000000000    0.7166766666666666    0.1933150000000000 Ca
   0.9585375000000000    0.0500100000000000    0.6933150000000000 Ca
   0.7085375000000000    0.0500100000000000    0.1933150000000000 Ca
   0.9585375000000000    0.0500100000000000    0.1933150000000000 Ca
   0.9585375000000000    0.3833433333333333    0.1933150000000000 Ca
   0.9585375000000000    0.7166766666666666    0.1933150000000000 Ca
   0.9163075000000001    0.6167533333333333    0.8183000000000000 Ca
   0.9163075000000001    0.9500866666666666    0.8183000000000000 Ca
   0.9163075000000001    0.6167533333333333    0.3183000000000000 Ca
   0.9163075000000001    0.9500866666666666    0.3183000000000000 Ca
   0.9163075000000001    0.2834200000000000    0.8183000000000000 Ca
   0.9163075000000001    0.6167533333333333    0.5682950000000000 Ca
   0.9163075000000001    0.9500866666666666    0.5682950000000000 Ca
   0.9163075000000001    0.6167533333333333    0.0682950000000000 Ca
   0.9163075000000001    0.9500866666666666    0.0682950000000000 Ca
   0.9163075000000001    0.2834200000000000    0.3183000000000000 Ca
   0.9163075000000001    0.2834200000000000    0.5682950000000000 Ca
   0.6663075000000001    0.9500866666666666    0.8183000000000000 Ca
   0.9163075000000001    0.2834200000000000    0.0682950000000000 Ca
   0.4163075000000000    0.2834200000000000    0.8183000000000000 Ca
   0.1663075000000000    0.6167533333333333    0.8183000000000000 Ca
   0.4163075000000000    0.6167533333333333    0.8183000000000000 Ca
   0.1663075000000000    0.9500866666666666    0.8183000000000000 Ca
   0.4163075000000000    0.9500866666666666    0.8183000000000000 Ca
   0.6663075000000001    0.9500866666666666    0.3183000000000000 Ca
   0.6663075000000001    0.2834200000000000    0.8183000000000000 Ca
   0.6663075000000001    0.6167533333333333    0.8183000000000000 Ca
   0.6663075000000001    0.9500866666666666    0.5682950000000000 Ca
   0.6663075000000001    0.9500866666666666    0.0682950000000000 Ca
   0.4163075000000000    0.2834200000000000    0.3183000000000000 Ca
   0.1663075000000000    0.6167533333333333    0.3183000000000000 Ca
   0.4163075000000000    0.6167533333333333    0.3183000000000000 Ca
   0.1663075000000000    0.9500866666666666    0.3183000000000000 Ca
   0.4163075000000000    0.9500866666666666    0.3183000000000000 Ca
   0.1663075000000000    0.2834200000000000    0.8183000000000000 Ca
   0.4163075000000000    0.2834200000000000    0.5682950000000000 Ca
   0.1663075000000000    0.6167533333333333    0.5682950000000000 Ca
   0.4163075000000000    0.6167533333333333    0.5682950000000000 Ca
   0.1663075000000000    0.9500866666666666    0.5682950000000000 Ca
   0.4163075000000000    0.9500866666666666    0.5682950000000000 Ca
   0.4163075000000000    0.2834200000000000    0.0682950000000000 Ca
   0.1663075000000000    0.6167533333333333    0.0682950000000000 Ca
   0.4163075000000000    0.6167533333333333    0.0682950000000000 Ca
   0.1663075000000000    0.9500866666666666    0.0682950000000000 Ca
   0.4163075000000000    0.9500866666666666    0.0682950000000000 Ca
   0.6663075000000001    0.2834200000000000    0.3183000000000000 Ca
   0.6663075000000001    0.6167533333333333    0.3183000000000000 Ca
   0.6663075000000001    0.2834200000000000    0.5682950000000000 Ca
   0.6663075000000001    0.6167533333333333    0.5682950000000000 Ca
   0.6663075000000001    0.6167533333333333    0.0682950000000000 Ca
   0.1663075000000000    0.2834200000000000    0.3183000000000000 Ca
   0.6663075000000001    0.2834200000000000    0.0682950000000000 Ca
   0.1663075000000000    0.2834200000000000    0.5682950000000000 Ca
   0.1663075000000000    0.2834200000000000    0.0682950000000000 Ca
   0.2911975000000000    0.8830300000000000    0.9316700000000000 Ca
   0.5411975000000000    0.8830300000000000    0.9316700000000000 Ca
   0.7911975000000000    0.8830300000000000    0.9316700000000000 Ca
   0.0411975000000000    0.8830300000000000    0.9316700000000000 Ca
   0.0411975000000000    0.8830300000000000    0.4316700000000000 Ca
   0.2911975000000000    0.8830300000000000    0.4316700000000000 Ca
   0.5411975000000000    0.8830300000000000    0.4316700000000000 Ca
   0.7911975000000000    0.8830300000000000    0.4316700000000000 Ca
   0.0411975000000000    0.2163633333333333    0.9316700000000000 Ca
   0.2911975000000000    0.2163633333333333    0.9316700000000000 Ca
   0.5411975000000000    0.2163633333333333    0.9316700000000000 Ca
   0.2911975000000000    0.2163633333333333    0.4316700000000000 Ca
   0.0411975000000000    0.2163633333333333    0.4316700000000000 Ca
   0.0411975000000000    0.5496966666666666    0.9316700000000000 Ca
   0.5411975000000000    0.5496966666666666    0.9316700000000000 Ca
   0.7911975000000000    0.5496966666666666    0.9316700000000000 Ca
   0.7911975000000000    0.2163633333333333    0.9316700000000000 Ca
   0.0411975000000000    0.5496966666666666    0.4316700000000000 Ca
   0.5411975000000000    0.5496966666666666    0.4316700000000000 Ca
   0.7911975000000000    0.5496966666666666    0.4316700000000000 Ca
   0.2911975000000000    0.5496966666666666    0.9316700000000000 Ca
   0.5411975000000000    0.2163633333333333    0.4316700000000000 Ca
   0.7911975000000000    0.2163633333333333    0.4316700000000000 Ca
   0.2911975000000000    0.5496966666666666    0.4316700000000000 Ca
   0.0411975000000000    0.8830300000000000    0.6816650000000000 Ca
   0.2911975000000000    0.8830300000000000    0.6816650000000000 Ca
   0.5411975000000000    0.8830300000000000    0.6816650000000000 Ca
   0.7911975000000000    0.8830300000000000    0.6816650000000000 Ca
   0.2911975000000000    0.2163633333333333    0.6816650000000000 Ca
   0.5411975000000000    0.2163633333333333    0.6816650000000000 Ca
   0.5411975000000000    0.8830300000000000    0.1816650000000000 Ca
   0.0411975000000000    0.2163633333333333    0.6816650000000000 Ca
   0.0411975000000000    0.8830300000000000    0.1816650000000000 Ca
   0.2911975000000000    0.8830300000000000    0.1816650000000000 Ca
   0.7911975000000000    0.8830300000000000    0.1816650000000000 Ca
   0.5411975000000000    0.5496966666666666    0.6816650000000000 Ca
   0.7911975000000000    0.5496966666666666    0.6816650000000000 Ca
   0.0411975000000000    0.5496966666666666    0.6816650000000000 Ca
   0.0411975000000000    0.2163633333333333    0.1816650000000000 Ca
   0.2911975000000000    0.2163633333333333    0.1816650000000000 Ca
   0.7911975000000000    0.2163633333333333    0.6816650000000000 Ca
   0.2911975000000000    0.5496966666666666    0.6816650000000000 Ca
   0.0411975000000000    0.5496966666666666    0.1816650000000000 Ca
   0.5411975000000000    0.5496966666666666    0.1816650000000000 Ca
   0.7911975000000000    0.5496966666666666    0.1816650000000000 Ca
   0.5411975000000000    0.2163633333333333    0.1816650000000000 Ca
   0.7911975000000000    0.2163633333333333    0.1816650000000000 Ca
   0.2911975000000000    0.5496966666666666    0.1816650000000000 Ca
   0.4585375000000000    0.0500100000000000    0.4433200000000000 Ca
   0.9585375000000000    0.0500100000000000    0.4433200000000000 Ca
   0.2085375000000000    0.3833433333333333    0.4433200000000000 Ca
   0.7085375000000000    0.7166766666666666    0.4433200000000000 Ca
   0.9585375000000000    0.0500100000000000    0.9433199999999999 Ca
   0.7085375000000000    0.0500100000000000    0.4433200000000000 Ca
   0.4585375000000000    0.3833433333333333    0.4433200000000000 Ca
   0.7085375000000000    0.3833433333333333    0.4433200000000000 Ca
   0.4585375000000000    0.7166766666666666    0.4433200000000000 Ca
   0.2085375000000000    0.0500100000000000    0.4433200000000000 Ca
   0.9585375000000000    0.3833433333333333    0.4433200000000000 Ca
   0.9585375000000000    0.7166766666666666    0.4433200000000000 Ca
   0.4585375000000000    0.0500100000000000    0.9433199999999999 Ca
   0.7085375000000000    0.0500100000000000    0.9433199999999999 Ca
   0.4585375000000000    0.3833433333333333    0.9433199999999999 Ca
   0.7085375000000000    0.3833433333333333    0.9433199999999999 Ca
   0.4585375000000000    0.7166766666666666    0.9433199999999999 Ca
   0.7085375000000000    0.7166766666666666    0.9433199999999999 Ca
   0.2085375000000000    0.7166766666666666    0.4433200000000000 Ca
   0.2085375000000000    0.3833433333333333    0.9433199999999999 Ca
   0.2085375000000000    0.0500100000000000    0.9433199999999999 Ca
   0.9585375000000000    0.3833433333333333    0.9433199999999999 Ca
   0.2085375000000000    0.7166766666666666    0.9433199999999999 Ca
   0.9585375000000000    0.7166766666666666    0.9433199999999999 Ca
   0.2839150000000000    0.1522433333333333    0.7341299999999999 H
   0.3300300000000000    0.1208966666666667    0.7128350000000000 H
   0.2775500000000000    0.0706100000000000    0.6446800000000000 H
   0.3167400000000000    0.0540466666666667    0.6938600000000000 H
   0.3405400000000000    0.1802200000000000    0.6091900000000000 H
   0.2946900000000000    0.2119466666666666    0.5878150000000000 H
   0.3477825000000000    0.2613100000000000    0.5196200000000000 H
   0.3085550000000000    0.2786233333333333    0.5684300000000000 H
   0.2839150000000000    0.1522433333333333    0.4841350000000000 H
   0.3300300000000000    0.1208966666666667    0.4628400000000000 H
   0.2775500000000000    0.0706100000000000    0.3946850000000000 H
   0.3167400000000000    0.0540466666666667    0.4438650000000000 H
   0.3405400000000000    0.1802200000000000    0.3591950000000000 H
   0.2946900000000000    0.2119466666666666    0.3378250000000000 H
   0.3477825000000000    0.2613100000000000    0.2696250000000000 H
   0.3085550000000000    0.2786233333333333    0.3184400000000000 H
   0.2839150000000000    0.1522433333333333    0.2341300000000000 H
   0.3300300000000000    0.1208966666666667    0.2128350000000000 H
   0.2775500000000000    0.0706100000000000    0.1446800000000000 H
   0.3167400000000000    0.0540466666666667    0.1938600000000000 H
   0.3405400000000000    0.1802200000000000    0.1091900000000000 H
   0.2946900000000000    0.2119466666666666    0.0878150000000000 H
   0.3477825000000000    0.2613100000000000    0.0196200000000000 H
   0.3085550000000000    0.2786233333333333    0.0684300000000000 H
   0.2839150000000000    0.1522433333333333    0.9841350000000000 H
   0.3300300000000000    0.1208966666666667    0.9628399999999999 H
   0.2775500000000000    0.0706100000000000    0.8946850000000000 H
   0.3167400000000000    0.0540466666666667    0.9438650000000000 H
   0.3405400000000000    0.1802200000000000    0.8591949999999999 H
   0.2946900000000000    0.2119466666666666    0.8378250000000000 H
   0.3477825000000000    0.2613100000000000    0.7696250000000000 H
   0.3085550000000000    0.2786233333333333    0.8184400000000001 H
   0.2157325000000000    0.9858433333333333    0.3908300000000000 H
   0.1698050000000000    0.9543199999999999    0.4122300000000000 H
   0.2222675000000000    0.9040100000000000    0.4802650000000000 H
   0.1830750000000000    0.8875066666666667    0.4310500000000000 H
   0.1592150000000000    0.0138033333333333    0.5158050000000000 H
   0.2052325000000000    0.0455900000000000    0.5370700000000000 H
   0.1521500000000000    0.0948100000000000    0.6053450000000000 H
   0.1912975000000000    0.1122866666666667    0.5565400000000000 H
   0.2157325000000000    0.9858433333333333    0.1408250000000000 H
   0.1698050000000000    0.9543199999999999    0.1622250000000000 H
   0.2222675000000000    0.9040100000000000    0.2302600000000000 H
   0.1830750000000000    0.8875066666666667    0.1810400000000000 H
   0.1592150000000000    0.0138033333333333    0.2658150000000000 H
   0.2052325000000000    0.0455900000000000    0.2870800000000000 H
   0.1521500000000000    0.0948100000000000    0.3553500000000000 H
   0.1912975000000000    0.1122866666666667    0.3065450000000000 H
   0.2157325000000000    0.9858433333333333    0.8908300000000000 H
   0.1698050000000000    0.9543199999999999    0.9122300000000000 H
   0.2222675000000000    0.9040100000000000    0.9802649999999999 H
   0.1830750000000000    0.8875066666666667    0.9310499999999999 H
   0.1592150000000000    0.0138033333333333    0.0158050000000000 H
   0.2052325000000000    0.0455900000000000    0.0370700000000000 H
   0.1521500000000000    0.0948100000000000    0.1053450000000000 H
   0.1912975000000000    0.1122866666666667    0.0565400000000000 H
   0.2157325000000000    0.9858433333333333    0.6408250000000000 H
   0.1698050000000000    0.9543199999999999    0.6622250000000001 H
   0.2222675000000000    0.9040100000000000    0.7302600000000000 H
   0.1830750000000000    0.8875066666666667    0.6810400000000000 H
   0.1592150000000000    0.0138033333333333    0.7658150000000000 H
   0.2052325000000000    0.0455900000000000    0.7870800000000000 H
   0.1521500000000000    0.0948100000000000    0.8553500000000001 H
   0.1912975000000000    0.1122866666666667    0.8065450000000001 H
   0.2839150000000000    0.4855766666666667    0.2341300000000000 H
   0.3300300000000000    0.4542300000000000    0.2128350000000000 H
   0.2775500000000000    0.4039433333333333    0.1446800000000000 H
   0.3167400000000000    0.3873800000000000    0.1938600000000000 H
   0.3405400000000000    0.5135533333333333    0.1091900000000000 H
   0.2946900000000000    0.5452800000000000    0.0878150000000000 H
   0.3477825000000000    0.5946433333333333    0.0196200000000000 H
   0.3085550000000000    0.6119566666666667    0.0684300000000000 H
   0.2839150000000000    0.4855766666666667    0.9841350000000000 H
   0.3300300000000000    0.4542300000000000    0.9628399999999999 H
   0.2775500000000000    0.4039433333333333    0.8946850000000000 H
   0.3167400000000000    0.3873800000000000    0.9438650000000000 H
   0.3405400000000000    0.5135533333333333    0.8591949999999999 H
   0.2946900000000000    0.5452800000000000    0.8378250000000000 H
   0.3477825000000000    0.5946433333333333    0.7696250000000000 H
   0.3085550000000000    0.6119566666666667    0.8184400000000001 H
   0.2839150000000000    0.4855766666666667    0.7341299999999999 H
   0.3300300000000000    0.4542300000000000    0.7128350000000000 H
   0.2775500000000000    0.4039433333333333    0.6446800000000000 H
   0.3167400000000000    0.3873800000000000    0.6938600000000000 H
   0.3405400000000000    0.5135533333333333    0.6091900000000000 H
   0.2946900000000000    0.5452800000000000    0.5878150000000000 H
   0.3477825000000000    0.5946433333333333    0.5196200000000000 H
   0.3085550000000000    0.6119566666666667    0.5684300000000000 H
   0.2839150000000000    0.4855766666666667    0.4841350000000000 H
   0.3300300000000000    0.4542300000000000    0.4628400000000000 H
   0.2775500000000000    0.4039433333333333    0.3946850000000000 H
   0.3167400000000000    0.3873800000000000    0.4438650000000000 H
   0.3405400000000000    0.5135533333333333    0.3591950000000000 H
   0.2946900000000000    0.5452800000000000    0.3378250000000000 H
   0.3477825000000000    0.5946433333333333    0.2696250000000000 H
   0.3085550000000000    0.6119566666666667    0.3184400000000000 H
   0.2157325000000000    0.3191766666666667    0.3908300000000000 H
   0.1698050000000000    0.2876533333333333    0.4122300000000000 H
   0.2222675000000000    0.2373433333333334    0.4802650000000000 H
   0.1830750000000000    0.2208400000000000    0.4310500000000000 H
   0.1592150000000000    0.3471366666666666    0.5158050000000000 H
   0.2052325000000000    0.3789233333333333    0.5370700000000000 H
   0.1521500000000000    0.4281433333333333    0.6053450000000000 H
   0.1912975000000000    0.4456200000000000    0.5565400000000000 H
   0.2157325000000000    0.3191766666666667    0.1408250000000000 H
   0.1698050000000000    0.2876533333333333    0.1622250000000000 H
   0.2222675000000000    0.2373433333333334    0.2302600000000000 H
   0.1830750000000000    0.2208400000000000    0.1810400000000000 H
   0.1592150000000000    0.3471366666666666    0.2658150000000000 H
   0.2052325000000000    0.3789233333333333    0.2870800000000000 H
   0.1521500000000000    0.4281433333333333    0.3553500000000000 H
   0.1912975000000000    0.4456200000000000    0.3065450000000000 H
   0.2157325000000000    0.3191766666666667    0.8908300000000000 H
   0.1698050000000000    0.2876533333333333    0.9122300000000000 H
   0.2222675000000000    0.2373433333333334    0.9802649999999999 H
   0.1830750000000000    0.2208400000000000    0.9310499999999999 H
   0.1592150000000000    0.3471366666666666    0.0158050000000000 H
   0.2052325000000000    0.3789233333333333    0.0370700000000000 H
   0.1521500000000000    0.4281433333333333    0.1053450000000000 H
   0.1912975000000000    0.4456200000000000    0.0565400000000000 H
   0.2157325000000000    0.3191766666666667    0.6408250000000000 H
   0.1698050000000000    0.2876533333333333    0.6622250000000001 H
   0.2222675000000000    0.2373433333333334    0.7302600000000000 H
   0.1830750000000000    0.2208400000000000    0.6810400000000000 H
   0.1592150000000000    0.3471366666666666    0.7658150000000000 H
   0.2052325000000000    0.3789233333333333    0.7870800000000000 H
   0.1521500000000000    0.4281433333333333    0.8553500000000001 H
   0.1912975000000000    0.4456200000000000    0.8065450000000001 H
   0.2839150000000000    0.8189100000000000    0.2341300000000000 H
   0.3300300000000000    0.7875633333333333    0.2128350000000000 H
   0.2775500000000000    0.7372766666666666    0.1446800000000000 H
   0.3167400000000000    0.7207133333333333    0.1938600000000000 H
   0.3405400000000000    0.8468866666666666    0.1091900000000000 H
   0.2946900000000000    0.8786133333333332    0.0878150000000000 H
   0.3477825000000000    0.9279766666666667    0.0196200000000000 H
   0.3085550000000000    0.9452900000000000    0.0684300000000000 H
   0.2839150000000000    0.8189100000000000    0.9841350000000000 H
   0.3300300000000000    0.7875633333333333    0.9628399999999999 H
   0.2775500000000000    0.7372766666666666    0.8946850000000000 H
   0.3167400000000000    0.7207133333333333    0.9438650000000000 H
   0.3405400000000000    0.8468866666666666    0.8591949999999999 H
   0.2946900000000000    0.8786133333333332    0.8378250000000000 H
   0.3477825000000000    0.9279766666666667    0.7696250000000000 H
   0.3085550000000000    0.9452900000000000    0.8184400000000001 H
   0.2839150000000000    0.8189100000000000    0.7341299999999999 H
   0.3300300000000000    0.7875633333333333    0.7128350000000000 H
   0.2775500000000000    0.7372766666666666    0.6446800000000000 H
   0.3167400000000000    0.7207133333333333    0.6938600000000000 H
   0.3405400000000000    0.8468866666666666    0.6091900000000000 H
   0.2946900000000000    0.8786133333333332    0.5878150000000000 H
   0.3477825000000000    0.9279766666666667    0.5196200000000000 H
   0.3085550000000000    0.9452900000000000    0.5684300000000000 H
   0.2839150000000000    0.8189100000000000    0.4841350000000000 H
   0.3300300000000000    0.7875633333333333    0.4628400000000000 H
   0.2775500000000000    0.7372766666666666    0.3946850000000000 H
   0.3167400000000000    0.7207133333333333    0.4438650000000000 H
   0.3405400000000000    0.8468866666666666    0.3591950000000000 H
   0.2946900000000000    0.8786133333333332    0.3378250000000000 H
   0.3477825000000000    0.9279766666666667    0.2696250000000000 H
   0.3085550000000000    0.9452900000000000    0.3184400000000000 H
   0.2157325000000000    0.6525099999999999    0.3908300000000000 H
   0.1698050000000000    0.6209866666666666    0.4122300000000000 H
   0.2222675000000000    0.5706766666666667    0.4802650000000000 H
   0.1830750000000000    0.5541733333333333    0.4310500000000000 H
   0.1592150000000000    0.6804699999999999    0.5158050000000000 H
   0.2052325000000000    0.7122566666666666    0.5370700000000000 H
   0.1521500000000000    0.7614766666666666    0.6053450000000000 H
   0.1912975000000000    0.7789533333333333    0.5565400000000000 H
   0.2157325000000000    0.6525099999999999    0.1408250000000000 H
   0.1698050000000000    0.6209866666666666    0.1622250000000000 H
   0.2222675000000000    0.5706766666666667    0.2302600000000000 H
   0.1830750000000000    0.5541733333333333    0.1810400000000000 H
   0.1592150000000000    0.6804699999999999    0.2658150000000000 H
   0.2052325000000000    0.7122566666666666    0.2870800000000000 H
   0.1521500000000000    0.7614766666666666    0.3553500000000000 H
   0.1912975000000000    0.7789533333333333    0.3065450000000000 H
   0.2157325000000000    0.6525099999999999    0.8908300000000000 H
   0.1698050000000000    0.6209866666666666    0.9122300000000000 H
   0.2222675000000000    0.5706766666666667    0.9802649999999999 H
   0.1830750000000000    0.5541733333333333    0.9310499999999999 H
   0.1592150000000000    0.6804699999999999    0.0158050000000000 H
   0.2052325000000000    0.7122566666666666    0.0370700000000000 H
   0.1521500000000000    0.7614766666666666    0.1053450000000000 H
   0.1912975000000000    0.7789533333333333    0.0565400000000000 H
   0.2157325000000000    0.6525099999999999    0.6408250000000000 H
   0.1698050000000000    0.6209866666666666    0.6622250000000001 H
   0.2222675000000000    0.5706766666666667    0.7302600000000000 H
   0.1830750000000000    0.5541733333333333    0.6810400000000000 H
   0.1592150000000000    0.6804699999999999    0.7658150000000000 H
   0.2052325000000000    0.7122566666666666    0.7870800000000000 H
   0.1521500000000000    0.7614766666666666    0.8553500000000001 H
   0.1912975000000000    0.7789533333333333    0.8065450000000001 H
   0.9657325000000000    0.3191766666666667    0.8908300000000000 H
   0.9198050000000000    0.2876533333333333    0.9122300000000000 H
   0.9722675000000001    0.2373433333333334    0.9802649999999999 H
   0.9330750000000000    0.2208400000000000    0.9310499999999999 H
   0.9092150000000000    0.3471366666666666    0.0158050000000000 H
   0.9552325000000000    0.3789233333333333    0.0370700000000000 H
   0.9021500000000000    0.4281433333333333    0.1053450000000000 H
   0.9412975000000000    0.4456200000000000    0.0565400000000000 H
   0.9657325000000000    0.3191766666666667    0.6408250000000000 H
   0.9198050000000000    0.2876533333333333    0.6622250000000001 H
   0.9722675000000001    0.2373433333333334    0.7302600000000000 H
   0.9330750000000000    0.2208400000000000    0.6810400000000000 H
   0.9092150000000000    0.3471366666666666    0.7658150000000000 H
   0.9552325000000000    0.3789233333333333    0.7870800000000000 H
   0.9021500000000000    0.4281433333333333    0.8553500000000001 H
   0.9412975000000000    0.4456200000000000    0.8065450000000001 H
   0.9657325000000000    0.3191766666666667    0.3908300000000000 H
   0.9198050000000000    0.2876533333333333    0.4122300000000000 H
   0.9722675000000001    0.2373433333333334    0.4802650000000000 H
   0.9330750000000000    0.2208400000000000    0.4310500000000000 H
   0.9092150000000000    0.3471366666666666    0.5158050000000000 H
   0.9552325000000000    0.3789233333333333    0.5370700000000000 H
   0.9021500000000000    0.4281433333333333    0.6053450000000000 H
   0.9412975000000000    0.4456200000000000    0.5565400000000000 H
   0.9657325000000000    0.3191766666666667    0.1408250000000000 H
   0.9198050000000000    0.2876533333333333    0.1622250000000000 H
   0.9722675000000001    0.2373433333333334    0.2302600000000000 H
   0.9330750000000000    0.2208400000000000    0.1810400000000000 H
   0.9092150000000000    0.3471366666666666    0.2658150000000000 H
   0.9552325000000000    0.3789233333333333    0.2870800000000000 H
   0.9021500000000000    0.4281433333333333    0.3553500000000000 H
   0.9412975000000000    0.4456200000000000    0.3065450000000000 H
   0.0339150000000000    0.4855766666666667    0.7341299999999999 H
   0.0800300000000000    0.4542300000000000    0.7128350000000000 H
   0.0275500000000000    0.4039433333333333    0.6446800000000000 H
   0.0667400000000000    0.3873800000000000    0.6938600000000000 H
   0.0905400000000000    0.5135533333333333    0.6091900000000000 H
   0.0446900000000000    0.5452800000000000    0.5878150000000000 H
   0.0977825000000000    0.5946433333333333    0.5196200000000000 H
   0.0585550000000000    0.6119566666666667    0.5684300000000000 H
   0.0339150000000000    0.4855766666666667    0.4841350000000000 H
   0.0800300000000000    0.4542300000000000    0.4628400000000000 H
   0.0275500000000000    0.4039433333333333    0.3946850000000000 H
   0.0667400000000000    0.3873800000000000    0.4438650000000000 H
   0.0905400000000000    0.5135533333333333    0.3591950000000000 H
   0.0446900000000000    0.5452800000000000    0.3378250000000000 H
   0.0977825000000000    0.5946433333333333    0.2696250000000000 H
   0.0585550000000000    0.6119566666666667    0.3184400000000000 H
   0.0339150000000000    0.4855766666666667    0.2341300000000000 H
   0.0800300000000000    0.4542300000000000    0.2128350000000000 H