H10 O6
1.0
  38.1379999999999981    0.0000000000000000    0.0000000000000023
  -0.0220446063939954   33.2384926897314159    0.0000000000000020
   0.0000000000000000    0.0000000000000000   34.1180000000000021
H O
10 6
direct
   0.9339330170147689    0.5561737075078071    0.8436661391703242 H
   0.0063876343118262    0.5221539223806966    0.8803952914466247 H
   0.9647699904259972    0.5087059166133727    0.8534003492983836 H
   0.9108105044181179    0.6648743710294437    0.9498503476151829 H
   0.9860998854628952    0.6242828071886047    0.9157689129918052 H
   0.9519098924607237    0.6267865434019354    0.9271318611572199 H
   0.9645204195785967    0.5710332905383065    0.9354688691046410 H
   0.9617446159822024    0.5549564523820348    0.9690402188961258 H
   0.9292848143936610    0.5755957624742749   -0.0031722003889279 H
   0.9165641002212700    0.6019563197191506    0.9676338708714040 H
   0.9497800000000001    0.5749133333333334    0.8563799999999999 O
   0.0000000000000000    0.5503666666666667    0.8816649999999999 O
   0.9227600000000000    0.6667766666666667    0.9748800000000000 O
   0.9699025000000000    0.6463033333333332    0.9195750000000000 O
   0.9827650000000000    0.5645133333333333    0.9546049999999999 O
   0.9320400000000000    0.6044200000000000    0.0000500000000000 O
