H4 O3
1.0
  14.5266050307790131    0.0000000000000000   -0.2013213345522075
  -0.0213026867472787   15.8099851762076327   -0.0038631117279226
   0.0000000000000000    0.0000000000000000   37.9099999999999966
H O
4 3
direct
   0.1970179915559973    0.9466862622190105    0.2655936837694098 H
   0.7976015260613863    0.0375732734618406    0.2298194079381407 H
   0.7651653054755525   -0.0589705781452639    0.2180205599051729 H
   0.8310447855358744    0.1567641303292463    0.2440886679245639 H
   0.2155200000000000    0.8876900000000000    0.2624900000000000 O
   0.7551700000000000    0.0000000000000000    0.2238850000000000 O
   0.7844000000000000    0.1154600000000000    0.2375650000000000 O
