Zn32 H108 C184 O108
1.0
  14.5266050307790131    0.0000000000000000   -0.2013213345522075
  -0.0213026867472787   15.8099851762076327   -0.0038631117279226
   0.0000000000000000    0.0000000000000000   37.9099999999999966
Zn H C O
32 108 184 108
direct
   0.6569300000000000    0.6404000000000000    0.0171950000000000 Zn
   0.5310500000000000    0.9300300000000000    0.2699050000000000 Zn
   0.3445200000000000    0.8629700000000000    0.2655750000000000 Zn
   0.5310800000000000    0.4298800000000000    0.4802450000000000 Zn
   0.3440300000000000    0.3634900000000000    0.4828850000000000 Zn
   0.4688000000000000    0.0736000000000000    0.2300800000000000 Zn
   0.6555200000000000    0.1405300000000000    0.2344450000000000 Zn
   0.0280400000000000    0.0736400000000000    0.4803150000000000 Zn
   0.8433500000000000    0.1403400000000000    0.4828350000000000 Zn
   0.9680600000000000    0.4300800000000000    0.2300700000000000 Zn
   0.1528800000000000    0.3631700000000000    0.2343850000000000 Zn
   0.9688700000000000    0.9298999999999999    0.0197400000000000 Zn
   0.1558300000000000    0.8635200000000000    0.0171700000000000 Zn
   0.0307500000000000    0.5737400000000000    0.2699350000000000 Zn
   0.8438900000000000    0.6400500000000000    0.2656350000000000 Zn
   0.4722300000000000    0.5735300000000000    0.0197300000000000 Zn
   0.6569300000000000    0.6404000000000000    0.5171950000000000 Zn
   0.5310500000000000    0.9300300000000000    0.7699050000000001 Zn
   0.3445200000000000    0.8629700000000000    0.7655750000000000 Zn
   0.5310800000000000    0.4298800000000000    0.9802450000000000 Zn
   0.3440300000000000    0.3634900000000000    0.9828850000000000 Zn
   0.4688000000000000    0.0736000000000000    0.7300800000000001 Zn
   0.6555200000000000    0.1405300000000000    0.7344450000000000 Zn
   0.0280400000000000    0.0736400000000000    0.9803150000000000 Zn
   0.8433500000000000    0.1403400000000000    0.9828350000000000 Zn
   0.9680600000000000    0.4300800000000000    0.7300700000000000 Zn
   0.1528800000000000    0.3631700000000000    0.7343850000000001 Zn
   0.9688700000000000    0.9298999999999999    0.5197400000000000 Zn
   0.1558300000000000    0.8635200000000000    0.5171700000000000 Zn
   0.0307500000000000    0.5737400000000000    0.7699350000000000 Zn
   0.8438900000000000    0.6400500000000000    0.7656350000000001 Zn
   0.4722300000000000    0.5735300000000000    0.5197300000000000 Zn
   0.9487300000000000    0.6502000000000000    0.0082050000000000 H
   0.8884300000000001    0.3841400000000000    0.0072100000000000 H
   0.6636700000000000    0.7399700000000000    0.1217950000000000 H
   0.3912900000000000    0.6330600000000000    0.1218300000000000 H
   0.3646100000000000    0.6946900000000000    0.1815050000000000 H
   0.6370200000000000    0.8017100000000000    0.1818050000000000 H
   0.3416000000000000    0.7602200000000000    0.3691650000000000 H
   0.6123600000000000    0.8704200000000000    0.3731700000000000 H
   0.6380600000000000    0.8096500000000000    0.4333000000000000 H
   0.3671200000000000    0.6994899999999999    0.4296750000000000 H
   0.0522000000000000    0.3533200000000000    0.0000000000000000 H
   0.1124800000000000    0.6193900000000000    0.4927100000000000 H
   0.3379100000000000    0.2634400000000000    0.3786150000000000 H
   0.6100800000000000    0.3707100000000000    0.3779000000000000 H
   0.6358400000000000    0.3091100000000000    0.3181600000000000 H
   0.3636200000000000    0.2016900000000000    0.3185450000000000 H
   0.6602800000000000    0.2408900000000000    0.1307150000000000 H
   0.3884500000000000    0.1329800000000000    0.1264250000000000 H
   0.3636500000000000    0.1943100000000000    0.0663600000000000 H
   0.6355400000000000    0.3023700000000000    0.0703050000000000 H
   0.5516500000000000    0.1502300000000000    0.0000000000000000 H
   0.6112100000000000    0.8842100000000001    0.4923850000000000 H
   0.8362600000000000    0.2396500000000000    0.3783800000000000 H
   0.1086400000000000    0.1333500000000000    0.3781350000000000 H
   0.1349700000000000    0.1949500000000000    0.3184200000000000 H
   0.8625699999999999    0.3013900000000000    0.3183400000000000 H
   0.4445400000000000    0.3532400000000000    0.2435500000000000 H
   0.3868300000000000    0.6195900000000000    0.2414550000000000 H
   0.1582000000000000    0.2636800000000000    0.1309550000000000 H
   0.8861599999999999    0.3704900000000000    0.1261400000000000 H
   0.8624100000000000    0.3091800000000000    0.0659750000000000 H
   0.1345200000000000    0.2022300000000000    0.0704350000000000 H
   0.4473800000000000    0.8532100000000000    0.0078400000000000 H
   0.3878700000000000    0.1192600000000000    0.0073750000000000 H
   0.1613100000000000    0.7642600000000001    0.1213300000000000 H
   0.8881900000000000    0.8689000000000000    0.1219050000000000 H
   0.8627000000000000    0.8068700000000000    0.1815950000000000 H
   0.1358800000000000    0.7022000000000000    0.1813700000000000 H
   0.5521300000000000    0.6504200000000000    0.2564300000000000 H
   0.6098700000000000    0.3841200000000000    0.2584850000000000 H
   0.8391900000000000    0.7399800000000000    0.3694650000000000 H
   0.1113200000000000    0.6332700000000000    0.3735150000000000 H
   0.1362300000000000    0.6945600000000000    0.4336100000000000 H
   0.8640500000000000    0.8014000000000000    0.4299100000000000 H
   0.6528200000000000    0.4954600000000000    0.0174150000000000 H
   0.3501600000000000    0.0078700000000000    0.2673750000000000 H
   0.3504700000000000    0.5084000000000000    0.4825500000000000 H
   0.6493000000000000    0.9957900000000000    0.2326000000000000 H
   0.8473100000000000    0.9955200000000000    0.4825850000000000 H
   0.1489100000000000    0.5079399999999999    0.2325700000000000 H
   0.1495100000000000    0.0084100000000000    0.0174800000000000 H
   0.8494300000000000    0.4953100000000000    0.2674300000000000 H
   0.9487300000000000    0.6502000000000000    0.5082050000000000 H
   0.8884300000000001    0.3841400000000000    0.5072100000000000 H
   0.6636700000000000    0.7399700000000000    0.6217950000000000 H
   0.3912900000000000    0.6330600000000000    0.6218300000000000 H
   0.3646100000000000    0.6946900000000000    0.6815050000000000 H
   0.6370200000000000    0.8017100000000000    0.6818050000000000 H
   0.0529600000000000    0.8527800000000000    0.7565050000000000 H
   0.1117200000000000    0.1190500000000000    0.7583949999999999 H
   0.3416000000000000    0.7602200000000000    0.8691650000000000 H
   0.6123600000000000    0.8704200000000000    0.8731700000000000 H
   0.6380600000000000    0.8096500000000000    0.9333000000000000 H
   0.3671200000000000    0.6994899999999999    0.9296750000000000 H
   0.0522000000000000    0.3533200000000000    0.5000000000000000 H
   0.1124800000000000    0.6193900000000000    0.9927100000000000 H
   0.3379100000000000    0.2634400000000000    0.8786149999999999 H
   0.6100800000000000    0.3707100000000000    0.8779000000000000 H
   0.6358400000000000    0.3091100000000000    0.8181600000000000 H
   0.3636200000000000    0.2016900000000000    0.8185450000000001 H
   0.9465100000000000    0.1499400000000000    0.7433500000000000 H
   0.8877000000000000    0.8836800000000000    0.7414700000000000 H
   0.6602800000000000    0.2408900000000000    0.6307150000000000 H
   0.3884500000000000    0.1329800000000000    0.6264250000000000 H
   0.3636500000000000    0.1943100000000000    0.5663600000000000 H
   0.6355400000000000    0.3023700000000000    0.5703050000000001 H
   0.5516500000000000    0.1502300000000000    0.5000000000000000 H
   0.6112100000000000    0.8842100000000001    0.9923850000000001 H
   0.8362600000000000    0.2396500000000000    0.8783799999999999 H
   0.1086400000000000    0.1333500000000000    0.8781350000000000 H
   0.1349700000000000    0.1949500000000000    0.8184199999999999 H
   0.8625699999999999    0.3013900000000000    0.8183400000000001 H
   0.4445400000000000    0.3532400000000000    0.7435499999999999 H
   0.3868300000000000    0.6195900000000000    0.7414550000000000 H
   0.1582000000000000    0.2636800000000000    0.6309549999999999 H
   0.8861599999999999    0.3704900000000000    0.6261400000000000 H
   0.8624100000000000    0.3091800000000000    0.5659750000000000 H
   0.1345200000000000    0.2022300000000000    0.5704350000000000 H
   0.4473800000000000    0.8532100000000000    0.5078400000000000 H
   0.3878700000000000    0.1192600000000000    0.5073750000000000 H
   0.1613100000000000    0.7642600000000001    0.6213299999999999 H
   0.8881900000000000    0.8689000000000000    0.6219050000000000 H
   0.8627000000000000    0.8068700000000000    0.6815950000000000 H
   0.1358800000000000    0.7022000000000000    0.6813700000000000 H
   0.5521300000000000    0.6504200000000000    0.7564299999999999 H
   0.6098700000000000    0.3841200000000000    0.7584850000000001 H
   0.8391900000000000    0.7399800000000000    0.8694649999999999 H
   0.1113200000000000    0.6332700000000000    0.8735150000000000 H
   0.1362300000000000    0.6945600000000000    0.9336100000000001 H
   0.8640500000000000    0.8014000000000000    0.9299100000000000 H
   0.6528200000000000    0.4954600000000000    0.5174150000000000 H
   0.3501600000000000    0.0078700000000000    0.7673749999999999 H
   0.3504700000000000    0.5084000000000000    0.9825500000000000 H
   0.6493000000000000    0.9957900000000000    0.7326000000000000 H
   0.8473100000000000    0.9955200000000000    0.9825850000000000 H
   0.1489100000000000    0.5079399999999999    0.7325699999999999 H
   0.1495100000000000    0.0084100000000000    0.5174800000000001 H
   0.8494300000000000    0.4953100000000000    0.7674300000000001 H
   0.8107400000000000    0.5368200000000000    0.0172650000000000 C
   0.9090400000000000    0.5190300000000000    0.0087750000000000 C
   0.9721600000000000    0.5854500000000000    0.0045650000000000 C
   0.9379700000000000    0.4352100000000000    0.0040900000000000 C
   0.5410900000000000    0.6516400000000000    0.0815500000000000 C
   0.5285600000000000    0.6838800000000000    0.1181350000000000 C
   0.5986399999999999    0.7302900000000000    0.1351650000000000 C
   0.4446600000000000    0.6699500000000000    0.1351500000000000 C
   0.4792500000000000    0.7956900000000000    0.2190150000000000 C
   0.4988900000000000    0.7527000000000000    0.1849100000000000 C
   0.4298500000000000    0.7042200000000000    0.1683000000000000 C
   0.5839200000000000    0.7644700000000000    0.1684400000000000 C
   0.4634100000000000    0.8502400000000000    0.3307400000000000 C
   0.4759000000000000    0.8179700000000000    0.3674650000000000 C
   0.4060500000000000    0.7707900000000000    0.3835050000000000 C
   0.5591000000000000    0.8329700000000000    0.3857050000000000 C
   0.5234900000000000    0.7080200000000000    0.4693600000000000 C
   0.5044300000000000    0.7501900000000000    0.4348300000000000 C
   0.5733600000000000    0.7991900000000000    0.4191450000000000 C
   0.4201600000000000    0.7371700000000000    0.4170650000000000 C
   0.1902900000000000    0.4667600000000000    0.4827450000000000 C
   0.0919200000000000    0.4844900000000000    0.4912050000000000 C
   0.0287900000000000    0.4180800000000000    0.0000000000000000 C
   0.0629600000000000    0.5683200000000000    0.4958550000000000 C
   0.4611500000000000    0.3519800000000000    0.4185550000000000 C
   0.4730100000000000    0.3197000000000000    0.3819400000000000 C
   0.4027000000000000    0.2732000000000000    0.3650900000000000 C
   0.5565700000000000    0.3337300000000000    0.3647150000000000 C
   0.5208400000000000    0.2079400000000000    0.2809450000000000 C
   0.5016200000000000    0.2508800000000000    0.3150900000000000 C
   0.5708600000000000    0.2994600000000000    0.3315250000000000 C
   0.4169000000000000    0.2390000000000000    0.3317750000000000 C
   0.5373200000000000    0.1519500000000000    0.1690550000000000 C
   0.5253900000000000    0.1842600000000000    0.1323000000000000 C
   0.5957700000000000    0.2309500000000000    0.1163350000000000 C
   0.4421500000000000    0.1700600000000000    0.1139750000000000 C
   0.4791000000000000    0.2955000000000000    0.0305050000000000 C
   0.4977800000000000    0.2528200000000000    0.0649800000000000 C
   0.4283800000000000    0.2041800000000000    0.0805650000000000 C
   0.5821000000000000    0.2649800000000000    0.0828150000000000 C
   0.6893400000000000    0.0368800000000000    0.4827050000000000 C
   0.5909600000000000    0.0190600000000000    0.4911000000000000 C
   0.5280500000000000    0.0854500000000000    0.0000000000000000 C
   0.5618000000000000    0.9352200000000001    0.4956150000000000 C
   0.9589000000000000    0.1515900000000000    0.4184800000000000 C
   0.9713500000000000    0.1838400000000000    0.3819100000000000 C
   0.9011900000000000    0.2301000000000000    0.3649450000000000 C
   0.0552000000000000    0.1700800000000000    0.3648500000000000 C
   0.0201600000000000    0.2954700000000000    0.2810100000000000 C
   0.0006200000000000    0.2525900000000000    0.3151250000000000 C
   0.0698100000000000    0.2043200000000000    0.3316800000000000 C
   0.9157100000000000    0.2642600000000000    0.3316600000000000 C
   0.3069600000000000    0.4667000000000000    0.2333600000000000 C
   0.4060900000000000    0.4845400000000000    0.2414900000000000 C
   0.4689100000000000    0.4180500000000000    0.2464050000000000 C
   0.4361500000000000    0.5684700000000000    0.2451400000000000 C
   0.0344600000000000    0.3518000000000000    0.1690400000000000 C
   0.0231100000000000    0.3196700000000000    0.1322500000000000 C
   0.0939000000000000    0.2733700000000000    0.1164250000000000 C
   0.9401000000000000    0.3336600000000000    0.1137700000000000 C
   0.9784000000000000    0.2083300000000000    0.0304450000000000 C
   0.0000000000000000    0.2512100000000000    0.0648900000000000 C
   0.9269400000000000    0.2995600000000000    0.0803200000000000 C
   0.0808400000000000    0.2393700000000000    0.0828650000000000 C
   0.3097600000000000    0.9666700000000000    0.0172200000000000 C
   0.4081000000000000    0.9844000000000001    0.0086650000000000 C
   0.4709900000000000    0.9180000000000000    0.0043050000000000 C
   0.4372600000000000    0.0682300000000000    0.0041200000000000 C
   0.0379200000000000    0.8518900000000000    0.0814100000000000 C
   0.0258200000000000    0.8192700000000001    0.1179550000000000 C
   0.0963900000000000    0.7733600000000000    0.1348300000000000 C
   0.9419700000000000    0.8324200000000000    0.1351050000000000 C
   0.9785700000000001    0.7072300000000000    0.2189350000000000 C
   0.0000000000000000    0.7500900000000000    0.1847500000000000 C
   0.9278300000000000    0.7979400000000000    0.1682700000000000 C
   0.0823500000000000    0.7390000000000000    0.1681200000000000 C
   0.6897500000000000    0.5369200000000000    0.2666050000000000 C
   0.5905899999999999    0.5191400000000000    0.2584500000000000 C
   0.5277700000000000    0.5856200000000000    0.2535450000000000 C
   0.5605300000000000    0.4352100000000000    0.2548000000000000 C
   0.9623500000000000    0.6518500000000000    0.3309700000000000 C
   0.9742400000000000    0.6840100000000000    0.3677550000000000 C
   0.9037900000000000    0.7302999999999999    0.3838000000000000 C
   0.0576000000000000    0.6700800000000000    0.3860300000000000 C
   0.0208000000000000    0.7953700000000000    0.4695300000000000 C
   0.0019600000000000    0.7525200000000000    0.4350900000000000 C
   0.0714300000000000    0.7041800000000000    0.4194500000000000 C
   0.9175200000000000    0.7643100000000000    0.4173250000000000 C
   0.8107400000000000    0.5368200000000000    0.5172650000000000 C
   0.9090400000000000    0.5190300000000000    0.5087750000000000 C
   0.9721600000000000    0.5854500000000000    0.5045650000000000 C
   0.9379700000000000    0.4352100000000000    0.5040900000000000 C
   0.5410900000000000    0.6516400000000000    0.5815500000000000 C
   0.5285600000000000    0.6838800000000000    0.6181350000000000 C
   0.5986399999999999    0.7302900000000000    0.6351650000000000 C
   0.4446600000000000    0.6699500000000000    0.6351500000000000 C
   0.4792500000000000    0.7956900000000000    0.7190150000000000 C
   0.4988900000000000    0.7527000000000000    0.6849100000000000 C
   0.4298500000000000    0.7042200000000000    0.6683000000000000 C
   0.5839200000000000    0.7644700000000000    0.6684400000000000 C
   0.1908700000000000    0.9662900000000000    0.7666250000000000 C
   0.0918400000000000    0.9840800000000000    0.7584450000000000 C
   0.0288200000000000    0.9175800000000000    0.7535700000000001 C
   0.0621800000000000    0.0679900000000000    0.7547250000000000 C
   0.4634100000000000    0.8502400000000000    0.8307400000000000 C
   0.4759000000000000    0.8179700000000000    0.8674649999999999 C
   0.4060500000000000    0.7707900000000000    0.8835050000000000 C
   0.5591000000000000    0.8329700000000000    0.8857050000000000 C
   0.5234900000000000    0.7080200000000000    0.9693600000000000 C
   0.5044300000000000    0.7501900000000000    0.9348300000000000 C
   0.5733600000000000    0.7991900000000000    0.9191450000000000 C
   0.4201600000000000    0.7371700000000000    0.9170650000000000 C
   0.1902900000000000    0.4667600000000000    0.9827450000000000 C
   0.0919200000000000    0.4844900000000000    0.9912050000000000 C
   0.0287900000000000    0.4180800000000000    0.5000000000000000 C
   0.0629600000000000    0.5683200000000000    0.9958549999999999 C
   0.4611500000000000    0.3519800000000000    0.9185550000000000 C
   0.4730100000000000    0.3197000000000000    0.8819399999999999 C
   0.4027000000000000    0.2732000000000000    0.8650900000000000 C
   0.5565700000000000    0.3337300000000000    0.8647150000000000 C
   0.5208400000000000    0.2079400000000000    0.7809450000000000 C
   0.5016200000000000    0.2508800000000000    0.8150900000000000 C
   0.5708600000000000    0.2994600000000000    0.8315250000000001 C
   0.4169000000000000    0.2390000000000000    0.8317749999999999 C
   0.8085900000000000    0.0367700000000000    0.7333450000000000 C
   0.9075900000000000    0.0186700000000000    0.7414250000000000 C
   0.9706399999999999    0.0851400000000000    0.7462800000000001 C
   0.9372500000000000    0.9347500000000000    0.7451250000000000 C
   0.5373200000000000    0.1519500000000000    0.6690550000000000 C
   0.5253900000000000    0.1842600000000000    0.6323000000000000 C
   0.5957700000000000    0.2309500000000000    0.6163350000000000 C
   0.4421500000000000    0.1700600000000000    0.6139750000000000 C
   0.4791000000000000    0.2955000000000000    0.5305050000000000 C
   0.4977800000000000    0.2528200000000000    0.5649800000000000 C
   0.4283800000000000    0.2041800000000000    0.5805650000000000 C
   0.5821000000000000    0.2649800000000000    0.5828150000000000 C
   0.6893400000000000    0.0368800000000000    0.9827049999999999 C
   0.5909600000000000    0.0190600000000000    0.9911000000000000 C
   0.5280500000000000    0.0854500000000000    0.5000000000000000 C
   0.5618000000000000    0.9352200000000001    0.9956150000000000 C
   0.9589000000000000    0.1515900000000000    0.9184800000000000 C
   0.9713500000000000    0.1838400000000000    0.8819100000000000 C
   0.9011900000000000    0.2301000000000000    0.8649450000000001 C
   0.0552000000000000    0.1700800000000000    0.8648500000000000 C
   0.0201600000000000    0.2954700000000000    0.7810100000000000 C
   0.0006200000000000    0.2525900000000000    0.8151250000000000 C
   0.0698100000000000    0.2043200000000000    0.8316800000000000 C
   0.9157100000000000    0.2642600000000000    0.8316600000000001 C
   0.3069600000000000    0.4667000000000000    0.7333600000000000 C
   0.4060900000000000    0.4845400000000000    0.7414900000000000 C
   0.4689100000000000    0.4180500000000000    0.7464050000000000 C
   0.4361500000000000    0.5684700000000000    0.7451400000000000 C
   0.0344600000000000    0.3518000000000000    0.6690400000000000 C
   0.0231100000000000    0.3196700000000000    0.6322500000000000 C
   0.0939000000000000    0.2733700000000000    0.6164250000000000 C
   0.9401000000000000    0.3336600000000000    0.6137700000000000 C
   0.9784000000000000    0.2083300000000000    0.5304450000000001 C
   0.0000000000000000    0.2512100000000000    0.5648900000000000 C
   0.9269400000000000    0.2995600000000000    0.5803199999999999 C
   0.0808400000000000    0.2393700000000000    0.5828650000000000 C
   0.3097600000000000    0.9666700000000000    0.5172200000000000 C
   0.4081000000000000    0.9844000000000001    0.5086650000000000 C
   0.4709900000000000    0.9180000000000000    0.5043050000000000 C
   0.4372600000000000    0.0682300000000000    0.5041200000000000 C
   0.0379200000000000    0.8518900000000000    0.5814100000000000 C
   0.0258200000000000    0.8192700000000001    0.6179550000000000 C
   0.0963900000000000    0.7733600000000000    0.6348300000000000 C
   0.9419700000000000    0.8324200000000000    0.6351050000000000 C
   0.9785700000000001    0.7072300000000000    0.7189350000000000 C
   0.0000000000000000    0.7500900000000000    0.6847500000000000 C
   0.9278300000000000    0.7979400000000000    0.6682700000000000 C
   0.0823500000000000    0.7390000000000000    0.6681200000000000 C
   0.6897500000000000    0.5369200000000000    0.7666050000000000 C
   0.5905899999999999    0.5191400000000000    0.7584500000000001 C
   0.5277700000000000    0.5856200000000000    0.7535450000000000 C
   0.5605300000000000    0.4352100000000000    0.7548000000000000 C
   0.9623500000000000    0.6518500000000000    0.8309700000000000 C
   0.9742400000000000    0.6840100000000000    0.8677550000000001 C
   0.9037900000000000    0.7302999999999999    0.8837999999999999 C
   0.0576000000000000    0.6700800000000000    0.8860300000000000 C
   0.0208000000000000    0.7953700000000000    0.9695300000000000 C
   0.0019600000000000    0.7525200000000000    0.9350900000000000 C
   0.0714300000000000    0.7041800000000000    0.9194500000000000 C
   0.9175200000000000    0.7643100000000000    0.9173249999999999 C
   0.7417899999999999    0.0000000000000000    0.4737600000000000 O
   0.9566500000000000    0.3402900000000000    0.2669250000000000 O
   0.1011700000000000    0.2854100000000000    0.2686300000000000 O
   0.4724700000000000    0.6110400000000000    0.0679200000000000 O
   0.6167899999999999    0.6668700000000000    0.0662500000000000 O
   0.7858800000000000    0.6155900000000000    0.0139950000000000 O
   0.7582000000000000    0.4773100000000000    0.0262100000000000 O
   0.5429800000000000    0.8404300000000000    0.2331000000000000 O
   0.3981800000000000    0.7857600000000000    0.2313550000000000 O
   0.5312900000000000    0.8923800000000000    0.3180600000000000 O
   0.3883100000000000    0.8336700000000000    0.3144800000000000 O
   0.4598300000000000    0.6633700000000000    0.4828550000000000 O
   0.6043400000000000    0.7184300000000000    0.4827200000000000 O
   0.5301100000000000    0.3924500000000000    0.4320450000000000 O
   0.3856300000000000    0.3368800000000000    0.4339750000000000 O
   0.2150700000000000    0.3878900000000000    0.4860450000000000 O
   0.2428200000000000    0.5261800000000000    0.4738150000000000 O
   0.4570000000000000    0.1632600000000000    0.2669050000000000 O
   0.6018200000000000    0.2179200000000000    0.2685150000000000 O
   0.4685700000000000    0.1113100000000000    0.1818850000000000 O
   0.6129100000000000    0.1671000000000000    0.1852250000000000 O
   0.5430300000000000    0.3401400000000000    0.0171650000000000 O
   0.3983000000000000    0.2854100000000000    0.0170800000000000 O
   0.0275000000000000    0.1110500000000000    0.4320950000000000 O
   0.8832300000000000    0.1667700000000000    0.4337750000000000 O
   0.7143699999999999    0.1156700000000000    0.4860400000000000 O
   0.9656400000000001    0.3922800000000000    0.1818500000000000 O
   0.1098300000000000    0.3365700000000000    0.1853000000000000 O
   0.2819600000000000    0.3882000000000000    0.2375200000000000 O
   0.2541000000000000    0.5258400000000000    0.2238500000000000 O
   0.0422600000000000    0.1635500000000000    0.0171800000000000 O
   0.8977200000000000    0.2183800000000000    0.0169500000000000 O
   0.9691000000000000    0.8924500000000000    0.0679300000000000 O
   0.1135200000000000    0.8370000000000000    0.0660350000000000 O
   0.2848200000000000    0.8877500000000000    0.0139900000000000 O
   0.2574200000000000    0.0260700000000000    0.0261950000000000 O
   0.0427600000000000    0.6632500000000000    0.2330700000000000 O
   0.8975000000000000    0.7165800000000000    0.2313150000000000 O
   0.0311300000000000    0.6113499999999999    0.3181200000000000 O
   0.8868700000000000    0.6670500000000000    0.3147800000000000 O
   0.7147400000000000    0.6154700000000000    0.2624250000000000 O
   0.7425200000000000    0.4778300000000000    0.2761450000000000 O
   0.9569500000000000    0.8400300000000001    0.4828500000000000 O
   0.1015900000000000    0.7853700000000000    0.4829450000000000 O
   0.9029300000000000    0.0221900000000000    0.4953900000000000 O
   0.5972300000000000    0.5221700000000000    0.0046250000000000 O
   0.4045600000000000    0.9813000000000000    0.2545300000000000 O
   0.4055500000000000    0.4814100000000000    0.4953150000000000 O
   0.5949200000000000    0.0223600000000000    0.2454900000000000 O
   0.0940900000000000    0.4815200000000000    0.2454200000000000 O
   0.0944600000000000    0.9814100000000000    0.0046800000000000 O
   0.9037600000000000    0.5220500000000000    0.2545950000000000 O
   0.7417899999999999    0.0000000000000000    0.9737600000000000 O
   0.9566500000000000    0.3402900000000000    0.7669250000000001 O
   0.1011700000000000    0.2854100000000000    0.7686299999999999 O
   0.4724700000000000    0.6110400000000000    0.5679200000000000 O
   0.6167899999999999    0.6668700000000000    0.5662500000000000 O
   0.7858800000000000    0.6155900000000000    0.5139950000000000 O
   0.7582000000000000    0.4773100000000000    0.5262100000000000 O
   0.5429800000000000    0.8404300000000000    0.7331000000000000 O
   0.3981800000000000    0.7857600000000000    0.7313550000000000 O
   0.5312900000000000    0.8923800000000000    0.8180600000000000 O
   0.3883100000000000    0.8336700000000000    0.8144800000000000 O
   0.2155200000000000    0.8876900000000000    0.7624900000000000 O
   0.2438600000000000    0.0254300000000000    0.7761100000000001 O
   0.4598300000000000    0.6633700000000000    0.9828550000000000 O
   0.6043400000000000    0.7184300000000000    0.9827200000000000 O
   0.5301100000000000    0.3924500000000000    0.9320450000000000 O
   0.3856300000000000    0.3368800000000000    0.9339750000000000 O
   0.2150700000000000    0.3878900000000000    0.9860450000000001 O
   0.2428200000000000    0.5261800000000000    0.9738150000000000 O
   0.4570000000000000    0.1632600000000000    0.7669049999999999 O
   0.6018200000000000    0.2179200000000000    0.7685150000000001 O
   0.4685700000000000    0.1113100000000000    0.6818850000000000 O
   0.6129100000000000    0.1671000000000000    0.6852250000000000 O
   0.7844000000000000    0.1154600000000000    0.7375650000000000 O
   0.7551700000000000    0.0000000000000000    0.7238850000000000 O
   0.5430300000000000    0.3401400000000000    0.5171650000000000 O
   0.3983000000000000    0.2854100000000000    0.5170800000000000 O
   0.0275000000000000    0.1110500000000000    0.9320950000000000 O
   0.8832300000000000    0.1667700000000000    0.9337750000000000 O
   0.7143699999999999    0.1156700000000000    0.9860400000000000 O
   0.9656400000000001    0.3922800000000000    0.6818500000000001 O
   0.1098300000000000    0.3365700000000000    0.6853000000000000 O
   0.2819600000000000    0.3882000000000000    0.7375200000000000 O
   0.2541000000000000    0.5258400000000000    0.7238500000000000 O
   0.0422600000000000    0.1635500000000000    0.5171800000000000 O
   0.8977200000000000    0.2183800000000000    0.5169500000000000 O
   0.9691000000000000    0.8924500000000000    0.5679300000000000 O
   0.1135200000000000    0.8370000000000000    0.5660350000000000 O
   0.2848200000000000    0.8877500000000000    0.5139899999999999 O
   0.2574200000000000    0.0260700000000000    0.5261950000000000 O
   0.0427600000000000    0.6632500000000000    0.7330700000000000 O
   0.8975000000000000    0.7165800000000000    0.7313149999999999 O
   0.0311300000000000    0.6113499999999999    0.8181200000000000 O
   0.8868700000000000    0.6670500000000000    0.8147800000000001 O
   0.7147400000000000    0.6154700000000000    0.7624250000000000 O
   0.7425200000000000    0.4778300000000000    0.7761450000000000 O
   0.9569500000000000    0.8400300000000001    0.9828500000000000 O
   0.1015900000000000    0.7853700000000000    0.9829450000000000 O
   0.9029300000000000    0.0221900000000000    0.9953900000000000 O
   0.5972300000000000    0.5221700000000000    0.5046250000000000 O
   0.4045600000000000    0.9813000000000000    0.7545299999999999 O
   0.4055500000000000    0.4814100000000000    0.9953149999999999 O
   0.5949200000000000    0.0223600000000000    0.7454900000000000 O
   0.0940900000000000    0.4815200000000000    0.7454200000000000 O
   0.0944600000000000    0.9814100000000000    0.5046800000000000 O
   0.9037600000000000    0.5220500000000000    0.7545950000000000 O
