H7 O5
1.0
  33.7244532212568799    0.0000000000000000    5.0973337321835395
   8.5961985414080786   33.2458835524093175   14.4408116790827581
   0.0000000000000000    0.0000000000000000   30.5459999999999994
H O
7 5
direct
   0.8516065990170463    0.0281943452529148    0.7873320732800749 H
   0.8496243125458819    0.8717389930233188    0.7879767250335346 H
   0.8446819730742716    0.8992932303874263    0.7669486547175888 H
   0.8438333824408419    0.8468252154352977    0.8194251462223867 H
   0.8458583203169431    0.9494488965439036    0.7095083228702070 H
   0.8200970095572048    0.8719727538581797    0.9294491395913859 H
   0.8821036135902345    0.8990163535840957    0.9269419298220317 H
   0.8517920000000001    0.0441950000000000    0.7532633333333333 O
   0.8449080000000000    0.8641799999999999    0.7862466666666666 O
   0.8460400000000000    0.9212250000000000    0.7250200000000000 O
   0.8246240000000000    0.8765625000000000    0.9572466666666666 O
   0.8774200000000001    0.8999200000000001    0.9586533333333332 O
