Ba8 Cd4 H34 C56 N8 O56
1.0
  13.0829717820247922    0.0000000000000000    0.0271726101628711
  -0.0256932295983614   18.2697684216473100    0.0883271041729806
   0.0000000000000000    0.0000000000000000   18.3069999999999986
Ba Cd H C N O
8 4 34 56 8 56
direct
   0.1649800000000000    0.1526900000000000    0.6078800000000000 Ba
   0.0891500000000000    0.3481000000000000    0.1085700000000000 Ba
   0.9151100000000000    0.1070800000000000    0.3487800000000000 Ba
   0.8373400000000000    0.6079599999999999    0.1514600000000000 Ba
   0.3399900000000000    0.3914100000000000    0.8477000000000000 Ba
   0.4159300000000000    0.8929000000000000    0.6510899999999999 Ba
   0.5870100000000000    0.6529100000000000    0.8927000000000000 Ba
   0.6628800000000000    0.8469200000000000    0.3909000000000000 Ba
   0.2524000000000000    0.3475200000000000    0.6529400000000000 Cd
   0.5011200000000000    0.8472200000000000    0.8460500000000000 Cd
   0.0007500000000000    0.1540800000000000    0.1539200000000000 Cd
   0.7501700000000000    0.6527500000000001    0.3460300000000000 Cd
   0.3833711063260376    0.3897096541556505    0.5197518891803005 H
   0.1595111398351844    0.2374874244720825    0.5181826445700323 H
   0.2697068869797140    0.3107851655203626    0.5142794453084782 H
   0.1989400000000000    0.7890000000000000    0.7042500000000000 H
   0.0925500000000000    0.5823800000000000    0.6197800000000000 H
   0.0761700000000000    0.7188900000000000    0.6289500000000000 H
   0.3494200000000000    0.5883400000000000    0.7651700000000000 H
   0.3418100000000000    0.8824500000000000    0.0813500000000000 H
   0.4500200000000000    0.7964300000000000    0.2870400000000000 H
   0.3271100000000000    0.8728000000000000    0.2178100000000000 H
   0.5989100000000001    0.7367200000000000    0.0800000000000000 H
   0.5540400000000000    0.2888900000000000    0.7944500000000000 H
   0.6607000000000000    0.0823800000000000    0.8804500000000000 H
   0.6763000000000000    0.2190500000000000    0.8708500000000000 H
   0.4047800000000000    0.0878800000000000    0.7340900000000000 H
   1.0850452030991748    0.1517243881629265    0.3520483681149419 H
   0.1585884893042407    0.2601525983000589    0.1599496778032478 H
   0.1264686114611387    0.2100307151103373    0.2510474373331482 H
   0.9518000000000000    0.2034400000000000    0.7126200000000000 H
   0.8284200000000000    0.1280000000000000    0.7830700000000000 H
   0.8432200000000000    0.1197500000000000    0.9195600000000000 H
   0.1011900000000000    0.2650900000000000    0.9125900000000000 H
   0.0518700000000000    0.7119900000000000    0.2031300000000000 H
   0.1588200000000000    0.9190600000000000    0.1178700000000000 H
   0.1744000000000000    0.7823900000000000    0.1269100000000000 H
   0.9024100000000000    0.9124400000000000    0.2645000000000000 H
   0.6997200000000000    0.2110000000000000    0.2967000000000000 H
   0.5926600000000000    0.4170400000000000    0.3818200000000000 H
   0.5769900000000000    0.2804300000000000    0.3728000000000000 H
   0.8491900000000000    0.4123400000000000    0.2352500000000000 H
   0.8008800000000000    0.7025800000000000    0.7868100000000000 H
   0.9077900000000000    0.6170099999999999    0.5810700000000000 H
   0.9231500000000000    0.6262100000000000    0.7173700000000000 H
   0.6513700000000000    0.7632900000000000    0.5861300000000000 H
   0.3617000000000000    0.7339400000000000    0.7821700000000000 C
   0.2318400000000000    0.4959800000000000    0.6872300000000000 C
   0.2060300000000000    0.7297800000000000    0.7003000000000000 C
   0.1446100000000000    0.6142100000000000    0.6534799999999999 C
   0.1366000000000000    0.6901700000000000    0.6581900000000001 C
   0.2896800000000000    0.6169200000000000    0.7352600000000000 C
   0.2211200000000000    0.5772000000000000    0.6924600000000000 C
   0.2836700000000000    0.6932400000000000    0.7386500000000000 C
   0.6121600000000000    0.7185300000000000    0.2314100000000000 C
   0.4794400000000000    0.8149500000000000    0.9942500000000000 C
   0.3942200000000000    0.8485100000000000    0.1128000000000000 C
   0.4567400000000000    0.8008800000000000    0.2279000000000000 C
   0.3870900000000000    0.8434900000000000    0.1887700000000000 C
   0.5393500000000000    0.7664900000000000    0.1147900000000000 C
   0.4702100000000000    0.8095100000000000    0.0754900000000000 C
   0.5340200000000001    0.7625600000000000    0.1910200000000000 C
   0.3918300000000000    0.2338000000000000    0.7166800000000000 C
   0.5231700000000000    0.9955500000000000    0.8127900000000000 C
   0.5471300000000000    0.2296200000000000    0.7987000000000000 C
   0.6087700000000000    0.1141500000000000    0.8463800000000000 C
   0.6163500000000000    0.1901700000000000    0.8414300000000000 C
   0.4642500000000000    0.1165300000000000    0.7640400000000001 C
   0.5328900000000000    0.0769200000000000    0.8071900000000000 C
   0.4698700000000000    0.1929400000000000    0.7603500000000000 C
   0.1142900000000000    0.2816600000000000    0.7667400000000000 C
   0.9814400000000000    0.1877300000000000    0.0054900000000000 C
   0.9585100000000000    0.1996100000000000    0.7717800000000000 C
   0.8886200000000000    0.1575100000000000    0.8116000000000000 C
   0.8958199999999999    0.1532900000000000    0.8875000000000000 C
   0.0414600000000000    0.2351000000000000    0.8842500000000000 C
   0.9721400000000000    0.1925500000000000    0.9242300000000000 C
   0.0360500000000000    0.2382000000000000    0.8079800000000000 C
   0.8896200000000000    0.7663800000000000    0.2815400000000000 C
   0.0210800000000000    0.0053000000000000    0.1863300000000000 C
   0.0449400000000000    0.7712400000000000    0.1990600000000000 C
   0.1067200000000000    0.8870500000000000    0.1518300000000000 C
   0.1143200000000000    0.8110300000000000    0.1565000000000000 C
   0.9619400000000000    0.8839900000000001    0.2343000000000000 C
   0.0306800000000000    0.9239300000000000    0.1912700000000000 C
   0.9675800000000000    0.8076000000000000    0.2377600000000000 C
   0.8618800000000000    0.2663500000000000    0.2184200000000000 C
   0.7301900000000000    0.5041800000000000    0.3135500000000000 C
   0.7065399999999999    0.2702300000000000    0.3007200000000000 C
   0.6447400000000000    0.3854300000000000    0.3478700000000000 C
   0.6371300000000000    0.3094500000000000    0.3432400000000000 C
   0.7896300000000001    0.3834900000000000    0.2653900000000000 C
   0.7208100000000000    0.4228500000000000    0.3084600000000000 C
   0.7839500000000000    0.3071200000000000    0.2620500000000000 C
   0.6390400000000001    0.7813300000000000    0.7313800000000000 C
   0.7698500000000000    0.6850300000000000    0.4942500000000000 C
   0.7938200000000000    0.6983100000000000    0.7277400000000001 C
   0.8556100000000000    0.6509200000000001    0.6126500000000000 C
   0.8631200000000000    0.6556999999999999    0.6884700000000000 C
   0.7108600000000000    0.7332400000000000    0.6148300000000000 C
   0.7795299999999999    0.6901500000000000    0.5754200000000000 C
   0.7165899999999999    0.7369400000000000    0.6910200000000000 C
   0.3123800000000000    0.3676100000000000    0.0261200000000000 N
   0.5614900000000000    0.4742700000000000    0.8694700000000000 N
   0.9426200000000000    0.1304900000000000    0.5268100000000000 N
   0.4410000000000000    0.8686700000000001    0.4729100000000000 N
   0.0597600000000000    0.5259800000000000    0.1323600000000000 N
   0.1934800000000000    0.9743100000000000    0.6324000000000000 N
   0.8101300000000000    0.6334900000000000    0.9737400000000000 N
   0.6916200000000000    0.0256700000000000    0.3676500000000000 N
   0.3989700000000000    0.3747600000000000    0.9966300000000000 O
   0.3022800000000000    0.3560600000000000    0.0937800000000000 O
   0.2308400000000000    0.3719900000000000    0.9855300000000000 O
   0.6478100000000000    0.5037100000000000    0.8777700000000001 O
   0.5518700000000000    0.4069000000000000    0.8561100000000000 O
   0.4796800000000000    0.5146100000000000    0.8744700000000000 O
   0.8566500000000000    0.1221200000000000    0.4970000000000000 O
   0.9513000000000000    0.1438900000000000    0.5940500000000000 O
   0.0248400000000000    0.1255400000000000    0.4868500000000000 O
   0.3554100000000000    0.8779800000000000    0.5031500000000000 O
   0.4491700000000000    0.8559800000000000    0.4054800000000000 O
   0.5235200000000000    0.8719500000000000    0.5126100000000000 O
   0.1464800000000000    0.4968900000000000    0.1250900000000000 O
   0.0494700000000000    0.5936000000000000    0.1439900000000000 O
   0.9784200000000000    0.4850000000000000    0.1280000000000000 O
   0.2748800000000000    0.0000000000000000    0.6280200000000000 O
   0.1068100000000000    0.0000000000000000    0.6251400000000000 O
   0.2038300000000000    0.9065800000000001    0.6440500000000000 O
   0.7285000000000000    0.6282300000000000    0.0000000000000000 O
   0.8965900000000000    0.6253600000000000    0.0000000000000000 O
   0.8002000000000000    0.6468800000000000    0.9064000000000000 O
   0.6048600000000000    0.9964400000000000    0.3748500000000000 O
   0.7021100000000000    0.0934200000000000    0.3561400000000000 O
   0.7729200000000001    0.9846800000000000    0.3719000000000000 O
   0.3286500000000000    0.3594100000000000    0.5391400000000000 O
   0.2047900000000000    0.2748400000000000    0.5372800000000000 O
   0.4143100000000000    0.6999400000000000    0.8290200000000000 O
   0.3730200000000000    0.8030700000000000    0.7686800000000000 O
   0.1770800000000000    0.4611500000000000    0.6419899999999999 O
   0.2981500000000000    0.4640500000000000    0.7281200000000000 O
   0.6657600000000000    0.6725700000000000    0.1972100000000000 O
   0.6223300000000000    0.7307200000000000    0.3005800000000000 O
   0.4228400000000000    0.8592200000000000    0.9594400000000000 O
   0.5467300000000000    0.7749000000000000    0.9621600000000000 O
   0.3376200000000000    0.1997800000000000    0.6710600000000000 O
   0.3821800000000000    0.3031500000000000    0.7288900000000000 O
   0.5779800000000000    0.9608600000000000    0.8583100000000000 O
   0.4575000000000000    0.9631600000000000    0.7718200000000000 O
   1.0875500000000000    0.1717800000000000    0.3029200000000000 O
   0.1291100000000000    0.2311800000000000    0.1992400000000000 O
   0.1685400000000000    0.3278300000000000    0.8001600000000000 O
   0.1240400000000000    0.2690200000000000    0.6976200000000000 O
   0.9245000000000000    0.1436100000000000    0.0405800000000000 O
   0.0487400000000000    0.2278800000000000    0.0372400000000000 O
   0.8358000000000000    0.7999400000000000    0.3278700000000000 O
   0.8796800000000000    0.6971400000000000    0.2687000000000000 O
   0.0758200000000000    0.0404000000000000    0.1408200000000000 O
   0.9556900000000000    0.0372300000000000    0.2279100000000000 O
   0.9157500000000000    0.3001800000000000    0.1719300000000000 O
   0.8717400000000000    0.1970400000000000    0.2314500000000000 O
   0.6751700000000000    0.5384600000000000    0.3590600000000000 O
   0.7955700000000000    0.5369200000000000    0.2721200000000000 O
   0.5867900000000000    0.8281300000000000    0.6970000000000000 O
   0.6278899999999999    0.7687200000000000    0.8005500000000000 O
   0.8264400000000000    0.6408600000000000    0.4595100000000000 O
   0.7025300000000000    0.7251700000000000    0.4622100000000000 O
