N1 O3
1.0
  13.0829717820247922    0.0000000000000000    0.0271726101628711
  -0.0256932295983614   18.2697684216473100    0.0883271041729806
   0.0000000000000000    0.0000000000000000   18.3069999999999986
N O
1 3
direct
   0.0597600000000000    0.5259800000000000    0.1323600000000000 N
   0.9784200000000000    0.4850000000000000    0.1280000000000000 O
   0.0494700000000000    0.5936000000000000    0.1439900000000000 O
   0.1464800000000000    0.4968900000000000    0.1250900000000000 O
