H2 O1
1.0
  13.0829717820247922    0.0000000000000000    0.0271726101628711
  -0.0256932295983614   18.2697684216473100    0.0883271041729806
   0.0000000000000000    0.0000000000000000   18.3069999999999986
H O
2 1
direct
   0.0574490203511205    0.5411664376926368    0.1349719235487336 H
   0.0553608148583349    0.6462863588773656    0.1531395799594780 H
   0.0494700000000000    0.5936000000000000    0.1439900000000000 O
