H4 C8 O4
1.0
  13.0829717820247922    0.0000000000000000    0.0271726101628711
  -0.0256932295983614   18.2697684216473100    0.0883271041729806
   0.0000000000000000    0.0000000000000000   18.3069999999999986
H C O
4 8 4
direct
   0.1532800000000000    0.2363000000000000    0.4135100000000000 H
   0.3024200000000000    0.2970100000000000    0.2121700000000000 H
   0.4248600000000000    0.3737000000000000    0.2809900000000000 H
   0.4096300000000000    0.3831800000000000    0.4173200000000000 H
   0.2815200000000000    0.3096900000000000    0.4236100000000000 C
   0.2127600000000000    0.2663900000000000    0.3845500000000000 C
   0.2182800000000000    0.2626400000000000    0.3083500000000000 C
   0.2955000000000000    0.3013200000000000    0.2712000000000000 C
   0.3648700000000000    0.3441500000000000    0.3101700000000000 C
   0.3574800000000000    0.3490400000000000    0.3860000000000000 C
   0.2720000000000000    0.3150100000000000    0.5047800000000000 C
   0.1402300000000000    0.2184100000000000    0.2683600000000000 C
   0.2047900000000000    0.2748400000000000    0.5372800000000000 O
   0.3286500000000000    0.3594100000000000    0.5391400000000000 O
   1.0875500000000000    0.1717800000000000    0.3029200000000000 O
   0.1291100000000000    0.2311800000000000    0.1992400000000000 O
