Zn40 Si16 H271 C441 O144
1.0
  25.4037261566064565    0.0000000000000000  -10.5204901672949109
  -9.2730104654448251   26.8780071662694162   -8.9031704284328246
   0.0000000000000000    0.0000000000000000   29.3580000000000005
Zn Si H C O
40 16 271 441 144
direct
   0.6844950000000000    0.9844700000000000    0.6067350000000000 Zn
   0.2595750000000000    0.0911750000000000    0.2136500000000000 Zn
   0.1844950000000000    0.9844700000000000    0.6067350000000000 Zn
   0.7595750000000000    0.0911750000000000    0.2136500000000000 Zn
   0.1844950000000000    0.9844700000000000    0.1067350000000000 Zn
   0.7595750000000000    0.0911750000000000    0.7136500000000000 Zn
   0.6844950000000000    0.9844700000000000    0.1067350000000000 Zn
   0.2595750000000000    0.0911750000000000    0.7136500000000000 Zn
   0.1844950000000000    0.4844700000000000    0.6067350000000000 Zn
   0.7595750000000000    0.5911750000000000    0.2136500000000000 Zn
   0.6844950000000000    0.4844700000000000    0.6067350000000000 Zn
   0.2595750000000000    0.5911750000000000    0.2136500000000000 Zn
   0.6844950000000000    0.4844700000000000    0.1067350000000000 Zn
   0.2595750000000000    0.5911750000000000    0.7136500000000000 Zn
   0.1844950000000000    0.4844700000000000    0.1067350000000000 Zn
   0.7595750000000000    0.5911750000000000    0.7136500000000000 Zn
   0.3158200000000000    0.5154100000000000    0.8932850000000000 Zn
   0.7408450000000000    0.4086750000000000    0.2862650000000000 Zn
   0.8158200000000000    0.5154100000000000    0.8932850000000000 Zn
   0.2408450000000000    0.4086750000000000    0.2862650000000000 Zn
   0.8158200000000000    0.5154100000000000    0.3932850000000000 Zn
   0.2408450000000000    0.4086750000000000    0.7862650000000000 Zn
   0.3158200000000000    0.5154100000000000    0.3932850000000000 Zn
   0.7408450000000000    0.4086750000000000    0.7862650000000000 Zn
   0.3158200000000000    0.0154100000000000    0.8932850000000000 Zn
   0.7408450000000000    0.9086750000000000    0.2862650000000000 Zn
   0.8158200000000000    0.0154100000000000    0.8932850000000000 Zn
   0.2408450000000000    0.9086750000000000    0.2862650000000000 Zn
   0.8158200000000000    0.0154100000000000    0.3932850000000000 Zn
   0.2408450000000000    0.9086750000000000    0.7862650000000000 Zn
   0.3158200000000000    0.0154100000000000    0.3932850000000000 Zn
   0.7408450000000000    0.9086750000000000    0.7862650000000000 Zn
   0.2504650000000000    0.9999899999999999    0.7500550000000000 Zn
   0.2504650000000000    0.9999899999999999    0.2500550000000000 Zn
   0.2504650000000000    0.4999900000000000    0.7500550000000000 Zn
   0.2504650000000000    0.4999900000000000    0.2500550000000000 Zn
   0.7504649999999999    0.9999899999999999    0.7500550000000000 Zn
   0.7504649999999999    0.9999899999999999    0.2500550000000000 Zn
   0.7504649999999999    0.4999900000000000    0.7500550000000000 Zn
   0.7504649999999999    0.4999900000000000    0.2500550000000000 Zn
   0.6135699999999999    0.1742900000000000    0.4360600000000000 Si
   0.1135700000000000    0.1742900000000000    0.4360600000000000 Si
   0.1135700000000000    0.1742900000000000    0.9360600000000000 Si
   0.6135699999999999    0.1742900000000000    0.9360600000000000 Si
   0.1135700000000000    0.6742900000000001    0.4360600000000000 Si
   0.6135699999999999    0.6742900000000001    0.4360600000000000 Si
   0.6135699999999999    0.6742900000000001    0.9360600000000000 Si
   0.1135700000000000    0.6742900000000001    0.9360600000000000 Si
   0.3869300000000000    0.3255900000000000    0.0639450000000000 Si
   0.8869300000000000    0.3255900000000000    0.0639450000000000 Si
   0.8869300000000000    0.3255900000000000    0.5639450000000000 Si
   0.3869300000000000    0.3255900000000000    0.5639450000000000 Si
   0.3869300000000000    0.8255900000000000    0.0639450000000000 Si
   0.8869300000000000    0.8255900000000000    0.0639450000000000 Si
   0.8869300000000000    0.8255900000000000    0.5639450000000000 Si
   0.3869300000000000    0.8255900000000000    0.5639450000000000 Si
   0.7761350000000000    0.0074650000000000    0.6810250000000000 H
   0.7313350000000001    0.1803400000000000    0.6203450000000000 H
   0.6996850000000000    0.2176550000000000    0.5535900000000000 H
   0.6061799999999999    0.0397500000000000    0.5051500000000000 H
   0.5738500000000000    0.0761400000000000    0.4380250000000000 H
   0.6985350000000000    0.1808500000000000    0.3107700000000000 H
   0.6635200000000000    0.2179700000000000    0.3746050000000000 H
   0.6719700000000000    0.0463450000000000    0.3368950000000000 H
   0.6393000000000000    0.0828800000000000    0.4017900000000000 H
   0.4380000000000000    0.1274050000000000    0.2670150000000000 H
   0.5403050000000000    0.1561400000000000    0.3233600000000000 H
   0.4140400000000000    0.0997700000000000    0.3938350000000000 H
   0.5157450000000000    0.1320450000000000    0.4521450000000000 H
   0.7377500000000000    0.3544800000000000    0.5272850000000000 H
   0.7168750000000000    0.2639450000000000    0.4798500000000000 H
   0.5712250000000000    0.3281550000000000    0.5088450000000000 H
   0.5492550000000000    0.2375700000000000    0.4606600000000000 H
   0.2761350000000000    0.0074650000000000    0.6810250000000000 H
   0.2313350000000000    0.1803400000000000    0.6203450000000000 H
   0.1996850000000000    0.2176550000000000    0.5535900000000000 H
   0.1061800000000000    0.0397500000000000    0.5051500000000000 H
   0.0738500000000000    0.0761400000000000    0.4380250000000000 H
   0.1985350000000000    0.1808500000000000    0.3107700000000000 H
   0.1635200000000000    0.2179700000000000    0.3746050000000000 H
   0.1719700000000000    0.0463450000000000    0.3368950000000000 H
   0.1393000000000000    0.0828800000000000    0.4017900000000000 H
   0.9379999999999999    0.1274050000000000    0.2670150000000000 H
   0.0403050000000000    0.1561400000000000    0.3233600000000000 H
   0.9140400000000000    0.0997700000000000    0.3938350000000000 H
   0.0157450000000000    0.1320450000000000    0.4521450000000000 H
   0.2377500000000000    0.3544800000000000    0.5272850000000000 H
   0.2168750000000000    0.2639450000000000    0.4798500000000000 H
   0.0712250000000000    0.3281550000000000    0.5088450000000000 H
   0.0492550000000000    0.2375700000000000    0.4606600000000000 H
   0.2761350000000000    0.0074650000000000    0.1810250000000000 H
   0.2313350000000000    0.1803400000000000    0.1203450000000000 H
   0.1996850000000000    0.2176550000000000    0.0535900000000000 H
   0.1061800000000000    0.0397500000000000    0.0051500000000000 H
   0.0738500000000000    0.0761400000000000    0.9380250000000000 H
   0.1985350000000000    0.1808500000000000    0.8107700000000000 H
   0.1635200000000000    0.2179700000000000    0.8746050000000001 H
   0.1719700000000000    0.0463450000000000    0.8368949999999999 H
   0.1393000000000000    0.0828800000000000    0.9017900000000000 H
   0.9379999999999999    0.1274050000000000    0.7670150000000000 H
   0.0403050000000000    0.1561400000000000    0.8233600000000000 H
   0.9140400000000000    0.0997700000000000    0.8938349999999999 H
   0.0157450000000000    0.1320450000000000    0.9521450000000000 H
   0.2377500000000000    0.3544800000000000    0.0272850000000000 H
   0.2168750000000000    0.2639450000000000    0.9798500000000000 H
   0.0712250000000000    0.3281550000000000    0.0088450000000000 H
   0.0492550000000000    0.2375700000000000    0.9606600000000001 H
   0.7761350000000000    0.0074650000000000    0.1810250000000000 H
   0.7313350000000001    0.1803400000000000    0.1203450000000000 H
   0.6996850000000000    0.2176550000000000    0.0535900000000000 H
   0.6061799999999999    0.0397500000000000    0.0051500000000000 H
   0.5738500000000000    0.0761400000000000    0.9380250000000000 H
   0.6985350000000000    0.1808500000000000    0.8107700000000000 H
   0.6635200000000000    0.2179700000000000    0.8746050000000001 H
   0.6719700000000000    0.0463450000000000    0.8368949999999999 H
   0.6393000000000000    0.0828800000000000    0.9017900000000000 H
   0.4380000000000000    0.1274050000000000    0.7670150000000000 H
   0.5403050000000000    0.1561400000000000    0.8233600000000000 H
   0.4140400000000000    0.0997700000000000    0.8938349999999999 H
   0.5157450000000000    0.1320450000000000    0.9521450000000000 H
   0.7377500000000000    0.3544800000000000    0.0272850000000000 H
   0.7168750000000000    0.2639450000000000    0.9798500000000000 H
   0.5712250000000000    0.3281550000000000    0.0088450000000000 H
   0.5492550000000000    0.2375700000000000    0.9606600000000001 H
   0.2761350000000000    0.5074650000000001    0.6810250000000000 H
   0.2313350000000000    0.6803399999999999    0.6203450000000000 H
   0.1996850000000000    0.7176549999999999    0.5535900000000000 H
   0.1061800000000000    0.5397500000000000    0.5051500000000000 H
   0.0738500000000000    0.5761400000000000    0.4380250000000000 H
   0.9379999999999999    0.6274050000000000    0.2670150000000000 H
   0.0403050000000000    0.6561399999999999    0.3233600000000000 H
   0.9140400000000000    0.5997700000000000    0.3938350000000000 H
   0.0157450000000000    0.6320450000000000    0.4521450000000000 H
   0.2377500000000000    0.8544800000000000    0.5272850000000000 H
   0.2168750000000000    0.7639450000000000    0.4798500000000000 H
   0.0712250000000000    0.8281550000000000    0.5088450000000000 H
   0.0492550000000000    0.7375700000000001    0.4606600000000000 H
   0.2302573410632628    0.6446268336667709    0.2538025874493032 H
   0.2089709434701917    0.5731959110033685    0.2657575976137353 H
   0.7761350000000000    0.5074650000000001    0.6810250000000000 H
   0.7313350000000001    0.6803399999999999    0.6203450000000000 H
   0.6996850000000000    0.7176549999999999    0.5535900000000000 H
   0.6061799999999999    0.5397500000000000    0.5051500000000000 H
   0.5738500000000000    0.5761400000000000    0.4380250000000000 H
   0.6985350000000000    0.6808500000000000    0.3107700000000000 H
   0.6635200000000000    0.7179700000000000    0.3746050000000000 H
   0.6719700000000000    0.5463450000000000    0.3368950000000000 H
   0.6393000000000000    0.5828800000000000    0.4017900000000000 H
   0.4380000000000000    0.6274050000000000    0.2670150000000000 H
   0.5403050000000000    0.6561399999999999    0.3233600000000000 H
   0.4140400000000000    0.5997700000000000    0.3938350000000000 H
   0.5157450000000000    0.6320450000000000    0.4521450000000000 H
   0.7377500000000000    0.8544800000000000    0.5272850000000000 H
   0.7168750000000000    0.7639450000000000    0.4798500000000000 H
   0.5712250000000000    0.8281550000000000    0.5088450000000000 H
   0.5492550000000000    0.7375700000000001    0.4606600000000000 H
   0.7761350000000000    0.5074650000000001    0.1810250000000000 H
   0.7313350000000001    0.6803399999999999    0.1203450000000000 H
   0.6996850000000000    0.7176549999999999    0.0535900000000000 H
   0.6061799999999999    0.5397500000000000    0.0051500000000000 H
   0.5738500000000000    0.5761400000000000    0.9380250000000000 H
   0.6985350000000000    0.6808500000000000    0.8107700000000000 H
   0.6635200000000000    0.7179700000000000    0.8746050000000001 H
   0.6719700000000000    0.5463450000000000    0.8368949999999999 H
   0.6393000000000000    0.5828800000000000    0.9017900000000000 H
   0.4380000000000000    0.6274050000000000    0.7670150000000000 H
   0.5403050000000000    0.6561399999999999    0.8233600000000000 H
   0.4140400000000000    0.5997700000000000    0.8938349999999999 H
   0.5157450000000000    0.6320450000000000    0.9521450000000000 H
   0.7377500000000000    0.8544800000000000    0.0272850000000000 H
   0.7168750000000000    0.7639450000000000    0.9798500000000000 H
   0.5712250000000000    0.8281550000000000    0.0088450000000000 H
   0.5492550000000000    0.7375700000000001    0.9606600000000001 H
   0.2761350000000000    0.5074650000000001    0.1810250000000000 H
   0.2313350000000000    0.6803399999999999    0.1203450000000000 H
   0.1996850000000000    0.7176549999999999    0.0535900000000000 H
   0.1061800000000000    0.5397500000000000    0.0051500000000000 H
   0.0738500000000000    0.5761400000000000    0.9380250000000000 H
   0.1985350000000000    0.6808500000000000    0.8107700000000000 H
   0.1635200000000000    0.7179700000000000    0.8746050000000001 H
   0.1719700000000000    0.5463450000000000    0.8368949999999999 H
   0.1393000000000000    0.5828800000000000    0.9017900000000000 H
   0.9379999999999999    0.6274050000000000    0.7670150000000000 H
   0.0403050000000000    0.6561399999999999    0.8233600000000000 H
   0.9140400000000000    0.5997700000000000    0.8938349999999999 H
   0.0157450000000000    0.6320450000000000    0.9521450000000000 H
   0.2377500000000000    0.8544800000000000    0.0272850000000000 H
   0.2168750000000000    0.7639450000000000    0.9798500000000000 H
   0.0712250000000000    0.8281550000000000    0.0088450000000000 H
   0.0492550000000000    0.7375700000000001    0.9606600000000001 H
   0.2244000000000000    0.4925000000000000    0.8187350000000000 H
   0.3941500000000000    0.4600950000000000    0.9947950000000000 H
   0.4265550000000000    0.4237300000000000    0.0619300000000000 H
   0.3007450000000000    0.2821850000000000    0.9464250000000001 H
   0.2690400000000000    0.3194650000000000    0.8794999999999999 H
   0.3019400000000000    0.3189450000000000    0.1892000000000000 H
   0.3369550000000000    0.2818450000000000    0.1253550000000000 H
   0.3285600000000000    0.4534950000000000    0.1631700000000000 H
   0.3612050000000000    0.4169650000000000    0.0982400000000000 H
   0.4847200000000000    0.3678350000000000    0.0478150000000000 H
   0.5625300000000000    0.3727050000000000    0.2330400000000000 H
   0.4602200000000000    0.3439000000000000    0.1766900000000000 H
   0.5864250000000000    0.4001700000000000    0.1061150000000000 H
   0.4292700000000000    0.1717050000000000    0.9911950000000000 H
   0.4512700000000000    0.2623050000000000    0.0393700000000000 H
   0.2627500000000000    0.1454250000000000    0.9727500000000000 H
   0.2836450000000000    0.2359700000000000    0.0201450000000000 H
   0.7243999999999999    0.4925000000000000    0.8187350000000000 H
   0.8941500000000000    0.4600950000000000    0.9947950000000000 H
   0.9265550000000000    0.4237300000000000    0.0619300000000000 H
   0.8007450000000000    0.2821850000000000    0.9464250000000001 H
   0.7690399999999999    0.3194650000000000    0.8794999999999999 H
   0.8019400000000000    0.3189450000000000    0.1892000000000000 H
   0.8369550000000000    0.2818450000000000    0.1253550000000000 H
   0.8285600000000000    0.4534950000000000    0.1631700000000000 H
   0.8612050000000000    0.4169650000000000    0.0982400000000000 H
   0.9847200000000000    0.3678350000000000    0.0478150000000000 H
   0.0625300000000000    0.3727050000000000    0.2330400000000000 H
   0.9602200000000001    0.3439000000000000    0.1766900000000000 H
   0.0864250000000000    0.4001700000000000    0.1061150000000000 H
   0.9292700000000000    0.1717050000000000    0.9911950000000000 H
   0.9512700000000001    0.2623050000000000    0.0393700000000000 H
   0.7627500000000000    0.1454250000000000    0.9727500000000000 H
   0.7836449999999999    0.2359700000000000    0.0201450000000000 H
   0.7243999999999999    0.4925000000000000    0.3187350000000000 H
   0.8941500000000000    0.4600950000000000    0.4947950000000000 H
   0.9265550000000000    0.4237300000000000    0.5619300000000000 H
   0.8007450000000000    0.2821850000000000    0.4464250000000000 H
   0.7690399999999999    0.3194650000000000    0.3795000000000000 H
   0.8019400000000000    0.3189450000000000    0.6892000000000000 H
   0.8369550000000000    0.2818450000000000    0.6253550000000000 H
   0.8285600000000000    0.4534950000000000    0.6631700000000000 H
   0.8612050000000000    0.4169650000000000    0.5982400000000000 H
   0.9847200000000000    0.3678350000000000    0.5478150000000001 H
   0.0625300000000000    0.3727050000000000    0.7330400000000000 H
   0.9602200000000001    0.3439000000000000    0.6766900000000000 H
   0.0864250000000000    0.4001700000000000    0.6061150000000000 H
   0.9292700000000000    0.1717050000000000    0.4911950000000000 H
   0.9512700000000001    0.2623050000000000    0.5393700000000000 H
   0.7627500000000000    0.1454250000000000    0.4727500000000000 H
   0.7836449999999999    0.2359700000000000    0.5201450000000000 H
   0.2244000000000000    0.4925000000000000    0.3187350000000000 H
   0.3941500000000000    0.4600950000000000    0.4947950000000000 H
   0.4265550000000000    0.4237300000000000    0.5619300000000000 H
   0.3007450000000000    0.2821850000000000    0.4464250000000000 H
   0.2690400000000000    0.3194650000000000    0.3795000000000000 H
   0.3019400000000000    0.3189450000000000    0.6892000000000000 H
   0.3369550000000000    0.2818450000000000    0.6253550000000000 H
   0.3285600000000000    0.4534950000000000    0.6631700000000000 H
   0.3612050000000000    0.4169650000000000    0.5982400000000000 H
   0.4847200000000000    0.3678350000000000    0.5478150000000001 H
   0.5625300000000000    0.3727050000000000    0.7330400000000000 H
   0.4602200000000000    0.3439000000000000    0.6766900000000000 H
   0.5864250000000000    0.4001700000000000    0.6061150000000000 H
   0.4292700000000000    0.1717050000000000    0.4911950000000000 H
   0.4512700000000000    0.2623050000000000    0.5393700000000000 H
   0.2627500000000000    0.1454250000000000    0.4727500000000000 H
   0.2836450000000000    0.2359700000000000    0.5201450000000000 H
   0.2244000000000000    0.9924999999999999    0.8187350000000000 H
   0.3941500000000000    0.9600949999999999    0.9947950000000000 H
   0.4265550000000000    0.9237299999999999    0.0619300000000000 H
   0.3007450000000000    0.7821850000000000    0.9464250000000001 H
   0.2690400000000000    0.8194650000000000    0.8794999999999999 H
   0.3019400000000000    0.8189450000000000    0.1892000000000000 H
   0.3369550000000000    0.7818450000000000    0.1253550000000000 H
   0.3285600000000000    0.9534950000000000    0.1631700000000000 H
   0.3612050000000000    0.9169650000000000    0.0982400000000000 H
   0.4847200000000000    0.8678350000000000    0.0478150000000000 H
   0.5625300000000000    0.8727050000000001    0.2330400000000000 H
   0.4602200000000000    0.8439000000000000    0.1766900000000000 H
   0.5864250000000000    0.9001700000000000    0.1061150000000000 H
   0.4292700000000000    0.6717050000000000    0.9911950000000000 H
   0.4512700000000000    0.7623050000000000    0.0393700000000000 H
   0.2627500000000000    0.6454250000000000    0.9727500000000000 H
   0.2836450000000000    0.7359700000000000    0.0201450000000000 H
   0.7243999999999999    0.9924999999999999    0.8187350000000000 H
   0.8941500000000000    0.9600949999999999    0.9947950000000000 H
   0.9265550000000000    0.9237299999999999    0.0619300000000000 H
   0.8007450000000000    0.7821850000000000    0.9464250000000001 H
   0.7690399999999999    0.8194650000000000    0.8794999999999999 H
   0.8019400000000000    0.8189450000000000    0.1892000000000000 H
   0.8369550000000000    0.7818450000000000    0.1253550000000000 H
   0.8285600000000000    0.9534950000000000    0.1631700000000000 H
   0.8612050000000000    0.9169650000000000    0.0982400000000000 H
   0.9847200000000000    0.8678350000000000    0.0478150000000000 H
   0.0625300000000000    0.8727050000000001    0.2330400000000000 H
   0.9602200000000001    0.8439000000000000    0.1766900000000000 H
   0.0864250000000000    0.9001700000000000    0.1061150000000000 H
   0.9292700000000000    0.6717050000000000    0.9911950000000000 H
   0.9512700000000001    0.7623050000000000    0.0393700000000000 H
   0.7627500000000000    0.6454250000000000    0.9727500000000000 H
   0.7836449999999999    0.7359700000000000    0.0201450000000000 H
   0.7243999999999999    0.9924999999999999    0.3187350000000000 H
   0.8941500000000000    0.9600949999999999    0.4947950000000000 H
   0.9265550000000000    0.9237299999999999    0.5619300000000000 H
   0.8007450000000000    0.7821850000000000    0.4464250000000000 H
   0.7690399999999999    0.8194650000000000    0.3795000000000000 H
   0.8019400000000000    0.8189450000000000    0.6892000000000000 H
   0.8369550000000000    0.7818450000000000    0.6253550000000000 H
   0.8285600000000000    0.9534950000000000    0.6631700000000000 H
   0.8612050000000000    0.9169650000000000    0.5982400000000000 H
   0.9847200000000000    0.8678350000000000    0.5478150000000001 H
   0.0625300000000000    0.8727050000000001    0.7330400000000000 H
   0.9602200000000001    0.8439000000000000    0.6766900000000000 H
   0.0864250000000000    0.9001700000000000    0.6061150000000000 H
   0.9292700000000000    0.6717050000000000    0.4911950000000000 H
   0.9512700000000001    0.7623050000000000    0.5393700000000000 H
   0.7627500000000000    0.6454250000000000    0.4727500000000000 H
   0.7836449999999999    0.7359700000000000    0.5201450000000000 H
   0.2244000000000000    0.9924999999999999    0.3187350000000000 H
   0.3941500000000000    0.9600949999999999    0.4947950000000000 H
   0.4265550000000000    0.9237299999999999    0.5619300000000000 H
   0.3007450000000000    0.7821850000000000    0.4464250000000000 H
   0.2690400000000000    0.8194650000000000    0.3795000000000000 H
   0.3019400000000000    0.8189450000000000    0.6892000000000000 H
   0.3369550000000000    0.7818450000000000    0.6253550000000000 H
   0.3285600000000000    0.9534950000000000    0.6631700000000000 H
   0.3612050000000000    0.9169650000000000    0.5982400000000000 H
   0.4847200000000000    0.8678350000000000    0.5478150000000001 H
   0.5625300000000000    0.8727050000000001    0.7330400000000000 H
   0.4602200000000000    0.8439000000000000    0.6766900000000000 H
   0.5864250000000000    0.9001700000000000    0.6061150000000000 H
   0.4292700000000000    0.6717050000000000    0.4911950000000000 H
   0.4512700000000000    0.7623050000000000    0.5393700000000000 H
   0.2627500000000000    0.6454250000000000    0.4727500000000000 H
   0.2836450000000000    0.7359700000000000    0.5201450000000000 H
   0.2390979913736111    0.7111279772640702    0.2444718069588201 H
   0.6901500000000000    0.0840000000000000    0.6055850000000000 C
   0.6970600000000000    0.1578600000000000    0.5801550000000000 C
   0.6791199999999999    0.1784200000000000    0.5422700000000000 C
   0.6264550000000000    0.0786100000000000    0.5151950000000000 C
   0.6088050000000000    0.0994000000000000    0.4777000000000000 C
   0.6710250000000000    0.1076100000000000    0.5666800000000000 C
   0.6350200000000000    0.1495600000000000    0.4901550000000000 C
   0.7065600000000000    0.0871150000000000    0.2800850000000000 C
   0.6850750000000000    0.1596950000000000    0.3308000000000000 C
   0.6654900000000000    0.1803100000000000    0.3669100000000000 C
   0.6702150000000000    0.0839650000000000    0.3454500000000000 C
   0.6514550000000000    0.1048350000000000    0.3815000000000000 C
   0.6869950000000000    0.1110100000000000    0.3193200000000000 C
   0.6479600000000000    0.1531850000000000    0.3929050000000000 C
   0.3579050000000000    0.0925250000000000    0.2917550000000000 C
   0.4555750000000000    0.1279400000000000    0.3073900000000000 C
   0.5130050000000000    0.1445150000000000    0.3395700000000000 C
   0.4418800000000000    0.1122800000000000    0.3786650000000000 C
   0.4993800000000000    0.1306000000000000    0.4113050000000000 C
   0.4195950000000000    0.1112250000000000    0.3265900000000000 C
   0.5361300000000000    0.1466500000000000    0.3923550000000000 C
   0.6683800000000000    0.4005150000000000    0.5508700000000000 C
   0.6966550000000000    0.3284800000000000    0.5124900000000000 C
   0.6845400000000000    0.2774750000000000    0.4860550000000000 C
   0.6026750000000000    0.3135550000000000    0.5021250000000000 C
   0.5908750000000000    0.2628000000000000    0.4754550000000000 C
   0.6557400000000000    0.3467050000000000    0.5209600000000000 C
   0.6316450000000000    0.2436400000000000    0.4673250000000000 C
   0.1901500000000000    0.0840000000000000    0.6055850000000000 C
   0.1970600000000000    0.1578600000000000    0.5801550000000000 C
   0.1791200000000000    0.1784200000000000    0.5422700000000000 C
   0.1264550000000000    0.0786100000000000    0.5151950000000000 C
   0.1088050000000000    0.0994000000000000    0.4777000000000000 C
   0.1710250000000000    0.1076100000000000    0.5666800000000000 C
   0.1350200000000000    0.1495600000000000    0.4901550000000000 C
   0.2065600000000000    0.0871150000000000    0.2800850000000000 C
   0.1850750000000000    0.1596950000000000    0.3308000000000000 C
   0.1654900000000000    0.1803100000000000    0.3669100000000000 C
   0.1702150000000000    0.0839650000000000    0.3454500000000000 C
   0.1514550000000000    0.1048350000000000    0.3815000000000000 C
   0.1869950000000000    0.1110100000000000    0.3193200000000000 C
   0.1479600000000000    0.1531850000000000    0.3929050000000000 C
   0.8579049999999999    0.0925250000000000    0.2917550000000000 C
   0.9555750000000001    0.1279400000000000    0.3073900000000000 C
   0.0130050000000000    0.1445150000000000    0.3395700000000000 C
   0.9418800000000001    0.1122800000000000    0.3786650000000000 C
   0.9993799999999999    0.1306000000000000    0.4113050000000000 C
   0.9195949999999999    0.1112250000000000    0.3265900000000000 C
   0.0361300000000000    0.1466500000000000    0.3923550000000000 C
   0.1683800000000000    0.4005150000000000    0.5508700000000000 C
   0.1966550000000000    0.3284800000000000    0.5124900000000000 C
   0.1845400000000000    0.2774750000000000    0.4860550000000000 C
   0.1026750000000000    0.3135550000000000    0.5021250000000000 C
   0.0908750000000000    0.2628000000000000    0.4754550000000000 C
   0.1557400000000000    0.3467050000000000    0.5209600000000000 C
   0.1316450000000000    0.2436400000000000    0.4673250000000000 C
   0.1901500000000000    0.0840000000000000    0.1055850000000000 C
   0.1970600000000000    0.1578600000000000    0.0801550000000000 C
   0.1791200000000000    0.1784200000000000    0.0422700000000000 C
   0.1264550000000000    0.0786100000000000    0.0151950000000000 C
   0.1088050000000000    0.0994000000000000    0.9777000000000000 C
   0.1710250000000000    0.1076100000000000    0.0666800000000000 C
   0.1350200000000000    0.1495600000000000    0.9901550000000000 C
   0.2065600000000000    0.0871150000000000    0.7800849999999999 C
   0.1850750000000000    0.1596950000000000    0.8308000000000000 C
   0.1654900000000000    0.1803100000000000    0.8669100000000001 C
   0.1702150000000000    0.0839650000000000    0.8454500000000000 C
   0.1514550000000000    0.1048350000000000    0.8815000000000000 C
   0.1869950000000000    0.1110100000000000    0.8193200000000000 C
   0.1479600000000000    0.1531850000000000    0.8929050000000001 C
   0.8579049999999999    0.0925250000000000    0.7917550000000000 C
   0.9555750000000001    0.1279400000000000    0.8073900000000001 C
   0.0130050000000000    0.1445150000000000    0.8395699999999999 C
   0.9418800000000001    0.1122800000000000    0.8786650000000000 C
   0.9993799999999999    0.1306000000000000    0.9113050000000000 C
   0.9195949999999999    0.1112250000000000    0.8265899999999999 C
   0.0361300000000000    0.1466500000000000    0.8923550000000000 C
   0.1683800000000000    0.4005150000000000    0.0508700000000000 C
   0.1966550000000000    0.3284800000000000    0.0124900000000000 C
   0.1845400000000000    0.2774750000000000    0.9860550000000000 C
   0.1026750000000000    0.3135550000000000    0.0021250000000000 C
   0.0908750000000000    0.2628000000000000    0.9754550000000000 C
   0.1557400000000000    0.3467050000000000    0.0209600000000000 C
   0.1316450000000000    0.2436400000000000    0.9673250000000000 C
   0.6901500000000000    0.0840000000000000    0.1055850000000000 C
   0.6970600000000000    0.1578600000000000    0.0801550000000000 C
   0.6791199999999999    0.1784200000000000    0.0422700000000000 C
   0.6264550000000000    0.0786100000000000    0.0151950000000000 C
   0.6088050000000000    0.0994000000000000    0.9777000000000000 C
   0.6710250000000000    0.1076100000000000    0.0666800000000000 C
   0.6350200000000000    0.1495600000000000    0.9901550000000000 C
   0.7065600000000000    0.0871150000000000    0.7800849999999999 C
   0.6850750000000000    0.1596950000000000    0.8308000000000000 C
   0.6654900000000000    0.1803100000000000    0.8669100000000001 C
   0.6702150000000000    0.0839650000000000    0.8454500000000000 C
   0.6514550000000000    0.1048350000000000    0.8815000000000000 C
   0.6869950000000000    0.1110100000000000    0.8193200000000000 C
   0.6479600000000000    0.1531850000000000    0.8929050000000001 C
   0.3579050000000000    0.0925250000000000    0.7917550000000000 C
   0.4555750000000000    0.1279400000000000    0.8073900000000001 C
   0.5130050000000000    0.1445150000000000    0.8395699999999999 C
   0.4418800000000000    0.1122800000000000    0.8786650000000000 C
   0.4993800000000000    0.1306000000000000    0.9113050000000000 C
   0.4195950000000000    0.1112250000000000    0.8265899999999999 C
   0.5361300000000000    0.1466500000000000    0.8923550000000000 C
   0.6683800000000000    0.4005150000000000    0.0508700000000000 C
   0.6966550000000000    0.3284800000000000    0.0124900000000000 C
   0.6845400000000000    0.2774750000000000    0.9860550000000000 C
   0.6026750000000000    0.3135550000000000    0.0021250000000000 C