H3 O2
1.0
  25.4037261566064565    0.0000000000000000  -10.5204901672949109
  -9.2730104654448251   26.8780071662694162   -8.9031704284328246
   0.0000000000000000    0.0000000000000000   29.3580000000000005
H O
3 2
direct
   0.2302573410632628    0.6446268336667709    0.2538025874493032 H
   0.2089709434701917    0.5731959110033685    0.2657575976137353 H
   0.2390979913736111    0.7111279772640702    0.2444718069588201 H
   0.2238450000000000    0.6136500000000000    0.2585250000000000 O
   0.2040950000000000    0.5420350000000000    0.2702500000000000 O
