H3 O2
1.0
  20.2359996917880984    0.0000000000000000   -0.0035318482564077
  -0.0090933020174877   11.5241706880746761   -0.2315372842089778
   0.0000000000000000    0.0000000000000000   29.8539999999999992
H O
3 2
direct
   0.6550400485794253    0.6902245913639806    0.0765403119462766 H
   0.6180559442910254    0.4618041870006483   -0.0214579345647271 H
   0.6441929479204335    0.5720634011967883    0.0269346303638419 H
   0.6242799999999999    0.6508900000000000    0.0564600000000000 O
   0.6033850000000001    0.5198800000000000    0.0002950000000000 O
