Zn24 H190 C391 O96 F138
1.0
  30.8099981229474764    0.0000000000000000   -0.0107547186323815
   0.0060082656573982   18.6059989449057355  -10.6712870902675387
   0.0000000000000000    0.0000000000000000   21.4400000000000013
Zn H C O F
24 190 391 96 138
direct
   0.2921350000000000    0.6989300000000001    0.3987800000000000 Zn
   0.4575800000000000    0.3984800000000000    0.6985600000000000 Zn
   0.6253500000000000    0.6994300000000000    0.3008200000000000 Zn
   0.9576450000000001    0.6016800000000000    0.3015200000000000 Zn
   0.7919600000000000    0.3013400000000000    0.6013600000000000 Zn
   0.1242850000000000    0.3011300000000000    0.6995000000000000 Zn
   0.0422150000000000    0.6988799999999999    0.3987000000000000 Zn
   0.2075600000000000    0.3985300000000000    0.6986100000000000 Zn
   0.3745000000000000    0.6993500000000000    0.3007800000000000 Zn
   0.8743000000000001    0.3010800000000000    0.6994700000000000 Zn
   0.5418900000000000    0.3013800000000000    0.6014100000000000 Zn
   0.7077050000000000    0.6015600000000000    0.3014000000000000 Zn
   0.7921350000000000    0.6989300000000001    0.3987800000000000 Zn
   0.9575800000000000    0.3984800000000000    0.6985600000000000 Zn
   0.1253500000000000    0.6994300000000000    0.3008200000000000 Zn
   0.4576450000000000    0.6016800000000000    0.3015200000000000 Zn
   0.2919600000000000    0.3013400000000000    0.6013600000000000 Zn
   0.6242850000000000    0.3011300000000000    0.6995000000000000 Zn
   0.8745000000000001    0.6993500000000000    0.3007800000000000 Zn
   0.5422150000000000    0.6988799999999999    0.3987000000000000 Zn
   0.7075600000000000    0.3985300000000000    0.6986100000000000 Zn
   0.3743000000000000    0.3010800000000000    0.6994700000000000 Zn
   0.2077050000000000    0.6015600000000000    0.3014000000000000 Zn
   0.0418900000000000    0.3013800000000000    0.6014100000000000 Zn
   0.2060350000000000    0.1600400000000000    0.5249800000000000 H
   0.2396800000000000    0.0665000000000000    0.4126500000000000 H
   0.1247850000000000    0.0627300000000000    0.2953200000000000 H
   0.0916650000000000    0.1546500000000000    0.4074800000000000 H
   0.2913500000000000    0.9373700000000000    0.2318800000000000 H
   0.3245100000000000    0.8450900000000000    0.2521200000000000 H
   0.2106200000000000    0.8405800000000000    0.3655900000000000 H
   0.1770050000000000    0.9346000000000000    0.3469900000000000 H
   0.5439200000000000    0.5248600000000000    0.1596600000000000 H
   0.5102300000000000    0.4125800000000000    0.0661300000000000 H
   0.6250700000000000    0.2952200000000000    0.0625200000000000 H
   0.6582200000000000    0.4073100000000000    0.1543500000000000 H
   0.5389250000000000    0.3653500000000000    0.8400500000000000 H
   0.5727400000000000    0.3467000000000000    0.9339000000000000 H
   0.4584800000000000    0.2317800000000000    0.9372000000000000 H
   0.4250900000000000    0.2522200000000000    0.8451900000000000 H
   0.3436600000000000    0.3457100000000000    0.4108000000000000 H
   0.3771050000000000    0.3647300000000000    0.5235900000000000 H
   0.4917100000000000    0.2532100000000000    0.4071500000000000 H
   0.4587450000000000    0.2326600000000000    0.2940000000000000 H
   0.4066800000000000    0.4115100000000000    0.3440000000000000 H
   0.3729250000000000    0.5242900000000000    0.3640000000000000 H
   0.2918350000000000    0.2948000000000000    0.2313000000000000 H
   0.2585300000000000    0.4075100000000000    0.2525000000000000 H
   0.7106200000000000    0.1596800000000000    0.6345700000000000 H
   0.6770050000000000    0.0657200000000000    0.6531800000000000 H
   0.7913450000000000    0.0628600000000000    0.7683800000000000 H
   0.8245350000000000    0.1550000000000000    0.7480100000000000 H
   0.7059000000000000    0.8404000000000000    0.4754800000000000 H
   0.7395750000000000    0.9340700000000000    0.5877700000000000 H
   0.6249900000000000    0.9374400000000001    0.7054200000000000 H
   0.5917850000000000    0.8454400000000000    0.5932200000000000 H
   0.9061950000000000    0.5887300000000000    0.6552300000000000 H
   0.8721600000000000    0.4762300000000000    0.6356300000000000 H
   0.7913399999999999    0.7061100000000000    0.7681500000000000 H
   0.7578300000000000    0.5937100000000000    0.7471400000000000 H
   0.8771550000000000    0.6357100000000000    0.4763000000000000 H
   0.8434900000000001    0.6550500000000000    0.5890600000000000 H
   0.9585399999999999    0.7678300000000000    0.7057700000000000 H
   0.9917250000000000    0.7469300000000000    0.5930900000000000 H
   0.0390000000000000    0.6347900000000000    0.1600500000000000 H
   0.0727500000000000    0.6534100000000000    0.0661800000000000 H
   0.9585000000000000    0.7686100000000000    0.0630900000000000 H
   0.9251650000000000    0.7482000000000000    0.1551300000000000 H
   0.0434900000000000    0.4757100000000000    0.8405300000000000 H
   0.0101100000000000    0.5881300000000000    0.9345000000000000 H
   0.1249150000000000    0.7050300000000000    0.9373000000000000 H
   0.1578750000000000    0.5926600000000000    0.8452300000000000 H
   0.9560550000000000    0.1599000000000000    0.5249700000000000 H
   0.9897050000000001    0.0662800000000000    0.4126900000000000 H
   0.8748600000000000    0.0626000000000000    0.2952800000000000 H
   0.8417350000000000    0.1545300000000000    0.4073900000000000 H
   0.9608500000000000    0.8401900000000000    0.3653100000000000 H
   0.9271400000000001    0.9341400000000000    0.3467500000000000 H
   0.0414800000000000    0.9373400000000000    0.2318800000000000 H
   0.0747450000000000    0.8451400000000000    0.2521200000000000 H
   0.0925636337087221    0.6154093292671752    0.3702178173324282 H
   0.0354765866608143    0.5407561985652328    0.2883875363430110 H
   0.2562043472964608    0.2616346891020982    0.4872224947472437 H
   0.1583787640339133    0.3796006333469069    0.5997734249318395 H
   0.2029262846649363    0.3189231573598644    0.5350967473172765 H
   0.2937850000000000    0.5247000000000001    0.1596100000000000 H
   0.2601700000000000    0.4123800000000000    0.0660000000000000 H
   0.3750750000000000    0.2951900000000000    0.0624600000000000 H
   0.4081700000000000    0.4073500000000000    0.1543400000000000 H
   0.2889250000000000    0.3653000000000000    0.8400200000000000 H
   0.3227500000000000    0.3466000000000000    0.9338400000000000 H
   0.2084600000000000    0.2317300000000000    0.9371600000000000 H
   0.1750650000000000    0.2522200000000000    0.8451700000000000 H
   0.7892450000000000    0.6345300000000000    0.1596500000000000 H
   0.8228949999999999    0.6531900000000000    0.0657200000000000 H
   0.7086300000000000    0.7686100000000000    0.0630000000000000 H
   0.6754150000000000    0.7482300000000000    0.1551900000000000 H
   0.7601350000000000    0.5881800000000000    0.9342000000000000 H
   0.7935099999999999    0.4757100000000000    0.8403000000000000 H
   0.8749950000000000    0.7050000000000000    0.9372400000000000 H
   0.9079450000000000    0.5925700000000000    0.8451000000000000 H
   0.4558700000000000    0.8403400000000000    0.4753100000000000 H
   0.4895700000000000    0.9339600000000000    0.5876100000000000 H
   0.3749950000000000    0.9373300000000000    0.7052900000000000 H
   0.3417800000000000    0.8453800000000000    0.5930900000000000 H
   0.4606250000000000    0.1596500000000000    0.6345100000000000 H
   0.4270150000000000    0.0656400000000000    0.6530600000000000 H
   0.5413250000000001    0.0628000000000000    0.7683100000000000 H
   0.5745150000000000    0.1549600000000000    0.7480000000000000 H
   0.6221550000000000    0.4762300000000000    0.6356500000000000 H
   0.6561850000000000    0.5887300000000000    0.6552400000000000 H
   0.5413400000000000    0.7061300000000000    0.7680000000000000 H
   0.5078250000000000    0.5937200000000000    0.7471800000000000 H
   0.6270900000000000    0.6356200000000000    0.4763200000000000 H
   0.5934600000000000    0.6550100000000000    0.5890800000000000 H
   0.7085200000000000    0.7678199999999999    0.7057000000000000 H
   0.7416700000000001    0.7469000000000000    0.5930000000000000 H
   0.7060350000000000    0.1600400000000000    0.5249800000000000 H
   0.7396800000000000    0.0665000000000000    0.4126500000000000 H
   0.6247850000000000    0.0627300000000000    0.2953200000000000 H
   0.5916650000000000    0.1546500000000000    0.4074800000000000 H
   0.7913500000000000    0.9373700000000000    0.2318800000000000 H
   0.8245100000000001    0.8450900000000000    0.2521200000000000 H
   0.7106200000000000    0.8405800000000000    0.3655900000000000 H
   0.6770050000000000    0.9346000000000000    0.3469900000000000 H
   0.0439200000000000    0.5248600000000000    0.1596600000000000 H
   0.0102300000000000    0.4125800000000000    0.0661300000000000 H
   0.1250700000000000    0.2952200000000000    0.0625200000000000 H
   0.1582200000000000    0.4073100000000000    0.1543500000000000 H
   0.0389250000000000    0.3653500000000000    0.8400500000000000 H
   0.0727400000000000    0.3467000000000000    0.9339000000000000 H
   0.9584800000000000    0.2317800000000000    0.9372000000000000 H
   0.9250900000000000    0.2522200000000000    0.8451900000000000 H
   0.8436600000000001    0.3457100000000000    0.4108000000000000 H
   0.8771050000000000    0.3647300000000000    0.5235900000000000 H
   0.9917100000000000    0.2532100000000000    0.4071500000000000 H
   0.9587450000000000    0.2326600000000000    0.2940000000000000 H
   0.9066799999999999    0.4115100000000000    0.3440000000000000 H
   0.8729250000000000    0.5242900000000000    0.3640000000000000 H
   0.7918350000000001    0.2948000000000000    0.2313000000000000 H
   0.7585299999999999    0.4075100000000000    0.2525000000000000 H
   0.2106200000000000    0.1596800000000000    0.6345700000000000 H
   0.1770050000000000    0.0657200000000000    0.6531800000000000 H
   0.2913450000000000    0.0628600000000000    0.7683800000000000 H
   0.3245350000000000    0.1550000000000000    0.7480100000000000 H
   0.2059000000000000    0.8404000000000000    0.4754800000000000 H
   0.2395750000000000    0.9340700000000000    0.5877700000000000 H
   0.1249900000000000    0.9374400000000001    0.7054200000000000 H
   0.0917850000000000    0.8454400000000000    0.5932200000000000 H
   0.4061950000000000    0.5887300000000000    0.6552300000000000 H
   0.3721600000000000    0.4762300000000000    0.6356300000000000 H
   0.2913400000000000    0.7061100000000000    0.7681500000000000 H
   0.2578300000000000    0.5937100000000000    0.7471400000000000 H
   0.3771550000000000    0.6357100000000000    0.4763000000000000 H
   0.3434900000000000    0.6550500000000000    0.5890600000000000 H
   0.4585400000000000    0.7678300000000000    0.7057700000000000 H
   0.4917250000000000    0.7469300000000000    0.5930900000000000 H
   0.5390000000000000    0.6347900000000000    0.1600500000000000 H
   0.5727500000000000    0.6534100000000000    0.0661800000000000 H
   0.4585000000000000    0.7686100000000000    0.0630900000000000 H
   0.4251650000000000    0.7482000000000000    0.1551300000000000 H
   0.5434900000000000    0.4757100000000000    0.8405300000000000 H
   0.5101100000000000    0.5881300000000000    0.9345000000000000 H
   0.6249150000000000    0.7050300000000000    0.9373000000000000 H
   0.6578750000000000    0.5926600000000000    0.8452300000000000 H
   0.7937850000000000    0.5247000000000001    0.1596100000000000 H
   0.7601700000000000    0.4123800000000000    0.0660000000000000 H
   0.8750750000000000    0.2951900000000000    0.0624600000000000 H
   0.9081699999999999    0.4073500000000000    0.1543400000000000 H
   0.7889250000000000    0.3653000000000000    0.8400200000000000 H
   0.8227500000000000    0.3466000000000000    0.9338400000000000 H
   0.7084600000000000    0.2317300000000000    0.9371600000000000 H
   0.6750650000000000    0.2522200000000000    0.8451700000000000 H
   0.4560550000000000    0.1599000000000000    0.5249700000000000 H
   0.4897050000000000    0.0662800000000000    0.4126900000000000 H
   0.3748600000000000    0.0626000000000000    0.2952800000000000 H
   0.3417350000000000    0.1545300000000000    0.4073900000000000 H
   0.4608500000000000    0.8401900000000000    0.3653100000000000 H
   0.4271400000000000    0.9341400000000000    0.3467500000000000 H
   0.5414800000000000    0.9373400000000000    0.2318800000000000 H
   0.5747450000000001    0.8451400000000000    0.2521200000000000 H
   0.6271000000000000    0.3647500000000000    0.5236000000000000 H
   0.5936550000000000    0.3457300000000000    0.4108200000000000 H
   0.7087400000000000    0.2327100000000000    0.2944200000000000 H
   0.7417050000000001    0.2532500000000000    0.4071800000000000 H
   0.6228450000000000    0.5242800000000000    0.3643800000000000 H
   0.6566350000000000    0.4115500000000000    0.3448700000000000 H
   0.5418150000000000    0.2947200000000000    0.2313100000000000 H
   0.5084750000000000    0.4073900000000000    0.2524300000000000 H
   0.2892450000000000    0.6345300000000000    0.1596500000000000 H
   0.3228950000000000    0.6531900000000000    0.0657200000000000 H
   0.2086300000000000    0.7686100000000000    0.0630000000000000 H
   0.1754150000000000    0.7482300000000000    0.1551900000000000 H
   0.2601350000000000    0.5881800000000000    0.9342000000000000 H
   0.2935100000000000    0.4757100000000000    0.8403000000000000 H
   0.3749950000000000    0.7050000000000000    0.9372400000000000 H
   0.4079450000000000    0.5925700000000000    0.8451000000000000 H
   0.9558700000000000    0.8403400000000000    0.4753100000000000 H
   0.9895700000000001    0.9339600000000000    0.5876100000000000 H
   0.8749950000000000    0.9373300000000000    0.7052900000000000 H
   0.8417800000000000    0.8453800000000000    0.5930900000000000 H
   0.9606250000000001    0.1596500000000000    0.6345100000000000 H
   0.9270149999999999    0.0656400000000000    0.6530600000000000 H
   0.0413250000000000    0.0628000000000000    0.7683100000000000 H
   0.0745150000000000    0.1549600000000000    0.7480000000000000 H
   0.1221550000000000    0.4762300000000000    0.6356500000000000 H
   0.1561850000000000    0.5887300000000000    0.6552400000000000 H
   0.0413400000000000    0.7061300000000000    0.7680000000000000 H
   0.0078250000000000    0.5937200000000000    0.7471800000000000 H
   0.1270900000000000    0.6356200000000000    0.4763200000000000 H
   0.0934600000000000    0.6550100000000000    0.5890800000000000 H
   0.2085200000000000    0.7678199999999999    0.7057000000000000 H
   0.2416700000000000    0.7469000000000000    0.5930000000000000 H
   0.1666480148257310    0.6184599326657846    0.3415394307113602 H
   0.2402950000000000    0.0433300000000000    0.2546400000000000 C
   0.1763350000000000    0.9582300000000000    0.2119300000000000 C
   0.1248200000000000    0.2186400000000000    0.5412000000000000 C
   0.1881250000000000    0.1376900000000000    0.4746300000000000 C
   0.2071300000000000    0.0854300000000000    0.4110300000000000 C
   0.1430800000000000    0.0825100000000000    0.3448500000000000 C
   0.1240300000000000    0.1347800000000000    0.4083800000000000 C
   0.1461900000000000    0.1627700000000000    0.4739000000000000 C
   0.1848400000000000    0.0567600000000000    0.3452400000000000 C
   0.2916100000000000    0.7816000000000000    0.3227700000000000 C
   0.2732250000000000    0.9177400000000000    0.2620100000000000 C
   0.2922550000000000    0.8652600000000000    0.2730000000000000 C
   0.2316500000000000    0.9439300000000000    0.2887000000000000 C
   0.2284150000000000    0.8628600000000000    0.3373300000000000 C
   0.2094550000000000    0.9153900000000000    0.3261400000000000 C
   0.2702300000000000    0.8375400000000000    0.3111900000000000 C
   0.2082850000000000    0.0005000000000000    0.2762200000000000 C
   0.5096600000000000    0.2546300000000000    0.0431200000000000 C
   0.5736250000000001    0.2118800000000000    0.9580500000000000 C
   0.6251500000000000    0.5410700000000001    0.2182000000000000 C
   0.5618000000000000    0.4745000000000000    0.1373300000000000 C
   0.5427850000000000    0.4109300000000000    0.0850600000000000 C
   0.6068000000000000    0.3447500000000000    0.0822100000000000 C
   0.6258600000000000    0.4082300000000000    0.1344600000000000 C
   0.6037350000000000    0.4737500000000000    0.1623800000000000 C
   0.5650550000000000    0.3451600000000000    0.0564100000000000 C
   0.4578300000000000    0.3229600000000000    0.7815000000000000 C
   0.5211850000000000    0.3371300000000000    0.8624000000000001 C
   0.5402700000000000    0.3258900000000000    0.9148500000000001 C
   0.4765550000000000    0.2619000000000000    0.9175000000000000 C
   0.4573850000000000    0.2732000000000000    0.8651600000000000 C
   0.4793200000000000    0.3111400000000000    0.8372900000000000 C
   0.5181700000000000    0.2885100000000000    0.9435200000000000 C
   0.5416200000000000    0.2761300000000000    0.0001800000000000 C
   0.4070000000000000    0.2536000000000000    0.2101000000000000 C
   0.3430950000000000    0.2113800000000000    0.2540000000000000 C
   0.4580500000000000    0.3229900000000000    0.5408200000000000 C
   0.3762100000000000    0.3253300000000000    0.4095200000000000 C
   0.3950700000000000    0.3367500000000000    0.4733000000000000 C
   0.4593300000000000    0.2737700000000000    0.4076700000000000 C
   0.4404000000000000    0.2623700000000000    0.3438600000000000 C
   0.4370050000000000    0.3111800000000000    0.4729900000000000 C
   0.3986450000000000    0.2883200000000000    0.3439100000000000 C
   0.2918050000000000    0.5413300000000000    0.3231800000000000 C
   0.3741150000000000    0.4101600000000000    0.3245200000000000 C
   0.3550850000000000    0.4739500000000000    0.3362700000000000 C
   0.3100500000000000    0.3443300000000000    0.2612600000000000 C
   0.2909350000000000    0.4081000000000000    0.2730100000000000 C
   0.3130850000000000    0.4735200000000000    0.3108000000000000 C
   0.3518000000000000    0.3445200000000000    0.2873000000000000 C
   0.3751700000000000    0.2755000000000000    0.2748000000000000 C
   0.7402800000000000    0.9570300000000000    0.7456600000000000 C
   0.6763399999999999    0.0426900000000000    0.7884400000000000 C
   0.7916500000000000    0.2185000000000000    0.6773200000000000 C
   0.7284250000000000    0.1373700000000000    0.6628100000000000 C
   0.7094600000000000    0.0848700000000000    0.6740200000000000 C
   0.7732350000000000    0.0824600000000000    0.7381799999999999 C
   0.7922750000000001    0.1348700000000000    0.7269000000000000 C
   0.7702450000000001    0.1626200000000000    0.6889400000000000 C
   0.7316549999999999    0.0563200000000000    0.7114500000000000 C
   0.6248549999999999    0.7817700000000000    0.4593600000000000 C
   0.6880750000000000    0.8627100000000000    0.5258900000000000 C
   0.7070700000000000    0.9150400000000000    0.5894300000000000 C
   0.6431600000000000    0.9177300000000000    0.6557800000000000 C
   0.6241000000000000    0.8654200000000000    0.5923000000000000 C
   0.6461900000000000    0.8376100000000000    0.5267400000000000 C
   0.6848300000000000    0.9436200000000000    0.6552200000000000 C
   0.7082600000000000    0.9998800000000000    0.7241300000000001 C
   0.8430599999999999    0.7896800000000000    0.7466300000000000 C
   0.9069150000000000    0.7465500000000000    0.7897300000000000 C
   0.7908400000000000    0.4596200000000000    0.6768500000000000 C
   0.8735700000000000    0.5903200000000000    0.6750000000000000 C
   0.8543750000000000    0.5266500000000000    0.6637500000000000 C
   0.8095300000000001    0.6565100000000000    0.7383700000000000 C
   0.7902750000000001    0.5928600000000001    0.7266899999999999 C
   0.8123100000000000    0.5272900000000000    0.6890400000000000 C
   0.8513700000000000    0.6561500000000000    0.7125700000000000 C
   0.9582450000000000    0.6769500000000001    0.4592000000000000 C
   0.8950650000000000    0.6637000000000000    0.5266500000000000 C
   0.8760800000000000    0.6753200000000000    0.5904400000000000 C
   0.9402450000000000    0.7381100000000000    0.6562500000000000 C
   0.9593050000000001    0.7265000000000000    0.5924700000000001 C
   0.9370700000000001    0.6890400000000000    0.5270500000000000 C
   0.8984400000000000    0.7123200000000000    0.6561300000000000 C
   0.8749600000000000    0.7250900000000000    0.7252100000000000 C
   0.0096850000000000    0.7457200000000000    0.9571499999999999 C
   0.0736300000000000    0.7884500000000000    0.0420000000000000 C
   0.9579850000000000    0.6774500000000000    0.2188000000000000 C
   0.0212400000000000    0.6630500000000000    0.1377200000000000 C
   0.0402850000000000    0.6742500000000000    0.0852500000000000 C
   0.9765699999999999    0.7384100000000000    0.0827200000000000 C
   0.9574450000000000    0.7271600000000000    0.1351000000000000 C
   0.9794000000000000    0.6891400000000000    0.1629000000000000 C
   0.0181650000000000    0.7117100000000000    0.0566600000000000 C
   0.1244050000000000    0.4590100000000000    0.7815400000000000 C
   0.0614300000000000    0.5259900000000000    0.8628100000000000 C
   0.0426050000000000    0.5895899999999999    0.9153200000000000 C
   0.1066450000000000    0.6555200000000000    0.9177600000000000 C
   0.1255550000000000    0.5919400000000000    0.8653300000000000 C
   0.1033050000000000    0.5265600000000000    0.8375200000000000 C
   0.0649800000000000    0.6552200000000000    0.9438000000000000 C
   0.0416400000000000    0.7242400000000000    0.0001000000000000 C
   0.9903150000000001    0.0432200000000000    0.2546400000000000 C
   0.9263600000000001    0.9581499999999999    0.2119000000000000 C
   0.8748500000000000    0.2185500000000000    0.5412100000000000 C
   0.9381550000000001    0.1375400000000000    0.4746100000000000 C
   0.9571600000000000    0.0852300000000000    0.4110300000000000 C
   0.8931450000000001    0.0823500000000000    0.3448200000000000 C
   0.8740900000000000    0.1346500000000000    0.4083200000000000 C
   0.8962300000000001    0.1626400000000000    0.4738600000000000 C
   0.9348900000000000    0.0565500000000000    0.3452300000000000 C
   0.0418950000000000    0.7814800000000000    0.3227900000000000 C
   0.9786300000000000    0.8625400000000000    0.3371100000000000 C
   0.9596100000000001    0.9150500000000000    0.3259400000000000 C
   0.0233700000000000    0.9176400000000000    0.2619600000000000 C
   0.0424650000000000    0.8651799999999999    0.2731300000000000 C
   0.0204800000000000    0.8373600000000000    0.3110800000000000 C
   0.9817650000000000    0.9437100000000000    0.2886000000000000 C
   0.9583450000000000    0.0003200000000000    0.2761800000000000 C
   0.2596600000000000    0.2545600000000000    0.0430800000000000 C
   0.3236250000000000    0.2118100000000000    0.9580100000000000 C
   0.3749500000000000    0.5410600000000000    0.2182000000000000 C
   0.3116950000000000    0.4743700000000000    0.1372700000000000 C
   0.2927250000000000    0.4107900000000000    0.0849000000000000 C
   0.3567850000000000    0.3447000000000000    0.0821500000000000 C
   0.3758100000000000    0.4082100000000000    0.1344200000000000 C
   0.3536350000000000    0.4736700000000000    0.1623300000000000 C
   0.3150300000000000    0.3450600000000000    0.0563400000000000 C
   0.2078150000000000    0.3229700000000000    0.7815100000000000 C
   0.2711850000000000    0.3370700000000000    0.8623000000000000 C
   0.2902750000000000    0.3258000000000000    0.9147900000000000 C
   0.2265400000000000    0.2618400000000000    0.9174600000000001 C
   0.2073650000000000    0.2731600000000000    0.8651300000000000 C
   0.2293100000000000    0.3111200000000000    0.8372700000000000 C
   0.2681650000000000    0.2884200000000000    0.9434500000000000 C
   0.2916000000000000    0.2760300000000000    0.0000000000000000 C
   0.7597050000000001    0.7457200000000000    0.9570200000000000 C
   0.8236600000000001    0.7884400000000000    0.0426900000000000 C
   0.7082900000000000    0.6775099999999999    0.2187000000000000 C
   0.7714650000000001    0.6628400000000000    0.1374000000000000 C
   0.7904500000000000    0.6740699999999999    0.0849100000000000 C
   0.7267200000000000    0.7383600000000000    0.0826100000000000 C
   0.7076650000000000    0.7271200000000000    0.1350300000000000 C
   0.7296650000000000    0.6890500000000001    0.1627300000000000 C
   0.7682899999999999    0.7116000000000000    0.0564000000000000 C
   0.8744300000000000    0.4589600000000000    0.7814400000000000 C
   0.7926400000000000    0.5896100000000000    0.9151200000000000 C
   0.8114550000000000    0.5259800000000000    0.8626500000000000 C
   0.8567100000000001    0.6554900000000000    0.9175900000000000 C
   0.8756200000000001    0.5918900000000000    0.8651900000000000 C
   0.8533450000000000    0.5265300000000001    0.8373900000000000 C
   0.8150350000000000    0.6552100000000000    0.9436099999999999 C
   0.7917100000000000    0.7242100000000000    0.9999300000000000 C
   0.4902750000000000    0.9569800000000001    0.7456000000000000 C
   0.4263350000000000    0.0426200000000000    0.7883300000000000 C
   0.3747750000000000    0.7817499999999999    0.4592000000000000 C
   0.4380500000000000    0.8626300000000000    0.5257300000000000 C
   0.4570650000000000    0.9149400000000000    0.5892800000000000 C
   0.3931650000000000    0.9176299999999999    0.6556400000000000 C
   0.3740950000000000    0.8653500000000000    0.5921500000000000 C
   0.3961650000000000    0.8375300000000000    0.5265000000000000 C
   0.4348350000000000    0.9435200000000000    0.6550000000000000 C
   0.5416400000000000    0.2184900000000000    0.6773200000000000 C
   0.4784300000000000    0.1373200000000000    0.6627500000000000 C
   0.4594650000000000    0.0848000000000000    0.6739200000000000 C
   0.5232200000000000    0.0824000000000000    0.7381100000000000 C
   0.5422600000000000    0.1348300000000000    0.7269000000000000 C
   0.5202350000000000    0.1625900000000000    0.6889100000000000 C
   0.4816550000000000    0.0562400000000000    0.7113500000000000 C
   0.4582550000000000    0.9997900000000000    0.7240200000000000 C
   0.5930550000000000    0.7896800000000000    0.7466300000000000 C
   0.6569100000000000    0.7465500000000000    0.7897300000000000 C
   0.5408300000000000    0.4596400000000000    0.6768800000000000 C
   0.6043650000000000    0.5266600000000000    0.6637800000000000 C
   0.6235600000000000    0.5903300000000000    0.6755200000000000 C
   0.5595250000000001    0.6565200000000000    0.7384100000000000 C
   0.5402700000000000    0.5928800000000000    0.7267300000000000 C
   0.5623050000000001    0.5273099999999999    0.6890800000000000 C
   0.6013650000000000    0.6561600000000000    0.7125899999999999 C
   0.7081700000000000    0.6769100000000000    0.4591500000000000 C
   0.6450100000000000    0.6636300000000001    0.5266000000000000 C
   0.6260450000000000    0.6752700000000000    0.5904000000000000 C
   0.6902150000000000    0.7380900000000000    0.6562000000000000 C
   0.7092550000000000    0.7264699999999999    0.5924000000000000 C
   0.6870100000000000    0.6889800000000000    0.5270000000000000 C
   0.6484150000000000    0.7122900000000000    0.6561100000000000 C
   0.6249500000000000    0.7250900000000000    0.7252100000000000 C
   0.7402950000000000    0.0433300000000000    0.2546400000000000 C
   0.6763350000000000    0.9582300000000000    0.2119300000000000 C
   0.6248200000000000    0.2186400000000000    0.5412000000000000 C
   0.6881250000000000    0.1376900000000000    0.4746300000000000 C
   0.7071300000000000    0.0854300000000000    0.4110300000000000 C
   0.6430800000000000    0.0825100000000000    0.3448500000000000 C
   0.6240300000000000    0.1347800000000000    0.4083800000000000 C
   0.6461900000000000    0.1627700000000000    0.4739000000000000 C
   0.6848400000000000    0.0567600000000000    0.3452400000000000 C
   0.7916099999999999    0.7816000000000000    0.3227700000000000 C
   0.7732250000000001    0.9177400000000000    0.2620100000000000 C
   0.7922549999999999    0.8652600000000000    0.2730000000000000 C
   0.7316500000000000    0.9439300000000000    0.2887000000000000 C
   0.7284150000000000    0.8628600000000000    0.3373300000000000 C
   0.7094549999999999    0.9153900000000000    0.3261400000000000 C
   0.7702300000000000    0.8375400000000000    0.3111900000000000 C
   0.7082850000000001    0.0005000000000000    0.2762200000000000 C
   0.0096600000000000    0.2546300000000000    0.0431200000000000 C
   0.0736250000000000    0.2118800000000000    0.9580500000000000 C
   0.1251500000000000    0.5410700000000001    0.2182000000000000 C
   0.0618000000000000    0.4745000000000000    0.1373300000000000 C
   0.0427850000000000    0.4109300000000000    0.0850600000000000 C
   0.1068000000000000    0.3447500000000000    0.0822100000000000 C
   0.1258600000000000    0.4082300000000000    0.1344600000000000 C
   0.1037350000000000    0.4737500000000000    0.1623800000000000 C
   0.0650550000000000    0.3451600000000000    0.0564100000000000 C
   0.9578300000000000    0.3229600000000000    0.7815000000000000 C
   0.0211850000000000    0.3371300000000000    0.8624000000000001 C
   0.0402700000000000    0.3258900000000000    0.9148500000000001 C
   0.9765550000000001    0.2619000000000000    0.9175000000000000 C
   0.9573849999999999    0.2732000000000000    0.8651600000000000 C
   0.9793200000000000    0.3111400000000000    0.8372900000000000 C
   0.0181700000000000    0.2885100000000000    0.9435200000000000 C
   0.0416200000000000    0.2761300000000000    0.0001800000000000 C
   0.9070000000000000    0.2536000000000000    0.2101000000000000 C