H10 O7
1.0
  32.2618992755691352    0.0000000000000000   -2.1581035964549877
  -2.5357664388843268   32.5214116760188006   -4.8588137612318603
   0.0000000000000000    0.0000000000000000   32.9840000000000018
H O
10 7
direct
   0.6227341716282415    0.3015295283985184    0.5966828526307898 H
   0.5839396633685725    0.2656130597068309    0.5847759316917115 H
   0.5954708734554213    0.1884205747205613    0.5486492654814266 H
   0.6637556516579434    0.1640396569715226    0.6398635135886849 H
   0.6287584159483828    0.1738931062571699    0.6025214866943182 H
   0.4919914343877803    0.3008926158133541    0.4035165080084106 H
   0.5235431163594598    0.4131411817586935    0.3714805864331346 H
   0.5070197530203624    0.3580012495054288    0.3884359829081765 H
   0.4188444252297504    0.2379828756623427    0.5278553147403839 H
   0.3738635632495431    0.1705791977638242    0.5990052647180109 H
   0.6118800000000000    0.2774050000000000    0.5814950000000000 O
   0.6243500000000000    0.1864250000000000    0.5576200000000000 O
   0.6610750000000000    0.1716600000000000    0.6125600000000000 O
   0.5038049999999999    0.3230800000000000    0.3905500000000000 O
   0.5208600000000000    0.3839950000000000    0.3732450000000000 O
   0.3976350000000000    0.2432250000000000    0.5070850000000000 O
   0.3922350000000000    0.1823050000000000    0.6232700000000000 O
