Ca96 H756 C945 N189 O567
1.0
  32.2618992755691352    0.0000000000000000   -2.1581035964549877
  -2.5357664388843268   32.5214116760188006   -4.8588137612318603
   0.0000000000000000    0.0000000000000000   32.9840000000000018
Ca H C N O
96 756 945 189 567
direct
   0.1979850000000000    0.1661800000000000    0.1793400000000000 Ca
   0.4074250000000000    0.0326350000000000    0.2450650000000000 Ca
   0.0559400000000000    0.4442150000000000    0.3617850000000000 Ca
   0.0521000000000000    0.3201250000000000    0.3329550000000000 Ca
   0.3425150000000000    0.2548200000000000    0.4669800000000000 Ca
   0.3059300000000000    0.3617350000000000    0.4442250000000000 Ca
   0.3021200000000000    0.3329650000000000    0.3201700000000000 Ca
   0.0924650000000000    0.4670400000000000    0.2548850000000000 Ca
   0.4441350000000000    0.0553250000000000    0.1380350000000000 Ca
   0.4479450000000000    0.1792750000000000    0.1661350000000000 Ca
   0.1572950000000000    0.2446250000000000    0.0324050000000000 Ca
   0.1940200000000000    0.1377750000000000    0.0554650000000000 Ca
   0.6979850000000000    0.1661800000000000    0.1793400000000000 Ca
   0.9074249999999999    0.0326350000000000    0.2450650000000000 Ca
   0.5559400000000000    0.4442150000000000    0.3617850000000000 Ca
   0.5521000000000000    0.3201250000000000    0.3329550000000000 Ca
   0.8425150000000000    0.2548200000000000    0.4669800000000000 Ca
   0.8059300000000000    0.3617350000000000    0.4442250000000000 Ca
   0.8021199999999999    0.3329650000000000    0.3201700000000000 Ca
   0.5924650000000000    0.4670400000000000    0.2548850000000000 Ca
   0.9441349999999999    0.0553250000000000    0.1380350000000000 Ca
   0.9479450000000000    0.1792750000000000    0.1661350000000000 Ca
   0.6572950000000000    0.2446250000000000    0.0324050000000000 Ca
   0.6940200000000000    0.1377750000000000    0.0554650000000000 Ca
   0.1979850000000000    0.6661800000000000    0.1793400000000000 Ca
   0.4074250000000000    0.5326350000000000    0.2450650000000000 Ca
   0.0559400000000000    0.9442150000000000    0.3617850000000000 Ca
   0.0521000000000000    0.8201250000000000    0.3329550000000000 Ca
   0.3425150000000000    0.7548200000000000    0.4669800000000000 Ca
   0.3059300000000000    0.8617349999999999    0.4442250000000000 Ca
   0.3021200000000000    0.8329650000000000    0.3201700000000000 Ca
   0.0924650000000000    0.9670400000000000    0.2548850000000000 Ca
   0.4441350000000000    0.5553250000000000    0.1380350000000000 Ca
   0.4479450000000000    0.6792750000000000    0.1661350000000000 Ca
   0.1572950000000000    0.7446250000000000    0.0324050000000000 Ca
   0.1940200000000000    0.6377750000000000    0.0554650000000000 Ca
   0.6979850000000000    0.6661800000000000    0.1793400000000000 Ca
   0.9074249999999999    0.5326350000000000    0.2450650000000000 Ca
   0.5559400000000000    0.9442150000000000    0.3617850000000000 Ca
   0.5521000000000000    0.8201250000000000    0.3329550000000000 Ca
   0.8425150000000000    0.7548200000000000    0.4669800000000000 Ca
   0.8059300000000000    0.8617349999999999    0.4442250000000000 Ca
   0.8021199999999999    0.8329650000000000    0.3201700000000000 Ca
   0.5924650000000000    0.9670400000000000    0.2548850000000000 Ca
   0.9441349999999999    0.5553250000000000    0.1380350000000000 Ca
   0.9479450000000000    0.6792750000000000    0.1661350000000000 Ca
   0.6572950000000000    0.7446250000000000    0.0324050000000000 Ca
   0.6940200000000000    0.6377750000000000    0.0554650000000000 Ca
   0.1979850000000000    0.1661800000000000    0.6793400000000001 Ca
   0.4074250000000000    0.0326350000000000    0.7450650000000000 Ca
   0.0559400000000000    0.4442150000000000    0.8617850000000000 Ca
   0.0521000000000000    0.3201250000000000    0.8329550000000000 Ca
   0.3425150000000000    0.2548200000000000    0.9669800000000000 Ca
   0.3059300000000000    0.3617350000000000    0.9442250000000000 Ca
   0.3021200000000000    0.3329650000000000    0.8201700000000001 Ca
   0.0924650000000000    0.4670400000000000    0.7548850000000000 Ca
   0.4441350000000000    0.0553250000000000    0.6380350000000000 Ca
   0.4479450000000000    0.1792750000000000    0.6661350000000000 Ca
   0.1572950000000000    0.2446250000000000    0.5324050000000000 Ca
   0.1940200000000000    0.1377750000000000    0.5554650000000000 Ca
   0.6979850000000000    0.1661800000000000    0.6793400000000001 Ca
   0.9074249999999999    0.0326350000000000    0.7450650000000000 Ca
   0.5559400000000000    0.4442150000000000    0.8617850000000000 Ca
   0.5521000000000000    0.3201250000000000    0.8329550000000000 Ca
   0.8425150000000000    0.2548200000000000    0.9669800000000000 Ca
   0.8059300000000000    0.3617350000000000    0.9442250000000000 Ca
   0.8021199999999999    0.3329650000000000    0.8201700000000001 Ca
   0.5924650000000000    0.4670400000000000    0.7548850000000000 Ca
   0.9441349999999999    0.0553250000000000    0.6380350000000000 Ca
   0.9479450000000000    0.1792750000000000    0.6661350000000000 Ca
   0.6572950000000000    0.2446250000000000    0.5324050000000000 Ca
   0.6940200000000000    0.1377750000000000    0.5554650000000000 Ca
   0.1979850000000000    0.6661800000000000    0.6793400000000001 Ca
   0.4074250000000000    0.5326350000000000    0.7450650000000000 Ca
   0.0559400000000000    0.9442150000000000    0.8617850000000000 Ca
   0.0521000000000000    0.8201250000000000    0.8329550000000000 Ca
   0.3425150000000000    0.7548200000000000    0.9669800000000000 Ca
   0.3059300000000000    0.8617349999999999    0.9442250000000000 Ca
   0.3021200000000000    0.8329650000000000    0.8201700000000001 Ca
   0.0924650000000000    0.9670400000000000    0.7548850000000000 Ca
   0.4441350000000000    0.5553250000000000    0.6380350000000000 Ca
   0.4479450000000000    0.6792750000000000    0.6661350000000000 Ca
   0.1572950000000000    0.7446250000000000    0.5324050000000000 Ca
   0.1940200000000000    0.6377750000000000    0.5554650000000000 Ca
   0.6979850000000000    0.6661800000000000    0.6793400000000001 Ca
   0.9074249999999999    0.5326350000000000    0.7450650000000000 Ca
   0.5559400000000000    0.9442150000000000    0.8617850000000000 Ca
   0.5521000000000000    0.8201250000000000    0.8329550000000000 Ca
   0.8425150000000000    0.7548200000000000    0.9669800000000000 Ca
   0.8059300000000000    0.8617349999999999    0.9442250000000000 Ca
   0.8021199999999999    0.8329650000000000    0.8201700000000001 Ca
   0.5924650000000000    0.9670400000000000    0.7548850000000000 Ca
   0.9441349999999999    0.5553250000000000    0.6380350000000000 Ca
   0.9479450000000000    0.6792750000000000    0.6661350000000000 Ca
   0.6572950000000000    0.7446250000000000    0.5324050000000000 Ca
   0.6940200000000000    0.6377750000000000    0.5554650000000000 Ca
   0.2267950000000000    0.1310450000000000    0.3631650000000000 H
   0.1399700000000000    0.1291800000000000    0.2572750000000000 H
   0.1131650000000000    0.0543300000000000    0.3507850000000000 H
   0.2168250000000000    0.0310700000000000    0.4531650000000000 H
   0.1657900000000000    0.0131900000000000    0.4623150000000000 H
   0.2798800000000000    0.1950100000000000    0.2635000000000000 H
   0.3118550000000000    0.1902900000000000    0.3080350000000000 H
   0.0414750000000000    0.0657450000000000    0.2019850000000000 H
   0.0218650000000000    0.1145900000000000    0.2125100000000000 H
   0.1803650000000000    0.4543350000000000    0.1708850000000000 H
   0.2527850000000000    0.4228400000000000    0.2746600000000000 H
   0.3099250000000000    0.0000000000000000    0.1964100000000000 H
   0.2946350000000000    0.0751650000000000    0.1056200000000000 H
   0.2445500000000000    0.0519150000000000    0.0876000000000000 H
   0.1253450000000000    0.3518850000000000    0.2651350000000000 H
   0.1588900000000000    0.3546600000000000    0.3097850000000000 H
   0.3920950000000000    0.4661050000000000    0.3111200000000000 H
   0.3598200000000000    0.4669550000000000    0.3525750000000000 H
   0.1388500000000000    0.0376600000000000    0.4055450000000000 H
   0.2475200000000000    0.1836250000000000    0.3439250000000000 H
   0.0693500000000000    0.1303950000000000    0.2663800000000000 H
   0.2977000000000000    0.0337500000000000    0.1583850000000000 H
   0.2088850000000000    0.3914300000000000    0.2834050000000000 H
   0.3086200000000000    0.4211200000000000    0.2976350000000000 H
   0.0228300000000000    0.1364800000000000    0.3684650000000000 H
   0.1096500000000000    0.2423050000000000    0.3697050000000000 H
   0.1365350000000000    0.1492250000000000    0.4450500000000000 H
   0.0330400000000000    0.0467100000000000    0.4685600000000000 H
   0.0841150000000000    0.0374100000000000    0.4862250000000000 H
   0.4694400000000000    0.2359950000000000    0.3044250000000000 H
   0.4375250000000000    0.1912250000000000    0.3085300000000000 H
   0.2082500000000000    0.2975900000000000    0.4347000000000000 H
   0.2277450000000000    0.2880350000000000    0.3857500000000000 H
   0.0698350000000000    0.3288300000000000    0.0453450000000000 H
   0.4971950000000000    0.2251500000000000    0.0768550000000000 H
   0.4402250000000000    0.3034950000000000    0.0020450000000000 H
   0.0053550000000000    0.4120450000000000    0.4474300000000000 H
   0.1245850000000000    0.2345300000000000    0.1478400000000000 H
   0.0910350000000000    0.1898800000000000    0.1449950000000000 H
   0.3579550000000000    0.1888700000000000    0.0328800000000000 H
   0.3900550000000000    0.1472200000000000    0.0315300000000000 H
   0.1110300000000000    0.0942850000000000    0.4618800000000000 H
   0.0015950000000000    0.1555650000000000    0.3160800000000000 H
   0.1805950000000000    0.2339200000000000    0.3691250000000000 H
   0.0410950000000000    0.2162750000000000    0.1082200000000000 H
   0.4413350000000000    0.2017200000000000    0.0780050000000000 H
   0.2728500000000000    0.3685100000000000    0.1365250000000000 H
   0.3596450000000000    0.3698350000000000    0.2423650000000000 H
   0.3865150000000000    0.4451600000000000    0.1492600000000000 H
   0.2829950000000000    0.4685750000000000    0.0467350000000000 H
   0.3340700000000000    0.4861700000000000    0.0373350000000000 H
   0.2194550000000000    0.3044650000000000    0.2360650000000000 H
   0.1875150000000000    0.3086300000000000    0.1913400000000000 H
   0.4582200000000000    0.4346950000000000    0.2976650000000000 H
   0.4776850000000000    0.3857400000000000    0.2880100000000000 H
   0.3197550000000000    0.0453150000000000    0.3289050000000000 H
   0.2471550000000000    0.0769050000000000    0.2252750000000000 H
   0.1901700000000000    0.0019850000000000    0.3035200000000000 H
   0.2052750000000000    0.4240450000000000    0.3936900000000000 H
   0.2552400000000000    0.4473500000000000    0.4120950000000000 H
   0.3745750000000000    0.1478650000000000    0.2346500000000000 H
   0.3410800000000000    0.1449400000000000    0.1899600000000000 H
   0.1079200000000000    0.0329400000000000    0.1889800000000000 H
   0.1400250000000000    0.0314900000000000    0.1473300000000000 H
   0.3609950000000000    0.4619300000000000    0.0942700000000000 H
   0.2515700000000000    0.3162950000000000    0.1556700000000000 H
   0.4305350000000000    0.3692250000000000    0.2339050000000000 H
   0.2022600000000000    0.4659900000000000    0.3414850000000000 H
   0.2911200000000000    0.1081600000000000    0.2163200000000000 H
   0.1913150000000000    0.0780300000000000    0.2018050000000000 H
   0.4767800000000000    0.3631250000000000    0.1310450000000000 H
   0.3899100000000000    0.2572300000000000    0.1291550000000000 H
   0.3631750000000000    0.3507750000000000    0.0543300000000000 H
   0.4668150000000000    0.4532000000000000    0.0311450000000000 H
   0.4157800000000000    0.4623450000000000    0.0132600000000000 H
   0.0298450000000000    0.2634700000000000    0.1950250000000000 H
   0.0618300000000000    0.3080050000000000    0.1902750000000000 H
   0.2914750000000000    0.2018450000000000    0.0657800000000000 H
   0.2714800000000000    0.2126950000000000    0.1143850000000000 H
   0.4303600000000000    0.1708250000000000    0.4542950000000000 H
   0.0027900000000000    0.2746350000000000    0.4228200000000000 H
   0.0599150000000000    0.1963450000000000    0.0000000000000000 H
   0.0445900000000000    0.1054800000000000    0.0750550000000000 H
   0.4944750000000000    0.0874950000000000    0.0518250000000000 H
   0.3753500000000000    0.2651050000000000    0.3518900000000000 H
   0.4089150000000000    0.3097400000000000    0.3546250000000000 H
   0.1420950000000000    0.3110900000000000    0.4660700000000000 H
   0.1098400000000000    0.3525600000000000    0.4669450000000000 H
   0.3888350000000000    0.4055600000000000    0.0377000000000000 H
   0.0000000000000000    0.3439000000000000    0.1836250000000000 H
   0.3191000000000000    0.2663850000000000    0.1302200000000000 H
   0.0476500000000000    0.1583350000000000    0.0337650000000000 H
   0.4589000000000000    0.2833700000000000    0.3914100000000000 H
   0.0586050000000000    0.2976500000000000    0.4211100000000000 H
   0.7267950000000000    0.1310450000000000    0.3631650000000000 H
   0.6399700000000000    0.1291800000000000    0.2572750000000000 H
   0.6131650000000000    0.0543300000000000    0.3507850000000000 H
   0.7168250000000000    0.0310700000000000    0.4531650000000000 H
   0.6657900000000000    0.0131900000000000    0.4623150000000000 H
   0.7798800000000000    0.1950100000000000    0.2635000000000000 H
   0.8118550000000000    0.1902900000000000    0.3080350000000000 H
   0.5414750000000000    0.0657450000000000    0.2019850000000000 H
   0.5218650000000000    0.1145900000000000    0.2125100000000000 H
   0.6803650000000000    0.4543350000000000    0.1708850000000000 H
   0.7527850000000000    0.4228400000000000    0.2746600000000000 H
   0.8099250000000000    0.0000000000000000    0.1964100000000000 H
   0.7946350000000000    0.0751650000000000    0.1056200000000000 H
   0.7445500000000000    0.0519150000000000    0.0876000000000000 H
   0.6253450000000000    0.3518850000000000    0.2651350000000000 H
   0.6588900000000000    0.3546600000000000    0.3097850000000000 H
   0.8920950000000001    0.4661050000000000    0.3111200000000000 H
   0.8598200000000000    0.4669550000000000    0.3525750000000000 H
   0.6388500000000000    0.0376600000000000    0.4055450000000000 H
   0.7475200000000000    0.1836250000000000    0.3439250000000000 H
   0.5693500000000000    0.1303950000000000    0.2663800000000000 H
   0.7977000000000001    0.0337500000000000    0.1583850000000000 H
   0.7088850000000000    0.3914300000000000    0.2834050000000000 H
   0.8086200000000000    0.4211200000000000    0.2976350000000000 H
   0.5228300000000000    0.1364800000000000    0.3684650000000000 H
   0.6096500000000000    0.2423050000000000    0.3697050000000000 H
   0.6365350000000000    0.1492250000000000    0.4450500000000000 H
   0.5330400000000000    0.0467100000000000    0.4685600000000000 H
   0.5841149999999999    0.0374100000000000    0.4862250000000000 H
   0.9694400000000001    0.2359950000000000    0.3044250000000000 H
   0.9375249999999999    0.1912250000000000    0.3085300000000000 H
   0.7082500000000000    0.2975900000000000    0.4347000000000000 H
   0.7277450000000000    0.2880350000000000    0.3857500000000000 H
   0.5698350000000000    0.3288300000000000    0.0453450000000000 H
   0.9971950000000001    0.2251500000000000    0.0768550000000000 H
   0.9402250000000000    0.3034950000000000    0.0020450000000000 H
   0.9553400000000001    0.3937050000000000    0.4241700000000000 H
   0.6245849999999999    0.2345300000000000    0.1478400000000000 H
   0.5910350000000000    0.1898800000000000    0.1449950000000000 H
   0.8579550000000000    0.1888700000000000    0.0328800000000000 H
   0.8900550000000000    0.1472200000000000    0.0315300000000000 H
   0.6110300000000000    0.0942850000000000    0.4618800000000000 H
   0.5015950000000000    0.1555650000000000    0.3160800000000000 H
   0.6805950000000001    0.2339200000000000    0.3691250000000000 H
   0.9523250000000000    0.3414150000000000    0.4660350000000000 H
   0.5410950000000000    0.2162750000000000    0.1082200000000000 H
   0.9413350000000000    0.2017200000000000    0.0780050000000000 H
   0.7728500000000000    0.3685100000000000    0.1365250000000000 H
   0.8596450000000000    0.3698350000000000    0.2423650000000000 H
   0.8865149999999999    0.4451600000000000    0.1492600000000000 H
   0.7829950000000000    0.4685750000000000    0.0467350000000000 H
   0.8340700000000000    0.4861700000000000    0.0373350000000000 H
   0.7194550000000000    0.3044650000000000    0.2360650000000000 H
   0.6875150000000000    0.3086300000000000    0.1913400000000000 H
   0.9582200000000001    0.4346950000000000    0.2976650000000000 H
   0.9776850000000000    0.3857400000000000    0.2880100000000000 H
   0.8197550000000000    0.0453150000000000    0.3289050000000000 H
   0.7471550000000000    0.0769050000000000    0.2252750000000000 H
   0.6901700000000000    0.0019850000000000    0.3035200000000000 H
   0.7052750000000000    0.4240450000000000    0.3936900000000000 H
   0.7552400000000000    0.4473500000000000    0.4120950000000000 H
   0.8745750000000000    0.1478650000000000    0.2346500000000000 H
   0.8410800000000000    0.1449400000000000    0.1899600000000000 H
   0.6079200000000000    0.0329400000000000    0.1889800000000000 H
   0.6400250000000001    0.0314900000000000    0.1473300000000000 H
   0.8609950000000000    0.4619300000000000    0.0942700000000000 H
   0.7515700000000001    0.3162950000000000    0.1556700000000000 H
   0.9305350000000000    0.3692250000000000    0.2339050000000000 H
   0.7022600000000000    0.4659900000000000    0.3414850000000000 H
   0.7911200000000000    0.1081600000000000    0.2163200000000000 H
   0.6913150000000000    0.0780300000000000    0.2018050000000000 H
   0.9767800000000000    0.3631250000000000    0.1310450000000000 H
   0.8899100000000000    0.2572300000000000    0.1291550000000000 H
   0.8631750000000000    0.3507750000000000    0.0543300000000000 H
   0.9668150000000000    0.4532000000000000    0.0311450000000000 H
   0.9157800000000000    0.4623450000000000    0.0132600000000000 H
   0.5298450000000000    0.2634700000000000    0.1950250000000000 H
   0.5618300000000001    0.3080050000000000    0.1902750000000000 H
   0.7914749999999999    0.2018450000000000    0.0657800000000000 H
   0.7714799999999999    0.2126950000000000    0.1143850000000000 H
   0.9303600000000001    0.1708250000000000    0.4542950000000000 H
   0.5027900000000000    0.2746350000000000    0.4228200000000000 H
   0.5599150000000001    0.1963450000000000    0.0000000000000000 H
   0.5445900000000000    0.1054800000000000    0.0750550000000000 H
   0.9944750000000000    0.0874950000000000    0.0518250000000000 H
   0.8753500000000001    0.2651050000000000    0.3518900000000000 H
   0.9089149999999999    0.3097400000000000    0.3546250000000000 H
   0.6420950000000000    0.3110900000000000    0.4660700000000000 H
   0.6098399999999999    0.3525600000000000    0.4669450000000000 H
   0.8888350000000000    0.4055600000000000    0.0377000000000000 H
   0.5000000000000000    0.3439000000000000    0.1836250000000000 H
   0.8190999999999999    0.2663850000000000    0.1302200000000000 H
   0.5476500000000000    0.1583350000000000    0.0337650000000000 H
   0.9589000000000000    0.2833700000000000    0.3914100000000000 H
   0.5586050000000000    0.2976500000000000    0.4211100000000000 H
   0.2267950000000000    0.6310450000000000    0.3631650000000000 H
   0.1399700000000000    0.6291800000000000    0.2572750000000000 H
   0.1131650000000000    0.5543300000000000    0.3507850000000000 H
   0.2168250000000000    0.5310700000000000    0.4531650000000000 H
   0.1657900000000000    0.5131900000000000    0.4623150000000000 H
   0.2798800000000000    0.6950100000000000    0.2635000000000000 H
   0.3118550000000000    0.6902900000000000    0.3080350000000000 H
   0.0414750000000000    0.5657449999999999    0.2019850000000000 H
   0.0218650000000000    0.6145900000000000    0.2125100000000000 H
   0.1803650000000000    0.9543349999999999    0.1708850000000000 H
   0.2527850000000000    0.9228400000000000    0.2746600000000000 H
   0.3099250000000000    0.5000000000000000    0.1964100000000000 H
   0.2946350000000000    0.5751650000000000    0.1056200000000000 H
   0.2445500000000000    0.5519150000000000    0.0876000000000000 H
   0.1253450000000000    0.8518850000000000    0.2651350000000000 H
   0.1588900000000000    0.8546600000000000    0.3097850000000000 H
   0.3920950000000000    0.9661050000000000    0.3111200000000000 H
   0.3598200000000000    0.9669550000000000    0.3525750000000000 H
   0.1388500000000000    0.5376600000000000    0.4055450000000000 H
   0.2475200000000000    0.6836250000000000    0.3439250000000000 H
   0.0693500000000000    0.6303950000000000    0.2663800000000000 H
   0.2977000000000000    0.5337499999999999    0.1583850000000000 H
   0.2088850000000000    0.8914299999999999    0.2834050000000000 H
   0.3086200000000000    0.9211199999999999    0.2976350000000000 H
   0.0228300000000000    0.6364799999999999    0.3684650000000000 H
   0.1096500000000000    0.7423050000000000    0.3697050000000000 H
   0.1365350000000000    0.6492249999999999    0.4450500000000000 H
   0.0330400000000000    0.5467100000000000    0.4685600000000000 H
   0.0841150000000000    0.5374099999999999    0.4862250000000000 H
   0.4694400000000000    0.7359950000000000    0.3044250000000000 H
   0.4375250000000000    0.6912250000000000    0.3085300000000000 H
   0.2082500000000000    0.7975900000000000    0.4347000000000000 H
   0.2277450000000000    0.7880350000000000    0.3857500000000000 H
   0.0698350000000000    0.8288300000000000    0.0453450000000000 H
   0.4971950000000000    0.7251500000000000    0.0768550000000000 H
   0.4402250000000000    0.8034950000000001    0.0020450000000000 H
   0.4553400000000000    0.8937050000000000    0.4241700000000000 H
   0.0053550000000000    0.9120450000000000    0.4474300000000000 H
   0.1245850000000000    0.7345300000000000    0.1478400000000000 H
   0.0910350000000000    0.6898800000000000    0.1449950000000000 H
   0.3579550000000000    0.6888700000000000    0.0328800000000000 H
   0.3900550000000000    0.6472200000000000    0.0315300000000000 H
   0.1110300000000000    0.5942850000000000    0.4618800000000000 H
   0.0015950000000000    0.6555650000000000    0.3160800000000000 H
   0.1805950000000000    0.7339200000000000    0.3691250000000000 H
   0.4523250000000000    0.8414150000000000    0.4660350000000000 H
   0.0410950000000000    0.7162750000000000    0.1082200000000000 H
   0.4413350000000000    0.7017200000000000    0.0780050000000000 H
   0.2728500000000000    0.8685100000000000    0.1365250000000000 H
   0.3596450000000000    0.8698350000000000    0.2423650000000000 H
   0.3865150000000000    0.9451600000000000    0.1492600000000000 H
   0.2829950000000000    0.9685750000000000    0.0467350000000000 H
   0.3340700000000000    0.9861700000000000    0.0373350000000000 H
   0.2194550000000000    0.8044650000000000    0.2360650000000000 H
   0.1875150000000000    0.8086300000000000    0.1913400000000000 H
   0.4582200000000000    0.9346950000000001    0.2976650000000000 H
   0.4776850000000000    0.8857400000000000    0.2880100000000000 H
   0.3197550000000000    0.5453150000000000    0.3289050000000000 H
   0.2471550000000000    0.5769050000000000    0.2252750000000000 H
   0.1901700000000000    0.5019850000000000    0.3035200000000000 H
   0.2052750000000000    0.9240450000000000    0.3936900000000000 H
   0.2552400000000000    0.9473500000000000    0.4120950000000000 H
   0.3745750000000000    0.6478650000000000    0.2346500000000000 H
   0.3410800000000000    0.6449400000000001    0.1899600000000000 H
   0.1079200000000000    0.5329400000000000    0.1889800000000000 H
   0.1400250000000000    0.5314900000000000    0.1473300000000000 H
   0.3609950000000000    0.9619300000000000    0.0942700000000000 H
   0.2515700000000000    0.8162950000000000    0.1556700000000000 H
   0.4305350000000000    0.8692250000000000    0.2339050000000000 H
   0.2022600000000000    0.9659900000000000    0.3414850000000000 H
   0.2911200000000000    0.6081600000000000    0.2163200000000000 H
   0.1913150000000000    0.5780300000000000    0.2018050000000000 H
   0.4767800000000000    0.8631249999999999    0.1310450000000000 H
   0.3899100000000000    0.7572300000000001    0.1291550000000000 H
   0.3631750000000000    0.8507750000000001    0.0543300000000000 H
   0.4668150000000000    0.9532000000000000    0.0311450000000000 H
   0.4157800000000000    0.9623450000000000    0.0132600000000000 H
   0.0298450000000000    0.7634700000000000    0.1950250000000000 H
   0.0618300000000000    0.8080050000000000    0.1902750000000000 H
   0.2914750000000000    0.7018450000000001    0.0657800000000000 H
   0.2714800000000000    0.7126950000000000    0.1143850000000000 H
   0.4303600000000000    0.6708250000000000    0.4542950000000000 H
   0.0027900000000000    0.7746350000000000    0.4228200000000000 H
   0.0599150000000000    0.6963450000000000    0.0000000000000000 H
   0.0445900000000000    0.6054800000000000    0.0750550000000000 H
   0.4944750000000000    0.5874950000000000    0.0518250000000000 H
   0.3753500000000000    0.7651049999999999    0.3518900000000000 H
   0.4089150000000000    0.8097400000000000    0.3546250000000000 H
   0.1420950000000000    0.8110900000000000    0.4660700000000000 H
   0.1098400000000000    0.8525600000000000    0.4669450000000000 H
   0.3888350000000000    0.9055599999999999    0.0377000000000000 H
   0.0000000000000000    0.8439000000000000    0.1836250000000000 H
   0.3191000000000000    0.7663850000000000    0.1302200000000000 H
   0.0476500000000000    0.6583350000000000    0.0337650000000000 H
   0.4589000000000000    0.7833700000000000    0.3914100000000000 H
   0.0586050000000000    0.7976500000000000    0.4211100000000000 H
   0.7267950000000000    0.6310450000000000    0.3631650000000000 H
   0.6399700000000000    0.6291800000000000    0.2572750000000000 H
   0.6131650000000000    0.5543300000000000    0.3507850000000000 H
   0.7168250000000000    0.5310700000000000    0.4531650000000000 H
   0.6657900000000000    0.5131900000000000    0.4623150000000000 H
   0.7798800000000000    0.6950100000000000    0.2635000000000000 H
   0.8118550000000000    0.6902900000000000    0.3080350000000000 H
   0.5414750000000000    0.5657449999999999    0.2019850000000000 H
   0.5218650000000000    0.6145900000000000    0.2125100000000000 H
   0.6803650000000000    0.9543349999999999    0.1708850000000000 H
   0.7527850000000000    0.9228400000000000    0.2746600000000000 H
   0.8099250000000000    0.5000000000000000    0.1964100000000000 H
   0.7946350000000000    0.5751650000000000    0.1056200000000000 H
   0.7445500000000000    0.5519150000000000    0.0876000000000000 H
   0.6253450000000000    0.8518850000000000    0.2651350000000000 H
   0.6588900000000000    0.8546600000000000    0.3097850000000000 H
   0.8920950000000001    0.9661050000000000    0.3111200000000000 H
   0.8598200000000000    0.9669550000000000    0.3525750000000000 H
   0.6388500000000000    0.5376600000000000    0.4055450000000000 H
   0.7475200000000000    0.6836250000000000    0.3439250000000000 H
   0.5693500000000000    0.6303950000000000    0.2663800000000000 H
   0.7977000000000001    0.5337499999999999    0.1583850000000000 H
   0.7088850000000000    0.8914299999999999    0.2834050000000000 H
   0.8086200000000000    0.9211199999999999    0.2976350000000000 H
   0.5228300000000000    0.6364799999999999    0.3684650000000000 H
   0.6096500000000000    0.7423050000000000    0.3697050000000000 H
   0.6365350000000000    0.6492249999999999    0.4450500000000000 H
   0.5330400000000000    0.5467100000000000    0.4685600000000000 H
   0.5841149999999999    0.5374099999999999    0.4862250000000000 H
   0.9694400000000001    0.7359950000000000    0.3044250000000000 H
   0.9375249999999999    0.6912250000000000    0.3085300000000000 H
   0.7082500000000000    0.7975900000000000    0.4347000000000000 H
   0.7277450000000000    0.7880350000000000    0.3857500000000000 H
   0.5698350000000000    0.8288300000000000    0.0453450000000000 H
   0.9971950000000001    0.7251500000000000    0.0768550000000000 H
   0.9402250000000000    0.8034950000000001    0.0020450000000000 H
   0.9553400000000001    0.8937050000000000    0.4241700000000000 H
   0.5053550000000000    0.9120450000000000    0.4474300000000000 H
   0.6245849999999999    0.7345300000000000    0.1478400000000000 H
   0.5910350000000000    0.6898800000000000    0.1449950000000000 H
   0.8579550000000000    0.6888700000000000    0.0328800000000000 H
   0.8900550000000000    0.6472200000000000    0.0315300000000000 H
   0.6110300000000000    0.5942850000000000    0.4618800000000000 H
   0.5015950000000000    0.6555650000000000    0.3160800000000000 H
   0.6805950000000001    0.7339200000000000    0.3691250000000000 H
   0.9523250000000000    0.8414150000000000    0.4660350000000000 H
   0.5410950000000000    0.7162750000000000    0.1082200000000000 H
   0.9413350000000000    0.7017200000000000    0.0780050000000000 H
   0.7728500000000000    0.8685100000000000    0.1365250000000000 H
   0.8596450000000000    0.8698350000000000    0.2423650000000000 H
   0.8865149999999999    0.9451600000000000    0.1492600000000000 H
   0.7829950000000000    0.9685750000000000    0.0467350000000000 H
   0.8340700000000000    0.9861700000000000    0.0373350000000000 H
   0.7194550000000000    0.8044650000000000    0.2360650000000000 H