H2 C2 N3
1.0
  26.2450869971740488    0.0000000000000000    3.1713568879527867
   4.8677362273968052   12.1721850609601816    1.5437146310851855
   0.0000000000000000    0.0000000000000000   37.0339999999999989
H C N
2 2 3
direct
   0.5265050000000000    0.9280900000000000    0.9255949999999999 H
   0.6165100000000000    0.1357400000000000    0.9139100000000000 H
   0.5396500000000000    0.9966200000000000    0.9177500000000001 C
   0.5855350000000000    0.1016900000000000    0.9120550000000001 C
   0.5127900000000000    0.0838100000000000    0.8962000000000000 N
   0.5423050000000000    0.1510600000000000    0.8927149999999999 N
   0.5855750000000000    0.0000000000000000    0.9285099999999999 N
