H10 C12 N2
1.0
  13.7899990737513445    0.0000000000000000   -0.0050542988676890
   0.0456150588252982   28.7339028555716460   -0.0591773012242554
   0.0000000000000000    0.0000000000000000   21.4559999999999995
H C N
10 12 2
direct
   0.8609100000000000    0.5152700000000000    0.6362100000000001 H
   0.6809200000000000    0.5142900000000000    0.6384200000000000 H
   0.6851200000000000    0.5879799999999999    0.4630200000000000 H
   0.8659900000000000    0.5860450000000000    0.4686200000000000 H
   0.5358900000000000    0.5726900000000000    0.5042400000000000 H
   0.5196200000000000    0.5124500000000000    0.6229100000000000 H
   0.2119100000000000    0.5752750000000000    0.4777600000000000 H
   0.3913900000000000    0.5713350000000000    0.4839800000000000 H
   0.3567200000000000    0.5019100000000000    0.6617400000000000 H
   0.1776200000000000    0.5100150000000000    0.6475600000000000 H
   0.8188299999999999    0.5306950000000000    0.5985300000000000 C
   0.7183000000000000    0.5304450000000001    0.5993300000000000 C
   0.6664500000000000    0.5508350000000000    0.5497600000000000 C
   0.7217700000000000    0.5712800000000000    0.5020600000000000 C
   0.8222200000000000    0.5700499999999999    0.5048300000000000 C
   0.5613400000000000    0.5526799999999999    0.5442600000000000 C
   0.4957900000000000    0.5327500000000001    0.5826000000000000 C
   0.2475800000000000    0.5596700000000000    0.5178900000000000 C
   0.3477900000000000    0.5573050000000001    0.5219000000000000 C
   0.3910600000000000    0.5365000000000000    0.5745200000000000 C
   0.3278400000000000    0.5189350000000000    0.6202900000000000 C
   0.2281800000000000    0.5231800000000000    0.6128600000000000 C
   0.8712299999999999    0.5497600000000000    0.5518300000000000 N
   0.1874100000000000    0.5432050000000000    0.5623700000000000 N
