H4 O3
1.0
  13.7899990737513445    0.0000000000000000   -0.0050542988676890
   0.0456150588252982   28.7339028555716460   -0.0591773012242554
   0.0000000000000000    0.0000000000000000   21.4559999999999995
H O
4 3
direct
   0.9877146316185080    0.3851217187148752    0.3638071077019852 H
   0.0467408337879063    0.2612401665941945    0.1371310352485213 H
   0.9275059167700836    0.3529953523820672    1.0277462866663272 H
   0.9851040617986827    0.3129630862534494    1.0891552346005409 H
   0.9745300000000000    0.4182500000000000    0.3574800000000000 O
   0.0243000000000000    0.2678250000000000    0.0952100000000000 O
   0.9544600000000000    0.3219550000000000    1.0319099999999999 O
