H2 O2
1.0
  13.7899990737513445    0.0000000000000000   -0.0050542988676890
   0.0456150588252982   28.7339028555716460   -0.0591773012242554
   0.0000000000000000    0.0000000000000000   21.4559999999999995
H O
2 2
direct
   0.8333282735093319    0.5359699920697598    0.5856088287617213 H
   0.2309734208084216    0.5551257532592764    0.5301662280611834 H
   0.8712299999999999    0.5497600000000000    0.5518300000000000 O
   0.1874100000000000    0.5432050000000000    0.5623700000000000 O
