Zn16 H220 C282 N32 O60
1.0
  13.7899990737513445    0.0000000000000000   -0.0050542988676890
   0.0456150588252982   28.7339028555716460   -0.0591773012242554
   0.0000000000000000    0.0000000000000000   21.4559999999999995
Zn H C N O
16 220 282 32 60
direct
   0.4707600000000000    0.2989200000000000    0.5575300000000000 Zn
   0.4708500000000000    0.4511450000000000    0.0584300000000000 Zn
   0.5292400000000000    0.2010900000000000    0.4424500000000000 Zn
   0.9707700000000000    0.4511050000000000    0.4424600000000000 Zn
   0.0291700000000000    0.2011150000000000    0.0584300000000000 Zn
   0.0292400000000000    0.0489050000000000    0.5575200000000000 Zn
   0.9708300000000000    0.2988900000000000    0.9415500000000000 Zn
   0.5291600000000000    0.0488600000000000    0.9415600000000000 Zn
   0.4707600000000000    0.7989200000000001    0.5575300000000000 Zn
   0.4708500000000000    0.9511450000000000    0.0584300000000000 Zn
   0.5292400000000000    0.7010900000000000    0.4424500000000000 Zn
   0.9707700000000000    0.9511050000000000    0.4424600000000000 Zn
   0.0291700000000000    0.7011149999999999    0.0584300000000000 Zn
   0.0292400000000000    0.5489050000000000    0.5575200000000000 Zn
   0.9708300000000000    0.7988900000000000    0.9415500000000000 Zn
   0.5291600000000000    0.5488600000000000    0.9415600000000000 Zn
   0.4707800000000000    0.1901400000000000    0.8193000000000000 H
   0.5454100000000000    0.1070150000000000    0.7421700000000000 H
   0.4791900000000000    0.2080050000000000    0.7061700000000000 H
   0.5596300000000000    0.1270550000000000    0.6269900000000000 H
   0.3603900000000000    0.0145850000000000    0.8633400000000000 H
   0.1804200000000000    0.0134750000000000    0.8615400000000000 H
   0.1855800000000000    0.0880400000000000    0.0367100000000000 H
   0.3664400000000000    0.0862150000000000    0.0306500000000000 H
   0.0360200000000000    0.0723400000000000    0.9959700000000000 H
   0.0193600000000000    0.0124800000000000    0.8766500000000000 H
   0.7116100000000000    0.0755550000000000    0.0217900000000000 H
   0.8911500000000000    0.0715400000000000    0.0157900000000000 H
   0.8566300000000000    0.0016950000000000    0.8378900000000000 H
   0.6775300000000000    0.0099650000000000    0.8518200000000000 H
   0.5297900000000000    0.4405000000000000    0.6814900000000000 H
   0.4536800000000000    0.3570700000000000    0.7568000000000000 H
   0.5209200000000000    0.4575700000000000    0.7944300000000000 H
   0.4393900000000000    0.3769100000000000    0.8729600000000000 H
   0.6394400000000000    0.2651000000000000    0.6361000000000000 H
   0.8194300000000000    0.2641750000000000    0.6383500000000000 H
   0.8144800000000000    0.3380550000000000    0.4630800000000000 H
   0.6336400000000000    0.3361000000000000    0.4680000000000000 H
   0.9638800000000000    0.3227000000000000    0.5042300000000000 H
   0.9807399999999999    0.2625650000000000    0.6229800000000000 H
   0.2878100000000000    0.3253400000000000    0.4777700000000000 H
   0.1083700000000000    0.3214250000000000    0.4840000000000000 H
   0.1437300000000000    0.2520100000000000    0.6617800000000000 H
   0.3227600000000000    0.2600900000000000    0.6475700000000000 H
   0.5292200000000000    0.3098700000000000    0.1806200000000000 H
   0.4546000000000000    0.3929950000000000    0.2578100000000000 H
   0.5208100000000000    0.2920050000000000    0.2938100000000000 H
   0.4403800000000000    0.3729550000000000    0.3729900000000000 H
   0.6396100000000000    0.4854200000000000    0.1366500000000000 H
   0.8195900000000000    0.4865300000000000    0.1384400000000000 H
   0.8144200000000000    0.4119650000000000    0.9632800000000000 H
   0.6335700000000000    0.4137950000000000    0.9693300000000000 H
   0.9639799999999999    0.4276700000000000    0.0040100000000000 H
   0.9806500000000000    0.4875250000000000    0.1233400000000000 H
   0.2883900000000000    0.4244550000000000    0.9781900000000000 H
   0.1088500000000000    0.4284700000000000    0.9842000000000000 H
   0.1433800000000000    0.4983150000000000    0.1620900000000000 H
   0.3224800000000000    0.4900400000000000    0.1481600000000000 H
   0.4702300000000000    0.0595100000000000    0.3184900000000000 H
   0.5463200000000000    0.1429400000000000    0.2431000000000000 H
   0.4791000000000000    0.0424350000000000    0.2055600000000000 H
   0.5606100000000001    0.1231000000000000    0.1270200000000000 H
   0.3605600000000000    0.2349050000000000    0.3638700000000000 H
   0.1805700000000000    0.2358300000000000    0.3616400000000000 H
   0.1855300000000000    0.1619550000000000    0.5369000000000000 H
   0.3663600000000000    0.1639100000000000    0.5312900000000000 H
   0.0361200000000000    0.1773050000000000    0.4957600000000000 H
   0.0192600000000000    0.2374450000000000    0.3770100000000000 H
   0.7121900000000000    0.1746650000000000    0.5222000000000000 H
   0.8916400000000000    0.1785850000000000    0.5159800000000000 H
   0.8562700000000000    0.2480050000000000    0.3382100000000000 H
   0.6772400000000000    0.2399250000000000    0.3524200000000000 H
   0.1391000000000000    0.4847400000000000    0.3637800000000000 H
   0.3190900000000000    0.4857200000000000    0.3615700000000000 H
   0.3148800000000000    0.4120250000000000    0.5369699999999999 H
   0.1340100000000000    0.4139600000000000    0.5313600000000001 H
   0.4641100000000000    0.4273150000000000    0.4957000000000000 H
   0.4803900000000000    0.4875600000000000    0.3770800000000000 H
   0.7880900000000000    0.4247350000000000    0.5222200000000000 H
   0.6086100000000000    0.4286750000000000    0.5160100000000000 H
   0.6432900000000000    0.4981050000000000    0.3382500000000000 H
   0.8223900000000000    0.4900000000000000    0.3524300000000000 H
   0.9705100000000000    0.0598400000000000    0.1805800000000000 H
   0.0455700000000000    0.1428000000000000    0.2577300000000000 H
   0.9789900000000000    0.0419800000000000    0.2937600000000000 H
   0.0596800000000000    0.1227800000000000    0.3729200000000000 H
   0.8602700000000000    0.2354200000000000    0.1365700000000000 H
   0.6802900000000000    0.2364700000000000    0.1383700000000000 H
   0.6858400000000000    0.1620200000000000    0.9631200000000000 H
   0.8666800000000000    0.1638750000000000    0.9691900000000000 H
   0.5361800000000000    0.1776750000000000    0.0038600000000000 H
   0.5192500000000000    0.2372950000000000    0.1233900000000000 H
   0.2117000000000000    0.1744850000000000    0.9780000000000000 H
   0.3912100000000000    0.1784800000000000    0.9840800000000000 H
   0.3565200000000000    0.2479450000000000    0.1622500000000000 H
   0.1774600000000000    0.2397000000000000    0.1483300000000000 H
   0.9705900000000000    0.1906150000000000    0.6814200000000000 H
   0.0461100000000000    0.1069700000000000    0.7568000000000000 H
   0.9793400000000000    0.2076500000000000    0.7943700000000000 H
   0.0604100000000000    0.1267850000000000    0.8729900000000000 H
   0.8609100000000000    0.0152700000000000    0.6362100000000001 H
   0.6809200000000000    0.0142900000000000    0.6384200000000000 H
   0.6851200000000000    0.0879800000000000    0.4630200000000000 H
   0.8659900000000000    0.0860450000000000    0.4686200000000000 H
   0.5358900000000000    0.0726900000000000    0.5042400000000000 H
   0.5196200000000000    0.0124500000000000    0.6229100000000000 H
   0.2119100000000000    0.0752750000000000    0.4777600000000000 H
   0.3913900000000000    0.0713350000000000    0.4839800000000000 H
   0.3567200000000000    0.0019100000000000    0.6617400000000000 H
   0.1776200000000000    0.0100150000000000    0.6475600000000000 H
   0.0000000000000000    0.4401700000000000    0.8194100000000000 H
   0.9544300000000000    0.3572100000000000    0.7422600000000000 H
   0.0000000000000000    0.4580250000000000    0.7062200000000000 H
   0.9403200000000000    0.3772300000000000    0.6270600000000000 H
   0.1397400000000000    0.2645900000000000    0.8634100000000000 H
   0.3197200000000000    0.2635400000000000    0.8616100000000000 H
   0.3141600000000000    0.3379900000000000    0.0368700000000000 H
   0.1333200000000000    0.3361300000000000    0.0307900000000000 H
   0.4638200000000000    0.3223350000000000    0.9961300000000000 H
   0.4807500000000000    0.2627150000000000    0.8765900000000000 H
   0.7883100000000000    0.3255250000000000    0.0218900000000000 H
   0.6087900000000001    0.3215300000000000    0.0159000000000000 H
   0.6434800000000001    0.2520650000000000    0.8377300000000000 H
   0.8225400000000000    0.2603100000000000    0.8516000000000000 H
   0.4707800000000000    0.6901400000000000    0.8193000000000000 H
   0.5454100000000000    0.6070150000000000    0.7421700000000000 H
   0.4791900000000000    0.7080050000000000    0.7061700000000000 H
   0.5596300000000000    0.6270550000000000    0.6269900000000000 H
   0.3603900000000000    0.5145850000000000    0.8633400000000000 H
   0.1804200000000000    0.5134750000000000    0.8615400000000000 H
   0.1855800000000000    0.5880400000000000    0.0367100000000000 H
   0.3664400000000000    0.5862150000000000    0.0306500000000000 H
   0.0360200000000000    0.5723400000000000    0.9959700000000000 H
   0.0193600000000000    0.5124800000000000    0.8766500000000000 H
   0.7116100000000000    0.5755550000000000    0.0217900000000000 H
   0.8911500000000000    0.5715400000000000    0.0157900000000000 H
   0.8566300000000000    0.5016950000000000    0.8378900000000000 H
   0.6775300000000000    0.5099650000000000    0.8518200000000000 H
   0.5297900000000000    0.9405000000000000    0.6814900000000000 H
   0.4536800000000000    0.8570700000000000    0.7568000000000000 H
   0.5209200000000000    0.9575700000000000    0.7944300000000000 H
   0.4393900000000000    0.8769100000000001    0.8729600000000000 H
   0.6394400000000000    0.7651000000000000    0.6361000000000000 H
   0.8194300000000000    0.7641750000000000    0.6383500000000000 H
   0.8144800000000000    0.8380550000000000    0.4630800000000000 H
   0.6336400000000000    0.8361000000000001    0.4680000000000000 H
   0.9638800000000000    0.8227000000000000    0.5042300000000000 H
   0.9807399999999999    0.7625649999999999    0.6229800000000000 H
   0.2878100000000000    0.8253400000000000    0.4777700000000000 H
   0.1083700000000000    0.8214250000000001    0.4840000000000000 H
   0.1437300000000000    0.7520100000000001    0.6617800000000000 H
   0.3227600000000000    0.7600899999999999    0.6475700000000000 H
   0.5292200000000000    0.8098700000000000    0.1806200000000000 H
   0.4546000000000000    0.8929950000000000    0.2578100000000000 H
   0.5208100000000000    0.7920050000000001    0.2938100000000000 H
   0.4403800000000000    0.8729549999999999    0.3729900000000000 H
   0.6396100000000000    0.9854200000000000    0.1366500000000000 H
   0.8195900000000000    0.9865300000000000    0.1384400000000000 H
   0.8144200000000000    0.9119650000000000    0.9632800000000000 H
   0.6335700000000000    0.9137950000000000    0.9693300000000000 H
   0.9639799999999999    0.9276700000000000    0.0040100000000000 H
   0.9806500000000000    0.9875250000000000    0.1233400000000000 H
   0.2883900000000000    0.9244550000000000    0.9781900000000000 H
   0.1088500000000000    0.9284700000000000    0.9842000000000000 H
   0.1433800000000000    0.9983150000000001    0.1620900000000000 H
   0.3224800000000000    0.9900400000000000    0.1481600000000000 H
   0.4702300000000000    0.5595100000000000    0.3184900000000000 H
   0.5463200000000000    0.6429400000000001    0.2431000000000000 H
   0.4791000000000000    0.5424350000000000    0.2055600000000000 H
   0.5606100000000001    0.6231000000000000    0.1270200000000000 H
   0.3605600000000000    0.7349050000000000    0.3638700000000000 H
   0.1805700000000000    0.7358300000000000    0.3616400000000000 H
   0.1855300000000000    0.6619550000000000    0.5369000000000000 H
   0.3663600000000000    0.6639100000000000    0.5312900000000000 H
   0.0361200000000000    0.6773050000000000    0.4957600000000000 H
   0.0192600000000000    0.7374450000000000    0.3770100000000000 H
   0.7121900000000000    0.6746650000000000    0.5222000000000000 H
   0.8916400000000000    0.6785850000000000    0.5159800000000000 H
   0.8562700000000000    0.7480050000000000    0.3382100000000000 H
   0.6772400000000000    0.7399249999999999    0.3524200000000000 H
   0.0000000000000000    0.8093950000000000    0.3185700000000000 H
   0.9538900000000000    0.8930400000000001    0.2431800000000000 H
   0.0000000000000000    0.7923600000000000    0.2056200000000000 H
   0.9395900000000000    0.8732249999999999    0.1270000000000000 H
   0.1391000000000000    0.9847399999999999    0.3637800000000000 H
   0.3190900000000000    0.9857199999999999    0.3615700000000000 H
   0.3148800000000000    0.9120250000000000    0.5369699999999999 H
   0.1340100000000000    0.9139600000000000    0.5313600000000001 H
   0.4641100000000000    0.9273150000000000    0.4957000000000000 H
   0.4803900000000000    0.9875600000000000    0.3770800000000000 H
   0.7880900000000000    0.9247350000000000    0.5222200000000000 H
   0.6086100000000000    0.9286749999999999    0.5160100000000000 H
   0.6432900000000000    0.9981050000000000    0.3382500000000000 H
   0.8223900000000000    0.9900000000000000    0.3524300000000000 H
   0.9705100000000000    0.5598400000000000    0.1805800000000000 H
   0.0455700000000000    0.6428000000000000    0.2577300000000000 H
   0.9789900000000000    0.5419800000000000    0.2937600000000000 H
   0.0596800000000000    0.6227800000000000    0.3729200000000000 H
   0.8602700000000000    0.7354200000000000    0.1365700000000000 H
   0.6802900000000000    0.7364700000000000    0.1383700000000000 H
   0.6858400000000000    0.6620200000000001    0.9631200000000000 H
   0.8666800000000000    0.6638750000000000    0.9691900000000000 H
   0.5361800000000000    0.6776750000000000    0.0038600000000000 H
   0.5192500000000000    0.7372950000000000    0.1233900000000000 H
   0.2117000000000000    0.6744850000000000    0.9780000000000000 H
   0.3912100000000000    0.6784800000000000    0.9840800000000000 H
   0.3565200000000000    0.7479450000000000    0.1622500000000000 H
   0.1774600000000000    0.7397000000000000    0.1483300000000000 H
   0.9705900000000000    0.6906150000000000    0.6814200000000000 H
   0.0461100000000000    0.6069700000000000    0.7568000000000000 H
   0.9793400000000000    0.7076500000000000    0.7943700000000000 H
   0.0604100000000000    0.6267850000000000    0.8729900000000000 H
   0.8609100000000000    0.5152700000000000    0.6362100000000001 H
   0.6809200000000000    0.5142900000000000    0.6384200000000000 H
   0.6851200000000000    0.5879799999999999    0.4630200000000000 H
   0.8659900000000000    0.5860450000000000    0.4686200000000000 H
   0.5358900000000000    0.5726900000000000    0.5042400000000000 H
   0.5196200000000000    0.5124500000000000    0.6229100000000000 H
   0.2119100000000000    0.5752750000000000    0.4777600000000000 H
   0.3913900000000000    0.5713350000000000    0.4839800000000000 H
   0.3567200000000000    0.5019100000000000    0.6617400000000000 H
   0.1776200000000000    0.5100150000000000    0.6475600000000000 H
   0.0000000000000000    0.9401700000000000    0.8194100000000000 H
   0.9544300000000000    0.8572100000000000    0.7422600000000000 H
   0.0000000000000000    0.9580250000000000    0.7062200000000000 H
   0.9403200000000000    0.8772300000000000    0.6270600000000000 H
   0.1397400000000000    0.7645900000000000    0.8634100000000000 H
   0.3197200000000000    0.7635400000000000    0.8616100000000000 H
   0.3141600000000000    0.8379900000000000    0.0368700000000000 H
   0.1333200000000000    0.8361300000000000    0.0307900000000000 H
   0.4638200000000000    0.8223350000000000    0.9961300000000000 H
   0.4807500000000000    0.7627150000000000    0.8765900000000000 H
   0.7883100000000000    0.8255250000000001    0.0218900000000000 H
   0.6087900000000001    0.8215300000000000    0.0159000000000000 H
   0.6434800000000001    0.7520650000000000    0.8377300000000000 H
   0.8225400000000000    0.7603100000000000    0.8516000000000000 H
   0.2817000000000000    0.4695650000000000    0.4006600000000000 C
   0.3335600000000000    0.4491750000000000    0.4502000000000000 C
   0.2782300000000000    0.4287250000000000    0.4979200000000000 C
   0.1777800000000000    0.4299550000000000    0.4951500000000000 C
   0.5080900000000000    0.1245150000000000    0.8650900000000000 C
   0.4969500000000000    0.1549750000000000    0.8094500000000000 C
   0.5187000000000000    0.1423750000000000    0.7503400000000000 C
   0.5079900000000001    0.1730150000000000    0.6977000000000000 C
   0.5304000000000000    0.1613350000000000    0.6383100000000000 C
   0.5163200000000000    0.1933600000000000    0.5848500000000000 C
   0.3185200000000000    0.0301950000000000    0.9010500000000000 C
   0.2179900000000000    0.0298750000000000    0.9004900000000000 C
   0.1774000000000000    0.3199600000000000    0.9947200000000000 C
   0.4386300000000000    0.3024450000000000    0.9558400000000000 C
   0.5044300000000000    0.2827900000000000    0.9171500000000000 C
   0.7526100000000000    0.3098950000000000    0.9817300000000000 C
   0.6523900000000000    0.3074600000000000    0.9778200000000000 C
   0.1663900000000000    0.0505050000000000    0.9500800000000000 C
   0.2220000000000000    0.0711750000000000    0.9976100000000000 C
   0.3224400000000000    0.0700150000000000    0.9940000000000000 C
   0.0613000000000000    0.0523900000000000    0.9557400000000000 C
   0.9956100000000000    0.0326400000000000    0.9171400000000000 C
   0.7473500000000000    0.0598450000000000    0.9816800000000000 C
   0.8475700000000000    0.0574050000000000    0.9777600000000000 C
   0.8909000000000000    0.0364500000000000    0.9252200000000000 C
   0.8277200000000000    0.0188200000000000    0.8793400000000000 C
   0.7280500000000000    0.0231600000000000    0.8866300000000000 C
   0.4919900000000000    0.3754800000000000    0.6341800000000000 C
   0.5031500000000000    0.4053550000000000    0.6905400000000000 C
   0.4808700000000000    0.3923650000000000    0.7493400000000000 C
   0.4916700000000000    0.4226800000000000    0.8024500000000000 C
   0.4690300000000000    0.4110450000000000    0.8617500000000000 C
   0.4836100000000000    0.4432000000000000    0.9152100000000000 C
   0.6813600000000000    0.2805900000000000    0.5984000000000000 C
   0.7818900000000000    0.2803750000000000    0.5992900000000000 C
   0.8335399999999999    0.3008350000000000    0.5497700000000000 C
   0.7780000000000000    0.3213150000000000    0.5021000000000000 C
   0.6775700000000000    0.3200600000000000    0.5048700000000000 C
   0.9386200000000000    0.3027100000000000    0.5442000000000000 C
   0.0043600000000000    0.2828250000000000    0.5827000000000000 C
   0.2523000000000000    0.3097450000000000    0.5179000000000000 C
   0.1521100000000000    0.3073850000000000    0.5219800000000000 C
   0.1090500000000000    0.2865850000000000    0.5745500000000000 C
   0.1724400000000000    0.2690200000000000    0.6203200000000000 C
   0.2720600000000000    0.2732600000000000    0.6128700000000000 C
   0.4919200000000000    0.3754950000000000    0.1349000000000000 C
   0.5030500000000000    0.3450350000000000    0.1905300000000000 C
   0.4813100000000000    0.3576350000000000    0.2496400000000000 C
   0.4920100000000000    0.3269950000000000    0.3022800000000000 C
   0.4696100000000000    0.3386750000000000    0.3616800000000000 C
   0.4836900000000000    0.3066450000000000    0.4151400000000000 C
   0.6814800000000000    0.4698100000000000    0.0989400000000000 C
   0.7820200000000000    0.4701300000000000    0.0995000000000000 C
   0.8336100000000000    0.4495050000000000    0.0499000000000000 C
   0.7780100000000000    0.4288350000000000    0.0023700000000000 C
   0.6775700000000000    0.4299950000000000    0.0053900000000000 C
   0.9387000000000000    0.4476200000000000    0.0442400000000000 C
   0.0043900000000000    0.4673650000000000    0.0828500000000000 C
   0.2526500000000000    0.4401600000000000    0.0183000000000000 C
   0.1524300000000000    0.4426050000000000    0.0222300000000000 C
   0.1091100000000000    0.4635550000000000    0.0747700000000000 C
   0.1722900000000000    0.4811900000000000    0.1206000000000000 C
   0.2719500000000000    0.4768500000000000    0.1133500000000000 C
   0.5080200000000000    0.1245300000000000    0.3658100000000000 C
   0.4968600000000000    0.0946550000000000    0.3094000000000000 C
   0.5191400000000000    0.1076450000000000    0.2506400000000000 C
   0.5083299999999999    0.0773300000000000    0.1975300000000000 C
   0.5309800000000000    0.0889600000000000    0.1382300000000000 C
   0.5164000000000000    0.0568100000000000    0.0847700000000000 C
   0.3186400000000000    0.2194150000000000    0.4015100000000000 C
   0.2181200000000000    0.2196350000000000    0.4007000000000000 C
   0.1664600000000000    0.1991750000000000    0.4502000000000000 C
   0.2220000000000000    0.1786950000000000    0.4978800000000000 C
   0.3224400000000000    0.1799450000000000    0.4951100000000000 C
   0.0613800000000000    0.1972950000000000    0.4557100000000000 C
   0.9956400000000000    0.2171850000000000    0.4172000000000000 C
   0.7477000000000000    0.1902650000000000    0.4820800000000000 C
   0.8479000000000000    0.1926200000000000    0.4780100000000000 C
   0.8909600000000000    0.2134250000000000    0.4254400000000000 C
   0.8275600000000000    0.2309900000000000    0.3796700000000000 C
   0.7279400000000000    0.2267500000000000    0.3871100000000000 C
   0.1811800000000000    0.4693150000000000    0.4014600000000000 C
   0.4386600000000000    0.4473300000000000    0.4557200000000000 C
   0.5042200000000000    0.4672600000000000    0.4173200000000000 C
   0.7524300000000000    0.4403350000000000    0.4820900000000000 C
   0.6522100000000000    0.4427050000000000    0.4780300000000000 C
   0.6089400000000000    0.4635100000000000    0.4254700000000000 C
   0.6721600000000000    0.4810800000000000    0.3797000000000000 C
   0.7718300000000000    0.4768300000000000    0.3871300000000000 C
   0.0080600000000000    0.1253500000000000    0.1348000000000000 C
   0.9968399999999999    0.0949400000000000    0.1904600000000000 C
   0.0187100000000000    0.1075050000000000    0.2495700000000000 C
   0.0079100000000000    0.0769050000000000    0.3022000000000000 C
   0.0303600000000000    0.0885550000000000    0.3616200000000000 C
   0.0162000000000000    0.0565900000000000    0.4151100000000000 C
   0.8184800000000000    0.2198100000000000    0.0988500000000000 C
   0.7179400000000000    0.2201000000000000    0.0994200000000000 C
   0.6664600000000001    0.1994800000000000    0.0498000000000000 C
   0.7221700000000000    0.1788650000000000    0.0022400000000000 C
   0.8226000000000000    0.1800500000000000    0.0052600000000000 C
   0.5613700000000000    0.1975650000000000    0.0441400000000000 C
   0.4955800000000000    0.2172200000000000    0.0828300000000000 C
   0.2474000000000000    0.1901100000000000    0.0182500000000000 C
   0.3476100000000000    0.1925500000000000    0.0221000000000000 C
   0.3908800000000000    0.2134000000000000    0.0747700000000000 C
   0.3276600000000000    0.2309200000000000    0.1207400000000000 C
   0.2280100000000000    0.2265950000000000    0.1134500000000000 C
   0.0080700000000000    0.1254800000000000    0.6341599999999999 C
   0.9970200000000000    0.1554000000000000    0.6899999999999999 C
   0.0191300000000000    0.1423400000000000    0.7493200000000000 C
   0.0084000000000000    0.1726850000000000    0.8024200000000000 C
   0.0309300000000000    0.1609950000000000    0.8617400000000000 C
   0.0164300000000000    0.1932050000000000    0.9151600000000000 C
   0.8188299999999999    0.0306950000000000    0.5985300000000000 C
   0.7183000000000000    0.0304450000000000    0.5993300000000000 C
   0.6664500000000000    0.0508350000000000    0.5497600000000000 C
   0.7217700000000000    0.0712800000000000    0.5020600000000000 C
   0.8222200000000000    0.0700500000000000    0.5048300000000000 C
   0.5613400000000000    0.0526800000000000    0.5442600000000000 C
   0.4957900000000000    0.0327500000000000    0.5826000000000000 C
   0.2475800000000000    0.0596700000000000    0.5178900000000000 C
   0.3477900000000000    0.0573050000000000    0.5219000000000000 C
   0.3910600000000000    0.0365000000000000    0.5745200000000000 C
   0.3278400000000000    0.0189350000000000    0.6202900000000000 C
   0.2281800000000000    0.0231800000000000    0.6128600000000000 C
   0.9919400000000000    0.3746600000000000    0.8651799999999999 C
   0.0000000000000000    0.4050650000000000    0.8095200000000000 C
   0.9813000000000000    0.3925000000000000    0.7504200000000000 C
   0.9921000000000000    0.4231050000000000    0.6977600000000000 C
   0.9696399999999999    0.4114550000000000    0.6383600000000000 C
   0.9838100000000000    0.4434150000000000    0.5848700000000000 C
   0.1815200000000000    0.2801950000000000    0.9011300000000000 C
   0.2820600000000000    0.2799100000000000    0.9005700000000000 C
   0.3335500000000000    0.3005250000000000    0.9501800000000000 C
   0.2778300000000000    0.3211400000000000    0.9977000000000000 C
   0.6091299999999999    0.2866100000000000    0.9252000000000000 C
   0.6723400000000000    0.2690900000000000    0.8792500000000000 C
   0.7719900000000000    0.2734150000000000    0.8865300000000000 C
   0.2817000000000000    0.9695650000000000    0.4006600000000000 C
   0.3335600000000000    0.9491750000000000    0.4502000000000000 C
   0.2782300000000000    0.9287250000000000    0.4979200000000000 C
   0.1777800000000000    0.9299550000000000    0.4951500000000000 C
   0.5080900000000000    0.6245150000000000    0.8650900000000000 C
   0.4969500000000000    0.6549750000000000    0.8094500000000000 C
   0.5187000000000000    0.6423750000000000    0.7503400000000000 C
   0.5079900000000001    0.6730150000000000    0.6977000000000000 C
   0.5304000000000000    0.6613350000000000    0.6383100000000000 C
   0.5163200000000000    0.6933600000000000    0.5848500000000000 C
   0.3185200000000000    0.5301950000000000    0.9010500000000000 C
   0.2179900000000000    0.5298750000000000    0.9004900000000000 C
   0.1774000000000000    0.8199600000000000    0.9947200000000000 C
   0.4386300000000000    0.8024450000000001    0.9558400000000000 C
   0.5044300000000000    0.7827900000000000    0.9171500000000000 C
   0.7526100000000000    0.8098950000000000    0.9817300000000000 C
   0.6523900000000000    0.8074600000000001    0.9778200000000000 C
   0.1663900000000000    0.5505050000000000    0.9500800000000000 C
   0.2220000000000000    0.5711750000000000    0.9976100000000000 C
   0.3224400000000000    0.5700149999999999    0.9940000000000000 C
   0.0613000000000000    0.5523900000000000    0.9557400000000000 C
   0.9956100000000000    0.5326400000000000    0.9171400000000000 C
   0.7473500000000000    0.5598450000000000    0.9816800000000000 C
   0.8475700000000000    0.5574050000000000    0.9777600000000000 C
   0.8909000000000000    0.5364500000000000    0.9252200000000000 C
   0.8277200000000000    0.5188199999999999    0.8793400000000000 C
   0.7280500000000000    0.5231600000000000    0.8866300000000000 C
   0.4919900000000000    0.8754800000000000    0.6341800000000000 C
   0.5031500000000000    0.9053550000000000    0.6905400000000000 C
   0.4808700000000000    0.8923650000000001    0.7493400000000000 C
   0.4916700000000000    0.9226799999999999    0.8024500000000000 C
   0.4690300000000000    0.9110450000000000    0.8617500000000000 C
   0.4836100000000000    0.9432000000000000    0.9152100000000000 C
   0.6813600000000000    0.7805900000000000    0.5984000000000000 C
   0.7818900000000000    0.7803750000000000    0.5992900000000000 C
   0.8335399999999999    0.8008350000000000    0.5497700000000000 C
   0.7780000000000000    0.8213150000000000    0.5021000000000000 C
   0.6775700000000000    0.8200600000000000    0.5048700000000000 C
   0.9386200000000000    0.8027100000000000    0.5442000000000000 C
   0.0043600000000000    0.7828250000000000    0.5827000000000000 C
   0.2523000000000000    0.8097449999999999    0.5179000000000000 C
   0.1521100000000000    0.8073850000000000    0.5219800000000000 C
   0.1090500000000000    0.7865850000000000    0.5745500000000000 C
   0.1724400000000000    0.7690200000000000    0.6203200000000000 C
   0.2720600000000000    0.7732600000000001    0.6128700000000000 C
   0.4919200000000000    0.8754950000000000    0.1349000000000000 C
   0.5030500000000000    0.8450350000000000    0.1905300000000000 C
   0.4813100000000000    0.8576349999999999    0.2496400000000000 C
   0.4920100000000000    0.8269949999999999    0.3022800000000000 C
   0.4696100000000000    0.8386750000000001    0.3616800000000000 C
   0.4836900000000000    0.8066450000000001    0.4151400000000000 C
   0.6814800000000000    0.9698100000000001    0.0989400000000000 C
   0.7820200000000000    0.9701299999999999    0.0995000000000000 C
   0.8336100000000000    0.9495050000000000    0.0499000000000000 C
   0.7780100000000000    0.9288350000000001    0.0023700000000000 C
   0.6775700000000000    0.9299950000000000    0.0053900000000000 C
   0.9387000000000000    0.9476200000000000    0.0442400000000000 C
   0.0043900000000000    0.9673650000000000    0.0828500000000000 C
   0.2526500000000000    0.9401600000000000    0.0183000000000000 C
   0.1524300000000000    0.9426050000000000    0.0222300000000000 C
   0.1091100000000000    0.9635549999999999    0.0747700000000000 C
   0.1722900000000000    0.9811900000000000    0.1206000000000000 C
   0.2719500000000000    0.9768500000000000    0.1133500000000000 C