H12 O8
1.0
  26.5954512818283320    0.0000000000000000   -4.2061201975093025
   6.0639115044091589   39.1822167514089870   -1.3603130934822207
   0.0000000000000000    0.0000000000000000   39.7139999999999986
H O
12 8
direct
   0.3696745775280130    0.7510352606938318    0.5632304714447049 H
   0.3159081990761848    0.7144837220683442    0.5774898532625206 H
   0.2758261825229081    0.6934754194737049    0.5867490946822362 H
   0.6463492981264954    0.7227992254732303    0.8492203508616996 H
   0.7227345254421857    0.7138920604772033    0.8321891436764904 H
   0.7604968209474502    0.7172858656401884    0.8303130134025235 H
   0.5824600014092962    0.4512924151775497    0.8186565965004761 H
   0.4896802557520431    0.5107765182496907    0.8704787139013838 H
   0.5347230043792623    0.4847722052795064    0.8417302273297501 H
   0.6872378927156751    0.4557771850048747    0.5753430588282048 H
   0.7987131748911221    0.4909546055477864    0.6349387381387643 H
   0.7394482295292806    0.4757924822814458    0.6089049959390742 H
   0.3350950000000000    0.7508999999999999    0.5672666666666666 O
   0.2868350000000000    0.7143699999999999    0.5808833333333333 O
   0.6608600000000000    0.7408300000000000    0.8625366666666666 O
   0.7345550000000001    0.7285800000000000    0.8430366666666667 O
   0.5649550000000000    0.4545633333333333    0.8383666666666666 O
   0.5113300000000000    0.4891433333333333    0.8680699999999999 O
   0.7231500000000000    0.4577233333333333    0.5795600000000000 O
   0.7873800000000000    0.4783900000000000    0.6145333333333334 O
