Zn72 H853 C1155 O428
1.0
  26.5954512818283320    0.0000000000000000   -4.2061201975093025
   6.0639115044091589   39.1822167514089870   -1.3603130934822207
   0.0000000000000000    0.0000000000000000   39.7139999999999986
Zn H C O
72 853 1155 428
direct
   0.0893850000000000    0.7481566666666666    0.2013966666666667 Zn
   0.3393850000000000    0.4652433333333333    0.9184899999999999 Zn
   0.5893850000000000    0.7481566666666666    0.2013966666666667 Zn
   0.8393850000000000    0.4652433333333333    0.9184899999999999 Zn
   0.0893850000000000    0.4148233333333333    0.2013966666666667 Zn
   0.3393850000000000    0.1319100000000000    0.9184899999999999 Zn
   0.5893850000000000    0.4148233333333333    0.2013966666666667 Zn
   0.8393850000000000    0.1319100000000000    0.9184899999999999 Zn
   0.0893850000000000    0.0814900000000000    0.2013966666666667 Zn
   0.3393850000000000    0.7985766666666666    0.9184899999999999 Zn
   0.5893850000000000    0.0814900000000000    0.2013966666666667 Zn
   0.8393850000000000    0.7985766666666666    0.9184899999999999 Zn
   0.0893850000000000    0.7481566666666666    0.5347299999999999 Zn
   0.3393850000000000    0.4652433333333333    0.2518233333333333 Zn
   0.5893850000000000    0.7481566666666666    0.5347299999999999 Zn
   0.8393850000000000    0.4652433333333333    0.2518233333333333 Zn
   0.0893850000000000    0.4148233333333333    0.5347299999999999 Zn
   0.3393850000000000    0.1319100000000000    0.2518233333333333 Zn
   0.5893850000000000    0.4148233333333333    0.5347299999999999 Zn
   0.8393850000000000    0.1319100000000000    0.2518233333333333 Zn
   0.0893850000000000    0.0814900000000000    0.5347299999999999 Zn
   0.3393850000000000    0.7985766666666666    0.2518233333333333 Zn
   0.5893850000000000    0.0814900000000000    0.5347299999999999 Zn
   0.8393850000000000    0.7985766666666666    0.2518233333333333 Zn
   0.0893850000000000    0.0814900000000000    0.8680633333333333 Zn
   0.3393850000000000    0.7985766666666666    0.5851566666666665 Zn
   0.5893850000000000    0.0814900000000000    0.8680633333333333 Zn
   0.8393850000000000    0.7985766666666666    0.5851566666666665 Zn
   0.0893850000000000    0.4148233333333333    0.8680633333333333 Zn
   0.3393850000000000    0.1319100000000000    0.5851566666666665 Zn
   0.5893850000000000    0.4148233333333333    0.8680633333333333 Zn
   0.8393850000000000    0.1319100000000000    0.5851566666666665 Zn
   0.5893850000000000    0.7481566666666666    0.8680633333333333 Zn
   0.0893850000000000    0.7481566666666666    0.8680633333333333 Zn
   0.3393850000000000    0.4652433333333333    0.5851566666666665 Zn
   0.8393850000000000    0.4652433333333333    0.5851566666666665 Zn
   0.5064500000000000    0.1216900000000000    0.2373866666666667 Zn
   0.5064500000000000    0.4550233333333333    0.2373866666666667 Zn
   0.0064500000000000    0.7883566666666666    0.2373866666666667 Zn
   0.5064500000000000    0.7883566666666666    0.2373866666666667 Zn
   0.5064500000000000    0.1216900000000000    0.5707200000000000 Zn
   0.5064500000000000    0.1216900000000000    0.9040533333333333 Zn
   0.0064500000000000    0.1216900000000000    0.2373866666666667 Zn
   0.0064500000000000    0.4550233333333333    0.2373866666666667 Zn
   0.0064500000000000    0.1216900000000000    0.9040533333333333 Zn
   0.5064500000000000    0.4550233333333333    0.5707200000000000 Zn
   0.5064500000000000    0.4550233333333333    0.9040533333333333 Zn
   0.5064500000000000    0.7883566666666666    0.5707200000000000 Zn
   0.5064500000000000    0.7883566666666666    0.9040533333333333 Zn
   0.0064500000000000    0.1216900000000000    0.5707200000000000 Zn
   0.0064500000000000    0.4550233333333333    0.5707200000000000 Zn
   0.0064500000000000    0.7883566666666666    0.5707200000000000 Zn
   0.0064500000000000    0.4550233333333333    0.9040533333333333 Zn
   0.0064500000000000    0.7883566666666666    0.9040533333333333 Zn
   0.2564600000000000    0.7624766666666667    0.2116400000000000 Zn
   0.2564600000000000    0.7624766666666667    0.5449733333333333 Zn
   0.7564600000000000    0.7624766666666667    0.2116400000000000 Zn
   0.7564600000000000    0.4291433333333333    0.5449733333333333 Zn
   0.7564600000000000    0.0958100000000000    0.5449733333333333 Zn
   0.7564600000000000    0.0958100000000000    0.2116400000000000 Zn
   0.2564600000000000    0.0958100000000000    0.5449733333333333 Zn
   0.7564600000000000    0.7624766666666667    0.5449733333333333 Zn
   0.7564600000000000    0.7624766666666667    0.8783066666666666 Zn
   0.2564600000000000    0.0958100000000000    0.2116400000000000 Zn
   0.2564600000000000    0.4291433333333333    0.2116400000000000 Zn
   0.2564600000000000    0.4291433333333333    0.5449733333333333 Zn
   0.7564600000000000    0.4291433333333333    0.2116400000000000 Zn
   0.2564600000000000    0.4291433333333333    0.8783066666666666 Zn
   0.7564600000000000    0.0958100000000000    0.8783066666666666 Zn
   0.2564600000000000    0.7624766666666667    0.8783066666666666 Zn
   0.2564600000000000    0.0958100000000000    0.8783066666666666 Zn
   0.7564600000000000    0.4291433333333333    0.8783066666666666 Zn
   0.1362950000000000    0.5952233333333332    0.0260333333333333 H
   0.1007450000000000    0.6226499999999999    0.9928933333333333 H
   0.1378200000000000    0.4784100000000000    0.9272733333333333 H
   0.0729550000000000    0.5210633333333333    0.9501266666666666 H
   0.1929150000000000    0.5734466666666667    0.0000000000000000 H
   0.2568400000000000    0.5297600000000000    0.9801633333333333 H
   0.9967600000000000    0.5962566666666667    0.9921199999999999 H
   0.9750150000000000    0.6231566666666666    0.0256433333333333 H
   0.9104200000000000    0.6296533333333333    0.9820633333333333 H
   0.8343800000000000    0.6649533333333333    0.9500899999999999 H
   0.0000000000000000    0.7025433333333333    0.9582566666666666 H
   0.9280150000000000    0.7364700000000000    0.9255266666666666 H
   0.0644450000000000    0.6627900000000000    0.0386466666666667 H
   0.0376900000000000    0.6447766666666666    0.0712200000000000 H
   0.2020900000000000    0.6233433333333334    0.1119266666666667 H
   0.2361550000000000    0.6642133333333333    0.1558466666666667 H
   0.0628650000000000    0.6944366666666666    0.0896633333333333 H
   0.0949200000000000    0.7331799999999999    0.1344566666666667 H
   0.0494800000000000    0.5560633333333334    0.0355166666666667 H
   0.0981850000000000    0.5703700000000000    0.0660700000000000 H
   0.9784200000000001    0.5463033333333334    0.1720000000000000 H
   0.9752149999999999    0.5903633333333334    0.1277600000000000 H
   0.0813150000000000    0.5203466666666666    0.0781266666666667 H
   0.0844400000000000    0.4777833333333333    0.1224000000000000 H
   0.3506950000000000    0.6666666666666666    0.0440366666666667 H
   0.3862900000000000    0.6406466666666666    0.0713666666666667 H
   0.3878250000000000    0.7393833333333333    0.1881966666666667 H
   0.3229600000000000    0.7165699999999999    0.1455500000000000 H
   0.5000000000000000    0.6863966666666667    0.1369200000000000 H
   0.4429300000000000    0.6648933333333333    0.0932433333333333 H
   0.2467600000000000    0.6666666666666666    0.0703466666666667 H
   0.2250000000000000    0.6410333333333333    0.0435000000000000 H
   0.0842950000000000    0.7165999999999999    0.0000000000000000 H
   0.1603100000000000    0.6847033333333333    0.0369166666666667 H
   0.1780400000000000    0.7410666666666667    0.9301333333333333 H
   0.2534700000000000    0.7083666666666666    0.9641066666666667 H
   0.3144500000000000    0.6280233333333334    0.0039166666666667 H
   0.2877250000000000    0.5954033333333333    0.0219000000000000 H
   0.4521200000000000    0.5546166666666666    0.0432633333333333 H
   0.4861800000000000    0.5107166666666667    0.0023766666666667 H
   0.3129350000000000    0.5770433333333334    0.9722599999999999 H
   0.3449850000000000    0.5322600000000000    0.9334966666666666 H
   0.2994850000000000    0.6311800000000000    0.1105300000000000 H
   0.3482000000000000    0.6005900000000000    0.0962500000000000 H
   0.2284800000000000    0.4944499999999999    0.1204766666666666 H
   0.2252750000000000    0.5388100000000000    0.0764033333333333 H
   0.3313550000000000    0.5885666666666667    0.1462600000000000 H
   0.3344750000000000    0.5443066666666667    0.1888400000000000 H
   0.6362950000000001    0.5952233333333332    0.0260333333333333 H
   0.6007450000000000    0.6226499999999999    0.9928933333333333 H
   0.6378200000000001    0.4784100000000000    0.9272733333333333 H
   0.5729550000000000    0.5210633333333333    0.9501266666666666 H
   0.6929149999999999    0.5734466666666667    0.0000000000000000 H
   0.7568400000000000    0.5297600000000000    0.9801633333333333 H
   0.4967600000000000    0.5962566666666667    0.9921199999999999 H
   0.4750150000000000    0.6231566666666666    0.0256433333333333 H
   0.4104200000000000    0.6296533333333333    0.9820633333333333 H
   0.3343800000000000    0.6649533333333333    0.9500899999999999 H
   0.5000000000000000    0.7025433333333333    0.9582566666666666 H
   0.4280150000000000    0.7364700000000000    0.9255266666666666 H
   0.5644450000000000    0.6627900000000000    0.0386466666666667 H
   0.5376900000000000    0.6447766666666666    0.0712200000000000 H
   0.7020900000000000    0.6233433333333334    0.1119266666666667 H
   0.7361550000000000    0.6642133333333333    0.1558466666666667 H
   0.5628649999999999    0.6944366666666666    0.0896633333333333 H
   0.5949200000000000    0.7331799999999999    0.1344566666666667 H
   0.5494800000000000    0.5560633333333334    0.0355166666666667 H
   0.5981850000000000    0.5703700000000000    0.0660700000000000 H
   0.4784200000000000    0.5463033333333334    0.1720000000000000 H
   0.4752150000000000    0.5903633333333334    0.1277600000000000 H
   0.5813150000000000    0.5203466666666666    0.0781266666666667 H
   0.5844400000000000    0.4777833333333333    0.1224000000000000 H
   0.8506950000000000    0.6666666666666666    0.0440366666666667 H
   0.8862900000000000    0.6406466666666666    0.0713666666666667 H
   0.8878250000000000    0.7393833333333333    0.1881966666666667 H
   0.8229600000000000    0.7165699999999999    0.1455500000000000 H
   0.0000000000000000    0.6863966666666667    0.1369200000000000 H
   0.9429300000000000    0.6648933333333333    0.0932433333333333 H
   0.7467600000000000    0.6666666666666666    0.0703466666666667 H
   0.7250000000000000    0.6410333333333333    0.0435000000000000 H
   0.5842950000000000    0.7165999999999999    0.0000000000000000 H
   0.6603100000000000    0.6847033333333333    0.0369166666666667 H
   0.6780400000000000    0.7410666666666667    0.9301333333333333 H
   0.7534700000000000    0.7083666666666666    0.9641066666666667 H
   0.8144500000000000    0.6280233333333334    0.0039166666666667 H
   0.7877250000000000    0.5954033333333333    0.0219000000000000 H
   0.9521200000000001    0.5546166666666666    0.0432633333333333 H
   0.9861800000000001    0.5107166666666667    0.0023766666666667 H
   0.8129350000000000    0.5770433333333334    0.9722599999999999 H
   0.8449850000000000    0.5322600000000000    0.9334966666666666 H
   0.7994850000000000    0.6311800000000000    0.1105300000000000 H
   0.8482000000000001    0.6005900000000000    0.0962500000000000 H
   0.7284800000000000    0.4944499999999999    0.1204766666666666 H
   0.7252750000000000    0.5388100000000000    0.0764033333333333 H
   0.8313550000000001    0.5885666666666667    0.1462600000000000 H
   0.8344750000000001    0.5443066666666667    0.1888400000000000 H
   0.1362950000000000    0.2618900000000000    0.0260333333333333 H
   0.1007450000000000    0.2893166666666667    0.9928933333333333 H
   0.1378200000000000    0.1450766666666667    0.9272733333333333 H
   0.0729550000000000    0.1877300000000000    0.9501266666666666 H
   0.1929150000000000    0.2401133333333333    0.0000000000000000 H
   0.2568400000000000    0.1964266666666667    0.9801633333333333 H
   0.9967600000000000    0.2629233333333333    0.9921199999999999 H
   0.9750150000000000    0.2898233333333333    0.0256433333333333 H
   0.9104200000000000    0.2963200000000000    0.9820633333333333 H
   0.8343800000000000    0.3316200000000000    0.9500899999999999 H
   0.0000000000000000    0.3692100000000000    0.9582566666666666 H
   0.9280150000000000    0.4031366666666666    0.9255266666666666 H
   0.0644450000000000    0.3294566666666666    0.0386466666666667 H
   0.0376900000000000    0.3114433333333333    0.0712200000000000 H
   0.2020900000000000    0.2900100000000000    0.1119266666666667 H
   0.2361550000000000    0.3308800000000000    0.1558466666666667 H
   0.0628650000000000    0.3611033333333333    0.0896633333333333 H
   0.0949200000000000    0.3998466666666666    0.1344566666666667 H
   0.0494800000000000    0.2227300000000000    0.0355166666666667 H
   0.0981850000000000    0.2370366666666667    0.0660700000000000 H
   0.9784200000000001    0.2129700000000000    0.1720000000000000 H
   0.9752149999999999    0.2570300000000000    0.1277600000000000 H
   0.0813150000000000    0.1870133333333333    0.0781266666666667 H
   0.0844400000000000    0.1444500000000000    0.1224000000000000 H
   0.3506950000000000    0.3333333333333333    0.0440366666666667 H
   0.3862900000000000    0.3073133333333333    0.0713666666666667 H
   0.3878250000000000    0.4060500000000000    0.1881966666666667 H
   0.3229600000000000    0.3832366666666667    0.1455500000000000 H
   0.5000000000000000    0.3530633333333333    0.1369200000000000 H
   0.4429300000000000    0.3315600000000000    0.0932433333333333 H
   0.2467600000000000    0.3333333333333333    0.0703466666666667 H
   0.2250000000000000    0.3077000000000000    0.0435000000000000 H
   0.0842950000000000    0.3832666666666666    0.0000000000000000 H
   0.1603100000000000    0.3513700000000000    0.0369166666666667 H
   0.1780400000000000    0.4077333333333333    0.9301333333333333 H
   0.2534700000000000    0.3750333333333333    0.9641066666666667 H
   0.3144500000000000    0.2946900000000000    0.0039166666666667 H
   0.2877250000000000    0.2620700000000000    0.0219000000000000 H
   0.4521200000000000    0.2212833333333333    0.0432633333333333 H
   0.4861800000000000    0.1773833333333333    0.0023766666666667 H
   0.3129350000000000    0.2437100000000000    0.9722599999999999 H
   0.3449850000000000    0.1989266666666666    0.9334966666666666 H
   0.2994850000000000    0.2978466666666666    0.1105300000000000 H
   0.3482000000000000    0.2672566666666666    0.0962500000000000 H
   0.2284800000000000    0.1611166666666667    0.1204766666666666 H
   0.2252750000000000    0.2054766666666667    0.0764033333333333 H
   0.3313550000000000    0.2552333333333333    0.1462600000000000 H
   0.3344750000000000    0.2109733333333333    0.1888400000000000 H
   0.6362950000000001    0.2618900000000000    0.0260333333333333 H
   0.6007450000000000    0.2893166666666667    0.9928933333333333 H
   0.6378200000000001    0.1450766666666667    0.9272733333333333 H
   0.5729550000000000    0.1877300000000000    0.9501266666666666 H
   0.6929149999999999    0.2401133333333333    0.0000000000000000 H
   0.7568400000000000    0.1964266666666667    0.9801633333333333 H
   0.4967600000000000    0.2629233333333333    0.9921199999999999 H
   0.4750150000000000    0.2898233333333333    0.0256433333333333 H
   0.4104200000000000    0.2963200000000000    0.9820633333333333 H
   0.3343800000000000    0.3316200000000000    0.9500899999999999 H
   0.5000000000000000    0.3692100000000000    0.9582566666666666 H
   0.4280150000000000    0.4031366666666666    0.9255266666666666 H
   0.5644450000000000    0.3294566666666666    0.0386466666666667 H
   0.5376900000000000    0.3114433333333333    0.0712200000000000 H
   0.7020900000000000    0.2900100000000000    0.1119266666666667 H
   0.7361550000000000    0.3308800000000000    0.1558466666666667 H
   0.5628649999999999    0.3611033333333333    0.0896633333333333 H
   0.5949200000000000    0.3998466666666666    0.1344566666666667 H
   0.5494800000000000    0.2227300000000000    0.0355166666666667 H
   0.5981850000000000    0.2370366666666667    0.0660700000000000 H
   0.4784200000000000    0.2129700000000000    0.1720000000000000 H
   0.4752150000000000    0.2570300000000000    0.1277600000000000 H
   0.5813150000000000    0.1870133333333333    0.0781266666666667 H
   0.5844400000000000    0.1444500000000000    0.1224000000000000 H
   0.8506950000000000    0.3333333333333333    0.0440366666666667 H
   0.8862900000000000    0.3073133333333333    0.0713666666666667 H
   0.8878250000000000    0.4060500000000000    0.1881966666666667 H
   0.8229600000000000    0.3832366666666667    0.1455500000000000 H
   0.0000000000000000    0.3530633333333333    0.1369200000000000 H
   0.9429300000000000    0.3315600000000000    0.0932433333333333 H
   0.7467600000000000    0.3333333333333333    0.0703466666666667 H
   0.7250000000000000    0.3077000000000000    0.0435000000000000 H
   0.5842950000000000    0.3832666666666666    0.0000000000000000 H
   0.6603100000000000    0.3513700000000000    0.0369166666666667 H
   0.6780400000000000    0.4077333333333333    0.9301333333333333 H
   0.7534700000000000    0.3750333333333333    0.9641066666666667 H
   0.8144500000000000    0.2946900000000000    0.0039166666666667 H
   0.7877250000000000    0.2620700000000000    0.0219000000000000 H
   0.9521200000000001    0.2212833333333333    0.0432633333333333 H
   0.9861800000000001    0.1773833333333333    0.0023766666666667 H
   0.8129350000000000    0.2437100000000000    0.9722599999999999 H
   0.8449850000000000    0.1989266666666666    0.9334966666666666 H
   0.7994850000000000    0.2978466666666666    0.1105300000000000 H
   0.8482000000000001    0.2672566666666666    0.0962500000000000 H
   0.7284800000000000    0.1611166666666667    0.1204766666666666 H
   0.7252750000000000    0.2054766666666667    0.0764033333333333 H
   0.8313550000000001    0.2552333333333333    0.1462600000000000 H
   0.8344750000000001    0.2109733333333333    0.1888400000000000 H
   0.1362950000000000    0.9285566666666666    0.0260333333333333 H
   0.1007450000000000    0.9559833333333333    0.9928933333333333 H
   0.1378200000000000    0.8117433333333333    0.9272733333333333 H
   0.0729550000000000    0.8543966666666666    0.9501266666666666 H
   0.1929150000000000    0.9067799999999999    0.0000000000000000 H
   0.2568400000000000    0.8630933333333333    0.9801633333333333 H
   0.9967600000000000    0.9295899999999999    0.9921199999999999 H
   0.9750150000000000    0.9564900000000000    0.0256433333333333 H
   0.9104200000000000    0.9629866666666667    0.9820633333333333 H
   0.8343800000000000    0.9982866666666665    0.9500899999999999 H
   0.0000000000000000    0.0358766666666667    0.9582566666666666 H
   0.9280150000000000    0.0698033333333333    0.9255266666666666 H
   0.0644450000000000    0.9961233333333332    0.0386466666666667 H
   0.0376900000000000    0.9781099999999999    0.0712200000000000 H
   0.2020900000000000    0.9566766666666666    0.1119266666666667 H
   0.2361550000000000    0.9975466666666666    0.1558466666666667 H
   0.0628650000000000    0.0277700000000000    0.0896633333333333 H
   0.0949200000000000    0.0665133333333333    0.1344566666666667 H
   0.0494800000000000    0.8893966666666666    0.0355166666666667 H
   0.0981850000000000    0.9037033333333333    0.0660700000000000 H
   0.9784200000000001    0.8796366666666666    0.1720000000000000 H
   0.9752149999999999    0.9236966666666666    0.1277600000000000 H
   0.0813150000000000    0.8536800000000000    0.0781266666666667 H
   0.0844400000000000    0.8111166666666666    0.1224000000000000 H
   0.3506950000000000    0.0000000000000000    0.0440366666666667 H
   0.3862900000000000    0.9739800000000000    0.0713666666666667 H
   0.3878250000000000    0.0727166666666667    0.1881966666666667 H
   0.3229600000000000    0.0499033333333333    0.1455500000000000 H
   0.5000000000000000    0.0197300000000000    0.1369200000000000 H
   0.4429300000000000    0.9982266666666666    0.0932433333333333 H
   0.2467600000000000    0.0000000000000000    0.0703466666666667 H
   0.2250000000000000    0.9743666666666666    0.0435000000000000 H
   0.0842950000000000    0.0499333333333333    0.0000000000000000 H
   0.1603100000000000    0.0180366666666667    0.0369166666666667 H
   0.1780400000000000    0.0744000000000000    0.9301333333333333 H
   0.2534700000000000    0.0417000000000000    0.9641066666666667 H
   0.3144500000000000    0.9613566666666666    0.0039166666666667 H
   0.2877250000000000    0.9287366666666665    0.0219000000000000 H
   0.4521200000000000    0.8879500000000000    0.0432633333333333 H
   0.4861800000000000    0.8440500000000000    0.0023766666666667 H
   0.3129350000000000    0.9103766666666666    0.9722599999999999 H
   0.3449850000000000    0.8655933333333332    0.9334966666666666 H
   0.2994850000000000    0.9645133333333333    0.1105300000000000 H
   0.3482000000000000    0.9339233333333332    0.0962500000000000 H
   0.2284800000000000    0.8277833333333333    0.1204766666666666 H
   0.2252750000000000    0.8721433333333333    0.0764033333333333 H
   0.3313550000000000    0.9218999999999999    0.1462600000000000 H
   0.3344750000000000    0.8776400000000000    0.1888400000000000 H
   0.6362950000000001    0.9285566666666666    0.0260333333333333 H
   0.6007450000000000    0.9559833333333333    0.9928933333333333 H
   0.6378200000000001    0.8117433333333333    0.9272733333333333 H
   0.5729550000000000    0.8543966666666666    0.9501266666666666 H
   0.6929149999999999    0.9067799999999999    0.0000000000000000 H
   0.7568400000000000    0.8630933333333333    0.9801633333333333 H
   0.4967600000000000    0.9295899999999999    0.9921199999999999 H
   0.4750150000000000    0.9564900000000000    0.0256433333333333 H
   0.4104200000000000    0.9629866666666667    0.9820633333333333 H
   0.3343800000000000    0.9982866666666665    0.9500899999999999 H
   0.5000000000000000    0.0358766666666667    0.9582566666666666 H
   0.4280150000000000    0.0698033333333333    0.9255266666666666 H
   0.5644450000000000    0.9961233333333332    0.0386466666666667 H
   0.5376900000000000    0.9781099999999999    0.0712200000000000 H
   0.7020900000000000    0.9566766666666666    0.1119266666666667 H
   0.7361550000000000    0.9975466666666666    0.1558466666666667 H
   0.5628649999999999    0.0277700000000000    0.0896633333333333 H
   0.5949200000000000    0.0665133333333333    0.1344566666666667 H
   0.5494800000000000    0.8893966666666666    0.0355166666666667 H
   0.5981850000000000    0.9037033333333333    0.0660700000000000 H
   0.4784200000000000    0.8796366666666666    0.1720000000000000 H
   0.4752150000000000    0.9236966666666666    0.1277600000000000 H
   0.5813150000000000    0.8536800000000000    0.0781266666666667 H
   0.5844400000000000    0.8111166666666666    0.1224000000000000 H
   0.8506950000000000    0.0000000000000000    0.0440366666666667 H
   0.8862900000000000    0.9739800000000000    0.0713666666666667 H
   0.8878250000000000    0.0727166666666667    0.1881966666666667 H
   0.8229600000000000    0.0499033333333333    0.1455500000000000 H
   0.0000000000000000    0.0197300000000000    0.1369200000000000 H
   0.9429300000000000    0.9982266666666666    0.0932433333333333 H
   0.7467600000000000    0.0000000000000000    0.0703466666666667 H
   0.7250000000000000    0.9743666666666666    0.0435000000000000 H
   0.5842950000000000    0.0499333333333333    0.0000000000000000 H
   0.6603100000000000    0.0180366666666667    0.0369166666666667 H
   0.6780400000000000    0.0744000000000000    0.9301333333333333 H
   0.7534700000000000    0.0417000000000000    0.9641066666666667 H
   0.8144500000000000    0.9613566666666666    0.0039166666666667 H
   0.7877250000000000    0.9287366666666665    0.0219000000000000 H
   0.9521200000000001    0.8879500000000000    0.0432633333333333 H
   0.9861800000000001    0.8440500000000000    0.0023766666666667 H
   0.8129350000000000    0.9103766666666666    0.9722599999999999 H
   0.8449850000000000    0.8655933333333332    0.9334966666666666 H
   0.7994850000000000    0.9645133333333333    0.1105300000000000 H
   0.8482000000000001    0.9339233333333332    0.0962500000000000 H
   0.7284800000000000    0.8277833333333333    0.1204766666666666 H
   0.7252750000000000    0.8721433333333333    0.0764033333333333 H
   0.8313550000000001    0.9218999999999999    0.1462600000000000 H
   0.8344750000000001    0.8776400000000000    0.1888400000000000 H
   0.1362950000000000    0.5952233333333332    0.3593666666666667 H
   0.1007450000000000    0.6226499999999999    0.3262266666666667 H
   0.1378200000000000    0.4784100000000000    0.2606066666666667 H
   0.0729550000000000    0.5210633333333333    0.2834600000000000 H
   0.1929150000000000    0.5734466666666667    0.3333333333333333 H
   0.2568400000000000    0.5297600000000000    0.3134966666666666 H
   0.9967600000000000    0.5962566666666667    0.3254533333333333 H
   0.9750150000000000    0.6231566666666666    0.3589766666666667 H
   0.9104200000000000    0.6296533333333333    0.3153966666666667 H
   0.8343800000000000    0.6649533333333333    0.2834233333333333 H
   0.0000000000000000    0.7025433333333333    0.2915900000000000 H
   0.9280150000000000    0.7364700000000000    0.2588600000000000 H
   0.0644450000000000    0.6627900000000000    0.3719800000000000 H
   0.0376900000000000    0.6447766666666666    0.4045533333333333 H
   0.2020900000000000    0.6233433333333334    0.4452600000000000 H
   0.2361550000000000    0.6642133333333333    0.4891799999999999 H
   0.0628650000000000    0.6944366666666666    0.4229966666666666 H
   0.0949200000000000    0.7331799999999999    0.4677900000000000 H
   0.0494800000000000    0.5560633333333334    0.3688500000000000 H
   0.0981850000000000    0.5703700000000000    0.3994033333333333 H
   0.9784200000000001    0.5463033333333334    0.5053333333333333 H
   0.9752149999999999    0.5903633333333334    0.4610933333333333 H
   0.0813150000000000    0.5203466666666666    0.4114600000000000 H
   0.0844400000000000    0.4777833333333333    0.4557333333333333 H
   0.3506950000000000    0.6666666666666666    0.3773700000000000 H
   0.3862900000000000    0.6406466666666666    0.4046999999999999 H
   0.3878250000000000    0.7393833333333333    0.5215300000000000 H
   0.3229600000000000    0.7165699999999999    0.4788833333333333 H
   0.5000000000000000    0.6863966666666667    0.4702533333333333 H
   0.4429300000000000    0.6648933333333333    0.4265766666666666 H
   0.2467600000000000    0.6666666666666666    0.4036800000000000 H
   0.2250000000000000    0.6410333333333333    0.3768333333333333 H
   0.0842950000000000    0.7165999999999999    0.3333333333333333 H
   0.1603100000000000    0.6847033333333333    0.3702500000000000 H
   0.1780400000000000    0.7410666666666667    0.2634666666666666 H
   0.2534700000000000    0.7083666666666666    0.2974400000000000 H
   0.3144500000000000    0.6280233333333334    0.3372500000000000 H
   0.2877250000000000    0.5954033333333333    0.3552333333333333 H
   0.4521200000000000    0.5546166666666666    0.3765966666666666 H
   0.4861800000000000    0.5107166666666667    0.3357100000000000 H
   0.3129350000000000    0.5770433333333334    0.3055933333333333 H
   0.3449850000000000    0.5322600000000000    0.2668300000000000 H
   0.2994850000000000    0.6311800000000000    0.4438633333333333 H
   0.3482000000000000    0.6005900000000000    0.4295833333333333 H
   0.2284800000000000    0.4944499999999999    0.4538099999999999 H
   0.2252750000000000    0.5388100000000000    0.4097366666666666 H
   0.3313550000000000    0.5885666666666667    0.4795933333333333 H
   0.3344750000000000    0.5443066666666667    0.5221733333333334 H
   0.3696745775280130    0.7510352606938318    0.5632304714447049 H
   0.3159081990761848    0.7144837220683442    0.5774898532625206 H
   0.2758261825229081    0.6934754194737049    0.5867490946822362 H
   0.6362950000000001    0.5952233333333332    0.3593666666666667 H
   0.6007450000000000    0.6226499999999999    0.3262266666666667 H
   0.6378200000000001    0.4784100000000000    0.2606066666666667 H
   0.5729550000000000    0.5210633333333333    0.2834600000000000 H
   0.6929149999999999    0.5734466666666667    0.3333333333333333 H
   0.7568400000000000    0.5297600000000000    0.3134966666666666 H
   0.4967600000000000    0.5962566666666667    0.3254533333333333 H
   0.4750150000000000    0.6231566666666666    0.3589766666666667 H
   0.4104200000000000    0.6296533333333333    0.3153966666666667 H
   0.3343800000000000    0.6649533333333333    0.2834233333333333 H
   0.5000000000000000    0.7025433333333333    0.2915900000000000 H
   0.4280150000000000    0.7364700000000000    0.2588600000000000 H
   0.5644450000000000    0.6627900000000000    0.3719800000000000 H
   0.5376900000000000    0.6447766666666666    0.4045533333333333 H
   0.7020900000000000    0.6233433333333334    0.4452600000000000 H
   0.7361550000000000    0.6642133333333333    0.4891799999999999 H
   0.5628649999999999    0.6944366666666666    0.4229966666666666 H
   0.5949200000000000    0.7331799999999999    0.4677900000000000 H
   0.5494800000000000    0.5560633333333334    0.3688500000000000 H
   0.5981850000000000    0.5703700000000000    0.3994033333333333 H
   0.4784200000000000    0.5463033333333334    0.5053333333333333 H
   0.4752150000000000    0.5903633333333334    0.4610933333333333 H
   0.5813150000000000    0.5203466666666666    0.4114600000000000 H
   0.5844400000000000    0.4777833333333333    0.4557333333333333 H
   0.8506950000000000    0.6666666666666666    0.3773700000000000 H