H6 O4
1.0
  32.0048257066137509    0.0000000000000000   18.3456597452715151
   5.2987078076749761   15.0727848365269157    9.1708743771054095
   0.0000000000000000    0.0000000000000000   36.8260000000000005
H O
6 4
direct
   0.7538826123834832    0.8862579810525022    0.9433101450407521 H
   0.8597051230804815    0.8872144115655194    0.9436164431198792 H
   0.8029374228780215    0.8945097918001318    0.9473540263025250 H
   0.7461174994263695    0.1137553025004549    0.0566810728518589 H
   0.6402977044227538    0.1127980246088376    0.0563743577481567 H
   0.6970660048577290    0.1055027617673995    0.0526347088859024 H
   0.7859650000000000    0.8665600000000000    0.9334150000000000 O
   0.8475150000000000    0.8671400000000000    0.9336050000000000 O
   0.7140350000000000    0.1334500000000000    0.0665800000000000 O
   0.6524850000000000    0.1328700000000000    0.0663900000000000 O
