C2 O4
1.0
  13.1719994864101597    0.0000000000000000   -0.0036783162573573
  -0.0598890943069678   13.9478661142352944   -0.0121719246584983
   0.0000000000000000    0.0000000000000000   33.9819999999999993
C O
2 4
direct
   0.4666200000000000    0.9150600000000000    0.1220500000000000 C
   0.4220100000000000    0.0132400000000000    0.1101550000000000 C
   0.4752400000000000    0.8953300000000000    0.1583500000000000 O
   0.3948600000000000    1.0670400000000000    0.1380600000000000 O
   0.4934200000000000    0.8583600000000000    0.0948800000000000 O
   0.4178200000000000    1.0295100000000001    0.0734450000000000 O
