P3 O12
1.0
  38.0912780249606939    0.0000000000000000   10.8045996883339743
   2.3172156948554177   38.0240564329959270   10.8148806652619509
   0.0000000000000000    0.0000000000000000   30.8359999999999985
P O
3 12
direct
   0.0309250000000000    0.0889250000000000    0.4605050000000000 P
   0.0104650000000000    0.4471550000000000    0.8344950000000000 P
   0.9212199999999999    0.0157900000000000    0.9371499999999999 P
   0.0369900000000000    0.1284150000000000    0.4426400000000000 O
   0.0021200000000000    0.0806000000000000    0.4403150000000000 O
   0.0659500000000000    0.0686650000000000    0.4441850000000000 O
   0.0502800000000000    0.4522800000000000    0.8186000000000000 O
   0.0193650000000000    0.0784250000000000    0.5141300000000000 O
   0.0031250000000000    0.4200200000000000    0.8114000000000000 O
   0.9470750000000000    0.0402500000000000    0.9409300000000000 O
   0.9364850000000000    0.0007900000000000    0.8941700000000000 O
   0.8862800000000000    0.0374700000000000    0.9334700000000000 O
   0.9985700000000000    0.4335100000000000    0.8879100000000000 O
   0.9903150000000001    0.4827600000000000    0.8192400000000000 O
   0.9149550000000000    0.9842550000000000    0.9800550000000000 O
