Al384 P381 O1524
1.0
  38.0912780249606939    0.0000000000000000   10.8045996883339743
   2.3172156948554177   38.0240564329959270   10.8148806652619509
   0.0000000000000000    0.0000000000000000   30.8359999999999985
Al P O
384 381 1524
direct
   0.2341300000000000    0.3293850000000000    0.0628550000000000 Al
   0.4841350000000000    0.0793850000000000    0.0628550000000000 Al
   0.4841350000000000    0.3293850000000000    0.0628550000000000 Al
   0.1583900000000000    0.2202050000000000    0.0406900000000000 Al
   0.1583900000000000    0.4702000000000000    0.0406900000000000 Al
   0.4083900000000000    0.2202050000000000    0.0406900000000000 Al
   0.4083900000000000    0.4702000000000000    0.0406900000000000 Al
   0.0083850000000000    0.2009750000000000    0.0835000000000000 Al
   0.0083900000000000    0.4509700000000000    0.0835000000000000 Al
   0.2583900000000000    0.2009750000000000    0.0835000000000000 Al
   0.2583900000000000    0.4509700000000000    0.0835000000000000 Al
   0.1706150000000000    0.0158650000000000    0.1871300000000000 Al
   0.1706150000000000    0.2658650000000000    0.1871300000000000 Al
   0.4206150000000000    0.0158650000000000    0.1871300000000000 Al
   0.4206200000000000    0.2658650000000000    0.1871300000000000 Al
   0.0297950000000000    0.0916150000000000    0.2092900000000000 Al
   0.0298000000000000    0.3416150000000000    0.2092900000000000 Al
   0.2798000000000000    0.0916150000000000    0.2092900000000000 Al
   0.2798000000000000    0.3416150000000000    0.2092900000000000 Al
   0.0490250000000000    0.2416000000000000    0.1665200000000000 Al
   0.0490250000000000    0.4916000000000000    0.1665200000000000 Al
   0.2990250000000000    0.2416000000000000    0.1665200000000000 Al
   0.2990250000000000    0.4916000000000000    0.1665200000000000 Al
   0.0158750000000000    0.1706100000000000    0.4371500000000000 Al
   0.0158750000000000    0.4206100000000000    0.4371500000000000 Al
   0.2658750000000000    0.1706100000000000    0.4371500000000000 Al
   0.2658750000000000    0.4206100000000000    0.4371500000000000 Al
   0.0916150000000000    0.0297950000000000    0.4593150000000000 Al
   0.0916150000000000    0.2797900000000000    0.4593150000000000 Al
   0.3416150000000000    0.0297950000000000    0.4593150000000000 Al
   0.3416200000000000    0.2797900000000000    0.4593150000000000 Al
   0.2416150000000000    0.0490250000000000    0.4165050000000000 Al
   0.2341300000000000    0.0793850000000000    0.0628550000000000 Al
   0.2416200000000000    0.2990250000000000    0.4165050000000000 Al
   0.4916200000000000    0.0490250000000000    0.4165050000000000 Al
   0.4916200000000000    0.2990250000000000    0.4165050000000000 Al
   0.0793900000000000    0.2341300000000000    0.3128700000000000 Al
   0.0793900000000000    0.4841300000000000    0.3128700000000000 Al
   0.3293900000000000    0.2341300000000000    0.3128700000000000 Al
   0.3293900000000000    0.4841300000000000    0.3128700000000000 Al
   0.2202100000000000    0.1583850000000000    0.2907000000000000 Al
   0.2202100000000000    0.4083800000000000    0.2907000000000000 Al
   0.4702100000000000    0.1583850000000000    0.2907000000000000 Al
   0.4702100000000000    0.4083800000000000    0.2907000000000000 Al
   0.2009800000000000    0.0083950000000000    0.3334800000000000 Al
   0.2009850000000000    0.2583950000000000    0.3334800000000000 Al
   0.4509850000000000    0.0083950000000000    0.3334800000000000 Al
   0.4509850000000000    0.2583950000000000    0.3334800000000000 Al
   0.7341299999999999    0.3293850000000000    0.0628550000000000 Al
   0.9841350000000000    0.0793850000000000    0.0628550000000000 Al
   0.9841350000000000    0.3293850000000000    0.0628550000000000 Al
   0.6583900000000000    0.2202050000000000    0.0406900000000000 Al
   0.6583900000000000    0.4702000000000000    0.0406900000000000 Al
   0.9083900000000000    0.2202050000000000    0.0406900000000000 Al
   0.9083900000000000    0.4702000000000000    0.0406900000000000 Al
   0.5083850000000000    0.2009750000000000    0.0835000000000000 Al
   0.5083900000000000    0.4509700000000000    0.0835000000000000 Al
   0.7583900000000000    0.2009750000000000    0.0835000000000000 Al
   0.7583900000000000    0.4509700000000000    0.0835000000000000 Al
   0.6706150000000000    0.0158650000000000    0.1871300000000000 Al
   0.6706150000000000    0.2658650000000000    0.1871300000000000 Al
   0.9206150000000000    0.0158650000000000    0.1871300000000000 Al
   0.9206200000000000    0.2658650000000000    0.1871300000000000 Al
   0.5297950000000000    0.0916150000000000    0.2092900000000000 Al
   0.5298000000000000    0.3416150000000000    0.2092900000000000 Al
   0.7798000000000000    0.0916150000000000    0.2092900000000000 Al
   0.7798000000000000    0.3416150000000000    0.2092900000000000 Al
   0.5490250000000000    0.2416000000000000    0.1665200000000000 Al
   0.5490250000000000    0.4916000000000000    0.1665200000000000 Al
   0.7990250000000000    0.2416000000000000    0.1665200000000000 Al
   0.7990250000000000    0.4916000000000000    0.1665200000000000 Al
   0.5158750000000000    0.1706100000000000    0.4371500000000000 Al
   0.5158750000000000    0.4206100000000000    0.4371500000000000 Al
   0.7658750000000000    0.1706100000000000    0.4371500000000000 Al
   0.7658750000000000    0.4206100000000000    0.4371500000000000 Al
   0.5916150000000000    0.0297950000000000    0.4593150000000000 Al
   0.5916150000000000    0.2797900000000000    0.4593150000000000 Al
   0.8416150000000000    0.0297950000000000    0.4593150000000000 Al
   0.8416200000000000    0.2797900000000000    0.4593150000000000 Al
   0.7416150000000000    0.0490250000000000    0.4165050000000000 Al
   0.7341299999999999    0.0793850000000000    0.0628550000000000 Al
   0.7416199999999999    0.2990250000000000    0.4165050000000000 Al
   0.9916199999999999    0.0490250000000000    0.4165050000000000 Al
   0.9916199999999999    0.2990250000000000    0.4165050000000000 Al
   0.5793900000000000    0.2341300000000000    0.3128700000000000 Al
   0.5793900000000000    0.4841300000000000    0.3128700000000000 Al
   0.8293900000000001    0.2341300000000000    0.3128700000000000 Al
   0.8293900000000001    0.4841300000000000    0.3128700000000000 Al
   0.7202100000000000    0.1583850000000000    0.2907000000000000 Al
   0.7202100000000000    0.4083800000000000    0.2907000000000000 Al
   0.9702100000000000    0.1583850000000000    0.2907000000000000 Al
   0.9702100000000000    0.4083800000000000    0.2907000000000000 Al
   0.7009799999999999    0.0083950000000000    0.3334800000000000 Al
   0.7009850000000000    0.2583950000000000    0.3334800000000000 Al
   0.9509850000000000    0.0083950000000000    0.3334800000000000 Al
   0.9509850000000000    0.2583950000000000    0.3334800000000000 Al
   0.2341300000000000    0.8293850000000000    0.0628550000000000 Al
   0.4841350000000000    0.5793850000000000    0.0628550000000000 Al
   0.4841350000000000    0.8293850000000000    0.0628550000000000 Al
   0.1583900000000000    0.7202050000000000    0.0406900000000000 Al
   0.1583900000000000    0.9702000000000000    0.0406900000000000 Al
   0.4083900000000000    0.7202050000000000    0.0406900000000000 Al
   0.4083900000000000    0.9702000000000000    0.0406900000000000 Al
   0.0083850000000000    0.7009750000000000    0.0835000000000000 Al
   0.0083900000000000    0.9509700000000000    0.0835000000000000 Al
   0.2583900000000000    0.7009750000000000    0.0835000000000000 Al
   0.2583900000000000    0.9509700000000000    0.0835000000000000 Al
   0.1706150000000000    0.5158650000000000    0.1871300000000000 Al
   0.1706150000000000    0.7658650000000000    0.1871300000000000 Al
   0.4206150000000000    0.5158650000000000    0.1871300000000000 Al
   0.4206200000000000    0.7658650000000000    0.1871300000000000 Al
   0.0297950000000000    0.5916150000000000    0.2092900000000000 Al
   0.0298000000000000    0.8416150000000000    0.2092900000000000 Al
   0.2798000000000000    0.5916150000000000    0.2092900000000000 Al
   0.2798000000000000    0.8416150000000000    0.2092900000000000 Al
   0.0490250000000000    0.7416000000000000    0.1665200000000000 Al
   0.0490250000000000    0.9916000000000000    0.1665200000000000 Al
   0.2990250000000000    0.7416000000000000    0.1665200000000000 Al
   0.2990250000000000    0.9916000000000000    0.1665200000000000 Al
   0.0158750000000000    0.6706100000000000    0.4371500000000000 Al
   0.0158750000000000    0.9206099999999999    0.4371500000000000 Al
   0.2658750000000000    0.6706100000000000    0.4371500000000000 Al
   0.2658750000000000    0.9206099999999999    0.4371500000000000 Al
   0.0916150000000000    0.5297950000000000    0.4593150000000000 Al
   0.0916150000000000    0.7797900000000000    0.4593150000000000 Al
   0.3416150000000000    0.5297950000000000    0.4593150000000000 Al
   0.3416200000000000    0.7797900000000000    0.4593150000000000 Al
   0.2416150000000000    0.5490250000000000    0.4165050000000000 Al
   0.2341300000000000    0.5793850000000000    0.0628550000000000 Al
   0.2416200000000000    0.7990250000000000    0.4165050000000000 Al
   0.4916200000000000    0.5490250000000000    0.4165050000000000 Al
   0.4916200000000000    0.7990250000000000    0.4165050000000000 Al
   0.0793900000000000    0.7341299999999999    0.3128700000000000 Al
   0.0793900000000000    0.9841299999999999    0.3128700000000000 Al
   0.3293900000000000    0.7341299999999999    0.3128700000000000 Al
   0.3293900000000000    0.9841299999999999    0.3128700000000000 Al
   0.2202100000000000    0.6583850000000000    0.2907000000000000 Al
   0.2202100000000000    0.9083800000000000    0.2907000000000000 Al
   0.4702100000000000    0.6583850000000000    0.2907000000000000 Al
   0.4702100000000000    0.9083800000000000    0.2907000000000000 Al
   0.2009800000000000    0.5083950000000000    0.3334800000000000 Al
   0.2009850000000000    0.7583949999999999    0.3334800000000000 Al
   0.4509850000000000    0.5083950000000000    0.3334800000000000 Al
   0.4509850000000000    0.7583949999999999    0.3334800000000000 Al
   0.7341299999999999    0.8293850000000000    0.0628550000000000 Al
   0.9841350000000000    0.5793850000000000    0.0628550000000000 Al
   0.9841350000000000    0.8293850000000000    0.0628550000000000 Al
   0.6583900000000000    0.7202050000000000    0.0406900000000000 Al
   0.6583900000000000    0.9702000000000000    0.0406900000000000 Al
   0.9083900000000000    0.7202050000000000    0.0406900000000000 Al
   0.9083900000000000    0.9702000000000000    0.0406900000000000 Al
   0.5083850000000000    0.7009750000000000    0.0835000000000000 Al
   0.5083900000000000    0.9509700000000000    0.0835000000000000 Al
   0.7583900000000000    0.7009750000000000    0.0835000000000000 Al
   0.7583900000000000    0.9509700000000000    0.0835000000000000 Al
   0.6706150000000000    0.5158650000000000    0.1871300000000000 Al
   0.6706150000000000    0.7658650000000000    0.1871300000000000 Al
   0.9206150000000000    0.5158650000000000    0.1871300000000000 Al
   0.9206200000000000    0.7658650000000000    0.1871300000000000 Al
   0.5297950000000000    0.5916150000000000    0.2092900000000000 Al
   0.5298000000000000    0.8416150000000000    0.2092900000000000 Al
   0.7798000000000000    0.5916150000000000    0.2092900000000000 Al
   0.7798000000000000    0.8416150000000000    0.2092900000000000 Al
   0.5490250000000000    0.7416000000000000    0.1665200000000000 Al
   0.5490250000000000    0.9916000000000000    0.1665200000000000 Al
   0.7990250000000000    0.7416000000000000    0.1665200000000000 Al
   0.7990250000000000    0.9916000000000000    0.1665200000000000 Al
   0.5158750000000000    0.6706100000000000    0.4371500000000000 Al
   0.5158750000000000    0.9206099999999999    0.4371500000000000 Al
   0.7658750000000000    0.6706100000000000    0.4371500000000000 Al
   0.7658750000000000    0.9206099999999999    0.4371500000000000 Al
   0.5916150000000000    0.5297950000000000    0.4593150000000000 Al
   0.5916150000000000    0.7797900000000000    0.4593150000000000 Al
   0.8416150000000000    0.5297950000000000    0.4593150000000000 Al
   0.8416200000000000    0.7797900000000000    0.4593150000000000 Al
   0.7416150000000000    0.5490250000000000    0.4165050000000000 Al
   0.7341299999999999    0.5793850000000000    0.0628550000000000 Al
   0.7416199999999999    0.7990250000000000    0.4165050000000000 Al
   0.9916199999999999    0.5490250000000000    0.4165050000000000 Al
   0.9916199999999999    0.7990250000000000    0.4165050000000000 Al
   0.5793900000000000    0.7341299999999999    0.3128700000000000 Al
   0.5793900000000000    0.9841299999999999    0.3128700000000000 Al
   0.8293900000000001    0.7341299999999999    0.3128700000000000 Al
   0.8293900000000001    0.9841299999999999    0.3128700000000000 Al
   0.7202100000000000    0.6583850000000000    0.2907000000000000 Al
   0.7202100000000000    0.9083800000000000    0.2907000000000000 Al
   0.9702100000000000    0.6583850000000000    0.2907000000000000 Al
   0.9702100000000000    0.9083800000000000    0.2907000000000000 Al
   0.7009799999999999    0.5083950000000000    0.3334800000000000 Al
   0.7009850000000000    0.7583949999999999    0.3334800000000000 Al
   0.9509850000000000    0.5083950000000000    0.3334800000000000 Al
   0.9509850000000000    0.7583949999999999    0.3334800000000000 Al
   0.2341300000000000    0.3293850000000000    0.5628550000000000 Al
   0.4841350000000000    0.0793850000000000    0.5628550000000000 Al
   0.4841350000000000    0.3293850000000000    0.5628550000000000 Al
   0.1583900000000000    0.2202050000000000    0.5406900000000000 Al
   0.1583900000000000    0.4702000000000000    0.5406900000000000 Al
   0.4083900000000000    0.2202050000000000    0.5406900000000000 Al
   0.4083900000000000    0.4702000000000000    0.5406900000000000 Al
   0.0083850000000000    0.2009750000000000    0.5835000000000000 Al
   0.0083900000000000    0.4509700000000000    0.5835000000000000 Al
   0.2583900000000000    0.2009750000000000    0.5835000000000000 Al
   0.2583900000000000    0.4509700000000000    0.5835000000000000 Al
   0.1706150000000000    0.0158650000000000    0.6871300000000000 Al
   0.1706150000000000    0.2658650000000000    0.6871300000000000 Al
   0.4206150000000000    0.0158650000000000    0.6871300000000000 Al
   0.4206200000000000    0.2658650000000000    0.6871300000000000 Al
   0.0297950000000000    0.0916150000000000    0.7092900000000000 Al
   0.0298000000000000    0.3416150000000000    0.7092900000000000 Al
   0.2798000000000000    0.0916150000000000    0.7092900000000000 Al
   0.2798000000000000    0.3416150000000000    0.7092900000000000 Al
   0.0490250000000000    0.2416000000000000    0.6665200000000000 Al
   0.0490250000000000    0.4916000000000000    0.6665200000000000 Al
   0.2990250000000000    0.2416000000000000    0.6665200000000000 Al
   0.2990250000000000    0.4916000000000000    0.6665200000000000 Al
   0.0158750000000000    0.1706100000000000    0.9371499999999999 Al
   0.0158750000000000    0.4206100000000000    0.9371499999999999 Al
   0.2658750000000000    0.1706100000000000    0.9371499999999999 Al
   0.2658750000000000    0.4206100000000000    0.9371499999999999 Al
   0.0916150000000000    0.0297950000000000    0.9593149999999999 Al
   0.0916150000000000    0.2797900000000000    0.9593149999999999 Al
   0.3416150000000000    0.0297950000000000    0.9593149999999999 Al
   0.3416200000000000    0.2797900000000000    0.9593149999999999 Al
   0.2416150000000000    0.0490250000000000    0.9165050000000000 Al
   0.2341300000000000    0.0793850000000000    0.5628550000000000 Al
   0.2416200000000000    0.2990250000000000    0.9165050000000000 Al
   0.4916200000000000    0.0490250000000000    0.9165050000000000 Al
   0.4916200000000000    0.2990250000000000    0.9165050000000000 Al
   0.0793900000000000    0.2341300000000000    0.8128700000000000 Al
   0.0793900000000000    0.4841300000000000    0.8128700000000000 Al
   0.3293900000000000    0.2341300000000000    0.8128700000000000 Al
   0.3293900000000000    0.4841300000000000    0.8128700000000000 Al
   0.2202100000000000    0.1583850000000000    0.7907000000000000 Al
   0.2202100000000000    0.4083800000000000    0.7907000000000000 Al
   0.4702100000000000    0.1583850000000000    0.7907000000000000 Al
   0.4702100000000000    0.4083800000000000    0.7907000000000000 Al
   0.2009800000000000    0.0083950000000000    0.8334800000000000 Al
   0.2009850000000000    0.2583950000000000    0.8334800000000000 Al
   0.4509850000000000    0.0083950000000000    0.8334800000000000 Al
   0.4509850000000000    0.2583950000000000    0.8334800000000000 Al
   0.7341299999999999    0.3293850000000000    0.5628550000000000 Al
   0.9841350000000000    0.0793850000000000    0.5628550000000000 Al
   0.9841350000000000    0.3293850000000000    0.5628550000000000 Al
   0.6583900000000000    0.2202050000000000    0.5406900000000000 Al
   0.6583900000000000    0.4702000000000000    0.5406900000000000 Al
   0.9083900000000000    0.2202050000000000    0.5406900000000000 Al
   0.9083900000000000    0.4702000000000000    0.5406900000000000 Al
   0.5083850000000000    0.2009750000000000    0.5835000000000000 Al
   0.5083900000000000    0.4509700000000000    0.5835000000000000 Al
   0.7583900000000000    0.2009750000000000    0.5835000000000000 Al
   0.7583900000000000    0.4509700000000000    0.5835000000000000 Al
   0.6706150000000000    0.0158650000000000    0.6871300000000000 Al
   0.6706150000000000    0.2658650000000000    0.6871300000000000 Al
   0.9206150000000000    0.0158650000000000    0.6871300000000000 Al
   0.9206200000000000    0.2658650000000000    0.6871300000000000 Al
   0.5297950000000000    0.0916150000000000    0.7092900000000000 Al
   0.5298000000000000    0.3416150000000000    0.7092900000000000 Al
   0.7798000000000000    0.0916150000000000    0.7092900000000000 Al
   0.7798000000000000    0.3416150000000000    0.7092900000000000 Al
   0.5490250000000000    0.2416000000000000    0.6665200000000000 Al
   0.5490250000000000    0.4916000000000000    0.6665200000000000 Al
   0.7990250000000000    0.2416000000000000    0.6665200000000000 Al
   0.7990250000000000    0.4916000000000000    0.6665200000000000 Al
   0.5158750000000000    0.1706100000000000    0.9371499999999999 Al
   0.5158750000000000    0.4206100000000000    0.9371499999999999 Al
   0.7658750000000000    0.1706100000000000    0.9371499999999999 Al
   0.7658750000000000    0.4206100000000000    0.9371499999999999 Al
   0.5916150000000000    0.0297950000000000    0.9593149999999999 Al
   0.5916150000000000    0.2797900000000000    0.9593149999999999 Al
   0.8416150000000000    0.0297950000000000    0.9593149999999999 Al
   0.8416200000000000    0.2797900000000000    0.9593149999999999 Al
   0.7416150000000000    0.0490250000000000    0.9165050000000000 Al
   0.7341299999999999    0.0793850000000000    0.5628550000000000 Al
   0.7416199999999999    0.2990250000000000    0.9165050000000000 Al
   0.9916199999999999    0.0490250000000000    0.9165050000000000 Al
   0.9916199999999999    0.2990250000000000    0.9165050000000000 Al
   0.5793900000000000    0.2341300000000000    0.8128700000000000 Al
   0.5793900000000000    0.4841300000000000    0.8128700000000000 Al
   0.8293900000000001    0.2341300000000000    0.8128700000000000 Al
   0.8293900000000001    0.4841300000000000    0.8128700000000000 Al
   0.7202100000000000    0.1583850000000000    0.7907000000000000 Al
   0.7202100000000000    0.4083800000000000    0.7907000000000000 Al
   0.9702100000000000    0.1583850000000000    0.7907000000000000 Al
   0.9702100000000000    0.4083800000000000    0.7907000000000000 Al
   0.7009799999999999    0.0083950000000000    0.8334800000000000 Al
   0.7009850000000000    0.2583950000000000    0.8334800000000000 Al
   0.9509850000000000    0.0083950000000000    0.8334800000000000 Al
   0.9509850000000000    0.2583950000000000    0.8334800000000000 Al
   0.2341300000000000    0.8293850000000000    0.5628550000000000 Al
   0.4841350000000000    0.5793850000000000    0.5628550000000000 Al
   0.4841350000000000    0.8293850000000000    0.5628550000000000 Al
   0.1583900000000000    0.7202050000000000    0.5406900000000000 Al
   0.1583900000000000    0.9702000000000000    0.5406900000000000 Al
   0.4083900000000000    0.7202050000000000    0.5406900000000000 Al
   0.4083900000000000    0.9702000000000000    0.5406900000000000 Al
   0.0083850000000000    0.7009750000000000    0.5835000000000000 Al
   0.0083900000000000    0.9509700000000000    0.5835000000000000 Al
   0.2583900000000000    0.7009750000000000    0.5835000000000000 Al
   0.2583900000000000    0.9509700000000000    0.5835000000000000 Al
   0.1706150000000000    0.5158650000000000    0.6871300000000000 Al
   0.1706150000000000    0.7658650000000000    0.6871300000000000 Al
   0.4206150000000000    0.5158650000000000    0.6871300000000000 Al
   0.4206200000000000    0.7658650000000000    0.6871300000000000 Al
   0.0297950000000000    0.5916150000000000    0.7092900000000000 Al
   0.0298000000000000    0.8416150000000000    0.7092900000000000 Al
   0.2798000000000000    0.5916150000000000    0.7092900000000000 Al
   0.2798000000000000    0.8416150000000000    0.7092900000000000 Al
   0.0490250000000000    0.7416000000000000    0.6665200000000000 Al
   0.0490250000000000    0.9916000000000000    0.6665200000000000 Al
   0.2990250000000000    0.7416000000000000    0.6665200000000000 Al
   0.2990250000000000    0.9916000000000000    0.6665200000000000 Al
   0.0158750000000000    0.6706100000000000    0.9371499999999999 Al
   0.0158750000000000    0.9206099999999999    0.9371499999999999 Al
   0.2658750000000000    0.6706100000000000    0.9371499999999999 Al
   0.2658750000000000    0.9206099999999999    0.9371499999999999 Al
   0.0916150000000000    0.5297950000000000    0.9593149999999999 Al
   0.0916150000000000    0.7797900000000000    0.9593149999999999 Al
   0.3416150000000000    0.5297950000000000    0.9593149999999999 Al
   0.3416200000000000    0.7797900000000000    0.9593149999999999 Al
   0.2416150000000000    0.5490250000000000    0.9165050000000000 Al
   0.2341300000000000    0.5793850000000000    0.5628550000000000 Al
   0.2416200000000000    0.7990250000000000    0.9165050000000000 Al
   0.4916200000000000    0.5490250000000000    0.9165050000000000 Al
   0.4916200000000000    0.7990250000000000    0.9165050000000000 Al
   0.0793900000000000    0.7341299999999999    0.8128700000000000 Al
   0.0793900000000000    0.9841299999999999    0.8128700000000000 Al
   0.3293900000000000    0.7341299999999999    0.8128700000000000 Al
   0.3293900000000000    0.9841299999999999    0.8128700000000000 Al
   0.2202100000000000    0.6583850000000000    0.7907000000000000 Al
   0.2202100000000000    0.9083800000000000    0.7907000000000000 Al
   0.4702100000000000    0.6583850000000000    0.7907000000000000 Al
   0.4702100000000000    0.9083800000000000    0.7907000000000000 Al
   0.2009800000000000    0.5083950000000000    0.8334800000000000 Al
   0.2009850000000000    0.7583949999999999    0.8334800000000000 Al
   0.4509850000000000    0.5083950000000000    0.8334800000000000 Al
   0.4509850000000000    0.7583949999999999    0.8334800000000000 Al
   0.7341299999999999    0.8293850000000000    0.5628550000000000 Al
   0.9841350000000000    0.5793850000000000    0.5628550000000000 Al
   0.9841350000000000    0.8293850000000000    0.5628550000000000 Al
   0.6583900000000000    0.7202050000000000    0.5406900000000000 Al
   0.6583900000000000    0.9702000000000000    0.5406900000000000 Al
   0.9083900000000000    0.7202050000000000    0.5406900000000000 Al
   0.9083900000000000    0.9702000000000000    0.5406900000000000 Al
   0.5083850000000000    0.7009750000000000    0.5835000000000000 Al
   0.5083900000000000    0.9509700000000000    0.5835000000000000 Al
   0.7583900000000000    0.7009750000000000    0.5835000000000000 Al
   0.7583900000000000    0.9509700000000000    0.5835000000000000 Al
   0.6706150000000000    0.5158650000000000    0.6871300000000000 Al
   0.6706150000000000    0.7658650000000000    0.6871300000000000 Al
   0.9206150000000000    0.5158650000000000    0.6871300000000000 Al
   0.9206200000000000    0.7658650000000000    0.6871300000000000 Al
   0.5297950000000000    0.5916150000000000    0.7092900000000000 Al
   0.5298000000000000    0.8416150000000000    0.7092900000000000 Al
   0.7798000000000000    0.5916150000000000    0.7092900000000000 Al
   0.7798000000000000    0.8416150000000000    0.7092900000000000 Al
   0.5490250000000000    0.7416000000000000    0.6665200000000000 Al
   0.5490250000000000    0.9916000000000000    0.6665200000000000 Al
   0.7990250000000000    0.7416000000000000    0.6665200000000000 Al
   0.7990250000000000    0.9916000000000000    0.6665200000000000 Al
   0.5158750000000000    0.6706100000000000    0.9371499999999999 Al
   0.5158750000000000    0.9206099999999999    0.9371499999999999 Al
   0.7658750000000000    0.6706100000000000    0.9371499999999999 Al
   0.7658750000000000    0.9206099999999999    0.9371499999999999 Al
   0.5916150000000000    0.5297950000000000    0.9593149999999999 Al
   0.5916150000000000    0.7797900000000000    0.9593149999999999 Al
   0.8416150000000000    0.5297950000000000    0.9593149999999999 Al
   0.8416200000000000    0.7797900000000000    0.9593149999999999 Al
   0.7416150000000000    0.5490250000000000    0.9165050000000000 Al
   0.7341299999999999    0.5793850000000000    0.5628550000000000 Al
   0.7416199999999999    0.7990250000000000    0.9165050000000000 Al
   0.9916199999999999    0.5490250000000000    0.9165050000000000 Al
   0.9916199999999999    0.7990250000000000    0.9165050000000000 Al
   0.5793900000000000    0.7341299999999999    0.8128700000000000 Al
   0.5793900000000000    0.9841299999999999    0.8128700000000000 Al
   0.8293900000000001    0.7341299999999999    0.8128700000000000 Al
   0.8293900000000001    0.9841299999999999    0.8128700000000000 Al
   0.7202100000000000    0.6583850000000000    0.7907000000000000 Al
   0.7202100000000000    0.9083800000000000    0.7907000000000000 Al
   0.9702100000000000    0.6583850000000000    0.7907000000000000 Al
   0.9702100000000000    0.9083800000000000    0.7907000000000000 Al
   0.7009799999999999    0.5083950000000000    0.8334800000000000 Al
   0.7009850000000000    0.7583949999999999    0.8334800000000000 Al
   0.9509850000000000    0.5083950000000000    0.8334800000000000 Al
   0.9509850000000000    0.7583949999999999    0.8334800000000000 Al
   0.2190800000000000    0.1610750000000000    0.0395000000000000 P
   0.2190800000000000    0.4110700000000000    0.0395000000000000 P
   0.4690800000000000    0.1610750000000000    0.0395000000000000 P
   0.4690800000000000    0.4110700000000000    0.0395000000000000 P
   0.0787850000000000    0.2342100000000000    0.0628550000000000 P
   0.0787850000000000    0.4842050000000000    0.0628550000000000 P
   0.3287850000000000    0.2342100000000000    0.0628550000000000 P
   0.3287850000000000    0.4842050000000000    0.0628550000000000 P
   0.1971550000000000    0.0104700000000000    0.0844750000000000 P
   0.1971550000000000    0.2604650000000000    0.0844750000000000 P
   0.4471550000000000    0.0104700000000000    0.0844750000000000 P
   0.4471550000000000    0.2604650000000000    0.0844750000000000 P
   0.0889100000000000    0.0309200000000000    0.2105250000000000 P
   0.0889100000000000    0.2809150000000000    0.2105250000000000 P
   0.3389100000000000    0.0309200000000000    0.2105250000000000 P
   0.3389100000000000    0.2809150000000000    0.2105250000000000 P
   0.0157850000000000    0.1712150000000000    0.1871650000000000 P
   0.0157850000000000    0.4212100000000000    0.1871650000000000 P
   0.2657850000000000    0.1712150000000000    0.1871650000000000 P
   0.2657850000000000    0.4212100000000000    0.1871650000000000 P
   0.2395400000000000    0.0528400000000000    0.1655050000000000 P
   0.2395400000000000    0.3028400000000000    0.1655050000000000 P
   0.4895400000000000    0.0528400000000000    0.1655050000000000 P
   0.4895450000000000    0.3028400000000000    0.1655050000000000 P
   0.0309300000000000    0.3389250000000000    0.4605050000000000 P
   0.2809300000000000    0.0889250000000000    0.4605050000000000 P
   0.2809300000000000    0.3389250000000000    0.4605050000000000 P
   0.1712200000000000    0.0157900000000000    0.4371500000000000 P
   0.1712200000000000    0.2657900000000000    0.4371500000000000 P
   0.4212200000000000    0.0157900000000000    0.4371500000000000 P
   0.4212250000000000    0.2657900000000000    0.4371500000000000 P
   0.0528500000000000    0.2395300000000000    0.4155300000000000 P
   0.0528500000000000    0.4895300000000000    0.4155300000000000 P
   0.3028500000000000    0.2395300000000000    0.4155300000000000 P
   0.3028550000000000    0.4895300000000000    0.4155300000000000 P
   0.1610950000000000    0.2190800000000000    0.2894800000000000 P
   0.1610950000000000    0.4690750000000000    0.2894800000000000 P
   0.4110950000000000    0.2190800000000000    0.2894800000000000 P
   0.4111000000000000    0.4690750000000000    0.2894800000000000 P
   0.2342200000000000    0.0787850000000000    0.3128350000000000 P
   0.2342200000000000    0.3287850000000000    0.3128350000000000 P
   0.4842200000000000    0.0787850000000000    0.3128350000000000 P
   0.4842250000000000    0.3287850000000000    0.3128350000000000 P
   0.0104650000000000    0.1971550000000000    0.3344950000000000 P
   0.0104650000000000    0.4471550000000000    0.3344950000000000 P
   0.2604650000000000    0.1971550000000000    0.3344950000000000 P
   0.2604650000000000    0.4471550000000000    0.3344950000000000 P