H4 C8 O4
1.0
  23.7489266832831554    0.0000000000000000   -5.2393588722324989
  -3.4675564673962360   11.3575430345761070   -2.6261211630787904
   0.0000000000000000    0.0000000000000000   25.4220000000000006
H C O
4 8 4
direct
   0.5236650000000000    0.0951100000000000    0.4950050000000000 H
   0.5990700000000000    0.0243600000000000    0.5501450000000000 H
   0.6449700000000000    0.3396900000000000    0.6862650000000000 H
   0.5670200000000000    0.4061900000000000    0.6330100000000000 H
   0.4916350000000000    0.2894200000000000    0.5273200000000000 C
   0.5401350000000000    0.2544400000000000    0.5601800000000000 C
   0.5499700000000000    0.1473500000000000    0.5371800000000000 C
   0.5921200000000000    0.1081900000000000    0.5680300000000000 C
   0.6263650000000001    0.1771300000000000    0.6221000000000000 C
   0.6179200000000000    0.2859200000000000    0.6445250000000000 C
   0.5746200000000000    0.3236900000000000    0.6142100000000000 C
   0.6716450000000000    0.1338800000000000    0.6551500000000000 C
   0.4550550000000000    0.2182900000000000    0.4841850000000000 O
   0.4898700000000000    0.3979200000000000    0.5470200000000000 O
   0.6647200000000000    1.0252400000000002    0.6467400000000000 O
   0.7164100000000000    0.2151700000000000    0.6907850000000000 O
