H6 C5 O4
1.0
   8.5146119710936077    0.0000000000000000   -2.0159074834201669
  -4.2371995328661605   10.6364264841961500   -5.2532828559834366
   0.0000000000000000    0.0000000000000000   25.1960000000000015
H C O
6 5 4
direct
   0.9649300000000000    0.4035400000000000    0.0023900000000000 H
   0.8121500000000000    0.2732300000000000    0.0377450000000000 H
   0.9615100000000000    0.1847600000000000    0.9518350000000000 H
   0.7647400000000000    0.1344400000000000    0.8910899999999999 H
   0.7785700000000000    0.3593500000000000    0.9394549999999999 H
   0.6260599999999999    0.2051300000000000    0.9685600000000000 H
   0.7382200000000000    0.2903800000000000    0.0026650000000000 C
   0.6783100000000000    0.3946700000000000    0.0349300000000000 C
   0.9779500000000000    0.2544200000000000    0.8877900000000001 C
   0.8837600000000000    0.2148000000000000    0.9243250000000001 C
   0.8454500000000000    0.3254600000000000    0.9677050000000000 C
   0.5567600000000000    0.4088900000000000    0.0029550000000000 O
   0.7515100000000000    0.4702200000000000    0.0941700000000000 O
  -0.1078099999999999    0.2673600000000000    0.8433600000000000 O
   0.1347800000000000    0.2769700000000000    0.9042550000000000 O
