H4 C4 N2
1.0
  28.8359999999999985    0.0000000000000000    0.0000000000000018
   0.0037447784003015   14.3039984553557140    0.0054923415815579
   0.0000000000000000    0.0000000000000000   30.8719999999999999
H C N
4 4 2
direct
   0.3749950000000000    0.9124200000000000    0.4426500000000000 H
   0.3750000000000000    0.0874800000000000    0.4426700000000000 H
   0.3749600000000000    0.9125400000000000    0.3073000000000000 H
   0.3749850000000000    0.0876000000000000    0.3073150000000000 H
   0.3749950000000000    0.9513100000000000    0.4123400000000000 C
   0.3749950000000000    0.0486500000000000    0.4123000000000000 C
   0.3749750000000000    0.9513700000000000    0.3376350000000000 C
   0.3749850000000000    0.0487100000000000    0.3376350000000000 C
   0.3749800000000000    0.9024300000000000    0.3749850000000000 N
   0.3750050000000000    0.0975900000000000    0.3749900000000000 N
