H1 O1
1.0
  17.5848175478252671    0.0000000000000000   -1.7431100968374016
  -0.4936850450067164    8.7786596678487445   -0.8703273880686958
   0.0000000000000000    0.0000000000000000   27.4059999999999988
H O
1 1
direct
   0.9068124430596450    0.3393409221610434    0.7374347924827337 H
   0.8610100000000001    0.2708600000000000    0.7313300000000000 O
