H4 O2
1.0
   6.7564999495753835    0.0000000000000000   -0.0008254621943239
  -0.0001248826360984    7.1534999945517654   -0.0002497042560310
   0.0000000000000000    0.0000000000000000    7.1864999999999997
H O
4 2
direct
   0.6317262468387081    0.3839415585577856    0.4998878608588043 H
   0.6317240122079908    0.6162346008095363    0.4999023281858323 H
   0.3682225505159332    0.3839433841823074    0.5000604425696498 H
   0.3682271858982505    0.6162364194303911    0.5000749036134716 H
   0.7082400000000000    0.5000900000000000    0.4998300000000000 O
   0.2917100000000000    0.5000900000000000    0.5001400000000000 O
