H1 O1
1.0
   6.7564999495753835    0.0000000000000000   -0.0008254621943239
  -0.0001248826360984    7.1534999945517654   -0.0002497042560310
   0.0000000000000000    0.0000000000000000    7.1864999999999997
H O
1 1
direct
   0.9998749638930881    0.7834315265209513    0.7841718216631665 H
   0.9999000000000000    0.6876100000000001    0.6869900000000000 O
