H6 O4
1.0
  31.9607089076229016    0.0000000000000000   18.3381621249838993
  10.6211271147497808   30.1574532556273951   18.3527008352170249
   0.0000000000000000    0.0000000000000000   36.8659999999999997
H O
6 4
direct
   0.9435457379021540    0.9434949246161451    0.8596514137316672 H
   0.9433072438506255    0.9433165920429756    0.7535768462361632 H
   0.9473123160125870    0.9472942336605358    0.8027195333986439 H
   0.0564733423178496    0.0564987109909930    0.6403357536078814 H
   0.0567041873259348    0.0566779897753194    0.7464083621615192 H
   0.0527017499683296    0.0526992139792078    0.6972689020235119 H
   0.9335500000000000    0.9335050000000000    0.8474100000000000 O
   0.9334150000000000    0.9334050000000000    0.7857000000000001 O
   0.0664700000000000    0.0664900000000000    0.6525750000000000 O
   0.0666000000000000    0.0665900000000000    0.7142850000000001 O
