H4 C8 O4
1.0
  31.9607089076229016    0.0000000000000000   18.3381621249838993
  10.6211271147497808   30.1574532556273951   18.3527008352170249
   0.0000000000000000    0.0000000000000000   36.8659999999999997
H C O
4 8 4
direct
   0.0240250000000000    0.0237650000000000    0.6678300000000000 H
   0.0241050000000000    0.0243100000000000    0.7840199999999999 H
   0.9759900000000000    0.9762250000000000    0.8321550000000000 H
   0.9759150000000000    0.9756850000000000    0.7159650000000000 H
   0.0133050000000000    0.0131650000000000    0.7038250000000000 C
   0.0133550000000000    0.0134700000000000    0.7694950000000000 C
   0.0554950000000000    0.0554750000000000    0.6944750000000000 C
   0.0268300000000000    0.0268100000000000    0.7231500000000000 C
   0.9867100000000000    0.9868250000000001    0.7961600000000000 C
   0.9866650000000000    0.9865250000000000    0.7304900000000000 C
   0.9445200000000000    0.9445150000000000    0.8055099999999999 C
   0.9731850000000000    0.9731799999999999    0.7767999999999999 C
   0.0664700000000000    0.0664900000000000    0.6525750000000000 O
   0.0666000000000000    0.0665900000000000    0.7142850000000001 O
   0.9335500000000000    0.9335050000000000    0.8474100000000000 O
   0.9334150000000000    0.9334050000000000    0.7857000000000001 O
