H6 O4
1.0
  12.5092543814603427    0.0000000000000000    1.7852313071182770
   9.9718480818055024   22.9507985392856639    3.5636032667112145
   0.0000000000000000    0.0000000000000000   23.8099999999999987
H O
6 4
direct
   0.4374121500009527    0.5108160696070116    0.1603425115992383 H
   0.7076432465917194    0.4734314125939095    0.0360556547145335 H
   0.5732399811426833    0.4947575519782383    0.0955287984063500 H
   0.1886793731236039    0.7505188211373004    0.2347679369398997 H
   0.5093162968883804    0.6513640932572257    0.2900137595855262 H
   0.3568982047854273    0.7001242576605363    0.2606891117526363 H
   0.5087200000000000    0.4886650000000000    0.1380800000000000 O
   0.6572200000000000    0.4686700000000000    0.0693100000000000 O
   0.2480800000000000    0.7246450000000000    0.2591400000000000 O
   0.4254600000000000    0.6702600000000000    0.2888200000000000 O
