H14 C13 N2
1.0
  12.5092543814603427    0.0000000000000000    1.7852313071182770
   9.9718480818055024   22.9507985392856639    3.5636032667112145
   0.0000000000000000    0.0000000000000000   23.8099999999999987
H C N
14 13 2
direct
   0.8083100000000000    0.2518300000000000    0.1395000000000000 H
   0.9118500000000000    0.1796900000000000    0.0671900000000000 H
   0.8130300000000000    0.3236350000000000    0.9368900000000000 H
   0.7187700000000000    0.3900800000000000    0.0151000000000000 H
   0.9677600000000000    0.2233400000000000    0.9150400000000000 H
   0.9908900000000000    0.1633900000000000    0.9669000000000000 H
   0.8746699999999999    0.1660900000000000    0.8877500000000000 H
   0.7638800000000000    0.2318150000000000    0.9092100000000000 H
   0.8451700000000000    0.1142500000000000    0.9826400000000000 H
   0.7368600000000000    0.1799100000000000    0.0000000000000000 H
   0.7859100000000000    0.0528200000000000    0.9358700000000000 H
   0.6289100000000000    0.0403350000000000    0.8922600000000001 H
   0.4138100000000000    0.2148650000000000    0.8980500000000000 H
   0.5579600000000000    0.2346600000000000    0.9427400000000000 H
   0.4967000000000000    0.1797700000000000    0.9078200000000000 C
   0.5781400000000000    0.1905650000000000    0.9326100000000001 C
   0.8138400000000000    0.2656600000000000    0.0941300000000000 C
   0.8695200000000000    0.2259850000000000    0.0535200000000000 C
   0.8702800000000001    0.2455250000000000    0.9954600000000000 C
   0.8148600000000000    0.3057350000000000    0.9810000000000000 C
   0.7620700000000000    0.3429400000000000    0.0242700000000000 C
   0.9236700000000000    0.2042150000000000    0.9498500000000000 C
   0.8323700000000001    0.1907100000000000    0.9249900000000000 C
   0.7768600000000000    0.1560450000000000    0.9681100000000000 C
   0.6855599999999999    0.1450600000000000    0.9433000000000000 C
   0.7044100000000000    0.0901150000000000    0.9281600000000000 C
   0.6179000000000000    0.0826350000000000    0.9039700000000001 C
   0.7606000000000001    0.3234100000000000    0.0799700000000000 N
   0.5149500000000000    0.1266850000000000    0.8937600000000000 N
