Cd8 H230 C226 N24 O32
1.0
  12.5092543814603427    0.0000000000000000    1.7852313071182770
   9.9718480818055024   22.9507985392856639    3.5636032667112145
   0.0000000000000000    0.0000000000000000   23.8099999999999987
Cd H C N O
8 230 226 24 32
direct
   0.2219000000000000    0.1822050000000000    0.3498300000000000 Cd
   0.6370700000000000    0.3892050000000000    0.1491000000000000 Cd
   0.2219000000000000    0.6822050000000000    0.3498300000000000 Cd
   0.6370700000000000    0.8892050000000000    0.1491000000000000 Cd
   0.7780600000000000    0.3177900000000000    0.6501400000000001 Cd
   0.3629200000000000    0.1107750000000000    0.8508700000000000 Cd
   0.7780600000000000    0.8177900000000000    0.6501400000000001 Cd
   0.3629200000000000    0.6107750000000000    0.8508700000000000 Cd
   0.9677600000000000    0.2233400000000000    0.9150400000000000 H
   0.9908900000000000    0.1633900000000000    0.9669000000000000 H
   0.8130300000000000    0.3236350000000000    0.9368900000000000 H
   0.9118500000000000    0.1796900000000000    0.0671900000000000 H
   0.7187700000000000    0.3900800000000000    0.0151000000000000 H
   0.8083100000000000    0.2518300000000000    0.1395000000000000 H
   0.8746699999999999    0.1660900000000000    0.8877500000000000 H
   0.7638800000000000    0.2318150000000000    0.9092100000000000 H
   0.7368600000000000    0.1799100000000000    0.0000000000000000 H
   0.8451700000000000    0.1142500000000000    0.9826400000000000 H
   0.7859100000000000    0.0528200000000000    0.9358700000000000 H
   0.5579600000000000    0.2346600000000000    0.9427400000000000 H
   0.4138100000000000    0.2148650000000000    0.8980500000000000 H
   0.6289100000000000    0.0403350000000000    0.8922600000000001 H
   0.4374121500009527    0.5108160696070116    0.1603425115992383 H
   0.7076432465917194    0.4734314125939095    0.0360556547145335 H
   0.5732399811426833    0.4947575519782383    0.0955287984063500 H
   0.3129800000000000    0.4164000000000000    0.2354600000000000 H
   0.2639300000000000    0.3997650000000000    0.3058700000000000 H
   0.3827200000000000    0.4923000000000000    0.2266000000000000 H
   0.0887200000000000    0.5034600000000000    0.3493000000000000 H
   0.0882300000000000    0.5958750000000000    0.3755500000000000 H
   0.3679600000000000    0.5853150000000000    0.2571600000000000 H
   0.0557200000000000    0.4516200000000000    0.2843100000000000 H
   0.1003500000000000    0.4720100000000000    0.2142500000000000 H
   0.1662200000000000    0.3444050000000000    0.2655000000000000 H
   0.2018100000000000    0.3673050000000000    0.1949000000000000 H
   0.0161400000000000    0.3086800000000000    0.2727000000000000 H
   0.9933900000000000    0.4563800000000000    0.1510500000000000 H
   0.8093399999999999    0.4563550000000000    0.1242100000000000 H
   0.8308500000000000    0.3158050000000000    0.2416200000000000 H
   0.5536100000000000    0.0159050000000000    0.5837300000000000 H
   0.6734100000000000    0.0046800000000000    0.5318000000000001 H
   0.6405000000000000    0.0440550000000000    0.4317100000000000 H
   0.3527900000000000    0.0937500000000000    0.5621699999999999 H
   0.2198400000000000    0.1412400000000000    0.4840000000000000 H
   0.4961600000000000    0.0961300000000000    0.3594300000000000 H
   0.6678600000000000    0.0624050000000000    0.6113700000000000 H
   0.5362900000000000    0.1178250000000000    0.5900900000000000 H
   0.7713800000000000    0.0776250000000000    0.5165100000000000 H
   0.6399300000000000    0.1319000000000000    0.4933000000000000 H
   0.8944600000000000    0.1069600000000000    0.5634000000000000 H
   0.5303900000000000    0.2207650000000000    0.5576100000000001 H
   0.5700600000000000    0.2924150000000000    0.6029600000000001 H
   0.9194200000000000    0.1849950000000000    0.6078300000000000 H
   0.8323800000000000    0.2925050000000000    0.4246100000000000 H
   0.8594000000000001    0.2299600000000000    0.4748800000000000 H
   0.4874700000000000    0.3302200000000000    0.3270800000000000 H
   0.4883700000000000    0.2744500000000000    0.2894100000000000 H
   0.6891900000000000    0.3123550000000000    0.3627200000000000 H
   0.6079400000000000    0.1762450000000000    0.3148700000000000 H
   0.8790200000000000    0.1347650000000000    0.4262500000000000 H
   0.7626700000000000    0.1030000000000000    0.3726900000000000 H
   0.4169600000000000    0.0838100000000000    0.0741200000000000 H
   0.5422200000000000    0.0702800000000000    0.0239500000000000 H
   0.3420300000000000    0.2562900000000000    0.1719700000000000 H
   0.4537500000000000    0.2554200000000000    0.2090000000000000 H
   0.3771800000000000    0.1555650000000000    0.1359900000000000 H
   0.6498000000000000    0.1954750000000000    0.1844800000000000 H
   0.7324800000000000    0.0602550000000000    0.0727300000000000 H
   0.7962700000000000    0.1181050000000000    0.1265900000000000 H
   0.9677600000000000    0.7233400000000000    0.9150400000000000 H
   0.9908900000000000    0.6633900000000000    0.9669000000000000 H
   0.8130300000000000    0.8236350000000000    0.9368900000000000 H
   0.9118500000000000    0.6796900000000000    0.0671900000000000 H
   0.7187700000000000    0.8900800000000000    0.0151000000000000 H
   0.8083100000000000    0.7518300000000000    0.1395000000000000 H
   0.8746699999999999    0.6660900000000000    0.8877500000000000 H
   0.7638800000000000    0.7318150000000000    0.9092100000000000 H
   0.7368600000000000    0.6799100000000000    0.0000000000000000 H
   0.8451700000000000    0.6142500000000000    0.9826400000000000 H
   0.7859100000000000    0.5528200000000000    0.9358700000000000 H
   0.5579600000000000    0.7346600000000000    0.9427400000000000 H
   0.4138100000000000    0.7148650000000000    0.8980500000000000 H
   0.6289100000000000    0.5403350000000000    0.8922600000000001 H
   0.3129800000000000    0.9164000000000000    0.2354600000000000 H
   0.2639300000000000    0.8997649999999999    0.3058700000000000 H
   0.3827200000000000    0.9923000000000000    0.2266000000000000 H
   0.0887200000000000    0.0034600000000000    0.3493000000000000 H
   0.0882300000000000    0.0958750000000000    0.3755500000000000 H
   0.3679600000000000    0.0853150000000000    0.2571600000000000 H
   0.0557200000000000    0.9516200000000000    0.2843100000000000 H
   0.1003500000000000    0.9720100000000000    0.2142500000000000 H
   0.1662200000000000    0.8444050000000001    0.2655000000000000 H
   0.2018100000000000    0.8673050000000000    0.1949000000000000 H
   0.0161400000000000    0.8086800000000001    0.2727000000000000 H
   0.9933900000000000    0.9563800000000000    0.1510500000000000 H
   0.8093399999999999    0.9563550000000001    0.1242100000000000 H
   0.8308500000000000    0.8158050000000000    0.2416200000000000 H
   0.5536100000000000    0.5159049999999999    0.5837300000000000 H
   0.6734100000000000    0.5046800000000000    0.5318000000000001 H
   0.6405000000000000    0.5440550000000000    0.4317100000000000 H
   0.3527900000000000    0.5937500000000000    0.5621699999999999 H
   0.2198400000000000    0.6412400000000000    0.4840000000000000 H
   0.4961600000000000    0.5961300000000000    0.3594300000000000 H
   0.6678600000000000    0.5624050000000000    0.6113700000000000 H
   0.5362900000000000    0.6178250000000000    0.5900900000000000 H
   0.7713800000000000    0.5776250000000001    0.5165100000000000 H
   0.6399300000000000    0.6319000000000000    0.4933000000000000 H
   0.8944600000000000    0.6069599999999999    0.5634000000000000 H
   0.5303900000000000    0.7207650000000000    0.5576100000000001 H
   0.5700600000000000    0.7924150000000000    0.6029600000000001 H
   0.9194200000000000    0.6849950000000000    0.6078300000000000 H
   0.1886793731236039    0.7505188211373004    0.2347679369398997 H
   0.5093162968883804    0.6513640932572257    0.2900137595855262 H
   0.3568982047854273    0.7001242576605363    0.2606891117526363 H
   0.8323800000000000    0.7925050000000000    0.4246100000000000 H
   0.8594000000000001    0.7299599999999999    0.4748800000000000 H
   0.4874700000000000    0.8302200000000000    0.3270800000000000 H
   0.4883700000000000    0.7744500000000001    0.2894100000000000 H
   0.6891900000000000    0.8123549999999999    0.3627200000000000 H
   0.6079400000000000    0.6762450000000000    0.3148700000000000 H
   0.8790200000000000    0.6347650000000000    0.4262500000000000 H
   0.7626700000000000    0.6030000000000000    0.3726900000000000 H
   0.6869900000000000    0.5835800000000000    0.7645100000000000 H
   0.7360300000000000    0.6002200000000000    0.6941000000000001 H
   0.6172500000000000    0.5076850000000001    0.7733100000000001 H
   0.9112700000000000    0.4965200000000000    0.6506000000000000 H
   0.9117499999999999    0.4041100000000000    0.6244200000000000 H
   0.6320100000000000    0.4146750000000000    0.7428000000000000 H
   0.8996400000000000    0.5279800000000000    0.7857100000000000 H
   0.9442400000000000    0.5483750000000001    0.7156500000000000 H
   0.8337400000000000    0.6555900000000000    0.7344700000000000 H
   0.7981700000000000    0.6326800000000000    0.8050700000000000 H
   0.9838400000000000    0.6913050000000001    0.7271800000000000 H
   0.0065600000000000    0.5436150000000000    0.8489200000000000 H
   0.1906200000000000    0.5436250000000000    0.8757600000000000 H
   0.1691600000000000    0.6841650000000000    0.7583299999999999 H
   0.6869900000000000    0.0835800000000000    0.7645100000000000 H
   0.7360300000000000    0.1002200000000000    0.6941000000000001 H
   0.6172500000000000    0.0076850000000000    0.7733100000000001 H
   0.9112700000000000    0.9965200000000001    0.6506000000000000 H
   0.9117499999999999    0.9041100000000000    0.6244200000000000 H
   0.6320100000000000    0.9146750000000000    0.7428000000000000 H
   0.8996400000000000    0.0279800000000000    0.7857100000000000 H
   0.9442400000000000    0.0483750000000000    0.7156500000000000 H
   0.8337400000000000    0.1555900000000000    0.7344700000000000 H
   0.7981700000000000    0.1326800000000000    0.8050700000000000 H
   0.9838400000000000    0.1913050000000000    0.7271800000000000 H
   0.0065600000000000    0.0436150000000000    0.8489200000000000 H
   0.1906200000000000    0.0436250000000000    0.8757600000000000 H
   0.1691600000000000    0.1841650000000000    0.7583299999999999 H
   0.0322000000000000    0.2766450000000000    0.0849100000000000 H
   0.0090800000000000    0.3365950000000000    0.0330300000000000 H
   0.0881200000000000    0.3202950000000000    0.9327600000000000 H
   0.1869400000000000    0.1763500000000000    0.0630700000000000 H
   0.2812000000000000    0.1099050000000000    0.9848000000000000 H
   0.1916600000000000    0.2481500000000000    0.8603700000000000 H
   0.1252900000000000    0.3339000000000000    0.1122100000000000 H
   0.2360800000000000    0.2681700000000000    0.0907500000000000 H
   0.2631200000000000    0.3200700000000000    0.9938500000000000 H
   0.1548000000000000    0.3857350000000000    0.0173200000000000 H
   0.2140600000000000    0.4471600000000000    0.0640900000000000 H
   0.4420100000000000    0.2653250000000000    0.0572200000000000 H
   0.5861600000000000    0.2851150000000000    0.1019200000000000 H
   0.3710600000000000    0.4596450000000000    0.1077000000000000 H
   0.4464000000000000    0.4840650000000000    0.4162000000000000 H
   0.3265900000000000    0.4953000000000000    0.4681500000000000 H
   0.3594800000000000    0.4559200000000000    0.5682500000000000 H
   0.6472100000000000    0.4062250000000000    0.4378000000000000 H
   0.7801500000000000    0.3587350000000000    0.5159000000000000 H
   0.5038100000000000    0.4038500000000000    0.6405300000000000 H
   0.3321500000000000    0.4375650000000000    0.3885900000000000 H
   0.4637100000000000    0.3821450000000000    0.4098800000000000 H
   0.3600400000000000    0.3680900000000000    0.5066400000000000 H
   0.2286000000000000    0.4223650000000000    0.4834400000000000 H
   0.1055300000000000    0.3930200000000000    0.4365500000000000 H
   0.4695900000000000    0.2792200000000000    0.4423400000000000 H
   0.4299200000000000    0.2075700000000000    0.3900000000000000 H
   0.0805600000000000    0.3149850000000000    0.3921400000000000 H
   0.5830100000000000    0.4161650000000000    0.9258400000000000 H
   0.4577500000000000    0.4297000000000000    0.9760100000000000 H
   0.6579500000000000    0.2436900000000000    0.8280000000000000 H
   0.5462300000000000    0.2445500000000000    0.7901700000000000 H
   0.6228000000000000    0.3444100000000000    0.8639800000000000 H
   0.3501800000000000    0.3045000000000000    0.8154800000000000 H
   0.2674900000000000    0.4397250000000000    0.9272300000000000 H
   0.2037100000000000    0.3818750000000000    0.8733600000000000 H
   0.1675400000000000    0.2074900000000000    0.5753800000000000 H
   0.1405800000000000    0.2700200000000000    0.5250899999999999 H
   0.5125100000000000    0.1697600000000000    0.6728800000000000 H
   0.5116100000000000    0.2255250000000000    0.7105600000000000 H
   0.3107800000000000    0.1876350000000000    0.6372400000000000 H
   0.3920400000000000    0.3237350000000000    0.6851000000000000 H
   0.1209600000000000    0.3652250000000000    0.5737200000000000 H
   0.2373200000000000    0.3969850000000000    0.6272900000000000 H
   0.0322000000000000    0.7766450000000000    0.0849100000000000 H
   0.0090800000000000    0.8365950000000000    0.0330300000000000 H
   0.0881200000000000    0.8202950000000000    0.9327600000000000 H
   0.1869400000000000    0.6763500000000000    0.0630700000000000 H
   0.2812000000000000    0.6099050000000000    0.9848000000000000 H
   0.1916600000000000    0.7481500000000000    0.8603700000000000 H
   0.1252900000000000    0.8339000000000000    0.1122100000000000 H
   0.2360800000000000    0.7681700000000000    0.0907500000000000 H
   0.2631200000000000    0.8200700000000001    0.9938500000000000 H
   0.1548000000000000    0.8857349999999999    0.0173200000000000 H
   0.2140600000000000    0.9471600000000000    0.0640900000000000 H
   0.4420100000000000    0.7653250000000000    0.0572200000000000 H
   0.5861600000000000    0.7851150000000000    0.1019200000000000 H
   0.3710600000000000    0.9596450000000001    0.1077000000000000 H
   0.4464000000000000    0.9840650000000000    0.4162000000000000 H
   0.3265900000000000    0.9953000000000001    0.4681500000000000 H
   0.3594800000000000    0.9559200000000000    0.5682500000000000 H
   0.6472100000000000    0.9062250000000001    0.4378000000000000 H
   0.7801500000000000    0.8587350000000000    0.5159000000000000 H
   0.5038100000000000    0.9038500000000000    0.6405300000000000 H
   0.3321500000000000    0.9375650000000000    0.3885900000000000 H
   0.4637100000000000    0.8821450000000000    0.4098800000000000 H
   0.3600400000000000    0.8680900000000000    0.5066400000000000 H
   0.2286000000000000    0.9223650000000000    0.4834400000000000 H
   0.1055300000000000    0.8930199999999999    0.4365500000000000 H
   0.4695900000000000    0.7792200000000000    0.4423400000000000 H
   0.4299200000000000    0.7075700000000000    0.3900000000000000 H
   0.0805600000000000    0.8149850000000001    0.3921400000000000 H
   0.5830100000000000    0.9161650000000000    0.9258400000000000 H
   0.4577500000000000    0.9297000000000000    0.9760100000000000 H
   0.6579500000000000    0.7436900000000000    0.8280000000000000 H
   0.5462300000000000    0.7445500000000000    0.7901700000000000 H
   0.6228000000000000    0.8444100000000000    0.8639800000000000 H
   0.3501800000000000    0.8045000000000000    0.8154800000000000 H
   0.2674900000000000    0.9397249999999999    0.9272300000000000 H
   0.2037100000000000    0.8818750000000000    0.8733600000000000 H
   0.1675400000000000    0.7074900000000000    0.5753800000000000 H
   0.1405800000000000    0.7700199999999999    0.5250899999999999 H
   0.5125100000000000    0.6697600000000000    0.6728800000000000 H
   0.5116100000000000    0.7255250000000000    0.7105600000000000 H
   0.3107800000000000    0.6876350000000000    0.6372400000000000 H
   0.3920400000000000    0.8237350000000000    0.6851000000000000 H
   0.1209600000000000    0.8652250000000000    0.5737200000000000 H
   0.2373200000000000    0.8969849999999999    0.6272900000000000 H
   0.9236700000000000    0.2042150000000000    0.9498500000000000 C
   0.8148600000000000    0.3057350000000000    0.9810000000000000 C
   0.8695200000000000    0.2259850000000000    0.0535200000000000 C
   0.7620700000000000    0.3429400000000000    0.0242700000000000 C
   0.8138400000000000    0.2656600000000000    0.0941300000000000 C
   0.8702800000000001    0.2455250000000000    0.9954600000000000 C
   0.8323700000000001    0.1907100000000000    0.9249900000000000 C
   0.7768600000000000    0.1560450000000000    0.9681100000000000 C
   0.7044100000000000    0.0901150000000000    0.9281600000000000 C
   0.5781400000000000    0.1905650000000000    0.9326100000000001 C
   0.4967000000000000    0.1797700000000000    0.9078200000000000 C
   0.6179000000000000    0.0826350000000000    0.9039700000000001 C
   0.6855599999999999    0.1450600000000000    0.9433000000000000 C
   0.2411500000000000    0.4327050000000000    0.2689000000000000 C
   0.3148300000000000    0.5136250000000000    0.2595300000000000 C
   0.1526700000000000    0.5198900000000000    0.3275800000000000 C
   0.1510200000000000    0.5715050000000000    0.3424200000000000 C
   0.3072900000000000    0.5657550000000000    0.2765000000000000 C
   0.2360300000000000    0.4893400000000000    0.2852700000000000 C
   0.1260800000000000    0.4375200000000000    0.2496600000000000 C
   0.1349900000000000    0.3797350000000000    0.2314000000000000 C
   0.9736200000000000    0.3426800000000000    0.2399400000000000 C
   0.9608500000000000    0.4241700000000000    0.1724800000000000 C
   0.8580000000000000    0.4248450000000000    0.1572700000000000 C
   0.8697600000000000    0.3463150000000000    0.2226000000000000 C
   0.0219300000000000    0.3823400000000000    0.2146700000000000 C
   0.5916900000000000    0.0381500000000000    0.5490400000000000 C
   0.5479400000000000    0.0653550000000000    0.4454500000000000 C
   0.3885300000000000    0.0928450000000000    0.5176500000000001 C
   0.3140900000000000    0.1194450000000000    0.4748500000000000 C
   0.4685500000000000    0.0933700000000000    0.4048900000000000 C
   0.5089399999999999    0.0649900000000000    0.5034999999999999 C
   0.6185600000000000    0.0836850000000000    0.5741800000000000 C
   0.6877799999999999    0.1116700000000000    0.5312500000000000 C
   0.8198000000000000    0.1475900000000000    0.5714900000000001 C
   0.6186800000000000    0.2106300000000000    0.5676400000000000 C
   0.6403000000000000    0.2511050000000000    0.5928200000000000 C
   0.8347599999999999    0.1905950000000000    0.5961200000000000 C
   0.7097800000000000    0.1570950000000000    0.5564300000000000 C
   0.5893800000000000    0.3210750000000000    0.2460000000000000 C
   0.9929500000000000    0.2193900000000000    0.4053200000000000 C
   0.8647500000000000    0.2447750000000000    0.4293200000000000 C
   0.5436100000000000    0.2944750000000000    0.3012800000000000 C
   0.7050400000000000    0.2662250000000000    0.3652400000000000 C
   0.7918900000000000    0.2257550000000000    0.3980700000000000 C
   0.6597000000000000    0.1899750000000000    0.3379800000000000 C
   0.8115599999999999    0.1666400000000000    0.4006900000000000 C
   0.7462299999999999    0.1491050000000000    0.3706900000000000 C
   0.6379600000000000    0.2492150000000000    0.3352400000000000 C
   0.3596300000000000    0.2052950000000000    0.2526900000000000 C
   0.5632400000000000    0.0035400000000000    0.0934800000000000 C
   0.5124500000000000    0.0676250000000000    0.0694800000000000 C
   0.4133200000000000    0.2280250000000000    0.1970000000000000 C
   0.4695200000000000    0.1474700000000000    0.1336200000000000 C
   0.5504599999999999    0.1040000000000000    0.1008100000000000 C
   0.6222700000000000    0.1697450000000000    0.1612100000000000 C
   0.6687800000000000    0.0939900000000000    0.0983200000000000 C
   0.7039800000000001    0.1264750000000000    0.1284800000000000 C
   0.5036900000000000    0.1808050000000000    0.1638100000000000 C
   0.9236700000000000    0.7042150000000000    0.9498500000000000 C
   0.8148600000000000    0.8057350000000000    0.9810000000000000 C
   0.8695200000000000    0.7259850000000000    0.0535200000000000 C
   0.7620700000000000    0.8429400000000000    0.0242700000000000 C
   0.8138400000000000    0.7656600000000000    0.0941300000000000 C
   0.8702800000000001    0.7455250000000000    0.9954600000000000 C
   0.8323700000000001    0.6907099999999999    0.9249900000000000 C
   0.7768600000000000    0.6560450000000000    0.9681100000000000 C
   0.7044100000000000    0.5901149999999999    0.9281600000000000 C
   0.5781400000000000    0.6905650000000000    0.9326100000000001 C
   0.4967000000000000    0.6797700000000000    0.9078200000000000 C
   0.6179000000000000    0.5826350000000000    0.9039700000000001 C
   0.6855599999999999    0.6450600000000000    0.9433000000000000 C
   0.2411500000000000    0.9327050000000000    0.2689000000000000 C
   0.3148300000000000    0.0136250000000000    0.2595300000000000 C
   0.1526700000000000    0.0198900000000000    0.3275800000000000 C
   0.1510200000000000    0.0715050000000000    0.3424200000000000 C
   0.3072900000000000    0.0657550000000000    0.2765000000000000 C
   0.2360300000000000    0.9893400000000000    0.2852700000000000 C
   0.1260800000000000    0.9375200000000000    0.2496600000000000 C
   0.1349900000000000    0.8797349999999999    0.2314000000000000 C
   0.9736200000000000    0.8426800000000000    0.2399400000000000 C
   0.9608500000000000    0.9241699999999999    0.1724800000000000 C
   0.8580000000000000    0.9248449999999999    0.1572700000000000 C
   0.8697600000000000    0.8463149999999999    0.2226000000000000 C
   0.0219300000000000    0.8823400000000000    0.2146700000000000 C
   0.5916900000000000    0.5381500000000000    0.5490400000000000 C
   0.5479400000000000    0.5653550000000001    0.4454500000000000 C
   0.3885300000000000    0.5928450000000000    0.5176500000000001 C
   0.3140900000000000    0.6194450000000000    0.4748500000000000 C
   0.4685500000000000    0.5933700000000000    0.4048900000000000 C
   0.5089399999999999    0.5649900000000000    0.5034999999999999 C
   0.6185600000000000    0.5836850000000000    0.5741800000000000 C
   0.6877799999999999    0.6116700000000000    0.5312500000000000 C
   0.8198000000000000    0.6475900000000000    0.5714900000000001 C
   0.6186800000000000    0.7106300000000000    0.5676400000000000 C
   0.6403000000000000    0.7511050000000000    0.5928200000000000 C
   0.8347599999999999    0.6905950000000000    0.5961200000000000 C
   0.7097800000000000    0.6570950000000000    0.5564300000000000 C
   0.5893800000000000    0.8210750000000000    0.2460000000000000 C
   0.9929500000000000    0.7193900000000000    0.4053200000000000 C
   0.8647500000000000    0.7447750000000000    0.4293200000000000 C
   0.5436100000000000    0.7944750000000000    0.3012800000000000 C
   0.7050400000000000    0.7662249999999999    0.3652400000000000 C
   0.7918900000000000    0.7257550000000000    0.3980700000000000 C
   0.6597000000000000    0.6899750000000000    0.3379800000000000 C
   0.8115599999999999    0.6666400000000000    0.4006900000000000 C
   0.7462299999999999    0.6491050000000000    0.3706900000000000 C
   0.6379600000000000    0.7492150000000000    0.3352400000000000 C
   0.7588200000000001    0.5672800000000000    0.7310700000000000 C
   0.6851400000000000    0.4863600000000000    0.7403999999999999 C
   0.8473100000000000    0.4800950000000000    0.6724000000000000 C
   0.8489600000000000    0.4284800000000000    0.6575000000000000 C
   0.6926800000000000    0.4342350000000000    0.7234600000000000 C
   0.7639500000000000    0.5106450000000000    0.7147000000000000 C
   0.8738899999999999    0.5624700000000000    0.7503100000000000 C
   0.8649800000000000    0.6202550000000000    0.7685500000000000 C
   0.0263600000000000    0.6572950000000000    0.7600200000000000 C
   0.0391100000000000    0.5758200000000000    0.8274899999999999 C
   0.1419700000000000    0.5751400000000000    0.8427000000000000 C
   0.1302400000000000    0.6536550000000000    0.7773400000000000 C
   0.9780400000000000    0.6176500000000000    0.7852900000000000 C
   0.7588200000000001    0.0672800000000000    0.7310700000000000 C
   0.6851400000000000    0.9863600000000000    0.7403999999999999 C
   0.8473100000000000    0.9800949999999999    0.6724000000000000 C
   0.8489600000000000    0.9284800000000000    0.6575000000000000 C
   0.6926800000000000    0.9342349999999999    0.7234600000000000 C
   0.7639500000000000    0.0106450000000000    0.7147000000000000 C
   0.8738899999999999    0.0624700000000000    0.7503100000000000 C
   0.8649800000000000    0.1202550000000000    0.7685500000000000 C
   0.0263600000000000    0.1572950000000000    0.7600200000000000 C
   0.0391100000000000    0.0758200000000000    0.8274899999999999 C
   0.1419700000000000    0.0751400000000000    0.8427000000000000 C
   0.1302400000000000    0.1536550000000000    0.7773400000000000 C
   0.9780400000000000    0.1176500000000000    0.7852900000000000 C
   0.0763000000000000    0.2957700000000000    0.0501100000000000 C
   0.1304500000000000    0.2740000000000000    0.9464399999999999 C
   0.1296900000000000    0.2544600000000000    0.0040000000000000 C
   0.1851100000000000    0.1942500000000000    0.0185600000000000 C
   0.2379000000000000    0.1570450000000000    0.9756899999999999 C
   0.1861300000000000    0.2343200000000000    0.9058200000000000 C
   0.1675900000000000    0.3092750000000000    0.0749700000000000 C
   0.2231200000000000    0.3439400000000000    0.0318500000000000 C
   0.2955600000000000    0.4098650000000000    0.0718000000000000 C
   0.4218300000000000    0.3094150000000000    0.0673500000000000 C
   0.5032700000000000    0.3202100000000000    0.0921500000000000 C
   0.3820800000000000    0.4173450000000000    0.0960000000000000 C
   0.3144100000000000    0.3549200000000000    0.0566600000000000 C
   0.4083100000000000    0.4618250000000000    0.4509100000000000 C
   0.4520400000000000    0.4346250000000000    0.5545099999999999 C
   0.6114600000000000    0.4071300000000000    0.4823000000000000 C
   0.6858900000000000    0.3805300000000000    0.5251200000000000 C
   0.5314200000000000    0.4066050000000000    0.5950700000000000 C
   0.4910500000000000    0.4349850000000000    0.4964600000000000 C
   0.3814500000000000    0.4162900000000000    0.4257800000000000 C
   0.3122000000000000    0.3883150000000000    0.4687100000000000 C
   0.1801900000000000    0.3523900000000000    0.4284800000000000 C
   0.3813100000000000    0.2893550000000000    0.4323200000000000 C
   0.3596800000000000    0.2488800000000000    0.4071400000000000 C
   0.1652200000000000    0.3093850000000000    0.4038500000000000 C
   0.2902000000000000    0.3428850000000000    0.4435300000000000 C
   0.6403400000000000    0.2946750000000000    0.7472700000000000 C
   0.4367400000000000    0.4964400000000000    0.9064900000000000 C
   0.4875300000000000    0.4323550000000000    0.9304800000000000 C
   0.5866600000000000    0.2719450000000000    0.8021700000000000 C
   0.5304600000000000    0.3525100000000000    0.8663400000000000 C
   0.4495200000000000    0.3959750000000000    0.8991500000000000 C
   0.3777100000000000    0.3302350000000000    0.8387500000000000 C
   0.3311900000000000    0.4059900000000000    0.9016400000000000 C
   0.2960000000000000    0.3735000000000000    0.8714800000000000 C
   0.4962900000000000    0.3191700000000000    0.8361499999999999 C
   0.4106000000000000    0.1789000000000000    0.7536700000000000 C
   0.0070000000000000    0.2806400000000000    0.5946000000000000 C
   0.1352100000000000    0.2552250000000000    0.5706500000000000 C
   0.4563700000000000    0.2055000000000000    0.6986900000000000 C
   0.2949300000000000    0.2337600000000000    0.6347300000000000 C
   0.2080900000000000    0.2742350000000000    0.6018900000000000 C
   0.3402800000000000    0.3100050000000000    0.6619900000000000 C
   0.1884200000000000    0.3333333333333333    0.5992800000000000 C
   0.2537600000000000    0.3508800000000000    0.6292800000000000 C
   0.3620200000000000    0.2507650000000000    0.6647200000000000 C
   0.0763000000000000    0.7957700000000000    0.0501100000000000 C
   0.1304500000000000    0.7740000000000000    0.9464399999999999 C
   0.1296900000000000    0.7544600000000000    0.0040000000000000 C
   0.1851100000000000    0.6942500000000000    0.0185600000000000 C
   0.2379000000000000    0.6570450000000000    0.9756899999999999 C
   0.1861300000000000    0.7343200000000000    0.9058200000000000 C
   0.1675900000000000    0.8092750000000000    0.0749700000000000 C
   0.2231200000000000    0.8439400000000000    0.0318500000000000 C
   0.2955600000000000    0.9098649999999999    0.0718000000000000 C
   0.4218300000000000    0.8094150000000000    0.0673500000000000 C
   0.5032700000000000    0.8202100000000000    0.0921500000000000 C
   0.3820800000000000    0.9173450000000001    0.0960000000000000 C
   0.3144100000000000    0.8549200000000000    0.0566600000000000 C
   0.4083100000000000    0.9618249999999999    0.4509100000000000 C
   0.4520400000000000    0.9346250000000000    0.5545099999999999 C
   0.6114600000000000    0.9071300000000000    0.4823000000000000 C
   0.6858900000000000    0.8805300000000000    0.5251200000000000 C
   0.5314200000000000    0.9066050000000000    0.5950700000000000 C
   0.4910500000000000    0.9349850000000000    0.4964600000000000 C