H6 O4
1.0
  31.9653239537635727    0.0000000000000000   18.3341365908228404
  10.6203475595791677   30.1545873965535698   18.3458081494752747
   0.0000000000000000    0.0000000000000000   36.8620000000000019
H O
6 4
direct
   0.8902871180861280    0.3064995252449201    0.3064468081930475 H
   0.9964002202455932    0.3066814116850199    0.3067146527438231 H
   0.9472261999552177    0.3027097409885351    0.3026981543822647 H
   0.0035832939373486    0.1933807506160779    0.1927567860363019 H
   0.1095288797964680    0.1935312679036745    0.1936796358784978 H
   0.0526170595921563    0.1974175898378686    0.1971610765384508 H
   0.9025449999999999    0.3164750000000000    0.3164450000000000 O
   0.9642700000000000    0.3165800000000000    0.3166000000000000 O
   0.0357100000000000    0.1834150000000000    0.1830000000000000 O
   0.0974350000000000    0.1835150000000000    0.1835500000000000 O
