Zn64 H194 C376 O208
1.0
  31.9653239537635727    0.0000000000000000   18.3341365908228404
  10.6203475595791677   30.1545873965535698   18.3458081494752747
   0.0000000000000000    0.0000000000000000   36.8620000000000019
Zn H C O
64 194 376 208
direct
   0.3533100000000000    0.8533500000000001    0.9401999999999999 Zn
   0.3533050000000000    0.9402200000000001    0.8533649999999999 Zn
   0.4402200000000000    0.8533200000000001    0.8533299999999999 Zn
   0.3531650000000000    0.8531599999999999    0.8531750000000000 Zn
   0.5597650000000000    0.6466750000000000    0.1466600000000000 Zn
   0.6466750000000000    0.6466450000000000    0.0597650000000000 Zn
   0.6466800000000000    0.5597750000000000    0.1466300000000000 Zn
   0.6468150000000000    0.6468350000000000    0.1468200000000000 Zn
   0.3533100000000000    0.3533500000000000    0.4402000000000000 Zn
   0.3533050000000000    0.4402200000000000    0.3533650000000000 Zn
   0.4402200000000000    0.3533200000000000    0.3533300000000000 Zn
   0.3531650000000000    0.3531600000000000    0.3531750000000000 Zn
   0.5597650000000000    0.1466750000000000    0.6466600000000000 Zn
   0.6466750000000000    0.1466450000000000    0.5597650000000000 Zn
   0.6466800000000000    0.0597750000000000    0.6466300000000000 Zn
   0.6468150000000000    0.1468350000000000    0.6468200000000000 Zn
   0.8533100000000000    0.8533500000000001    0.4402000000000000 Zn
   0.8533050000000000    0.9402200000000001    0.3533650000000000 Zn
   0.9402200000000001    0.8533200000000001    0.3533300000000000 Zn
   0.8531650000000000    0.8531599999999999    0.3531750000000000 Zn
   0.0597650000000000    0.6466750000000000    0.6466600000000000 Zn
   0.1466750000000000    0.6466450000000000    0.5597650000000000 Zn
   0.1466800000000000    0.5597750000000000    0.6466300000000000 Zn
   0.1468150000000000    0.6468350000000000    0.6468200000000000 Zn
   0.8533100000000000    0.3533500000000000    0.9401999999999999 Zn
   0.8533050000000000    0.4402200000000000    0.8533649999999999 Zn
   0.9402200000000001    0.3533200000000000    0.8533299999999999 Zn
   0.8531650000000000    0.3531600000000000    0.8531750000000000 Zn
   0.0597650000000000    0.1466750000000000    0.1466600000000000 Zn
   0.1466750000000000    0.1466450000000000    0.0597650000000000 Zn
   0.1466800000000000    0.0597750000000000    0.1466300000000000 Zn
   0.1468150000000000    0.1468350000000000    0.1468200000000000 Zn
   0.3533100000000000    0.8533500000000001    0.4402000000000000 Zn
   0.3533050000000000    0.9402200000000001    0.3533650000000000 Zn
   0.4402200000000000    0.8533200000000001    0.3533300000000000 Zn
   0.3531650000000000    0.8531599999999999    0.3531750000000000 Zn
   0.5597650000000000    0.6466750000000000    0.6466600000000000 Zn
   0.6466750000000000    0.6466450000000000    0.5597650000000000 Zn
   0.6466800000000000    0.5597750000000000    0.6466300000000000 Zn
   0.6468150000000000    0.6468350000000000    0.6468200000000000 Zn
   0.3533100000000000    0.3533500000000000    0.9401999999999999 Zn
   0.3533050000000000    0.4402200000000000    0.8533649999999999 Zn
   0.4402200000000000    0.3533200000000000    0.8533299999999999 Zn
   0.3531650000000000    0.3531600000000000    0.8531750000000000 Zn
   0.5597650000000000    0.1466750000000000    0.1466600000000000 Zn
   0.6466750000000000    0.1466450000000000    0.0597650000000000 Zn
   0.6466800000000000    0.0597750000000000    0.1466300000000000 Zn
   0.6468150000000000    0.1468350000000000    0.1468200000000000 Zn
   0.8533100000000000    0.8533500000000001    0.9401999999999999 Zn
   0.8533050000000000    0.9402200000000001    0.8533649999999999 Zn
   0.9402200000000001    0.8533200000000001    0.8533299999999999 Zn
   0.8531650000000000    0.8531599999999999    0.8531750000000000 Zn
   0.0597650000000000    0.6466750000000000    0.1466600000000000 Zn
   0.1466750000000000    0.6466450000000000    0.0597650000000000 Zn
   0.1466800000000000    0.5597750000000000    0.1466300000000000 Zn
   0.1468150000000000    0.6468350000000000    0.1468200000000000 Zn
   0.8533100000000000    0.3533500000000000    0.4402000000000000 Zn
   0.8533050000000000    0.4402200000000000    0.3533650000000000 Zn
   0.9402200000000001    0.3533200000000000    0.3533300000000000 Zn
   0.8531650000000000    0.3531600000000000    0.3531750000000000 Zn
   0.0597650000000000    0.1466750000000000    0.6466600000000000 Zn
   0.1466750000000000    0.1466450000000000    0.5597650000000000 Zn
   0.1466800000000000    0.0597750000000000    0.6466300000000000 Zn
   0.1468150000000000    0.1468350000000000    0.6468200000000000 Zn
   0.8902871180861280    0.3064995252449201    0.3064468081930475 H
   0.9964002202455932    0.3066814116850199    0.3067146527438231 H
   0.9472261999552177    0.3027097409885351    0.3026981543822647 H
   0.2740100000000000    0.9178299999999999    0.2737250000000000 H
   0.2259150000000000    0.9659949999999999    0.2256200000000000 H
   0.2740700000000000    0.0340000000000000    0.2743700000000000 H
   0.2259750000000000    0.0821650000000000    0.2262700000000000 H
   0.7740100000000000    0.4178300000000000    0.7737250000000000 H
   0.7259150000000000    0.4659950000000000    0.7256199999999999 H
   0.7740700000000000    0.5340000000000000    0.7743700000000000 H
   0.7259750000000000    0.5821650000000000    0.7262700000000000 H
   0.2740100000000000    0.4178300000000000    0.7737250000000000 H
   0.2259150000000000    0.4659950000000000    0.7256199999999999 H
   0.2740700000000000    0.5340000000000000    0.7743700000000000 H
   0.2259750000000000    0.5821650000000000    0.7262700000000000 H
   0.2740100000000000    0.9178299999999999    0.7737250000000000 H
   0.2259150000000000    0.9659949999999999    0.7256199999999999 H
   0.2740700000000000    0.0340000000000000    0.7743700000000000 H
   0.2259750000000000    0.0821650000000000    0.7262700000000000 H
   0.7740100000000000    0.4178300000000000    0.2737250000000000 H
   0.7259150000000000    0.4659950000000000    0.2256200000000000 H
   0.7740700000000000    0.5340000000000000    0.2743700000000000 H
   0.7259750000000000    0.5821650000000000    0.2262700000000000 H
   0.2740100000000000    0.4178300000000000    0.2737250000000000 H
   0.2259150000000000    0.4659950000000000    0.2256200000000000 H
   0.2740700000000000    0.5340000000000000    0.2743700000000000 H
   0.2259750000000000    0.5821650000000000    0.2262700000000000 H
   0.7740100000000000    0.9178299999999999    0.2737250000000000 H
   0.7259150000000000    0.9659949999999999    0.2256200000000000 H
   0.7740700000000000    0.0340000000000000    0.2743700000000000 H
   0.7259750000000000    0.0821650000000000    0.2262700000000000 H
   0.7740100000000000    0.9178299999999999    0.7737250000000000 H
   0.7259150000000000    0.9659949999999999    0.7256199999999999 H
   0.7740700000000000    0.0340000000000000    0.7743700000000000 H
   0.7259750000000000    0.0821650000000000    0.7262700000000000 H
   0.2259000000000000    0.7256350000000000    0.9660000000000000 H
   0.2740150000000000    0.7737200000000000    0.9178350000000000 H
   0.2259700000000000    0.7262750000000000    0.0821550000000000 H
   0.2740850000000000    0.7743599999999999    0.0339950000000000 H
   0.2259000000000000    0.2256350000000000    0.4660000000000000 H
   0.2740150000000000    0.2737200000000000    0.4178350000000000 H
   0.2259700000000000    0.2262750000000000    0.5821550000000000 H
   0.2740850000000000    0.2743600000000000    0.5339950000000000 H
   0.7259000000000000    0.2256350000000000    0.9660000000000000 H
   0.7740150000000000    0.2737200000000000    0.9178350000000000 H
   0.7259700000000000    0.2262750000000000    0.0821550000000000 H
   0.7740850000000000    0.2743600000000000    0.0339950000000000 H
   0.7259000000000000    0.7256350000000000    0.4660000000000000 H
   0.7740150000000000    0.7737200000000000    0.4178350000000000 H
   0.7259700000000000    0.7262750000000000    0.5821550000000000 H
   0.7740850000000000    0.7743599999999999    0.5339950000000000 H
   0.7259000000000000    0.5821700000000000    0.9659000000000000 H
   0.7740750000000001    0.5340600000000000    0.9178299999999999 H
   0.7740850000000000    0.4178250000000000    0.0340500000000000 H
   0.7259100000000001    0.4659350000000000    0.0821650000000000 H
   0.7259000000000000    0.0821700000000000    0.4659000000000000 H
   0.7740750000000001    0.0340600000000000    0.4178300000000000 H
   0.7740850000000000    0.9178250000000000    0.5340500000000000 H
   0.7259100000000001    0.9659350000000000    0.5821650000000000 H
   0.4659200000000000    0.5821700000000000    0.2260400000000000 H
   0.4178050000000000    0.5340750000000000    0.2742200000000000 H
   0.5821800000000000    0.4659200000000000    0.2257750000000000 H
   0.5340600000000000    0.4178200000000000    0.2739550000000000 H
   0.5821800000000000    0.7257550000000000    0.9659300000000000 H
   0.5340650000000000    0.7739350000000000    0.9178299999999999 H
   0.4659200000000000    0.7260550000000000    0.0821650000000000 H
   0.4178000000000000    0.7742400000000000    0.0340650000000000 H
   0.5340400000000000    0.7741950000000000    0.2742050000000000 H
   0.5821750000000000    0.7260949999999999    0.2261450000000000 H
   0.4178050000000000    0.7738950000000000    0.2738500000000000 H
   0.4659400000000000    0.7258000000000000    0.2257500000000000 H
   0.4659200000000000    0.0821700000000000    0.7260400000000000 H
   0.4178050000000000    0.0340750000000000    0.7742200000000000 H
   0.5821800000000000    0.9659200000000000    0.7257750000000001 H
   0.5340600000000000    0.9178200000000001    0.7739549999999999 H
   0.5821800000000000    0.2257550000000000    0.4659300000000000 H
   0.5340650000000000    0.2739350000000000    0.4178300000000000 H
   0.4659200000000000    0.2260550000000000    0.5821650000000000 H
   0.4178000000000000    0.2742400000000000    0.5340650000000000 H
   0.5340400000000000    0.2741950000000000    0.7742050000000000 H
   0.5821750000000000    0.2260950000000000    0.7261450000000000 H
   0.4178050000000000    0.2738950000000000    0.7738499999999999 H
   0.4659400000000000    0.2258000000000000    0.7257500000000000 H
   0.2259000000000000    0.5821700000000000    0.4659000000000000 H
   0.2740750000000000    0.5340600000000000    0.4178300000000000 H
   0.2740850000000000    0.4178250000000000    0.5340500000000000 H
   0.2259100000000000    0.4659350000000000    0.5821650000000000 H
   0.2259000000000000    0.0821700000000000    0.9659000000000000 H
   0.2740750000000000    0.0340600000000000    0.9178299999999999 H
   0.2740850000000000    0.9178250000000000    0.0340500000000000 H
   0.2259100000000000    0.9659350000000000    0.0821650000000000 H
   0.9659200000000000    0.5821700000000000    0.7260400000000000 H
   0.9178050000000000    0.5340750000000000    0.7742200000000000 H
   0.0821800000000000    0.4659200000000000    0.7257750000000001 H
   0.0340600000000000    0.4178200000000000    0.7739549999999999 H
   0.0821800000000000    0.7257550000000000    0.4659300000000000 H
   0.0340650000000000    0.7739350000000000    0.4178300000000000 H
   0.9659200000000000    0.7260550000000000    0.5821650000000000 H
   0.9177999999999999    0.7742400000000000    0.5340650000000000 H
   0.0340400000000000    0.7741950000000000    0.7742050000000000 H
   0.0821750000000000    0.7260949999999999    0.7261450000000000 H
   0.9178050000000000    0.7738950000000000    0.7738499999999999 H
   0.9659400000000000    0.7258000000000000    0.7257500000000000 H
   0.9659200000000000    0.0821700000000000    0.2260400000000000 H
   0.9178050000000000    0.0340750000000000    0.2742200000000000 H
   0.0821800000000000    0.9659200000000000    0.2257750000000000 H
   0.0340600000000000    0.9178200000000001    0.2739550000000000 H
   0.0821800000000000    0.2257550000000000    0.9659300000000000 H
   0.0340650000000000    0.2739350000000000    0.9178299999999999 H
   0.9659200000000000    0.2260550000000000    0.0821650000000000 H
   0.9177999999999999    0.2742400000000000    0.0340650000000000 H
   0.0035832939373486    0.1933807506160779    0.1927567860363019 H
   0.1095288797964680    0.1935312679036745    0.1936796358784978 H
   0.0526170595921563    0.1974175898378686    0.1971610765384508 H
   0.2259000000000000    0.7256350000000000    0.4660000000000000 H
   0.2740150000000000    0.7737200000000000    0.4178350000000000 H
   0.2259700000000000    0.7262750000000000    0.5821550000000000 H
   0.2740850000000000    0.7743599999999999    0.5339950000000000 H
   0.2259000000000000    0.2256350000000000    0.9660000000000000 H
   0.2740150000000000    0.2737200000000000    0.9178350000000000 H
   0.2259700000000000    0.2262750000000000    0.0821550000000000 H
   0.2740850000000000    0.2743600000000000    0.0339950000000000 H
   0.7259000000000000    0.2256350000000000    0.4660000000000000 H
   0.7740150000000000    0.2737200000000000    0.4178350000000000 H
   0.7259700000000000    0.2262750000000000    0.5821550000000000 H
   0.7740850000000000    0.2743600000000000    0.5339950000000000 H
   0.7259000000000000    0.7256350000000000    0.9660000000000000 H
   0.7740150000000000    0.7737200000000000    0.9178350000000000 H
   0.7259700000000000    0.7262750000000000    0.0821550000000000 H
   0.7740850000000000    0.7743599999999999    0.0339950000000000 H
   0.7259000000000000    0.5821700000000000    0.4659000000000000 H
   0.7740750000000001    0.5340600000000000    0.4178300000000000 H
   0.7740850000000000    0.4178250000000000    0.5340500000000000 H
   0.7259100000000001    0.4659350000000000    0.5821650000000000 H
   0.7259000000000000    0.0821700000000000    0.9659000000000000 H
   0.7740750000000001    0.0340600000000000    0.9178299999999999 H
   0.7740850000000000    0.9178250000000000    0.0340500000000000 H
   0.7259100000000001    0.9659350000000000    0.0821650000000000 H
   0.4659200000000000    0.5821700000000000    0.7260400000000000 H
   0.4178050000000000    0.5340750000000000    0.7742200000000000 H
   0.5821800000000000    0.4659200000000000    0.7257750000000001 H
   0.5340600000000000    0.4178200000000000    0.7739549999999999 H
   0.5821800000000000    0.7257550000000000    0.4659300000000000 H
   0.5340650000000000    0.7739350000000000    0.4178300000000000 H
   0.4659200000000000    0.7260550000000000    0.5821650000000000 H
   0.4178000000000000    0.7742400000000000    0.5340650000000000 H
   0.5340400000000000    0.7741950000000000    0.7742050000000000 H
   0.5821750000000000    0.7260949999999999    0.7261450000000000 H
   0.4178050000000000    0.7738950000000000    0.7738499999999999 H
   0.4659400000000000    0.7258000000000000    0.7257500000000000 H
   0.4659200000000000    0.0821700000000000    0.2260400000000000 H
   0.4178050000000000    0.0340750000000000    0.2742200000000000 H
   0.5821800000000000    0.9659200000000000    0.2257750000000000 H
   0.5340600000000000    0.9178200000000001    0.2739550000000000 H
   0.5821800000000000    0.2257550000000000    0.9659300000000000 H
   0.5340650000000000    0.2739350000000000    0.9178299999999999 H
   0.4659200000000000    0.2260550000000000    0.0821650000000000 H
   0.4178000000000000    0.2742400000000000    0.0340650000000000 H
   0.5340400000000000    0.2741950000000000    0.2742050000000000 H
   0.5821750000000000    0.2260950000000000    0.2261450000000000 H
   0.4178050000000000    0.2738950000000000    0.2738500000000000 H
   0.4659400000000000    0.2258000000000000    0.2257500000000000 H
   0.2259000000000000    0.5821700000000000    0.9659000000000000 H
   0.2740750000000000    0.5340600000000000    0.9178299999999999 H
   0.2740850000000000    0.4178250000000000    0.0340500000000000 H
   0.2259100000000000    0.4659350000000000    0.0821650000000000 H
   0.2259000000000000    0.0821700000000000    0.4659000000000000 H
   0.2740750000000000    0.0340600000000000    0.4178300000000000 H
   0.2740850000000000    0.9178250000000000    0.5340500000000000 H
   0.2259100000000000    0.9659350000000000    0.5821650000000000 H
   0.9659200000000000    0.5821700000000000    0.2260400000000000 H
   0.9178050000000000    0.5340750000000000    0.2742200000000000 H
   0.0821800000000000    0.4659200000000000    0.2257750000000000 H
   0.0340600000000000    0.4178200000000000    0.2739550000000000 H
   0.0821800000000000    0.7257550000000000    0.9659300000000000 H
   0.0340650000000000    0.7739350000000000    0.9178299999999999 H
   0.9659200000000000    0.7260550000000000    0.0821650000000000 H
   0.9177999999999999    0.7742400000000000    0.0340650000000000 H
   0.0340400000000000    0.7741950000000000    0.2742050000000000 H
   0.0821750000000000    0.7260949999999999    0.2261450000000000 H
   0.9178050000000000    0.7738950000000000    0.2738500000000000 H
   0.9659400000000000    0.7258000000000000    0.2257500000000000 H
   0.9659200000000000    0.0821700000000000    0.7260400000000000 H
   0.9178050000000000    0.0340750000000000    0.7742200000000000 H
   0.0821800000000000    0.9659200000000000    0.7257750000000001 H
   0.0340600000000000    0.9178200000000001    0.7739549999999999 H
   0.0821800000000000    0.2257550000000000    0.4659300000000000 H
   0.0340650000000000    0.2739350000000000    0.4178300000000000 H
   0.9659200000000000    0.2260550000000000    0.5821650000000000 H
   0.9177999999999999    0.2742400000000000    0.5340650000000000 H
   0.0340400000000000    0.2741950000000000    0.7742050000000000 H
   0.0821750000000000    0.2260950000000000    0.7261450000000000 H
   0.9178050000000000    0.2738950000000000    0.7738499999999999 H
   0.9659400000000000    0.2258000000000000    0.7257500000000000 H
   0.1945200000000000    0.0555450000000000    0.1900000000000000 C
   0.3054600000000000    0.9444500000000000    0.3050000000000000 C
   0.2632900000000000    0.9538249999999999    0.2631400000000000 C
   0.2366550000000000    0.9805100000000000    0.2364900000000000 C
   0.2768000000000000    0.9731350000000000    0.2768250000000000 C
   0.2633300000000000    0.0194850000000000    0.2635050000000000 C
   0.2366950000000000    0.0461700000000000    0.2368500000000000 C
   0.2231800000000000    0.0268550000000000    0.2231700000000000 C
   0.6945200000000000    0.5555450000000000    0.6899999999999999 C
   0.8054600000000001    0.4444500000000000    0.8049999999999999 C
   0.7632900000000000    0.4538250000000000    0.7631399999999999 C
   0.7366550000000001    0.4805100000000000    0.7364900000000000 C
   0.7767999999999999    0.4731350000000000    0.7768250000000000 C
   0.7633300000000001    0.5194850000000000    0.7635050000000000 C
   0.7366950000000000    0.5461700000000000    0.7368500000000000 C
   0.7231799999999999    0.5268550000000000    0.7231700000000000 C
   0.1945200000000000    0.5555450000000000    0.6899999999999999 C
   0.3054600000000000    0.4444500000000000    0.8049999999999999 C
   0.2632900000000000    0.4538250000000000    0.7631399999999999 C
   0.2366550000000000    0.4805100000000000    0.7364900000000000 C
   0.2768000000000000    0.4731350000000000    0.7768250000000000 C
   0.2633300000000000    0.5194850000000000    0.7635050000000000 C
   0.2366950000000000    0.5461700000000000    0.7368500000000000 C
   0.2231800000000000    0.5268550000000000    0.7231700000000000 C
   0.1945200000000000    0.0555450000000000    0.6899999999999999 C
   0.3054600000000000    0.9444500000000000    0.8049999999999999 C
   0.2632900000000000    0.9538249999999999    0.7631399999999999 C
   0.2366550000000000    0.9805100000000000    0.7364900000000000 C
   0.2768000000000000    0.9731350000000000    0.7768250000000000 C
   0.2633300000000000    0.0194850000000000    0.7635050000000000 C
   0.2366950000000000    0.0461700000000000    0.7368500000000000 C
   0.2231800000000000    0.0268550000000000    0.7231700000000000 C
   0.6945200000000000    0.5555450000000000    0.1900000000000000 C
   0.8054600000000001    0.4444500000000000    0.3050000000000000 C
   0.7632900000000000    0.4538250000000000    0.2631400000000000 C
   0.7366550000000001    0.4805100000000000    0.2364900000000000 C
   0.7767999999999999    0.4731350000000000    0.2768250000000000 C
   0.7633300000000001    0.5194850000000000    0.2635050000000000 C
   0.7366950000000000    0.5461700000000000    0.2368500000000000 C
   0.7231799999999999    0.5268550000000000    0.2231700000000000 C
   0.1945200000000000    0.5555450000000000    0.1900000000000000 C
   0.3054600000000000    0.4444500000000000    0.3050000000000000 C
   0.2632900000000000    0.4538250000000000    0.2631400000000000 C
   0.2366550000000000    0.4805100000000000    0.2364900000000000 C
   0.2768000000000000    0.4731350000000000    0.2768250000000000 C
   0.2633300000000000    0.5194850000000000    0.2635050000000000 C
   0.2366950000000000    0.5461700000000000    0.2368500000000000 C
   0.2231800000000000    0.5268550000000000    0.2231700000000000 C
   0.6945200000000000    0.0555450000000000    0.1900000000000000 C
   0.8054600000000001    0.9444500000000000    0.3050000000000000 C
   0.7632900000000000    0.9538249999999999    0.2631400000000000 C
   0.7366550000000001    0.9805100000000000    0.2364900000000000 C
   0.7767999999999999    0.9731350000000000    0.2768250000000000 C
   0.7633300000000001    0.0194850000000000    0.2635050000000000 C
   0.7366950000000000    0.0461700000000000    0.2368500000000000 C
   0.7231799999999999    0.0268550000000000    0.2231700000000000 C
   0.6945200000000000    0.0555450000000000    0.6899999999999999 C
   0.8054600000000001    0.9444500000000000    0.8049999999999999 C
   0.7632900000000000    0.9538249999999999    0.7631399999999999 C
   0.7366550000000001    0.9805100000000000    0.7364900000000000 C
   0.7767999999999999    0.9731350000000000    0.7768250000000000 C
   0.7633300000000001    0.0194850000000000    0.7635050000000000 C
   0.7366950000000000    0.0461700000000000    0.7368500000000000 C
   0.7231799999999999    0.0268550000000000    0.7231700000000000 C
   0.3054850000000000    0.8054700000000000    0.9444500000000000 C
   0.1945000000000000    0.6945250000000001    0.0555350000000000 C
   0.2366450000000000    0.7364950000000000    0.9805100000000000 C
   0.2632950000000000    0.7631350000000000    0.9538300000000000 C
   0.2768150000000000    0.7768100000000000    0.9731400000000000 C
   0.2366900000000000    0.7368550000000000    0.0461650000000000 C
   0.2633350000000000    0.7635000000000001    0.0194850000000000 C
   0.2231700000000000    0.7231850000000000    0.0268500000000000 C
   0.3054850000000000    0.3054700000000000    0.4444500000000000 C
   0.1945000000000000    0.1945250000000000    0.5555350000000000 C
   0.2366450000000000    0.2364950000000000    0.4805100000000000 C
   0.2632950000000000    0.2631350000000000    0.4538300000000000 C
   0.2768150000000000    0.2768100000000000    0.4731400000000000 C
   0.2366900000000000    0.2368550000000000    0.5461650000000000 C
   0.2633350000000000    0.2635000000000000    0.5194850000000000 C
   0.2231700000000000    0.2231850000000000    0.5268500000000000 C
   0.8054850000000000    0.3054700000000000    0.9444500000000000 C
   0.6945000000000000    0.1945250000000000    0.0555350000000000 C
   0.7366450000000000    0.2364950000000000    0.9805100000000000 C
   0.7632950000000001    0.2631350000000000    0.9538300000000000 C
   0.7768150000000000    0.2768100000000000    0.9731400000000000 C
   0.7366900000000001    0.2368550000000000    0.0461650000000000 C
   0.7633350000000000    0.2635000000000000    0.0194850000000000 C
   0.7231700000000000    0.2231850000000000    0.0268500000000000 C
   0.8054850000000000    0.8054700000000000    0.4444500000000000 C
   0.6945000000000000    0.6945250000000001    0.5555350000000000 C
   0.7366450000000000    0.7364950000000000    0.4805100000000000 C
   0.7632950000000001    0.7631350000000000    0.4538300000000000 C
   0.7768150000000000    0.7768100000000000    0.4731400000000000 C
   0.7366900000000001    0.7368550000000000    0.5461650000000000 C
   0.7633350000000000    0.7635000000000001    0.5194850000000000 C
   0.7231700000000000    0.7231850000000000    0.5268500000000000 C
   0.8055749999999999    0.4445250000000000    0.9445600000000001 C
   0.6944150000000000    0.5554650000000000    0.0554350000000000 C
   0.7366500000000000    0.5461750000000000    0.9800000000000000 C
   0.7633300000000001    0.5195300000000000    0.9538249999999999 C
   0.7633350000000000    0.4538200000000000    0.0195450000000000 C
   0.7366550000000001    0.4804650000000000    0.0461700000000000 C
   0.7768450000000000    0.4731800000000000    0.9732050000000000 C
   0.7231400000000000    0.5268100000000000    0.0267900000000000 C
   0.8055749999999999    0.9445250000000001    0.4445600000000000 C
   0.6944150000000000    0.0554650000000000    0.5554350000000000 C
   0.7366500000000000    0.0461750000000000    0.4800000000000000 C
   0.7633300000000001    0.0195300000000000    0.4538250000000000 C
   0.7633350000000000    0.9538200000000000    0.5195450000000000 C
   0.7366550000000001    0.9804649999999999    0.5461700000000000 C
   0.7768450000000000    0.9731799999999999    0.4732050000000000 C
   0.7231400000000000    0.0268100000000000    0.5267900000000000 C
   0.5554700000000000    0.5554550000000000    0.1943950000000000 C
   0.4445100000000000    0.4445400000000000    0.3055950000000000 C
   0.4804550000000000    0.5461750000000000    0.2367300000000000 C
   0.4538050000000000    0.5195350000000000    0.2634150000000000 C
   0.4731700000000000    0.4731900000000000    0.2768550000000000 C
   0.5461800000000000    0.4804550000000000    0.2365800000000000 C
   0.5195300000000000    0.4538200000000000    0.2632650000000000 C
   0.5268100000000000    0.5268000000000000    0.2231000000000000 C
   0.4445150000000000    0.8055850000000000    0.9445450000000000 C
   0.5554700000000000    0.6944100000000000    0.0554500000000000 C
   0.5461800000000000    0.7365699999999999    0.9804600000000000 C
   0.5195350000000000    0.7632550000000000    0.9538249999999999 C
   0.5268100000000000    0.7231400000000000    0.0268000000000000 C
   0.4804500000000000    0.7367400000000000    0.0461700000000000 C
   0.4538050000000000    0.7634250000000000    0.0195350000000000 C
   0.4731750000000000    0.7768500000000000    0.9731950000000000 C
   0.4444550000000000    0.8054850000000000    0.3054650000000000 C
   0.5555250000000000    0.6945100000000000    0.1945250000000000 C
   0.5195050000000000    0.7634099999999999    0.2634100000000000 C
   0.5461750000000000    0.7367550000000000    0.2367850000000000 C
   0.5268500000000000    0.7231700000000000    0.2231900000000000 C
   0.4538100000000000    0.7632399999999999    0.2632000000000000 C
   0.4804800000000000    0.7365850000000000    0.2365850000000000 C
   0.4731350000000000    0.7768250000000000    0.2768000000000000 C
   0.5554700000000000    0.0554550000000000    0.6943950000000000 C
   0.4445100000000000    0.9445399999999999    0.8055950000000001 C
   0.4804550000000000    0.0461750000000000    0.7367300000000000 C
   0.4538050000000000    0.0195350000000000    0.7634150000000000 C
   0.4731700000000000    0.9731900000000000    0.7768550000000001 C
   0.5461800000000000    0.9804550000000001    0.7365800000000000 C
   0.5195300000000000    0.9538200000000000    0.7632650000000001 C
   0.5268100000000000    0.0268000000000000    0.7231000000000000 C
   0.4445150000000000    0.3055850000000000    0.4445450000000000 C
   0.5554700000000000    0.1944100000000000    0.5554500000000000 C
   0.5461800000000000    0.2365700000000000    0.4804600000000000 C
   0.5195350000000000    0.2632550000000000    0.4538250000000000 C
   0.5268100000000000    0.2231400000000000    0.5268000000000000 C
   0.4804500000000000    0.2367400000000000    0.5461700000000000 C
   0.4538050000000000    0.2634250000000000    0.5195350000000000 C
   0.4731750000000000    0.2768500000000000    0.4731950000000000 C
   0.4444550000000000    0.3054850000000000    0.8054650000000000 C
   0.5555250000000000    0.1945100000000000    0.6945250000000001 C
   0.5195050000000000    0.2634100000000000    0.7634099999999999 C
   0.5461750000000000    0.2367550000000000    0.7367850000000000 C
   0.5268500000000000    0.2231700000000000    0.7231900000000000 C
   0.4538100000000000    0.2632400000000000    0.7632000000000000 C
   0.4804800000000000    0.2365850000000000    0.7365850000000000 C
   0.4731350000000000    0.2768250000000000    0.7767999999999999 C
   0.3055750000000000    0.4445250000000000    0.4445600000000000 C
   0.1944150000000000    0.5554650000000000    0.5554350000000000 C
   0.2366500000000000    0.5461750000000000    0.4800000000000000 C
   0.2633300000000000    0.5195300000000000    0.4538250000000000 C
   0.2633350000000000    0.4538200000000000    0.5195450000000000 C
   0.2366550000000000    0.4804650000000000    0.5461700000000000 C
   0.2768450000000000    0.4731800000000000    0.4732050000000000 C
   0.2231400000000000    0.5268100000000000    0.5267900000000000 C
   0.3055750000000000    0.9445250000000001    0.9445600000000001 C
   0.1944150000000000    0.0554650000000000    0.0554350000000000 C
   0.2366500000000000    0.0461750000000000    0.9800000000000000 C
   0.2633300000000000    0.0195300000000000    0.9538249999999999 C
   0.2633350000000000    0.9538200000000000    0.0195450000000000 C
   0.2366550000000000    0.9804649999999999    0.0461700000000000 C
   0.2768450000000000    0.9731799999999999    0.9732050000000000 C
   0.2231400000000000    0.0268100000000000    0.0267900000000000 C
   0.0554700000000000    0.5554550000000000    0.6943950000000000 C
   0.9445100000000000    0.4445400000000000    0.8055950000000001 C