H4 C12 N4
1.0
  21.8359980843317452    0.0000000000000000   -0.0091466420236929
  -0.0747496602121962   34.5939761208006189  -19.5357280294790883
   0.0000000000000000    0.0000000000000000   39.7199999999999989
H C N
4 12 4
direct
   0.0549900000000000    0.4754033333333333    0.6041666666666666 H
   0.9452800000000000    0.4614266666666667    0.6042566666666667 H
   0.9450300000000000    0.5246266666666666    0.7291599999999999 H
   0.0547400000000000    0.5386033333333333    0.7290866666666667 H
   0.0308800000000000    0.4861600000000000    0.6315866666666666 C
   0.1610100000000000    0.5030266666666666    0.6322699999999999 C
   0.9692800000000000    0.4783766666666667    0.6316299999999999 C
   0.8392400000000000    0.4620933333333333    0.6324700000000000 C
   0.1281200000000000    0.5162366666666667    0.6666000000000000 C
   0.0635000000000000    0.5080133333333333    0.6666000000000000 C
   0.9691500000000000    0.5138700000000000    0.7017566666666666 C
   0.8390100000000000    0.4970033333333333    0.7010733333333333 C
   0.0307400000000000    0.5216566666666667    0.7017099999999999 C
   0.1607900000000000    0.5379400000000000    0.7008666666666666 C
   0.8719000000000000    0.4837933333333333    0.6667400000000000 C
   0.9365300000000000    0.4920133333333333    0.6667000000000000 C
   0.1876300000000000    0.4924300000000000    0.6030566666666666 N
   0.8127900000000000    0.4429733333333333    0.6033366666666666 N
   0.8123899999999999    0.5076000000000001    0.7302833333333333 N
   0.1872300000000000    0.5570566666666666    0.7300033333333333 N
