H3 O3
1.0
  15.5887142891856598    0.0000000000000000    4.9010476237370808
  -7.7368557620816745   14.9668013968380684    6.5536251696560761
   0.0000000000000000    0.0000000000000000   18.0659999999999989
H O
3 3
direct
   0.3967781751766294    0.3792099727133146    0.4712105347278537 H
   0.0232787219547837    0.0987459584460490    0.5692118895307791 H
   0.9018328235770959    1.0169360327385484    0.6275917748912789 H
   0.3882000000000000    0.4148900000000000    0.4999100000000000 O
   0.0650800000000000    0.0941900000000000    0.5211300000000000 O
   0.8879000000000000    0.9763200000000000    0.6040000000000000 O
