H8 C14 O4
1.0
  34.4166970379246777    0.0000000000000000    1.8428567496435726
   0.3165868240558981   34.4553798785998566    1.9505676620436261
   0.0000000000000000    0.0000000000000000   34.8140000000000001
H C O
8 14 4
direct
   0.9153500000000000    0.5795250000000000    0.6913549999999999 H
   0.9190400000000001    0.6514750000000000    0.6917800000000001 H
   0.9683349999999999    0.6555550000000000    0.5751900000000000 H
   0.9659300000000000    0.5835300000000000    0.5757550000000000 H
   0.9646600000000001    0.7042250000000000    0.6898950000000000 H
   0.9604699999999999    0.7762600000000000    0.6901600000000000 H
   0.9150700000000001    0.7810850000000000    0.5774900000000001 H
   0.9204900000000000    0.7091800000000000    0.5762150000000000 H
   0.9358750000000000    0.5342050000000000    0.6328750000000000 C
   0.9398250000000000    0.5771650000000000    0.6333750000000000 C
   0.9272500000000000    0.5964900000000000    0.6662300000000000 C
   0.9295300000000000    0.6366499999999999    0.6663500000000000 C
   0.9434549999999999    0.6587000000000001    0.6333400000000000 C
   0.9565399999999999    0.6390200000000000    0.6007000000000000 C
   0.9552600000000000    0.5987200000000000    0.6008450000000000 C
   0.9427600000000000    0.7015500000000000    0.6330550000000000 C
   0.9538100000000000    0.7209900000000000    0.6651549999999999 C
   0.9515500000000000    0.7612250000000000    0.6654599999999999 C
   0.9372900000000000    0.7831049999999999    0.6339600000000000 C
   0.9263399999999999    0.7640000000000000    0.6017650000000000 C
   0.9295949999999999    0.7238249999999999    0.6011350000000000 C
   0.9334650000000000    0.8261550000000000    0.6349850000000000 C
   0.9534300000000000    0.5175650000000001    0.6049150000000000 O
   0.9149250000000000    0.5175450000000000    0.6602399999999999 O
   0.9136850000000001    0.8435500000000000    0.6090300000000000 O
   0.9501750000000000    0.8420350000000000    0.6619450000000000 O
